********************************************************************************
Field Output Report, written Wed May 29 00:59:17 2024

Source 1
---------

   ODB: G:/Abaqus_calc_2019/1740/Vel_5/odb/zeides_2a_32_red_2500_cal_30_vel_5_fric_0100.odb
   Step: Step-1
   Frame: Increment  42340223: Step Time =    3.539

Loc 1 : Nodal values from source 1

Output sorted by column "Nodal Label".

Field Output reported at nodes for region: DIE_2A_32_D0_36-1.Region_1
   Computation algorithm: EXTRAPOLATE_COMPUTE_AVERAGE
   Averaged at nodes
   Averaging regions: ODB_REGIONS

      Node Label     COORD.COOR1     COORD.COOR2
                          @Loc 1          @Loc 1
-------------------------------------------------
               1     17.2211E-03     209.721E-03


Field Output reported at nodes for region: DIE_2A_32_D0_36-1.Region_2
   Computation algorithm: EXTRAPOLATE_COMPUTE_AVERAGE
   Averaged at nodes
   Averaging regions: ODB_REGIONS

      Node Label     COORD.COOR1     COORD.COOR2
                          @Loc 1          @Loc 1
-------------------------------------------------
               1     17.2211E-03     209.721E-03


Field Output reported at nodes for part: WIRE-1
   Computation algorithm: EXTRAPOLATE_COMPUTE_AVERAGE
   Averaged at nodes
   Averaging regions: ODB_REGIONS

      Node Label     COORD.COOR1     COORD.COOR2           S.S11           S.S22           S.S33           S.S12         PE.PE11         PE.PE22         PE.PE33         PE.PE12         LE.LE11         LE.LE22         LE.LE33         LE.LE12
                          @Loc 1          @Loc 1          @Loc 1          @Loc 1          @Loc 1          @Loc 1          @Loc 1          @Loc 1          @Loc 1          @Loc 1          @Loc 1          @Loc 1          @Loc 1          @Loc 1
-------------------------------------------------------------------------------------------------------------------------------------------------------------------------------------------------------------------------------------------------
               1    -46.6297E-09     96.6473E-03    -116.494E+06    -174.518E+06    -115.480E+06     55.0397E+03    -295.430E-03     590.444E-03    -295.014E-03     14.2322E-03    -295.629E-03     589.946E-03    -295.170E-03     11.3033E-03
               2     13.3991E-03     101.454E-03    -4.70805E+06     48.1953E+06     75.8361E+06    -3.21710E+06    -301.109E-03     596.454E-03    -295.345E-03     141.991E-03    -304.591E-03     599.870E-03    -295.029E-03     114.108E-03
               3     13.4741E-03     200.798E-03    -74.4542E+06     96.1966E+06     44.4088E+06    -64.4360E+06     98.7813E-03     200.249E-03    -299.030E-03     27.0515E-03     98.7015E-03     201.275E-03    -298.839E-03     26.1996E-03
               4    -30.1632E-06     193.624E-03    -84.3966E+06    -66.1519E+06    -123.192E+06    -17.7124E+06    -304.277E-03     640.432E-03    -336.155E-03    -103.458E-03    -305.779E-03     638.826E-03    -336.553E-03    -105.775E-03
               5     171.224E-09    -19.7203E-15    -60.3140E+06    -119.198E+06    -60.2681E+06     1.22990E+06    -240.418E-03     481.645E-03    -241.227E-03     1.04305E-03    -240.458E-03     481.224E-03    -241.268E-03     892.163E-06
               6     13.1329E-03    -19.7203E-15     6.28216E+06     76.0612E+06     77.5650E+06    -992.111E+03    -711.180E-03         1.01086    -299.675E-03     354.269E-03    -725.401E-03         1.02517    -299.406E-03     250.337E-03
               7     669.859E-06     96.6674E-03    -114.934E+06    -171.843E+06    -112.456E+06     104.631E+03    -295.455E-03     590.596E-03    -295.141E-03     23.5818E-03    -295.729E-03     590.178E-03    -295.287E-03     18.9431E-03
               8     1.33973E-03     96.7166E-03    -111.361E+06    -165.342E+06    -103.585E+06    -125.583E+03    -295.614E-03     590.918E-03    -295.304E-03     43.2013E-03    -296.120E-03     590.742E-03    -295.421E-03     34.8371E-03
               9     2.00947E-03     96.7969E-03    -106.878E+06    -156.377E+06    -90.4723E+06    -201.690E+03    -295.968E-03     591.345E-03    -295.377E-03     63.8377E-03    -296.863E-03     591.568E-03    -295.448E-03     51.4806E-03
              10     2.67902E-03     96.9087E-03    -101.024E+06    -146.078E+06    -74.5807E+06     47.9454E+03    -296.443E-03     591.895E-03    -295.452E-03     84.5213E-03    -297.874E-03     592.666E-03    -295.467E-03     68.1767E-03
              11     3.34878E-03     97.0514E-03    -94.0859E+06    -134.084E+06    -57.7577E+06     172.930E+03    -297.029E-03     592.552E-03    -295.523E-03     105.106E-03    -299.140E-03     594.020E-03    -295.481E-03     84.7741E-03
              12     4.01856E-03     97.2250E-03    -86.8379E+06    -97.5720E+06    -41.6001E+06     232.484E+03    -297.667E-03     593.213E-03    -295.546E-03     125.402E-03    -300.622E-03     595.634E-03    -295.487E-03     101.174E-03
              13     4.68845E-03     97.4288E-03    -79.2599E+06    -54.5897E+06    -25.0011E+06     227.067E+03    -298.376E-03     593.928E-03    -295.552E-03     145.101E-03    -302.290E-03     597.439E-03    -295.483E-03     117.118E-03
              14     5.35800E-03     97.6621E-03    -71.2208E+06    -35.7804E+06    -8.67769E+06     37.1914E+03    -299.264E-03     594.850E-03    -295.585E-03     163.917E-03    -304.179E-03     599.410E-03    -295.474E-03     132.363E-03
              15     6.02801E-03     97.9233E-03    -62.9048E+06    -25.0775E+06     6.04973E+06    -203.076E+03    -300.312E-03     595.938E-03    -295.627E-03     181.418E-03    -306.241E-03     601.538E-03    -295.469E-03     146.562E-03
              16     6.69751E-03     98.2106E-03    -55.7627E+06    -16.0392E+06     18.3174E+06    -219.107E+03    -301.395E-03     597.064E-03    -295.670E-03     196.958E-03    -308.303E-03     603.665E-03    -295.474E-03     159.164E-03
              17     7.36714E-03     98.5204E-03    -49.0170E+06     -7.9821E+06     28.3417E+06    -25.7520E+03    -302.349E-03     598.058E-03    -295.709E-03     210.104E-03    -310.119E-03     605.543E-03    -295.485E-03     169.881E-03
              18     8.03669E-03     98.8487E-03    -42.3804E+06    -289.452E+03     38.4494E+06     260.186E+03    -303.059E-03     598.803E-03    -295.744E-03     220.570E-03    -311.524E-03     607.005E-03    -295.490E-03     178.469E-03
              19     8.70655E-03     99.1911E-03    -36.0323E+06     6.04628E+06      48.649E+06     296.047E+03    -303.487E-03     599.259E-03    -295.772E-03     227.769E-03    -312.451E-03     607.975E-03    -295.485E-03     184.253E-03
              20     9.37661E-03     99.5406E-03    -28.9229E+06     13.0155E+06     57.5273E+06     261.246E+03    -303.839E-03     599.623E-03    -295.784E-03     232.282E-03    -313.070E-03     608.630E-03    -295.473E-03     187.905E-03
              21     10.0457E-03     99.8970E-03    -22.6144E+06     20.5093E+06     63.9123E+06     572.288E+03    -303.579E-03     599.344E-03    -295.766E-03     234.038E-03    -312.826E-03     608.398E-03    -295.443E-03     189.494E-03
              22     10.7163E-03     100.248E-03    -17.8220E+06     26.0993E+06     66.2136E+06     1.55923E+06    -302.385E-03     598.061E-03    -295.676E-03     233.767E-03    -311.436E-03     606.950E-03    -295.357E-03     189.784E-03
              23     11.3895E-03     100.596E-03    -12.6304E+06     31.5698E+06     63.6730E+06     2.34388E+06    -300.587E-03     596.076E-03    -295.489E-03     226.064E-03    -308.889E-03     604.260E-03    -295.198E-03     184.174E-03
              24     12.0645E-03     100.915E-03    -7.17225E+06     44.0242E+06     70.0723E+06     1.69609E+06    -300.548E-03     595.881E-03    -295.334E-03     218.734E-03    -308.457E-03     603.718E-03    -295.037E-03     177.408E-03
              25     12.7329E-03     101.238E-03    -4.74753E+06     50.7035E+06     77.3756E+06    -1.11767E+06    -301.342E-03     596.663E-03    -295.321E-03     180.445E-03    -307.146E-03     602.406E-03    -295.001E-03     145.308E-03
              26     13.3989E-03     103.174E-03    -1.96158E+06     50.3447E+06     76.3596E+06    -660.962E+03    -300.605E-03     596.025E-03    -295.420E-03     142.166E-03    -303.958E-03     599.328E-03    -295.109E-03     115.210E-03
              27     13.4005E-03     104.886E-03    -547.393E+03     51.7896E+06     79.6648E+06     2.10988E+06    -299.679E-03     595.352E-03    -295.673E-03     138.293E-03    -302.907E-03     598.531E-03    -295.349E-03     111.975E-03
              28     13.3858E-03     106.603E-03    -5.63862E+06     46.3056E+06     74.9772E+06     1.24760E+06    -300.153E-03     596.077E-03    -295.924E-03     143.022E-03    -303.456E-03     599.306E-03    -295.608E-03     116.734E-03
              29     13.4002E-03     108.313E-03     933.303E+03     52.4877E+06     77.9597E+06     840.013E+03    -295.865E-03     591.727E-03    -295.863E-03     148.498E-03    -299.294E-03     595.120E-03    -295.550E-03     122.004E-03
              30     13.3955E-03     110.015E-03      -374.1E+03     52.1350E+06     80.5970E+06     406.490E+03    -297.645E-03     593.473E-03    -295.828E-03     141.434E-03    -301.072E-03     596.850E-03    -295.500E-03     114.241E-03
              31     13.3895E-03     111.735E-03    -6.83903E+06     45.3872E+06     74.2478E+06    -890.415E+03    -299.061E-03     594.933E-03    -295.872E-03     142.458E-03    -302.502E-03     598.295E-03    -295.557E-03     115.219E-03
              32     13.4014E-03     113.436E-03     894.952E+03     52.7409E+06     78.7839E+06    -1.99083E+06    -296.137E-03     591.895E-03    -295.758E-03     144.131E-03    -299.586E-03     595.306E-03    -295.442E-03     116.964E-03
              33     13.3937E-03     115.153E-03    -2.71387E+06     49.6810E+06     77.3466E+06     853.982E+03    -298.147E-03     593.854E-03    -295.708E-03     140.236E-03    -301.491E-03     597.141E-03    -295.389E-03     113.431E-03
              34     13.3970E-03     116.866E-03    -4.32741E+06     48.0381E+06     76.3169E+06     1.64261E+06    -298.845E-03     594.592E-03    -295.747E-03     142.407E-03    -302.200E-03     597.881E-03    -295.429E-03     115.734E-03
              35     13.3955E-03     118.574E-03     91.0188E+03     52.6265E+06     80.6849E+06     45.0145E+03    -297.380E-03     593.051E-03    -295.671E-03     143.510E-03    -300.824E-03     596.449E-03    -295.344E-03     116.294E-03
              36     13.4015E-03     120.285E-03    -639.784E+03     52.0804E+06     80.0261E+06    -3.71299E+06    -297.906E-03     593.433E-03    -295.527E-03     144.009E-03    -301.435E-03     596.913E-03    -295.201E-03     116.181E-03
              37     13.3977E-03     122.001E-03    -2.15640E+06     50.6113E+06     78.7939E+06    -554.733E+03    -299.595E-03     595.099E-03    -295.504E-03     142.943E-03    -303.012E-03     598.460E-03    -295.180E-03     115.790E-03
              38     13.3982E-03     123.721E-03    -2.52634E+06     50.0579E+06     79.6501E+06     3.23644E+06    -299.094E-03     594.794E-03    -295.700E-03     140.894E-03    -302.384E-03     598.022E-03    -295.371E-03     114.514E-03
              39     13.3916E-03     125.422E-03    -3.11875E+06     48.8640E+06     77.2901E+06    -143.984E+03    -297.368E-03     593.155E-03    -295.788E-03     144.475E-03    -300.786E-03     596.512E-03    -295.467E-03     117.589E-03
              40     13.4019E-03     127.132E-03    -849.038E+03     51.2217E+06     78.9022E+06    -2.40319E+06    -296.341E-03     591.912E-03    -295.570E-03     146.598E-03    -299.865E-03     595.386E-03    -295.249E-03     119.176E-03
              41     13.4009E-03     128.840E-03    -215.488E+03     55.9977E+06     83.2599E+06     412.241E+03    -300.031E-03     595.508E-03    -295.477E-03     140.582E-03    -303.426E-03     598.860E-03    -295.141E-03     113.374E-03
              42     13.3926E-03     130.570E-03    -5.22657E+06     53.6611E+06     78.4119E+06     2.81433E+06    -301.702E-03     597.392E-03    -295.690E-03     139.662E-03    -304.969E-03     600.604E-03    -295.368E-03     113.263E-03
              43     13.3962E-03     132.276E-03    -2.41209E+06     52.3709E+06     78.8206E+06    -605.325E+03    -297.237E-03     593.016E-03    -295.779E-03     146.513E-03    -300.671E-03     596.399E-03    -295.457E-03     119.723E-03
              44     13.3993E-03     133.980E-03    -735.611E+03     51.3992E+06     80.7704E+06    -1.31404E+06    -296.357E-03     591.933E-03    -295.576E-03     146.667E-03    -299.847E-03     595.369E-03    -295.246E-03     119.508E-03
              45     13.4016E-03     135.696E-03    -1.20347E+06     51.2237E+06     79.6308E+06     1.03790E+06    -297.840E-03     593.296E-03    -295.456E-03     141.883E-03    -301.199E-03     596.601E-03    -295.130E-03     115.080E-03
              46     13.3975E-03     137.403E-03    -2.67295E+06     53.0017E+06     79.5725E+06     700.422E+03    -299.008E-03     594.569E-03    -295.562E-03     139.357E-03    -302.348E-03     597.857E-03    -295.237E-03     112.417E-03
              47     13.3960E-03     139.118E-03    -3.96208E+06     51.7129E+06     79.0701E+06    -686.698E+03    -299.674E-03     595.347E-03    -295.672E-03     141.244E-03    -303.079E-03     598.692E-03    -295.346E-03     114.058E-03
              48     13.3967E-03     140.834E-03    -314.991E+03     52.3215E+06     81.4935E+06    -71.6198E+03    -296.837E-03     592.439E-03    -295.602E-03     146.830E-03    -300.317E-03     595.867E-03    -295.270E-03     119.787E-03
              49     13.4053E-03     142.538E-03     844.972E+03     54.2479E+06     84.3464E+06    -1.07956E+06    -297.455E-03     592.977E-03    -295.523E-03     144.895E-03    -300.950E-03     596.423E-03    -295.181E-03     117.477E-03
              50     13.3908E-03     144.258E-03    -4.45560E+06     49.6366E+06     80.0999E+06     626.344E+03    -300.369E-03     595.997E-03    -295.627E-03     142.362E-03    -303.772E-03     599.327E-03    -295.292E-03     115.295E-03
              51     13.4012E-03     145.966E-03    -4.42892E+06     44.3672E+06     78.4124E+06     85.8909E+03    -297.675E-03     593.362E-03    -295.687E-03     144.410E-03    -301.065E-03     596.666E-03    -295.353E-03     117.716E-03
              52     13.3957E-03     147.670E-03     1.15191E+06     50.0732E+06     83.4661E+06    -21.6264E+03    -295.385E-03     590.994E-03    -295.610E-03     142.786E-03    -298.815E-03     594.365E-03    -295.267E-03     115.709E-03
              53     13.4035E-03     149.380E-03    -612.542E+03     52.4299E+06     83.6339E+06    -487.952E+03    -296.364E-03     591.953E-03    -295.589E-03     140.928E-03    -299.782E-03     595.311E-03    -295.246E-03     113.788E-03
              54     13.3929E-03     151.090E-03    -5.95902E+06     45.4210E+06     80.7065E+06     465.919E+03    -298.884E-03     594.551E-03    -295.668E-03     140.211E-03    -302.234E-03     597.808E-03    -295.321E-03     113.413E-03
              55     13.3990E-03     152.806E-03    -2.17873E+06     52.4396E+06     84.8670E+06     3.47996E+06    -296.461E-03     592.133E-03    -295.672E-03     142.641E-03    -299.815E-03     595.419E-03    -295.320E-03     116.226E-03
              56     13.4011E-03     154.503E-03    -205.094E+03     58.0044E+06     85.4854E+06    -2.83386E+06    -294.219E-03     589.732E-03    -295.513E-03     144.568E-03    -297.720E-03     593.190E-03    -295.169E-03     117.360E-03
              57     13.4017E-03     156.218E-03    -1.60669E+06     54.8504E+06     85.3221E+06    -1.84334E+06    -295.807E-03     591.256E-03    -295.449E-03     142.606E-03    -299.283E-03     594.674E-03    -295.100E-03     115.372E-03
              58     13.3997E-03     157.926E-03    -3.34643E+06     56.5658E+06     86.9473E+06     3.00930E+06    -293.707E-03     589.216E-03    -295.508E-03     143.233E-03    -297.109E-03     592.554E-03    -295.151E-03     116.871E-03
              59     13.4036E-03     159.619E-03    -2.60314E+06     64.9432E+06     86.1514E+06     1.93374E+06    -291.470E-03     586.862E-03    -295.393E-03     144.655E-03    -294.936E-03     590.300E-03    -295.052E-03     118.162E-03
              60     13.4060E-03     161.319E-03    -1.87830E+06     72.0370E+06     91.1792E+06    -1.80731E+06    -291.269E-03     586.566E-03    -295.296E-03     140.049E-03    -294.736E-03     590.017E-03    -294.942E-03     113.169E-03
              61     13.4026E-03     163.023E-03    -2.88915E+06     68.5592E+06     93.6028E+06    -1.99994E+06    -289.558E-03     584.806E-03    -295.248E-03     143.365E-03    -293.001E-03     588.211E-03    -294.875E-03     117.136E-03
              62     13.4134E-03     164.712E-03    -1.40217E+06     70.6661E+06     95.4335E+06     3.07903E+06    -285.673E-03     580.671E-03    -294.998E-03     145.336E-03    -289.075E-03     584.042E-03    -294.622E-03     119.896E-03
              63     13.4140E-03     166.399E-03    -4.85504E+06     77.9641E+06     96.2419E+06     3.08063E+06    -283.712E-03     578.329E-03    -294.617E-03     144.812E-03    -287.124E-03     581.722E-03    -294.242E-03     119.556E-03
              64     13.4244E-03     168.085E-03    -3.80122E+06     79.0514E+06     94.3609E+06     145.453E+03    -281.930E-03     575.925E-03    -293.995E-03     151.466E-03    -285.493E-03     579.481E-03    -293.632E-03     125.869E-03
              65     13.4381E-03     169.763E-03     2.59143E+06     89.4840E+06     101.108E+06     3.35183E+06    -282.884E-03     576.071E-03    -293.187E-03     153.467E-03    -286.564E-03     579.784E-03    -292.815E-03     127.228E-03
              66     13.4419E-03     171.459E-03    -6.88383E+06       92.63E+06     96.5559E+06     2.52287E+06    -289.222E-03     581.583E-03    -292.361E-03     156.938E-03    -293.007E-03     585.393E-03    -292.003E-03     130.119E-03
              67     13.4549E-03     173.155E-03    -7.64877E+06     93.4942E+06     98.0704E+06     414.442E+03    -291.601E-03     583.049E-03    -291.448E-03     163.100E-03    -295.460E-03     586.928E-03    -291.082E-03     136.077E-03
              68     13.4710E-03     174.849E-03     2.11236E+06     104.557E+06     111.464E+06     1.06512E+06    -294.636E-03     584.928E-03    -290.293E-03     171.680E-03    -298.647E-03     588.996E-03    -289.890E-03     144.104E-03
              69     13.4855E-03     176.562E-03    -236.983E+03     96.6618E+06     109.884E+06     1.01054E+06    -306.680E-03     595.721E-03    -289.041E-03     175.238E-03    -310.839E-03     599.905E-03    -288.631E-03     146.054E-03
              70     13.4910E-03     178.294E-03    -9.52462E+06     100.671E+06     118.081E+06     2.64062E+06    -320.957E-03     609.069E-03    -288.112E-03     174.538E-03    -325.168E-03     613.263E-03    -287.654E-03     144.187E-03
              71     13.4982E-03     180.047E-03     330.318E+03     120.788E+06     135.482E+06     5.06823E+06    -336.212E-03     623.546E-03    -287.334E-03     180.668E-03    -340.408E-03     627.783E-03    -286.832E-03     149.774E-03
              72     13.5032E-03     181.832E-03    -10.0744E+06     109.360E+06     129.034E+06    -6.19580E+06    -352.558E-03     639.201E-03    -286.643E-03     182.878E-03    -356.658E-03     643.285E-03    -286.142E-03     151.548E-03
              73     13.5023E-03     183.643E-03     476.698E+03     113.567E+06     130.631E+06     1.57487E+06    -368.135E-03     654.351E-03    -286.215E-03     187.345E-03    -372.117E-03     658.363E-03    -285.728E-03     156.013E-03
              74     13.5029E-03     185.470E-03    -7.13614E+06     104.162E+06     119.403E+06    -2.52415E+06    -379.611E-03     665.549E-03    -285.938E-03     189.417E-03    -383.540E-03     669.479E-03    -285.482E-03     157.849E-03
              75     13.5020E-03     187.304E-03      642.35E+03     97.5158E+06     116.651E+06     645.653E+03    -386.253E-03     672.008E-03    -285.755E-03     189.860E-03    -390.107E-03     675.873E-03    -285.314E-03     158.046E-03
              76     13.5041E-03     189.150E-03    -4.47854E+06     79.8285E+06     112.425E+06    -8.74225E+06    -392.823E-03     678.426E-03    -285.603E-03     189.911E-03    -396.575E-03     682.121E-03    -285.151E-03     158.290E-03
              77     13.5017E-03     191.006E-03     2.51916E+06     57.3597E+06     117.426E+06    -1.05928E+06    -392.359E-03     677.967E-03    -285.608E-03     182.436E-03    -395.840E-03     681.317E-03    -285.108E-03     151.756E-03
              78     13.5062E-03     192.835E-03    -4.73903E+06     34.4345E+06     124.532E+06    -2.85024E+06    -383.888E-03     669.679E-03    -285.791E-03     176.796E-03    -387.203E-03     672.735E-03    -285.211E-03     147.479E-03
              79     13.5036E-03     194.662E-03      835.28E+03     12.7032E+06     146.341E+06    -3.04958E+06    -365.896E-03     652.066E-03    -286.171E-03     167.487E-03    -368.894E-03     654.687E-03    -285.459E-03     140.733E-03
              80     13.5123E-03     196.427E-03    -4.58166E+06     20.4910E+06     174.462E+06     5.27468E+06    -335.862E-03     622.699E-03    -286.836E-03     162.969E-03    -338.711E-03     625.097E-03    -285.987E-03     139.689E-03
              81     13.5073E-03     198.164E-03     15.8768E+06     32.4346E+06     192.466E+06    -1.88427E+06    -276.284E-03     564.380E-03    -288.096E-03     172.846E-03    -279.337E-03     567.065E-03    -287.203E-03     152.506E-03
              82     13.5252E-03     199.764E-03     24.9419E+06     77.7359E+06     137.790E+06    -17.0070E+06    -67.3161E-03     361.316E-03    -294.000E-03     103.861E-03    -68.8382E-03     363.319E-03    -293.460E-03     94.0048E-03
              83     12.3139E-03     200.602E-03    -40.1262E+06    -46.9062E+06     24.6613E+06    -11.7177E+06     53.6793E-03     254.024E-03    -307.703E-03    -40.6390E-03     53.8806E-03     254.106E-03    -307.454E-03    -41.7374E-03
              84     11.4836E-03     200.089E-03     3.57948E+06    -43.0436E+06     110.799E+06     4.03744E+06     23.6901E-03     298.775E-03    -322.465E-03    -124.014E-03     23.8951E-03     298.404E-03    -321.854E-03    -125.950E-03
              85     10.6701E-03     199.566E-03     2.28757E+06     20.9972E+06     179.662E+06    -9.74831E+06     41.2247E-03     293.122E-03    -334.347E-03    -156.921E-03     41.3748E-03     292.785E-03    -333.483E-03    -159.199E-03
              86     9.88432E-03     199.024E-03    -4.56304E+06    -11.4687E+06     157.525E+06    -6.40774E+06     43.0625E-03     302.278E-03    -345.341E-03    -201.198E-03     43.5004E-03     301.566E-03    -344.530E-03    -203.565E-03
              87     9.13069E-03     198.472E-03    -10.6608E+06     3.64897E+06     154.690E+06    -15.5070E+06     39.4114E-03     315.207E-03    -354.618E-03    -263.154E-03     40.1355E-03     314.232E-03    -353.834E-03    -265.899E-03
              88     8.41442E-03     197.920E-03    -18.5632E+06    -11.8211E+06     138.077E+06    -16.9557E+06     31.9252E-03     329.472E-03    -361.397E-03    -333.165E-03     33.0512E-03     327.978E-03    -360.662E-03    -336.331E-03
              89     7.73841E-03     197.378E-03    -21.7012E+06    -8.32367E+06     126.090E+06    -25.7194E+06     20.8224E-03     344.644E-03    -365.467E-03    -400.346E-03     22.3424E-03     342.645E-03    -364.793E-03    -404.103E-03
              90     7.09210E-03     196.857E-03    -26.0721E+06    -18.5098E+06     106.992E+06    -28.5489E+06     4.72125E-03     362.302E-03    -367.023E-03    -460.763E-03     6.63401E-03     359.745E-03    -366.423E-03    -465.102E-03
              91     6.47004E-03     196.363E-03    -30.3608E+06    -22.1985E+06     88.2822E+06    -31.5907E+06    -17.1214E-03     383.472E-03    -366.350E-03    -512.467E-03    -14.9055E-03     380.436E-03    -365.833E-03    -517.448E-03
              92     5.86618E-03     195.903E-03    -37.8133E+06    -26.8774E+06     67.4939E+06    -32.3383E+06    -44.8881E-03     408.619E-03    -363.731E-03    -552.696E-03    -42.5091E-03     405.204E-03    -363.299E-03    -558.311E-03
              93     5.27585E-03     195.479E-03    -43.7701E+06    -26.8155E+06     47.6668E+06    -36.3454E+06    -77.8705E-03     437.367E-03    -359.497E-03    -578.299E-03    -75.4710E-03     433.712E-03    -359.156E-03    -584.608E-03
              94     4.69407E-03     195.098E-03    -49.9168E+06    -31.5052E+06     27.1215E+06    -38.4817E+06    -114.745E-03     468.816E-03    -354.071E-03    -585.372E-03    -112.481E-03     465.037E-03    -353.817E-03    -592.325E-03
              95     4.11746E-03     194.758E-03    -54.7488E+06    -33.3837E+06     9.41388E+06    -41.0604E+06    -153.489E-03     501.437E-03    -347.948E-03    -570.739E-03    -151.529E-03     497.713E-03    -347.773E-03    -578.231E-03
              96     3.54113E-03     194.463E-03    -58.6772E+06    -37.3687E+06    -7.09149E+06    -41.0938E+06    -191.345E-03     533.020E-03    -341.675E-03    -534.339E-03    -189.822E-03     529.527E-03    -341.572E-03    -542.102E-03
              97     2.96097E-03     194.211E-03    -61.0826E+06    -39.6409E+06    -22.4635E+06    -40.9286E+06    -225.732E-03     561.491E-03    -335.758E-03    -479.077E-03    -224.719E-03     558.373E-03    -335.725E-03    -486.837E-03
              98     2.37447E-03     194.004E-03    -63.2483E+06    -38.1049E+06    -36.2853E+06    -39.6254E+06    -255.154E-03     585.771E-03    -330.617E-03    -409.296E-03    -254.717E-03     583.120E-03    -330.652E-03    -416.644E-03
              99     1.78215E-03     193.843E-03    -66.7375E+06    -36.7095E+06    -49.8423E+06    -35.0331E+06    -279.067E-03     605.692E-03    -326.624E-03    -327.842E-03    -279.258E-03     603.532E-03    -326.724E-03    -334.208E-03
             100     1.18518E-03     193.725E-03    -71.9757E+06    -37.7303E+06    -64.8200E+06    -27.9004E+06    -297.543E-03     621.701E-03    -324.158E-03    -236.683E-03    -298.356E-03     619.956E-03    -324.323E-03    -241.439E-03
             101     586.377E-06     193.653E-03    -79.7750E+06    -52.0756E+06    -97.7398E+06    -20.7382E+06    -304.881E-03     634.638E-03    -329.757E-03    -146.246E-03    -306.195E-03     633.052E-03    -330.054E-03    -149.289E-03
             102     13.1408E-06     191.813E-03    -149.597E+06    -87.8425E+06    -141.968E+06    -8.50295E+06    -255.673E-03     520.442E-03    -264.769E-03    -50.8007E-03    -256.808E-03     519.594E-03    -265.135E-03    -51.8581E-03
             103    -2.46500E-06     190.408E-03    -252.496E+06    -153.050E+06    -241.775E+06    -12.2384E+06    -184.446E-03     362.131E-03    -177.685E-03     5.65508E-03    -185.190E-03     362.030E-03    -178.306E-03     5.50873E-03
             104     2.27668E-06     189.099E-03    -334.611E+06    -224.487E+06    -339.903E+06    -12.1741E+06    -158.174E-03     313.323E-03    -155.149E-03     16.0803E-03    -159.036E-03     313.170E-03    -156.038E-03     15.8858E-03
             105     2.49039E-06     187.821E-03    -298.128E+06    -245.768E+06    -293.099E+06     3.82866E+06    -158.524E-03     311.296E-03    -152.772E-03     24.7350E-03    -159.234E-03     310.921E-03    -153.449E-03     24.8382E-03
             106     1.35296E-06     186.517E-03    -180.662E+06    -220.368E+06    -178.725E+06     6.60159E+06    -171.189E-03     338.261E-03    -167.071E-03     27.7786E-03    -171.529E-03     337.668E-03    -167.383E-03     27.7976E-03
             107     806.188E-09     185.165E-03    -128.884E+06    -203.397E+06    -126.743E+06     228.224E+03    -191.535E-03     380.296E-03    -188.761E-03     28.1899E-03    -191.730E-03     379.634E-03    -188.913E-03     27.9372E-03
             108     957.300E-09     183.747E-03    -122.390E+06    -208.191E+06    -124.533E+06    -1.40206E+06    -215.491E-03     428.625E-03    -213.134E-03     26.7740E-03    -215.656E-03     427.928E-03    -213.278E-03     26.2550E-03
             109     515.932E-09     182.257E-03    -127.426E+06    -212.757E+06    -126.873E+06    -365.224E+03    -239.611E-03     477.400E-03    -237.789E-03     24.8124E-03    -239.794E-03     476.697E-03    -237.930E-03     24.0014E-03
             110     475.014E-09     180.693E-03    -127.917E+06    -216.812E+06    -129.886E+06    -799.555E+03    -261.606E-03     521.952E-03    -260.346E-03     22.4478E-03    -261.781E-03     521.245E-03    -260.496E-03     21.1893E-03
             111     157.556E-09     179.061E-03    -130.238E+06    -219.724E+06    -130.984E+06     177.632E+03    -279.570E-03     558.419E-03    -278.849E-03     20.3636E-03    -279.752E-03     557.718E-03    -278.997E-03     18.5119E-03
             112     89.7892E-09     177.378E-03    -132.260E+06    -221.315E+06    -134.341E+06    -410.601E+03    -292.903E-03     585.077E-03    -292.174E-03     18.2609E-03    -293.087E-03     584.386E-03    -292.333E-03     15.8688E-03
             113     538.370E-09     175.657E-03    -135.313E+06    -222.901E+06    -138.593E+06    -221.291E+03    -301.423E-03     601.731E-03    -300.307E-03     16.2702E-03    -301.612E-03     601.047E-03    -300.481E-03     13.5766E-03
             114     226.551E-09     173.917E-03    -135.324E+06    -225.361E+06    -136.916E+06    -726.478E+03    -305.652E-03     610.467E-03    -304.815E-03     15.1109E-03    -305.839E-03     609.771E-03    -304.977E-03     12.2030E-03
             115     55.4445E-09     172.167E-03    -136.914E+06    -230.583E+06    -137.058E+06    -774.872E+03    -307.107E-03     613.883E-03    -306.776E-03     14.2002E-03    -307.296E-03     613.166E-03    -306.929E-03     11.1216E-03
             116     65.7814E-09     170.415E-03    -139.164E+06    -235.169E+06    -139.966E+06    -430.621E+03    -306.721E-03     613.201E-03    -306.480E-03     13.5173E-03    -306.909E-03     612.467E-03    -306.637E-03     10.4023E-03
             117     100.528E-09     168.667E-03    -139.934E+06    -238.076E+06    -139.773E+06    -259.256E+03    -305.459E-03     610.382E-03    -304.923E-03     13.5721E-03    -305.648E-03     609.635E-03    -305.074E-03     10.4727E-03
             118     421.977E-09     166.926E-03    -130.490E+06    -244.080E+06    -130.688E+06    -1.20001E+06    -304.042E-03     607.294E-03    -303.253E-03     13.7510E-03    -304.189E-03     606.491E-03    -303.363E-03     10.6387E-03
             119     76.8127E-09     165.189E-03    -128.833E+06    -244.132E+06    -129.368E+06     1.05343E+06    -302.453E-03     604.154E-03    -301.702E-03     13.7596E-03    -302.593E-03     603.347E-03    -301.808E-03     10.7013E-03
             120     393.099E-09     163.458E-03    -132.466E+06    -230.601E+06    -132.225E+06     2.43699E+06    -301.008E-03     601.306E-03    -300.298E-03     13.9779E-03    -301.182E-03     600.576E-03    -300.433E-03     10.9629E-03
             121     55.2385E-09     161.732E-03    -128.527E+06    -221.135E+06    -128.591E+06      87.728E+03    -299.930E-03     599.114E-03    -299.184E-03     14.0855E-03    -300.104E-03     598.420E-03    -299.320E-03     11.0803E-03
             122     459.950E-09     160.009E-03    -127.671E+06    -221.536E+06    -128.080E+06     -39.327E+03    -299.065E-03     597.298E-03    -298.233E-03     13.9495E-03    -299.233E-03     596.599E-03    -298.367E-03     11.0088E-03
             123     100.386E-09     158.288E-03    -124.738E+06    -219.042E+06    -124.396E+06     668.690E+03    -298.190E-03     595.725E-03    -297.535E-03     14.0443E-03    -298.352E-03     595.029E-03    -297.659E-03     11.1350E-03
             124     183.396E-09     156.570E-03    -123.686E+06    -215.724E+06    -124.174E+06     362.454E+03    -297.385E-03     594.491E-03    -297.106E-03     14.3715E-03    -297.548E-03     593.810E-03    -297.235E-03     11.4245E-03
             125    -135.220E-09     154.854E-03    -123.577E+06    -210.869E+06    -123.564E+06     910.740E+03    -296.879E-03     593.491E-03    -296.612E-03     14.4756E-03    -297.051E-03     592.834E-03    -296.745E-03     11.5233E-03
             126     408.321E-09     153.139E-03    -123.801E+06    -206.542E+06    -123.602E+06     18.2867E+03    -296.769E-03     592.811E-03    -296.043E-03     14.5647E-03    -296.948E-03     592.176E-03    -296.181E-03     11.5971E-03
             127     254.435E-09     151.426E-03    -122.740E+06    -203.915E+06    -122.680E+06     725.100E+03    -296.599E-03     592.337E-03    -295.738E-03     14.3015E-03    -296.777E-03     591.712E-03    -295.878E-03     11.3549E-03
             128     200.053E-09     149.713E-03    -119.871E+06    -199.067E+06    -119.348E+06     247.737E+03    -296.263E-03     592.050E-03    -295.787E-03     14.3308E-03    -296.439E-03     591.441E-03    -295.922E-03     11.3431E-03
             129    -46.9093E-09     148.000E-03    -120.314E+06    -198.199E+06    -120.502E+06    -294.198E+03    -296.181E-03     591.994E-03    -295.813E-03     14.1817E-03    -296.358E-03     591.391E-03    -295.953E-03     11.2197E-03
             130     352.284E-09     146.287E-03    -119.278E+06    -195.094E+06    -119.363E+06     1.09305E+06    -296.100E-03     591.623E-03    -295.522E-03     14.0114E-03    -296.278E-03     591.031E-03    -295.663E-03     11.1243E-03
             131     83.3094E-09     144.575E-03    -119.164E+06    -191.399E+06    -119.010E+06     27.5808E+03    -295.803E-03     591.047E-03    -295.244E-03     14.2523E-03    -295.986E-03     590.473E-03    -295.389E-03     11.3459E-03
             132     194.990E-09     142.864E-03    -120.323E+06    -190.453E+06    -119.734E+06     250.111E+03    -295.615E-03     590.857E-03    -295.242E-03     14.3640E-03    -295.804E-03     590.291E-03    -295.390E-03     11.4834E-03
             133    -6.86499E-09     141.153E-03    -119.368E+06    -188.129E+06    -119.059E+06     362.723E+03    -295.964E-03     591.122E-03    -295.158E-03     14.4524E-03    -296.154E-03     590.566E-03    -295.307E-03     11.5209E-03
             134     864.044E-09     139.440E-03    -118.109E+06    -187.149E+06    -118.571E+06     52.1296E+03    -296.342E-03     591.172E-03    -294.830E-03     14.4747E-03    -296.528E-03     590.619E-03    -294.980E-03     11.5269E-03
             135     262.841E-09     137.730E-03    -117.412E+06    -186.792E+06    -117.985E+06     303.032E+03    -296.141E-03     591.064E-03    -294.924E-03     14.5239E-03    -296.324E-03     590.511E-03    -295.072E-03     11.5870E-03
             136     197.557E-09     136.018E-03    -118.402E+06    -185.700E+06    -117.351E+06    -59.0883E+03    -295.841E-03     591.060E-03    -295.220E-03     14.1517E-03    -296.031E-03     590.512E-03    -295.365E-03     11.2146E-03
             137     149.854E-09     134.307E-03    -117.304E+06    -184.517E+06    -118.056E+06     108.077E+03    -295.813E-03     590.968E-03    -295.155E-03     14.1338E-03    -295.997E-03     590.424E-03    -295.308E-03     11.2625E-03
             138     341.882E-09     132.595E-03    -118.070E+06    -183.789E+06    -118.389E+06     321.326E+03    -295.969E-03     590.967E-03    -294.998E-03     14.0794E-03    -296.157E-03     590.427E-03    -295.152E-03     11.2493E-03
             139     429.222E-09     130.885E-03    -118.414E+06    -183.765E+06    -118.669E+06    -176.546E+03    -296.070E-03     591.071E-03    -295.001E-03     13.9278E-03    -296.259E-03     590.532E-03    -295.156E-03     11.1034E-03
             140     194.521E-09     129.173E-03    -117.219E+06    -183.446E+06    -118.162E+06     108.231E+03    -295.952E-03     591.011E-03    -295.059E-03     13.9307E-03    -296.137E-03     590.472E-03    -295.214E-03     11.0783E-03
             141     336.671E-09     127.461E-03    -117.535E+06    -182.784E+06    -117.557E+06     125.586E+03    -295.888E-03     591.024E-03    -295.136E-03     14.4597E-03    -296.077E-03     590.489E-03    -295.289E-03     11.5651E-03
             142     99.4202E-09     125.749E-03    -117.396E+06    -181.571E+06    -117.486E+06     3.03128E+03    -295.934E-03     591.291E-03    -295.356E-03     14.7829E-03    -296.126E-03     590.763E-03    -295.510E-03     11.8478E-03
             143     196.569E-09     124.037E-03    -117.319E+06    -180.470E+06    -116.107E+06     38.5567E+03    -296.050E-03     591.285E-03    -295.235E-03     14.4242E-03    -296.244E-03     590.760E-03    -295.384E-03     11.5193E-03
             144     570.778E-09     122.326E-03    -117.755E+06    -180.515E+06    -118.024E+06     268.788E+03    -296.341E-03     591.553E-03    -295.213E-03     14.5756E-03    -296.534E-03     591.031E-03    -295.370E-03     11.6857E-03
             145     129.044E-09     120.613E-03    -119.041E+06    -182.135E+06    -118.958E+06    -574.552E+03    -296.526E-03     592.065E-03    -295.539E-03     14.4686E-03    -296.722E-03     591.538E-03    -295.697E-03     11.5568E-03
             146     454.157E-09     118.899E-03    -112.049E+06    -189.905E+06    -112.423E+06    -1.59960E+06    -296.404E-03     592.032E-03    -295.629E-03     14.6221E-03    -296.563E-03     591.447E-03    -295.753E-03     11.6989E-03
             147    -43.3790E-09     117.186E-03    -115.892E+06    -193.624E+06    -115.507E+06     818.007E+03    -296.214E-03     591.832E-03    -295.618E-03     14.8407E-03    -296.384E-03     591.238E-03    -295.747E-03     11.9376E-03
             148     390.932E-09     115.474E-03    -120.417E+06    -184.234E+06    -119.160E+06     1.83068E+06    -296.193E-03     591.684E-03    -295.491E-03     14.6366E-03    -296.393E-03     591.148E-03    -295.645E-03     11.7736E-03
             149     169.956E-09     113.761E-03    -114.734E+06    -177.828E+06    -116.019E+06    -345.972E+03    -296.079E-03     591.534E-03    -295.455E-03     14.7197E-03    -296.264E-03     591.018E-03    -295.611E-03     11.7866E-03
             150     51.9618E-09     112.050E-03    -117.358E+06    -179.364E+06    -116.235E+06     1.60938E+03    -295.786E-03     591.250E-03    -295.464E-03     14.3122E-03    -295.982E-03     590.730E-03    -295.614E-03     11.3989E-03
             151     131.801E-09     110.338E-03    -116.179E+06    -178.544E+06    -116.463E+06     371.854E+03    -295.688E-03     590.808E-03    -295.120E-03     13.9666E-03    -295.877E-03     590.289E-03    -295.275E-03     11.1356E-03
             152     408.463E-09     108.628E-03    -115.202E+06    -176.766E+06    -116.764E+06    -73.5547E+03    -295.716E-03     590.706E-03    -294.991E-03     14.2497E-03    -295.902E-03     590.196E-03    -295.151E-03     11.3915E-03
             153    -28.9308E-09     106.916E-03    -117.260E+06    -176.588E+06    -115.296E+06    -27.3727E+03    -295.596E-03     590.972E-03    -295.376E-03     14.4955E-03    -295.795E-03     590.463E-03    -295.527E-03     11.6404E-03
             154    -80.9818E-09     105.204E-03    -115.862E+06    -175.985E+06    -116.358E+06     166.059E+03    -295.776E-03     591.240E-03    -295.464E-03     14.4919E-03    -295.967E-03     590.733E-03    -295.622E-03     11.6541E-03
             155     562.574E-09     103.492E-03    -115.831E+06    -174.995E+06    -115.928E+06     387.090E+03    -296.058E-03     591.408E-03    -295.350E-03     14.9036E-03    -296.254E-03     590.908E-03    -295.508E-03     11.9757E-03
             156    -140.956E-09     101.780E-03    -115.906E+06    -174.680E+06    -115.815E+06    -220.458E+03    -296.040E-03     591.456E-03    -295.416E-03     15.1091E-03    -296.238E-03     590.959E-03    -295.573E-03     12.0961E-03
             157     512.732E-09     100.068E-03    -114.515E+06    -174.475E+06    -114.742E+06     126.447E+03    -296.122E-03     591.206E-03    -295.084E-03     14.6555E-03    -296.313E-03     590.704E-03    -295.238E-03     11.7379E-03
             158     463.533E-09     98.3564E-03    -113.854E+06    -173.779E+06    -115.321E+06    -102.794E+03    -295.873E-03     590.666E-03    -294.793E-03     14.5113E-03    -296.060E-03     590.167E-03    -294.953E-03     11.6345E-03
             159     160.741E-09     94.9365E-03    -115.411E+06    -173.929E+06    -115.090E+06     14.1012E+03    -295.658E-03     590.524E-03    -294.866E-03     13.8501E-03    -295.852E-03     590.026E-03    -295.022E-03     10.9167E-03
             160     759.058E-09     93.2257E-03    -113.549E+06    -173.432E+06    -115.477E+06    -131.967E+03    -295.949E-03     590.496E-03    -294.547E-03     14.1576E-03    -296.135E-03     589.999E-03    -294.709E-03     11.2610E-03
             161     147.526E-09     91.5147E-03    -114.437E+06    -173.463E+06    -114.616E+06     65.2410E+03    -295.688E-03     590.425E-03    -294.737E-03     14.5755E-03    -295.880E-03     589.929E-03    -294.893E-03     11.6412E-03
             162     179.140E-09     89.8042E-03    -116.712E+06    -173.620E+06    -114.823E+06     285.320E+03    -295.631E-03     590.550E-03    -294.920E-03     14.6088E-03    -295.835E-03     590.057E-03    -295.073E-03     11.6564E-03
             163     424.972E-09     88.0936E-03    -115.313E+06    -173.142E+06    -116.483E+06    -130.399E+03    -295.923E-03     590.908E-03    -294.985E-03     14.3803E-03    -296.116E-03     590.416E-03    -295.149E-03     11.5216E-03
             164     177.741E-09     86.3825E-03    -115.877E+06    -173.348E+06    -116.959E+06    -212.402E+03    -295.934E-03     591.137E-03    -295.203E-03     13.9730E-03    -296.128E-03     590.644E-03    -295.369E-03     11.1283E-03
             165     154.020E-09     84.6711E-03    -118.341E+06    -174.416E+06    -115.951E+06    -70.4300E+03    -296.067E-03     591.583E-03    -295.517E-03     14.1307E-03    -296.274E-03     591.088E-03    -295.672E-03     11.2348E-03
             166     236.007E-09     82.9569E-03    -115.378E+06    -173.372E+06    -116.064E+06     145.676E+03    -296.372E-03     591.911E-03    -295.539E-03     14.2393E-03    -296.565E-03     591.417E-03    -295.701E-03     11.3418E-03
             167     445.778E-09     81.2436E-03    -115.051E+06    -172.369E+06    -116.137E+06     31.4079E+03    -296.166E-03     591.517E-03    -295.351E-03     14.3716E-03    -296.358E-03     591.026E-03    -295.515E-03     11.5565E-03
             168    -87.1689E-09     79.5327E-03    -116.420E+06    -172.276E+06    -115.523E+06     260.016E+03    -295.903E-03     591.461E-03    -295.558E-03     14.5431E-03    -296.104E-03     590.973E-03    -295.717E-03     11.7257E-03
             169     155.217E-09     77.8194E-03    -115.933E+06    -171.590E+06    -115.748E+06     205.718E+03    -295.983E-03     591.667E-03    -295.684E-03     14.3677E-03    -296.183E-03     591.182E-03    -295.846E-03     11.5151E-03
             170     139.844E-09     76.1071E-03    -115.553E+06    -170.394E+06    -116.078E+06    -47.1592E+03    -295.986E-03     591.555E-03    -295.569E-03     14.4039E-03    -296.185E-03     591.076E-03    -295.734E-03     11.5510E-03
             171     79.3709E-09     74.3951E-03    -114.912E+06    -168.862E+06    -114.526E+06     241.270E+03    -295.926E-03     591.330E-03    -295.404E-03     14.1107E-03    -296.126E-03     590.855E-03    -295.565E-03     11.2448E-03
             172     368.817E-09     72.6835E-03    -114.184E+06    -167.953E+06    -114.602E+06     164.886E+03    -295.797E-03     590.930E-03    -295.132E-03     14.0158E-03    -295.994E-03     590.457E-03    -295.296E-03     11.1810E-03
             173     34.7227E-09     70.9723E-03    -114.659E+06    -166.445E+06    -114.889E+06     359.589E+03    -295.747E-03     590.957E-03    -295.210E-03     14.4021E-03    -295.948E-03     590.494E-03    -295.377E-03     11.5798E-03
             174     236.928E-09     69.2602E-03    -114.304E+06    -164.882E+06    -114.505E+06     83.9749E+03    -295.975E-03     591.323E-03    -295.348E-03     14.3842E-03    -296.177E-03     590.867E-03    -295.516E-03     11.5589E-03
             175     288.301E-09     67.5478E-03    -114.115E+06    -164.134E+06    -114.148E+06     223.386E+03    -295.944E-03     591.158E-03    -295.215E-03     14.3759E-03    -296.147E-03     590.705E-03    -295.382E-03     11.5345E-03
             176     122.287E-09     65.8366E-03    -113.166E+06    -162.500E+06    -113.012E+06     229.569E+03    -295.798E-03     590.820E-03    -295.022E-03     14.4592E-03    -296.001E-03     590.372E-03    -295.187E-03     11.5834E-03
             177     467.568E-09     64.1254E-03    -112.267E+06    -160.807E+06    -112.010E+06     46.7959E+03    -295.768E-03     590.836E-03    -295.068E-03     14.7228E-03    -295.970E-03     590.394E-03    -295.232E-03     11.8576E-03
             178    -162.498E-09     62.4138E-03    -110.989E+06    -159.499E+06    -111.581E+06     144.786E+03    -295.591E-03     590.974E-03    -295.383E-03     14.7360E-03    -295.789E-03     590.536E-03    -295.549E-03     11.9134E-03
             179     84.6080E-09     60.7026E-03    -111.314E+06    -158.823E+06    -111.385E+06     375.360E+03    -295.826E-03     591.139E-03    -295.314E-03     14.4722E-03    -296.026E-03     590.705E-03    -295.479E-03     11.6558E-03
             180     635.723E-09     58.9904E-03    -111.005E+06    -157.229E+06    -110.977E+06     101.171E+03    -296.220E-03     591.317E-03    -295.098E-03     14.6849E-03    -296.423E-03     590.891E-03    -295.263E-03     11.7886E-03
             181     104.485E-09     57.2781E-03    -109.855E+06    -155.593E+06    -110.211E+06     188.552E+03    -295.974E-03     591.191E-03    -295.217E-03     14.7205E-03    -296.176E-03     590.771E-03    -295.383E-03     11.8215E-03
             182     123.664E-09     55.5668E-03    -109.748E+06    -154.474E+06    -109.694E+06     56.1971E+03    -295.408E-03     590.716E-03    -295.308E-03     14.4216E-03    -295.610E-03     590.299E-03    -295.473E-03     11.5593E-03
             183    -256.978E-09     53.8567E-03    -109.444E+06    -153.923E+06    -109.741E+06     66.0793E+03    -295.330E-03     590.250E-03    -294.920E-03     14.0191E-03    -295.530E-03     589.835E-03    -295.087E-03     11.1683E-03
             184     901.827E-09     52.1465E-03    -109.688E+06    -153.051E+06    -109.478E+06     62.5612E+03    -295.838E-03     590.349E-03    -294.511E-03     14.2933E-03    -296.042E-03     589.939E-03    -294.678E-03     11.4463E-03
             185     193.548E-09     50.4356E-03    -110.442E+06    -152.696E+06    -110.281E+06     44.9731E+03    -295.940E-03     590.584E-03    -294.644E-03     14.3494E-03    -296.147E-03     590.177E-03    -294.814E-03     11.5154E-03
             186     408.416E-09     48.7248E-03    -110.360E+06    -151.580E+06    -110.209E+06     339.065E+03    -295.599E-03     590.464E-03    -294.864E-03     14.2194E-03    -295.807E-03     590.062E-03    -295.036E-03     11.3913E-03
             187    -62.9895E-09     47.0144E-03    -110.026E+06    -150.763E+06    -110.356E+06    -3.30758E+03    -295.547E-03     590.560E-03    -295.013E-03     14.2892E-03    -295.754E-03     590.162E-03    -295.187E-03     11.4344E-03
             188     390.730E-09     45.3032E-03    -109.877E+06    -150.560E+06    -110.149E+06     203.343E+03    -295.774E-03     590.950E-03    -295.176E-03     14.2888E-03    -295.981E-03     590.553E-03    -295.349E-03     11.4224E-03
             189     41.7036E-09     43.5912E-03    -109.709E+06    -149.943E+06    -109.637E+06    -93.6831E+03    -296.043E-03     591.295E-03    -295.252E-03     14.2998E-03    -296.251E-03     590.901E-03    -295.424E-03     11.4145E-03
             190     547.318E-09     41.8789E-03    -109.881E+06    -149.704E+06    -109.776E+06    -13.8100E+03    -296.058E-03     591.443E-03    -295.386E-03     14.2062E-03    -296.266E-03     591.050E-03    -295.558E-03     11.3566E-03
             191    -273.255E-09     40.1669E-03    -108.462E+06    -148.362E+06    -108.453E+06     312.180E+03    -295.947E-03     591.377E-03    -295.430E-03     13.8395E-03    -296.152E-03     590.985E-03    -295.600E-03     11.0365E-03
             192     657.390E-09     38.4549E-03    -107.656E+06    -147.238E+06    -108.031E+06     17.2929E+03    -295.868E-03     591.018E-03    -295.149E-03     13.6745E-03    -296.071E-03     590.629E-03    -295.320E-03     10.8628E-03
             193    -114.437E-09     36.7434E-03    -107.528E+06    -146.068E+06    -107.317E+06     221.944E+03    -295.399E-03     590.262E-03    -294.862E-03     13.8037E-03    -295.603E-03     589.878E-03    -295.031E-03     11.0398E-03
             194     256.856E-09     35.0336E-03    -106.436E+06    -144.826E+06    -106.740E+06    -24.4095E+03    -294.796E-03     589.355E-03    -294.559E-03     13.8713E-03    -294.997E-03     588.975E-03    -294.728E-03     11.1184E-03
             195    -120.729E-09     33.3257E-03    -105.705E+06    -143.834E+06    -105.635E+06     12.9024E+03    -294.388E-03     588.371E-03    -293.983E-03     13.8406E-03    -294.588E-03     587.993E-03    -294.149E-03     11.0804E-03
             196     492.813E-09     31.6191E-03    -104.528E+06    -143.266E+06    -104.510E+06     429.254E+03    -293.674E-03     586.674E-03    -293.000E-03     13.4137E-03    -293.870E-03     586.294E-03    -293.163E-03     10.7181E-03
             197     7.84867E-09     29.9179E-03    -104.169E+06    -143.553E+06    -104.182E+06    -48.5078E+03    -292.310E-03     583.988E-03    -291.678E-03     12.9064E-03    -292.503E-03     583.604E-03    -291.839E-03     10.2878E-03
             198     313.210E-09     28.2207E-03    -104.626E+06    -144.346E+06    -105.180E+06    -422.253E+03    -290.490E-03     580.760E-03    -290.271E-03     12.4641E-03    -290.680E-03     580.373E-03    -290.435E-03     9.92130E-03
             199    -369.195E-09     26.5304E-03    -105.698E+06    -145.455E+06    -105.696E+06     43.6701E+03    -288.372E-03     576.944E-03    -288.572E-03     11.8528E-03    -288.564E-03     576.552E-03    -288.736E-03     9.36527E-03
             200     136.605E-09     24.8460E-03    -105.405E+06    -146.781E+06    -105.810E+06    -192.621E+03    -285.851E-03     571.990E-03    -286.140E-03     11.2132E-03    -286.037E-03     571.588E-03    -286.303E-03     8.86676E-03
             201    -313.369E-09     23.1715E-03    -104.888E+06    -148.251E+06    -105.147E+06     109.843E+03    -282.357E-03     565.387E-03    -283.031E-03     10.4310E-03    -282.536E-03     564.972E-03    -283.189E-03     8.26383E-03
             202    -438.077E-09     21.5108E-03    -102.408E+06    -148.883E+06    -102.291E+06    -415.172E+03    -278.096E-03     556.962E-03    -278.867E-03     9.05332E-03    -278.263E-03     556.533E-03    -279.014E-03     7.01422E-03
             203     141.931E-09     19.8645E-03    -99.7044E+06    -148.776E+06    -100.190E+06    -10.9204E+03    -273.228E-03     546.678E-03    -273.450E-03     7.86622E-03    -273.382E-03     546.238E-03    -273.591E-03     6.00798E-03
             204    -145.308E-09     18.2373E-03    -98.7400E+06    -147.474E+06    -98.2568E+06     354.996E+03    -267.035E-03     534.429E-03    -267.394E-03     6.82540E-03    -267.187E-03     533.989E-03    -267.528E-03     5.15150E-03
             205    -328.407E-09     16.6311E-03    -96.7571E+06    -146.660E+06    -97.3260E+06    -30.3512E+03    -259.733E-03     520.311E-03    -260.578E-03     5.57771E-03    -259.876E-03     519.868E-03    -260.712E-03     4.08160E-03
             206    -354.167E-09     15.0491E-03    -95.5984E+06    -144.991E+06    -95.9582E+06     890.502E+03    -252.169E-03     505.020E-03    -252.851E-03     4.43614E-03    -252.308E-03     504.579E-03    -252.982E-03     3.10322E-03
             207     107.621E-09     13.4920E-03    -95.8975E+06    -142.107E+06    -95.1014E+06     36.9963E+03    -244.636E-03     489.507E-03    -244.871E-03     3.45304E-03    -244.780E-03     489.079E-03    -245.002E-03     2.25068E-03
             208    -158.416E-09     11.9587E-03    -100.405E+06    -144.474E+06    -100.515E+06    -1.18604E+06    -236.615E-03     473.409E-03    -236.794E-03     1.95903E-03    -236.770E-03     472.981E-03    -236.941E-03     895.153E-06
             209    -16.0998E-09     10.4509E-03    -104.437E+06    -143.014E+06    -105.484E+06     1.62784E+06    -228.170E-03     456.360E-03    -228.190E-03     431.032E-06    -228.339E-03     455.951E-03    -228.359E-03    -540.681E-06
             210     185.357E-09     8.96909E-03    -91.5050E+06    -125.597E+06    -90.5536E+06     4.01756E+06    -221.019E-03     441.866E-03    -220.848E-03     743.844E-06    -221.169E-03     441.506E-03    -220.986E-03    -214.411E-06
             211    -78.6277E-09     7.50487E-03    -79.1232E+06    -108.998E+06    -77.1673E+06     1.28803E+06    -217.842E-03     435.883E-03    -218.040E-03     2.78792E-03    -217.974E-03     435.570E-03    -218.153E-03     1.80689E-03
             212    -287.909E-09     6.04000E-03    -84.6059E+06    -108.295E+06    -83.9288E+06    -839.847E+03    -220.039E-03     440.735E-03    -220.696E-03     4.72359E-03    -220.191E-03     440.444E-03    -220.836E-03     3.79481E-03
             213    -276.848E-09     4.56008E-03    -92.7456E+06    -115.062E+06    -92.6813E+06    -886.890E+03    -226.067E-03     453.268E-03    -227.201E-03     5.61694E-03    -226.236E-03     452.965E-03    -227.363E-03     4.79877E-03
             214    -769.467E-09     3.05729E-03    -80.9565E+06    -120.278E+06    -81.3488E+06    -478.069E+03    -232.852E-03     467.507E-03    -234.655E-03     4.69964E-03    -232.969E-03     467.143E-03    -234.770E-03     4.06374E-03
             215    -744.433E-09     1.53428E-03    -62.9850E+06    -120.543E+06    -63.4893E+06     445.375E+03    -238.235E-03     477.939E-03    -239.704E-03     2.34679E-03    -238.283E-03     477.521E-03    -239.755E-03     2.01245E-03
             216     706.604E-06    -19.7203E-15    -59.9676E+06    -117.341E+06    -59.3114E+06     304.673E+03    -240.630E-03     481.661E-03    -241.031E-03     2.10984E-03    -240.674E-03     481.248E-03    -241.070E-03     1.81058E-03
             217     1.41331E-03    -19.7203E-15    -58.8311E+06    -111.418E+06    -56.4788E+06    -158.809E+03    -240.865E-03     481.711E-03    -240.846E-03     4.12249E-03    -240.918E-03     481.323E-03    -240.882E-03     3.55122E-03
             218     2.11992E-03    -19.7203E-15    -56.9899E+06    -101.751E+06    -52.1434E+06    -302.277E+03    -240.927E-03     481.804E-03    -240.876E-03     5.94467E-03    -240.995E-03     481.458E-03    -240.907E-03     5.11057E-03
             219     2.82662E-03    -19.7203E-15    -53.7421E+06    -88.6308E+06    -46.3997E+06    -2.76917E+06    -241.105E-03     482.032E-03    -240.927E-03     7.79712E-03    -241.188E-03     481.743E-03    -240.952E-03     6.66802E-03
             220     3.53300E-03    -19.7203E-15    -48.6204E+06    -70.6521E+06    -38.9367E+06    -4.01796E+06    -241.544E-03     482.565E-03    -241.021E-03     9.81437E-03    -241.643E-03     482.354E-03    -241.043E-03     8.41440E-03
             221     4.23887E-03    -19.7203E-15    -42.8882E+06    -50.6732E+06    -28.9027E+06    -3.69576E+06    -242.377E-03     483.579E-03    -241.203E-03     11.7601E-03    -242.497E-03     483.451E-03    -241.212E-03     10.1126E-03
             222     4.94440E-03    -19.7203E-15    -37.2421E+06    -36.0351E+06    -15.1556E+06    -2.66388E+06    -243.777E-03     485.300E-03    -241.523E-03     13.4865E-03    -243.917E-03     485.224E-03    -241.493E-03     11.6110E-03
             223     5.64843E-03    -19.7203E-15    -32.0305E+06    -27.0766E+06    -1.21147E+06    -1.01485E+06    -246.029E-03     488.040E-03    -242.011E-03     15.3195E-03    -246.184E-03     487.989E-03    -241.932E-03     13.2187E-03
             224     6.35076E-03    -19.7203E-15    -28.2515E+06    -20.6080E+06     10.2050E+06     1.62546E+06    -249.322E-03     492.023E-03    -242.702E-03     17.3433E-03    -249.493E-03     491.992E-03    -242.580E-03     15.0015E-03
             225     7.04997E-03    -19.7203E-15    -26.5986E+06    -16.6122E+06     18.4201E+06     4.36122E+06    -253.709E-03     497.344E-03    -243.635E-03     19.6961E-03    -253.902E-03     497.330E-03    -243.480E-03     17.0697E-03
             226     7.74594E-03    -19.7203E-15    -25.7624E+06    -13.5065E+06     22.7274E+06     2.48691E+06    -259.735E-03     504.591E-03    -244.856E-03     21.6454E-03    -259.949E-03     504.601E-03    -244.685E-03     18.5914E-03
             227     8.43864E-03    -19.7203E-15    -23.0440E+06    -7.22308E+06     31.2638E+06     674.295E+03    -268.560E-03     515.057E-03    -246.497E-03     22.7574E-03    -268.796E-03     515.097E-03    -246.296E-03     19.2077E-03
             228     9.12320E-03    -19.7203E-15    -19.0965E+06     1.36572E+06     42.5452E+06     2.16395E+06    -281.424E-03     530.134E-03    -248.710E-03     25.3770E-03    -281.686E-03     530.214E-03    -248.472E-03     21.3966E-03
             229     9.79610E-03    -19.7203E-15    -15.7204E+06     9.53730E+06     49.5376E+06     2.33995E+06    -300.116E-03     551.794E-03    -251.678E-03     31.7831E-03    -300.404E-03     551.923E-03    -251.421E-03     27.4930E-03
             230     10.4536E-03    -19.7203E-15    -13.0697E+06     17.8970E+06     54.7264E+06     1.37206E+06    -327.241E-03     582.930E-03    -255.689E-03     40.5297E-03    -327.565E-03     583.127E-03    -255.422E-03     35.6314E-03
             231     11.0921E-03    -19.7203E-15    -11.5595E+06     25.6513E+06     58.2690E+06     1.75654E+06    -367.526E-03     628.664E-03    -261.138E-03     51.6501E-03    -367.936E-03     628.984E-03    -260.867E-03     44.7675E-03
             232     11.7007E-03    -19.7203E-15    -10.4521E+06     33.5135E+06     60.4021E+06     2.92391E+06    -427.947E-03     696.519E-03    -268.572E-03     72.2082E-03    -428.626E-03     697.162E-03    -268.304E-03     60.1611E-03
             233     12.2603E-03    -19.7203E-15    -7.48277E+06     45.2095E+06     63.5639E+06     3.62369E+06    -518.859E-03     797.549E-03    -278.690E-03     129.651E-03    -521.055E-03     799.797E-03    -278.427E-03     100.516E-03
             234     12.7461E-03    -19.7203E-15     539.039E+03     64.3122E+06     71.6512E+06     1.34316E+06    -642.396E-03     934.491E-03    -292.095E-03     263.734E-03    -651.260E-03     943.457E-03    -291.831E-03     190.490E-03
             235     13.3327E-03     2.88582E-03    -2.06743E+06     67.0939E+06     66.3939E+06    -8.27239E+06    -608.834E-03     906.067E-03    -297.233E-03     286.497E-03    -619.327E-03     916.608E-03    -296.995E-03     208.857E-03
             236     13.3609E-03     4.96293E-03    -3.80688E+06     55.3576E+06     62.7639E+06    -8.99941E+06    -462.292E-03     757.227E-03    -294.935E-03     229.931E-03    -469.001E-03     763.914E-03    -294.696E-03     182.408E-03
             237     13.3800E-03     6.80464E-03    -3.36515E+06     43.8046E+06     66.7538E+06    -2.78113E+06    -403.956E-03     698.967E-03    -295.011E-03     215.104E-03    -409.752E-03     704.692E-03    -294.736E-03     174.126E-03
             238     13.3765E-03     8.64726E-03    -4.66644E+06     37.4389E+06     68.3113E+06    -2.34047E+06    -378.052E-03     673.223E-03    -295.171E-03     181.231E-03    -382.827E-03     677.910E-03    -294.877E-03     143.869E-03
             239     13.3819E-03     10.4590E-03    -1.68618E+06     38.2933E+06     69.5918E+06    -2.56358E+06    -355.466E-03     650.869E-03    -295.402E-03     177.145E-03    -360.134E-03     655.461E-03    -295.107E-03     141.472E-03
             240     13.3898E-03     12.2337E-03    -1.29104E+06     37.2043E+06     69.4602E+06    -1.04243E+06    -342.726E-03     638.060E-03    -295.334E-03     173.689E-03    -347.186E-03     642.445E-03    -295.038E-03     139.819E-03
             241     13.3881E-03     14.0225E-03    -542.341E+03     37.6703E+06     71.1270E+06     2.77751E+06    -335.237E-03     630.510E-03    -295.273E-03     169.223E-03    -339.411E-03     634.609E-03    -294.971E-03     137.187E-03
             242     13.3965E-03     15.7782E-03    -1.41591E+06     38.1323E+06     68.5116E+06    -154.419E+03    -326.144E-03     621.413E-03    -295.269E-03     170.231E-03    -330.397E-03     625.596E-03    -294.979E-03     138.367E-03
             243     13.3927E-03     17.5226E-03    -1.86306E+06     38.2105E+06     69.4741E+06    -3.02466E+06    -320.177E-03     615.536E-03    -295.360E-03     163.386E-03    -324.363E-03     619.651E-03    -295.065E-03     131.683E-03
             244     13.3940E-03     19.2628E-03     727.245E+03     39.5518E+06     70.4420E+06    -1.31098E+06    -311.885E-03     607.429E-03    -295.545E-03     159.876E-03    -315.839E-03     611.322E-03    -295.251E-03     129.887E-03
             245     13.3962E-03     20.9777E-03     29.6442E+03     38.9689E+06     70.2910E+06     13.4601E+03    -307.378E-03     603.141E-03    -295.763E-03     154.817E-03    -311.165E-03     606.862E-03    -295.468E-03     125.795E-03
             246     13.3845E-03     22.7070E-03    -6.07642E+06     32.6542E+06     66.0953E+06     2.26075E+06    -306.495E-03     602.547E-03    -296.052E-03     150.480E-03    -310.118E-03     606.073E-03    -295.760E-03     122.329E-03
             247     13.3913E-03     24.4211E-03    -3.63459E+06     32.5091E+06     67.2256E+06     2.03800E+06    -300.413E-03     596.580E-03    -296.166E-03     153.953E-03    -304.028E-03     600.102E-03    -295.872E-03     126.463E-03
             248     13.3923E-03     26.1256E-03    -21.9638E+03     37.3385E+06     69.9288E+06    -276.768E+03    -297.599E-03     593.593E-03    -295.993E-03     153.361E-03    -301.223E-03     597.145E-03    -295.698E-03     125.788E-03
             249     13.3961E-03     27.8401E-03    -69.7097E+03     38.5753E+06     66.1754E+06    -1.75159E+06    -297.413E-03     593.227E-03    -295.814E-03     148.824E-03    -300.928E-03     596.687E-03    -295.539E-03     121.441E-03
             250     13.3955E-03     29.5417E-03    -1.21330E+06     37.0902E+06     70.1536E+06    -891.231E+03    -299.562E-03     595.472E-03    -295.910E-03     141.665E-03    -302.925E-03     598.759E-03    -295.611E-03     114.573E-03
             251     13.3855E-03     31.2644E-03    -4.46164E+06     31.5411E+06     68.7448E+06     1.80049E+06    -300.174E-03     596.259E-03    -296.085E-03     141.127E-03    -303.456E-03     599.437E-03    -295.781E-03     114.564E-03
             252     13.3965E-03     32.9696E-03    -2.64380E+06     33.8631E+06     66.4077E+06     2.14228E+06    -296.807E-03     592.837E-03    -296.030E-03     145.404E-03    -300.169E-03     596.118E-03    -295.743E-03     118.827E-03
             253     13.3914E-03     34.6807E-03    -2.43664E+06     36.2149E+06     67.3545E+06    -285.726E+03    -297.840E-03     593.758E-03    -295.918E-03     142.418E-03    -301.217E-03     597.059E-03    -295.630E-03     115.338E-03
             254     13.3946E-03     36.3946E-03    -1.21600E+06     37.3598E+06     71.5793E+06    -638.268E+03    -298.242E-03     594.176E-03    -295.934E-03     142.547E-03    -301.617E-03     597.471E-03    -295.628E-03     115.463E-03
             255     13.3929E-03     38.1064E-03    -274.372E+03     36.7972E+06     70.4086E+06    -88.8091E+03    -296.869E-03     592.743E-03    -295.874E-03     144.893E-03    -300.252E-03     596.052E-03    -295.575E-03     118.019E-03
             256     13.3981E-03     39.8117E-03    -1.00451E+06     34.6050E+06     68.3637E+06    -1.53062E+06    -296.035E-03     591.711E-03    -295.676E-03     145.189E-03    -299.442E-03     595.039E-03    -295.382E-03     118.152E-03
             257     13.4006E-03     41.5182E-03     667.780E+03     38.8977E+06     72.6654E+06    -117.082E+03    -299.771E-03     595.346E-03    -295.575E-03     141.241E-03    -303.095E-03     598.601E-03    -295.269E-03     114.228E-03
             258     13.3909E-03     43.2504E-03    -6.32401E+06     32.2768E+06     66.8210E+06     355.948E+03    -302.050E-03     597.793E-03    -295.743E-03     138.503E-03    -305.279E-03     600.920E-03    -295.446E-03     111.827E-03
             259     13.3953E-03     44.9526E-03     231.727E+03     36.3622E+06     72.7918E+06    -438.673E+03    -296.328E-03     592.118E-03    -295.790E-03     145.201E-03    -299.700E-03     595.409E-03    -295.479E-03     118.441E-03
             260     13.4028E-03     46.6543E-03     2.11781E+06     40.5323E+06     74.6274E+06    -887.511E+03    -297.750E-03     593.284E-03    -295.534E-03     143.741E-03    -301.142E-03     596.611E-03    -295.223E-03     116.600E-03
             261     13.3945E-03     48.3846E-03    -6.49377E+06     32.7908E+06     66.5057E+06     953.071E+03    -303.160E-03     598.698E-03    -295.538E-03     139.059E-03    -306.412E-03     601.851E-03    -295.244E-03     112.249E-03
             262     13.3949E-03     50.1031E-03    -3.23706E+06     34.8611E+06     68.6108E+06     1.54111E+06    -299.801E-03     595.570E-03    -295.769E-03     142.183E-03    -303.101E-03     598.784E-03    -295.472E-03     115.526E-03
             263     13.3954E-03     51.8027E-03    -669.557E+03     38.5930E+06     70.7703E+06    -774.755E+03    -297.298E-03     593.144E-03    -295.846E-03     142.808E-03    -300.704E-03     596.479E-03    -295.547E-03     115.623E-03
             264     13.3932E-03     53.5217E-03    -1.55477E+06     37.0915E+06     70.0870E+06     759.295E+03    -297.830E-03     593.628E-03    -295.798E-03     142.966E-03    -301.192E-03     596.913E-03    -295.499E-03     116.083E-03
             265     13.3991E-03     55.2251E-03    -1.16851E+06     37.3665E+06     71.4601E+06     403.123E+03    -297.575E-03     593.267E-03    -295.691E-03     143.187E-03    -300.957E-03     596.570E-03    -295.386E-03     116.147E-03
             266     13.3958E-03     56.9410E-03    -2.30933E+06     37.1029E+06     70.9015E+06    -825.341E+03    -299.424E-03     594.995E-03    -295.572E-03     143.243E-03    -302.852E-03     598.341E-03    -295.267E-03     115.803E-03
             267     13.4002E-03     58.6578E-03    -1.62867E+06     37.7893E+06     72.7090E+06    -284.752E+03    -300.107E-03     595.704E-03    -295.596E-03     141.637E-03    -303.482E-03     598.996E-03    -295.285E-03     114.362E-03
             268     13.3927E-03     60.3740E-03    -1.31762E+06     37.2711E+06     72.3952E+06    -301.341E+03    -298.084E-03     593.791E-03    -295.707E-03     143.121E-03    -301.452E-03     597.076E-03    -295.397E-03     116.152E-03
             269     13.4004E-03     62.0777E-03    -2.03468E+06     36.7965E+06     72.1310E+06    -167.291E+03    -297.231E-03     592.902E-03    -295.671E-03     145.799E-03    -300.663E-03     596.249E-03    -295.361E-03     118.761E-03
             270     13.3958E-03     63.7903E-03    -493.978E+03     39.4796E+06     75.4928E+06     1.52059E+06    -298.739E-03     594.348E-03    -295.609E-03     142.255E-03    -302.111E-03     597.639E-03    -295.288E-03     115.216E-03
             271     13.3986E-03     65.5047E-03    -1.00215E+06     39.9567E+06     74.5464E+06    -1.06040E+06    -299.195E-03     594.813E-03    -295.618E-03     143.347E-03    -302.602E-03     598.142E-03    -295.301E-03     116.067E-03
             272     13.3964E-03     67.2173E-03    -2.93023E+06     39.0314E+06     73.7859E+06    -661.694E+03    -300.695E-03     596.369E-03    -295.674E-03     143.577E-03    -304.092E-03     599.680E-03    -295.358E-03     116.418E-03
             273     13.3932E-03     68.9420E-03    -6.25527E+06     34.3861E+06     69.6574E+06     2.73456E+06    -300.521E-03     596.339E-03    -295.817E-03     142.190E-03    -303.794E-03     599.509E-03    -295.510E-03     115.866E-03
             274     13.3942E-03     70.6436E-03    -793.357E+03     39.6101E+06     73.1321E+06     276.925E+03    -296.116E-03     591.971E-03    -295.855E-03     144.638E-03    -299.486E-03     595.266E-03    -295.545E-03     117.987E-03
             275     13.3995E-03     72.3467E-03     1.55883E+06     43.0848E+06     79.3666E+06    -953.313E+03    -297.415E-03     593.211E-03    -295.797E-03     141.307E-03    -300.825E-03     596.550E-03    -295.465E-03     113.971E-03
             276     13.3896E-03     74.0702E-03    -4.23609E+06     38.5055E+06     74.0098E+06     318.737E+03    -300.252E-03     596.101E-03    -295.849E-03     140.150E-03    -303.609E-03     599.364E-03    -295.529E-03     112.988E-03
             277     13.3969E-03     75.7814E-03    -3.15818E+06     40.2298E+06     71.3068E+06     767.468E+03    -296.929E-03     592.717E-03    -295.788E-03     146.898E-03    -300.340E-03     596.053E-03    -295.485E-03     120.155E-03
             278     13.3999E-03     77.4854E-03     70.6144E+03     43.3224E+06     77.9582E+06    -566.650E+03    -297.914E-03     593.586E-03    -295.672E-03     143.230E-03    -301.300E-03     596.900E-03    -295.345E-03     116.202E-03
             279     13.3920E-03     79.2067E-03    -3.95804E+06     38.8083E+06     75.7689E+06     444.653E+03    -300.074E-03     595.803E-03    -295.729E-03     140.124E-03    -303.392E-03     599.025E-03    -295.401E-03     113.233E-03
             280     13.3987E-03     80.9128E-03    -1.94971E+06     43.1079E+06     75.0120E+06     981.564E+03    -296.723E-03     592.412E-03    -295.690E-03     144.028E-03    -300.112E-03     595.730E-03    -295.374E-03     117.227E-03
             281     13.3996E-03     82.6195E-03     283.246E+03     48.9215E+06     79.3665E+06    -711.920E+03    -298.563E-03     594.199E-03    -295.637E-03     140.143E-03    -301.987E-03     597.568E-03    -295.311E-03     112.639E-03
             282     13.3912E-03     84.3453E-03    -2.70154E+06     45.4302E+06     76.0136E+06     373.739E+03    -299.571E-03     595.271E-03    -295.700E-03     142.890E-03    -303.012E-03     598.643E-03    -295.382E-03     115.529E-03
             283     13.4024E-03     86.0504E-03     1.81631E+06     49.6343E+06     78.4350E+06    -1.20767E+06    -295.867E-03     591.425E-03    -295.557E-03     149.936E-03    -299.410E-03     594.923E-03    -295.240E-03     122.652E-03
             284     13.4017E-03     87.7562E-03    -3.72233E+06     44.7363E+06     75.1025E+06    -3.60245E+06    -298.794E-03     594.197E-03    -295.403E-03     143.755E-03    -302.250E-03     597.582E-03    -295.087E-03     116.312E-03
             285     13.3952E-03     89.4816E-03    -2.33390E+06     45.4931E+06     77.3714E+06     494.940E+03    -300.479E-03     596.033E-03    -295.553E-03     141.058E-03    -303.756E-03     599.238E-03    -295.229E-03     114.523E-03
             286     13.3992E-03     91.1830E-03     126.531E+03     47.4985E+06     79.5159E+06     1.54353E+06    -299.057E-03     594.700E-03    -295.643E-03     144.000E-03    -302.361E-03     597.943E-03    -295.314E-03     117.630E-03
             287     13.3956E-03     92.9013E-03    -6.56059E+06     43.0910E+06     71.5978E+06     1.37846E+06    -299.668E-03     595.261E-03    -295.593E-03     143.313E-03    -303.009E-03     598.525E-03    -295.288E-03     116.675E-03
             288     13.3992E-03     94.6176E-03    -1.26634E+06     50.4054E+06     76.7521E+06     2.88689E+06    -299.033E-03     594.758E-03    -295.724E-03     141.309E-03    -302.351E-03     598.027E-03    -295.412E-03     114.702E-03
             289     13.3897E-03     96.3236E-03    -3.67158E+06     47.8797E+06     75.7844E+06     135.667E+03    -298.608E-03     594.492E-03    -295.883E-03     141.828E-03    -301.966E-03     597.786E-03    -295.568E-03     115.042E-03
             290     13.3975E-03     98.0365E-03    -1.12719E+06     46.8734E+06     76.3994E+06     60.9057E+03    -295.808E-03     591.548E-03    -295.740E-03     148.029E-03    -299.263E-03     594.943E-03    -295.424E-03     121.220E-03
             291     13.4035E-03     99.7397E-03     1.22147E+06     50.2252E+06     79.8020E+06     522.283E+03    -295.986E-03     591.427E-03    -295.441E-03     146.631E-03    -299.495E-03     594.887E-03    -295.116E-03     119.275E-03
             292     669.849E-06     98.3784E-03    -113.490E+06    -171.551E+06    -112.293E+06    -7.72041E+03    -295.800E-03     590.907E-03    -295.107E-03     23.7303E-03    -296.068E-03     590.489E-03    -295.255E-03     19.0866E-03
             293     1.33926E-03     98.4278E-03    -111.252E+06    -165.515E+06    -103.495E+06     54.9422E+03    -295.864E-03     591.341E-03    -295.477E-03     43.1939E-03    -296.370E-03     591.165E-03    -295.593E-03     34.8071E-03
             294     2.00879E-03     98.5083E-03    -106.695E+06    -156.466E+06    -90.2238E+06     114.252E+03    -296.139E-03     591.706E-03    -295.567E-03     63.8735E-03    -297.034E-03     591.929E-03    -295.636E-03     51.5127E-03
             295     2.67857E-03     98.6201E-03    -100.628E+06    -146.140E+06    -74.3443E+06     177.155E+03    -296.502E-03     592.125E-03    -295.624E-03     84.6423E-03    -297.934E-03     592.897E-03    -295.637E-03     68.2828E-03
             296     3.34827E-03     98.7627E-03    -93.7049E+06    -134.487E+06    -58.0203E+06     221.499E+03    -297.041E-03     592.704E-03    -295.663E-03     105.228E-03    -299.151E-03     594.171E-03    -295.622E-03     84.8961E-03
             297     4.01797E-03     98.9365E-03    -86.2133E+06    -97.8728E+06    -42.0186E+06     299.904E+03    -297.655E-03     593.314E-03    -295.659E-03     125.476E-03    -300.605E-03     595.732E-03    -295.602E-03     101.262E-03
             298     4.68765E-03     99.1403E-03    -78.3970E+06    -54.2434E+06    -24.8758E+06     126.779E+03    -298.366E-03     594.012E-03    -295.646E-03     145.155E-03    -302.274E-03     597.521E-03    -295.578E-03     117.194E-03
             299     5.35773E-03     99.3737E-03    -70.6222E+06    -35.3027E+06    -7.75132E+06    -102.623E+03    -299.306E-03     594.977E-03    -295.671E-03     164.023E-03    -304.216E-03     599.533E-03    -295.556E-03     132.497E-03
             300     6.02731E-03     99.6352E-03    -63.1818E+06    -25.3780E+06     6.71695E+06     78.8640E+03    -300.364E-03     596.070E-03    -295.706E-03     181.617E-03    -306.293E-03     601.665E-03    -295.544E-03     146.791E-03
             301     6.69715E-03     99.9230E-03    -56.0256E+06    -16.3934E+06     19.0647E+06     425.270E+03    -301.353E-03     597.091E-03    -295.737E-03     197.327E-03    -308.260E-03     603.685E-03    -295.537E-03     159.593E-03
             302     7.36685E-03     100.233E-03    -49.3560E+06    -8.62966E+06     28.6535E+06     710.378E+03    -302.197E-03     597.951E-03    -295.753E-03     210.697E-03    -309.977E-03     605.441E-03    -295.526E-03     170.523E-03
             303     8.03679E-03     100.561E-03    -42.6735E+06    -810.615E+03     38.4032E+06     1.28439E+06    -302.803E-03     598.560E-03    -295.757E-03     221.281E-03    -311.277E-03     606.768E-03    -295.502E-03     179.260E-03
             304     8.70678E-03     100.903E-03    -36.1606E+06     7.12938E+06     49.0548E+06     1.31054E+06    -303.165E-03     598.912E-03    -295.747E-03     228.976E-03    -312.136E-03     607.638E-03    -295.460E-03     185.621E-03
             305     9.37641E-03     101.253E-03    -30.7021E+06     13.9348E+06     56.6778E+06     819.367E+03    -303.040E-03     598.738E-03    -295.698E-03     234.192E-03    -312.302E-03     607.776E-03    -295.390E-03     190.018E-03
             306     10.0480E-03     101.607E-03    -25.2647E+06     20.5178E+06     62.3234E+06     337.068E+03    -302.186E-03     597.776E-03    -295.591E-03     235.752E-03    -311.470E-03     606.863E-03    -295.272E-03     191.433E-03
             307     10.7205E-03     101.957E-03    -18.9481E+06     25.6883E+06     65.0121E+06    -629.397E+03    -301.521E-03     596.957E-03    -295.436E-03     233.361E-03    -310.595E-03     605.867E-03    -295.121E-03     189.320E-03
             308     11.3930E-03     102.300E-03    -12.7974E+06     30.8778E+06     62.1895E+06    -1.33978E+06    -301.536E-03     596.826E-03    -295.289E-03     222.064E-03    -309.876E-03     605.049E-03    -295.005E-03     179.404E-03
             309     12.0625E-03     102.623E-03    -7.01589E+06     42.5981E+06     68.7241E+06     324.053E+03    -302.629E-03     597.907E-03    -295.278E-03     213.785E-03    -310.513E-03     605.718E-03    -294.986E-03     171.739E-03
             310     12.7318E-03     102.957E-03    -2.94174E+06     50.6986E+06     77.2668E+06     719.309E+03    -302.118E-03     597.493E-03    -295.374E-03     178.526E-03    -307.802E-03     603.121E-03    -295.057E-03     143.741E-03
             311     669.490E-06     100.090E-03    -113.594E+06    -172.083E+06    -111.714E+06     63.7376E+03    -295.960E-03     591.313E-03    -295.354E-03     23.9227E-03    -296.229E-03     590.893E-03    -295.498E-03     19.2532E-03
             312     1.33917E-03     100.140E-03    -110.819E+06    -165.934E+06    -103.135E+06     152.917E+03    -295.924E-03     591.573E-03    -295.649E-03     43.4307E-03    -296.428E-03     591.393E-03    -295.763E-03     35.0527E-03
             313     2.00869E-03     100.220E-03    -106.064E+06    -156.742E+06    -89.9272E+06     298.123E+03    -296.200E-03     591.894E-03    -295.694E-03     64.0964E-03    -297.093E-03     592.115E-03    -295.763E-03     51.7463E-03
             314     2.67822E-03     100.332E-03    -100.033E+06    -146.295E+06    -74.0269E+06     329.360E+03    -296.562E-03     592.292E-03    -295.730E-03     84.8908E-03    -297.993E-03     593.063E-03    -295.743E-03     68.5337E-03
             315     3.34791E-03     100.475E-03    -93.3498E+06    -134.646E+06    -57.6476E+06     316.140E+03    -297.080E-03     592.834E-03    -295.754E-03     105.539E-03    -299.190E-03     594.302E-03    -295.711E-03     85.2201E-03
             316     4.01765E-03     100.648E-03    -86.2934E+06    -97.5559E+06    -41.7235E+06     51.8392E+03    -297.682E-03     593.417E-03    -295.735E-03     125.830E-03    -300.635E-03     595.838E-03    -295.677E-03     101.631E-03
             317     4.68761E-03     100.852E-03    -78.9321E+06    -54.0505E+06    -24.7993E+06    -55.8383E+03    -298.405E-03     594.115E-03    -295.710E-03     145.479E-03    -302.318E-03     597.628E-03    -295.641E-03     117.533E-03
             318     5.35721E-03     101.085E-03    -71.4575E+06    -35.9232E+06    -7.87788E+06     438.317E+03    -299.313E-03     595.039E-03    -295.726E-03     164.369E-03    -304.228E-03     599.595E-03    -295.610E-03     132.875E-03
             319     6.02712E-03     101.348E-03    -64.3603E+06    -26.3251E+06     6.07414E+06     921.786E+03    -300.220E-03     595.960E-03    -295.740E-03     182.087E-03    -306.155E-03     601.555E-03    -295.578E-03     147.318E-03
             320     6.69690E-03     101.635E-03    -56.9124E+06    -17.1234E+06     18.1408E+06     1.36634E+06    -301.058E-03     596.793E-03    -295.735E-03     197.985E-03    -307.970E-03     603.389E-03    -295.537E-03     160.344E-03
             321     7.36702E-03     101.945E-03    -49.6940E+06    -8.88744E+06     28.5370E+06     1.68435E+06    -301.824E-03     597.536E-03    -295.712E-03     211.538E-03    -309.609E-03     605.030E-03    -295.484E-03     171.484E-03
             322     8.03715E-03     102.272E-03    -42.4286E+06    -847.639E+03     38.2878E+06     1.31341E+06    -302.345E-03     598.016E-03    -295.671E-03     222.235E-03    -310.838E-03     606.244E-03    -295.417E-03     180.269E-03
             323     8.70778E-03     102.614E-03    -35.2398E+06     7.26900E+06     48.3938E+06     1.01808E+06    -302.474E-03     598.083E-03    -295.609E-03     229.933E-03    -311.469E-03     606.839E-03    -295.327E-03     186.607E-03
             324     9.37971E-03     102.964E-03    -28.7988E+06     14.8509E+06     57.7059E+06     830.904E+03    -302.275E-03     597.796E-03    -295.521E-03     233.983E-03    -311.554E-03     606.858E-03    -295.212E-03     189.773E-03
             325     10.0514E-03     103.315E-03    -22.4452E+06     22.0962E+06     65.2016E+06     782.248E+03    -302.245E-03     597.673E-03    -295.427E-03     233.371E-03    -311.530E-03     606.767E-03    -295.101E-03     188.774E-03
             326     10.7228E-03     103.665E-03    -15.9143E+06     28.7514E+06     68.5951E+06     924.376E+03    -302.976E-03     598.345E-03    -295.369E-03     229.460E-03    -312.028E-03     607.244E-03    -295.045E-03     184.960E-03
             327     11.3911E-03     104.012E-03    -11.2601E+06     33.2658E+06     64.1346E+06     309.819E+03    -304.095E-03     599.468E-03    -295.374E-03     219.648E-03    -312.413E-03     607.679E-03    -295.085E-03     176.604E-03
             328     12.0582E-03     104.338E-03    -9.91394E+06     39.5861E+06     65.3573E+06    -2.12148E+06    -304.259E-03     599.739E-03    -295.480E-03     213.422E-03    -312.210E-03     607.605E-03    -295.196E-03     170.805E-03
             329     12.7268E-03     104.666E-03    -5.16426E+06     48.2701E+06     75.5323E+06    -934.302E+03    -301.790E-03     597.410E-03    -295.620E-03     176.467E-03    -307.485E-03     603.039E-03    -295.305E-03     141.559E-03
             330     669.498E-06     101.802E-03    -114.812E+06    -172.470E+06    -112.856E+06    -164.636E+03    -295.915E-03     591.474E-03    -295.559E-03     24.2174E-03    -296.189E-03     591.056E-03    -295.707E-03     19.5173E-03
             331     1.33892E-03     101.852E-03    -111.699E+06    -166.255E+06    -104.041E+06     21.2136E+03    -295.891E-03     591.595E-03    -295.704E-03     43.6137E-03    -296.398E-03     591.418E-03    -295.821E-03     35.2492E-03
             332     2.00859E-03     101.932E-03    -107.167E+06    -157.205E+06    -90.7985E+06     216.737E+03    -296.184E-03     591.903E-03    -295.719E-03     64.2820E-03    -297.081E-03     592.125E-03    -295.789E-03     51.9448E-03
             333     2.67823E-03     102.044E-03    -101.288E+06    -146.836E+06    -74.8334E+06     303.563E+03    -296.595E-03     592.342E-03    -295.747E-03     85.0554E-03    -298.030E-03     593.114E-03    -295.762E-03     68.7193E-03
             334     3.34794E-03     102.186E-03    -94.3813E+06    -134.841E+06    -58.0699E+06     401.235E+03    -297.099E-03     592.871E-03    -295.772E-03     105.734E-03    -299.214E-03     594.340E-03    -295.730E-03     85.4339E-03
             335     4.01768E-03     102.360E-03    -87.2027E+06    -97.3245E+06    -41.8829E+06     583.765E+03    -297.662E-03     593.410E-03    -295.747E-03     126.070E-03    -300.621E-03     595.835E-03    -295.689E-03     101.897E-03
             336     4.68732E-03     102.564E-03    -80.1111E+06    -54.3814E+06    -25.2387E+06     838.806E+03    -298.340E-03     594.050E-03    -295.710E-03     145.926E-03    -302.262E-03     597.569E-03    -295.641E-03     118.007E-03
             337     5.35729E-03     102.798E-03    -72.9398E+06    -37.2217E+06    -9.36890E+06     1.12466E+06    -299.122E-03     594.821E-03    -295.699E-03     165.030E-03    -304.050E-03     599.385E-03    -295.587E-03     133.566E-03
             338     6.02725E-03     103.059E-03    -65.1683E+06    -27.0858E+06     4.59052E+06     1.36187E+06    -299.913E-03     595.589E-03    -295.677E-03     182.890E-03    -305.860E-03     601.196E-03    -295.520E-03     148.171E-03
             339     6.69768E-03     103.346E-03    -57.6321E+06    -17.7827E+06     16.5128E+06     1.30269E+06    -300.734E-03     596.369E-03    -295.634E-03     198.795E-03    -307.661E-03     602.980E-03    -295.442E-03     161.194E-03
             340     7.36819E-03     103.656E-03    -49.6799E+06    -8.39935E+06     27.8567E+06     721.707E+03    -301.476E-03     597.058E-03    -295.582E-03     212.111E-03    -309.273E-03     604.568E-03    -295.359E-03     172.072E-03
             341     8.03903E-03     103.984E-03    -42.1499E+06    -31.8706E+03     39.3128E+06    -80.8109E+03    -302.018E-03     597.548E-03    -295.530E-03     222.282E-03    -310.534E-03     605.800E-03    -295.272E-03     180.237E-03
             342     8.71000E-03     104.324E-03    -35.2302E+06     7.06563E+06     49.5828E+06    -569.880E+03    -302.470E-03     597.950E-03    -295.480E-03     228.816E-03    -311.486E-03     606.722E-03    -295.191E-03     185.283E-03
             343     9.38044E-03     104.672E-03    -28.2386E+06     13.9122E+06     58.1662E+06    -313.250E+03    -303.117E-03     598.572E-03    -295.454E-03     231.387E-03    -312.387E-03     607.622E-03    -295.143E-03     186.843E-03
             344     10.0503E-03     105.025E-03    -22.0032E+06     20.7691E+06     64.5894E+06     256.194E+03    -303.962E-03     599.444E-03    -295.482E-03     230.245E-03    -313.227E-03     608.518E-03    -295.158E-03     185.199E-03
             345     10.7182E-03     105.377E-03    -16.6272E+06     28.1728E+06     67.0982E+06     485.489E+03    -304.668E-03     600.224E-03    -295.555E-03     227.261E-03    -313.707E-03     609.108E-03    -295.237E-03     182.370E-03
             346     11.3876E-03     105.725E-03    -12.5156E+06     32.7151E+06     62.8274E+06     961.341E+03    -304.704E-03     600.339E-03    -295.635E-03     218.781E-03    -312.997E-03     608.522E-03    -295.350E-03     175.629E-03
             347     12.0570E-03     106.056E-03    -6.69927E+06     44.5314E+06     70.1500E+06     545.745E+03    -304.186E-03     599.951E-03    -295.765E-03     212.417E-03    -312.099E-03     607.795E-03    -295.469E-03     169.915E-03
             348     12.7245E-03     106.380E-03    -4.17970E+06     50.8102E+06     78.2113E+06     463.255E+03    -302.028E-03     597.919E-03    -295.891E-03     177.975E-03    -307.744E-03     603.573E-03    -295.567E-03     143.148E-03
             349     669.497E-06     103.514E-03    -114.971E+06    -172.718E+06    -112.993E+06     288.432E+03    -295.896E-03     591.405E-03    -295.509E-03     24.0917E-03    -296.169E-03     590.985E-03    -295.657E-03     19.4448E-03
             350     1.33919E-03     103.564E-03    -112.228E+06    -166.697E+06    -104.278E+06     242.395E+03    -295.841E-03     591.507E-03    -295.667E-03     43.6552E-03    -296.350E-03     591.329E-03    -295.784E-03     35.3043E-03
             351     2.00874E-03     103.644E-03    -107.595E+06    -157.586E+06    -90.9237E+06     320.882E+03    -296.110E-03     591.783E-03    -295.673E-03     64.4355E-03    -297.009E-03     592.004E-03    -295.743E-03     52.1056E-03
             352     2.67837E-03     103.756E-03    -101.575E+06    -147.192E+06    -75.0336E+06     394.351E+03    -296.526E-03     592.218E-03    -295.692E-03     85.2952E-03    -297.964E-03     592.990E-03    -295.706E-03     68.9687E-03
             353     3.34797E-03     103.898E-03    -94.8299E+06    -135.636E+06    -58.7963E+06     633.802E+03    -297.052E-03     592.762E-03    -295.709E-03     106.094E-03    -299.171E-03     594.233E-03    -295.669E-03     85.7961E-03
             354     4.01771E-03     104.072E-03    -87.6805E+06    -99.1210E+06    -43.0506E+06     1.29822E+06    -297.552E-03     593.228E-03    -295.676E-03     126.574E-03    -300.516E-03     595.653E-03    -295.620E-03     102.409E-03
             355     4.68788E-03     104.276E-03    -80.2341E+06    -55.6934E+06    -26.3894E+06     2.01416E+06    -298.119E-03     593.736E-03    -295.617E-03     146.511E-03    -302.048E-03     597.259E-03    -295.551E-03     118.621E-03
             356     5.35801E-03     104.509E-03    -72.4871E+06    -36.8493E+06    -9.86614E+06     1.92709E+06    -298.856E-03     594.436E-03    -295.580E-03     165.473E-03    -303.793E-03     599.013E-03    -295.471E-03     134.021E-03
             357     6.02855E-03     104.770E-03    -64.5902E+06    -26.4653E+06     4.27407E+06     1.26041E+06    -299.745E-03     595.288E-03    -295.543E-03     183.039E-03    -305.701E-03     600.908E-03    -295.390E-03     148.290E-03
             358     6.69896E-03     105.057E-03    -56.4158E+06    -16.4508E+06     16.9474E+06     314.781E+03    -300.676E-03     596.183E-03    -295.507E-03     198.441E-03    -307.608E-03     602.807E-03    -295.317E-03     160.751E-03
             359     7.36937E-03     105.366E-03    -49.0736E+06    -7.55293E+06     27.9717E+06    -453.040E+03    -301.513E-03     596.991E-03    -295.478E-03     211.043E-03    -309.312E-03     604.509E-03    -295.256E-03     170.864E-03
             360     8.03977E-03     105.693E-03    -42.4515E+06     301.838E+03     39.3642E+06    -416.603E+03    -302.364E-03     597.838E-03    -295.474E-03     220.445E-03    -310.868E-03     606.078E-03    -295.216E-03     178.255E-03
             361     8.70979E-03     106.034E-03    -35.3201E+06     8.10018E+06     51.0472E+06    -82.7818E+03    -303.399E-03     598.910E-03    -295.511E-03     226.496E-03    -312.391E-03     607.657E-03    -295.216E-03     182.775E-03
             362     9.37913E-03     106.384E-03    -29.2889E+06     13.3407E+06     58.9625E+06    -174.893E+03    -304.464E-03     600.053E-03    -295.590E-03     229.815E-03    -313.721E-03     609.083E-03    -295.272E-03     185.050E-03
             363     10.0471E-03     106.739E-03    -23.6851E+06     19.5765E+06     64.5503E+06    -427.680E+03    -305.153E-03     600.854E-03    -295.701E-03     230.271E-03    -314.425E-03     609.924E-03    -295.372E-03     185.077E-03
             364     10.7161E-03     107.091E-03    -18.1947E+06     27.5914E+06     66.8867E+06    -349.270E+03    -305.524E-03     601.340E-03    -295.816E-03     228.734E-03    -314.613E-03     610.268E-03    -295.495E-03     183.678E-03
             365     11.3831E-03     107.440E-03    -13.6964E+06     31.5132E+06     61.8814E+06    -449.363E+03    -304.916E-03     600.812E-03    -295.895E-03     220.720E-03    -313.283E-03     609.062E-03    -295.612E-03     177.398E-03
             366     12.0508E-03     107.767E-03    -9.21861E+06     41.1265E+06     65.9218E+06     317.876E+03    -302.952E-03     598.903E-03    -295.952E-03     214.715E-03    -310.836E-03     606.709E-03    -295.668E-03     172.720E-03
             367     12.7206E-03     108.096E-03    -2.99344E+06     51.2580E+06     76.2483E+06     1.06268E+06    -298.812E-03     594.735E-03    -295.923E-03     182.148E-03    -304.531E-03     600.404E-03    -295.612E-03     147.776E-03
             368     669.556E-06     105.226E-03    -114.813E+06    -173.548E+06    -112.926E+06     345.369E+03    -295.708E-03     591.231E-03    -295.524E-03     23.8831E-03    -295.978E-03     590.806E-03    -295.670E-03     19.2764E-03
             369     1.33911E-03     105.275E-03    -111.751E+06    -167.262E+06    -103.804E+06     449.707E+03    -295.724E-03     591.299E-03    -295.575E-03     43.6938E-03    -296.231E-03     591.117E-03    -295.690E-03     35.3350E-03
             370     2.00888E-03     105.356E-03    -106.974E+06    -158.184E+06    -90.7318E+06     487.998E+03    -295.967E-03     591.533E-03    -295.566E-03     64.5718E-03    -296.866E-03     591.754E-03    -295.635E-03     52.2245E-03
             371     2.67873E-03     105.467E-03    -101.236E+06    -148.131E+06    -75.2725E+06     837.624E+03    -296.374E-03     591.945E-03    -295.571E-03     85.5065E-03    -297.812E-03     592.716E-03    -295.586E-03     69.1699E-03
             372     3.34867E-03     105.610E-03    -94.7813E+06    -136.765E+06    -59.1593E+06     1.22823E+06    -296.886E-03     592.465E-03    -295.579E-03     106.250E-03    -299.007E-03     593.936E-03    -295.539E-03     85.9449E-03
             373     4.01865E-03     105.783E-03    -87.7236E+06    -100.934E+06    -43.5284E+06     1.49725E+06    -297.405E-03     592.945E-03    -295.541E-03     126.629E-03    -300.371E-03     595.369E-03    -295.485E-03     102.438E-03
             374     4.68867E-03     105.987E-03    -80.0773E+06    -56.8549E+06    -27.2822E+06     1.47618E+06    -298.016E-03     593.498E-03    -295.482E-03     146.338E-03    -301.946E-03     597.021E-03    -295.419E-03     118.399E-03
             375     5.35903E-03     106.220E-03    -71.6473E+06    -36.2265E+06    -10.4268E+06     1.07854E+06    -298.882E-03     594.343E-03    -295.461E-03     164.943E-03    -303.819E-03     598.927E-03    -295.357E-03     133.403E-03
             376     6.02911E-03     106.481E-03    -63.2619E+06    -25.1434E+06     4.98587E+06     581.313E+03    -299.949E-03     595.416E-03    -295.467E-03     182.119E-03    -305.903E-03     601.041E-03    -295.314E-03     147.247E-03
             377     6.69909E-03     106.768E-03    -55.6485E+06    -15.2763E+06     18.8122E+06     473.061E+03    -301.000E-03     596.490E-03    -295.490E-03     197.143E-03    -307.928E-03     603.112E-03    -295.293E-03     159.327E-03
             378     7.36901E-03     107.077E-03    -48.8161E+06    -6.78205E+06     29.9307E+06     650.370E+03    -302.065E-03     597.591E-03    -295.526E-03     209.525E-03    -309.856E-03     605.098E-03    -295.296E-03     169.224E-03
             379     8.03857E-03     107.405E-03    -42.2752E+06     855.726E+03     39.7208E+06     284.954E+03    -303.231E-03     598.820E-03    -295.589E-03     219.128E-03    -311.717E-03     607.043E-03    -295.330E-03     176.813E-03
             380     8.70753E-03     107.746E-03    -36.4420E+06     7.40960E+06     49.1695E+06    -92.1756E+03    -304.222E-03     599.909E-03    -295.687E-03     225.925E-03    -313.205E-03     608.646E-03    -295.399E-03     182.092E-03
             381     9.37600E-03     108.098E-03    -29.8580E+06     13.9543E+06     58.3686E+06     55.9532E+03    -304.854E-03     600.654E-03    -295.800E-03     230.204E-03    -314.107E-03     609.682E-03    -295.485E-03     185.445E-03
             382     10.0455E-03     108.453E-03    -23.8952E+06     21.0132E+06     65.2972E+06    -191.619E+03    -305.140E-03     601.044E-03    -295.905E-03     231.391E-03    -314.412E-03     610.117E-03    -295.574E-03     186.312E-03
             383     10.7135E-03     108.806E-03    -19.3602E+06     26.3334E+06     66.2125E+06    -659.610E+03    -304.908E-03     600.875E-03    -295.967E-03     230.658E-03    -314.012E-03     609.813E-03    -295.646E-03     185.807E-03
             384     11.3831E-03     109.157E-03    -13.4135E+06     31.2322E+06     61.8999E+06    -319.018E+03    -303.526E-03     599.477E-03    -295.951E-03     223.868E-03    -311.894E-03     607.728E-03    -295.667E-03     181.058E-03
             385     12.0533E-03     109.482E-03    -9.50734E+06     41.1991E+06     65.9036E+06    -790.337E+03    -301.765E-03     597.665E-03    -295.900E-03     218.042E-03    -309.702E-03     605.523E-03    -295.617E-03     176.313E-03
             386     12.7274E-03     109.800E-03    -4.65050E+06     50.2096E+06     76.9219E+06    -653.227E+03    -299.374E-03     595.230E-03    -295.856E-03     180.039E-03    -305.152E-03     600.947E-03    -295.537E-03     145.219E-03
             387     669.664E-06     106.938E-03    -115.588E+06    -174.219E+06    -112.796E+06     25.7027E+03    -295.540E-03     590.948E-03    -295.408E-03     23.8808E-03    -295.814E-03     590.521E-03    -295.552E-03     19.2595E-03
             388     1.33948E-03     106.987E-03    -112.062E+06    -168.163E+06    -104.711E+06     292.654E+03    -295.587E-03     591.019E-03    -295.432E-03     43.6935E-03    -296.093E-03     590.834E-03    -295.549E-03     35.3221E-03
             389     2.00931E-03     107.067E-03    -107.628E+06    -159.417E+06    -91.7180E+06     675.416E+03    -295.879E-03     591.312E-03    -295.432E-03     64.5363E-03    -296.779E-03     591.530E-03    -295.504E-03     52.1707E-03
             390     2.67915E-03     107.178E-03    -101.853E+06    -149.455E+06    -76.0721E+06     975.106E+03    -296.299E-03     591.753E-03    -295.454E-03     85.3100E-03    -297.739E-03     592.521E-03    -295.470E-03     68.9413E-03
             391     3.34899E-03     107.321E-03    -94.8589E+06    -137.926E+06    -59.5586E+06     1.14266E+06    -296.818E-03     592.295E-03    -295.478E-03     105.830E-03    -298.938E-03     593.762E-03    -295.438E-03     85.4825E-03
             392     4.01896E-03     107.494E-03    -87.1889E+06    -101.519E+06    -43.3686E+06     1.06605E+06    -297.424E-03     592.885E-03    -295.462E-03     125.984E-03    -300.386E-03     595.303E-03    -295.405E-03     101.738E-03
             393     4.68906E-03     107.697E-03    -79.3938E+06    -56.3155E+06    -26.1217E+06     683.196E+03    -298.187E-03     593.629E-03    -295.442E-03     145.496E-03    -302.113E-03     597.149E-03    -295.376E-03     117.481E-03
             394     5.35887E-03     107.930E-03    -71.7404E+06    -35.6345E+06    -8.79663E+06     189.192E+03    -299.221E-03     594.697E-03    -295.476E-03     164.038E-03    -304.155E-03     599.275E-03    -295.364E-03     132.414E-03
             395     6.02863E-03     108.192E-03    -64.1747E+06    -25.4400E+06     5.91731E+06     133.560E+03    -300.353E-03     595.889E-03    -295.536E-03     181.152E-03    -306.305E-03     601.505E-03    -295.376E-03     146.197E-03
             396     6.69826E-03     108.479E-03    -56.7534E+06    -16.1938E+06     18.1009E+06     611.794E+03    -301.469E-03     597.073E-03    -295.603E-03     196.224E-03    -308.388E-03     603.679E-03    -295.407E-03     158.353E-03
             397     7.36761E-03     108.789E-03    -48.8687E+06    -6.84809E+06     29.5524E+06     848.795E+03    -302.616E-03     598.299E-03    -295.683E-03     209.050E-03    -310.394E-03     605.794E-03    -295.454E-03     168.708E-03
             398     8.03662E-03     109.117E-03    -41.9311E+06     1.33659E+06     40.4026E+06     764.505E+03    -303.659E-03     599.436E-03    -295.777E-03     219.476E-03    -312.141E-03     607.657E-03    -295.516E-03     177.164E-03
             399     8.70554E-03     109.460E-03    -35.3909E+06     7.71420E+06     50.4958E+06     662.880E+03    -304.413E-03     600.289E-03    -295.876E-03     227.004E-03    -313.398E-03     609.029E-03    -295.583E-03     183.238E-03
             400     9.37508E-03     109.811E-03    -28.7814E+06     14.7633E+06     59.0633E+06     400.007E+03    -304.771E-03     600.731E-03    -295.960E-03     231.534E-03    -314.037E-03     609.775E-03    -295.644E-03     186.847E-03
             401     10.0435E-03     110.167E-03    -23.0762E+06     21.4581E+06     64.5748E+06     11.6425E+03    -304.435E-03     600.438E-03    -296.003E-03     233.027E-03    -313.724E-03     609.534E-03    -295.678E-03     188.092E-03
             402     10.7136E-03     110.520E-03    -17.3543E+06     27.0754E+06     66.7511E+06    -264.890E+03    -303.439E-03     599.417E-03    -295.978E-03     232.095E-03    -312.522E-03     608.341E-03    -295.658E-03     187.627E-03
             403     11.3846E-03     110.867E-03    -12.2802E+06     32.4276E+06     63.2160E+06    -282.317E+03    -302.222E-03     598.097E-03    -295.875E-03     223.130E-03    -310.528E-03     606.291E-03    -295.588E-03     180.666E-03
             404     12.0580E-03     111.190E-03    -6.63230E+06     45.0777E+06     70.9181E+06     840.702E+03    -302.390E-03     598.224E-03    -295.834E-03     214.760E-03    -310.254E-03     606.018E-03    -295.535E-03     173.029E-03
             405     12.7239E-03     111.517E-03    -5.08647E+06     50.2527E+06     78.2009E+06     514.694E+03    -301.124E-03     596.991E-03    -295.867E-03     178.486E-03    -306.870E-03     602.670E-03    -295.541E-03     143.569E-03
             406     669.748E-06     108.648E-03    -114.867E+06    -174.893E+06    -113.747E+06     55.4181E+03    -295.587E-03     590.754E-03    -295.168E-03     23.6195E-03    -295.854E-03     590.323E-03    -295.316E-03     19.0032E-03
             407     1.33960E-03     108.697E-03     -112.66E+06    -169.327E+06    -104.974E+06     385.929E+03    -295.591E-03     590.951E-03    -295.360E-03     43.3534E-03    -296.097E-03     590.760E-03    -295.476E-03     34.9923E-03
             408     2.00940E-03     108.778E-03    -108.016E+06    -160.469E+06    -91.7523E+06     575.768E+03    -295.915E-03     591.313E-03    -295.398E-03     64.1139E-03    -296.812E-03     591.523E-03    -295.468E-03     51.7472E-03
             409     2.67916E-03     108.889E-03    -101.719E+06    -150.142E+06    -75.7449E+06     496.340E+03    -296.348E-03     591.795E-03    -295.447E-03     84.8241E-03    -297.785E-03     592.557E-03    -295.460E-03     68.4294E-03
             410     3.34904E-03     109.031E-03    -94.5293E+06    -138.563E+06    -59.1164E+06     370.940E+03    -296.956E-03     592.454E-03    -295.498E-03     105.323E-03    -299.072E-03     593.914E-03    -295.456E-03     84.9349E-03
             411     4.01878E-03     109.205E-03    -87.1211E+06    -101.845E+06    -42.8830E+06     378.688E+03    -297.688E-03     593.209E-03    -295.521E-03     125.377E-03    -300.645E-03     595.619E-03    -295.461E-03     101.089E-03
             412     4.68843E-03     109.408E-03    -79.5526E+06    -56.1177E+06    -25.4144E+06     498.391E+03    -298.542E-03     594.089E-03    -295.547E-03     144.800E-03    -302.461E-03     597.601E-03    -295.478E-03     116.747E-03
             413     5.35809E-03     109.642E-03    -71.9375E+06    -35.4201E+06    -8.22026E+06     850.209E+03    -299.559E-03     595.180E-03    -295.620E-03     163.400E-03    -304.483E-03     599.746E-03    -295.506E-03     131.772E-03
             414     6.02748E-03     109.904E-03    -64.4630E+06    -25.4331E+06     6.08307E+06     992.817E+03    -300.633E-03     596.337E-03    -295.704E-03     180.698E-03    -306.569E-03     601.936E-03    -295.543E-03     145.777E-03
             415     6.69676E-03     110.192E-03    -56.8037E+06    -16.0961E+06     18.0677E+06     280.683E+03    -301.708E-03     597.488E-03    -295.780E-03     196.239E-03    -308.616E-03     604.085E-03    -295.584E-03     158.383E-03
             416     7.36601E-03     110.502E-03    -49.6860E+06    -7.65952E+06     28.6119E+06    -224.600E+03    -302.704E-03     598.554E-03    -295.851E-03     209.653E-03    -310.483E-03     606.047E-03    -295.624E-03     169.334E-03
             417     8.03544E-03     110.831E-03    -42.4947E+06     694.128E+03     40.2584E+06    -48.5532E+03    -303.506E-03     599.426E-03    -295.920E-03     220.391E-03    -311.991E-03     607.645E-03    -295.658E-03     178.156E-03
             418     8.70517E-03     111.174E-03    -34.9983E+06     7.53132E+06     51.1771E+06     229.518E+03    -304.071E-03     600.047E-03    -295.976E-03     228.140E-03    -313.054E-03     608.784E-03    -295.680E-03     184.510E-03
             419     9.37391E-03     111.526E-03    -28.7232E+06     14.5441E+06     58.7414E+06     374.961E+03    -304.172E-03     600.169E-03    -295.997E-03     233.021E-03    -313.454E-03     609.231E-03    -295.683E-03     188.473E-03
             420     10.0443E-03     111.880E-03    -22.4013E+06     22.5072E+06     65.3757E+06     259.266E+03    -303.682E-03     599.663E-03    -295.981E-03     234.158E-03    -312.990E-03     608.782E-03    -295.654E-03     189.360E-03
             421     10.7152E-03     112.231E-03    -16.2860E+06     28.8938E+06     68.7385E+06     214.994E+03    -303.397E-03     599.329E-03    -295.932E-03     231.419E-03    -312.471E-03     608.248E-03    -295.607E-03     186.952E-03
             422     11.3863E-03     112.578E-03    -12.8302E+06     32.8932E+06     63.9070E+06     794.375E+03    -303.243E-03     599.115E-03    -295.872E-03     221.004E-03    -311.540E-03     607.299E-03    -295.582E-03     178.321E-03
             423     12.0521E-03     112.903E-03    -11.4351E+06     40.1672E+06     65.4677E+06     1.31694E+06    -302.316E-03     598.166E-03    -295.850E-03     215.275E-03    -310.168E-03     605.931E-03    -295.564E-03     173.724E-03
             424     12.7229E-03     113.233E-03    -4.98984E+06     49.6594E+06     75.3373E+06    -333.899E+03    -298.880E-03     594.687E-03    -295.807E-03     180.979E-03    -304.617E-03     600.365E-03    -295.495E-03     146.413E-03
             425     669.828E-06     110.359E-03    -115.378E+06    -176.083E+06    -113.308E+06     370.483E+03    -295.652E-03     590.930E-03    -295.278E-03     23.3513E-03    -295.920E-03     590.492E-03    -295.422E-03     18.7547E-03
             426     1.33941E-03     110.408E-03    -112.527E+06    -169.796E+06    -104.461E+06     254.533E+03    -295.737E-03     591.201E-03    -295.464E-03     43.1005E-03    -296.241E-03     591.006E-03    -295.577E-03     34.7355E-03
             427     2.00906E-03     110.489E-03    -107.627E+06    -160.780E+06    -91.2075E+06     117.640E+03    -296.043E-03     591.562E-03    -295.519E-03     63.8234E-03    -296.938E-03     591.768E-03    -295.586E-03     51.4412E-03
             428     2.67883E-03     110.600E-03    -101.480E+06    -150.451E+06    -75.2175E+06     151.527E+03    -296.532E-03     592.113E-03    -295.581E-03     84.4269E-03    -297.963E-03     592.868E-03    -295.592E-03     68.0252E-03
             429     3.34845E-03     110.743E-03    -94.7961E+06    -138.808E+06    -58.7023E+06     274.211E+03    -297.216E-03     592.871E-03    -295.655E-03     104.844E-03    -299.326E-03     594.322E-03    -295.610E-03     84.4590E-03
             430     4.01799E-03     110.916E-03    -87.7400E+06    -102.263E+06    -42.7492E+06     405.969E+03    -297.978E-03     593.681E-03    -295.703E-03     124.969E-03    -300.928E-03     596.080E-03    -295.641E-03     100.690E-03
             431     4.68741E-03     111.121E-03    -80.1738E+06    -56.8875E+06    -26.1932E+06     547.571E+03    -298.787E-03     594.528E-03    -295.741E-03     144.599E-03    -302.698E-03     598.029E-03    -295.673E-03     116.564E-03
             432     5.35667E-03     111.355E-03    -72.3088E+06    -36.0584E+06    -9.78638E+06     582.245E+03    -299.682E-03     595.489E-03    -295.807E-03     163.484E-03    -304.596E-03     600.047E-03    -295.699E-03     131.888E-03
             433     6.02619E-03     111.617E-03    -63.9908E+06    -25.1033E+06     5.24058E+06     437.431E+03    -300.638E-03     596.509E-03    -295.872E-03     181.153E-03    -306.569E-03     602.109E-03    -295.716E-03     146.261E-03
             434     6.69574E-03     111.905E-03    -56.3422E+06    -15.4282E+06     18.5736E+06     390.631E+03    -301.598E-03     597.520E-03    -295.922E-03     197.007E-03    -308.513E-03     604.126E-03    -295.725E-03     159.187E-03
             435     7.36538E-03     112.215E-03    -49.5167E+06    -7.14099E+06     29.6025E+06     253.765E+03    -302.503E-03     598.460E-03    -295.957E-03     210.520E-03    -310.293E-03     605.963E-03    -295.727E-03     170.254E-03
             436     8.03502E-03     112.544E-03    -42.4331E+06     744.745E+03     40.4925E+06     32.5340E+03    -303.205E-03     599.187E-03    -295.982E-03     221.230E-03    -311.702E-03     607.418E-03    -295.719E-03     179.049E-03
             437     8.70441E-03     112.887E-03    -36.1394E+06     7.32020E+06     50.5046E+06    -34.1575E+03    -303.505E-03     599.492E-03    -295.988E-03     228.893E-03    -312.502E-03     608.241E-03    -295.693E-03     185.350E-03
             438     9.37550E-03     113.238E-03    -29.2481E+06     14.4079E+06     59.3486E+06    -86.0456E+03    -303.534E-03     599.500E-03    -295.965E-03     233.107E-03    -312.812E-03     608.553E-03    -295.647E-03     188.669E-03
             439     10.0460E-03     113.592E-03    -22.0259E+06     22.0827E+06     66.8574E+06     581.014E+03    -303.683E-03     599.620E-03    -295.937E-03     233.142E-03    -312.969E-03     608.713E-03    -295.603E-03     188.349E-03
             440     10.7153E-03     113.943E-03    -17.7513E+06     28.0403E+06     68.2649E+06     1.05653E+06    -303.961E-03     599.871E-03    -295.910E-03     231.123E-03    -313.042E-03     608.790E-03    -295.583E-03     186.589E-03
             441     11.3821E-03     114.293E-03    -14.3640E+06     31.7892E+06     62.1546E+06     1.21733E+06    -303.124E-03     598.975E-03    -295.851E-03     223.259E-03    -311.475E-03     607.207E-03    -295.565E-03     180.619E-03
             442     12.0552E-03     114.616E-03    -8.44524E+06     42.7874E+06     67.2084E+06    -316.484E+03    -301.257E-03     597.047E-03    -295.790E-03     217.077E-03    -309.221E-03     604.938E-03    -295.504E-03     175.214E-03
             443     12.7303E-03     114.935E-03    -3.70988E+06     51.1625E+06     77.1678E+06    -680.929E+03    -299.251E-03     594.991E-03    -295.740E-03     179.041E-03    -305.012E-03     600.697E-03    -295.423E-03     144.276E-03
             444     669.449E-06     112.071E-03    -115.458E+06    -176.481E+06    -113.043E+06    -77.0056E+03    -295.802E-03     591.359E-03    -295.557E-03     23.5364E-03    -296.071E-03     590.920E-03    -295.698E-03     18.8891E-03
             445     1.33910E-03     112.120E-03    -111.750E+06    -170.040E+06    -104.235E+06     25.0644E+03    -295.939E-03     591.614E-03    -295.675E-03     43.0404E-03    -296.439E-03     591.416E-03    -295.788E-03     34.6643E-03
             446     2.00870E-03     112.200E-03    -107.389E+06    -161.288E+06    -91.1079E+06     380.596E+03    -296.276E-03     592.008E-03    -295.732E-03     63.6802E-03    -297.167E-03     592.209E-03    -295.798E-03     51.3051E-03
             447     2.67815E-03     112.312E-03    -101.715E+06    -150.946E+06    -75.2658E+06     604.180E+03    -296.780E-03     592.581E-03    -295.801E-03     84.3460E-03    -298.209E-03     593.331E-03    -295.811E-03     67.9583E-03
             448     3.34751E-03     112.455E-03    -94.9787E+06    -139.278E+06    -58.8587E+06     721.776E+03    -297.411E-03     593.286E-03    -295.875E-03     104.946E-03    -299.518E-03     594.732E-03    -295.829E-03     84.5846E-03
             449     4.01685E-03     112.629E-03    -87.5516E+06    -102.753E+06    -42.9389E+06     790.188E+03    -298.063E-03     593.966E-03    -295.903E-03     125.370E-03    -301.010E-03     596.362E-03    -295.842E-03     101.130E-03
             450     4.68631E-03     112.834E-03    -79.9612E+06    -56.9483E+06    -26.1312E+06     618.547E+03    -298.763E-03     594.672E-03    -295.909E-03     145.230E-03    -302.673E-03     598.172E-03    -295.841E-03     117.251E-03
             451     5.35604E-03     113.067E-03    -72.1557E+06    -35.5740E+06    -8.99670E+06     201.667E+03    -299.614E-03     595.554E-03    -295.940E-03     164.271E-03    -304.535E-03     600.118E-03    -295.829E-03     132.707E-03
             452     6.02566E-03     113.329E-03    -64.5558E+06    -25.3214E+06     5.67550E+06    -57.2372E+03    -300.510E-03     596.478E-03    -295.968E-03     181.988E-03    -306.459E-03     602.091E-03    -295.809E-03     147.091E-03
             453     6.69543E-03     113.617E-03    -57.1027E+06    -16.0347E+06     17.8862E+06     97.0501E+03    -301.414E-03     597.392E-03    -295.978E-03     197.744E-03    -308.343E-03     604.009E-03    -295.783E-03     159.939E-03
             454     7.36521E-03     113.927E-03    -49.4340E+06    -6.91928E+06     28.5023E+06     372.714E+03    -302.278E-03     598.254E-03    -295.976E-03     211.159E-03    -310.078E-03     605.771E-03    -295.751E-03     170.921E-03
             455     8.03501E-03     114.256E-03    -42.2397E+06     1.08117E+06     39.4985E+06     784.939E+03    -302.956E-03     598.928E-03    -295.972E-03     221.657E-03    -311.464E-03     607.176E-03    -295.715E-03     179.494E-03
             456     8.70562E-03     114.599E-03    -34.9481E+06     9.01762E+06     51.6992E+06     582.078E+03    -303.384E-03     599.356E-03    -295.972E-03     228.600E-03    -312.394E-03     608.124E-03    -295.676E-03     184.991E-03
             457     9.37517E-03     114.949E-03    -29.0962E+06     14.4421E+06     60.5013E+06     181.800E+03    -303.678E-03     599.642E-03    -295.965E-03     232.170E-03    -312.953E-03     608.690E-03    -295.641E-03     187.640E-03
             458     10.0446E-03     115.304E-03    -24.9491E+06     18.6087E+06     64.5400E+06     316.984E+03    -303.639E-03     599.580E-03    -295.941E-03     232.758E-03    -312.918E-03     608.650E-03    -295.609E-03     187.979E-03
             459     10.7143E-03     115.657E-03    -19.0539E+06     26.1430E+06     66.3311E+06     882.056E+03    -303.036E-03     598.915E-03    -295.879E-03     231.488E-03    -312.078E-03     607.789E-03    -295.558E-03     187.268E-03
             460     11.3883E-03     116.004E-03    -10.7019E+06     34.9581E+06     64.9932E+06     795.753E+03    -302.039E-03     597.809E-03    -295.769E-03     222.721E-03    -310.351E-03     606.018E-03    -295.480E-03     180.248E-03
             461     12.0582E-03     116.325E-03    -5.67219E+06     46.1539E+06     71.0496E+06    -367.719E+03    -302.102E-03     597.824E-03    -295.722E-03     215.233E-03    -310.059E-03     605.719E-03    -295.425E-03     173.097E-03
             462     12.7223E-03     116.650E-03    -4.80357E+06     50.4612E+06     77.6026E+06     367.130E+03    -300.795E-03     596.538E-03    -295.743E-03     179.060E-03    -306.551E-03     602.231E-03    -295.421E-03     144.205E-03
             463     669.536E-06     113.783E-03    -114.845E+06    -176.787E+06    -113.496E+06     97.2726E+03    -296.046E-03     591.675E-03    -295.630E-03     23.8471E-03    -296.311E-03     591.235E-03    -295.774E-03     19.1978E-03
             464     1.33879E-03     113.832E-03    -113.259E+06    -171.690E+06    -105.244E+06     787.373E+03    -296.150E-03     591.990E-03    -295.840E-03     43.2768E-03    -296.654E-03     591.788E-03    -295.953E-03     34.9207E-03
             465     2.00810E-03     113.913E-03    -108.838E+06    -162.041E+06    -92.0072E+06     901.372E+03    -296.459E-03     592.363E-03    -295.905E-03     64.0363E-03    -297.355E-03     592.565E-03    -295.972E-03     51.6790E-03
             466     2.67746E-03     114.025E-03    -102.570E+06    -151.237E+06    -75.9960E+06     618.891E+03    -296.879E-03     592.839E-03    -295.960E-03     84.9270E-03    -298.314E-03     593.593E-03    -295.972E-03     68.5519E-03
             467     3.34698E-03     114.168E-03    -95.3130E+06    -139.537E+06    -59.3584E+06     405.445E+03    -297.441E-03     593.447E-03    -296.006E-03     105.674E-03    -299.555E-03     594.899E-03    -295.962E-03     85.3180E-03
             468     4.01658E-03     114.342E-03    -87.7916E+06    -103.205E+06    -43.1865E+06     283.435E+03    -298.017E-03     594.019E-03    -296.003E-03     126.064E-03    -300.972E-03     596.422E-03    -295.941E-03     101.820E-03
             469     4.68635E-03     114.546E-03    -80.0613E+06    -56.9794E+06    -25.8744E+06     380.284E+03    -298.645E-03     594.620E-03    -295.975E-03     145.825E-03    -302.565E-03     598.129E-03    -295.906E-03     117.839E-03
             470     5.35596E-03     114.780E-03    -72.2327E+06    -35.3027E+06    -8.62274E+06     529.038E+03    -299.467E-03     595.442E-03    -295.975E-03     164.771E-03    -304.399E-03     600.018E-03    -295.862E-03     133.205E-03
             471     6.02575E-03     115.042E-03    -64.5940E+06    -25.2194E+06     5.84365E+06     473.534E+03    -300.408E-03     596.386E-03    -295.978E-03     182.397E-03    -306.367E-03     602.010E-03    -295.819E-03     147.503E-03
             472     6.69553E-03     115.330E-03    -57.1596E+06    -15.7275E+06     18.5170E+06     400.310E+03    -301.349E-03     597.326E-03    -295.977E-03     198.041E-03    -308.290E-03     603.955E-03    -295.779E-03     160.223E-03
             473     7.36545E-03     115.640E-03    -50.1735E+06    -7.17304E+06     29.1236E+06     419.033E+03    -302.225E-03     598.196E-03    -295.971E-03     211.160E-03    -310.038E-03     605.721E-03    -295.742E-03     170.890E-03
             474     8.03564E-03     115.969E-03    -42.7659E+06     1.19749E+06     39.8450E+06     219.104E+03    -302.979E-03     598.949E-03    -295.970E-03     221.192E-03    -311.491E-03     607.197E-03    -295.710E-03     178.973E-03
             475     8.70488E-03     116.311E-03    -35.9534E+06     8.24520E+06     50.4624E+06     484.536E+03    -303.504E-03     599.480E-03    -295.976E-03     228.159E-03    -312.512E-03     608.244E-03    -295.684E-03     184.514E-03
             476     9.37463E-03     116.662E-03    -30.2240E+06     13.5325E+06     58.4823E+06     1.49551E+06    -303.615E-03     599.583E-03    -295.967E-03     232.525E-03    -312.894E-03     608.632E-03    -295.651E-03     188.059E-03
             477     10.0448E-03     117.016E-03    -24.3614E+06     20.8306E+06     64.8505E+06     854.142E+03    -303.192E-03     599.116E-03    -295.924E-03     233.489E-03    -312.477E-03     608.201E-03    -295.595E-03     188.828E-03
             478     10.7165E-03     117.366E-03    -18.5622E+06     27.4724E+06     67.3543E+06    -690.836E+03    -302.851E-03     598.698E-03    -295.848E-03     230.875E-03    -311.897E-03     607.580E-03    -295.524E-03     186.566E-03
             479     11.3850E-03     117.712E-03    -14.8256E+06     31.0880E+06     61.6312E+06    -1.49082E+06    -302.337E-03     598.085E-03    -295.748E-03     221.273E-03    -310.667E-03     606.295E-03    -295.464E-03     178.521E-03
             480     12.0549E-03     118.038E-03    -9.68046E+06     42.6221E+06     67.3243E+06    -222.868E+03    -301.946E-03     597.653E-03    -295.708E-03     215.615E-03    -309.846E-03     605.475E-03    -295.419E-03     173.842E-03
             481     12.7293E-03     118.365E-03    -2.60091E+06     52.6356E+06     79.6313E+06     744.685E+03    -299.725E-03     595.422E-03    -295.697E-03     180.541E-03    -305.453E-03     601.097E-03    -295.371E-03     145.912E-03
             482     669.374E-06     115.496E-03    -118.734E+06    -180.544E+06    -115.546E+06     1.78663E+06    -296.109E-03     591.786E-03    -295.677E-03     23.8861E-03    -296.385E-03     591.335E-03    -295.821E-03     19.2822E-03
             483     1.33884E-03     115.545E-03    -114.667E+06    -172.149E+06    -106.007E+06     1.03515E+06    -296.148E-03     592.033E-03    -295.885E-03     43.5448E-03    -296.659E-03     591.833E-03    -295.999E-03     35.1927E-03
             484     2.00819E-03     115.626E-03    -109.085E+06    -161.763E+06    -92.5424E+06     116.063E+03    -296.455E-03     592.383E-03    -295.927E-03     64.4720E-03    -297.355E-03     592.590E-03    -295.997E-03     52.0970E-03
             485     2.67774E-03     115.737E-03    -102.611E+06    -151.289E+06    -76.6745E+06    -63.6221E+03    -296.897E-03     592.868E-03    -295.971E-03     85.3809E-03    -298.334E-03     593.627E-03    -295.987E-03     68.9903E-03
             486     3.34718E-03     115.881E-03    -95.7388E+06    -139.557E+06    -60.0115E+06    -30.3455E+03    -297.435E-03     593.447E-03    -296.011E-03     106.025E-03    -299.555E-03     594.905E-03    -295.970E-03     85.6480E-03
             487     4.01663E-03     116.054E-03    -88.4776E+06    -102.889E+06    -43.6548E+06    -82.7570E+03    -298.001E-03     594.003E-03    -296.003E-03     126.341E-03    -300.966E-03     596.415E-03    -295.943E-03     102.068E-03
             488     4.68614E-03     116.259E-03    -81.0484E+06    -57.5545E+06    -26.8386E+06    -93.9132E+03    -298.643E-03     594.615E-03    -295.972E-03     146.016E-03    -302.576E-03     598.133E-03    -295.905E-03     117.976E-03
             489     5.35606E-03     116.493E-03    -73.1083E+06    -36.2189E+06    -9.84086E+06     116.658E+03    -299.428E-03     595.396E-03    -295.969E-03     164.757E-03    -304.369E-03     599.978E-03    -295.859E-03     133.143E-03
             490     6.02593E-03     116.755E-03    -65.2505E+06    -25.6465E+06     5.27884E+06     496.348E+03    -300.357E-03     596.329E-03    -295.972E-03     182.223E-03    -306.318E-03     601.952E-03    -295.814E-03     147.320E-03
             491     6.69574E-03     117.042E-03    -57.7012E+06    -15.9717E+06     18.3990E+06     920.667E+03    -301.370E-03     597.346E-03    -295.976E-03     197.721E-03    -308.312E-03     603.974E-03    -295.777E-03     159.887E-03
             492     7.36548E-03     117.352E-03    -49.6199E+06    -6.39230E+06     30.3772E+06     882.845E+03    -302.327E-03     598.311E-03    -295.984E-03     210.806E-03    -310.136E-03     605.834E-03    -295.751E-03     170.516E-03
             493     8.03468E-03     117.681E-03    -42.6062E+06     1.22048E+06     40.7433E+06     820.827E+03    -302.957E-03     598.945E-03    -295.988E-03     221.132E-03    -311.467E-03     607.190E-03    -295.725E-03     178.942E-03
             494     8.70487E-03     118.023E-03    -37.1912E+06     6.31419E+06     49.1112E+06     1.43329E+06    -303.181E-03     599.151E-03    -295.970E-03     228.591E-03    -312.182E-03     607.900E-03    -295.680E-03     185.088E-03
             495     9.37523E-03     118.374E-03    -30.3860E+06     14.1916E+06     57.9178E+06     1.05732E+06    -303.107E-03     599.032E-03    -295.925E-03     232.868E-03    -312.382E-03     608.082E-03    -295.612E-03     188.513E-03
             496     10.0463E-03     118.727E-03    -22.9446E+06     23.9650E+06     65.8642E+06     124.824E+03    -303.061E-03     598.923E-03    -295.862E-03     233.450E-03    -312.344E-03     608.019E-03    -295.534E-03     188.797E-03
             497     10.7155E-03     119.078E-03    -17.3958E+06     28.0536E+06     68.0816E+06     322.405E+03    -303.032E-03     598.821E-03    -295.789E-03     231.935E-03    -312.110E-03     607.740E-03    -295.464E-03     187.579E-03
             498     11.3861E-03     119.426E-03    -12.6401E+06     32.1551E+06     63.9793E+06     175.547E+03    -302.291E-03     597.974E-03    -295.683E-03     224.279E-03    -310.653E-03     606.220E-03    -295.392E-03     181.728E-03
             499     12.0575E-03     119.746E-03    -9.08678E+06     43.1213E+06     68.3715E+06     1.17025E+06    -301.523E-03     597.122E-03    -295.599E-03     218.766E-03    -309.420E-03     604.942E-03    -295.306E-03     177.417E-03
             500     12.7258E-03     120.074E-03    -4.31581E+06     51.0157E+06     78.0976E+06    -535.543E+03    -299.654E-03     595.207E-03    -295.553E-03     182.022E-03    -305.430E-03     600.923E-03    -295.231E-03     147.256E-03
             501     669.392E-06     117.208E-03    -114.407E+06    -183.901E+06    -113.867E+06     390.657E+03    -296.097E-03     591.837E-03    -295.740E-03     24.0556E-03    -296.351E-03     591.362E-03    -295.876E-03     19.4039E-03
             502     1.33878E-03     117.258E-03    -111.296E+06    -170.368E+06    -106.354E+06    -286.489E+03    -296.101E-03     591.972E-03    -295.871E-03     43.5785E-03    -296.597E-03     591.778E-03    -295.995E-03     35.1819E-03
             503     2.00842E-03     117.338E-03    -107.452E+06    -161.456E+06    -92.9902E+06    -367.885E+03    -296.433E-03     592.337E-03    -295.904E-03     64.3445E-03    -297.325E-03     592.543E-03    -295.979E-03     51.9496E-03
             504     2.67773E-03     117.450E-03    -102.254E+06    -151.459E+06    -77.0385E+06    -84.5924E+03    -296.877E-03     592.828E-03    -295.951E-03     85.2087E-03    -298.312E-03     593.586E-03    -295.968E-03     68.8036E-03
             505     3.34717E-03     117.593E-03    -95.7499E+06    -139.821E+06    -60.3920E+06     168.971E+03    -297.406E-03     593.398E-03    -295.992E-03     105.899E-03    -299.526E-03     594.857E-03    -295.953E-03     85.5029E-03
             506     4.01680E-03     117.767E-03    -88.7365E+06    -102.663E+06    -44.2653E+06     312.314E+03    -297.991E-03     593.975E-03    -295.984E-03     126.244E-03    -300.959E-03     596.392E-03    -295.928E-03     101.953E-03
             507     4.68655E-03     117.972E-03    -81.4357E+06    -57.1766E+06    -26.9502E+06     197.910E+03    -298.682E-03     594.644E-03    -295.962E-03     145.924E-03    -302.619E-03     598.167E-03    -295.896E-03     117.866E-03
             508     5.35597E-03     118.205E-03    -74.0200E+06    -37.0065E+06    -10.0426E+06     291.911E+03    -299.504E-03     595.476E-03    -295.972E-03     164.630E-03    -304.453E-03     600.060E-03    -295.861E-03     132.983E-03
             509     6.02561E-03     118.467E-03    -66.1962E+06    -26.4810E+06     4.80044E+06     560.250E+03    -300.416E-03     596.400E-03    -295.984E-03     182.166E-03    -306.382E-03     602.024E-03    -295.826E-03     147.242E-03
             510     6.69536E-03     118.755E-03    -57.8828E+06    -16.1336E+06     17.6194E+06     180.330E+03    -301.382E-03     597.369E-03    -295.987E-03     197.835E-03    -308.320E-03     603.993E-03    -295.791E-03     160.026E-03
             511     7.36491E-03     119.065E-03    -50.2501E+06    -7.14705E+06     27.7777E+06     117.593E+03    -302.126E-03     598.099E-03    -295.973E-03     211.193E-03    -309.929E-03     605.618E-03    -295.751E-03     170.987E-03
             512     8.03527E-03     119.394E-03    -43.4657E+06    -850.975E+03     38.3006E+06     1.09042E+06    -302.543E-03     598.489E-03    -295.946E-03     221.822E-03    -311.053E-03     606.731E-03    -295.690E-03     179.747E-03
             513     8.70548E-03     119.735E-03    -36.0662E+06     5.96985E+06     49.6233E+06     1.35109E+06    -302.849E-03     598.751E-03    -295.902E-03     229.192E-03    -311.853E-03     607.505E-03    -295.610E-03     185.751E-03
             514     9.37615E-03     120.085E-03    -29.0402E+06     16.4826E+06     59.2979E+06     578.101E+03    -303.027E-03     598.868E-03    -295.841E-03     233.199E-03    -312.314E-03     607.939E-03    -295.526E-03     188.825E-03
             515     10.0460E-03     120.438E-03    -23.5623E+06     24.7129E+06     65.9302E+06     296.098E+03    -302.893E-03     598.662E-03    -295.769E-03     234.073E-03    -312.185E-03     607.767E-03    -295.441E-03     189.493E-03
             516     10.7176E-03     120.790E-03    -17.5959E+06     28.0562E+06     68.4250E+06    -162.335E+03    -302.405E-03     598.077E-03    -295.673E-03     232.267E-03    -311.463E-03     606.975E-03    -295.346E-03     188.101E-03
             517     11.3900E-03     121.133E-03    -11.3296E+06     32.7465E+06     64.8917E+06    -279.546E+03    -302.014E-03     597.562E-03    -295.549E-03     222.904E-03    -310.311E-03     605.747E-03    -295.255E-03     180.504E-03
             518     12.0609E-03     121.460E-03    -7.57767E+06     43.7791E+06     69.2309E+06     568.585E+03    -301.646E-03     597.134E-03    -295.488E-03     215.275E-03    -309.507E-03     604.922E-03    -295.194E-03     173.651E-03
             519     12.7342E-03     121.785E-03    -4.44423E+06     50.8846E+06     77.9940E+06     184.751E+03    -300.466E-03     595.964E-03    -295.498E-03     179.200E-03    -306.197E-03     601.634E-03    -295.176E-03     144.437E-03
             520     669.396E-06     118.921E-03    -112.091E+06    -181.864E+06    -111.443E+06    -1.35949E+06    -296.206E-03     591.992E-03    -295.786E-03     23.8111E-03    -296.454E-03     591.520E-03    -295.917E-03     19.1298E-03
             521     1.33889E-03     118.971E-03    -110.918E+06    -170.577E+06    -105.033E+06    -514.180E+03    -296.126E-03     592.070E-03    -295.944E-03     43.3644E-03    -296.622E-03     591.871E-03    -296.061E-03     34.9462E-03
             522     2.00807E-03     119.051E-03    -107.318E+06    -162.202E+06    -92.0852E+06     270.027E+03    -296.399E-03     592.353E-03    -295.954E-03     64.2297E-03    -297.290E-03     592.555E-03    -296.024E-03     51.8341E-03
             523     2.67764E-03     119.163E-03    -101.669E+06    -151.870E+06    -76.0348E+06     523.380E+03    -296.795E-03     592.771E-03    -295.976E-03     85.1620E-03    -298.229E-03     593.526E-03    -295.989E-03     68.7555E-03
             524     3.34724E-03     119.306E-03    -94.9643E+06    -140.274E+06    -59.4955E+06     587.984E+03    -297.373E-03     593.373E-03    -296.001E-03     105.880E-03    -299.491E-03     594.829E-03    -295.957E-03     85.4828E-03
             525     4.01666E-03     119.480E-03    -87.9191E+06    -103.548E+06    -43.6877E+06     897.891E+03    -297.986E-03     593.974E-03    -295.987E-03     126.193E-03    -300.951E-03     596.385E-03    -295.928E-03     101.904E-03
             526     4.68615E-03     119.684E-03    -80.6435E+06    -57.4830E+06    -26.5833E+06     1.51337E+06    -298.626E-03     594.584E-03    -295.958E-03     145.950E-03    -302.559E-03     598.104E-03    -295.891E-03     117.927E-03
             527     5.35601E-03     119.918E-03    -73.2471E+06    -36.4633E+06    -9.55138E+06     1.22458E+06    -299.464E-03     595.424E-03    -295.960E-03     164.853E-03    -304.411E-03     600.009E-03    -295.848E-03     133.250E-03
             528     6.02573E-03     120.179E-03    -65.0973E+06    -25.7910E+06     4.75118E+06     441.736E+03    -300.400E-03     596.361E-03    -295.961E-03     182.618E-03    -306.366E-03     601.990E-03    -295.805E-03     147.725E-03
             529     6.69547E-03     120.468E-03    -57.1231E+06    -15.6591E+06     17.5975E+06     508.347E+03    -301.151E-03     597.096E-03    -295.945E-03     198.510E-03    -308.091E-03     603.726E-03    -295.751E-03     160.780E-03
             530     7.36577E-03     120.777E-03    -50.9071E+06    -7.74765E+06     28.2060E+06     679.397E+03    -301.718E-03     597.621E-03    -295.902E-03     211.793E-03    -309.532E-03     605.144E-03    -295.676E-03     171.671E-03
             531     8.03613E-03     121.105E-03    -44.2333E+06    -1.55202E+06     38.2866E+06     41.3358E+03    -302.287E-03     598.133E-03    -295.846E-03     222.109E-03    -310.809E-03     606.381E-03    -295.588E-03     180.038E-03
             532     8.70693E-03     121.446E-03    -36.6357E+06     6.09832E+06     49.0323E+06    -367.352E+03    -302.769E-03     598.562E-03    -295.793E-03     229.146E-03    -311.781E-03     607.323E-03    -295.503E-03     185.660E-03
             533     9.37714E-03     121.796E-03    -30.5834E+06     15.7049E+06     57.8648E+06    -126.570E+03    -302.944E-03     598.678E-03    -295.734E-03     233.091E-03    -312.239E-03     607.753E-03    -295.423E-03     188.690E-03
             534     10.0483E-03     122.149E-03    -23.8479E+06     25.9084E+06     65.8563E+06    -58.0415E+03    -302.815E-03     598.489E-03    -295.674E-03     233.248E-03    -312.119E-03     607.609E-03    -295.348E-03     188.542E-03
             535     10.7193E-03     122.498E-03    -17.6666E+06     29.4329E+06     68.7280E+06    -335.077E+03    -302.887E-03     598.503E-03    -295.616E-03     230.077E-03    -311.949E-03     607.408E-03    -295.290E-03     185.622E-03
             536     11.3883E-03     122.845E-03    -13.7149E+06     30.4668E+06     63.3368E+06    -423.180E+03    -303.014E-03     598.579E-03    -295.565E-03     220.489E-03    -311.310E-03     606.751E-03    -295.272E-03     177.768E-03
             537     12.0571E-03     123.170E-03    -8.51927E+06     42.9853E+06     69.1335E+06    -1.99976E+06    -302.817E-03     598.414E-03    -295.596E-03     212.640E-03    -310.756E-03     606.274E-03    -295.301E-03     170.216E-03
             538     12.7241E-03     123.491E-03    -3.94726E+06     51.4183E+06     79.3412E+06    -246.075E+03    -300.885E-03     596.561E-03    -295.676E-03     176.593E-03    -306.628E-03     602.242E-03    -295.348E-03     141.568E-03
             539     669.118E-06     120.634E-03    -117.718E+06    -179.135E+06    -114.827E+06    -360.889E+03    -296.260E-03     592.023E-03    -295.763E-03     23.8455E-03    -296.536E-03     591.578E-03    -295.906E-03     19.1726E-03
             540     1.33839E-03     120.683E-03    -114.162E+06    -172.232E+06    -104.850E+06         767.457    -296.093E-03     592.067E-03    -295.974E-03     43.6715E-03    -296.606E-03     591.867E-03    -296.083E-03     35.2535E-03
             541     2.00811E-03     120.764E-03    -108.884E+06    -162.926E+06    -91.6762E+06     174.882E+03    -296.366E-03     592.329E-03    -295.963E-03     64.5167E-03    -297.267E-03     592.531E-03    -296.027E-03     52.1199E-03
             542     2.67763E-03     120.875E-03    -102.431E+06    -152.565E+06    -76.1461E+06     236.866E+03    -296.792E-03     592.765E-03    -295.973E-03     85.3453E-03    -298.230E-03     593.519E-03    -295.984E-03     68.9378E-03
             543     3.34712E-03     121.019E-03    -95.4919E+06    -141.102E+06    -59.8949E+06     472.750E+03    -297.356E-03     593.349E-03    -295.993E-03     106.044E-03    -299.476E-03     594.802E-03    -295.949E-03     85.6594E-03
             544     4.01676E-03     121.193E-03    -88.0797E+06    -104.901E+06    -43.9471E+06     783.429E+03    -297.911E-03     593.883E-03    -295.972E-03     126.352E-03    -300.874E-03     596.288E-03    -295.912E-03     102.094E-03
             545     4.68655E-03     121.397E-03    -80.0818E+06    -59.2668E+06    -27.2760E+06     1.07183E+06    -298.468E-03     594.390E-03    -295.922E-03     146.153E-03    -302.393E-03     597.900E-03    -295.857E-03     118.165E-03
             546     5.35636E-03     121.630E-03    -71.5249E+06    -36.1465E+06    -9.61567E+06     1.48361E+06    -299.244E-03     595.140E-03    -295.896E-03     165.223E-03    -304.178E-03     599.720E-03    -295.788E-03     133.697E-03
             547     6.02625E-03     121.892E-03    -64.0572E+06    -24.5655E+06     5.87472E+06     1.68538E+06    -300.099E-03     595.973E-03    -295.874E-03     182.998E-03    -306.062E-03     601.604E-03    -295.716E-03     148.195E-03
             548     6.69645E-03     122.179E-03    -57.5378E+06    -15.7256E+06     18.5087E+06     1.49117E+06    -300.825E-03     596.659E-03    -295.834E-03     198.746E-03    -307.776E-03     603.296E-03    -295.635E-03     161.049E-03
             549     7.36690E-03     122.489E-03    -49.7846E+06    -6.80176E+06     30.3830E+06     1.14559E+06    -301.603E-03     597.386E-03    -295.783E-03     211.824E-03    -309.420E-03     604.914E-03    -295.549E-03     171.701E-03
             550     8.03732E-03     122.816E-03    -42.9255E+06     663.969E+03     40.7417E+06     470.523E+03    -302.440E-03     598.180E-03    -295.740E-03     221.936E-03    -310.966E-03     606.438E-03    -295.475E-03     179.819E-03
             551     8.70722E-03     123.157E-03    -36.8667E+06     6.83755E+06     50.0128E+06    -248.466E+03    -302.902E-03     598.611E-03    -295.709E-03     228.646E-03    -311.930E-03     607.387E-03    -295.416E-03     185.047E-03
             552     9.37802E-03     123.507E-03    -29.4080E+06     14.5064E+06     59.4029E+06     31.8225E+03    -303.154E-03     598.838E-03    -295.684E-03     232.085E-03    -312.445E-03     607.904E-03    -295.366E-03     187.564E-03
             553     10.0481E-03     123.859E-03    -22.8617E+06     26.4101E+06     66.8812E+06     497.149E+03    -303.541E-03     599.210E-03    -295.669E-03     231.935E-03    -312.847E-03     608.335E-03    -295.340E-03     187.012E-03
             554     10.7170E-03     124.210E-03    -17.8263E+06     30.0967E+06     68.6739E+06     32.5418E+03    -303.946E-03     599.623E-03    -295.677E-03     229.423E-03    -313.034E-03     608.555E-03    -295.352E-03     184.690E-03
             555     11.3869E-03     124.557E-03    -13.5720E+06     30.8944E+06     63.6285E+06    -172.026E+03    -303.891E-03     599.576E-03    -295.685E-03     220.910E-03    -312.220E-03     607.782E-03    -295.392E-03     177.971E-03
             556     12.0566E-03     124.885E-03    -8.98157E+06     43.9587E+06     69.5836E+06    -699.769E+03    -303.541E-03     599.286E-03    -295.744E-03     214.939E-03    -311.524E-03     607.191E-03    -295.447E-03     172.542E-03
             557     12.7252E-03     125.212E-03    -4.63891E+06     50.6748E+06     78.4120E+06    -794.514E+03    -300.407E-03     596.205E-03    -295.798E-03     180.319E-03    -306.236E-03     601.969E-03    -295.472E-03     145.177E-03
             558     669.530E-06     122.347E-03    -116.869E+06    -178.327E+06    -115.025E+06     160.065E+03    -296.150E-03     591.653E-03    -295.503E-03     23.9591E-03    -296.422E-03     591.211E-03    -295.650E-03     19.3089E-03
             559     1.33915E-03     122.396E-03    -113.878E+06    -172.379E+06     -106.09E+06    -106.405E+03    -296.099E-03     591.918E-03    -295.818E-03     43.8105E-03    -296.608E-03     591.718E-03    -295.934E-03     35.4048E-03
             560     2.00838E-03     122.476E-03    -109.232E+06    -163.256E+06    -92.9457E+06    -112.359E+03    -296.430E-03     592.299E-03    -295.869E-03     64.6187E-03    -297.331E-03     592.502E-03    -295.938E-03     52.2229E-03
             561     2.67780E-03     122.588E-03    -103.492E+06    -153.076E+06    -77.3529E+06     63.9377E+03    -296.822E-03     592.737E-03    -295.916E-03     85.4182E-03    -298.263E-03     593.492E-03    -295.930E-03     69.0153E-03
             562     3.34736E-03     122.731E-03    -96.7846E+06    -141.734E+06    -60.9647E+06     157.507E+03    -297.241E-03     593.181E-03    -295.940E-03     106.189E-03    -299.365E-03     594.634E-03    -295.898E-03     85.8224E-03
             563     4.01693E-03     122.905E-03    -89.5270E+06    -105.246E+06    -45.0723E+06     53.2237E+03    -297.674E-03     593.569E-03    -295.895E-03     126.625E-03    -300.642E-03     595.976E-03    -295.838E-03     102.394E-03
             564     4.68674E-03     123.109E-03    -81.9719E+06    -59.9465E+06    -28.0838E+06    -301.146E+03    -298.257E-03     594.080E-03    -295.823E-03     146.553E-03    -302.195E-03     597.596E-03    -295.757E-03     118.564E-03
             565     5.35686E-03     123.342E-03    -74.4461E+06    -38.1068E+06    -11.1309E+06    -160.575E+03    -299.046E-03     594.826E-03    -295.779E-03     165.598E-03    -303.997E-03     599.409E-03    -295.672E-03     134.063E-03
             566     6.02723E-03     123.604E-03    -66.3910E+06    -26.2667E+06     3.63333E+06     357.423E+03    -299.892E-03     595.634E-03    -295.742E-03     182.999E-03    -305.864E-03     601.266E-03    -295.589E-03     148.181E-03
             567     6.69759E-03     123.891E-03    -57.7617E+06    -15.7228E+06     16.6012E+06     615.576E+03    -300.802E-03     596.505E-03    -295.703E-03     198.264E-03    -307.748E-03     603.142E-03    -295.514E-03     160.524E-03
             568     7.36778E-03     124.200E-03    -49.5839E+06    -6.43557E+06     28.4702E+06     708.746E+03    -301.742E-03     597.418E-03    -295.676E-03     211.174E-03    -309.551E-03     604.945E-03    -295.452E-03     170.990E-03
             569     8.03787E-03     124.528E-03    -42.3048E+06     1.45743E+06     40.7276E+06     673.485E+03    -302.548E-03     598.216E-03    -295.668E-03     221.287E-03    -311.061E-03     606.466E-03    -295.406E-03     179.150E-03
             570     8.70815E-03     124.869E-03    -35.1256E+06     8.06022E+06     52.1837E+06     320.457E+03    -303.131E-03     598.804E-03    -295.673E-03     228.040E-03    -312.151E-03     607.577E-03    -295.373E-03     184.393E-03
             571     9.37769E-03     125.217E-03    -28.8716E+06     13.4038E+06     60.2746E+06     327.837E+03    -303.723E-03     599.405E-03    -295.682E-03     232.014E-03    -313.016E-03     608.468E-03    -295.358E-03     187.417E-03
             572     10.0471E-03     125.572E-03    -22.9223E+06     25.2530E+06     67.6212E+06     785.484E+03    -304.109E-03     599.809E-03    -295.700E-03     232.849E-03    -313.420E-03     608.932E-03    -295.365E-03     187.945E-03
             573     10.7171E-03     125.923E-03    -16.4931E+06     31.9164E+06     71.1937E+06     1.17155E+06    -304.323E-03     600.045E-03    -295.723E-03     231.271E-03    -313.438E-03     609.008E-03    -295.389E-03     186.585E-03
             574     11.3856E-03     126.271E-03    -12.5710E+06     32.3375E+06     65.0045E+06     1.05433E+06    -303.807E-03     599.516E-03    -295.709E-03     223.549E-03    -312.170E-03     607.761E-03    -295.413E-03     180.762E-03
             575     12.0539E-03     126.597E-03    -9.12505E+06     43.2207E+06     68.1761E+06     1.19505E+06    -302.129E-03     597.813E-03    -295.685E-03     218.276E-03    -310.042E-03     605.650E-03    -295.393E-03     176.740E-03
             576     12.7255E-03     126.922E-03    -3.75021E+06     51.1366E+06     77.8720E+06    -364.029E+03    -298.747E-03     594.375E-03    -295.627E-03     183.219E-03    -304.545E-03     600.115E-03    -295.307E-03     148.532E-03
             577     669.676E-06     124.059E-03    -115.980E+06    -178.259E+06    -113.747E+06     10.6630E+03    -295.989E-03     591.453E-03    -295.464E-03     23.7189E-03    -296.258E-03     591.007E-03    -295.606E-03     19.0569E-03
             578     1.33893E-03     124.108E-03    -113.149E+06    -172.543E+06    -105.805E+06     200.330E+03    -296.037E-03     591.762E-03    -295.726E-03     43.5065E-03    -296.539E-03     591.558E-03    -295.840E-03     35.1298E-03
             579     2.00851E-03     124.189E-03    -108.904E+06    -163.747E+06    -92.5334E+06     406.886E+03    -296.279E-03     592.055E-03    -295.776E-03     64.5637E-03    -297.176E-03     592.253E-03    -295.844E-03     52.2061E-03
             580     2.67797E-03     124.301E-03    -102.917E+06    -153.374E+06    -76.5352E+06     504.090E+03    -296.619E-03     592.420E-03    -295.801E-03     85.6881E-03    -298.060E-03     593.173E-03    -295.812E-03     69.3103E-03
             581     3.34756E-03     124.443E-03    -96.2015E+06    -141.754E+06    -60.1628E+06     593.901E+03    -297.050E-03     592.854E-03    -295.804E-03     106.559E-03    -299.176E-03     594.309E-03    -295.759E-03     86.2110E-03
             582     4.01764E-03     124.617E-03    -89.2264E+06    -105.303E+06    -44.2577E+06     776.255E+03    -297.539E-03     593.290E-03    -295.751E-03     126.908E-03    -300.513E-03     595.701E-03    -295.690E-03     102.676E-03
             583     4.68792E-03     124.821E-03    -82.0493E+06    -59.2917E+06    -27.3643E+06     880.413E+03    -298.204E-03     593.888E-03    -295.684E-03     146.557E-03    -302.147E-03     597.409E-03    -295.616E-03     118.573E-03
             584     5.35796E-03     125.054E-03    -74.4675E+06    -36.9264E+06    -10.3535E+06     218.411E+03    -299.048E-03     594.707E-03    -295.658E-03     165.219E-03    -303.998E-03     599.291E-03    -295.548E-03     133.678E-03
             585     6.02791E-03     125.315E-03    -66.5637E+06    -25.7952E+06     4.04547E+06    -938.972E+03    -300.001E-03     595.647E-03    -295.646E-03     182.476E-03    -305.967E-03     601.274E-03    -295.492E-03     147.623E-03
             586     6.69780E-03     125.602E-03    -58.7590E+06    -16.5213E+06     16.2743E+06    -1.48637E+06    -301.014E-03     596.655E-03    -295.641E-03     197.736E-03    -307.959E-03     603.285E-03    -295.451E-03     159.922E-03
             587     7.36773E-03     125.911E-03    -51.5785E+06    -8.25864E+06     26.6058E+06    -1.25327E+06    -301.914E-03     597.556E-03    -295.642E-03     210.710E-03    -309.734E-03     605.086E-03    -295.422E-03     170.408E-03
             588     8.03772E-03     126.239E-03    -44.1842E+06     975.552E+03     37.6773E+06    -989.674E+03    -302.573E-03     598.218E-03    -295.645E-03     220.844E-03    -311.083E-03     606.465E-03    -295.394E-03     178.667E-03
             589     8.70772E-03     126.580E-03    -37.9144E+06      7.6226E+06     48.3500E+06    -929.359E+03    -303.213E-03     598.868E-03    -295.654E-03     227.895E-03    -312.212E-03     607.619E-03    -295.369E-03     184.329E-03
             590     9.37781E-03     126.930E-03    -31.0502E+06     13.3729E+06     57.9013E+06    -1.38359E+06    -303.804E-03     599.477E-03    -295.673E-03     232.240E-03    -313.083E-03     608.526E-03    -295.358E-03     187.710E-03
             591     10.0479E-03     127.284E-03    -23.3430E+06     22.5466E+06     66.1701E+06    -1.16061E+06    -303.932E-03     599.620E-03    -295.688E-03     233.223E-03    -313.223E-03     608.717E-03    -295.356E-03     188.397E-03
             592     10.7175E-03     127.637E-03    -16.7890E+06     28.1169E+06     69.0433E+06     764.769E+03    -303.707E-03     599.384E-03    -295.677E-03     231.928E-03    -312.793E-03     608.309E-03    -295.348E-03     187.444E-03
             593     11.3880E-03     127.985E-03    -10.1550E+06     32.7266E+06     65.5785E+06     2.56969E+06    -302.304E-03     597.904E-03    -295.600E-03     223.775E-03    -310.631E-03     606.121E-03    -295.305E-03     181.313E-03
             594     12.0610E-03     128.308E-03    -7.40755E+06     43.3899E+06     69.2172E+06     1.85714E+06    -300.716E-03     596.220E-03    -295.505E-03     217.356E-03    -308.593E-03     604.025E-03    -295.211E-03     175.983E-03
             595     12.7339E-03     128.630E-03    -4.02815E+06     53.1607E+06     79.7965E+06     507.418E+03    -300.211E-03     595.685E-03    -295.474E-03     179.451E-03    -305.932E-03     601.349E-03    -295.147E-03     144.851E-03
             596     669.339E-06     125.771E-03    -116.503E+06    -179.506E+06    -114.466E+06     218.368E+03    -295.840E-03     591.334E-03    -295.495E-03     24.1328E-03    -296.110E-03     590.886E-03    -295.638E-03     19.4575E-03
             597     1.33905E-03     125.821E-03    -113.565E+06    -173.401E+06    -105.560E+06     521.523E+03    -295.828E-03     591.464E-03    -295.636E-03     43.8749E-03    -296.334E-03     591.257E-03    -295.748E-03     35.4958E-03
             598     2.00868E-03     125.901E-03    -108.959E+06    -164.296E+06    -92.1157E+06     609.408E+03    -296.028E-03     591.664E-03    -295.636E-03     64.7621E-03    -296.927E-03     591.861E-03    -295.701E-03     52.4072E-03
             599     2.67874E-03     126.012E-03    -102.903E+06    -154.059E+06    -76.2597E+06     665.667E+03    -296.393E-03     592.027E-03    -295.635E-03     85.6498E-03    -297.831E-03     592.775E-03    -295.643E-03     69.2955E-03
             600     3.34881E-03     126.155E-03    -95.5988E+06    -142.360E+06    -59.7150E+06     815.360E+03    -296.966E-03     592.607E-03    -295.640E-03     106.201E-03    -299.085E-03     594.054E-03    -295.594E-03     85.8610E-03
             601     4.01849E-03     126.328E-03    -87.8345E+06    -106.088E+06    -43.5205E+06     989.989E+03    -297.620E-03     593.240E-03    -295.620E-03     126.381E-03    -300.582E-03     595.640E-03    -295.557E-03     102.136E-03
             602     4.68808E-03     126.532E-03    -79.6717E+06    -59.8665E+06    -26.4380E+06     1.29642E+06    -298.323E-03     593.916E-03    -295.593E-03     145.948E-03    -302.246E-03     597.421E-03    -295.523E-03     117.964E-03
             603     5.35797E-03     126.765E-03    -71.3621E+06    -35.2963E+06    -8.61638E+06     1.63706E+06    -299.142E-03     594.741E-03    -295.599E-03     164.622E-03    -304.075E-03     599.320E-03    -295.487E-03     133.082E-03
             604     6.02798E-03     127.027E-03    -63.6521E+06    -22.5518E+06     7.63985E+06     1.54728E+06    -300.089E-03     595.706E-03    -295.617E-03     182.109E-03    -306.046E-03     601.335E-03    -295.454E-03     147.284E-03
             605     6.69796E-03     127.314E-03    -57.1651E+06    -14.2842E+06     20.4182E+06     624.146E+03    -301.057E-03     596.688E-03    -295.630E-03     197.716E-03    -308.000E-03     603.317E-03    -295.425E-03     159.956E-03
             606     7.36774E-03     127.623E-03    -50.5460E+06    -7.04558E+06     30.5881E+06    -482.090E+03    -301.949E-03     597.583E-03    -295.635E-03     211.002E-03    -309.764E-03     605.105E-03    -295.398E-03     170.774E-03
             607     8.03771E-03     127.950E-03    -43.2209E+06     248.749E+03     40.5621E+06    -318.187E+03    -302.733E-03     598.371E-03    -295.638E-03     221.323E-03    -311.240E-03     606.607E-03    -295.373E-03     179.203E-03
             608     8.70787E-03     128.292E-03    -35.6183E+06     8.46346E+06     52.0785E+06    -174.338E+03    -303.403E-03     599.056E-03    -295.653E-03     228.532E-03    -312.394E-03     607.799E-03    -295.353E-03     185.032E-03
             609     9.37775E-03     128.642E-03    -28.8126E+06     15.9580E+06     61.4284E+06    -861.201E+03    -303.798E-03     599.466E-03    -295.668E-03     232.645E-03    -313.071E-03     608.515E-03    -295.342E-03     188.176E-03
             610     10.0474E-03     128.996E-03    -24.6109E+06     20.9542E+06     65.2746E+06    -1.23382E+06    -303.646E-03     599.306E-03    -295.660E-03     233.390E-03    -312.951E-03     608.409E-03    -295.329E-03     188.558E-03
             611     10.7179E-03     129.348E-03    -20.1619E+06     24.2912E+06     66.4146E+06    -1.07584E+06    -302.948E-03     598.566E-03    -295.618E-03     231.550E-03    -312.032E-03     607.472E-03    -295.292E-03     187.122E-03
             612     11.3889E-03     129.694E-03    -14.8474E+06     29.2728E+06     62.4551E+06    -1.33103E+06    -301.965E-03     597.493E-03    -295.528E-03     221.547E-03    -310.328E-03     605.726E-03    -295.236E-03     178.718E-03
             613     12.0594E-03     130.013E-03    -7.90030E+06     44.7975E+06     70.6702E+06    -800.803E+03    -302.401E-03     597.924E-03    -295.523E-03     212.650E-03    -310.340E-03     605.788E-03    -295.223E-03     170.285E-03
             614     12.7280E-03     130.341E-03    -4.22877E+06     55.1478E+06     80.6993E+06     1.52548E+06    -302.529E-03     598.162E-03    -295.633E-03     176.010E-03    -308.201E-03     603.780E-03    -295.303E-03     141.250E-03
             615     669.860E-06     127.482E-03    -116.656E+06    -180.511E+06    -114.592E+06     233.341E+03    -295.712E-03     591.018E-03    -295.306E-03     23.9285E-03    -295.980E-03     590.564E-03    -295.448E-03     19.2786E-03
             616     1.33954E-03     127.532E-03    -113.559E+06    -174.278E+06    -105.714E+06     373.005E+03    -295.667E-03     591.146E-03    -295.479E-03     43.6962E-03    -296.172E-03     590.936E-03    -295.590E-03     35.3022E-03
             617     2.00936E-03     127.612E-03    -108.516E+06    -164.989E+06    -92.3321E+06     497.862E+03    -295.998E-03     591.498E-03    -295.500E-03     64.3805E-03    -296.893E-03     591.689E-03    -295.565E-03     52.0072E-03
             618     2.67892E-03     127.723E-03    -102.467E+06    -154.527E+06    -76.3589E+06     585.466E+03    -296.452E-03     591.994E-03    -295.541E-03     85.1121E-03    -297.884E-03     592.735E-03    -295.551E-03     68.7488E-03
             619     3.34847E-03     127.866E-03    -95.6420E+06    -142.889E+06    -59.7184E+06     453.862E+03    -297.024E-03     592.611E-03    -295.587E-03     105.629E-03    -299.136E-03     594.049E-03    -295.539E-03     85.2826E-03
             620     4.01828E-03     128.040E-03    -88.5128E+06    -106.578E+06    -43.7426E+06     302.630E+03    -297.642E-03     593.231E-03    -295.589E-03     125.928E-03    -300.597E-03     595.620E-03    -295.525E-03     101.698E-03
             621     4.68828E-03     128.244E-03    -81.2990E+06    -61.0191E+06    -26.7493E+06     276.745E+03    -298.327E-03     593.901E-03    -295.575E-03     145.706E-03    -302.249E-03     597.396E-03    -295.502E-03     117.737E-03
             622     5.35814E-03     128.477E-03    -73.6024E+06    -36.8782E+06    -9.84244E+06     368.528E+03    -299.145E-03     594.728E-03    -295.583E-03     164.534E-03    -304.081E-03     599.301E-03    -295.472E-03     132.994E-03
             623     6.02803E-03     128.738E-03    -65.2618E+06    -23.2995E+06     4.56860E+06     745.779E+03    -300.002E-03     595.590E-03    -295.588E-03     182.130E-03    -305.957E-03     601.218E-03    -295.437E-03     147.322E-03
             624     6.69804E-03     129.025E-03    -56.8092E+06    -13.2474E+06     18.3747E+06     1.26452E+06    -300.891E-03     596.479E-03    -295.588E-03     197.797E-03    -307.818E-03     603.104E-03    -295.395E-03     160.119E-03
             625     7.36847E-03     129.334E-03    -49.2106E+06    -4.90794E+06     31.4914E+06     1.34261E+06    -301.866E-03     597.458E-03    -295.592E-03     210.941E-03    -309.659E-03     604.968E-03    -295.356E-03     170.827E-03
             626     8.03867E-03     129.662E-03    -42.5006E+06     1.29170E+06     41.9667E+06     462.940E+03    -302.825E-03     598.429E-03    -295.604E-03     221.164E-03    -311.323E-03     606.658E-03    -295.334E-03     179.063E-03
             627     8.70839E-03     130.004E-03    -35.7820E+06     9.72405E+06     52.2842E+06    -217.996E+03    -303.470E-03     599.095E-03    -295.625E-03     228.349E-03    -312.468E-03     607.849E-03    -295.326E-03     184.788E-03
             628     9.37828E-03     130.355E-03    -30.5262E+06     15.5411E+06     60.3489E+06     141.462E+03    -303.613E-03     599.253E-03    -295.639E-03     232.564E-03    -312.900E-03     608.311E-03    -295.316E-03     188.078E-03
             629     10.0485E-03     130.708E-03    -25.6850E+06     22.0731E+06     66.1785E+06     389.289E+03    -303.423E-03     599.052E-03    -295.630E-03     233.160E-03    -312.735E-03     608.160E-03    -295.294E-03     188.364E-03
             630     10.7188E-03     131.058E-03    -19.8406E+06     27.3308E+06     69.4419E+06    -546.390E+03    -303.364E-03     598.974E-03    -295.610E-03     230.365E-03    -312.460E-03     607.895E-03    -295.274E-03     185.781E-03
             631     11.3892E-03     131.404E-03    -14.2308E+06     31.3662E+06     65.6934E+06    -2.02507E+06    -303.808E-03     599.409E-03    -295.602E-03     220.429E-03    -312.180E-03     607.652E-03    -295.298E-03     177.278E-03
             632     12.0568E-03     131.730E-03    -10.3266E+06     43.4257E+06     69.3864E+06     -856.01E+03    -304.518E-03     600.205E-03    -295.687E-03     214.359E-03    -312.452E-03     608.055E-03    -295.388E-03     172.040E-03
             633     12.7215E-03     132.060E-03    -5.83517E+06     51.3263E+06     77.6685E+06     159.852E+03    -301.052E-03     596.826E-03    -295.774E-03     181.350E-03    -306.803E-03     602.513E-03    -295.452E-03     146.583E-03
             634     669.513E-06     129.193E-03    -116.431E+06    -180.970E+06    -114.937E+06     103.863E+03    -295.750E-03     591.018E-03    -295.268E-03     23.4942E-03    -296.014E-03     590.560E-03    -295.412E-03     18.8712E-03
             635     1.33936E-03     129.243E-03    -113.800E+06    -174.888E+06    -106.085E+06     219.521E+03    -295.678E-03     591.162E-03    -295.484E-03     43.3072E-03    -296.179E-03     590.946E-03    -295.596E-03     34.9344E-03
             636     2.00900E-03     129.323E-03    -109.008E+06    -165.676E+06    -92.7666E+06     333.379E+03    -296.019E-03     591.531E-03    -295.512E-03     64.0347E-03    -296.910E-03     591.716E-03    -295.578E-03     51.6796E-03
             637     2.67878E-03     129.435E-03    -102.997E+06    -155.030E+06    -76.7171E+06     430.163E+03    -296.480E-03     592.040E-03    -295.560E-03     84.9436E-03    -297.911E-03     592.777E-03    -295.569E-03     68.5910E-03
             638     3.34860E-03     129.578E-03    -96.5299E+06    -143.239E+06    -60.1126E+06     654.798E+03    -297.027E-03     592.633E-03    -295.606E-03     105.648E-03    -299.141E-03     594.070E-03    -295.559E-03     85.3247E-03
             639     4.01831E-03     129.751E-03    -89.4917E+06    -106.725E+06    -43.8252E+06     866.490E+03    -297.603E-03     593.206E-03    -295.603E-03     125.959E-03    -300.561E-03     595.595E-03    -295.538E-03     101.756E-03
             640     4.68811E-03     129.955E-03    -82.0588E+06    -60.8869E+06    -26.9312E+06     946.409E+03    -298.228E-03     593.804E-03    -295.576E-03     145.648E-03    -302.147E-03     597.294E-03    -295.503E-03     117.726E-03
             641     5.35808E-03     130.188E-03    -74.3484E+06    -36.5733E+06    -9.80993E+06     629.698E+03    -299.003E-03     594.573E-03    -295.569E-03     164.530E-03    -303.932E-03     599.136E-03    -295.458E-03     133.068E-03
             642     6.02815E-03     130.449E-03    -66.8870E+06    -23.6244E+06     5.14489E+06     21.1652E+03    -299.931E-03     595.498E-03    -295.567E-03     182.159E-03    -305.891E-03     601.122E-03    -295.410E-03     147.370E-03
             643     6.69851E-03     130.736E-03    -59.2390E+06    -14.7132E+06     18.1950E+06    -253.139E+03    -300.971E-03     596.543E-03    -295.571E-03     197.624E-03    -307.905E-03     603.161E-03    -295.373E-03     159.900E-03
             644     7.36839E-03     131.046E-03    -51.5441E+06    -6.25043E+06     28.7472E+06     20.0176E+03    -301.987E-03     597.566E-03    -295.579E-03     210.455E-03    -309.778E-03     605.069E-03    -295.352E-03     170.280E-03
             645     8.03814E-03     131.374E-03    -44.9722E+06     3.34532E+06     37.8619E+06     42.3948E+03    -302.819E-03     598.411E-03    -295.592E-03     220.656E-03    -311.316E-03     606.650E-03    -295.342E-03     178.520E-03
             646     8.70801E-03     131.716E-03    -39.5765E+06     10.5343E+06     47.3795E+06    -397.922E+03    -303.301E-03     598.915E-03    -295.614E-03     227.848E-03    -312.306E-03     607.679E-03    -295.335E-03     184.271E-03
             647     9.37804E-03     132.065E-03    -32.2652E+06     14.4912E+06     57.4102E+06    -558.607E+03    -303.487E-03     599.122E-03    -295.636E-03     231.797E-03    -312.767E-03     608.173E-03    -295.323E-03     187.271E-03
             648     10.0484E-03     132.419E-03    -23.4356E+06     22.2087E+06     66.5032E+06    -323.250E+03    -303.688E-03     599.339E-03    -295.650E-03     231.844E-03    -312.958E-03     608.411E-03    -295.316E-03     187.008E-03
             649     10.7182E-03     132.770E-03    -16.0939E+06     28.7996E+06     70.4146E+06     161.671E+03    -304.221E-03     599.894E-03    -295.673E-03     229.374E-03    -313.269E-03     608.783E-03    -295.339E-03     184.727E-03
             650     11.3857E-03     133.118E-03    -12.0633E+06     32.0660E+06     64.9171E+06     857.343E+03    -304.082E-03     599.765E-03    -295.683E-03     221.668E-03    -312.386E-03     607.952E-03    -295.387E-03     178.894E-03
             651     12.0542E-03     133.446E-03    -8.85728E+06     43.0991E+06     68.7116E+06     898.128E+03    -302.285E-03     597.970E-03    -295.684E-03     217.660E-03    -310.165E-03     605.772E-03    -295.390E-03     176.142E-03
             652     12.7291E-03     133.772E-03    -3.50823E+06     51.6207E+06     79.5167E+06    -382.387E+03    -298.689E-03     594.323E-03    -295.635E-03     183.350E-03    -304.467E-03     600.042E-03    -295.307E-03     148.779E-03
             653     669.700E-06     130.905E-03    -117.642E+06    -181.552E+06    -115.667E+06     18.5915E+03    -295.869E-03     591.138E-03    -295.269E-03     23.5438E-03    -296.138E-03     590.681E-03    -295.414E-03     18.9373E-03
             654     1.33919E-03     130.954E-03    -114.742E+06    -175.362E+06    -106.813E+06     137.786E+03    -295.753E-03     591.300E-03    -295.547E-03     43.4456E-03    -296.258E-03     591.085E-03    -295.660E-03     35.0801E-03
             655     2.00894E-03     131.034E-03    -110.086E+06    -166.246E+06    -93.5545E+06     224.915E+03    -296.014E-03     591.580E-03    -295.566E-03     64.2189E-03    -296.909E-03     591.765E-03    -295.633E-03     51.8776E-03
             656     2.67867E-03     131.146E-03    -104.222E+06    -155.963E+06    -77.6166E+06     549.783E+03    -296.427E-03     592.018E-03    -295.591E-03     85.0371E-03    -297.861E-03     592.753E-03    -295.602E-03     68.7031E-03
             657     3.34838E-03     131.289E-03    -97.0832E+06    -144.222E+06    -60.7865E+06     828.948E+03    -296.966E-03     592.585E-03    -295.618E-03     105.655E-03    -299.078E-03     594.016E-03    -295.572E-03     85.3563E-03
             658     4.01825E-03     131.462E-03    -89.3345E+06    -107.432E+06    -44.3478E+06     974.677E+03    -297.543E-03     593.144E-03    -295.601E-03     126.018E-03    -300.497E-03     595.528E-03    -295.538E-03     101.836E-03
             659     4.68818E-03     131.666E-03    -81.3967E+06    -61.3336E+06    -26.6387E+06     1.10747E+06    -298.149E-03     593.715E-03    -295.565E-03     145.732E-03    -302.067E-03     597.203E-03    -295.492E-03     117.811E-03
             660     5.35834E-03     131.899E-03    -73.3670E+06    -36.3144E+06    -8.33531E+06     1.48490E+06    -298.964E-03     594.521E-03    -295.557E-03     164.496E-03    -303.892E-03     599.084E-03    -295.439E-03     133.028E-03
             661     6.02862E-03     132.160E-03    -65.5243E+06    -22.4555E+06     7.30250E+06     1.53318E+06    -300.061E-03     595.626E-03    -295.565E-03     181.912E-03    -306.015E-03     601.247E-03    -295.401E-03     147.117E-03
             662     6.69819E-03     132.448E-03    -58.1151E+06    -13.9066E+06     19.5030E+06     1.26079E+06    -301.225E-03     596.813E-03    -295.588E-03     197.347E-03    -308.154E-03     603.430E-03    -295.386E-03     159.603E-03
             663     7.36794E-03     132.757E-03    -50.9889E+06    -5.50637E+06     29.6213E+06     948.703E+03    -302.191E-03     597.808E-03    -295.617E-03     210.362E-03    -309.984E-03     605.315E-03    -295.387E-03     170.161E-03
             664     8.03782E-03     133.085E-03    -43.1931E+06     4.05826E+06     40.8953E+06     872.696E+03    -302.844E-03     598.491E-03    -295.648E-03     220.570E-03    -311.339E-03     606.729E-03    -295.386E-03     178.433E-03
             665     8.70788E-03     133.427E-03    -34.6903E+06     11.5726E+06     53.0648E+06     1.10582E+06    -303.289E-03     598.965E-03    -295.677E-03     227.529E-03    -312.268E-03     607.708E-03    -295.378E-03     183.996E-03
             666     9.37791E-03     133.777E-03    -28.4410E+06     16.7251E+06     61.5542E+06     449.835E+03    -303.779E-03     599.477E-03    -295.698E-03     231.422E-03    -313.025E-03     608.503E-03    -295.373E-03     186.954E-03
             667     10.0471E-03     134.131E-03    -22.9417E+06     23.0077E+06     66.8840E+06    -578.194E+03    -304.088E-03     599.806E-03    -295.718E-03     232.227E-03    -313.346E-03     608.870E-03    -295.383E-03     187.423E-03
             668     10.7158E-03     134.483E-03    -18.2733E+06     26.1334E+06     67.4144E+06    -491.160E+03    -303.774E-03     599.486E-03    -295.712E-03     231.341E-03    -312.823E-03     608.368E-03    -295.387E-03     186.938E-03
             669     11.3867E-03     134.833E-03    -13.4639E+06     30.0338E+06     62.2128E+06     329.246E+03    -302.315E-03     597.945E-03    -295.630E-03     224.173E-03    -310.634E-03     606.142E-03    -295.343E-03     181.767E-03
             670     12.0598E-03     135.155E-03    -6.79950E+06     44.2632E+06     69.2869E+06     21.1296E+03    -300.824E-03     596.366E-03    -295.542E-03     217.637E-03    -308.775E-03     604.249E-03    -295.250E-03     175.884E-03
             671     12.7304E-03     135.476E-03    -2.47996E+06     52.6337E+06     79.5837E+06     172.443E+03    -299.145E-03     594.633E-03    -295.488E-03     179.867E-03    -304.912E-03     600.348E-03    -295.163E-03     145.106E-03
             672     669.587E-06     132.617E-03    -117.242E+06    -181.842E+06    -115.510E+06     228.830E+03    -295.812E-03     591.059E-03    -295.247E-03     23.6368E-03    -296.079E-03     590.599E-03    -295.391E-03     19.0209E-03
             673     1.33929E-03     132.666E-03    -114.640E+06    -176.080E+06    -106.882E+06     216.266E+03    -295.772E-03     591.288E-03    -295.517E-03     43.5542E-03    -296.275E-03     591.070E-03    -295.630E-03     35.1818E-03
             674     2.00895E-03     132.746E-03    -109.945E+06    -166.927E+06    -93.3511E+06     377.337E+03    -296.044E-03     591.598E-03    -295.554E-03     64.3442E-03    -296.939E-03     591.781E-03    -295.619E-03     51.9955E-03
             675     2.67867E-03     132.858E-03    -103.663E+06    -156.625E+06    -77.1352E+06     505.139E+03    -296.420E-03     592.006E-03    -295.586E-03     85.1843E-03    -297.853E-03     592.738E-03    -295.594E-03     68.8338E-03
             676     3.34851E-03     133.000E-03    -96.6886E+06    -145.150E+06    -60.4970E+06     631.659E+03    -296.948E-03     592.557E-03    -295.609E-03     105.838E-03    -299.060E-03     593.986E-03    -295.561E-03     85.5286E-03
             677     4.01834E-03     133.174E-03    -89.4025E+06    -108.298E+06     -44.216E+06     764.151E+03    -297.512E-03     593.101E-03    -295.588E-03     126.058E-03    -300.467E-03     595.482E-03    -295.523E-03     101.864E-03
             678     4.68843E-03     133.377E-03    -81.8402E+06    -62.5028E+06    -27.0899E+06     998.600E+03    -298.210E-03     593.766E-03    -295.556E-03     145.559E-03    -302.129E-03     597.251E-03    -295.482E-03     117.604E-03
             679     5.35836E-03     133.610E-03    -73.9825E+06    -37.5279E+06    -10.3287E+06     1.25389E+06    -299.190E-03     594.753E-03    -295.563E-03     164.187E-03    -304.118E-03     599.315E-03    -295.453E-03     132.655E-03
             680     6.02795E-03     133.872E-03    -65.8886E+06    -22.5772E+06     4.03886E+06     1.28669E+06    -300.267E-03     595.857E-03    -295.590E-03     181.639E-03    -306.215E-03     601.479E-03    -295.441E-03     146.806E-03
             681     6.69798E-03     134.159E-03    -57.8010E+06    -13.2880E+06     17.2770E+06     1.05540E+06    -301.288E-03     596.917E-03    -295.629E-03     197.125E-03    -308.205E-03     603.532E-03    -295.440E-03     159.385E-03
             682     7.36776E-03     134.469E-03    -49.9529E+06    -4.77089E+06     30.0803E+06     690.418E+03    -302.168E-03     597.838E-03    -295.670E-03     210.185E-03    -309.954E-03     605.342E-03    -295.440E-03     169.984E-03
             683     8.03743E-03     134.797E-03    -42.6444E+06     4.00095E+06     42.5347E+06     355.148E+03    -302.840E-03     598.544E-03    -295.704E-03     220.408E-03    -311.336E-03     606.780E-03    -295.436E-03     178.240E-03
             684     8.70716E-03     135.138E-03    -36.3645E+06     10.3585E+06     52.6128E+06     446.360E+03    -303.385E-03     599.114E-03    -295.729E-03     227.589E-03    -312.371E-03     607.855E-03    -295.428E-03     184.036E-03
             685     9.37678E-03     135.489E-03    -30.0497E+06     17.7637E+06     60.7140E+06     729.299E+03    -303.726E-03     599.465E-03    -295.738E-03     232.015E-03    -312.973E-03     608.492E-03    -295.417E-03     187.638E-03
             686     10.0468E-03     135.844E-03    -24.5216E+06     24.4761E+06     66.4935E+06     375.948E+03    -303.416E-03     599.137E-03    -295.721E-03     233.395E-03    -312.682E-03     608.210E-03    -295.389E-03     188.799E-03
             687     10.7180E-03     136.196E-03    -18.6159E+06     26.6877E+06     68.6014E+06    -184.616E+03    -302.516E-03     598.168E-03    -295.652E-03     232.025E-03    -311.573E-03     607.055E-03    -295.321E-03     187.836E-03
             688     11.3897E-03     136.540E-03    -13.0548E+06     30.1968E+06     64.5193E+06    -952.481E+03    -301.804E-03     597.333E-03    -295.530E-03     223.055E-03    -310.141E-03     605.545E-03    -295.232E-03     180.511E-03
             689     12.0599E-03     136.864E-03    -9.74587E+06     41.8996E+06     68.0091E+06    -1.83767E+06    -302.272E-03     597.755E-03    -295.482E-03     215.470E-03    -310.261E-03     605.661E-03    -295.189E-03     173.196E-03
             690     12.7286E-03     137.191E-03    -5.41812E+06     51.8775E+06     77.8694E+06    -715.480E+03    -300.971E-03     596.506E-03    -295.535E-03     177.502E-03    -306.746E-03     602.220E-03    -295.213E-03     142.377E-03
             691     669.769E-06     134.328E-03    -116.556E+06    -182.547E+06    -114.894E+06     162.075E+03    -295.704E-03     591.022E-03    -295.318E-03     23.5775E-03    -295.967E-03     590.557E-03    -295.459E-03     18.9505E-03
             692     1.33945E-03     134.377E-03    -113.855E+06    -176.693E+06    -105.961E+06     289.405E+03    -295.727E-03     591.222E-03    -295.495E-03     43.4354E-03    -296.226E-03     590.998E-03    -295.604E-03     35.0730E-03
             693     2.00907E-03     134.457E-03    -109.105E+06    -167.510E+06    -92.6628E+06     402.006E+03    -296.029E-03     591.557E-03    -295.529E-03     64.2653E-03    -296.919E-03     591.735E-03    -295.591E-03     51.9120E-03
             694     2.67883E-03     134.569E-03    -103.211E+06    -157.368E+06    -76.8890E+06     581.418E+03    -296.443E-03     592.010E-03    -295.567E-03     85.0712E-03    -297.873E-03     592.738E-03    -295.574E-03     68.7094E-03
             695     3.34864E-03     134.711E-03    -96.6651E+06    -145.804E+06    -60.6424E+06     870.798E+03    -296.992E-03     592.595E-03    -295.602E-03     105.633E-03    -299.103E-03     594.020E-03    -295.554E-03     85.3035E-03
             696     4.01845E-03     134.885E-03    -89.4459E+06    -109.154E+06    -44.9608E+06     1.13550E+06    -297.634E-03     593.231E-03    -295.597E-03     125.740E-03    -300.584E-03     595.607E-03    -295.534E-03     101.525E-03
             697     4.68819E-03     135.088E-03    -81.9635E+06    -63.3246E+06    -28.7651E+06     1.24855E+06    -298.411E-03     593.997E-03    -295.586E-03     145.278E-03    -302.324E-03     597.477E-03    -295.519E-03     117.308E-03
             698     5.35785E-03     135.322E-03    -74.3715E+06    -37.5312E+06    -11.9675E+06     1.01158E+06    -299.355E-03     594.967E-03    -295.613E-03     164.116E-03    -304.281E-03     599.531E-03    -295.510E-03     132.566E-03
             699     6.02770E-03     135.584E-03    -66.1885E+06    -22.3846E+06     3.97787E+06     565.197E+03    -300.369E-03     596.025E-03    -295.656E-03     181.754E-03    -306.322E-03     601.652E-03    -295.507E-03     146.895E-03
             700     6.69721E-03     135.871E-03    -57.9110E+06    -12.8886E+06     18.1125E+06     340.289E+03    -301.264E-03     596.959E-03    -295.695E-03     197.273E-03    -308.188E-03     603.579E-03    -295.502E-03     159.521E-03
             701     7.36698E-03     136.181E-03    -50.3139E+06    -4.52524E+06     30.6100E+06     184.807E+03    -302.014E-03     597.732E-03    -295.718E-03     210.446E-03    -309.800E-03     605.235E-03    -295.485E-03     170.294E-03
             702     8.03702E-03     136.509E-03    -43.6041E+06     3.00672E+06     41.6339E+06     129.628E+03    -302.744E-03     598.471E-03    -295.727E-03     220.989E-03    -311.240E-03     606.702E-03    -295.460E-03     178.899E-03
             703     8.70699E-03     136.851E-03    -36.8115E+06     9.34602E+06     51.1219E+06     472.783E+03    -303.287E-03     599.014E-03    -295.728E-03     228.525E-03    -312.284E-03     607.766E-03    -295.432E-03     185.016E-03
             704     9.37717E-03     137.201E-03    -29.9061E+06     17.6956E+06     59.8074E+06     698.425E+03    -303.304E-03     599.012E-03    -295.708E-03     233.028E-03    -312.578E-03     608.070E-03    -295.391E-03     188.669E-03
             705     10.0478E-03     137.554E-03    -23.5553E+06     26.4017E+06     66.9694E+06     209.886E+03    -302.838E-03     598.497E-03    -295.658E-03     233.479E-03    -312.128E-03     607.602E-03    -295.328E-03     188.853E-03
             706     10.7189E-03     137.904E-03    -17.8745E+06     27.8021E+06     69.4654E+06    -532.228E+03    -302.703E-03     598.298E-03    -295.595E-03     230.607E-03    -311.795E-03     607.224E-03    -295.262E-03     186.087E-03
             707     11.3892E-03     138.250E-03    -12.7972E+06     30.0539E+06     65.5570E+06    -136.227E+03    -303.063E-03     598.605E-03    -295.542E-03     221.325E-03    -311.412E-03     606.824E-03    -295.239E-03     178.433E-03
             708     12.0583E-03     138.578E-03    -8.84195E+06     43.0727E+06     70.8074E+06    -49.0250E+03    -303.192E-03     598.763E-03    -295.571E-03     214.740E-03    -311.109E-03     606.596E-03    -295.266E-03     172.680E-03
             709     12.7272E-03     138.905E-03    -5.69862E+06     51.8330E+06     79.2841E+06    -664.193E+03    -301.401E-03     597.048E-03    -295.648E-03     178.405E-03    -307.155E-03     602.737E-03    -295.318E-03     143.423E-03
             710     669.524E-06     136.039E-03    -117.100E+06    -183.508E+06    -114.607E+06     52.9024E+03    -295.745E-03     591.119E-03    -295.374E-03     23.5855E-03    -296.010E-03     590.650E-03    -295.511E-03     18.9272E-03
             711     1.33920E-03     136.088E-03    -113.784E+06    -177.400E+06    -106.098E+06     375.265E+03    -295.737E-03     591.274E-03    -295.536E-03     43.3282E-03    -296.235E-03     591.045E-03    -295.645E-03     34.9645E-03
             712     2.00907E-03     136.169E-03    -109.291E+06    -168.419E+06    -93.1212E+06     666.483E+03    -296.027E-03     591.585E-03    -295.558E-03     64.0461E-03    -296.915E-03     591.758E-03    -295.621E-03     51.6991E-03
             713     2.67876E-03     136.280E-03    -103.498E+06    -158.288E+06    -77.5846E+06     816.391E+03    -296.515E-03     592.113E-03    -295.598E-03     84.8327E-03    -297.941E-03     592.835E-03    -295.606E-03     68.4788E-03
             714     3.34835E-03     136.423E-03    -96.5772E+06    -146.585E+06    -61.3096E+06     917.446E+03    -297.118E-03     592.767E-03    -295.648E-03     105.399E-03    -299.224E-03     594.187E-03    -295.602E-03     85.0577E-03
             715     4.01804E-03     136.596E-03    -89.1969E+06    -110.092E+06    -45.5243E+06     964.479E+03    -297.748E-03     593.406E-03    -295.658E-03     125.620E-03    -300.692E-03     595.774E-03    -295.596E-03     101.405E-03
             716     4.68770E-03     136.800E-03    -81.4547E+06    -63.9768E+06    -28.3344E+06     1.05509E+06    -298.466E-03     594.119E-03    -295.653E-03     145.382E-03    -302.375E-03     597.593E-03    -295.583E-03     117.420E-03
             717     5.35755E-03     137.034E-03    -73.4300E+06    -36.6709E+06    -10.1850E+06     956.981E+03    -299.336E-03     595.011E-03    -295.675E-03     164.386E-03    -304.266E-03     599.579E-03    -295.566E-03     132.838E-03
             718     6.02725E-03     137.296E-03    -65.6484E+06    -21.1734E+06     5.88605E+06     522.851E+03    -300.258E-03     595.958E-03    -295.700E-03     182.137E-03    -306.215E-03     601.590E-03    -295.545E-03     147.316E-03
             719     6.69717E-03     137.583E-03    -58.5473E+06    -12.8362E+06     18.4841E+06    -61.2763E+03    -301.090E-03     596.801E-03    -295.711E-03     197.846E-03    -308.027E-03     603.431E-03    -295.515E-03     160.122E-03
             720     7.36730E-03     137.893E-03    -51.1640E+06    -5.10381E+06     29.0554E+06     9.76827E+03    -301.887E-03     597.589E-03    -295.702E-03     211.080E-03    -309.682E-03     605.100E-03    -295.475E-03     170.961E-03
             721     8.03753E-03     138.221E-03    -43.6688E+06     2.35295E+06     40.5928E+06     553.881E+03    -302.607E-03     598.301E-03    -295.694E-03     221.479E-03    -311.099E-03     606.529E-03    -295.431E-03     179.458E-03
             722     8.70777E-03     138.562E-03    -37.0739E+06     9.68718E+06     51.8237E+06     221.642E+03    -303.020E-03     598.705E-03    -295.685E-03     228.620E-03    -312.023E-03     607.460E-03    -295.386E-03     185.134E-03
             723     9.37823E-03     138.912E-03    -30.8091E+06     18.0402E+06     60.6057E+06    -511.602E+03    -303.165E-03     598.825E-03    -295.661E-03     232.365E-03    -312.454E-03     607.894E-03    -295.339E-03     187.912E-03
             724     10.0489E-03     139.265E-03    -24.2444E+06     26.9856E+06     67.5896E+06    -560.344E+03    -303.341E-03     598.980E-03    -295.639E-03     232.154E-03    -312.650E-03     608.103E-03    -295.305E-03     187.278E-03
             725     10.7185E-03     139.615E-03    -18.0387E+06     28.8624E+06     70.3579E+06    -145.871E+03    -303.990E-03     599.640E-03    -295.650E-03     229.545E-03    -313.101E-03     608.585E-03    -295.313E-03     184.718E-03
             726     11.3871E-03     139.963E-03    -12.8406E+06     29.7032E+06     66.2012E+06     480.020E+03    -303.806E-03     599.470E-03    -295.664E-03     220.662E-03    -312.155E-03     607.687E-03    -295.358E-03     177.627E-03
             727     12.0564E-03     140.290E-03    -8.57149E+06     42.3747E+06     70.5059E+06     795.801E+03    -302.113E-03     597.789E-03    -295.676E-03     214.534E-03    -309.969E-03     605.561E-03    -295.373E-03     172.828E-03
             728     12.7268E-03     140.616E-03    -3.50933E+06     52.0456E+06     80.0414E+06     312.834E+03    -298.971E-03     594.616E-03    -295.645E-03     181.361E-03    -304.709E-03     600.294E-03    -295.316E-03     146.806E-03
             729     669.710E-06     137.751E-03    -116.416E+06    -184.422E+06    -114.670E+06     330.016E+03    -295.943E-03     591.185E-03    -295.243E-03     23.7789E-03    -296.204E-03     590.711E-03    -295.380E-03     19.1210E-03
             730     1.33929E-03     137.800E-03    -113.607E+06    -178.393E+06    -105.892E+06     572.271E+03    -295.841E-03     591.423E-03    -295.583E-03     43.3378E-03    -296.337E-03     591.190E-03    -295.689E-03     34.9720E-03
             731     2.00876E-03     137.880E-03    -108.947E+06    -169.292E+06    -92.8451E+06     761.731E+03    -296.117E-03     591.740E-03    -295.622E-03     64.1059E-03    -297.004E-03     591.908E-03    -295.683E-03     51.7536E-03
             732     2.67845E-03     137.992E-03    -102.887E+06    -159.050E+06    -77.0545E+06     748.152E+03    -296.571E-03     592.235E-03    -295.664E-03     84.9477E-03    -297.993E-03     592.951E-03    -295.670E-03     68.6042E-03
             733     3.34815E-03     138.134E-03    -96.0632E+06    -147.356E+06    -60.6217E+06      747.88E+03    -297.172E-03     592.882E-03    -295.710E-03     105.604E-03    -299.274E-03     594.296E-03    -295.660E-03     85.2801E-03
             734     4.01770E-03     138.308E-03    -88.7782E+06    -110.678E+06    -44.3885E+06     785.671E+03    -297.741E-03     593.453E-03    -295.712E-03     125.928E-03    -300.688E-03     595.820E-03    -295.645E-03     101.711E-03
             735     4.68764E-03     138.512E-03    -81.2191E+06    -64.7461E+06    -27.3027E+06      906.71E+03    -298.397E-03     594.086E-03    -295.689E-03     145.791E-03    -302.308E-03     597.559E-03    -295.614E-03     117.841E-03
             736     5.35740E-03     138.746E-03    -73.5467E+06      -36.94E+06    -9.83841E+06     1.04042E+06    -299.238E-03     594.925E-03    -295.687E-03     164.799E-03    -304.170E-03     599.494E-03    -295.576E-03     133.288E-03
             737     6.02741E-03     139.007E-03    -66.2440E+06    -20.5477E+06     5.51937E+06     1.32705E+06    -300.057E-03     595.743E-03    -295.686E-03     182.388E-03    -306.016E-03     601.378E-03    -295.532E-03     147.620E-03
             738     6.69767E-03     139.295E-03    -58.7486E+06    -11.5003E+06     19.1126E+06     1.38243E+06    -300.959E-03     596.641E-03    -295.682E-03     197.875E-03    -307.894E-03     603.271E-03    -295.484E-03     160.204E-03
             739     7.36782E-03     139.604E-03    -52.0603E+06    -4.77158E+06     29.5015E+06     1.00081E+06    -301.911E-03     597.586E-03    -295.675E-03     210.747E-03    -309.717E-03     605.105E-03    -295.445E-03     170.572E-03
             740     8.03779E-03     139.932E-03    -46.2783E+06     2.55770E+06     38.9441E+06     483.044E+03    -302.587E-03     598.259E-03    -295.672E-03     220.755E-03    -311.096E-03     606.500E-03    -295.414E-03     178.629E-03
             741     8.70801E-03     140.273E-03    -39.5812E+06     12.0126E+06     50.5891E+06    -219.519E+03    -303.043E-03     598.721E-03    -295.678E-03     227.480E-03    -312.048E-03     607.481E-03    -295.385E-03     183.922E-03
             742     9.37805E-03     140.623E-03    -32.4825E+06     19.2592E+06     60.7939E+06    -755.860E+03    -303.544E-03     599.237E-03    -295.692E-03     231.019E-03    -312.826E-03     608.295E-03    -295.369E-03     186.472E-03
             743     10.0473E-03     140.976E-03    -25.5976E+06     26.6765E+06     68.2099E+06    -994.355E+03    -304.054E-03     599.776E-03    -295.722E-03     231.382E-03    -313.359E-03     608.886E-03    -295.382E-03     186.390E-03
             744     10.7164E-03     141.328E-03    -19.3981E+06     27.7329E+06     70.0218E+06    -897.136E+03    -304.140E-03     599.892E-03    -295.752E-03     230.062E-03    -313.238E-03     608.816E-03    -295.414E-03     185.340E-03
             745     11.3853E-03     141.678E-03    -13.5186E+06     27.1398E+06     64.8529E+06    -597.534E+03    -302.769E-03     598.486E-03    -295.717E-03     222.688E-03    -311.133E-03     606.711E-03    -295.413E-03     179.885E-03
             746     12.0552E-03     141.999E-03    -8.89167E+06     40.4802E+06     69.7640E+06    -89.5786E+03    -300.803E-03     596.445E-03    -295.642E-03     217.306E-03    -308.729E-03     604.280E-03    -295.339E-03     175.679E-03
             747     12.7285E-03     142.322E-03    -3.25462E+06     52.5036E+06     81.4105E+06    -381.633E+03    -298.761E-03     594.328E-03    -295.567E-03     181.775E-03    -304.544E-03     600.049E-03    -295.231E-03     147.046E-03
             748     669.589E-06     139.462E-03    -117.156E+06    -185.476E+06    -115.252E+06     305.174E+03    -296.019E-03     591.226E-03    -295.207E-03     23.6843E-03    -296.281E-03     590.748E-03    -295.345E-03     19.0377E-03
             749     1.33912E-03     139.511E-03    -114.241E+06    -179.500E+06    -106.358E+06     478.597E+03    -295.824E-03     591.420E-03    -295.596E-03     43.3878E-03    -296.320E-03     591.182E-03    -295.702E-03     35.0362E-03
             750     2.00885E-03     139.592E-03    -109.540E+06    -170.076E+06    -93.3169E+06     469.747E+03    -296.174E-03     591.807E-03    -295.633E-03     64.3591E-03    -297.062E-03     591.973E-03    -295.694E-03     52.0022E-03
             751     2.67843E-03     139.703E-03    -103.627E+06    -159.841E+06    -77.3547E+06     650.932E+03    -296.618E-03     592.302E-03    -295.684E-03     85.1914E-03    -298.045E-03     593.018E-03    -295.689E-03     68.8380E-03
             752     3.34808E-03     139.846E-03    -96.8717E+06    -147.977E+06    -60.6668E+06     815.203E+03    -297.084E-03     592.805E-03    -295.722E-03     105.827E-03    -299.191E-03     594.220E-03    -295.670E-03     85.5065E-03
             753     4.01794E-03     140.020E-03    -89.7145E+06    -111.278E+06    -44.5996E+06     993.875E+03    -297.640E-03     593.342E-03    -295.703E-03     126.188E-03    -300.592E-03     595.710E-03    -295.634E-03     101.986E-03
             754     4.68768E-03     140.224E-03    -82.8037E+06    -65.3729E+06    -27.9425E+06     1.24864E+06    -298.373E-03     594.041E-03    -295.668E-03     146.055E-03    -302.293E-03     597.516E-03    -295.592E-03     118.120E-03
             755     5.35776E-03     140.458E-03    -75.4953E+06    -37.8630E+06    -10.6794E+06     1.49384E+06    -299.220E-03     594.884E-03    -295.664E-03     164.819E-03    -304.160E-03     599.453E-03    -295.553E-03     133.309E-03
             756     6.02778E-03     140.719E-03    -67.4791E+06    -21.3829E+06     4.99387E+06     1.74662E+06    -300.132E-03     595.806E-03    -295.674E-03     181.939E-03    -306.100E-03     601.443E-03    -295.520E-03     147.104E-03
             757     6.69774E-03     141.006E-03    -59.6024E+06    -11.8310E+06     18.7987E+06     2.28557E+06    -301.107E-03     596.798E-03    -295.692E-03     197.198E-03    -308.044E-03     603.428E-03    -295.494E-03     159.453E-03
             758     7.36746E-03     141.316E-03    -52.2626E+06    -3.44106E+06     30.2910E+06     2.25894E+06    -301.993E-03     597.701E-03    -295.708E-03     210.033E-03    -309.804E-03     605.227E-03    -295.476E-03     169.791E-03
             759     8.03726E-03     141.643E-03    -44.2539E+06     4.74337E+06     41.2854E+06     1.67249E+06    -302.785E-03     598.514E-03    -295.729E-03     220.014E-03    -311.288E-03     606.757E-03    -295.465E-03     177.826E-03
             760     8.70698E-03     141.985E-03    -36.0119E+06     13.6357E+06     53.1350E+06     1.65392E+06    -303.397E-03     599.157E-03    -295.760E-03     226.871E-03    -312.382E-03     607.908E-03    -295.461E-03     183.288E-03
             761     9.37652E-03     142.335E-03    -28.8830E+06     21.7372E+06     63.7198E+06     1.34861E+06    -303.739E-03     599.530E-03    -295.791E-03     231.058E-03    -313.005E-03     608.585E-03    -295.462E-03     186.546E-03
             762     10.0463E-03     142.689E-03    -23.5081E+06     28.3134E+06     70.4647E+06     243.131E+03    -303.677E-03     599.474E-03    -295.798E-03     232.799E-03    -312.968E-03     608.578E-03    -295.452E-03     188.041E-03
             763     10.7157E-03     143.042E-03    -19.2251E+06     27.9460E+06     71.0566E+06    -920.186E+03    -302.854E-03     598.602E-03    -295.747E-03     232.232E-03    -311.953E-03     607.526E-03    -295.405E-03     187.872E-03
             764     11.3878E-03     143.387E-03    -14.8993E+06     27.3660E+06     65.2773E+06    -2.19273E+06    -301.604E-03     597.226E-03    -295.622E-03     223.893E-03    -309.988E-03     605.465E-03    -295.314E-03     181.260E-03
             765     12.0615E-03     143.710E-03    -9.33069E+06     41.2121E+06     71.5162E+06    -2.74741E+06    -301.802E-03     597.357E-03    -295.555E-03     215.660E-03    -309.766E-03     605.227E-03    -295.244E-03     173.555E-03
             766     12.7314E-03     144.032E-03    -5.12278E+06     50.9802E+06     81.1656E+06    -953.084E+03    -301.491E-03     597.090E-03    -295.599E-03     178.707E-03    -307.256E-03     602.782E-03    -295.260E-03     143.681E-03
             767     669.494E-06     141.174E-03    -118.331E+06    -186.656E+06    -116.291E+06     305.053E+03    -295.795E-03     591.144E-03    -295.349E-03     23.7769E-03    -296.060E-03     590.664E-03    -295.488E-03     19.1230E-03
             768     1.33934E-03     141.223E-03    -115.307E+06    -180.752E+06    -107.690E+06     354.882E+03    -295.784E-03     591.337E-03    -295.553E-03     43.5611E-03    -296.284E-03     591.098E-03    -295.662E-03     35.1859E-03
             769     2.00893E-03     141.303E-03    -110.814E+06    -171.135E+06    -94.3073E+06     668.276E+03    -296.149E-03     591.742E-03    -295.593E-03     64.4985E-03    -297.042E-03     591.908E-03    -295.656E-03     52.1360E-03
             770     2.67850E-03     141.415E-03    -104.951E+06    -160.884E+06    -78.1951E+06     989.512E+03    -296.570E-03     592.215E-03    -295.645E-03     85.3411E-03    -298.004E-03     592.932E-03    -295.651E-03     68.9800E-03
             771     3.34819E-03     141.558E-03    -98.1629E+06    -148.990E+06    -61.4770E+06     1.26149E+06    -297.074E-03     592.759E-03    -295.684E-03     105.922E-03    -299.190E-03     594.175E-03    -295.633E-03     85.5854E-03
             772     4.01807E-03     141.731E-03    -91.2253E+06    -112.340E+06    -45.4025E+06     1.63706E+06    -297.727E-03     593.406E-03    -295.679E-03     126.097E-03    -300.684E-03     595.772E-03    -295.611E-03     101.886E-03
             773     4.68809E-03     141.935E-03    -83.9314E+06    -66.4003E+06    -28.3039E+06     2.17355E+06    -298.493E-03     594.162E-03    -295.669E-03     145.586E-03    -302.414E-03     597.631E-03    -295.592E-03     117.624E-03
             774     5.35773E-03     142.169E-03    -76.2877E+06    -38.3185E+06    -10.6617E+06     2.49202E+06    -299.354E-03     595.046E-03    -295.691E-03     164.170E-03    -304.294E-03     599.610E-03    -295.578E-03     132.617E-03
             775     6.02736E-03     142.431E-03    -68.4206E+06    -21.5962E+06     4.83815E+06     2.17826E+06    -300.340E-03     596.066E-03    -295.725E-03     181.444E-03    -306.312E-03     601.704E-03    -295.571E-03     146.545E-03
             776     6.69678E-03     142.718E-03    -60.5211E+06    -12.4452E+06     17.8984E+06     1.47600E+06    -301.283E-03     597.044E-03    -295.762E-03     196.877E-03    -308.230E-03     603.681E-03    -295.567E-03     159.044E-03
             777     7.36671E-03     143.027E-03    -52.0649E+06    -3.08071E+06     29.9752E+06     986.091E+03    -302.108E-03     597.898E-03    -295.790E-03     209.838E-03    -309.913E-03     605.420E-03    -295.560E-03     169.576E-03
             778     8.03657E-03     143.356E-03    -43.8068E+06     5.35095E+06     42.1713E+06     638.738E+03    -302.883E-03     598.701E-03    -295.818E-03     219.996E-03    -311.376E-03     606.935E-03    -295.551E-03     177.824E-03
             779     8.70610E-03     143.697E-03    -37.1663E+06     12.5945E+06     53.0118E+06        -536.844    -303.338E-03     599.178E-03    -295.840E-03     227.396E-03    -312.333E-03     607.932E-03    -295.539E-03     183.812E-03
             780     9.37593E-03     144.047E-03    -31.0066E+06     21.3594E+06     61.9615E+06    -461.527E+03    -303.285E-03     599.116E-03    -295.831E-03     232.127E-03    -312.573E-03     608.190E-03    -295.507E-03     187.660E-03
             781     10.0463E-03     144.401E-03    -24.0224E+06     29.2370E+06     69.8891E+06    -291.968E+03    -302.698E-03     598.479E-03    -295.780E-03     233.251E-03    -311.989E-03     607.585E-03    -295.438E-03     188.639E-03
             782     10.7191E-03     144.751E-03    -17.6209E+06     29.8020E+06     73.0129E+06    -58.4539E+03    -302.222E-03     597.917E-03    -295.695E-03     230.497E-03    -311.285E-03     606.811E-03    -295.347E-03     186.183E-03
             783     11.3902E-03     145.096E-03    -12.5075E+06     30.6396E+06     68.7054E+06     181.444E+03    -302.480E-03     598.089E-03    -295.608E-03     220.261E-03    -310.793E-03     606.266E-03    -295.291E-03     177.520E-03
             784     12.0573E-03     145.420E-03    -8.41160E+06     44.0182E+06     73.2653E+06    -468.630E+03    -303.338E-03     598.963E-03    -295.625E-03     213.845E-03    -311.241E-03     606.780E-03    -295.311E-03     171.746E-03
             785     12.7222E-03     145.751E-03    -5.61593E+06     49.2967E+06     79.9962E+06    -637.747E+03    -300.788E-03     596.471E-03    -295.683E-03     179.967E-03    -306.534E-03     602.141E-03    -295.347E-03     145.187E-03
             786     669.868E-06     142.885E-03    -119.065E+06    -188.350E+06    -116.794E+06     374.742E+03    -295.648E-03     591.005E-03    -295.357E-03     23.7618E-03    -295.914E-03     590.518E-03    -295.495E-03     19.1123E-03
             787     1.33931E-03     142.934E-03    -115.919E+06    -181.944E+06    -108.005E+06     573.119E+03    -295.833E-03     591.342E-03    -295.509E-03     43.5707E-03    -296.335E-03     591.099E-03    -295.617E-03     35.1730E-03
             788     2.00896E-03     143.015E-03    -111.217E+06    -172.607E+06    -94.5269E+06     948.547E+03    -296.133E-03     591.708E-03    -295.575E-03     64.3800E-03    -297.026E-03     591.867E-03    -295.636E-03     52.0149E-03
             789     2.67878E-03     143.127E-03    -105.223E+06    -162.432E+06    -78.3829E+06     1.48744E+06    -296.548E-03     592.179E-03    -295.630E-03     85.0524E-03    -297.979E-03     592.886E-03    -295.634E-03     68.6906E-03
             790     3.34859E-03     143.269E-03    -98.5282E+06    -150.380E+06    -61.6930E+06     1.94165E+06    -297.251E-03     592.942E-03    -295.691E-03     105.512E-03    -299.363E-03     594.349E-03    -295.639E-03     85.1599E-03
             791     4.01801E-03     143.443E-03    -91.2480E+06    -114.215E+06    -45.4453E+06     2.42128E+06    -298.004E-03     593.734E-03    -295.730E-03     125.626E-03    -300.957E-03     596.090E-03    -295.659E-03     101.373E-03
             792     4.68723E-03     143.647E-03    -83.4612E+06    -68.9729E+06    -28.2271E+06     3.12601E+06    -298.665E-03     594.419E-03    -295.754E-03     145.152E-03    -302.582E-03     597.877E-03    -295.674E-03     117.140E-03
             793     5.35691E-03     143.881E-03    -75.6326E+06    -39.0616E+06    -10.4861E+06     3.55872E+06    -299.436E-03     595.220E-03    -295.785E-03     163.955E-03    -304.372E-03     599.780E-03    -295.671E-03     132.388E-03
             794     6.02664E-03     144.143E-03    -67.6278E+06    -19.8521E+06     5.61791E+06     2.85513E+06    -300.369E-03     596.183E-03    -295.814E-03     181.496E-03    -306.335E-03     601.823E-03    -295.659E-03     146.638E-03
             795     6.69657E-03     144.430E-03    -59.2882E+06    -10.1522E+06     19.8250E+06     1.58062E+06    -301.340E-03     597.189E-03    -295.848E-03     196.957E-03    -308.285E-03     603.829E-03    -295.649E-03     159.144E-03
             796     7.36608E-03     144.740E-03    -51.9410E+06    -2.06879E+06     32.0527E+06     658.857E+03    -302.171E-03     598.047E-03    -295.876E-03     210.068E-03    -309.981E-03     605.572E-03    -295.637E-03     169.805E-03
             797     8.03564E-03     145.068E-03    -45.2685E+06     5.96545E+06     43.0724E+06    -14.0349E+03    -302.695E-03     598.580E-03    -295.885E-03     220.461E-03    -311.203E-03     606.824E-03    -295.613E-03     178.310E-03
             798     8.70594E-03     145.409E-03    -38.5797E+06     13.8450E+06     53.1476E+06    -498.716E+03    -302.899E-03     598.769E-03    -295.869E-03     227.770E-03    -311.905E-03     607.533E-03    -295.568E-03     184.244E-03
             799     9.37659E-03     145.758E-03    -31.4924E+06     21.7553E+06     62.6270E+06    -520.026E+03    -302.969E-03     598.802E-03    -295.833E-03     231.769E-03    -312.252E-03     607.869E-03    -295.506E-03     187.340E-03
             800     10.0476E-03     146.110E-03    -24.3632E+06     29.5595E+06     70.4307E+06    -291.673E+03    -303.051E-03     598.847E-03    -295.796E-03     231.471E-03    -312.334E-03     607.945E-03    -295.452E-03     186.693E-03
             801     10.7165E-03     146.460E-03    -18.3312E+06     29.4605E+06     72.4564E+06    -694.225E+03    -303.355E-03     599.131E-03    -295.775E-03     228.255E-03    -312.404E-03     608.009E-03    -295.429E-03     183.650E-03
             802     11.3851E-03     146.807E-03    -14.2354E+06     27.7852E+06     65.4936E+06    -1.15397E+06    -303.216E-03     598.961E-03    -295.745E-03     219.824E-03    -311.499E-03     607.102E-03    -295.437E-03     177.037E-03
             803     12.0554E-03     147.136E-03    -8.61729E+06     41.1264E+06     70.2546E+06     971.536E+03    -301.855E-03     597.581E-03    -295.726E-03     215.431E-03    -309.724E-03     605.362E-03    -295.422E-03     173.776E-03
             804     12.7307E-03     147.462E-03    -1.58621E+06     51.3543E+06     82.2804E+06     1.51811E+06    -298.132E-03     593.804E-03    -295.671E-03     180.217E-03    -303.882E-03     599.491E-03    -295.332E-03     145.598E-03
             805     669.571E-06     144.596E-03    -118.650E+06    -190.034E+06    -116.537E+06     278.768E+03    -295.768E-03     591.166E-03    -295.398E-03     23.6749E-03    -296.029E-03     590.670E-03    -295.533E-03     19.0214E-03
             806     1.33935E-03     144.646E-03    -115.941E+06    -184.044E+06    -108.102E+06      922.38E+03    -295.894E-03     591.479E-03    -295.586E-03     43.3970E-03    -296.391E-03     591.225E-03    -295.691E-03     35.0240E-03
             807     2.00891E-03     144.727E-03    -111.150E+06    -174.698E+06    -94.3839E+06     1.49047E+06    -296.238E-03     591.895E-03    -295.657E-03     63.9989E-03    -297.124E-03     592.040E-03    -295.714E-03     51.6465E-03
             808     2.67841E-03     144.838E-03    -105.081E+06    -164.363E+06    -78.1404E+06     1.79817E+06    -296.751E-03     592.485E-03    -295.734E-03     84.6508E-03    -298.175E-03     593.179E-03    -295.734E-03     68.2864E-03
             809     3.34778E-03     144.981E-03     -97.962E+06    -152.365E+06    -61.5007E+06     2.19124E+06    -297.426E-03     593.242E-03    -295.816E-03     105.228E-03    -299.529E-03     594.634E-03    -295.760E-03     84.8735E-03
             810     4.01714E-03     145.156E-03    -90.5152E+06    -116.826E+06    -45.1782E+06     2.79836E+06    -298.024E-03     593.878E-03    -295.854E-03     125.529E-03    -300.968E-03     596.218E-03    -295.779E-03     101.282E-03
             811     4.68690E-03     145.360E-03    -82.8039E+06    -71.9601E+06    -27.9143E+06     3.34360E+06    -298.670E-03     594.531E-03    -295.861E-03     145.342E-03    -302.582E-03     597.974E-03    -295.776E-03     117.341E-03
             812     5.35652E-03     145.593E-03    -74.4269E+06    -40.0358E+06    -9.59142E+06     3.45896E+06    -299.491E-03     595.369E-03    -295.878E-03     164.201E-03    -304.425E-03     599.924E-03    -295.760E-03     132.629E-03
             813     6.02630E-03     145.855E-03    -65.9844E+06    -17.9590E+06     7.75223E+06     3.14583E+06    -300.374E-03     596.273E-03    -295.899E-03     181.623E-03    -306.339E-03     601.917E-03    -295.739E-03     146.768E-03
             814     6.69586E-03     146.143E-03    -58.8692E+06    -8.67048E+06     21.8133E+06     2.58129E+06    -301.269E-03     597.190E-03    -295.922E-03     197.082E-03    -308.214E-03     603.833E-03    -295.715E-03     159.296E-03
             815     7.36570E-03     146.452E-03    -51.1669E+06    -245.365E+03     33.5794E+06     2.13066E+06    -302.031E-03     597.960E-03    -295.928E-03     210.145E-03    -309.843E-03     605.491E-03    -295.686E-03     169.910E-03
             816     8.03596E-03     146.780E-03    -43.1424E+06     8.26419E+06     44.8505E+06     1.82204E+06    -302.563E-03     598.485E-03    -295.922E-03     220.235E-03    -311.068E-03     606.736E-03    -295.647E-03     178.098E-03
             817     8.70611E-03     147.120E-03    -36.0863E+06     15.8785E+06     56.1516E+06     1.55155E+06    -302.985E-03     598.899E-03    -295.914E-03     226.829E-03    -311.974E-03     607.654E-03    -295.604E-03     183.281E-03
             818     9.37629E-03     147.469E-03    -29.6150E+06     23.0337E+06     65.7870E+06     1.15335E+06    -303.349E-03     599.259E-03    -295.910E-03     230.187E-03    -312.603E-03     608.300E-03    -295.572E-03     185.691E-03
             819     10.0453E-03     147.822E-03    -23.6008E+06     29.7230E+06     72.1890E+06     878.046E+03    -303.548E-03     599.455E-03    -295.907E-03     230.717E-03    -312.807E-03     608.526E-03    -295.554E-03     185.928E-03
             820     10.7149E-03     148.174E-03    -18.0942E+06     30.2875E+06     73.5791E+06     912.679E+03    -303.482E-03     599.372E-03    -295.889E-03     229.952E-03    -312.544E-03     608.263E-03    -295.539E-03     185.477E-03
             821     11.3849E-03     148.521E-03    -13.4174E+06     31.0326E+06     68.3485E+06     170.613E+03    -302.502E-03     598.318E-03    -295.816E-03     222.752E-03    -310.831E-03     606.511E-03    -295.500E-03     180.181E-03
             822     12.0559E-03     148.843E-03    -10.6065E+06     39.3079E+06     70.7499E+06    -902.997E+03    -300.778E-03     596.506E-03    -295.728E-03     216.407E-03    -308.722E-03     604.346E-03    -295.416E-03     174.652E-03
             823     12.7247E-03     149.166E-03    -5.35905E+06     48.0974E+06     80.3944E+06    -866.726E+03    -298.143E-03     593.786E-03    -295.643E-03     178.921E-03    -303.936E-03     599.497E-03    -295.303E-03     144.053E-03
             824     669.547E-06     146.308E-03    -118.738E+06    -192.669E+06    -116.552E+06     940.340E+03    -295.996E-03     591.655E-03    -295.660E-03     23.4956E-03    -296.253E-03     591.146E-03    -295.791E-03     18.8580E-03
             825     1.33892E-03     146.358E-03    -115.982E+06    -186.548E+06    -107.800E+06     1.06253E+06    -296.011E-03     591.819E-03    -295.808E-03     43.2323E-03    -296.503E-03     591.550E-03    -295.908E-03     34.8714E-03
             826     2.00841E-03     146.439E-03    -110.765E+06    -177.156E+06    -94.2299E+06     1.57049E+06    -296.378E-03     592.223E-03    -295.845E-03     63.8898E-03    -297.258E-03     592.354E-03    -295.899E-03     51.5430E-03
             827     2.67786E-03     146.550E-03    -104.710E+06    -166.500E+06    -78.1167E+06     2.08476E+06    -296.890E-03     592.798E-03    -295.908E-03     84.7751E-03    -298.310E-03     593.482E-03    -295.905E-03     68.4125E-03
             828     3.34724E-03     146.694E-03    -98.0000E+06    -154.870E+06    -61.1120E+06     2.55945E+06    -297.400E-03     593.367E-03    -295.967E-03     105.502E-03    -299.503E-03     594.749E-03    -295.906E-03     85.1580E-03
             829     4.01691E-03     146.868E-03    -90.5680E+06    -119.050E+06    -44.5072E+06     2.81400E+06    -297.945E-03     593.914E-03    -295.969E-03     125.756E-03    -300.889E-03     596.243E-03    -295.888E-03     101.519E-03
             830     4.68656E-03     147.072E-03    -82.7544E+06    -73.9548E+06    -27.1762E+06     2.97168E+06    -298.680E-03     594.632E-03    -295.953E-03     145.377E-03    -302.587E-03     598.063E-03    -295.861E-03     117.374E-03
             831     5.35623E-03     147.306E-03    -74.8953E+06    -41.1549E+06    -9.07623E+06     3.15417E+06    -299.543E-03     595.504E-03    -295.961E-03     164.090E-03    -304.476E-03     600.052E-03    -295.838E-03     132.498E-03
             832     6.02573E-03     147.568E-03    -67.2403E+06    -18.6221E+06     7.11774E+06     3.43328E+06    -300.386E-03     596.360E-03    -295.974E-03     181.481E-03    -306.356E-03     602.005E-03    -295.814E-03     146.595E-03
             833     6.69569E-03     147.855E-03    -58.7261E+06    -7.75576E+06     21.7634E+06     3.37337E+06    -301.223E-03     597.212E-03    -295.989E-03     196.845E-03    -308.162E-03     603.852E-03    -295.784E-03     159.072E-03
             834     7.36562E-03     148.164E-03    -50.9945E+06     788.113E+03     34.0274E+06     2.82609E+06    -302.029E-03     598.025E-03    -295.996E-03     209.474E-03    -309.827E-03     605.545E-03    -295.753E-03     169.248E-03
             835     8.03528E-03     148.491E-03    -44.4311E+06     9.09665E+06     44.8839E+06     2.41894E+06    -302.732E-03     598.734E-03    -296.003E-03     219.158E-03    -311.226E-03     606.973E-03    -295.727E-03     176.976E-03
             836     8.70496E-03     148.832E-03    -37.5494E+06     16.6135E+06     55.8141E+06     1.89134E+06    -303.239E-03     599.255E-03    -296.015E-03     226.051E-03    -312.217E-03     607.997E-03    -295.706E-03     182.477E-03
             837     9.37395E-03     149.181E-03    -30.9083E+06     24.1842E+06     65.2484E+06     1.06783E+06    -303.396E-03     599.411E-03    -296.015E-03     230.558E-03    -312.654E-03     608.456E-03    -295.679E-03     186.108E-03
             838     10.0442E-03     149.534E-03    -24.4743E+06     29.5398E+06     71.8758E+06     776.481E+03    -303.029E-03     599.010E-03    -295.981E-03     232.106E-03    -312.314E-03     608.105E-03    -295.629E-03     187.404E-03
             839     10.7153E-03     149.885E-03    -17.9846E+06     30.1145E+06     74.6336E+06     1.08547E+06    -302.461E-03     598.366E-03    -295.905E-03     230.908E-03    -311.543E-03     607.275E-03    -295.549E-03     186.551E-03
             840     11.3871E-03     150.231E-03    -10.7259E+06     33.5371E+06     72.3063E+06     2.15210E+06    -301.643E-03     597.424E-03    -295.781E-03     222.301E-03    -309.984E-03     605.636E-03    -295.452E-03     179.759E-03
             841     12.0577E-03     150.555E-03    -5.37613E+06     44.9840E+06     77.9304E+06     1.61668E+06    -301.210E-03     596.909E-03    -295.699E-03     215.576E-03    -309.185E-03     604.798E-03    -295.366E-03     173.588E-03
             842     12.7308E-03     150.877E-03    -4.95766E+06     49.3266E+06     83.5597E+06     335.984E+03    -300.124E-03     595.803E-03    -295.679E-03     178.331E-03    -305.905E-03     601.499E-03    -295.326E-03     143.448E-03
             843     669.131E-06     148.021E-03    -119.224E+06    -195.620E+06    -117.820E+06     244.098E+03    -296.130E-03     592.024E-03    -295.895E-03     23.6810E-03    -296.384E-03     591.503E-03    -296.027E-03     19.0183E-03
             844     1.33856E-03     148.070E-03    -116.083E+06    -188.918E+06    -108.675E+06     1.02896E+06    -296.180E-03     592.164E-03    -295.984E-03     43.4931E-03    -296.669E-03     591.885E-03    -296.085E-03     35.1377E-03
             845     2.00806E-03     148.151E-03    -111.681E+06    -179.749E+06    -94.9263E+06     1.56318E+06    -296.489E-03     592.496E-03    -296.007E-03     64.2656E-03    -297.371E-03     592.619E-03    -296.059E-03     51.9059E-03
             846     2.67741E-03     148.263E-03    -105.822E+06    -169.283E+06    -78.6464E+06     2.14458E+06    -296.897E-03     592.940E-03    -296.043E-03     85.0271E-03    -298.321E-03     593.615E-03    -296.037E-03     68.6424E-03
             847     3.34707E-03     148.406E-03    -98.5353E+06    -157.126E+06    -61.1753E+06     2.58889E+06    -297.417E-03     593.494E-03    -296.077E-03     105.518E-03    -299.520E-03     594.867E-03    -296.012E-03     85.1461E-03
             848     4.01659E-03     148.580E-03    -90.8652E+06    -121.081E+06    -44.3978E+06     2.94477E+06    -298.080E-03     594.155E-03    -296.075E-03     125.626E-03    -301.024E-03     596.475E-03    -295.990E-03     101.351E-03
             849     4.68606E-03     148.785E-03    -83.2597E+06    -75.9787E+06    -27.0707E+06     3.45864E+06    -298.807E-03     594.873E-03    -296.066E-03     145.143E-03    -302.715E-03     598.294E-03    -295.971E-03     117.101E-03
             850     5.35554E-03     149.019E-03    -75.7038E+06    -43.2783E+06    -9.37913E+06     4.19697E+06    -299.586E-03     595.661E-03    -296.075E-03     163.769E-03    -304.517E-03     600.197E-03    -295.949E-03     132.163E-03
             851     6.02534E-03     149.280E-03    -67.7796E+06    -18.9880E+06     7.24545E+06     4.29840E+06    -300.453E-03     596.540E-03    -296.087E-03     180.952E-03    -306.418E-03     602.176E-03    -295.925E-03     146.052E-03
             852     6.69486E-03     149.567E-03    -60.1321E+06    -6.84428E+06     21.7684E+06     3.61385E+06    -301.373E-03     597.483E-03    -296.110E-03     196.070E-03    -308.302E-03     604.111E-03    -295.904E-03     158.283E-03
             853     7.36437E-03     149.877E-03    -53.1627E+06     1.08043E+06     33.6281E+06     3.04718E+06    -302.179E-03     598.309E-03    -296.129E-03     208.701E-03    -309.966E-03     605.813E-03    -295.886E-03     168.471E-03
             854     8.03392E-03     150.204E-03    -46.2170E+06     9.03863E+06     44.6355E+06     2.73444E+06    -302.770E-03     598.910E-03    -296.140E-03     218.791E-03    -311.252E-03     607.131E-03    -295.863E-03     176.648E-03
             855     8.70342E-03     150.545E-03    -38.5047E+06     18.2900E+06     55.8587E+06     2.39258E+06    -302.958E-03     599.090E-03    -296.132E-03     226.124E-03    -311.928E-03     607.826E-03    -295.824E-03     182.648E-03
             856     9.37447E-03     150.893E-03    -31.1319E+06     27.2347E+06     65.7820E+06     1.44388E+06    -302.825E-03     598.916E-03    -296.091E-03     230.521E-03    -312.074E-03     607.961E-03    -295.757E-03     186.179E-03
             857     10.0452E-03     151.245E-03    -24.9356E+06     30.7054E+06     72.2776E+06    -53.4484E+03    -302.588E-03     598.614E-03    -296.027E-03     231.140E-03    -311.870E-03     607.708E-03    -295.674E-03     186.392E-03
             858     10.7158E-03     151.594E-03    -18.5886E+06     29.0649E+06     74.7362E+06    -623.009E+03    -302.262E-03     598.210E-03    -295.948E-03     228.811E-03    -311.326E-03     607.094E-03    -295.589E-03     184.315E-03
             859     11.3857E-03     151.941E-03    -12.5265E+06     29.7732E+06     71.0945E+06    -10.8479E+03    -301.500E-03     597.336E-03    -295.836E-03     219.516E-03    -309.801E-03     605.492E-03    -295.506E-03     176.846E-03
             860     12.0572E-03     152.262E-03    -8.19969E+06     41.9943E+06     75.3282E+06     1.56120E+06    -301.141E-03     596.902E-03    -295.760E-03     213.191E-03    -309.026E-03     604.688E-03    -295.433E-03     171.369E-03
             861     12.7240E-03     152.591E-03    -4.38013E+06     52.6618E+06     84.2224E+06     3.10986E+06    -298.916E-03     594.627E-03    -295.712E-03     178.670E-03    -304.626E-03     600.265E-03    -295.361E-03     144.230E-03
             862     669.492E-06     149.734E-03    -119.230E+06    -197.530E+06    -117.093E+06     507.210E+03    -296.232E-03     592.145E-03    -295.913E-03     23.7481E-03    -296.485E-03     591.614E-03    -296.039E-03     19.0609E-03
             863     1.33876E-03     149.783E-03    -116.949E+06    -191.997E+06    -109.330E+06     1.09334E+06    -296.341E-03     592.405E-03    -296.064E-03     43.5078E-03    -296.830E-03     592.114E-03    -296.162E-03     35.1249E-03
             864     2.00793E-03     149.864E-03    -112.646E+06    -182.475E+06    -95.5521E+06     1.65215E+06    -296.627E-03     592.741E-03    -296.114E-03     64.2477E-03    -297.511E-03     592.854E-03    -296.164E-03     51.8527E-03
             865     2.67739E-03     149.976E-03    -106.063E+06    -171.669E+06    -78.5364E+06     1.96790E+06    -297.038E-03     593.201E-03    -296.163E-03     84.8682E-03    -298.460E-03     593.865E-03    -296.153E-03     68.4488E-03
             866     3.34664E-03     150.119E-03    -98.6411E+06    -159.711E+06    -61.6922E+06     2.40228E+06    -297.645E-03     593.855E-03    -296.210E-03     105.279E-03    -299.744E-03     595.216E-03    -296.144E-03     84.8650E-03
             867     4.01590E-03     150.293E-03    -91.3028E+06    -124.111E+06    -45.3293E+06     3.21506E+06    -298.283E-03     594.507E-03    -296.225E-03     125.400E-03    -301.224E-03     596.815E-03    -296.139E-03     101.082E-03
             868     4.68528E-03     150.498E-03    -83.5118E+06    -79.0152E+06    -27.7033E+06     4.12420E+06    -298.947E-03     595.171E-03    -296.224E-03     144.839E-03    -302.848E-03     598.576E-03    -296.127E-03     116.774E-03
             869     5.35481E-03     150.732E-03    -75.4286E+06    -46.6281E+06    -9.24144E+06     5.04990E+06    -299.762E-03     596.003E-03    -296.241E-03     163.351E-03    -304.680E-03     600.514E-03    -296.110E-03     131.735E-03
             870     6.02412E-03     150.993E-03    -67.4892E+06    -20.0280E+06     7.97735E+06      5.7725E+06    -300.688E-03     596.951E-03    -296.263E-03     180.445E-03    -306.640E-03     602.569E-03    -296.096E-03     145.537E-03
             871     6.69353E-03     151.281E-03    -60.3205E+06    -5.56262E+06     22.7956E+06     5.86056E+06    -301.531E-03     597.825E-03    -296.294E-03     195.540E-03    -308.454E-03     604.447E-03    -296.084E-03     157.761E-03
             872     7.36298E-03     151.590E-03    -52.9697E+06     3.07101E+06     35.2337E+06     5.02847E+06    -302.141E-03     598.450E-03    -296.309E-03     208.367E-03    -309.917E-03     605.946E-03    -296.060E-03     168.191E-03
             873     8.03274E-03     151.917E-03    -44.7040E+06     11.2862E+06     46.5200E+06     3.51917E+06    -302.539E-03     598.836E-03    -296.296E-03     218.428E-03    -311.001E-03     607.044E-03    -296.015E-03     176.349E-03
             874     8.70325E-03     152.256E-03    -37.2467E+06     19.8439E+06     57.2212E+06     2.14408E+06    -302.747E-03     599.013E-03    -296.266E-03     225.173E-03    -311.696E-03     607.734E-03    -295.954E-03     181.676E-03
             875     9.37288E-03     152.604E-03    -30.9898E+06     28.7849E+06     66.9127E+06     1.66487E+06    -302.791E-03     599.015E-03    -296.224E-03     228.800E-03    -312.023E-03     608.045E-03    -295.886E-03     184.349E-03
             876     10.0430E-03     152.955E-03    -24.6870E+06     33.8933E+06     74.3021E+06     1.56827E+06    -302.550E-03     598.722E-03    -296.172E-03     229.141E-03    -311.784E-03     607.773E-03    -295.814E-03     184.442E-03
             877     10.7128E-03     153.305E-03    -19.0494E+06     30.9522E+06     76.2154E+06     941.562E+03    -302.080E-03     598.172E-03    -296.092E-03     227.388E-03    -311.078E-03     606.991E-03    -295.729E-03     183.116E-03
             878     11.3839E-03     153.649E-03    -16.0699E+06     26.0698E+06     69.2946E+06     1.55198E+06    -301.171E-03     597.126E-03    -295.955E-03     219.840E-03    -309.433E-03     605.222E-03    -295.623E-03     177.501E-03
             879     12.0530E-03     153.974E-03    -13.0301E+06     38.7372E+06     72.6521E+06     3.12672E+06    -299.774E-03     595.576E-03    -295.802E-03     216.115E-03    -307.628E-03     603.311E-03    -295.476E-03     175.003E-03
             880     12.7279E-03     154.299E-03    -5.38454E+06     55.1424E+06     83.7388E+06     394.886E+03    -296.633E-03     592.258E-03    -295.625E-03     181.767E-03    -302.398E-03     597.957E-03    -295.278E-03     147.423E-03
             881     669.122E-06     151.447E-03    -121.054E+06    -200.843E+06    -118.796E+06     929.794E+03    -296.503E-03     592.478E-03    -295.975E-03     23.6257E-03    -296.758E-03     591.935E-03    -296.102E-03     18.9422E-03
             882     1.33833E-03     151.497E-03    -118.001E+06    -194.254E+06    -109.590E+06     1.19814E+06    -296.510E-03     592.749E-03    -296.239E-03     43.2419E-03    -297.000E-03     592.448E-03    -296.334E-03     34.8390E-03
             883     2.00761E-03     151.577E-03    -112.965E+06    -184.796E+06    -96.0473E+06     1.42580E+06    -296.801E-03     593.092E-03    -296.291E-03     63.9042E-03    -297.680E-03     593.193E-03    -296.339E-03     51.4932E-03
             884     2.67672E-03     151.689E-03    -106.532E+06    -174.264E+06    -79.6456E+06     2.02790E+06    -297.261E-03     593.607E-03    -296.346E-03     84.5855E-03    -298.679E-03     594.259E-03    -296.337E-03     68.1448E-03
             885     3.34592E-03     151.833E-03    -100.054E+06    -162.743E+06    -62.8577E+06     2.79181E+06    -297.852E-03     594.257E-03    -296.405E-03     105.071E-03    -299.951E-03     595.605E-03    -296.338E-03     84.6399E-03
             886     4.01513E-03     152.007E-03    -92.7368E+06    -127.162E+06    -46.1428E+06     3.34492E+06    -298.472E-03     594.897E-03    -296.425E-03     125.194E-03    -301.412E-03     597.190E-03    -296.337E-03     100.855E-03
             887     4.68440E-03     152.212E-03    -85.1416E+06    -82.7176E+06    -28.8510E+06     3.91770E+06    -299.194E-03     595.625E-03    -296.430E-03     144.549E-03    -303.093E-03     599.011E-03    -296.331E-03     116.445E-03
             888     5.35358E-03     152.445E-03    -77.3597E+06    -51.2601E+06    -10.9475E+06     4.99361E+06    -300.065E-03     596.525E-03    -296.460E-03     162.935E-03    -304.976E-03     601.011E-03    -296.328E-03     131.274E-03
             889     6.02285E-03     152.708E-03    -69.6617E+06    -23.4217E+06     5.92586E+06     5.93248E+06    -300.896E-03     597.385E-03    -296.489E-03     179.980E-03    -306.842E-03     602.983E-03    -296.325E-03     145.041E-03
             890     6.69206E-03     152.994E-03    -60.6283E+06    -5.68178E+06     21.0492E+06     5.93316E+06    -301.545E-03     598.055E-03    -296.510E-03     194.908E-03    -308.457E-03     604.671E-03    -296.309E-03     157.088E-03
             891     7.36169E-03     153.303E-03    -51.2226E+06     4.32890E+06     34.8767E+06     5.66499E+06    -302.077E-03     598.592E-03    -296.515E-03     207.464E-03    -309.829E-03     606.076E-03    -296.272E-03     167.259E-03
             892     8.03153E-03     153.629E-03    -43.8120E+06     14.5448E+06     47.8176E+06     5.11390E+06    -302.516E-03     599.018E-03    -296.502E-03     217.133E-03    -310.955E-03     607.215E-03    -296.221E-03     175.033E-03
             893     8.70085E-03     153.968E-03    -38.4448E+06     23.0949E+06     58.5630E+06     3.83321E+06    -302.748E-03     599.223E-03    -296.474E-03     223.834E-03    -311.678E-03     607.928E-03    -296.159E-03     180.348E-03
             894     9.37088E-03     154.316E-03    -32.5707E+06     28.2098E+06     67.7550E+06     3.35082E+06    -302.682E-03     599.110E-03    -296.428E-03     228.186E-03    -311.885E-03     608.101E-03    -296.083E-03     183.876E-03
             895     10.0406E-03     154.667E-03    -25.8252E+06     34.8091E+06     75.4868E+06     3.94234E+06    -302.137E-03     598.479E-03    -296.342E-03     229.500E-03    -311.352E-03     607.507E-03    -295.978E-03     185.052E-03
             896     10.7121E-03     155.014E-03    -20.1102E+06     33.9945E+06     77.8622E+06     3.92806E+06    -301.312E-03     597.517E-03    -296.205E-03     228.406E-03    -310.317E-03     606.345E-03    -295.836E-03     184.404E-03
             897     11.3831E-03     155.359E-03    -15.6564E+06     25.8366E+06     70.9572E+06     2.74977E+06    -299.829E-03     595.820E-03    -295.991E-03     220.818E-03    -308.115E-03     603.936E-03    -295.651E-03     178.642E-03
             898     12.0582E-03     155.679E-03    -9.57491E+06     41.8816E+06     75.6384E+06     1.31246E+06    -298.047E-03     593.800E-03    -295.752E-03     214.766E-03    -305.909E-03     601.556E-03    -295.421E-03     173.576E-03
             899     12.7318E-03     156.001E-03    -3.47457E+06     57.9283E+06     85.8604E+06    -544.025E+03    -296.577E-03     592.124E-03    -295.548E-03     179.063E-03    -302.322E-03     597.814E-03    -295.197E-03     144.590E-03
             900     669.108E-06     153.161E-03    -122.835E+06    -203.942E+06    -120.814E+06     487.529E+03    -296.706E-03     592.948E-03    -296.242E-03     23.8305E-03    -296.963E-03     592.395E-03    -296.372E-03     19.1405E-03
             901     1.33801E-03     153.211E-03    -119.159E+06    -196.901E+06    -111.243E+06     1.20047E+06    -296.750E-03     593.222E-03    -296.472E-03     43.3084E-03    -297.240E-03     592.912E-03    -296.570E-03     34.8995E-03
             902     2.00701E-03     153.291E-03    -114.332E+06    -187.411E+06    -97.2216E+06     1.80354E+06    -297.059E-03     593.590E-03    -296.530E-03     63.8978E-03    -297.939E-03     593.680E-03    -296.579E-03     51.4848E-03
             903     2.67611E-03     153.404E-03    -108.936E+06    -177.305E+06    -81.2958E+06     2.41093E+06    -297.530E-03     594.122E-03    -296.592E-03     84.5069E-03    -298.951E-03     594.763E-03    -296.584E-03     68.0549E-03
             904     3.34516E-03     153.547E-03    -101.946E+06    -165.684E+06    -64.1450E+06     2.91888E+06    -298.114E-03     594.774E-03    -296.659E-03     104.817E-03    -300.215E-03     596.110E-03    -296.592E-03     84.3493E-03
             905     4.01419E-03     153.722E-03    -94.4259E+06    -130.243E+06    -47.4163E+06     3.57598E+06    -298.769E-03     595.458E-03    -296.689E-03     124.745E-03    -301.706E-03     597.735E-03    -296.600E-03     100.368E-03
             906     4.68319E-03     153.926E-03    -86.9903E+06    -86.0271E+06    -30.2679E+06     4.36329E+06    -299.560E-03     596.271E-03    -296.711E-03     143.994E-03    -303.453E-03     599.637E-03    -296.612E-03     115.845E-03
             907     5.35210E-03     154.160E-03    -79.1507E+06    -55.5274E+06    -12.7602E+06     5.06811E+06    -300.382E-03     597.139E-03    -296.757E-03     162.230E-03    -305.286E-03     601.602E-03    -296.626E-03     130.489E-03
             908     6.02099E-03     154.422E-03    -70.3718E+06    -25.4205E+06     4.67732E+06     5.22782E+06    -301.012E-03     597.800E-03    -296.788E-03     179.092E-03    -306.944E-03     603.379E-03    -296.626E-03     144.076E-03
             909     6.69022E-03     154.709E-03    -62.1892E+06    -5.97875E+06     19.6694E+06     4.53081E+06    -301.589E-03     598.388E-03    -296.799E-03     193.902E-03    -308.490E-03     604.990E-03    -296.602E-03     156.007E-03
             910     7.35945E-03     155.016E-03    -54.8473E+06     1.88498E+06     31.3704E+06     4.47969E+06    -302.192E-03     598.987E-03    -296.795E-03     206.340E-03    -309.931E-03     606.447E-03    -296.561E-03     166.070E-03
             911     8.02865E-03     155.342E-03    -47.9347E+06     13.0803E+06     43.6688E+06     5.57765E+06    -302.509E-03     599.282E-03    -296.773E-03     216.115E-03    -310.929E-03     607.451E-03    -296.504E-03     174.040E-03
             912     8.69862E-03     155.680E-03    -40.5382E+06     25.2260E+06     57.5193E+06     6.24993E+06    -302.372E-03     599.098E-03    -296.725E-03     223.117E-03    -311.276E-03     607.780E-03    -296.415E-03     179.782E-03
             913     9.36881E-03     156.027E-03    -32.9895E+06     30.0086E+06     68.7756E+06     5.42027E+06    -301.875E-03     598.507E-03    -296.632E-03     227.524E-03    -311.036E-03     607.458E-03    -296.284E-03     183.454E-03
             914     10.0407E-03     156.376E-03    -26.6062E+06     34.3561E+06     75.8121E+06     3.98312E+06    -301.097E-03     597.575E-03    -296.478E-03     228.669E-03    -310.281E-03     606.567E-03    -296.110E-03     184.381E-03
             915     10.7117E-03     156.724E-03    -20.6290E+06     34.6137E+06     77.7957E+06     2.51568E+06    -300.132E-03     596.402E-03    -296.270E-03     227.279E-03    -309.136E-03     605.229E-03    -295.901E-03     183.285E-03
             916     11.3847E-03     157.064E-03    -13.0058E+06     28.4431E+06     73.0628E+06     1.18667E+06    -299.069E-03     595.084E-03    -296.016E-03     218.823E-03    -307.341E-03     603.200E-03    -295.673E-03     176.538E-03
             917     12.0552E-03     157.383E-03    -6.71765E+06     44.2904E+06     78.6417E+06     173.475E+03    -298.561E-03     594.358E-03    -295.798E-03     212.381E-03    -306.468E-03     602.171E-03    -295.459E-03     170.626E-03
             918     12.7261E-03     157.704E-03    -4.23358E+06     59.6241E+06     87.5156E+06     1.28670E+06    -296.153E-03     591.766E-03    -295.613E-03     178.309E-03    -301.926E-03     597.482E-03    -295.256E-03     143.791E-03
             919     668.876E-06     154.876E-03    -122.494E+06    -207.454E+06    -120.145E+06     1.17706E+06    -296.869E-03     593.547E-03    -296.678E-03     23.6887E-03    -297.119E-03     592.975E-03    -296.800E-03     18.9968E-03
             920     1.33782E-03     154.926E-03    -119.493E+06    -200.328E+06    -111.024E+06     1.68067E+06    -297.022E-03     593.791E-03    -296.769E-03     43.0988E-03    -297.508E-03     593.464E-03    -296.860E-03     34.6677E-03
             921     2.00662E-03     155.006E-03    -114.784E+06    -191.046E+06    -97.5284E+06     2.35977E+06    -297.418E-03     594.251E-03    -296.833E-03     63.6468E-03    -298.293E-03     594.324E-03    -296.877E-03     51.2127E-03
             922     2.67536E-03     155.119E-03    -108.552E+06    -180.351E+06    -80.9308E+06     3.07461E+06    -297.928E-03     594.848E-03    -296.920E-03     84.1476E-03    -299.341E-03     595.470E-03    -296.905E-03     67.6620E-03
             923     3.34402E-03     155.263E-03    -101.642E+06    -168.728E+06    -63.9215E+06     3.69678E+06    -298.553E-03     595.564E-03    -297.010E-03     104.337E-03    -300.646E-03     596.882E-03    -296.938E-03     83.8077E-03
             924     4.01266E-03     155.437E-03    -94.4742E+06    -133.551E+06    -47.7305E+06     4.35844E+06    -299.256E-03     596.320E-03    -297.065E-03     124.169E-03    -302.183E-03     598.576E-03    -296.973E-03     99.7238E-03
             925     4.68127E-03     155.642E-03    -86.7246E+06    -89.4884E+06    -30.5878E+06     5.07898E+06    -299.969E-03     597.075E-03    -297.106E-03     143.305E-03    -303.847E-03     600.417E-03    -297.004E-03     115.086E-03
             926     5.34984E-03     155.876E-03    -78.4168E+06    -58.1476E+06    -12.6496E+06     5.45264E+06    -300.605E-03     597.759E-03    -297.154E-03     161.460E-03    -305.495E-03     602.201E-03    -297.019E-03     129.642E-03
             927     6.01858E-03     156.137E-03    -70.2775E+06    -26.3086E+06     5.13911E+06     5.55890E+06    -301.151E-03     598.324E-03    -297.173E-03     178.233E-03    -307.071E-03     603.886E-03    -297.007E-03     143.156E-03
             928     6.68764E-03     156.423E-03    -62.9128E+06    -6.34969E+06     21.2968E+06     5.87674E+06    -301.724E-03     598.901E-03    -297.177E-03     193.030E-03    -308.606E-03     605.476E-03    -296.970E-03     155.138E-03
             929     7.35674E-03     156.731E-03    -55.8399E+06     496.534E+03     33.8807E+06     5.84495E+06    -302.187E-03     599.349E-03    -297.162E-03     205.512E-03    -309.902E-03     606.769E-03    -296.912E-03     165.289E-03
             930     8.02630E-03     157.055E-03    -48.2526E+06     9.56809E+06     45.6053E+06     5.78362E+06    -302.243E-03     599.349E-03    -297.107E-03     215.316E-03    -310.630E-03     607.467E-03    -296.823E-03     173.301E-03
             931     8.69623E-03     157.393E-03    -40.1927E+06     23.0514E+06     58.9810E+06     6.29280E+06    -301.869E-03     598.879E-03    -297.010E-03     222.032E-03    -310.734E-03     607.512E-03    -296.690E-03     178.773E-03
             932     9.36721E-03     157.737E-03    -32.6084E+06     33.3737E+06     70.2364E+06     5.82162E+06    -301.203E-03     598.065E-03    -296.862E-03     225.977E-03    -310.335E-03     606.996E-03    -296.512E-03     181.951E-03
             933     10.0377E-03     158.085E-03    -25.5942E+06     37.3532E+06     76.8883E+06     3.88738E+06    -300.183E-03     596.839E-03    -296.656E-03     226.846E-03    -309.327E-03     605.802E-03    -296.289E-03     182.638E-03
             934     10.7104E-03     158.429E-03    -18.5057E+06     38.1765E+06     80.1983E+06     2.03754E+06    -299.259E-03     595.662E-03    -296.403E-03     225.333E-03    -308.199E-03     604.439E-03    -296.031E-03     181.500E-03
             935     11.3822E-03     158.770E-03    -14.3635E+06     28.6323E+06     72.7640E+06     1.29974E+06    -298.555E-03     594.663E-03    -296.108E-03     217.895E-03    -306.784E-03     602.732E-03    -295.765E-03     175.787E-03
             936     12.0553E-03     159.091E-03    -8.97910E+06     40.9277E+06     77.4459E+06     2.50623E+06    -297.759E-03     593.603E-03    -295.844E-03     214.203E-03    -305.662E-03     601.395E-03    -295.503E-03     172.845E-03
             937     12.7279E-03     159.413E-03    -3.37275E+06     63.8464E+06     88.2711E+06     2.81800E+06    -294.418E-03     589.984E-03    -295.565E-03     180.802E-03    -300.229E-03     595.753E-03    -295.212E-03     146.529E-03
             938     668.461E-06     156.592E-03    -122.697E+06    -212.003E+06    -121.343E+06     669.452E+03    -297.343E-03     594.506E-03    -297.163E-03     23.5284E-03    -297.586E-03     593.913E-03    -297.284E-03     18.8266E-03
             939     1.33706E-03     156.642E-03    -119.823E+06    -204.220E+06    -112.528E+06     1.58848E+06    -297.480E-03     594.721E-03    -297.241E-03     42.8084E-03    -297.958E-03     594.376E-03    -297.334E-03     34.3553E-03
             940     2.00563E-03     156.723E-03    -115.227E+06    -194.824E+06    -98.6303E+06     2.55601E+06    -297.881E-03     595.188E-03    -297.306E-03     63.1797E-03    -298.750E-03     595.242E-03    -297.350E-03     50.6978E-03
             941     2.67404E-03     156.836E-03    -109.118E+06    -184.384E+06    -81.9451E+06     3.27778E+06    -298.387E-03     595.785E-03    -297.397E-03     83.6015E-03    -299.793E-03     596.387E-03    -297.382E-03     67.0536E-03
             942     3.34247E-03     156.979E-03    -101.962E+06    -172.484E+06    -64.6223E+06     4.07675E+06    -299.067E-03     596.565E-03    -297.498E-03     103.793E-03    -301.150E-03     597.860E-03    -297.423E-03     83.2095E-03
             943     4.01069E-03     157.154E-03    -94.3359E+06    -137.067E+06    -47.6074E+06     4.84254E+06    -299.759E-03     597.325E-03    -297.566E-03     123.597E-03    -302.675E-03     599.558E-03    -297.469E-03     99.0770E-03
             944     4.67886E-03     157.359E-03    -86.5067E+06    -92.8865E+06    -29.9371E+06     5.35917E+06    -300.290E-03     597.898E-03    -297.608E-03     142.692E-03    -304.160E-03     601.217E-03    -297.497E-03     114.384E-03
             945     5.34731E-03     157.593E-03    -78.6568E+06    -61.0442E+06    -11.7532E+06     5.87848E+06    -300.802E-03     598.439E-03    -297.637E-03     160.714E-03    -305.677E-03     602.852E-03    -297.493E-03     128.849E-03
             946     6.01610E-03     157.853E-03    -70.6869E+06    -29.9760E+06     6.46903E+06     7.01031E+06    -301.357E-03     598.996E-03    -297.640E-03     177.275E-03    -307.253E-03     604.517E-03    -297.461E-03     142.177E-03
             947     6.68476E-03     158.139E-03    -62.2114E+06    -7.85305E+06     23.3387E+06     7.93936E+06    -301.822E-03     599.447E-03    -297.625E-03     191.909E-03    -308.673E-03     605.982E-03    -297.407E-03     154.017E-03
             948     7.35393E-03     158.446E-03    -53.6613E+06     2.09685E+06     37.2783E+06     7.35095E+06    -301.996E-03     599.577E-03    -297.581E-03     204.126E-03    -309.673E-03     606.963E-03    -297.320E-03     163.923E-03
             949     8.02347E-03     158.769E-03    -46.1563E+06     7.66663E+06     48.7924E+06     6.69391E+06    -301.857E-03     599.347E-03    -297.490E-03     213.612E-03    -310.191E-03     607.403E-03    -297.191E-03     171.644E-03
             950     8.69366E-03     159.104E-03    -39.1733E+06     20.7770E+06     60.3756E+06     6.61639E+06    -301.397E-03     598.741E-03    -297.344E-03     220.253E-03    -310.204E-03     607.308E-03    -297.016E-03     177.065E-03
             951     9.36395E-03     159.447E-03    -31.7792E+06     34.9212E+06     71.0427E+06     6.33563E+06    -300.561E-03     597.704E-03    -297.143E-03     224.263E-03    -309.640E-03     606.588E-03    -296.793E-03     180.364E-03
             952     10.0362E-03     159.793E-03    -25.1204E+06     41.8609E+06     78.7468E+06     5.91608E+06    -299.469E-03     596.360E-03    -296.891E-03     225.218E-03    -308.565E-03     605.287E-03    -296.521E-03     181.200E-03
             953     10.7081E-03     160.135E-03    -19.5280E+06     43.7015E+06     82.6665E+06     4.97130E+06    -298.512E-03     595.106E-03    -296.594E-03     224.239E-03    -307.434E-03     603.874E-03    -296.215E-03     180.562E-03
             954     11.3815E-03     160.476E-03    -14.3669E+06     29.0796E+06     75.6594E+06     4.46040E+06    -297.110E-03     593.350E-03    -296.240E-03     217.095E-03    -305.323E-03     601.396E-03    -295.883E-03     175.194E-03
             955     12.0551E-03     160.793E-03    -10.9133E+06     38.9433E+06     76.9526E+06     3.51759E+06    -295.239E-03     591.097E-03    -295.858E-03     212.354E-03    -303.064E-03     598.799E-03    -295.514E-03     171.493E-03
             956     12.7321E-03     161.113E-03    -5.90285E+06     67.1788E+06     88.4657E+06     307.105E+03    -292.836E-03     588.319E-03    -295.483E-03     177.148E-03    -298.585E-03     594.029E-03    -295.130E-03     143.033E-03
             957     668.199E-06     158.310E-03    -124.343E+06    -215.533E+06    -122.395E+06     867.251E+03    -298.100E-03     595.801E-03    -297.701E-03     23.2382E-03    -298.343E-03     595.192E-03    -297.820E-03     18.5542E-03
             958     1.33627E-03     158.360E-03    -121.987E+06    -207.952E+06    -114.325E+06     1.28874E+06    -298.157E-03     596.055E-03    -297.898E-03     42.5879E-03    -298.638E-03     595.695E-03    -297.991E-03     34.1055E-03
             959     2.00422E-03     158.441E-03    -117.011E+06    -198.544E+06    -100.340E+06     1.80534E+06    -298.482E-03     596.446E-03    -297.964E-03     62.8715E-03    -299.352E-03     596.486E-03    -298.008E-03     50.3085E-03
             960     2.67234E-03     158.554E-03    -110.406E+06    -188.282E+06    -83.4852E+06     2.49401E+06    -298.954E-03     596.997E-03    -298.043E-03     83.1561E-03    -300.357E-03     597.581E-03    -298.027E-03     66.5196E-03
             961     3.34028E-03     158.698E-03    -103.004E+06    -176.630E+06    -65.8567E+06     3.36087E+06    -299.590E-03     597.721E-03    -298.131E-03     103.311E-03    -301.666E-03     598.995E-03    -298.055E-03     82.6445E-03
             962     4.00812E-03     158.873E-03    -95.2768E+06    -141.595E+06    -48.5872E+06     4.35810E+06    -300.158E-03     598.340E-03    -298.182E-03     122.993E-03    -303.067E-03     600.549E-03    -298.081E-03     98.3761E-03
             963     4.67623E-03     159.078E-03    -87.0615E+06    -96.9289E+06    -30.0836E+06     5.30890E+06    -300.629E-03     598.831E-03    -298.202E-03     141.784E-03    -304.486E-03     602.122E-03    -298.086E-03     113.381E-03
             964     5.34451E-03     159.311E-03    -78.6008E+06    -65.2861E+06    -11.2210E+06     6.38540E+06    -301.135E-03     599.351E-03    -298.217E-03     159.502E-03    -305.984E-03     603.722E-03    -298.064E-03     127.560E-03
             965     6.01260E-03     159.571E-03    -70.0501E+06    -35.7438E+06     6.56319E+06     7.66914E+06    -301.604E-03     599.808E-03    -298.204E-03     175.871E-03    -307.462E-03     605.272E-03    -298.018E-03     140.708E-03
             966     6.68129E-03     159.856E-03    -61.6588E+06    -10.6363E+06     23.4085E+06     8.49739E+06    -301.881E-03     600.046E-03    -298.165E-03     190.233E-03    -308.695E-03     606.535E-03    -297.943E-03     152.270E-03
             967     7.35012E-03     160.161E-03    -54.2567E+06     2.16017E+06     36.3294E+06     8.74971E+06    -301.832E-03     599.916E-03    -298.084E-03     202.090E-03    -309.468E-03     607.261E-03    -297.827E-03     161.864E-03
             968     8.01968E-03     160.482E-03    -47.5011E+06     7.08300E+06     46.1826E+06     8.79815E+06    -301.460E-03     599.407E-03    -297.948E-03     211.347E-03    -309.731E-03     607.401E-03    -297.658E-03     169.473E-03
             969     8.68983E-03     160.817E-03    -40.9383E+06     21.6310E+06     57.8841E+06     8.28396E+06    -300.699E-03     598.446E-03    -297.747E-03     217.918E-03    -309.430E-03     606.941E-03    -297.430E-03     174.929E-03
             970     9.36141E-03     161.156E-03    -34.1445E+06     36.4402E+06     69.7953E+06     7.31948E+06    -299.639E-03     597.127E-03    -297.488E-03     221.880E-03    -308.645E-03     605.939E-03    -297.143E-03     178.197E-03
             971     10.0329E-03     161.500E-03    -27.1785E+06     42.2956E+06     78.9446E+06     6.88181E+06    -298.499E-03     595.678E-03    -297.179E-03     223.162E-03    -307.546E-03     604.550E-03    -296.807E-03     179.280E-03
             972     10.7059E-03     161.840E-03    -20.6767E+06     46.2159E+06     84.1507E+06     6.62710E+06    -297.194E-03     594.007E-03    -296.814E-03     222.760E-03    -306.107E-03     602.767E-03    -296.430E-03     179.162E-03
             973     11.3793E-03     162.178E-03    -14.7090E+06     31.3973E+06     77.6151E+06     5.29340E+06    -295.394E-03     591.769E-03    -296.375E-03     215.785E-03    -303.605E-03     599.814E-03    -296.011E-03     173.977E-03
             974     12.0545E-03     162.492E-03    -9.99453E+06     45.1762E+06     81.8092E+06     3.15782E+06    -293.824E-03     589.742E-03    -295.918E-03     211.354E-03    -301.667E-03     597.473E-03    -295.560E-03     170.486E-03
             975     12.7281E-03     162.809E-03    -5.50778E+06     71.8176E+06     93.6707E+06     40.1755E+03    -291.448E-03     586.922E-03    -295.474E-03     178.488E-03    -297.211E-03     592.649E-03    -295.102E-03     144.639E-03
             976     667.493E-06     160.030E-03    -126.264E+06    -217.864E+06    -124.654E+06     195.999E+03    -298.937E-03     597.386E-03    -298.449E-03     23.1290E-03    -299.183E-03     596.772E-03    -298.574E-03     18.4056E-03
             977     1.33505E-03     160.080E-03    -123.034E+06    -210.444E+06    -114.954E+06     689.686E+03    -298.912E-03     597.603E-03    -298.691E-03     42.4216E-03    -299.394E-03     597.234E-03    -298.782E-03     33.8773E-03
             978     2.00272E-03     160.162E-03    -118.099E+06    -201.435E+06    -100.837E+06     1.17332E+06    -299.228E-03     597.976E-03    -298.748E-03     62.6290E-03    -300.099E-03     598.005E-03    -298.789E-03     49.9756E-03
             979     2.67018E-03     160.274E-03    -111.652E+06    -191.460E+06    -84.2548E+06     1.78695E+06    -299.705E-03     598.529E-03    -298.824E-03     82.8041E-03    -301.110E-03     599.102E-03    -298.806E-03     66.0484E-03
             980     3.33770E-03     160.419E-03    -104.497E+06    -180.583E+06    -66.9682E+06     2.55599E+06    -300.211E-03     599.114E-03    -298.903E-03     102.715E-03    -302.285E-03     600.371E-03    -298.825E-03     81.9121E-03
             981     4.00536E-03     160.594E-03    -96.5992E+06    -145.957E+06    -50.0449E+06     3.26892E+06    -300.659E-03     599.589E-03    -298.930E-03     122.032E-03    -303.557E-03     601.771E-03    -298.829E-03     97.2861E-03
             982     4.67294E-03     160.798E-03    -88.3768E+06    -102.252E+06    -32.5922E+06     4.25075E+06    -301.104E-03     600.029E-03    -298.925E-03     140.526E-03    -304.938E-03     603.282E-03    -298.812E-03     112.002E-03
             983     5.34044E-03     161.031E-03    -80.0072E+06    -71.3625E+06    -14.4564E+06     5.71562E+06    -301.555E-03     600.475E-03    -298.921E-03     158.096E-03    -306.377E-03     604.802E-03    -298.774E-03     126.028E-03
             984     6.00863E-03     161.290E-03    -72.0993E+06    -42.1904E+06     3.37389E+06     7.52936E+06    -301.915E-03     600.807E-03    -298.893E-03     174.254E-03    -307.740E-03     606.217E-03    -298.710E-03     138.991E-03
             985     6.67669E-03     161.574E-03    -64.9440E+06    -15.0609E+06     19.7689E+06     9.01859E+06    -301.964E-03     600.789E-03    -298.825E-03     188.214E-03    -308.739E-03     607.222E-03    -298.610E-03     150.207E-03
             986     7.34555E-03     161.877E-03    -57.5508E+06     331.398E+03     31.7483E+06     9.46615E+06    -301.652E-03     600.350E-03    -298.697E-03     199.773E-03    -309.234E-03     607.637E-03    -298.456E-03     159.573E-03
             987     8.01496E-03     162.197E-03    -49.1194E+06     4.68614E+06     41.4491E+06     9.93019E+06    -301.008E-03     599.516E-03    -298.508E-03     208.858E-03    -309.205E-03     607.435E-03    -298.236E-03     167.069E-03
             988     8.68548E-03     162.527E-03    -40.9830E+06     22.3073E+06     55.6780E+06     10.5016E+06    -299.901E-03     598.149E-03    -298.248E-03     215.294E-03    -308.548E-03     606.568E-03    -297.942E-03     172.469E-03
             989     9.35664E-03     162.865E-03    -34.8964E+06     39.8995E+06     70.2510E+06     9.20989E+06    -298.563E-03     596.483E-03    -297.921E-03     219.477E-03    -307.498E-03     605.233E-03    -297.577E-03     175.990E-03
             990     10.0295E-03     163.205E-03    -28.9885E+06     42.5095E+06     80.2038E+06     7.21036E+06    -297.047E-03     594.577E-03    -297.530E-03     221.281E-03    -306.036E-03     603.382E-03    -297.148E-03     177.630E-03
             991     10.7030E-03     163.543E-03    -22.0601E+06     47.4794E+06     86.6236E+06     6.05014E+06    -295.309E-03     592.365E-03    -297.056E-03     221.283E-03    -304.157E-03     601.052E-03    -296.660E-03     178.052E-03
             992     11.3785E-03     163.877E-03    -14.3972E+06     39.1815E+06     81.5867E+06     3.41710E+06    -293.420E-03     589.913E-03    -296.493E-03     215.047E-03    -301.598E-03     597.943E-03    -296.121E-03     173.565E-03
             993     12.0541E-03     164.189E-03    -8.62671E+06     49.7635E+06     84.2330E+06     1.83771E+06    -291.668E-03     587.575E-03    -295.908E-03     212.153E-03    -299.502E-03     595.311E-03    -295.546E-03     171.636E-03
             994     12.7324E-03     164.507E-03    -4.21919E+06     72.1034E+06     94.7537E+06     2.72688E+06    -288.297E-03     583.609E-03    -295.312E-03     180.332E-03    -294.030E-03     589.308E-03    -294.936E-03     147.123E-03
             995     667.043E-06     161.754E-03    -127.975E+06    -219.121E+06    -125.811E+06     339.312E+03    -299.816E-03     599.195E-03    -299.379E-03     23.1039E-03    -300.068E-03     598.580E-03    -299.505E-03     18.3142E-03
             996     1.33400E-03     161.804E-03    -125.441E+06    -213.216E+06    -117.152E+06     865.585E+03    -299.808E-03     599.405E-03    -299.597E-03     42.1404E-03    -300.295E-03     599.029E-03    -299.692E-03     33.5173E-03
             997     2.00092E-03     161.885E-03    -120.893E+06    -203.723E+06    -103.294E+06     1.34471E+06    -300.122E-03     599.777E-03    -299.656E-03     62.2250E-03    -300.998E-03     599.801E-03    -299.701E-03     49.4917E-03
             998     2.66787E-03     161.998E-03    -114.800E+06    -193.435E+06    -86.5404E+06     1.46446E+06    -300.568E-03     600.302E-03    -299.734E-03     82.2432E-03    -301.980E-03     600.870E-03    -299.720E-03     65.3768E-03
             999     3.33468E-03     162.142E-03    -107.397E+06    -183.153E+06    -69.5625E+06     1.43511E+06    -301.040E-03     600.851E-03    -299.811E-03     101.895E-03    -303.118E-03     602.100E-03    -299.738E-03     80.9316E-03
            1000     4.00150E-03     162.317E-03    -99.4859E+06    -149.780E+06    -53.2859E+06     1.89036E+06    -301.396E-03     601.228E-03    -299.832E-03     120.932E-03    -304.289E-03     603.391E-03    -299.737E-03     96.0167E-03
            1001     4.66860E-03     162.521E-03    -91.8168E+06    -107.857E+06    -36.5754E+06     3.17014E+06    -301.715E-03     601.527E-03    -299.813E-03     139.136E-03    -305.534E-03     604.744E-03    -299.706E-03     110.469E-03
            1002     5.33619E-03     162.753E-03    -84.6060E+06    -78.4443E+06    -19.8885E+06     5.10074E+06    -302.084E-03     601.871E-03    -299.787E-03     156.301E-03    -306.879E-03     606.144E-03    -299.650E-03     124.122E-03
            1003     6.00340E-03     163.011E-03    -77.2492E+06    -50.1064E+06    -3.90664E+06     7.31337E+06    -302.215E-03     601.942E-03    -299.727E-03     172.035E-03    -307.993E-03     607.279E-03    -299.562E-03     136.721E-03
            1004     6.67141E-03     163.293E-03    -69.3274E+06    -20.0868E+06     12.7824E+06     8.79949E+06    -301.938E-03     601.551E-03    -299.612E-03     185.754E-03    -308.647E-03     607.904E-03    -299.419E-03     147.782E-03
            1005     7.33993E-03     163.595E-03    -61.5976E+06    -710.841E+03     27.7453E+06     8.67715E+06    -301.322E-03     600.755E-03    -299.433E-03     197.218E-03    -308.838E-03     607.969E-03    -299.204E-03     157.086E-03
            1006     8.00949E-03     163.911E-03    -54.3698E+06     2.75912E+06     38.3602E+06     7.25863E+06    -300.337E-03     599.513E-03    -299.176E-03     206.306E-03    -308.471E-03     607.353E-03    -298.909E-03     164.590E-03
            1007     8.68001E-03     164.239E-03    -46.4647E+06     18.3074E+06     49.6092E+06     6.03416E+06    -298.871E-03     597.685E-03    -298.814E-03     212.971E-03    -307.447E-03     606.018E-03    -298.525E-03     170.258E-03
            1008     9.35235E-03     164.573E-03    -37.5043E+06     37.2869E+06     65.1176E+06     7.07804E+06    -297.097E-03     595.470E-03    -298.374E-03     217.644E-03    -305.936E-03     604.120E-03    -298.048E-03     174.478E-03
            1009     10.0255E-03     164.910E-03    -28.9116E+06     45.4105E+06     80.4993E+06     7.42111E+06    -295.084E-03     592.945E-03    -297.861E-03     219.851E-03    -303.966E-03     601.652E-03    -297.483E-03     176.739E-03
            1010     10.7010E-03     165.243E-03    -20.9665E+06     51.3158E+06     89.3715E+06     5.23832E+06    -292.951E-03     590.194E-03    -297.244E-03     220.454E-03    -301.712E-03     598.804E-03    -296.841E-03     177.791E-03
            1011     11.3773E-03     165.574E-03    -14.8625E+06     45.4335E+06     83.6327E+06     3.82559E+06    -290.637E-03     587.146E-03    -296.509E-03     215.329E-03    -298.762E-03     595.137E-03    -296.135E-03     174.508E-03
            1012     12.0556E-03     165.883E-03    -11.5578E+06     51.0459E+06     83.1113E+06     2.46867E+06    -288.460E-03     584.201E-03    -295.741E-03     213.385E-03    -296.311E-03     591.952E-03    -295.383E-03     173.355E-03
            1013     12.7353E-03     166.193E-03    -7.58385E+06     71.3794E+06     93.3648E+06     2.18783E+06    -285.639E-03     580.633E-03    -294.994E-03     180.844E-03    -291.409E-03     586.359E-03    -294.619E-03     147.828E-03
            1014     666.218E-06     163.480E-03    -131.059E+06    -224.681E+06    -128.080E+06     2.54286E+06    -300.905E-03     601.393E-03    -300.488E-03     22.8623E-03    -301.161E-03     600.758E-03    -300.613E-03     18.0531E-03
            1015     1.33247E-03     163.530E-03    -128.031E+06    -214.740E+06    -118.742E+06     2.17778E+06    -300.934E-03     601.642E-03    -300.708E-03     41.6210E-03    -301.427E-03     601.263E-03    -300.805E-03     32.9538E-03
            1016     1.99871E-03     163.612E-03    -123.174E+06    -204.857E+06    -105.645E+06     1.43782E+06    -301.216E-03     601.989E-03    -300.773E-03     61.4770E-03    -302.094E-03     602.009E-03    -300.826E-03     48.6663E-03
            1017     2.66489E-03     163.725E-03    -116.446E+06    -194.312E+06    -89.0844E+06     1.09901E+06    -301.562E-03     602.406E-03    -300.844E-03     81.2631E-03    -302.969E-03     602.968E-03    -300.839E-03     64.2852E-03
            1018     3.33112E-03     163.869E-03    -109.367E+06    -184.123E+06    -72.2050E+06     1.09473E+06    -301.969E-03     602.876E-03    -300.907E-03     100.692E-03    -304.040E-03     604.114E-03    -300.842E-03     79.5991E-03
            1019     3.99736E-03     164.043E-03    -102.254E+06    -153.089E+06    -56.2964E+06     1.60206E+06    -302.282E-03     603.199E-03    -300.917E-03     119.443E-03    -305.162E-03     605.336E-03    -300.828E-03     94.3917E-03
            1020     4.66385E-03     164.246E-03    -94.9043E+06    -114.587E+06    -40.2382E+06     3.23276E+06    -302.533E-03     603.420E-03    -300.888E-03     137.367E-03    -306.324E-03     606.584E-03    -300.785E-03     108.577E-03
            1021     5.33006E-03     164.478E-03    -87.3834E+06    -86.3263E+06    -24.2549E+06     5.72135E+06    -302.665E-03     603.502E-03    -300.837E-03     154.289E-03    -307.412E-03     607.702E-03    -300.706E-03     122.047E-03
            1022     5.99716E-03     164.734E-03    -79.9742E+06    -56.5371E+06     -8.5525E+06     7.52967E+06    -302.418E-03     603.143E-03    -300.725E-03     169.770E-03    -308.134E-03     608.400E-03    -300.570E-03     134.446E-03
            1023     6.66485E-03     165.014E-03    -72.1729E+06    -24.6452E+06     9.34695E+06     8.41673E+06    -301.726E-03     602.266E-03    -300.539E-03     183.376E-03    -308.363E-03     608.532E-03    -300.352E-03     145.461E-03
            1024     7.33361E-03     165.313E-03    -64.1980E+06    -1.33044E+06      26.214E+06     8.37568E+06    -300.614E-03     600.876E-03    -300.262E-03     194.862E-03    -308.046E-03     607.999E-03    -300.036E-03     154.924E-03
            1025     8.00339E-03     165.626E-03    -56.3936E+06     8.34204E+06     39.5561E+06     6.03218E+06    -299.158E-03     599.037E-03    -299.879E-03     204.344E-03    -307.199E-03     606.793E-03    -299.612E-03     162.986E-03
            1026     8.67482E-03     165.949E-03    -48.4347E+06     18.3708E+06     52.2387E+06     3.38179E+06    -297.316E-03     596.699E-03    -299.382E-03     211.610E-03    -305.784E-03     604.908E-03    -299.078E-03     169.394E-03
            1027     9.34771E-03     166.278E-03    -39.5730E+06     29.1538E+06     65.4608E+06     3.87946E+06    -295.080E-03     593.854E-03    -298.774E-03     216.913E-03    -303.792E-03     602.340E-03    -298.432E-03     174.393E-03
            1028     10.0232E-03     166.611E-03    -30.5716E+06     45.5717E+06     80.1981E+06     4.73205E+06    -292.404E-03     590.457E-03    -298.053E-03     220.077E-03    -301.179E-03     599.053E-03    -297.674E-03     177.750E-03
            1029     10.7000E-03     166.940E-03    -23.7186E+06     53.8490E+06     88.5268E+06     3.98938E+06    -289.801E-03     587.015E-03    -297.214E-03     222.267E-03    -298.494E-03     595.558E-03    -296.815E-03     180.501E-03
            1030     11.3794E-03     167.266E-03    -19.1320E+06     45.6375E+06     81.7318E+06     3.82396E+06    -287.452E-03     583.714E-03    -296.262E-03     218.547E-03    -295.577E-03     591.696E-03    -295.892E-03     178.466E-03
            1031     12.0609E-03     167.570E-03    -12.3222E+06     55.2179E+06     84.3673E+06     3.21349E+06    -285.829E-03     581.145E-03    -295.316E-03     217.198E-03    -293.721E-03     588.945E-03    -294.957E-03     177.670E-03
            1032     12.7425E-03     167.881E-03    -5.61425E+06     74.2104E+06     94.2859E+06     1.27133E+06    -283.679E-03     578.113E-03    -294.434E-03     186.172E-03    -289.538E-03     583.943E-03    -294.062E-03     153.228E-03
            1033     665.395E-06     165.211E-03    -128.392E+06    -232.329E+06    -129.110E+06     1.21573E+06    -302.311E-03     604.180E-03    -301.869E-03     22.5983E-03    -302.540E-03     603.503E-03    -301.991E-03     17.7338E-03
            1034     1.33069E-03     165.261E-03    -126.738E+06    -215.943E+06    -122.485E+06     1.59066E+06    -302.273E-03     604.337E-03    -302.063E-03     41.1794E-03    -302.752E-03     603.954E-03    -302.179E-03     32.4301E-03
            1035     1.99587E-03     165.343E-03    -123.205E+06    -205.606E+06    -108.268E+06     1.76495E+06    -302.498E-03     604.617E-03    -302.120E-03     60.7938E-03    -303.368E-03     604.634E-03    -302.184E-03     47.8854E-03
            1036     2.66120E-03     165.455E-03    -118.029E+06    -194.958E+06    -91.9020E+06     1.66895E+06    -302.772E-03     604.946E-03    -302.174E-03     80.3352E-03    -304.173E-03     605.502E-03    -302.180E-03     63.2673E-03
            1037     3.32654E-03     165.599E-03    -111.589E+06    -184.581E+06    -74.8282E+06     1.46768E+06    -303.068E-03     605.285E-03    -302.217E-03     99.3784E-03    -305.126E-03     606.508E-03    -302.161E-03     78.2125E-03
            1038     3.99206E-03     165.773E-03    -104.099E+06    -156.057E+06    -58.2582E+06     1.62287E+06    -303.261E-03     605.466E-03    -302.205E-03     117.814E-03    -306.113E-03     607.564E-03    -302.119E-03     92.6859E-03
            1039     4.65750E-03     165.975E-03    -96.2924E+06    -121.375E+06    -41.9404E+06     2.86359E+06    -303.272E-03     605.413E-03    -302.141E-03     135.682E-03    -307.020E-03     608.510E-03    -302.035E-03     106.819E-03
            1040     5.32383E-03     166.205E-03    -88.1389E+06    -95.0376E+06    -25.4072E+06     5.09441E+06    -302.995E-03     605.019E-03    -302.024E-03     152.592E-03    -307.681E-03     609.128E-03    -301.885E-03     120.343E-03
            1041     5.99049E-03     166.460E-03    -79.5704E+06    -64.2255E+06    -8.58737E+06     7.79342E+06    -302.279E-03     604.089E-03    -301.810E-03     168.087E-03    -307.917E-03     609.241E-03    -301.644E-03     132.871E-03
            1042     6.65811E-03     166.737E-03    -71.6191E+06    -30.1714E+06     8.87247E+06     10.1874E+06    -301.045E-03     602.525E-03    -301.480E-03     181.980E-03    -307.586E-03     608.679E-03    -301.288E-03     144.364E-03
            1043     7.32715E-03     167.031E-03    -63.6811E+06     921.971E+03     26.1704E+06     9.95356E+06    -299.383E-03     600.405E-03    -301.022E-03     193.955E-03    -306.703E-03     607.427E-03    -300.800E-03     154.544E-03
            1044     7.99829E-03     167.339E-03    -55.3128E+06     16.6024E+06     42.1067E+06     7.17419E+06    -297.340E-03     597.784E-03    -300.444E-03     203.858E-03    -305.258E-03     605.442E-03    -300.177E-03     163.223E-03
            1045     8.67129E-03     167.658E-03    -47.8035E+06     21.9638E+06     55.8393E+06     4.78205E+06    -294.866E-03     594.600E-03    -299.734E-03     211.858E-03    -303.190E-03     602.671E-03    -299.417E-03     170.593E-03
            1046     9.34653E-03     167.982E-03    -41.9550E+06     26.4677E+06     65.7283E+06     3.48513E+06    -292.003E-03     590.873E-03    -298.870E-03     218.457E-03    -300.584E-03     599.209E-03    -298.519E-03     177.023E-03
            1047     10.0237E-03     168.308E-03    -36.9426E+06     44.1059E+06     78.1729E+06     3.18086E+06    -288.939E-03     586.813E-03    -297.874E-03     223.056E-03    -297.621E-03     595.294E-03    -297.494E-03     181.906E-03
            1048     10.7049E-03     168.630E-03    -29.6545E+06     58.5402E+06     89.0667E+06     680.894E+03    -286.328E-03     583.111E-03    -296.783E-03     225.988E-03    -294.957E-03     591.584E-03    -296.379E-03     185.350E-03
            1049     11.3878E-03     168.952E-03    -17.4738E+06     43.4095E+06     84.6604E+06    -1.36611E+06    -284.737E-03     580.372E-03    -295.635E-03     222.779E-03    -292.796E-03     588.278E-03    -295.250E-03     183.572E-03
            1050     12.0701E-03     169.254E-03    -8.06313E+06     48.0377E+06     83.6722E+06     861.768E+03    -284.048E-03     578.588E-03    -294.539E-03     221.368E-03    -291.884E-03     586.322E-03    -294.179E-03     182.467E-03
            1051     12.7541E-03     169.562E-03    -1.78067E+06     77.8726E+06     95.1554E+06     2.91322E+06    -283.382E-03     576.987E-03    -293.605E-03     188.997E-03    -289.284E-03     582.884E-03    -293.240E-03     155.982E-03
            1052     664.153E-06     166.947E-03    -131.180E+06    -234.864E+06    -131.162E+06    -643.314E+03    -303.842E-03     607.259E-03    -303.417E-03     22.4736E-03    -304.078E-03     606.576E-03    -303.542E-03     17.5593E-03
            1053     1.32846E-03     166.997E-03    -130.024E+06    -220.086E+06    -125.487E+06     683.531E+03    -303.728E-03     607.317E-03    -303.589E-03     40.9307E-03    -304.210E-03     606.920E-03    -303.709E-03     32.1197E-03
            1054     1.99290E-03     167.079E-03    -126.131E+06    -208.127E+06    -111.985E+06     1.75100E+06    -303.932E-03     607.547E-03    -303.615E-03     60.2764E-03    -304.801E-03     607.554E-03    -303.691E-03     47.3121E-03
            1055     2.65725E-03     167.191E-03    -120.785E+06    -195.346E+06    -95.3673E+06     1.83552E+06    -304.136E-03     607.785E-03    -303.650E-03     79.4998E-03    -305.529E-03     608.333E-03    -303.668E-03     62.3961E-03
            1056     3.32166E-03     167.334E-03    -113.727E+06    -183.085E+06    -76.9857E+06     884.638E+03    -304.206E-03     607.866E-03    -303.659E-03     98.4157E-03    -306.251E-03     609.080E-03    -303.614E-03     77.2044E-03
            1057     3.98614E-03     167.507E-03    -105.714E+06    -157.949E+06    -59.2200E+06     176.243E+03    -304.039E-03     607.625E-03    -303.586E-03     116.966E-03    -306.866E-03     609.688E-03    -303.500E-03     91.8129E-03
            1058     4.65144E-03     167.708E-03    -96.8677E+06    -127.618E+06    -41.4790E+06     1.07152E+06    -303.608E-03     607.029E-03    -303.421E-03     134.951E-03    -307.310E-03     610.054E-03    -303.303E-03     106.144E-03
            1059     5.31706E-03     167.935E-03    -87.8661E+06    -103.561E+06    -24.4926E+06     3.18570E+06    -302.782E-03     605.939E-03    -303.156E-03     152.032E-03    -307.398E-03     609.946E-03    -303.001E-03     119.976E-03
            1060     5.98406E-03     168.187E-03    -78.8304E+06    -75.0887E+06    -8.86991E+06     5.82873E+06    -301.408E-03     604.153E-03    -302.745E-03     167.960E-03    -306.945E-03     609.170E-03    -302.566E-03     133.152E-03
            1061     6.65285E-03     168.459E-03    -69.0582E+06    -40.3675E+06      8.2752E+06     8.99986E+06    -299.581E-03     601.760E-03    -302.179E-03     182.329E-03    -305.980E-03     607.747E-03    -301.979E-03     145.385E-03
            1062     7.32369E-03     168.749E-03    -59.8233E+06     61.4068E+03     28.6890E+06     11.5092E+06    -297.311E-03     598.775E-03    -301.463E-03     194.984E-03    -304.479E-03     605.647E-03    -301.233E-03     156.507E-03
            1063     7.99613E-03     169.052E-03    -52.4994E+06     22.5993E+06     45.7215E+06     11.2700E+06    -294.542E-03     595.140E-03    -300.598E-03     205.839E-03    -302.311E-03     602.671E-03    -300.326E-03     166.393E-03
            1064     8.67136E-03     169.363E-03    -46.6858E+06     27.6169E+06     56.6572E+06     9.11669E+06    -291.330E-03     590.894E-03    -299.564E-03     215.075E-03    -299.496E-03     598.828E-03    -299.253E-03     175.261E-03
            1065     9.34988E-03     169.680E-03    -40.2099E+06     31.3794E+06     67.1028E+06     6.83136E+06    -288.082E-03     586.460E-03    -298.378E-03     222.695E-03    -296.486E-03     594.638E-03    -298.030E-03     182.900E-03
            1066     10.0323E-03     169.998E-03    -30.4858E+06     45.8445E+06     82.9877E+06     5.10687E+06    -285.418E-03     582.522E-03    -297.104E-03     228.072E-03    -293.913E-03     590.831E-03    -296.711E-03     188.514E-03
            1067     10.7150E-03     170.317E-03    -20.5493E+06     70.4849E+06     99.5784E+06     2.75482E+06    -283.901E-03     579.711E-03    -295.809E-03     231.617E-03    -292.419E-03     588.116E-03    -295.384E-03     192.225E-03
            1068     11.3992E-03     170.632E-03    -16.3799E+06     48.1113E+06     89.8986E+06    -2.47649E+06    -283.467E-03     578.009E-03    -294.542E-03     228.696E-03    -291.524E-03     585.917E-03    -294.138E-03     190.185E-03
            1069     12.0845E-03     170.936E-03    -12.5687E+06     37.7856E+06     80.8175E+06    -3.93105E+06    -284.980E-03     578.416E-03    -293.436E-03     226.342E-03    -292.852E-03     586.143E-03    -293.068E-03     187.571E-03
            1070     12.7678E-03     171.241E-03    -7.85012E+06     76.3650E+06     92.1112E+06     318.575E+03    -287.879E-03     580.537E-03    -292.658E-03     192.691E-03    -293.854E-03     586.488E-03    -292.296E-03     159.319E-03
            1071     663.271E-06     168.689E-03    -138.339E+06    -233.667E+06    -135.651E+06    -197.642E+03    -305.329E-03     610.379E-03    -305.050E-03     22.2175E-03    -305.594E-03     609.717E-03    -305.189E-03     17.3044E-03
            1072     1.32656E-03     168.739E-03    -134.484E+06    -223.540E+06    -126.040E+06    -11.1666E+03    -305.259E-03     610.435E-03    -305.175E-03     40.6154E-03    -305.754E-03     610.023E-03    -305.286E-03     31.7916E-03
            1073     1.98969E-03     168.820E-03    -129.291E+06    -210.415E+06    -113.422E+06     262.586E+03    -305.316E-03     610.479E-03    -305.162E-03     59.9081E-03    -306.186E-03     610.471E-03    -305.237E-03     46.9216E-03
            1074     2.65293E-03     168.932E-03    -122.799E+06    -195.288E+06    -97.4905E+06     190.895E+03    -305.189E-03     610.300E-03    -305.111E-03     79.2400E-03    -306.575E-03     610.839E-03    -305.138E-03     62.1449E-03
            1075     3.31653E-03     169.074E-03    -115.135E+06    -179.636E+06    -79.0450E+06    -934.592E+03    -304.816E-03     609.802E-03    -304.986E-03     98.5050E-03    -306.848E-03     611.017E-03    -304.954E-03     77.3724E-03
            1076     3.98101E-03     169.244E-03    -106.673E+06    -157.252E+06    -60.0526E+06    -2.18023E+06    -304.174E-03     608.923E-03    -304.749E-03     117.453E-03    -306.971E-03     610.957E-03    -304.666E-03     92.4919E-03
            1077     4.64607E-03     169.443E-03    -97.7164E+06    -132.920E+06    -41.7553E+06    -1.86102E+06    -303.156E-03     607.539E-03    -304.383E-03     135.934E-03    -306.802E-03     610.488E-03    -304.257E-03     107.492E-03
            1078     5.31271E-03     169.667E-03    -88.2160E+06    -110.972E+06    -24.4773E+06    -334.462E+03    -301.616E-03     605.483E-03    -303.867E-03     153.589E-03    -306.154E-03     609.385E-03    -303.700E-03     122.086E-03
            1079     5.98111E-03     169.913E-03    -78.2034E+06    -83.8628E+06    -7.82128E+06     1.39889E+06    -299.599E-03     602.769E-03    -303.170E-03     170.173E-03    -305.028E-03     607.646E-03    -302.974E-03     136.136E-03
            1080     6.65145E-03     170.180E-03    -68.0495E+06    -52.4634E+06     8.74003E+06     3.93465E+06    -297.108E-03     599.397E-03    -302.290E-03     185.295E-03    -303.363E-03     605.200E-03    -302.071E-03     149.374E-03
            1081     7.32398E-03     170.463E-03    -58.2863E+06    -13.6868E+06     26.1060E+06     8.68050E+06    -293.982E-03     595.196E-03    -301.214E-03     198.941E-03    -300.965E-03     601.848E-03    -300.979E-03     161.830E-03
            1082     8.00034E-03     170.759E-03    -49.5376E+06     19.4694E+06     42.6008E+06     13.2185E+06    -290.533E-03     590.487E-03    -299.954E-03     210.874E-03    -298.093E-03     597.817E-03    -299.698E-03     173.169E-03
            1083     8.67997E-03     171.062E-03    -40.8389E+06     34.2890E+06     58.1036E+06     13.3456E+06    -287.311E-03     585.877E-03    -298.566E-03     220.666E-03    -295.256E-03     593.630E-03    -298.266E-03     182.736E-03
            1084     9.36275E-03     171.370E-03    -31.7415E+06     40.0401E+06     73.4839E+06     9.98981E+06    -284.738E-03     581.848E-03    -297.110E-03     228.264E-03    -292.915E-03     589.841E-03    -296.754E-03     190.254E-03
            1085     10.0467E-03     171.683E-03    -24.4331E+06     52.0804E+06     88.1661E+06     6.04036E+06    -283.089E-03     578.737E-03    -295.649E-03     233.171E-03    -291.384E-03     586.875E-03    -295.248E-03     195.093E-03
            1086     10.7337E-03     171.997E-03    -19.4322E+06     74.1392E+06     102.663E+06     4.68696E+06    -282.949E-03     577.221E-03    -294.273E-03     236.300E-03    -291.319E-03     585.489E-03    -293.839E-03     198.039E-03
            1087     11.4195E-03     172.315E-03    -14.4395E+06     61.1370E+06     99.9411E+06     3.34288E+06    -284.911E-03     577.989E-03    -293.078E-03     232.180E-03    -292.917E-03     585.871E-03    -292.646E-03     194.186E-03
            1088     12.1027E-03     172.614E-03    -7.17285E+06     42.2475E+06     89.6956E+06     2.51971E+06    -289.192E-03     581.371E-03    -292.179E-03     229.217E-03    -297.076E-03     589.119E-03    -291.781E-03     190.222E-03
            1089     12.7794E-03     172.939E-03    -5.21435E+06     70.7715E+06     93.6486E+06     2.01475E+06    -291.780E-03     583.415E-03    -291.635E-03     197.488E-03    -297.793E-03     589.389E-03    -291.262E-03     163.775E-03
            1090     662.067E-06     170.436E-03    -137.610E+06    -231.546E+06    -136.194E+06    -565.838E+03    -306.618E-03     613.131E-03    -306.513E-03     22.3484E-03    -306.880E-03     612.478E-03    -306.659E-03     17.4263E-03
            1091     1.32419E-03     170.486E-03    -134.383E+06    -222.575E+06    -127.055E+06    -1.13477E+06    -306.391E-03     612.881E-03    -306.490E-03     41.0833E-03    -306.880E-03     612.472E-03    -306.608E-03     32.3073E-03
            1092     1.98663E-03     170.566E-03    -129.661E+06    -209.935E+06    -114.075E+06    -1.74121E+06    -306.019E-03     612.354E-03    -306.336E-03     60.8811E-03    -306.883E-03     612.344E-03    -306.414E-03     48.0058E-03
            1093     2.64968E-03     170.677E-03    -122.918E+06    -193.853E+06    -97.8004E+06    -2.23773E+06    -305.400E-03     611.481E-03    -306.082E-03     80.7500E-03    -306.775E-03     612.016E-03    -306.111E-03     63.8448E-03
            1094     3.31363E-03     170.816E-03    -115.137E+06    -175.644E+06    -79.8096E+06    -3.19006E+06    -304.507E-03     610.218E-03    -305.711E-03     100.520E-03    -306.518E-03     611.428E-03    -305.688E-03     79.7445E-03
            1095     3.97833E-03     170.984E-03    -106.910E+06    -154.664E+06    -60.9394E+06    -4.19623E+06    -303.249E-03     608.452E-03    -305.203E-03     120.081E-03    -306.008E-03     610.459E-03    -305.129E-03     95.6835E-03
            1096     4.64473E-03     171.178E-03    -98.3070E+06    -134.541E+06    -41.8917E+06    -4.43721E+06    -301.483E-03     606.019E-03    -304.536E-03     139.219E-03    -305.067E-03     608.898E-03    -304.408E-03     111.563E-03
            1097     5.31292E-03     171.397E-03    -89.1839E+06    -113.975E+06    -24.1384E+06    -4.30644E+06    -299.195E-03     602.871E-03    -303.676E-03     157.637E-03    -303.644E-03     606.669E-03    -303.502E-03     127.153E-03
            1098     5.98337E-03     171.637E-03    -79.9258E+06    -89.1995E+06    -8.60820E+06    -3.65468E+06    -296.470E-03     599.073E-03    -302.603E-03     175.321E-03    -301.781E-03     603.809E-03    -302.401E-03     142.576E-03
            1099     6.65662E-03     171.897E-03    -71.4227E+06    -62.2999E+06     5.49319E+06    -1.74932E+06    -293.247E-03     594.570E-03    -301.323E-03     191.622E-03    -299.355E-03     600.187E-03    -301.101E-03     157.279E-03
            1100     7.33374E-03     172.171E-03    -62.6271E+06    -31.8542E+06     19.7820E+06     2.44554E+06    -289.760E-03     589.609E-03    -299.849E-03     205.990E-03    -296.548E-03     596.004E-03    -299.613E-03     170.688E-03
            1101     8.01403E-03     172.458E-03    -52.5999E+06     6.33240E+06     36.5401E+06     7.65776E+06    -286.580E-03     584.815E-03    -298.235E-03     217.880E-03    -293.904E-03     591.869E-03    -297.986E-03     182.097E-03
            1102     8.69741E-03     172.753E-03    -42.6657E+06     35.8858E+06     53.5593E+06     9.30691E+06    -284.245E-03     580.828E-03    -296.584E-03     226.928E-03    -291.943E-03     588.347E-03    -296.306E-03     190.852E-03
            1103     9.38225E-03     173.055E-03    -34.9935E+06     44.5786E+06     66.5572E+06     7.99267E+06    -282.970E-03     577.958E-03    -294.988E-03     233.705E-03    -290.919E-03     585.748E-03    -294.669E-03     197.281E-03
            1104     10.0690E-03     173.363E-03    -29.2205E+06     57.1480E+06     80.3327E+06     7.31803E+06    -283.026E-03     576.551E-03    -293.525E-03     238.090E-03    -291.137E-03     584.528E-03    -293.164E-03     201.252E-03
            1105     10.7537E-03     173.675E-03    -22.7887E+06     76.0055E+06     98.3152E+06     6.75004E+06    -285.004E-03     577.303E-03    -292.298E-03     240.483E-03    -293.236E-03     585.439E-03    -291.884E-03     202.961E-03
            1106     11.4381E-03     173.993E-03    -15.6129E+06     66.9247E+06     104.324E+06     6.62402E+06    -288.975E-03     580.351E-03    -291.376E-03     236.772E-03    -296.877E-03     588.132E-03    -290.929E-03     199.253E-03
            1107     12.1155E-03     174.309E-03    -14.0496E+06     42.5649E+06     89.5792E+06     3.76467E+06    -292.959E-03     583.682E-03    -290.723E-03     236.676E-03    -300.948E-03     591.512E-03    -290.317E-03     197.553E-03
            1108     12.7931E-03     174.629E-03    -7.00834E+06     69.5703E+06     94.8807E+06     752.404E+03    -294.570E-03     584.944E-03    -290.374E-03     206.447E-03    -300.812E-03     591.133E-03    -289.990E-03     172.052E-03
            1109     661.612E-06     172.188E-03    -135.729E+06    -228.200E+06    -134.063E+06    -1.23377E+06    -306.887E-03     613.677E-03    -306.790E-03     23.5291E-03    -307.148E-03     613.035E-03    -306.933E-03     18.7011E-03
            1110     1.32363E-03     172.236E-03    -132.659E+06    -219.136E+06    -126.010E+06    -1.94613E+06    -306.334E-03     613.000E-03    -306.666E-03     42.9986E-03    -306.818E-03     612.601E-03    -306.786E-03     34.4443E-03
            1111     1.98636E-03     172.314E-03    -128.177E+06    -206.101E+06    -113.202E+06    -2.80965E+06    -305.517E-03     611.840E-03    -306.323E-03     63.4125E-03    -306.372E-03     611.836E-03    -306.404E-03     50.9055E-03
            1112     2.64994E-03     172.422E-03    -122.203E+06    -190.332E+06    -96.7709E+06    -3.84894E+06    -304.356E-03     610.187E-03    -305.832E-03     83.9650E-03    -305.715E-03     610.717E-03    -305.862E-03     67.5885E-03
            1113     3.31454E-03     172.558E-03    -115.096E+06    -171.217E+06    -78.8890E+06    -4.71624E+06    -302.778E-03     607.947E-03    -305.169E-03     104.599E-03    -304.763E-03     609.144E-03    -305.148E-03     84.5714E-03
            1114     3.98110E-03     172.721E-03    -107.430E+06    -151.315E+06    -60.6276E+06    -5.25633E+06    -300.722E-03     605.038E-03    -304.316E-03     125.181E-03    -303.433E-03     607.006E-03    -304.244E-03     101.809E-03
            1115     4.64956E-03     172.910E-03    -99.4495E+06    -132.796E+06    -42.7140E+06    -5.53560E+06    -298.179E-03     601.436E-03    -303.257E-03     145.442E-03    -301.687E-03     604.243E-03    -303.134E-03     119.113E-03
            1116     5.32072E-03     173.121E-03    -91.3832E+06    -112.675E+06    -25.5845E+06    -5.81119E+06    -295.225E-03     597.208E-03    -301.983E-03     165.196E-03    -299.573E-03     600.905E-03    -301.815E-03     136.350E-03
            1117     5.99510E-03     173.353E-03    -83.7968E+06    -90.0170E+06    -10.2578E+06    -5.73091E+06    -291.968E-03     592.466E-03    -300.498E-03     183.907E-03    -297.146E-03     597.055E-03    -300.297E-03     153.084E-03
            1118     6.67314E-03     173.604E-03    -76.1315E+06    -67.2384E+06     3.80586E+06    -4.71255E+06    -288.684E-03     587.524E-03    -298.840E-03     200.562E-03    -294.612E-03     592.931E-03    -298.613E-03     168.323E-03
            1119     7.35413E-03     173.869E-03    -67.7251E+06    -41.8225E+06     17.8200E+06    -3.08788E+06    -285.953E-03     583.032E-03    -297.079E-03     214.759E-03    -292.518E-03     589.156E-03    -296.831E-03     181.537E-03
            1120     8.03791E-03     174.148E-03    -58.2816E+06    -7.27479E+06     32.6488E+06     157.157E+03    -284.045E-03     579.345E-03    -295.299E-03     226.161E-03    -291.118E-03     586.089E-03    -295.041E-03     192.304E-03
            1121     8.72313E-03     174.437E-03    -49.9856E+06     29.9573E+06     46.6785E+06     4.85359E+06    -283.017E-03     576.604E-03    -293.587E-03     234.801E-03    -290.465E-03     583.846E-03    -293.325E-03     200.532E-03
            1122     9.40966E-03     174.735E-03    -43.1798E+06     47.1005E+06     58.2374E+06     5.64533E+06    -283.277E-03     575.321E-03    -292.045E-03     241.442E-03    -290.999E-03     582.889E-03    -291.759E-03     206.620E-03
            1123     10.0952E-03     175.041E-03    -34.3056E+06     55.5652E+06     73.0332E+06     4.65468E+06    -285.320E-03     576.081E-03    -290.761E-03     246.379E-03    -293.219E-03     583.844E-03    -290.427E-03     210.835E-03
            1124     10.7805E-03     175.357E-03    -25.0394E+06     69.1412E+06     91.0185E+06     8.57160E+06    -289.244E-03     579.041E-03    -289.797E-03     250.756E-03    -297.324E-03     587.013E-03    -289.406E-03     214.234E-03
            1125     11.4599E-03     175.682E-03    -20.0184E+06     69.7141E+06     102.383E+06     9.65361E+06    -293.544E-03     582.712E-03    -289.168E-03     250.108E-03    -301.509E-03     590.556E-03    -288.728E-03     213.033E-03
            1126     12.1409E-03     176.000E-03    -12.8512E+06     57.7537E+06     100.732E+06     2.12507E+06    -298.260E-03     587.093E-03    -288.833E-03     248.661E-03    -306.420E-03     595.122E-03    -288.395E-03     209.285E-03
            1127     12.8196E-03     176.324E-03    -3.44968E+06     73.9803E+06     103.073E+06    -1.00597E+06    -303.878E-03     592.764E-03    -288.886E-03     212.705E-03    -310.254E-03     599.094E-03    -288.473E-03     177.232E-03
            1128     662.838E-06     173.937E-03    -135.053E+06    -223.601E+06    -134.059E+06    -1.21609E+06    -305.233E-03     610.153E-03    -304.920E-03     24.8961E-03    -305.495E-03     609.530E-03    -305.070E-03     20.3375E-03
            1129     1.32596E-03     173.984E-03    -133.189E+06    -215.010E+06    -125.877E+06    -1.93623E+06    -304.317E-03     609.138E-03    -304.821E-03     45.4227E-03    -304.802E-03     608.751E-03    -304.946E-03     37.3172E-03
            1130     1.98980E-03     174.059E-03    -128.900E+06    -201.204E+06    -112.547E+06    -2.61531E+06    -303.062E-03     607.369E-03    -304.307E-03     67.1829E-03    -303.911E-03     607.372E-03    -304.391E-03     55.3436E-03
            1131     2.65500E-03     174.163E-03    -123.033E+06    -185.047E+06    -95.7340E+06    -3.73748E+06    -301.254E-03     604.815E-03    -303.561E-03     89.2006E-03    -302.596E-03     605.339E-03    -303.593E-03     73.7795E-03
            1132     3.32237E-03     174.294E-03    -116.102E+06    -166.550E+06    -77.7333E+06    -4.75326E+06    -298.920E-03     601.488E-03    -302.568E-03     111.349E-03    -300.867E-03     602.656E-03    -302.547E-03     92.5937E-03
            1133     3.99189E-03     174.450E-03    -108.338E+06    -148.214E+06    -59.7190E+06    -5.18964E+06    -296.128E-03     597.458E-03    -301.330E-03     133.405E-03    -298.772E-03     599.363E-03    -301.257E-03     111.642E-03
            1134     4.66456E-03     174.631E-03    -100.457E+06    -129.808E+06    -42.4524E+06    -5.24320E+06    -293.004E-03     592.865E-03    -299.861E-03     154.997E-03    -296.407E-03     595.572E-03    -299.740E-03     130.620E-03
            1135     5.34051E-03     174.834E-03    -92.5833E+06    -109.682E+06    -25.5400E+06    -5.25194E+06    -289.852E-03     588.049E-03    -298.198E-03     175.816E-03    -294.052E-03     591.604E-03    -298.032E-03     149.213E-03
            1136     6.01967E-03     175.058E-03    -84.3842E+06    -88.5869E+06    -8.79356E+06    -4.80930E+06    -286.982E-03     583.385E-03    -296.403E-03     194.926E-03    -291.963E-03     587.776E-03    -296.197E-03     166.504E-03
            1137     6.70170E-03     175.299E-03    -76.4191E+06    -66.9549E+06     6.46793E+06    -4.27211E+06    -284.751E-03     579.305E-03    -294.554E-03     211.609E-03    -290.441E-03     584.466E-03    -294.314E-03     181.778E-03
            1138     7.38631E-03     175.558E-03    -68.3923E+06    -42.4311E+06     20.5140E+06    -3.84862E+06    -283.444E-03     576.178E-03    -292.734E-03     225.772E-03    -289.742E-03     582.022E-03    -292.471E-03     194.862E-03
            1139     8.07206E-03     175.831E-03    -60.9931E+06    -15.2253E+06     32.6509E+06    -2.14526E+06    -283.009E-03     574.026E-03    -291.017E-03     237.179E-03    -289.795E-03     580.446E-03    -290.743E-03     205.470E-03
            1140     8.75899E-03     176.116E-03    -52.8351E+06     18.2985E+06     44.4298E+06     1.78477E+06    -283.569E-03     573.031E-03    -289.462E-03     245.980E-03    -290.727E-03     579.937E-03    -289.189E-03     213.647E-03
            1141     9.44589E-03     176.413E-03    -43.5460E+06     49.4887E+06     59.3943E+06     4.49395E+06    -285.672E-03     573.834E-03    -288.162E-03     252.959E-03    -293.125E-03     581.136E-03    -287.874E-03     219.882E-03
            1142     10.1320E-03     176.721E-03    -36.3175E+06     57.1529E+06     73.3781E+06     3.30633E+06    -289.506E-03     576.711E-03    -287.205E-03     258.379E-03    -297.182E-03     584.248E-03    -286.868E-03     224.264E-03
            1143     10.8143E-03     177.041E-03    -29.9988E+06     55.5839E+06     83.3574E+06     1.90147E+06    -294.657E-03     581.257E-03    -286.600E-03     262.581E-03    -302.580E-03     589.031E-03    -286.220E-03     226.918E-03
            1144     11.4975E-03     177.374E-03    -17.3822E+06     70.2154E+06     103.840E+06     1.47820E+06    -300.909E-03     587.336E-03    -286.426E-03     258.369E-03    -308.842E-03     595.157E-03    -285.984E-03     221.103E-03
            1145     12.1726E-03     177.698E-03    -6.12353E+06     67.5115E+06     113.238E+06     2.95148E+06    -309.984E-03     596.718E-03    -286.734E-03     251.744E-03    -318.162E-03     604.789E-03    -286.257E-03     211.164E-03
            1146     12.8347E-03     178.044E-03    -6.82415E+06     76.6195E+06     112.245E+06     3.68781E+06    -318.299E-03     605.854E-03    -287.555E-03     212.889E-03    -324.693E-03     612.172E-03    -287.095E-03     176.085E-03
            1147     665.374E-06     175.677E-03    -135.692E+06    -220.063E+06    -134.966E+06    -500.691E+03    -300.758E-03     601.170E-03    -300.412E-03     26.7622E-03    -301.023E-03     600.561E-03    -300.571E-03     22.5896E-03
            1148     1.33143E-03     175.721E-03    -133.804E+06    -210.905E+06    -125.191E+06    -1.29897E+06    -299.361E-03     599.566E-03    -300.204E-03     49.0542E-03    -299.844E-03     599.184E-03    -300.330E-03     41.6727E-03
            1149     1.99890E-03     175.793E-03    -128.507E+06    -196.717E+06    -111.093E+06    -2.27361E+06    -297.579E-03     597.012E-03    -299.433E-03     72.8374E-03    -298.408E-03     597.005E-03    -299.517E-03     62.0749E-03
            1150     2.66830E-03     175.891E-03    -121.945E+06    -180.228E+06    -93.7561E+06    -2.91507E+06    -295.220E-03     593.599E-03    -298.379E-03     96.8477E-03    -296.515E-03     594.089E-03    -298.410E-03     82.9045E-03
            1151     3.33996E-03     176.015E-03    -114.726E+06    -162.264E+06    -74.7437E+06    -3.30660E+06    -292.428E-03     589.487E-03    -297.059E-03     120.882E-03    -294.297E-03     590.584E-03    -297.031E-03     104.007E-03
            1152     4.01486E-03     176.164E-03    -107.032E+06    -144.519E+06    -55.7416E+06    -3.75596E+06    -289.399E-03     584.902E-03    -295.503E-03     144.515E-03    -291.926E-03     586.693E-03    -295.417E-03     124.979E-03
            1153     4.69282E-03     176.335E-03    -98.7016E+06    -126.387E+06    -37.7305E+06    -4.18914E+06    -286.469E-03     580.234E-03    -293.765E-03     167.268E-03    -289.709E-03     582.780E-03    -293.627E-03     145.376E-03
            1154     5.37401E-03     176.530E-03    -89.9267E+06    -106.686E+06    -21.0069E+06    -4.24632E+06    -284.020E-03     575.938E-03    -291.919E-03     188.779E-03    -288.002E-03     579.279E-03    -291.739E-03     164.831E-03
            1155     6.05803E-03     176.746E-03    -81.0515E+06    -87.2597E+06    -5.05195E+06    -3.94781E+06    -282.373E-03     572.433E-03    -290.061E-03     208.295E-03    -287.081E-03     576.555E-03    -289.842E-03     182.590E-03
            1156     6.74410E-03     176.981E-03    -71.4808E+06    -65.5665E+06     11.0109E+06    -3.03682E+06    -281.750E-03     570.031E-03    -288.281E-03     225.496E-03    -287.131E-03     574.892E-03    -288.028E-03     198.322E-03
            1157     7.43112E-03     177.236E-03    -62.2442E+06    -41.8146E+06     26.1111E+06    -1.40901E+06    -282.117E-03     568.767E-03    -286.651E-03     240.088E-03    -288.085E-03     574.289E-03    -286.369E-03     211.725E-03
            1158     8.11930E-03     177.506E-03    -53.2784E+06    -16.5637E+06     40.6052E+06     2.80973E+03    -283.559E-03     568.789E-03    -285.229E-03     251.605E-03    -290.002E-03     574.865E-03    -284.925E-03     222.251E-03
            1159     8.80715E-03     177.791E-03    -44.1327E+06     12.6268E+06     54.3439E+06     1.00352E+06    -286.423E-03     570.499E-03    -284.076E-03     260.072E-03    -293.240E-03     577.047E-03    -283.759E-03     229.730E-03
            1160     9.49361E-03     178.089E-03    -35.1072E+06     42.8617E+06     68.0369E+06     4.82389E+06    -290.882E-03     574.146E-03    -283.263E-03     266.019E-03    -298.010E-03     581.106E-03    -282.934E-03     234.556E-03
            1161     10.1770E-03     178.403E-03    -27.9745E+06     60.6728E+06     81.0680E+06     8.66945E+06    -296.918E-03     579.786E-03    -282.868E-03     269.231E-03    -304.326E-03     587.078E-03    -282.510E-03     236.238E-03
            1162     10.8579E-03     178.730E-03    -22.2635E+06     68.0927E+06     92.2794E+06     5.86348E+06    -304.807E-03     587.746E-03    -282.939E-03     269.839E-03    -312.555E-03     595.393E-03    -282.544E-03     234.414E-03
            1163     11.5291E-03     179.073E-03    -19.6868E+06     76.2610E+06     108.289E+06    -344.200E+03    -314.334E-03     597.902E-03    -283.567E-03     263.213E-03    -322.180E-03     605.638E-03    -283.108E-03     225.354E-03
            1164     12.1912E-03     179.419E-03    -17.3225E+06     54.5580E+06     106.134E+06     884.566E+03    -325.425E-03     610.139E-03    -284.714E-03     258.539E-03    -333.636E-03     618.178E-03    -284.237E-03     216.801E-03
            1165     12.8483E-03     179.785E-03    -6.93516E+06     74.9327E+06     114.588E+06     5.04316E+06    -333.843E-03     620.205E-03    -286.362E-03     220.513E-03    -340.282E-03     626.556E-03    -285.888E-03     182.723E-03
            1166     670.696E-06     177.396E-03    -131.589E+06    -218.042E+06    -130.478E+06    -230.080E+03    -292.202E-03     584.325E-03    -292.124E-03     29.8498E-03    -292.453E-03     583.704E-03    -292.269E-03     26.2103E-03
            1167     1.34249E-03     177.437E-03    -128.891E+06    -207.686E+06    -120.828E+06    -574.292E+03    -290.611E-03     582.279E-03    -291.668E-03     54.5135E-03    -291.062E-03     581.876E-03    -291.784E-03     48.1544E-03
            1168     2.01590E-03     177.503E-03    -124.231E+06    -193.097E+06    -106.850E+06    -1.24943E+06    -288.552E-03     579.260E-03    -290.708E-03     80.5965E-03    -289.326E-03     579.207E-03    -290.782E-03     71.3636E-03
            1169     2.69164E-03     177.595E-03    -118.157E+06    -176.832E+06    -89.1936E+06    -1.64742E+06    -286.059E-03     575.523E-03    -289.465E-03     106.694E-03    -287.264E-03     575.930E-03    -289.483E-03     94.7409E-03
            1170     3.37037E-03     177.711E-03    -110.526E+06    -158.722E+06    -69.6416E+06    -1.99368E+06    -283.401E-03     571.386E-03    -287.985E-03     132.575E-03    -285.133E-03     572.355E-03    -287.943E-03     118.084E-03
            1171     4.05176E-03     177.852E-03    -101.951E+06    -141.120E+06    -49.6591E+06    -2.07420E+06    -280.960E-03     567.302E-03    -286.342E-03     157.784E-03    -283.296E-03     568.910E-03    -286.237E-03     140.949E-03
            1172     4.73616E-03     178.017E-03    -93.2555E+06    -122.310E+06    -30.7278E+06    -2.23749E+06    -279.162E-03     563.781E-03    -284.620E-03     181.946E-03    -282.163E-03     566.099E-03    -284.461E-03     162.945E-03
            1173     5.42282E-03     178.205E-03    -84.5908E+06    -102.457E+06    -13.6770E+06    -2.97356E+06    -278.254E-03     561.167E-03    -282.912E-03     204.584E-03    -281.957E-03     564.239E-03    -282.710E-03     183.584E-03
            1174     6.11128E-03     178.416E-03    -75.4290E+06    -84.1621E+06     1.79908E+06    -3.79842E+06    -278.392E-03     559.699E-03    -281.308E-03     225.092E-03    -282.788E-03     563.519E-03    -281.067E-03     202.278E-03
            1175     6.80084E-03     178.649E-03    -65.9069E+06    -65.8443E+06     16.3086E+06    -3.45313E+06    -279.759E-03     559.642E-03    -279.883E-03     242.956E-03    -284.804E-03     564.169E-03    -279.611E-03     218.543E-03
            1176     7.49113E-03     178.902E-03    -56.6044E+06    -44.6843E+06     30.6662E+06    -1.43338E+06    -282.468E-03     561.182E-03    -278.713E-03     257.385E-03    -288.081E-03     566.345E-03    -278.413E-03     231.579E-03
            1177     8.18029E-03     179.174E-03    -48.8448E+06    -17.4877E+06     46.2116E+06     1.32673E+06    -286.700E-03     564.574E-03    -277.874E-03     267.991E-03    -292.787E-03     570.294E-03    -277.547E-03     240.909E-03
            1178     8.86724E-03     179.463E-03    -43.6917E+06     12.1133E+06     60.8652E+06     3.78736E+06    -292.628E-03     570.061E-03    -277.433E-03     274.959E-03    -299.118E-03     576.266E-03    -277.083E-03     246.504E-03
            1179     9.55024E-03     179.768E-03    -39.6547E+06     36.8913E+06     72.6382E+06     5.03712E+06    -300.245E-03     577.694E-03    -277.448E-03     278.722E-03    -307.086E-03     584.319E-03    -277.081E-03     248.575E-03
            1180     10.2287E-03     180.092E-03    -33.1669E+06     55.7799E+06     83.6689E+06     6.05231E+06    -309.479E-03     587.449E-03    -277.970E-03     279.361E-03    -316.637E-03     594.452E-03    -277.585E-03     247.028E-03
            1181     10.8983E-03     180.433E-03    -25.6316E+06     75.2825E+06     95.4276E+06     8.09146E+06    -320.219E-03     599.247E-03    -279.028E-03     278.487E-03    -327.777E-03     606.711E-03    -278.623E-03     243.181E-03
            1182     11.5623E-03     180.797E-03    -19.1772E+06     85.7372E+06     111.841E+06     9.81560E+06    -331.462E-03     612.127E-03    -280.665E-03     271.579E-03    -339.169E-03     619.753E-03    -280.202E-03     233.485E-03
            1183     12.2200E-03     181.160E-03    -12.7260E+06     63.6619E+06     106.911E+06     6.49305E+06    -342.098E-03     624.842E-03    -282.744E-03     264.709E-03    -350.254E-03     632.874E-03    -282.283E-03     221.889E-03
            1184     12.8677E-03     181.549E-03    -9.84990E+06     75.8173E+06     110.342E+06    -1.79021E+06    -349.891E-03     635.137E-03    -285.246E-03     223.667E-03    -356.293E-03     641.458E-03    -284.790E-03     184.757E-03
            1185     679.866E-06     179.078E-03    -129.158E+06    -215.912E+06    -127.427E+06    -287.723E+03    -278.955E-03     557.767E-03    -278.812E-03     33.3065E-03    -279.195E-03     557.130E-03    -278.949E-03     30.4242E-03
            1186     1.36053E-03     179.116E-03    -125.703E+06    -205.191E+06    -117.456E+06    -822.166E+03    -277.547E-03     555.942E-03    -278.394E-03     60.7089E-03    -277.961E-03     555.501E-03    -278.502E-03     55.6296E-03
            1187     2.04296E-03     179.177E-03    -120.048E+06    -191.463E+06    -102.130E+06    -730.001E+03    -275.804E-03     553.299E-03    -277.495E-03     89.5697E-03    -276.498E-03     553.163E-03    -277.554E-03     82.1873E-03
            1188     2.72750E-03     179.263E-03    -112.990E+06    -174.586E+06    -83.5334E+06    -435.478E+03    -273.929E-03     550.278E-03    -276.348E-03     118.245E-03    -275.003E-03     550.555E-03    -276.349E-03     108.626E-03
            1189     3.41428E-03     179.373E-03    -105.512E+06    -155.761E+06    -63.9846E+06    -469.137E+03    -272.306E-03     547.345E-03    -275.039E-03     146.325E-03    -273.853E-03     548.135E-03    -274.980E-03     134.541E-03
            1190     4.10376E-03     179.508E-03    -97.5337E+06    -137.710E+06    -44.5558E+06    -1.02666E+06    -271.357E-03     545.023E-03    -273.666E-03     173.441E-03    -273.457E-03     546.404E-03    -273.548E-03     159.555E-03
            1191     4.79503E-03     179.668E-03    -88.3871E+06    -118.355E+06    -25.8310E+06    -1.64300E+06    -271.413E-03     543.736E-03    -272.323E-03     199.241E-03    -274.129E-03     545.782E-03    -272.152E-03     183.309E-03
            1192     5.48773E-03     179.854E-03    -79.0892E+06    -98.9493E+06    -8.07380E+06    -1.32900E+06    -272.663E-03     543.766E-03    -271.102E-03     223.186E-03    -276.039E-03     546.525E-03    -270.885E-03     205.282E-03
            1193     6.18105E-03     180.065E-03    -71.7662E+06    -80.1587E+06     7.63534E+06    -640.688E+03    -275.327E-03     545.414E-03    -270.087E-03     244.629E-03    -279.384E-03     548.904E-03    -269.829E-03     224.828E-03
            1194     6.87416E-03     180.299E-03    -66.6139E+06    -63.6570E+06     20.7005E+06    -451.095E+03    -279.665E-03     549.029E-03    -269.364E-03     262.627E-03    -284.371E-03     553.211E-03    -269.072E-03     241.021E-03
            1195     7.56524E-03     180.557E-03    -62.6202E+06    -47.0476E+06     32.2068E+06     610.750E+03    -285.782E-03     554.804E-03    -269.021E-03     276.196E-03    -291.062E-03     559.603E-03    -268.701E-03     252.876E-03
            1196     8.25325E-03     180.836E-03    -58.7447E+06    -21.3305E+06     44.7982E+06     3.95088E+06    -293.655E-03     562.788E-03    -269.134E-03     285.226E-03    -299.422E-03     568.146E-03    -268.794E-03     260.248E-03
            1197     8.93658E-03     181.136E-03    -53.2155E+06     11.8679E+06     59.8289E+06     6.78937E+06    -303.306E-03     573.071E-03    -269.765E-03     290.006E-03    -309.472E-03     578.925E-03    -269.406E-03     263.258E-03
            1198     9.61391E-03     181.456E-03    -45.3699E+06     40.7787E+06     74.4279E+06     6.51244E+06    -314.518E-03     585.475E-03    -270.957E-03     291.005E-03    -321.037E-03     591.772E-03    -270.578E-03     262.031E-03
            1199     10.2829E-03     181.796E-03    -37.7495E+06     56.0877E+06      82.884E+06     4.58269E+06    -326.764E-03     599.473E-03    -272.709E-03     289.016E-03    -333.616E-03     606.160E-03    -272.321E-03     257.222E-03
            1200     10.9454E-03     182.158E-03    -30.1537E+06     67.6891E+06     89.9941E+06     3.87211E+06    -339.378E-03     614.382E-03    -275.004E-03     284.937E-03    -346.647E-03     621.534E-03    -274.608E-03     249.499E-03
            1201     11.5984E-03     182.540E-03    -20.6977E+06     81.8933E+06     103.922E+06     5.43141E+06    -350.870E-03     628.686E-03    -277.815E-03     274.298E-03    -358.334E-03     636.074E-03    -277.384E-03     235.408E-03
            1202     12.2381E-03     182.929E-03    -15.1017E+06     71.0018E+06     101.986E+06     2.46701E+06    -360.475E-03     641.451E-03    -280.976E-03     265.350E-03    -368.509E-03     649.393E-03    -280.547E-03     221.042E-03
            1203     12.8717E-03     183.329E-03    -7.02716E+06     83.8165E+06     111.006E+06    -29.3773E+03    -366.515E-03     650.926E-03    -284.411E-03     225.993E-03    -372.838E-03     657.205E-03    -283.968E-03     186.141E-03
            1204     692.332E-06     180.708E-03    -127.018E+06    -213.036E+06    -125.633E+06    -713.189E+03    -261.078E-03     521.586E-03    -260.508E-03     37.0135E-03    -261.304E-03     520.934E-03    -260.643E-03     34.9745E-03
            1205     1.38539E-03     180.743E-03    -123.911E+06    -202.408E+06    -114.701E+06    -812.619E+03    -260.201E-03     520.620E-03    -260.419E-03     67.5609E-03    -260.573E-03     520.132E-03    -260.519E-03     63.8744E-03
            1206     2.07959E-03     180.802E-03    -118.543E+06    -189.587E+06    -99.4781E+06    -1.12128E+06    -259.557E-03     519.394E-03    -259.837E-03     99.4708E-03    -260.162E-03     519.163E-03    -259.888E-03     94.0263E-03
            1207     2.77540E-03     180.884E-03    -111.560E+06    -173.728E+06    -81.4480E+06    -710.986E+03    -259.223E-03     518.349E-03    -259.126E-03     130.892E-03    -260.149E-03     518.471E-03    -259.119E-03     123.672E-03
            1208     3.47280E-03     180.991E-03    -103.007E+06    -153.815E+06    -61.4299E+06    -153.486E+03    -259.597E-03     517.968E-03    -258.371E-03     161.379E-03    -260.931E-03     518.547E-03    -258.306E-03     152.347E-03
            1209     4.17091E-03     181.125E-03    -93.8397E+06    -133.905E+06    -41.4386E+06    -306.974E+03    -260.997E-03     518.660E-03    -257.663E-03     190.648E-03    -262.823E-03     519.780E-03    -257.540E-03     179.735E-03
            1210     4.86973E-03     181.286E-03    -86.1483E+06    -116.610E+06    -23.6407E+06     413.542E+03    -263.688E-03     520.772E-03    -257.084E-03     218.170E-03    -266.081E-03     522.501E-03    -256.909E-03     205.338E-03
            1211     5.56841E-03     181.474E-03    -80.5459E+06    -100.501E+06    -7.72280E+06     2.99102E+06    -267.978E-03     524.702E-03    -256.724E-03     243.151E-03    -270.997E-03     527.093E-03    -256.500E-03     228.388E-03
            1212     6.26601E-03     181.690E-03    -75.9787E+06    -80.4818E+06     7.67381E+06     6.80979E+06    -274.214E-03     530.894E-03    -256.680E-03     264.823E-03    -277.890E-03     533.989E-03    -256.415E-03     248.108E-03
            1213     6.96076E-03     181.933E-03    -72.5507E+06    -60.7953E+06     22.0454E+06     9.99191E+06    -282.558E-03     539.616E-03    -257.058E-03     282.305E-03    -286.881E-03     543.404E-03    -256.754E-03     263.574E-03
            1214     7.65137E-03     182.203E-03    -69.5960E+06    -42.9274E+06     34.2228E+06     10.6491E+06    -292.958E-03     550.902E-03    -257.944E-03     294.725E-03    -297.868E-03     555.321E-03    -257.610E-03     273.882E-03
            1215     8.33588E-03     182.497E-03    -64.9153E+06    -19.1119E+06     45.7133E+06     9.24714E+06    -305.292E-03     564.696E-03    -259.403E-03     301.689E-03    -310.698E-03     569.682E-03    -259.053E-03     278.623E-03
            1216     9.01298E-03     182.816E-03    -56.9382E+06     18.6631E+06     61.1317E+06     6.57006E+06    -319.075E-03     580.556E-03    -261.481E-03     303.330E-03    -324.886E-03     586.069E-03    -261.120E-03     277.887E-03
            1217     9.68080E-03     183.158E-03    -47.7563E+06     46.4556E+06     71.9094E+06     2.59297E+06    -333.567E-03     597.734E-03    -264.167E-03     300.514E-03    -339.724E-03     603.694E-03    -263.806E-03     272.237E-03
            1218     10.3396E-03     183.522E-03    -38.7129E+06     54.6145E+06     76.2596E+06     903.541E+03    -348.079E-03     615.500E-03    -267.421E-03     294.301E-03    -354.541E-03     621.814E-03    -267.063E-03     262.707E-03
            1219     10.9866E-03     183.907E-03    -29.1603E+06     65.1187E+06     84.1187E+06     1.07851E+06    -361.471E-03     632.640E-03    -271.168E-03     287.158E-03    -368.356E-03     639.421E-03    -270.800E-03     251.462E-03
            1220     11.6228E-03     184.316E-03    -21.8868E+06     80.3775E+06     97.1379E+06    -1.03196E+06    -371.720E-03     646.994E-03    -275.274E-03     276.125E-03    -378.954E-03     654.163E-03    -274.873E-03     236.196E-03
            1221     12.2568E-03     184.721E-03    -13.2522E+06     76.0176E+06     99.7516E+06    -1.67624E+06    -378.980E-03     658.508E-03    -279.528E-03     266.729E-03    -386.844E-03     666.313E-03    -279.120E-03     221.159E-03
            1222     12.8842E-03     185.146E-03    -7.18774E+06       83.62E+06     106.743E+06    -1.59320E+06    -380.911E-03     664.708E-03    -283.798E-03     227.242E-03    -387.088E-03     670.852E-03    -283.375E-03     186.778E-03
            1223     708.405E-06     182.272E-03    -125.818E+06    -209.487E+06    -123.220E+06    -853.343E+03    -239.347E-03     477.558E-03    -238.210E-03     40.7568E-03    -239.565E-03     476.896E-03    -238.340E-03     39.4258E-03
            1224     1.41697E-03     182.308E-03    -121.740E+06    -199.858E+06    -113.358E+06    -997.847E+03    -239.487E-03     478.097E-03    -238.610E-03     74.2386E-03    -239.809E-03     477.563E-03    -238.711E-03     71.7996E-03
            1225     2.12574E-03     182.366E-03    -116.145E+06    -186.168E+06    -98.0665E+06    -1.04697E+06    -240.683E-03     479.272E-03    -238.589E-03     109.172E-03    -241.187E-03     478.949E-03    -238.641E-03     105.497E-03
            1226     2.83443E-03     182.449E-03    -109.063E+06    -171.975E+06    -79.9996E+06    -1.44129E+06    -242.743E-03     481.366E-03    -238.623E-03     143.395E-03    -243.501E-03     481.326E-03    -238.616E-03     138.367E-03
            1227     3.54278E-03     182.559E-03    -101.771E+06    -154.428E+06    -62.6409E+06    -60.8762E+03    -245.885E-03     484.631E-03    -238.746E-03     176.382E-03    -246.981E-03     484.974E-03    -238.688E-03     169.901E-03
            1228     4.25084E-03     182.698E-03    -96.4314E+06    -135.774E+06    -45.2425E+06     3.63336E+06    -250.463E-03     489.497E-03    -239.034E-03     207.667E-03    -251.991E-03     490.313E-03    -238.924E-03     199.628E-03
            1229     4.95752E-03     182.865E-03    -92.8960E+06    -120.626E+06    -27.4799E+06     8.15373E+06    -256.864E-03     496.447E-03    -239.583E-03     236.479E-03    -258.907E-03     497.801E-03    -239.411E-03     226.728E-03
            1230     5.66185E-03     183.063E-03    -89.6909E+06    -104.876E+06    -11.1172E+06     12.1011E+06    -265.389E-03     505.867E-03    -240.478E-03     261.918E-03    -268.012E-03     507.828E-03    -240.251E-03     250.268E-03
            1231     6.36212E-03     183.292E-03    -86.0892E+06    -85.0198E+06     3.61366E+06     15.4564E+06    -276.198E-03     518.009E-03    -241.811E-03     283.265E-03    -279.445E-03     520.641E-03    -241.544E-03     269.525E-03
            1232     7.05705E-03     183.553E-03    -80.5124E+06    -60.8085E+06     18.2646E+06     17.3107E+06    -289.279E-03     532.957E-03    -243.678E-03     299.534E-03    -293.156E-03     536.289E-03    -243.382E-03     283.468E-03
            1233     7.74457E-03     183.843E-03    -72.3414E+06    -35.5291E+06     32.9622E+06     16.0012E+06    -304.606E-03     550.774E-03    -246.168E-03     309.814E-03    -309.066E-03     554.771E-03    -245.847E-03     291.176E-03
            1234     8.42293E-03     184.163E-03    -62.9777E+06    -7.97539E+06     47.3214E+06     12.1991E+06    -321.664E-03     571.002E-03    -249.338E-03     313.784E-03    -326.630E-03     575.599E-03    -248.998E-03     292.325E-03
            1235     9.08987E-03     184.510E-03    -54.0112E+06     35.0835E+06     64.0072E+06     7.01061E+06    -339.210E-03     592.389E-03    -253.179E-03     311.920E-03    -344.627E-03     597.575E-03    -252.831E-03     287.398E-03
            1236     9.74575E-03     184.881E-03    -45.9550E+06     59.3036E+06     70.2161E+06     1.25205E+06    -356.409E-03     614.017E-03    -257.608E-03     305.543E-03    -362.178E-03     619.651E-03    -257.276E-03     277.648E-03
            1237     10.3893E-03     185.274E-03    -37.8581E+06     59.0139E+06     70.3616E+06    -3.73991E+06    -371.889E-03     634.421E-03    -262.532E-03     296.252E-03    -377.951E-03     640.372E-03    -262.211E-03     264.607E-03
            1238     11.0234E-03     185.689E-03    -29.4285E+06     63.7949E+06     77.4495E+06    -7.11027E+06    -383.986E-03     651.776E-03    -267.790E-03     286.610E-03    -390.484E-03     658.185E-03    -267.452E-03     250.458E-03
            1239     11.6525E-03     186.118E-03    -19.9495E+06     79.1510E+06     92.9634E+06    -6.10454E+06    -391.677E-03     664.857E-03    -273.180E-03     272.785E-03    -398.540E-03     671.670E-03    -272.801E-03     232.180E-03
            1240     12.2693E-03     186.545E-03    -12.6193E+06     72.5527E+06     95.1051E+06    -5.13372E+06    -394.542E-03     672.980E-03    -278.438E-03     262.221E-03    -402.058E-03     680.438E-03    -278.050E-03     216.042E-03
            1241     12.8817E-03     186.977E-03    -4.93115E+06     74.7737E+06     101.027E+06    -2.86291E+06    -390.533E-03     673.904E-03    -283.371E-03     225.421E-03    -396.503E-03     679.830E-03    -282.967E-03     184.588E-03
            1242     726.329E-06     183.764E-03    -121.796E+06    -204.432E+06    -121.409E+06    -1.75508E+06    -215.620E-03     429.453E-03    -213.833E-03     43.8210E-03    -215.814E-03     428.791E-03    -213.967E-03     43.0066E-03
            1243     1.45199E-03     183.802E-03    -119.500E+06    -197.667E+06    -113.344E+06    -1.93999E+06    -217.084E-03     431.879E-03    -214.795E-03     79.8536E-03    -217.353E-03     431.305E-03    -214.902E-03     78.3762E-03
            1244     2.17666E-03     183.865E-03    -116.215E+06    -185.729E+06    -103.130E+06    -383.745E+03    -220.470E-03     435.900E-03    -215.430E-03     117.524E-03    -220.871E-03     435.488E-03    -215.508E-03     115.278E-03
            1245     2.89982E-03     183.955E-03    -114.494E+06    -172.908E+06    -89.9841E+06     2.54318E+06    -225.405E-03     441.734E-03    -216.329E-03     154.323E-03    -226.012E-03     441.548E-03    -216.362E-03     151.192E-03
            1246     3.62094E-03     184.074E-03    -114.207E+06    -159.957E+06    -73.4908E+06     6.69853E+06    -232.136E-03     449.673E-03    -217.538E-03     189.475E-03    -233.027E-03     449.780E-03    -217.507E-03     185.303E-03
            1247     4.33898E-03     184.223E-03    -112.760E+06    -144.720E+06    -55.6846E+06     12.0356E+06    -240.977E-03     460.077E-03    -219.100E-03     222.073E-03    -242.226E-03     460.558E-03    -219.005E-03     216.676E-03
            1248     5.05295E-03     184.405E-03    -109.220E+06    -128.031E+06    -37.3433E+06     16.4636E+06    -252.181E-03     473.272E-03    -221.090E-03     251.300E-03    -253.866E-03     474.217E-03    -220.933E-03     244.377E-03
            1249     5.76121E-03     184.622E-03    -103.514E+06    -108.345E+06    -20.1337E+06     18.2953E+06    -265.898E-03     489.480E-03    -223.582E-03     276.306E-03    -268.095E-03     490.987E-03    -223.375E-03     267.477E-03
            1250     6.46244E-03     184.874E-03    -94.6859E+06    -86.0623E+06    -3.74927E+06     17.4568E+06    -282.017E-03     508.671E-03    -226.654E-03     296.103E-03    -284.781E-03     510.817E-03    -226.410E-03     284.967E-03
            1251     7.15474E-03     185.160E-03    -83.0667E+06    -57.7071E+06     12.6776E+06     14.6674E+06    -300.313E-03     530.683E-03    -230.370E-03     309.862E-03    -303.672E-03     533.526E-03    -230.103E-03     296.021E-03
            1252     7.83630E-03     185.482E-03    -70.5284E+06    -28.7225E+06     28.4057E+06     11.0836E+06    -320.403E-03     555.186E-03    -234.783E-03     317.149E-03    -324.328E-03     558.701E-03    -234.497E-03     300.304E-03
            1253     8.50495E-03     185.837E-03    -57.9196E+06      539.26E+03     44.0557E+06     7.73172E+06    -341.175E-03     581.072E-03    -239.897E-03     317.943E-03    -345.607E-03     585.199E-03    -239.594E-03     297.830E-03
            1254     9.16081E-03     186.220E-03    -45.7780E+06     46.2316E+06     63.2167E+06     6.26365E+06    -361.376E-03     607.019E-03    -245.644E-03     313.023E-03    -366.269E-03     611.758E-03    -245.328E-03     289.423E-03
            1255     9.80311E-03     186.628E-03    -35.7058E+06     71.0090E+06     70.8632E+06     5.25951E+06    -379.928E-03     631.807E-03    -251.879E-03     304.087E-03    -385.177E-03     637.000E-03    -251.576E-03     276.801E-03
            1256     10.4335E-03     187.057E-03    -28.5473E+06     79.2792E+06     75.0926E+06     725.896E+03    -394.746E-03     653.197E-03    -258.452E-03     292.317E-03    -400.356E-03     658.790E-03    -258.150E-03     260.761E-03
            1257     11.0540E-03     187.496E-03    -23.0513E+06     79.1506E+06     82.6935E+06    -5.67533E+06    -404.786E-03     669.927E-03    -265.141E-03     280.531E-03    -410.837E-03     675.951E-03    -264.809E-03     244.247E-03
            1258     11.6632E-03     187.949E-03    -18.2319E+06     67.6341E+06     88.9277E+06    -7.67274E+06    -408.263E-03     679.914E-03    -271.651E-03     267.664E-03    -414.655E-03     686.230E-03    -271.278E-03     227.184E-03
            1259     12.2739E-03     188.387E-03    -11.4644E+06     65.3847E+06     94.9171E+06    -6.07044E+06    -405.227E-03     682.897E-03    -277.670E-03     259.797E-03    -412.334E-03     689.922E-03    -277.274E-03     214.237E-03
            1260     12.8909E-03     188.820E-03    -5.70125E+06     70.3430E+06     103.486E+06    -7.10574E+06    -397.738E-03     680.797E-03    -283.059E-03     224.740E-03    -403.460E-03     686.450E-03    -282.635E-03     184.526E-03
            1261     744.481E-06     185.184E-03    -130.970E+06    -205.050E+06    -128.303E+06     2.09546E+06    -192.119E-03     381.825E-03    -189.706E-03     46.1922E-03    -192.330E-03     381.172E-03    -189.861E-03     45.8296E-03
            1262     1.48780E-03     185.227E-03    -136.181E+06    -200.437E+06    -129.406E+06     5.16419E+06    -195.009E-03     386.197E-03    -191.189E-03     84.1145E-03    -195.288E-03     385.616E-03    -191.348E-03     83.4619E-03
            1263     2.22881E-03     185.299E-03    -141.733E+06    -189.381E+06    -125.325E+06     7.33309E+06    -200.798E-03     393.315E-03    -192.517E-03     123.522E-03    -201.194E-03     392.865E-03    -192.664E-03     122.466E-03
            1264     2.96661E-03     185.400E-03    -143.736E+06    -181.011E+06    -112.548E+06     10.4797E+06    -209.077E-03     403.461E-03    -194.384E-03     161.550E-03    -209.621E-03     403.154E-03    -194.476E-03     159.974E-03
            1265     3.69976E-03     185.535E-03    -140.804E+06    -168.403E+06    -91.9867E+06     14.1784E+06    -220.118E-03     416.944E-03    -196.826E-03     197.315E-03    -220.856E-03     416.836E-03    -196.837E-03     195.040E-03
            1266     4.42680E-03     185.704E-03    -133.913E+06    -152.188E+06    -70.3780E+06     15.7828E+06    -233.989E-03     433.854E-03    -199.865E-03     229.789E-03    -234.980E-03     434.028E-03    -199.802E-03     226.512E-03
            1267     5.14622E-03     185.910E-03    -123.199E+06    -132.091E+06    -50.4729E+06     15.2562E+06    -250.588E-03     454.118E-03    -203.529E-03     258.013E-03    -251.904E-03     454.679E-03    -203.412E-03     253.333E-03
            1268     5.85661E-03     186.154E-03    -108.898E+06    -106.589E+06    -31.1849E+06     12.3474E+06    -269.834E-03     477.696E-03    -207.862E-03     281.127E-03    -271.553E-03     478.756E-03    -207.706E-03     274.577E-03
            1269     6.55578E-03     186.439E-03    -92.8296E+06    -82.8977E+06    -12.9759E+06     8.02855E+06    -291.329E-03     504.240E-03    -212.911E-03     298.093E-03    -293.526E-03     505.873E-03    -212.721E-03     289.136E-03
            1270     7.24227E-03     186.762E-03    -77.9197E+06    -54.4647E+06     4.85010E+06     5.42975E+06    -314.407E-03     533.092E-03    -218.685E-03     308.720E-03    -317.143E-03     535.373E-03    -218.469E-03     296.888E-03
            1271     7.91461E-03     187.125E-03    -65.1747E+06    -22.1691E+06     22.1811E+06     2.80103E+06    -338.056E-03     563.211E-03    -225.156E-03     312.830E-03    -341.342E-03     566.154E-03    -224.918E-03     297.739E-03
            1272     8.57289E-03     187.521E-03    -54.7367E+06     5.12120E+06     37.3423E+06    -221.323E+03    -361.013E-03     593.264E-03    -232.251E-03     310.385E-03    -364.799E-03     596.796E-03    -231.992E-03     291.745E-03
            1273     9.21620E-03     187.948E-03    -46.7769E+06     42.4185E+06     54.1678E+06     225.302E+03    -382.070E-03     621.912E-03    -239.841E-03     302.854E-03    -386.314E-03     626.011E-03    -239.564E-03     280.499E-03
            1274     9.84564E-03     188.398E-03    -40.3922E+06     73.2969E+06     64.6075E+06     611.264E+03    -399.705E-03     647.428E-03    -247.723E-03     292.178E-03    -404.342E-03     652.018E-03    -247.448E-03     265.925E-03
            1275     10.4631E-03     188.862E-03    -33.1481E+06     93.3896E+06     74.7131E+06    -3.79354E+06    -412.395E-03     668.081E-03    -255.686E-03     280.451E-03    -417.434E-03     673.135E-03    -255.400E-03     249.832E-03
            1276     11.0705E-03     189.332E-03    -25.4453E+06     88.2721E+06     84.4594E+06    -7.83406E+06    -418.894E-03     682.357E-03    -263.463E-03     270.637E-03    -424.370E-03     687.820E-03    -263.132E-03     235.495E-03
            1277     11.6785E-03     189.801E-03    -18.2715E+06     63.5878E+06     91.0020E+06    -11.0919E+06    -417.766E-03     688.501E-03    -270.736E-03     258.882E-03    -423.593E-03     694.229E-03    -270.346E-03     219.664E-03
            1278     12.2863E-03     190.240E-03    -10.7154E+06     62.0317E+06     99.8930E+06    -12.7682E+06    -411.594E-03     688.857E-03    -277.263E-03     248.657E-03    -418.074E-03     695.231E-03    -276.838E-03     204.522E-03
            1279     12.8914E-03     190.674E-03    -2.21341E+06     61.6089E+06     109.975E+06    -6.45651E+06    -400.230E-03     683.192E-03    -282.962E-03     214.319E-03    -405.462E-03     688.314E-03    -282.498E-03     175.408E-03
            1280     761.287E-06     186.539E-03    -180.883E+06    -223.708E+06    -175.673E+06     10.0240E+06    -171.930E-03     340.428E-03    -168.498E-03     46.0285E-03    -172.274E-03     339.818E-03    -168.790E-03     46.0558E-03
            1281     1.52036E-03     186.590E-03    -180.850E+06    -213.938E+06    -167.559E+06     15.3859E+06    -176.011E-03     346.765E-03    -170.754E-03     83.9928E-03    -176.392E-03     346.206E-03    -171.019E-03     83.9946E-03
            1282     2.27590E-03     186.673E-03    -178.263E+06    -194.563E+06    -151.122E+06     16.4330E+06    -184.354E-03     357.192E-03    -172.839E-03     123.043E-03    -184.797E-03     356.732E-03    -173.054E-03     122.888E-03
            1283     3.02579E-03     186.792E-03    -171.221E+06    -185.659E+06    -129.710E+06     13.4390E+06    -196.210E-03     371.962E-03    -175.752E-03     160.597E-03    -196.712E-03     371.563E-03    -175.883E-03     160.111E-03
            1284     3.76830E-03     186.949E-03    -159.621E+06    -173.117E+06    -108.956E+06     10.7515E+06    -211.629E-03     391.110E-03    -179.481E-03     195.288E-03    -212.211E-03     390.825E-03    -179.543E-03     194.305E-03
            1285     4.50148E-03     187.146E-03    -144.780E+06    -152.016E+06    -87.5668E+06     7.73205E+06    -230.355E-03     414.402E-03    -184.047E-03     225.803E-03    -231.078E-03     414.333E-03    -184.055E-03     224.015E-03
            1286     5.22341E-03     187.384E-03    -128.037E+06    -126.874E+06    -66.0628E+06     1.23139E+06    -252.097E-03     441.559E-03    -189.463E-03     251.193E-03    -253.040E-03     441.806E-03    -189.423E-03     248.149E-03
            1287     5.93225E-03     187.666E-03    -111.487E+06    -101.888E+06    -46.2690E+06    -5.11344E+06    -276.200E-03     471.914E-03    -195.714E-03     270.532E-03    -277.444E-03     472.558E-03    -195.636E-03     265.775E-03
            1288     6.62677E-03     187.991E-03    -98.0879E+06    -79.9455E+06    -28.7865E+06    -9.56969E+06    -301.814E-03     504.582E-03    -202.768E-03     283.221E-03    -303.442E-03     505.689E-03    -202.654E-03     276.245E-03
            1289     7.30552E-03     188.360E-03    -86.5055E+06    -56.7984E+06    -11.4746E+06    -12.8613E+06    -327.971E-03     538.529E-03    -210.559E-03     289.544E-03    -330.041E-03     540.155E-03    -210.408E-03     279.842E-03
            1290     7.96832E-03     188.769E-03    -75.6156E+06    -24.8416E+06     6.56976E+06    -13.7206E+06    -353.271E-03     572.239E-03    -218.967E-03     289.600E-03    -355.810E-03     574.433E-03    -218.789E-03     276.764E-03
            1291     8.61442E-03     189.214E-03    -65.9144E+06     2.15870E+06     23.3098E+06    -14.0123E+06    -376.366E-03     604.211E-03    -227.845E-03     284.413E-03    -379.353E-03     606.933E-03    -227.636E-03     268.048E-03
            1292     9.24541E-03     189.686E-03    -55.7195E+06     25.9619E+06     40.1557E+06    -11.9547E+06    -395.914E-03     632.896E-03    -236.982E-03     276.229E-03    -399.311E-03     636.095E-03    -236.738E-03     256.109E-03
            1293     9.86359E-03     190.178E-03    -43.8041E+06     68.4595E+06     58.4964E+06    -9.51329E+06    -410.513E-03     656.603E-03    -246.090E-03     267.059E-03    -414.324E-03     660.350E-03    -245.833E-03     242.996E-03
            1294     10.4723E-03     190.679E-03    -32.7887E+06     101.588E+06     76.4123E+06    -10.4120E+06    -419.455E-03     674.383E-03    -254.928E-03     258.348E-03    -423.698E-03     678.662E-03    -254.646E-03     230.066E-03
            1295     11.0775E-03     191.175E-03    -24.3991E+06     89.8497E+06     89.2134E+06    -12.0961E+06    -422.333E-03     685.613E-03    -263.280E-03     249.620E-03    -427.032E-03     690.293E-03    -262.929E-03     216.737E-03
            1296     11.6778E-03     191.652E-03    -16.6661E+06     74.1132E+06     102.809E+06    -13.9947E+06    -419.248E-03     690.167E-03    -270.920E-03     237.706E-03    -424.306E-03     695.136E-03    -270.489E-03     200.790E-03
            1297     12.2775E-03     192.101E-03    -11.2701E+06     59.1984E+06     110.704E+06    -13.5042E+06    -410.281E-03     687.913E-03    -277.632E-03     231.131E-03    -415.993E-03     693.473E-03    -277.148E-03     189.649E-03
            1298     12.8841E-03     192.530E-03    -7.25093E+06     37.7863E+06     116.702E+06    -7.45630E+06    -394.067E-03     677.326E-03    -283.259E-03     204.322E-03    -398.845E-03     681.870E-03    -282.719E-03     167.435E-03
            1299     772.236E-06     187.844E-03    -290.161E+06    -240.512E+06    -282.626E+06     2.12504E+06    -159.299E-03     314.073E-03    -154.774E-03     41.0984E-03    -159.992E-03     313.695E-03    -155.417E-03     41.1837E-03
            1300     1.54235E-03     187.905E-03    -270.034E+06    -221.328E+06    -252.783E+06    -1.61270E+06    -164.040E-03     321.946E-03    -157.906E-03     75.0400E-03    -164.700E-03     321.589E-03    -158.458E-03     75.0930E-03
            1301     2.30710E-03     188.003E-03    -244.426E+06    -197.310E+06    -214.299E+06    -4.90817E+06    -174.152E-03     334.828E-03    -160.676E-03     109.940E-03    -174.773E-03     334.500E-03    -161.107E-03     109.939E-03
            1302     3.06470E-03     188.143E-03    -217.968E+06    -180.725E+06    -178.753E+06    -10.0349E+06    -188.577E-03     353.070E-03    -164.493E-03     143.466E-03    -189.151E-03     352.750E-03    -164.809E-03     143.314E-03
            1303     3.81203E-03     188.328E-03    -191.559E+06    -169.659E+06    -147.222E+06    -17.8182E+06    -207.054E-03     376.444E-03    -169.390E-03     173.910E-03    -207.591E-03     376.134E-03    -169.602E-03     173.441E-03
            1304     4.54697E-03     188.558E-03    -165.525E+06    -149.573E+06    -118.762E+06    -24.3149E+06    -229.166E-03     404.506E-03    -175.340E-03     199.829E-03    -229.719E-03     404.300E-03    -175.477E-03     198.823E-03
            1305     5.26738E-03     188.835E-03    -142.149E+06    -120.608E+06    -92.5262E+06    -28.9972E+06    -254.271E-03     436.591E-03    -182.320E-03     220.059E-03    -254.923E-03     436.598E-03    -182.402E-03     218.200E-03
            1306     5.97132E-03     189.161E-03    -122.791E+06    -103.028E+06    -68.8388E+06    -31.4208E+06    -281.231E-03     471.521E-03    -190.290E-03     233.607E-03    -282.043E-03     471.754E-03    -190.307E-03     230.504E-03
            1307     6.65769E-03     189.533E-03    -105.302E+06    -83.2171E+06    -46.0508E+06    -31.2746E+06    -308.729E-03     507.844E-03    -199.114E-03     240.364E-03    -309.762E-03     508.366E-03    -199.071E-03     235.598E-03
            1308     7.32627E-03     189.951E-03    -88.6086E+06    -61.3962E+06    -22.5499E+06    -29.6026E+06    -335.365E-03     544.001E-03    -208.636E-03     240.995E-03    -336.665E-03     544.860E-03    -208.531E-03     234.073E-03
            1309     7.97685E-03     190.409E-03    -73.1494E+06    -35.5515E+06     99.8077E+03     -26.122E+06    -359.409E-03     578.032E-03    -218.623E-03     236.794E-03    -361.005E-03     579.266E-03    -218.465E-03     227.264E-03
            1310     8.61190E-03     190.902E-03    -58.4484E+06    -6.84730E+06     21.1660E+06    -21.0921E+06    -379.500E-03     608.295E-03    -228.796E-03     230.157E-03    -381.417E-03     609.941E-03    -228.595E-03     217.536E-03
            1311     9.23362E-03     191.420E-03    -44.7441E+06     13.8799E+06     40.6901E+06    -17.6340E+06    -394.729E-03     633.592E-03    -238.863E-03     223.412E-03    -396.981E-03     635.635E-03    -238.615E-03     207.256E-03
            1312     9.84575E-03     191.951E-03    -32.6946E+06     57.4410E+06     63.8437E+06    -14.9688E+06    -404.591E-03     653.102E-03    -248.510E-03     217.899E-03    -407.262E-03     655.690E-03    -248.227E-03     197.827E-03
            1313     10.4526E-03     192.483E-03    -23.0007E+06     96.8313E+06     87.1010E+06    -9.72460E+06    -409.414E-03     666.929E-03    -257.515E-03     213.728E-03    -412.561E-03     670.097E-03    -257.186E-03     189.490E-03
            1314     11.0541E-03     193.002E-03    -16.3991E+06     97.2301E+06     105.735E+06    -4.42662E+06    -409.849E-03     675.582E-03    -265.733E-03     211.428E-03    -413.511E-03     679.235E-03    -265.321E-03     182.764E-03
            1315     11.6564E-03     193.498E-03    -12.2361E+06     92.2351E+06     122.713E+06    -5.08282E+06    -404.995E-03     677.983E-03    -272.987E-03     210.272E-03    -409.232E-03     682.154E-03    -272.490E-03     177.226E-03
            1316     12.2635E-03     193.952E-03    -6.94409E+06     64.3488E+06     131.251E+06    -4.72356E+06    -393.607E-03     672.720E-03    -279.114E-03     211.346E-03    -398.620E-03     677.557E-03    -278.541E-03     173.570E-03
            1317     12.8833E-03     194.355E-03    -1.33140E+06     23.5009E+06     139.049E+06    -2.37098E+06    -376.084E-03     660.110E-03    -284.026E-03     190.303E-03    -380.334E-03     664.033E-03    -283.363E-03     156.692E-03
            1318     773.540E-06     189.130E-03    -328.222E+06    -214.328E+06    -327.926E+06    -19.4859E+06    -159.525E-03     316.098E-03    -156.573E-03     27.4056E-03    -160.387E-03     315.969E-03    -157.426E-03     27.1312E-03
            1319     1.54294E-03     189.199E-03    -311.723E+06    -196.625E+06    -298.014E+06    -32.2814E+06    -164.922E-03     324.256E-03    -159.334E-03     50.6031E-03    -165.770E-03     324.146E-03    -160.087E-03     50.1888E-03
            1320     2.30780E-03     189.313E-03    -287.821E+06    -179.431E+06    -260.140E+06    -43.0260E+06    -175.082E-03     337.726E-03    -162.644E-03     73.4422E-03    -175.889E-03     337.610E-03    -163.267E-03     72.8875E-03
            1321     3.06347E-03     189.475E-03    -258.422E+06    -161.474E+06    -221.241E+06    -53.6242E+06    -189.101E-03     356.314E-03    -167.213E-03     94.2373E-03    -189.845E-03     356.192E-03    -167.711E-03     93.4857E-03
            1322     3.80782E-03     189.687E-03    -228.660E+06    -152.509E+06    -187.416E+06    -64.3042E+06    -206.686E-03     379.702E-03    -173.016E-03     112.148E-03    -207.355E-03     379.546E-03    -173.400E-03     111.105E-03
            1323     4.53780E-03     189.952E-03    -201.456E+06    -141.041E+06    -158.546E+06    -73.4678E+06    -227.393E-03     407.402E-03    -180.009E-03     126.073E-03    -228.011E-03     407.252E-03    -180.305E-03     124.642E-03
            1324     5.25084E-03     190.270E-03    -176.569E+06    -122.820E+06    -132.767E+06    -78.1115E+06    -250.290E-03     438.412E-03    -188.121E-03     135.175E-03    -250.892E-03     438.328E-03    -188.351E-03     133.260E-03
            1325     5.94546E-03     190.640E-03    -153.212E+06    -115.038E+06    -109.611E+06    -79.0785E+06    -274.368E-03     471.618E-03    -197.250E-03     138.977E-03    -274.963E-03     471.576E-03    -197.409E-03     136.427E-03
            1326     6.62058E-03     191.059E-03    -132.037E+06    -104.761E+06    -87.1955E+06    -78.4717E+06    -298.236E-03     505.437E-03    -207.201E-03     137.958E-03    -298.857E-03     505.472E-03    -207.293E-03     134.532E-03
            1327     7.27632E-03     191.525E-03    -114.053E+06    -93.8404E+06    -65.7462E+06    -75.1981E+06    -320.067E-03     537.766E-03    -217.699E-03     133.693E-03    -320.749E-03     537.908E-03    -217.726E-03     129.071E-03
            1328     7.91511E-03     192.031E-03    -98.5600E+06    -75.8640E+06    -41.8948E+06    -71.7968E+06    -338.312E-03     566.697E-03    -228.386E-03     128.505E-03    -339.098E-03     566.998E-03    -228.342E-03     122.317E-03
            1329     8.53995E-03     192.565E-03    -84.6036E+06    -57.6478E+06    -15.8095E+06    -67.0321E+06    -352.343E-03     591.217E-03    -238.874E-03     124.978E-03    -353.269E-03     591.702E-03    -238.747E-03     116.793E-03
            1330     9.15534E-03     193.120E-03    -71.6056E+06    -31.7011E+06     13.2388E+06    -61.6264E+06    -362.008E-03     610.805E-03    -248.797E-03     124.639E-03    -363.137E-03     611.553E-03    -248.581E-03     113.924E-03
            1331     9.76580E-03     193.681E-03    -56.8764E+06     1.85208E+06     48.8618E+06    -53.4675E+06    -367.762E-03     625.650E-03    -257.888E-03     128.316E-03    -369.172E-03     626.751E-03    -257.564E-03     114.601E-03
            1332     10.3736E-03     194.239E-03    -42.7989E+06     33.4220E+06     81.6156E+06    -36.7121E+06    -369.925E-03     635.842E-03    -265.917E-03     136.303E-03    -371.715E-03     637.392E-03    -265.495E-03     119.110E-03
            1333     10.9857E-03     194.780E-03    -29.5749E+06     60.5160E+06     114.545E+06    -20.2051E+06    -367.748E-03     640.495E-03    -272.747E-03     149.316E-03    -370.092E-03     642.646E-03    -272.219E-03     127.976E-03
            1334     11.6033E-03     195.292E-03    -16.1873E+06     77.9478E+06     145.025E+06    -6.65609E+06    -360.917E-03     639.173E-03    -278.255E-03     165.327E-03    -364.016E-03     642.095E-03    -277.620E-03     139.352E-03
            1335     12.2299E-03     195.747E-03    -7.00768E+06     62.7678E+06     158.318E+06     930.941E+03    -351.899E-03     634.331E-03    -282.432E-03     184.023E-03    -356.029E-03     638.218E-03    -281.721E-03     152.779E-03
            1336     12.8580E-03     196.150E-03    -4.06395E+06     27.5158E+06     167.498E+06     3.31744E+06    -341.641E-03     627.169E-03    -285.528E-03     178.838E-03    -345.429E-03     630.561E-03    -284.725E-03     150.131E-03
            1337     756.073E-06     190.441E-03    -252.374E+06    -148.956E+06    -243.267E+06    -21.4650E+06    -185.196E-03     365.783E-03    -180.587E-03     2.87871E-03    -185.961E-03     365.683E-03    -181.221E-03     2.48538E-03
            1338     1.51057E-03     190.517E-03    -247.251E+06    -140.873E+06    -233.349E+06    -39.5669E+06    -188.979E-03     374.403E-03    -185.424E-03    -2.71835E-03    -189.758E-03     374.288E-03    -186.027E-03    -3.68353E-03
            1339     2.25646E-03     190.645E-03    -233.598E+06    -129.891E+06    -207.995E+06    -56.5539E+06    -195.517E-03     385.354E-03    -189.837E-03    -9.00026E-03    -196.258E-03     385.208E-03    -190.350E-03    -10.6531E-03
            1340     2.99277E-03     190.824E-03    -215.727E+06    -117.515E+06    -180.978E+06    -71.1439E+06    -203.170E-03     398.517E-03    -195.347E-03    -16.4349E-03    -203.841E-03     398.328E-03    -195.769E-03    -18.8037E-03
            1341     3.71643E-03     191.058E-03    -197.030E+06    -113.313E+06    -158.063E+06    -82.1201E+06    -211.971E-03     413.943E-03    -201.972E-03    -24.8853E-03    -212.537E-03     413.668E-03    -202.312E-03    -27.9271E-03
            1342     4.42491E-03     191.348E-03    -178.410E+06    -108.975E+06    -137.481E+06    -91.0152E+06    -221.509E-03     431.200E-03    -209.691E-03    -34.4158E-03    -221.960E-03     430.842E-03    -209.962E-03    -38.0576E-03
            1343     5.11680E-03     191.694E-03    -161.762E+06    -103.441E+06    -118.657E+06    -97.0780E+06    -231.206E-03     449.620E-03    -218.413E-03    -45.1840E-03    -231.546E-03     449.185E-03    -218.622E-03    -49.3811E-03
            1344     5.79093E-03     192.095E-03    -147.570E+06    -102.101E+06    -102.525E+06    -100.346E+06    -240.307E-03     468.268E-03    -227.961E-03    -56.6485E-03    -240.528E-03     467.741E-03    -228.111E-03    -61.3697E-03
            1345     6.44710E-03     192.548E-03    -134.931E+06    -101.086E+06    -86.5523E+06    -101.913E+06    -247.876E-03     485.911E-03    -238.035E-03    -67.0186E-03    -247.986E-03     485.304E-03    -238.125E-03    -72.2398E-03
            1346     7.08724E-03     193.047E-03    -123.900E+06    -101.179E+06    -70.1993E+06    -101.860E+06    -253.213E-03     501.423E-03    -248.210E-03    -73.8749E-03    -253.237E-03     500.761E-03    -248.234E-03    -79.5892E-03
            1347     7.71519E-03     193.583E-03    -113.384E+06    -92.5616E+06    -49.7432E+06    -100.270E+06    -256.304E-03     514.305E-03    -258.001E-03    -75.0565E-03    -256.298E-03     513.666E-03    -257.951E-03    -81.2436E-03
            1348     8.33611E-03     194.146E-03    -101.674E+06    -81.9932E+06    -23.3865E+06    -98.0050E+06    -257.887E-03     524.865E-03    -266.978E-03    -69.0935E-03    -257.901E-03     524.296E-03    -266.829E-03    -75.8391E-03
            1349     8.95461E-03     194.725E-03    -89.3311E+06    -67.6794E+06     5.47754E+06    -92.0975E+06    -258.848E-03     533.615E-03    -274.767E-03    -55.4083E-03    -258.939E-03     533.182E-03    -274.512E-03    -62.9035E-03
            1350     9.57465E-03     195.310E-03    -78.5042E+06    -48.1230E+06     38.1121E+06    -82.1338E+06    -259.840E-03     540.945E-03    -281.105E-03    -33.1330E-03    -260.094E-03     540.731E-03    -280.731E-03    -41.5663E-03
            1351     10.2020E-03     195.890E-03    -67.5522E+06    -38.2613E+06     65.3051E+06    -67.7806E+06    -261.020E-03     546.775E-03    -285.755E-03    -798.576E-06    -261.515E-03     546.836E-03    -285.275E-03    -10.6038E-03
            1352     10.8372E-03     196.449E-03    -56.0990E+06    -6.21948E+06     98.1977E+06    -51.9904E+06    -261.764E-03     550.356E-03    -288.592E-03     41.3680E-03    -262.696E-03     550.929E-03    -288.011E-03     29.4586E-03
            1353     11.4887E-03     196.967E-03    -40.8918E+06     18.0844E+06     134.249E+06    -36.9539E+06    -262.615E-03     552.323E-03    -289.709E-03     89.7642E-03    -264.154E-03     553.519E-03    -289.004E-03     75.2101E-03
            1354     12.1561E-03     197.440E-03    -26.2146E+06     18.4579E+06     154.288E+06    -11.7083E+06    -265.733E-03     555.194E-03    -289.461E-03     140.222E-03    -268.297E-03     557.362E-03    -288.679E-03     121.458E-03
            1355     12.8439E-03     197.854E-03    -2.80519E+06     28.2773E+06     177.271E+06     1.40133E+06    -272.215E-03     560.798E-03    -288.583E-03     169.231E-03    -275.382E-03     563.575E-03    -287.734E-03     148.271E-03
            1356     716.255E-06     191.860E-03    -146.461E+06    -81.8522E+06    -139.095E+06    -16.5289E+06    -255.828E-03     519.984E-03    -264.156E-03    -78.9929E-03    -256.867E-03     519.131E-03    -264.520E-03    -80.6360E-03
            1357     1.41947E-03     191.949E-03    -137.923E+06    -72.7185E+06    -125.966E+06    -32.0809E+06    -253.015E-03     518.191E-03    -265.175E-03    -137.777E-03    -253.791E-03     517.232E-03    -265.500E-03    -140.779E-03
            1358     2.11535E-03     192.084E-03    -127.251E+06    -67.3822E+06    -106.411E+06    -45.1632E+06    -245.458E-03     514.507E-03    -269.049E-03    -196.712E-03    -245.881E-03     513.305E-03    -269.299E-03    -201.085E-03
            1359     2.80137E-03     192.270E-03    -117.032E+06    -63.4491E+06    -88.1748E+06    -53.6286E+06    -234.771E-03     508.864E-03    -274.094E-03    -250.576E-03    -234.819E-03     507.367E-03    -274.273E-03    -255.982E-03
            1360     3.47547E-03     192.509E-03    -107.638E+06    -63.4287E+06    -70.4021E+06    -58.8393E+06    -220.994E-03     501.193E-03    -280.198E-03    -298.229E-03    -220.672E-03     499.384E-03    -280.302E-03    -304.330E-03
            1361     4.13662E-03     192.801E-03    -99.1568E+06    -61.2173E+06    -53.3803E+06    -62.7466E+06    -204.240E-03     491.410E-03    -287.171E-03    -337.919E-03    -203.577E-03     489.339E-03    -287.205E-03    -344.423E-03
            1362     4.78310E-03     193.148E-03    -91.2263E+06    -57.4652E+06     -37.044E+06    -64.4686E+06    -185.156E-03     479.911E-03    -294.755E-03    -367.543E-03    -184.188E-03     477.651E-03    -294.725E-03    -374.260E-03
            1363     5.41474E-03     193.547E-03    -83.8235E+06    -55.8650E+06    -19.9962E+06    -63.9839E+06    -164.662E-03     467.267E-03    -302.605E-03    -385.089E-03    -163.452E-03     464.900E-03    -302.502E-03    -391.863E-03
            1364     6.03419E-03     193.994E-03    -75.9643E+06    -53.4362E+06    -1.43740E+06    -62.8753E+06    -143.831E-03     454.081E-03    -310.250E-03    -389.187E-03    -142.468E-03     451.708E-03    -310.070E-03    -395.902E-03
            1365     6.64657E-03     194.482E-03    -68.1825E+06    -52.6625E+06     18.0290E+06    -59.6548E+06    -123.922E-03     441.107E-03    -317.184E-03    -380.097E-03    -122.502E-03     438.814E-03    -316.919E-03    -386.627E-03
            1366     7.25746E-03     195.006E-03    -58.8871E+06    -47.9728E+06     38.9936E+06    -57.4203E+06    -106.162E-03     429.089E-03    -322.927E-03    -358.944E-03    -104.788E-03     426.985E-03    -322.577E-03    -365.204E-03
            1367     7.87276E-03     195.557E-03    -50.4886E+06    -38.9611E+06     60.3041E+06    -54.1875E+06    -91.6339E-03     418.716E-03    -327.082E-03    -327.131E-03    -90.4161E-03     416.909E-03    -326.651E-03    -333.024E-03
            1368     8.49824E-03     196.130E-03    -43.9792E+06    -33.4703E+06     79.3785E+06    -50.9798E+06    -81.0192E-03     410.357E-03    -329.338E-03    -285.820E-03    -80.0283E-03     408.890E-03    -328.828E-03    -291.329E-03
            1369     9.14129E-03     196.713E-03    -43.1815E+06    -29.8857E+06     93.8357E+06    -44.4259E+06    -74.2836E-03     403.693E-03    -329.409E-03    -235.526E-03    -73.5803E-03     402.599E-03    -328.834E-03    -240.628E-03
            1370     9.80757E-03     197.299E-03    -39.8449E+06    -25.6530E+06     107.831E+06    -43.3004E+06    -71.0010E-03     398.086E-03    -327.085E-03    -176.702E-03    -70.6013E-03     397.360E-03    -326.451E-03    -181.524E-03
            1371     10.5095E-03     197.873E-03    -36.3730E+06    -23.9186E+06     119.035E+06    -35.0683E+06    -71.5873E-03     393.999E-03    -322.412E-03    -114.553E-03    -71.4923E-03     393.589E-03    -321.729E-03    -119.230E-03
            1372     11.2437E-03     198.423E-03    -29.0961E+06     3.02762E+06     146.274E+06    -34.3948E+06    -76.9247E-03     392.842E-03    -315.917E-03    -56.9293E-03    -77.1994E-03     392.831E-03    -315.148E-03    -61.9563E-03
            1373     12.0019E-03     198.928E-03    -22.3013E+06    -34.4524E+06     120.810E+06    -13.9964E+06    -92.2781E-03     400.622E-03    -308.344E-03    -7.31902E-03    -92.9210E-03     400.923E-03    -307.657E-03    -13.6884E-03
            1374     12.7527E-03     199.393E-03    -443.262E+03    -10.5507E+06     104.320E+06     1.44273E+06    -85.5128E-03     384.698E-03    -299.185E-03     59.6032E-03    -86.6800E-03     385.882E-03    -298.648E-03     51.0555E-03
            1375     12.7309E-03     99.5274E-03    -3.59630E+06     47.6309E+06     75.6893E+06     1.31258E+03    -297.684E-03     593.199E-03    -295.515E-03     183.930E-03    -303.517E-03     598.969E-03    -295.201E-03     149.170E-03
            1376     12.0543E-03     99.2103E-03    -9.31273E+06     39.6657E+06     64.2844E+06     382.152E+03    -300.524E-03     596.167E-03    -295.642E-03     220.132E-03    -308.465E-03     604.029E-03    -295.365E-03     178.740E-03
            1377     11.3838E-03     98.8842E-03    -12.2928E+06     32.6308E+06     61.7272E+06     638.218E+03    -302.886E-03     598.640E-03    -295.754E-03     225.178E-03    -311.235E-03     606.882E-03    -295.474E-03     182.692E-03
            1378     10.7154E-03     98.5365E-03    -15.7607E+06     28.3802E+06     68.1956E+06     293.663E+03    -304.346E-03     600.165E-03    -295.819E-03     231.791E-03    -313.422E-03     609.088E-03    -295.497E-03     187.232E-03
            1379     10.0468E-03     98.1827E-03    -20.7784E+06     20.8678E+06     66.9119E+06     967.678E+03    -304.435E-03     600.245E-03    -295.810E-03     232.818E-03    -313.689E-03     609.306E-03    -295.476E-03     188.018E-03
            1380     9.37699E-03     97.8293E-03    -27.4823E+06     12.9755E+06     60.1094E+06     1.71127E+06    -304.118E-03     599.896E-03    -295.778E-03     231.946E-03    -313.363E-03     608.916E-03    -295.456E-03     187.458E-03
            1381     8.70723E-03     97.4789E-03    -33.8777E+06     7.84617E+06     51.7272E+06     1.68477E+06    -303.802E-03     599.537E-03    -295.735E-03     227.551E-03    -312.771E-03     608.264E-03    -295.439E-03     183.962E-03
            1382     8.03771E-03     97.1367E-03    -40.8595E+06     1.29291E+06     40.9933E+06     1.02899E+06    -303.218E-03     598.894E-03    -295.677E-03     220.062E-03    -311.684E-03     607.101E-03    -295.414E-03     177.897E-03
            1383     7.36798E-03     96.8083E-03    -47.8467E+06    -6.71021E+06     29.3134E+06     526.032E+03    -302.253E-03     597.871E-03    -295.618E-03     209.691E-03    -310.016E-03     605.355E-03    -295.392E-03     169.473E-03
            1384     6.69833E-03     96.4987E-03    -55.4509E+06    -15.3396E+06     17.9787E+06     319.067E+03    -301.192E-03     596.767E-03    -295.575E-03     196.719E-03    -308.095E-03     603.366E-03    -295.382E-03     158.950E-03
            1385     6.02827E-03     96.2118E-03    -63.5991E+06    -25.2467E+06     6.02790E+06     474.998E+03    -300.179E-03     595.721E-03    -295.541E-03     181.324E-03    -306.110E-03     601.318E-03    -295.382E-03     146.490E-03
            1386     5.35865E-03     95.9505E-03    -71.4450E+06    -35.5413E+06    -7.82789E+06     364.572E+03    -299.235E-03     594.736E-03    -295.501E-03     163.880E-03    -304.153E-03     599.296E-03    -295.385E-03     132.328E-03
            1387     4.68858E-03     95.7174E-03    -79.2122E+06    -54.3106E+06    -24.5810E+06     25.7353E+03    -298.352E-03     593.806E-03    -295.455E-03     145.061E-03    -302.265E-03     597.317E-03    -295.384E-03     117.084E-03
            1388     4.01890E-03     95.5135E-03    -86.7049E+06    -97.5809E+06    -41.6495E+06    -137.627E+03    -297.612E-03     593.049E-03    -295.437E-03     125.444E-03    -300.564E-03     595.468E-03    -295.378E-03     101.227E-03
            1389     3.34930E-03     95.3403E-03    -94.0104E+06    -134.188E+06    -57.9263E+06    -139.186E+03    -296.962E-03     592.368E-03    -295.406E-03     105.333E-03    -299.075E-03     593.839E-03    -295.365E-03     85.0051E-03
            1390     2.67962E-03     95.1977E-03    -100.724E+06    -145.949E+06    -74.5809E+06    -84.0575E+03    -296.327E-03     591.663E-03    -295.336E-03     84.8920E-03    -297.760E-03     592.437E-03    -295.351E-03     68.5575E-03
            1391     2.00962E-03     95.0863E-03    -106.646E+06    -156.454E+06    -90.5682E+06    -97.8112E+03    -295.796E-03     591.076E-03    -295.279E-03     64.2214E-03    -296.692E-03     591.300E-03    -295.351E-03     51.8806E-03
            1392     1.33965E-03     95.0062E-03    -111.472E+06    -165.735E+06    -103.745E+06    -63.9926E+03    -295.453E-03     590.705E-03    -295.252E-03     43.4788E-03    -295.960E-03     590.529E-03    -295.369E-03     35.1141E-03
            1393     669.760E-06     94.9570E-03    -114.448E+06    -171.749E+06    -112.208E+06         477.482    -295.497E-03     590.553E-03    -295.056E-03     23.4772E-03    -295.769E-03     590.135E-03    -295.202E-03     18.8245E-03
            1394     12.7218E-03     97.8233E-03    -3.30139E+06     47.7548E+06     76.3516E+06     915.466E+03    -298.603E-03     594.407E-03    -295.805E-03     182.680E-03    -304.379E-03     600.120E-03    -295.487E-03     148.054E-03
            1395     12.0538E-03     97.4972E-03    -8.42017E+06     41.4275E+06     67.0322E+06     50.7653E+03    -302.663E-03     598.506E-03    -295.843E-03     215.933E-03    -310.584E-03     606.350E-03    -295.556E-03     173.958E-03
            1396     11.3853E-03     97.1705E-03    -12.7062E+06     32.5920E+06     61.8946E+06    -1.16359E+06    -304.317E-03     600.128E-03    -295.811E-03     221.488E-03    -312.660E-03     608.361E-03    -295.530E-03     178.428E-03
            1397     10.7161E-03     96.8209E-03    -18.0126E+06     27.1163E+06     64.9495E+06    -269.286E+03    -304.491E-03     600.277E-03    -295.786E-03     229.937E-03    -313.561E-03     609.191E-03    -295.474E-03     185.193E-03
            1398     10.0464E-03     96.4703E-03    -25.1926E+06     19.1020E+06     61.4884E+06    -109.242E+03    -304.266E-03     600.017E-03    -295.751E-03     232.110E-03    -313.545E-03     609.096E-03    -295.435E-03     187.172E-03
            1399     9.37672E-03     96.1163E-03    -30.7484E+06     12.1638E+06     56.4751E+06    -698.495E+03    -304.259E-03     599.970E-03    -295.710E-03     231.338E-03    -313.519E-03     608.999E-03    -295.401E-03     186.709E-03
            1400     8.70761E-03     95.7654E-03    -36.0444E+06     6.87994E+06     49.9873E+06    -789.982E+03    -303.903E-03     599.555E-03    -295.652E-03     227.044E-03    -312.877E-03     608.281E-03    -295.360E-03     183.358E-03
            1401     8.03841E-03     95.4242E-03    -41.9297E+06     831.841E+03     41.0471E+06    -132.428E+03    -303.064E-03     598.653E-03    -295.590E-03     220.065E-03    -311.552E-03     606.877E-03    -295.325E-03     177.824E-03
            1402     7.36891E-03     95.0968E-03    -48.4979E+06    -6.66547E+06     30.7055E+06     574.375E+03    -302.096E-03     597.639E-03    -295.542E-03     210.082E-03    -309.878E-03     605.135E-03    -295.309E-03     169.864E-03
            1403     6.69882E-03     94.7876E-03    -55.7238E+06    -15.2177E+06     19.6643E+06     953.229E+03    -301.117E-03     596.625E-03    -295.508E-03     197.036E-03    -308.025E-03     603.224E-03    -295.307E-03     159.312E-03
            1404     6.02904E-03     94.5006E-03    -63.0425E+06    -24.6404E+06     7.11040E+06     744.127E+03    -300.169E-03     595.640E-03    -295.471E-03     181.551E-03    -306.103E-03     601.241E-03    -295.308E-03     146.729E-03
            1405     5.35894E-03     94.2392E-03    -70.4555E+06    -34.7240E+06    -7.42021E+06     286.650E+03    -299.195E-03     594.618E-03    -295.423E-03     164.004E-03    -304.109E-03     599.180E-03    -295.307E-03     132.469E-03
            1406     4.68940E-03     94.0062E-03    -78.1034E+06    -53.7152E+06    -24.2964E+06     114.448E+03    -298.221E-03     593.602E-03    -295.381E-03     145.234E-03    -302.130E-03     597.113E-03    -295.312E-03     117.290E-03
            1407     4.01938E-03     93.8028E-03    -85.8218E+06    -97.5063E+06    -41.4271E+06     121.425E+03    -297.465E-03     592.847E-03    -295.381E-03     125.784E-03    -300.414E-03     595.265E-03    -295.323E-03     101.608E-03
            1408     3.34931E-03     93.6295E-03    -93.2975E+06    -134.272E+06    -57.7232E+06     127.010E+03    -296.846E-03     592.219E-03    -295.373E-03     105.634E-03    -298.956E-03     593.689E-03    -295.332E-03     85.3346E-03
            1409     2.67928E-03     93.4871E-03    -100.271E+06    -146.024E+06    -74.2423E+06     152.724E+03    -296.248E-03     591.573E-03    -295.325E-03     85.0206E-03    -297.680E-03     592.346E-03    -295.339E-03     68.6890E-03
            1410     2.00944E-03     93.3760E-03    -106.378E+06    -156.379E+06    -90.0386E+06     358.157E+03    -295.785E-03     591.065E-03    -295.280E-03     64.1812E-03    -296.681E-03     591.289E-03    -295.349E-03     51.8516E-03
            1411     1.33962E-03     93.2956E-03    -111.213E+06    -165.696E+06    -103.510E+06     245.730E+03    -295.468E-03     590.715E-03    -295.247E-03     43.3822E-03    -295.974E-03     590.538E-03    -295.363E-03     35.0121E-03
            1412     669.842E-06     93.2464E-03    -113.370E+06    -171.565E+06    -112.450E+06    -95.9875E+03    -295.642E-03     590.533E-03    -294.891E-03     23.5891E-03    -295.910E-03     590.116E-03    -295.040E-03     18.9333E-03
            1413     12.7253E-03     96.1104E-03    -3.86260E+06     50.8586E+06     77.4969E+06      93.338E+03    -301.280E-03     597.149E-03    -295.869E-03     178.500E-03    -307.027E-03     602.838E-03    -295.549E-03     143.523E-03
            1414     12.0554E-03     95.7826E-03    -8.48004E+06     42.1026E+06     68.7729E+06    -196.024E+03    -303.982E-03     599.766E-03    -295.784E-03     214.299E-03    -311.905E-03     607.608E-03    -295.489E-03     171.995E-03
            1415     11.3867E-03     95.4552E-03    -15.4152E+06     28.9844E+06     61.7309E+06    -116.435E+03    -304.002E-03     599.708E-03    -295.707E-03     220.624E-03    -312.327E-03     607.903E-03    -295.418E-03     177.658E-03
            1416     10.7174E-03     95.1099E-03    -19.9736E+06     25.0397E+06     64.9507E+06     277.879E+03    -304.018E-03     599.707E-03    -295.689E-03     229.306E-03    -313.090E-03     608.609E-03    -295.371E-03     184.581E-03
            1417     10.0476E-03     94.7578E-03    -23.3115E+06     20.9400E+06     63.7265E+06     1.93744E+03    -304.186E-03     599.842E-03    -295.656E-03     231.291E-03    -313.449E-03     608.912E-03    -295.334E-03     186.315E-03
            1418     9.37874E-03     94.4036E-03    -28.5828E+06     14.6233E+06     57.7867E+06    -654.977E+03    -304.065E-03     599.668E-03    -295.603E-03     230.673E-03    -313.299E-03     608.685E-03    -295.294E-03     186.081E-03
            1419     8.70921E-03     94.0536E-03    -36.2018E+06     5.90937E+06     47.8505E+06    -1.20567E+06    -303.389E-03     598.940E-03    -295.552E-03     227.049E-03    -312.356E-03     607.662E-03    -295.269E-03     183.433E-03
            1420     8.03901E-03     93.7129E-03    -43.0700E+06    -1.43589E+06     37.5864E+06    -1.14372E+06    -302.675E-03     598.194E-03    -295.519E-03     220.449E-03    -311.165E-03     606.417E-03    -295.266E-03     178.258E-03
            1421     7.36865E-03     93.3852E-03    -49.5540E+06    -8.38290E+06     28.2585E+06    -715.645E+03    -301.993E-03     597.490E-03    -295.497E-03     210.397E-03    -309.775E-03     604.985E-03    -295.272E-03     170.196E-03
            1422     6.69896E-03     93.0761E-03    -56.0364E+06    -16.0888E+06     18.5802E+06    -714.072E+03    -301.147E-03     596.619E-03    -295.472E-03     197.312E-03    -308.059E-03     603.221E-03    -295.274E-03     159.562E-03
            1423     6.02900E-03     92.7893E-03    -62.8460E+06    -24.9568E+06     6.48966E+06    -583.410E+03    -300.152E-03     595.587E-03    -295.436E-03     181.921E-03    -306.089E-03     601.194E-03    -295.276E-03     147.085E-03
            1424     5.35942E-03     92.5278E-03    -70.3296E+06    -35.0485E+06    -7.91757E+06    -55.2364E+03    -299.055E-03     594.457E-03    -295.402E-03     164.481E-03    -303.970E-03     599.021E-03    -295.289E-03     132.985E-03
            1425     4.68905E-03     92.2956E-03    -78.1275E+06    -53.9109E+06    -24.7451E+06     373.402E+03    -298.123E-03     593.506E-03    -295.384E-03     145.758E-03    -302.035E-03     597.022E-03    -295.316E-03     117.848E-03
            1426     4.01896E-03     92.0919E-03    -85.8473E+06    -97.3838E+06    -41.5886E+06     571.827E+03    -297.468E-03     592.869E-03    -295.401E-03     126.109E-03    -300.421E-03     595.292E-03    -295.343E-03     101.948E-03
            1427     3.34920E-03     91.9187E-03    -93.1473E+06    -133.910E+06    -57.4111E+06     584.287E+03    -296.857E-03     592.257E-03    -295.401E-03     105.695E-03    -298.967E-03     593.729E-03    -295.359E-03     85.4107E-03
            1428     2.67946E-03     91.7765E-03    -100.055E+06    -145.579E+06    -73.7651E+06     520.667E+03    -296.293E-03     591.646E-03    -295.353E-03     85.0085E-03    -297.725E-03     592.420E-03    -295.366E-03     68.6917E-03
            1429     2.00961E-03     91.6653E-03    -106.136E+06    -156.003E+06    -89.6427E+06     430.230E+03    -295.872E-03     591.165E-03    -295.294E-03     64.1917E-03    -296.767E-03     591.390E-03    -295.362E-03     51.8646E-03
            1430     1.33979E-03     91.5852E-03    -110.675E+06    -165.137E+06    -102.884E+06     280.756E+03    -295.510E-03     590.746E-03    -295.236E-03     43.3501E-03    -296.014E-03     590.570E-03    -295.351E-03     35.0014E-03
            1431     669.824E-06     91.5361E-03    -113.502E+06    -171.227E+06    -111.649E+06     125.517E+03    -295.510E-03     590.484E-03    -294.974E-03     23.7609E-03    -295.780E-03     590.067E-03    -295.119E-03     19.1111E-03
            1432     12.7243E-03     94.3926E-03    -5.64613E+06     48.7722E+06     73.9823E+06     492.728E+03    -301.106E-03     596.806E-03    -295.700E-03     177.649E-03    -306.786E-03     602.424E-03    -295.392E-03     142.933E-03
            1433     12.0577E-03     94.0680E-03    -10.2735E+06     39.4085E+06     64.4751E+06    -270.641E+03    -303.070E-03     598.702E-03    -295.632E-03     213.908E-03    -310.958E-03     606.507E-03    -295.352E-03     171.798E-03
            1434     11.3881E-03     93.7438E-03    -12.7040E+06     30.9251E+06     61.9417E+06     540.369E+03    -303.480E-03     599.079E-03    -295.599E-03     221.305E-03    -311.834E-03     607.318E-03    -295.316E-03     178.303E-03
            1435     10.7183E-03     93.3970E-03    -17.0536E+06     27.3794E+06     67.5008E+06    -846.124E+03    -304.220E-03     599.821E-03    -295.601E-03     229.973E-03    -313.305E-03     608.747E-03    -295.278E-03     185.190E-03
            1436     10.0495E-03     93.0451E-03    -22.0761E+06     21.2527E+06      66.318E+06    -876.175E+03    -304.158E-03     599.728E-03    -295.570E-03     231.925E-03    -313.415E-03     608.790E-03    -295.238E-03     187.055E-03
            1437     9.37942E-03     92.6917E-03    -27.9330E+06     14.3438E+06     59.6535E+06     243.979E+03    -303.557E-03     599.098E-03    -295.540E-03     231.701E-03    -312.801E-03     608.121E-03    -295.222E-03     187.264E-03
            1438     8.70898E-03     92.3428E-03    -34.5107E+06     7.12470E+06     50.1534E+06     732.252E+03    -303.094E-03     598.620E-03    -295.527E-03     228.063E-03    -312.078E-03     607.362E-03    -295.236E-03     184.531E-03
            1439     8.03879E-03     92.0019E-03    -41.4854E+06    -272.740E+03     38.7680E+06     55.0709E+03    -302.700E-03     598.208E-03    -295.508E-03     220.933E-03    -311.185E-03     606.433E-03    -295.254E-03     178.812E-03
            1440     7.36916E-03     91.6739E-03    -48.3339E+06    -7.95448E+06     27.7553E+06    -765.969E+03    -301.992E-03     597.477E-03    -295.484E-03     210.535E-03    -309.762E-03     604.966E-03    -295.264E-03     170.371E-03
            1441     6.69901E-03     91.3649E-03    -55.6557E+06    -16.5068E+06     17.0352E+06    -1.06125E+06    -301.047E-03     596.512E-03    -295.465E-03     197.559E-03    -307.955E-03     603.114E-03    -295.275E-03     159.826E-03
            1442     6.02920E-03     91.0779E-03    -63.5989E+06    -26.2974E+06     4.72650E+06    -911.805E+03    -300.003E-03     595.452E-03    -295.449E-03     182.148E-03    -305.942E-03     601.057E-03    -295.295E-03     147.334E-03
            1443     5.35865E-03     90.8174E-03    -71.6748E+06    -36.7177E+06    -9.53370E+06    -372.978E+03    -298.977E-03     594.413E-03    -295.436E-03     164.570E-03    -303.895E-03     598.974E-03    -295.327E-03     133.087E-03
            1444     4.68872E-03     90.5845E-03    -79.5877E+06    -54.6341E+06    -25.9806E+06     147.437E+03    -298.160E-03     593.586E-03    -295.426E-03     145.672E-03    -302.075E-03     597.100E-03    -295.362E-03     117.760E-03
            1445     4.01896E-03     90.3809E-03    -87.0905E+06    -97.1907E+06    -42.4677E+06     233.429E+03    -297.483E-03     592.927E-03    -295.444E-03     125.981E-03    -300.442E-03     595.355E-03    -295.389E-03     101.802E-03
            1446     3.34905E-03     90.2078E-03    -94.2544E+06    -133.831E+06    -58.2633E+06     154.185E+03    -296.862E-03     592.311E-03    -295.449E-03     105.747E-03    -298.979E-03     593.788E-03    -295.410E-03     85.4455E-03
            1447     2.67909E-03     90.0657E-03    -100.866E+06    -145.472E+06    -74.6446E+06     27.9981E+03    -296.334E-03     591.742E-03    -295.408E-03     85.1645E-03    -297.771E-03     592.521E-03    -295.424E-03     68.8372E-03
            1448     2.00934E-03     89.9543E-03    -106.445E+06    -155.600E+06    -90.2770E+06    -217.930E+03    -295.906E-03     591.264E-03    -295.358E-03     64.3611E-03    -296.804E-03     591.494E-03    -295.429E-03     52.0031E-03
            1449     1.33959E-03     89.8746E-03    -110.966E+06    -164.565E+06    -103.059E+06    -103.908E+03    -295.574E-03     590.885E-03    -295.311E-03     43.4740E-03    -296.081E-03     590.714E-03    -295.427E-03     35.1097E-03
            1450     669.877E-06     89.8258E-03    -114.831E+06    -170.959E+06    -111.664E+06     196.590E+03    -295.535E-03     590.640E-03    -295.105E-03     23.8174E-03    -295.811E-03     590.226E-03    -295.249E-03     19.1691E-03
            1451     12.7316E-03     92.6839E-03    -5.07332E+06     46.9051E+06     74.5853E+06     2.34549E+06    -300.912E-03     596.507E-03    -295.595E-03     180.207E-03    -306.583E-03     602.110E-03    -295.283E-03     145.821E-03
            1452     12.0583E-03     92.3567E-03    -5.91301E+06     43.4902E+06     68.3557E+06     1.51680E+06    -302.664E-03     598.227E-03    -295.563E-03     215.856E-03    -310.550E-03     606.048E-03    -295.276E-03     173.993E-03
            1453     11.3879E-03     92.0319E-03     -9.8679E+06     35.2797E+06     64.2354E+06     290.754E+03    -303.706E-03     599.245E-03    -295.538E-03     221.615E-03    -312.033E-03     607.475E-03    -295.254E-03     178.703E-03
            1454     10.7190E-03     91.6826E-03    -15.2808E+06     30.0160E+06     68.1129E+06     314.698E+03    -303.902E-03     599.442E-03    -295.540E-03     229.912E-03    -312.941E-03     608.337E-03    -295.221E-03     185.385E-03
            1455     10.0491E-03     91.3333E-03    -22.4947E+06     20.8918E+06     63.8064E+06    -660.089E+03    -303.443E-03     598.980E-03    -295.538E-03     232.440E-03    -312.714E-03     608.061E-03    -295.216E-03     187.649E-03
            1456     9.37883E-03     90.9811E-03    -29.5514E+06     11.0789E+06     56.7288E+06    -1.15397E+06    -303.341E-03     598.889E-03    -295.549E-03     232.422E-03    -312.611E-03     607.930E-03    -295.238E-03     187.932E-03
            1457     8.70860E-03     90.6318E-03    -35.2522E+06     5.53465E+06     49.7037E+06    -684.061E+03    -303.264E-03     598.815E-03    -295.551E-03     228.304E-03    -312.256E-03     607.558E-03    -295.260E-03     184.719E-03
            1458     8.03889E-03     90.2898E-03    -40.9175E+06     1.06740E+06     40.7085E+06    -37.2818E+03    -302.793E-03     598.324E-03    -295.532E-03     220.985E-03    -311.273E-03     606.545E-03    -295.270E-03     178.886E-03
            1459     7.36873E-03     89.9627E-03    -48.0533E+06    -7.22237E+06     29.3108E+06     69.8209E+03    -301.926E-03     597.437E-03    -295.510E-03     210.725E-03    -309.702E-03     604.931E-03    -295.283E-03     170.585E-03
            1460     6.69880E-03     89.6536E-03    -55.6757E+06    -16.4415E+06     17.8563E+06     307.962E+03    -300.950E-03     596.451E-03    -295.502E-03     197.763E-03    -307.860E-03     603.054E-03    -295.308E-03     160.085E-03
            1461     6.02841E-03     89.3670E-03    -63.8441E+06    -26.3414E+06     5.13623E+06     577.471E+03    -299.975E-03     595.472E-03    -295.497E-03     182.114E-03    -305.914E-03     601.076E-03    -295.340E-03     147.339E-03
            1462     5.35878E-03     89.1063E-03    -72.0649E+06    -36.8009E+06    -9.34949E+06     391.676E+03    -299.046E-03     594.531E-03    -295.485E-03     164.544E-03    -303.969E-03     599.095E-03    -295.374E-03     133.047E-03
            1463     4.68883E-03     88.8733E-03    -79.9769E+06    -54.6263E+06    -25.9256E+06    -28.3571E+03    -298.168E-03     593.645E-03    -295.476E-03     145.833E-03    -302.091E-03     597.165E-03    -295.411E-03     117.903E-03
            1464     4.01871E-03     88.6699E-03    -87.4277E+06    -97.1212E+06    -42.7600E+06    -256.995E+03    -297.440E-03     592.946E-03    -295.506E-03     126.211E-03    -300.404E-03     595.379E-03    -295.452E-03     102.021E-03
            1465     3.34875E-03     88.4970E-03    -94.6786E+06    -133.953E+06    -59.0667E+06    -307.763E+03    -296.860E-03     592.389E-03    -295.529E-03     105.963E-03    -298.981E-03     593.870E-03    -295.493E-03     85.6514E-03
            1466     2.67902E-03     88.3545E-03    -101.475E+06    -145.629E+06    -75.6346E+06    -386.900E+03    -296.334E-03     591.846E-03    -295.512E-03     85.3613E-03    -297.776E-03     592.630E-03    -295.532E-03     69.0052E-03
            1467     2.00919E-03     88.2434E-03    -107.573E+06    -155.771E+06    -91.3971E+06    -242.060E+03    -295.935E-03     591.430E-03    -295.495E-03     64.5224E-03    -296.838E-03     591.664E-03    -295.570E-03     52.1576E-03
            1468     1.33936E-03     88.1635E-03    -112.637E+06    -165.039E+06    -104.869E+06    -5.50619E+03    -295.700E-03     591.177E-03    -295.477E-03     43.5771E-03    -296.213E-03     591.008E-03    -295.599E-03     35.2113E-03
            1469     669.609E-06     88.1147E-03    -115.067E+06    -171.102E+06    -113.682E+06    -46.6945E+03    -295.774E-03     590.999E-03    -295.225E-03     23.7535E-03    -296.048E-03     590.587E-03    -295.379E-03     19.1374E-03
            1470     12.7250E-03     90.9731E-03    -3.42470E+06     46.4567E+06     77.3887E+06     1.11105E+06    -301.578E-03     597.193E-03    -295.615E-03     180.879E-03    -307.323E-03     602.867E-03    -295.291E-03     146.106E-03
            1471     12.0573E-03     90.6426E-03    -7.57011E+06     41.5712E+06     67.7415E+06     165.144E+03    -303.651E-03     599.169E-03    -295.518E-03     215.142E-03    -311.624E-03     607.067E-03    -295.229E-03     172.699E-03
            1472     11.3897E-03     90.3178E-03    -11.1134E+06     35.0119E+06     63.4446E+06    -132.801E+03    -303.070E-03     598.533E-03    -295.464E-03     220.436E-03    -311.389E-03     606.753E-03    -295.181E-03     177.541E-03
            1473     10.7198E-03     89.9723E-03    -16.6683E+06     29.1174E+06     66.6426E+06     40.6472E+03    -302.777E-03     598.287E-03    -295.510E-03     230.226E-03    -311.820E-03     607.181E-03    -295.195E-03     185.847E-03
            1474     10.0487E-03     89.6233E-03    -22.7984E+06     21.2220E+06     63.1271E+06     285.399E+03    -303.060E-03     598.620E-03    -295.560E-03     232.959E-03    -312.342E-03     607.713E-03    -295.242E-03     188.205E-03
            1475     9.37822E-03     89.2696E-03    -28.9424E+06     12.2001E+06     56.4843E+06     356.491E+03    -303.546E-03     599.127E-03    -295.581E-03     232.348E-03    -312.810E-03     608.167E-03    -295.274E-03     187.860E-03
            1476     8.70870E-03     88.9196E-03    -35.1054E+06     5.92673E+06     49.2511E+06     17.3470E+03    -303.343E-03     598.920E-03    -295.577E-03     228.220E-03    -312.320E-03     607.650E-03    -295.288E-03     184.704E-03
            1477     8.03854E-03     88.5787E-03    -41.9615E+06     335.896E+03     39.6144E+06    -181.877E+03    -302.679E-03     598.242E-03    -295.563E-03     221.144E-03    -311.163E-03     606.464E-03    -295.305E-03     179.074E-03
            1478     7.36857E-03     88.2512E-03    -49.2708E+06    -8.07394E+06     28.4269E+06    -106.056E+03    -301.852E-03     597.408E-03    -295.556E-03     210.880E-03    -309.640E-03     604.910E-03    -295.331E-03     170.729E-03
            1479     6.69830E-03     87.9427E-03    -57.0221E+06    -17.2344E+06     17.3376E+06     300.268E+03    -300.965E-03     596.523E-03    -295.558E-03     197.815E-03    -307.884E-03     603.128E-03    -295.363E-03     160.130E-03
            1480     6.02857E-03     87.6556E-03    -64.5568E+06    -26.3148E+06     5.63920E+06     401.447E+03    -299.970E-03     595.533E-03    -295.563E-03     182.299E-03    -305.916E-03     601.140E-03    -295.403E-03     147.524E-03
            1481     5.35826E-03     87.3950E-03    -71.9740E+06    -36.1265E+06    -8.25150E+06     161.429E+03    -298.996E-03     594.564E-03    -295.568E-03     164.978E-03    -303.929E-03     599.137E-03    -295.452E-03     133.477E-03
            1482     4.68814E-03     87.1621E-03    -79.5317E+06    -54.2559E+06    -25.3770E+06     85.3740E+03    -298.159E-03     593.737E-03    -295.578E-03     146.255E-03    -302.089E-03     597.266E-03    -295.511E-03     118.318E-03
            1483     4.01817E-03     86.9589E-03    -87.2889E+06    -97.2274E+06    -42.9806E+06     132.537E+03    -297.519E-03     593.140E-03    -295.621E-03     126.486E-03    -300.486E-03     595.576E-03    -295.568E-03     102.291E-03
            1484     3.34837E-03     86.7855E-03    -94.8004E+06    -133.743E+06    -59.2415E+06     169.504E+03    -296.955E-03     592.609E-03    -295.654E-03     106.131E-03    -299.079E-03     594.094E-03    -295.619E-03     85.8142E-03
            1485     2.67840E-03     86.6434E-03    -102.108E+06    -145.533E+06    -75.9269E+06     202.605E+03    -296.430E-03     592.075E-03    -295.646E-03     85.4025E-03    -297.874E-03     592.861E-03    -295.666E-03     69.0451E-03
            1486     2.00859E-03     86.5319E-03    -108.531E+06    -156.051E+06    -92.1657E+06     351.380E+03    -296.063E-03     591.697E-03    -295.634E-03     64.4059E-03    -296.969E-03     591.931E-03    -295.711E-03     52.0544E-03
            1487     1.33903E-03     86.4520E-03    -112.979E+06    -165.028E+06    -105.554E+06     107.875E+03    -295.851E-03     591.462E-03    -295.611E-03     43.4338E-03    -296.363E-03     591.294E-03    -295.736E-03     35.0653E-03
            1488     669.610E-06     86.4028E-03    -115.257E+06    -171.029E+06    -114.107E+06    -231.960E+03    -295.858E-03     591.256E-03    -295.399E-03     23.4986E-03    -296.132E-03     590.846E-03    -295.554E-03     18.8726E-03
            1489     12.7285E-03     89.2524E-03    -4.33231E+06     46.4030E+06     76.7924E+06    -1.48724E+06    -301.669E-03     597.175E-03    -295.506E-03     177.101E-03    -307.417E-03     602.849E-03    -295.183E-03     141.963E-03
            1490     12.0621E-03     88.9291E-03    -8.13691E+06     41.1640E+06     67.4221E+06    -1.74284E+06    -302.016E-03     597.439E-03    -295.423E-03     213.472E-03    -309.978E-03     605.322E-03    -295.133E-03     171.076E-03
            1491     11.3907E-03     88.6087E-03    -12.8912E+06     33.0550E+06     62.2321E+06     171.190E+03    -301.734E-03     597.186E-03    -295.452E-03     222.353E-03    -310.052E-03     605.394E-03    -295.170E-03     179.849E-03
            1492     10.7185E-03     88.2638E-03    -17.6352E+06     28.5066E+06     66.7154E+06     1.04291E+06    -302.862E-03     598.421E-03    -295.560E-03     231.906E-03    -311.921E-03     607.326E-03    -295.242E-03     187.638E-03
            1493     10.0480E-03     87.9116E-03    -22.6232E+06     21.8727E+06     64.4878E+06     1.55131E+06    -303.613E-03     599.221E-03    -295.608E-03     233.294E-03    -312.878E-03     608.296E-03    -295.285E-03     188.617E-03
            1494     9.37862E-03     87.5576E-03    -28.8252E+06     14.3491E+06     57.5055E+06     1.30947E+06    -303.614E-03     599.226E-03    -295.612E-03     232.322E-03    -312.868E-03     608.261E-03    -295.303E-03     187.919E-03
            1495     8.70813E-03     87.2085E-03    -35.4651E+06     7.63884E+06     48.4286E+06     805.706E+03    -303.172E-03     598.779E-03    -295.608E-03     228.310E-03    -312.149E-03     607.518E-03    -295.325E-03     184.850E-03
            1496     8.03809E-03     86.8669E-03    -42.7106E+06     324.084E+03     37.9387E+06     302.075E+03    -302.562E-03     598.171E-03    -295.609E-03     221.252E-03    -311.053E-03     606.402E-03    -295.358E-03     179.181E-03
            1497     7.36781E-03     86.5402E-03    -50.0818E+06    -8.29049E+06     28.0227E+06     226.820E+03    -301.831E-03     597.452E-03    -295.622E-03     211.033E-03    -309.625E-03     604.958E-03    -295.397E-03     170.884E-03
            1498     6.69800E-03     86.2307E-03    -57.3884E+06    -17.1615E+06     17.2911E+06    -129.093E+03    -300.933E-03     596.568E-03    -295.635E-03     198.036E-03    -307.862E-03     603.182E-03    -295.441E-03     160.326E-03
            1499     6.02761E-03     85.9447E-03    -64.6175E+06    -26.3262E+06     4.45285E+06    -541.024E+03    -299.920E-03     595.570E-03    -295.650E-03     182.562E-03    -305.873E-03     601.187E-03    -295.496E-03     147.758E-03
            1500     5.35753E-03     85.6836E-03    -72.3478E+06    -36.6589E+06    -10.1443E+06    -364.300E+03    -299.002E-03     594.672E-03    -295.670E-03     165.035E-03    -303.933E-03     599.245E-03    -295.562E-03     133.532E-03
            1501     4.68747E-03     85.4508E-03    -80.2926E+06    -54.8308E+06    -26.6793E+06     88.8139E+03    -298.220E-03     593.914E-03    -295.694E-03     146.116E-03    -302.148E-03     597.439E-03    -295.631E-03     118.173E-03
            1502     4.01758E-03     85.2469E-03    -87.8828E+06    -97.2620E+06    -43.1088E+06     328.005E+03    -297.606E-03     593.353E-03    -295.747E-03     126.368E-03    -300.576E-03     595.791E-03    -295.694E-03     102.150E-03
            1503     3.34777E-03     85.0741E-03    -95.1873E+06    -133.601E+06    -58.9440E+06     376.584E+03    -297.103E-03     592.883E-03    -295.779E-03     106.002E-03    -299.229E-03     594.367E-03    -295.742E-03     85.6673E-03
            1504     2.67825E-03     84.9314E-03    -101.934E+06    -145.383E+06    -75.4623E+06     343.072E+03    -296.616E-03     592.373E-03    -295.757E-03     85.2271E-03    -298.059E-03     593.157E-03    -295.775E-03     68.8636E-03
            1505     2.00879E-03     84.8202E-03    -107.480E+06    -155.592E+06    -91.1047E+06     119.980E+03    -296.175E-03     591.907E-03    -295.732E-03     64.3503E-03    -297.078E-03     592.140E-03    -295.806E-03     51.9857E-03
            1506     1.33918E-03     84.7398E-03    -111.818E+06    -164.426E+06    -103.974E+06     46.4958E+03    -295.873E-03     591.607E-03    -295.734E-03     43.6180E-03    -296.384E-03     591.439E-03    -295.854E-03     35.2479E-03
            1507     669.561E-06     84.6910E-03    -116.045E+06    -171.337E+06    -112.795E+06     35.9170E+03    -295.920E-03     591.550E-03    -295.631E-03     23.7084E-03    -296.200E-03     591.138E-03    -295.778E-03     19.0659E-03
            1508     12.7350E-03     87.5428E-03    -4.35969E+06     46.6579E+06     76.1788E+06    -1.84721E+06    -299.358E-03     594.796E-03    -295.438E-03     181.521E-03    -305.148E-03     600.515E-03    -295.118E-03     146.678E-03
            1509     12.0596E-03     87.2224E-03    -7.79249E+06     40.8426E+06     67.7555E+06     566.953E+03    -300.741E-03     596.243E-03    -295.502E-03     218.416E-03    -308.652E-03     604.074E-03    -295.211E-03     176.979E-03
            1510     11.3867E-03     86.9002E-03    -13.0046E+06     31.8055E+06     62.5700E+06     1.19118E+06    -302.742E-03     598.326E-03    -295.584E-03     224.193E-03    -311.049E-03     606.518E-03    -295.298E-03     181.839E-03
            1511     10.7172E-03     86.5505E-03    -17.7396E+06     28.0914E+06     67.6133E+06     1.05252E+06    -303.940E-03     599.586E-03    -295.646E-03     231.537E-03    -312.996E-03     608.483E-03    -295.323E-03     187.142E-03
            1512     10.0484E-03     86.1993E-03    -22.6422E+06     21.5368E+06     65.7164E+06     1.14589E+06    -303.796E-03     599.453E-03    -295.656E-03     232.972E-03    -313.064E-03     608.525E-03    -295.326E-03     188.257E-03
            1513     9.37767E-03     85.8464E-03    -28.5317E+06     15.0141E+06     59.2125E+06     1.25434E+06    -303.500E-03     599.160E-03    -295.660E-03     232.454E-03    -312.756E-03     608.196E-03    -295.344E-03     188.080E-03
            1514     8.70788E-03     85.4967E-03    -35.3625E+06     9.00907E+06     49.6821E+06     1.07669E+06    -303.119E-03     598.782E-03    -295.664E-03     228.383E-03    -312.104E-03     607.530E-03    -295.377E-03     184.918E-03
            1515     8.03755E-03     85.1562E-03    -42.2313E+06     1.17975E+06     38.4937E+06     1.04579E+06    -302.515E-03     598.185E-03    -295.671E-03     221.214E-03    -311.003E-03     606.416E-03    -295.419E-03     179.168E-03
            1516     7.36753E-03     84.8283E-03    -49.1038E+06    -7.21386E+06     28.2106E+06     829.237E+03    -301.715E-03     597.409E-03    -295.694E-03     211.072E-03    -309.503E-03     604.915E-03    -295.471E-03     170.961E-03
            1517     6.69709E-03     84.5197E-03    -56.2357E+06    -15.9092E+06     17.4041E+06     415.006E+03    -300.835E-03     596.561E-03    -295.727E-03     198.082E-03    -307.761E-03     603.181E-03    -295.535E-03     160.383E-03
            1518     6.02711E-03     84.2330E-03    -64.1637E+06    -25.8307E+06     4.32258E+06     459.461E+03    -299.975E-03     595.730E-03    -295.755E-03     182.552E-03    -305.928E-03     601.351E-03    -295.603E-03     147.741E-03
            1519     5.35709E-03     83.9722E-03    -72.4241E+06    -36.6290E+06    -10.3487E+06     546.053E+03    -299.146E-03     594.923E-03    -295.777E-03     165.076E-03    -304.080E-03     599.500E-03    -295.670E-03     133.558E-03
            1520     4.68721E-03     83.7389E-03    -80.2574E+06    -54.7994E+06    -26.5980E+06     90.9203E+03    -298.368E-03     594.165E-03    -295.797E-03     146.176E-03    -302.298E-03     597.693E-03    -295.734E-03     118.203E-03
            1521     4.01728E-03     83.5354E-03    -87.6521E+06    -97.4924E+06    -42.8756E+06    -287.262E+03    -297.747E-03     593.591E-03    -295.844E-03     126.321E-03    -300.715E-03     596.026E-03    -295.790E-03     102.081E-03
            1522     3.34762E-03     83.3617E-03    -94.5085E+06    -133.917E+06    -58.6096E+06    -277.793E+03    -297.219E-03     593.089E-03    -295.871E-03     105.950E-03    -299.339E-03     594.569E-03    -295.832E-03     85.6062E-03
            1523     2.67802E-03     83.2192E-03    -100.920E+06    -145.294E+06    -74.7808E+06    -118.688E+03    -296.684E-03     592.534E-03    -295.850E-03     85.2673E-03    -298.123E-03     593.316E-03    -295.867E-03     68.8933E-03
            1524     2.00832E-03     83.1080E-03    -106.938E+06    -155.628E+06    -90.5603E+06     5.41535E+03    -296.242E-03     592.078E-03    -295.836E-03     64.4306E-03    -297.143E-03     592.310E-03    -295.908E-03     52.0606E-03
            1525     1.33866E-03     83.0280E-03    -111.914E+06    -164.807E+06    -103.949E+06     69.8992E+03    -295.950E-03     591.805E-03    -295.855E-03     43.6065E-03    -296.461E-03     591.635E-03    -295.973E-03     35.2327E-03
            1526     669.058E-06     82.9783E-03    -114.651E+06    -170.941E+06    -112.868E+06     142.426E+03    -296.107E-03     591.814E-03    -295.707E-03     23.7225E-03    -296.380E-03     591.401E-03    -295.857E-03     19.0799E-03
            1527     12.7237E-03     85.8362E-03    -3.03620E+06     47.5800E+06     75.8526E+06     329.159E+03    -298.703E-03     594.317E-03    -295.614E-03     183.762E-03    -304.493E-03     600.045E-03    -295.299E-03     149.051E-03
            1528     12.0536E-03     85.5114E-03    -10.3900E+06     38.0291E+06     64.6043E+06     897.681E+03    -302.348E-03     598.000E-03    -295.652E-03     215.832E-03    -310.207E-03     605.769E-03    -295.369E-03     174.207E-03
            1529     11.3866E-03     85.1842E-03    -13.5281E+06     31.0256E+06     61.5890E+06    -309.557E+03    -303.570E-03     599.221E-03    -295.651E-03     221.592E-03    -311.876E-03     607.411E-03    -295.369E-03     178.833E-03
            1530     10.7182E-03     84.8380E-03    -18.4850E+06     26.9787E+06     66.0720E+06    -718.024E+03    -303.747E-03     599.422E-03    -295.674E-03     230.725E-03    -312.831E-03     608.344E-03    -295.356E-03     186.104E-03
            1531     10.0472E-03     84.4880E-03    -24.8572E+06     19.7460E+06     63.5444E+06    -453.085E+03    -303.545E-03     599.239E-03    -295.693E-03     233.032E-03    -312.830E-03     608.321E-03    -295.368E-03     188.275E-03
            1532     9.37759E-03     84.1347E-03    -30.0797E+06     14.3667E+06     58.7114E+06     132.650E+03    -303.470E-03     599.185E-03    -295.715E-03     232.450E-03    -312.724E-03     608.213E-03    -295.399E-03     188.101E-03
            1533     8.70709E-03     83.7853E-03    -36.0517E+06     8.66504E+06     50.3752E+06     456.172E+03    -303.082E-03     598.812E-03    -295.730E-03     228.400E-03    -312.072E-03     607.558E-03    -295.438E-03     184.934E-03
            1534     8.03718E-03     83.4443E-03    -42.1932E+06     1.35762E+06     39.3006E+06     605.081E+03    -302.438E-03     598.184E-03    -295.747E-03     221.365E-03    -310.932E-03     606.420E-03    -295.491E-03     179.318E-03
            1535     7.36674E-03     83.1175E-03    -48.6851E+06    -6.74915E+06     28.1083E+06     764.559E+03    -301.678E-03     597.457E-03    -295.779E-03     211.275E-03    -309.463E-03     604.963E-03    -295.558E-03     171.188E-03
            1536     6.69660E-03     82.8081E-03    -56.1928E+06    -15.7552E+06     17.1635E+06     1.10526E+06    -300.894E-03     596.716E-03    -295.823E-03     198.187E-03    -307.815E-03     603.333E-03    -295.632E-03     160.516E-03
            1537     6.02637E-03     82.5213E-03    -64.0057E+06    -25.4387E+06     5.48136E+06     983.968E+03    -300.091E-03     595.952E-03    -295.861E-03     182.581E-03    -306.041E-03     601.568E-03    -295.704E-03     147.781E-03
            1538     5.35637E-03     82.2600E-03    -71.3910E+06    -35.3198E+06    -7.93477E+06     468.152E+03    -299.280E-03     595.164E-03    -295.884E-03     165.065E-03    -304.214E-03     599.742E-03    -295.769E-03     133.524E-03
            1539     4.68645E-03     82.0266E-03    -78.8375E+06    -53.7718E+06    -24.8562E+06     150.007E+03    -298.529E-03     594.422E-03    -295.893E-03     146.097E-03    -302.456E-03     597.950E-03    -295.825E-03     118.105E-03
            1540     4.01692E-03     81.8228E-03    -86.3217E+06    -97.3485E+06    -42.4035E+06     60.3063E+03    -297.908E-03     593.831E-03    -295.923E-03     126.255E-03    -300.868E-03     596.262E-03    -295.869E-03     102.015E-03
            1541     3.34735E-03     81.6494E-03    -93.9672E+06    -134.151E+06    -58.7413E+06     59.4088E+03    -297.302E-03     593.241E-03    -295.939E-03     105.890E-03    -299.420E-03     594.720E-03    -295.902E-03     85.5290E-03
            1542     2.67769E-03     81.5068E-03    -101.214E+06    -145.515E+06    -75.2657E+06     197.286E+03    -296.740E-03     592.657E-03    -295.916E-03     85.0817E-03    -298.179E-03     593.438E-03    -295.935E-03     68.7037E-03
            1543     2.00823E-03     81.3956E-03    -107.586E+06    -155.762E+06    -91.3656E+06     321.728E+03    -296.386E-03     592.270E-03    -295.883E-03     64.1161E-03    -297.286E-03     592.500E-03    -295.958E-03     51.7517E-03
            1544     1.33894E-03     81.3152E-03    -112.258E+06    -164.536E+06    -104.723E+06     123.965E+03    -296.131E-03     591.961E-03    -295.830E-03     43.3037E-03    -296.642E-03     591.793E-03    -295.952E-03     34.9127E-03
            1545     669.686E-06     81.2657E-03    -114.589E+06    -170.254E+06    -113.314E+06     -18.131E+03    -296.087E-03     591.660E-03    -295.574E-03     23.6720E-03    -296.360E-03     591.251E-03    -295.727E-03     19.0580E-03
            1546     12.7270E-03     84.1222E-03    -4.11686E+06     46.9782E+06     76.3595E+06     736.747E+03    -300.997E-03     596.679E-03    -295.682E-03     178.047E-03    -306.738E-03     602.351E-03    -295.362E-03     143.000E-03
            1547     12.0601E-03     83.7984E-03    -6.64512E+06     41.8009E+06     68.5468E+06     1.30565E+06    -302.487E-03     598.118E-03    -295.631E-03     213.880E-03    -310.347E-03     605.903E-03    -295.339E-03     171.977E-03
            1548     11.3887E-03     83.4736E-03    -12.1507E+06     32.2997E+06     62.1563E+06     930.673E+03    -302.863E-03     598.492E-03    -295.629E-03     222.249E-03    -311.170E-03     606.689E-03    -295.347E-03     179.606E-03
            1549     10.7165E-03     83.1266E-03    -18.6695E+06     26.5391E+06     64.7270E+06     562.427E+03    -303.284E-03     598.972E-03    -295.688E-03     230.954E-03    -312.347E-03     607.876E-03    -295.376E-03     186.517E-03
            1550     10.0472E-03     82.7760E-03    -23.7085E+06     21.1673E+06     63.2517E+06     345.207E+03    -303.427E-03     599.158E-03    -295.730E-03     232.704E-03    -312.685E-03     608.223E-03    -295.410E-03     188.041E-03
            1551     9.37662E-03     82.4231E-03    -29.6635E+06     14.3087E+06     57.2421E+06    -427.418E+03    -303.301E-03     599.062E-03    -295.761E-03     232.344E-03    -312.550E-03     608.090E-03    -295.453E-03     187.994E-03
            1552     8.70684E-03     82.0735E-03    -36.2595E+06     7.00746E+06     48.5121E+06    -654.414E+03    -302.878E-03     598.674E-03    -295.796E-03     228.590E-03    -311.869E-03     607.420E-03    -295.511E-03     185.113E-03
            1553     8.03618E-03     81.7333E-03    -42.9968E+06     344.433E+03     37.9909E+06    -305.599E+03    -302.381E-03     598.216E-03    -295.835E-03     221.607E-03    -310.877E-03     606.450E-03    -295.583E-03     179.560E-03
            1554     7.36600E-03     81.4057E-03    -50.0147E+06    -7.96791E+06     27.7362E+06     115.151E+03    -301.833E-03     597.712E-03    -295.879E-03     211.398E-03    -309.621E-03     605.214E-03    -295.657E-03     171.295E-03
            1555     6.69581E-03     81.0963E-03    -56.6549E+06    -16.2150E+06     18.0422E+06     209.013E+03    -301.107E-03     597.026E-03    -295.919E-03     198.170E-03    -308.029E-03     603.637E-03    -295.723E-03     160.467E-03
            1556     6.02591E-03     80.8091E-03    -63.1137E+06    -24.8702E+06     6.23754E+06     52.3587E+03    -300.306E-03     596.245E-03    -295.938E-03     182.411E-03    -306.251E-03     601.859E-03    -295.780E-03     147.570E-03
            1557     5.35611E-03     80.5476E-03    -70.7008E+06    -35.2336E+06    -8.52961E+06     121.889E+03    -299.476E-03     595.411E-03    -295.935E-03     164.682E-03    -304.401E-03     599.985E-03    -295.824E-03     133.103E-03
            1558     4.68652E-03     80.3140E-03    -78.6450E+06    -54.1045E+06    -25.4288E+06     585.359E+03    -298.632E-03     594.558E-03    -295.926E-03     145.605E-03    -302.547E-03     598.076E-03    -295.861E-03     117.620E-03
            1559     4.01670E-03     80.1101E-03    -86.4348E+06    -97.0237E+06    -42.2129E+06     1.04782E+06    -297.945E-03     593.893E-03    -295.947E-03     125.775E-03    -300.899E-03     596.318E-03    -295.893E-03     101.547E-03
            1560     3.34718E-03     79.9367E-03    -94.0185E+06    -133.293E+06    -58.3393E+06     1.06933E+06    -297.356E-03     593.308E-03    -295.952E-03     105.426E-03    -299.473E-03     594.787E-03    -295.914E-03     85.0621E-03
            1561     2.67780E-03     79.7943E-03    -101.072E+06    -144.866E+06    -75.0685E+06     828.674E+03    -296.816E-03     592.723E-03    -295.907E-03     84.7760E-03    -298.252E-03     593.503E-03    -295.925E-03     68.4053E-03
            1562     2.00838E-03     79.6827E-03    -107.036E+06    -154.874E+06    -90.9338E+06     501.323E+03    -296.408E-03     592.259E-03    -295.852E-03     64.0461E-03    -297.306E-03     592.491E-03    -295.927E-03     51.6920E-03
            1563     1.33897E-03     79.6025E-03    -111.748E+06    -163.764E+06    -104.126E+06     261.881E+03    -296.091E-03     591.882E-03    -295.791E-03     43.4257E-03    -296.602E-03     591.716E-03    -295.912E-03     35.0360E-03
            1564     669.464E-06     79.5534E-03    -115.083E+06    -169.875E+06    -112.694E+06     239.472E+03    -295.925E-03     591.584E-03    -295.658E-03     23.8549E-03    -296.203E-03     591.177E-03    -295.809E-03     19.2344E-03
            1565     12.7301E-03     82.4120E-03    -4.32351E+06     45.4079E+06     76.2937E+06    -20.7740E+03    -300.084E-03     595.731E-03    -295.647E-03     179.822E-03    -305.833E-03     601.405E-03    -295.325E-03     144.991E-03
            1566     12.0561E-03     82.0873E-03    -10.1616E+06     37.3599E+06     65.7292E+06     1.04651E+06    -302.327E-03     597.976E-03    -295.649E-03     218.063E-03    -310.240E-03     605.796E-03    -295.360E-03     176.401E-03
            1567     11.3857E-03     81.7621E-03    -12.4284E+06     32.7732E+06     63.1418E+06     1.94461E+06    -303.300E-03     598.971E-03    -295.671E-03     222.969E-03    -311.634E-03     607.194E-03    -295.384E-03     180.305E-03
            1568     10.7175E-03     81.4146E-03    -15.8822E+06     29.6555E+06     68.0004E+06     1.83486E+06    -303.308E-03     599.031E-03    -295.723E-03     230.465E-03    -312.346E-03     607.921E-03    -295.403E-03     186.110E-03
            1569     10.0467E-03     81.0648E-03    -21.8534E+06     22.9764E+06     64.6252E+06     812.731E+03    -303.090E-03     598.861E-03    -295.771E-03     232.796E-03    -312.337E-03     607.925E-03    -295.450E-03     188.198E-03
            1570     9.37673E-03     80.7118E-03    -28.8825E+06     15.1200E+06     56.8044E+06     423.315E+03    -303.053E-03     598.877E-03    -295.823E-03     232.790E-03    -312.309E-03     607.918E-03    -295.519E-03     188.455E-03
            1571     8.70562E-03     80.3628E-03    -35.7893E+06     7.51333E+06     47.7431E+06     73.9944E+03    -302.859E-03     598.736E-03    -295.877E-03     228.775E-03    -311.846E-03     607.485E-03    -295.598E-03     185.318E-03
            1572     8.03540E-03     80.0215E-03    -42.8630E+06    -289.821E+03     37.5231E+06     -133.49E+03    -302.594E-03     598.514E-03    -295.920E-03     221.485E-03    -311.080E-03     606.738E-03    -295.670E-03     179.429E-03
            1573     7.36524E-03     79.6937E-03    -49.2949E+06    -7.98719E+06     27.7034E+06    -231.944E+03    -302.117E-03     598.063E-03    -295.946E-03     210.956E-03    -309.896E-03     605.559E-03    -295.725E-03     170.792E-03
            1574     6.69546E-03     79.3838E-03     -55.832E+06    -15.9587E+06     17.6404E+06    -510.436E+03    -301.363E-03     597.318E-03    -295.955E-03     197.553E-03    -308.273E-03     603.922E-03    -295.763E-03     159.783E-03
            1575     6.02569E-03     79.0965E-03    -63.6041E+06    -25.8775E+06     4.84366E+06    -177.090E+03    -300.498E-03     596.442E-03    -295.944E-03     181.826E-03    -306.431E-03     602.043E-03    -295.790E-03     146.956E-03
            1576     5.35620E-03     78.8345E-03    -71.6841E+06    -36.6392E+06    -9.89031E+06     624.413E+03    -299.551E-03     595.470E-03    -295.919E-03     164.193E-03    -304.466E-03     600.029E-03    -295.811E-03     132.627E-03
            1577     4.68654E-03     78.6015E-03    -79.7583E+06    -54.5875E+06    -26.4377E+06     1.15860E+06    -298.657E-03     594.553E-03    -295.896E-03     145.317E-03    -302.569E-03     598.065E-03    -295.834E-03     117.347E-03
            1578     4.01713E-03     78.3975E-03    -87.3681E+06    -96.5754E+06    -42.8497E+06     1.03937E+06    -297.942E-03     593.850E-03    -295.907E-03     125.624E-03    -300.898E-03     596.277E-03    -295.855E-03     101.396E-03
            1579     3.34759E-03     78.2242E-03    -94.3429E+06    -132.461E+06    -58.4715E+06     815.562E+03    -297.316E-03     593.223E-03    -295.908E-03     105.367E-03    -299.432E-03     594.704E-03    -295.871E-03     85.0196E-03
            1580     2.67802E-03     78.0816E-03    -100.944E+06    -143.669E+06    -74.7291E+06     708.647E+03    -296.759E-03     592.624E-03    -295.866E-03     84.8593E-03    -298.197E-03     593.411E-03    -295.884E-03     68.4946E-03
            1581     2.00847E-03     77.9704E-03    -106.881E+06    -153.853E+06    -90.5453E+06     556.560E+03    -296.312E-03     592.138E-03    -295.825E-03     64.1211E-03    -297.213E-03     592.375E-03    -295.900E-03     51.7672E-03
            1582     1.33887E-03     77.8901E-03    -111.608E+06    -162.951E+06    -103.762E+06     444.337E+03    -295.987E-03     591.792E-03    -295.805E-03     43.3302E-03    -296.498E-03     591.629E-03    -295.926E-03     34.9647E-03
            1583     669.352E-06     77.8411E-03    -114.775E+06    -169.187E+06    -112.621E+06     292.182E+03    -295.923E-03     591.666E-03    -295.743E-03     23.6671E-03    -296.200E-03     591.262E-03    -295.894E-03     19.0458E-03
            1584     12.7234E-03     80.7048E-03    -2.78329E+06     45.2610E+06     76.3690E+06     1.76147E+06    -300.037E-03     595.752E-03    -295.715E-03     180.818E-03    -305.750E-03     601.395E-03    -295.395E-03     146.206E-03
            1585     12.0551E-03     80.3725E-03    -8.18223E+06     39.6143E+06     67.0856E+06     727.969E+03    -303.036E-03     598.730E-03    -295.693E-03     215.169E-03    -310.922E-03     606.533E-03    -295.404E-03     173.224E-03
            1586     11.3877E-03     80.0479E-03    -14.3004E+06     31.4152E+06     60.9901E+06    -1.12665E+06    -302.671E-03     598.355E-03    -295.684E-03     221.004E-03    -310.997E-03     606.565E-03    -295.403E-03     178.209E-03
            1587     10.7167E-03     79.7038E-03    -17.8825E+06     28.4136E+06     66.2378E+06    -262.670E+03    -302.736E-03     598.505E-03    -295.769E-03     231.182E-03    -311.790E-03     607.405E-03    -295.453E-03     186.870E-03
            1588     10.0463E-03     79.3543E-03    -22.8018E+06     22.5873E+06     64.3870E+06     1.04638E+06    -303.085E-03     598.939E-03    -295.854E-03     233.835E-03    -312.350E-03     608.016E-03    -295.532E-03     189.274E-03
            1589     9.37485E-03     79.0006E-03    -28.1636E+06     16.1516E+06     58.7661E+06     1.39683E+06    -303.314E-03     599.231E-03    -295.917E-03     232.934E-03    -312.568E-03     608.272E-03    -295.606E-03     188.612E-03
            1590     8.70510E-03     78.6509E-03    -34.3964E+06     8.98102E+06     50.8179E+06     1.41289E+06    -303.250E-03     599.206E-03    -295.955E-03     228.342E-03    -312.228E-03     607.946E-03    -295.664E-03     184.857E-03
            1591     8.03501E-03     78.3095E-03    -40.9910E+06     1.34403E+06     40.2021E+06     1.04359E+06    -302.993E-03     598.954E-03    -295.961E-03     220.901E-03    -311.469E-03     607.172E-03    -295.702E-03     178.782E-03
            1592     7.36548E-03     77.9807E-03    -47.4703E+06    -6.66131E+06     28.7631E+06     498.256E+03    -302.394E-03     598.337E-03    -295.943E-03     210.302E-03    -310.159E-03     605.826E-03    -295.721E-03     170.087E-03
            1593     6.69587E-03     77.6713E-03    -55.5035E+06    -16.1704E+06     16.8728E+06     660.211E+03    -301.503E-03     597.421E-03    -295.918E-03     197.025E-03    -308.403E-03     604.018E-03    -295.730E-03     159.238E-03
            1594     6.02642E-03     77.3836E-03    -63.9613E+06    -26.5092E+06     4.32332E+06     1.08169E+06    -300.497E-03     596.389E-03    -295.893E-03     181.536E-03    -306.422E-03     601.980E-03    -295.740E-03     146.699E-03
            1595     5.35664E-03     77.1223E-03    -72.1506E+06    -37.2038E+06    -9.63904E+06     1.26233E+06    -299.507E-03     595.373E-03    -295.866E-03     164.013E-03    -304.415E-03     599.920E-03    -295.755E-03     132.499E-03
            1596     4.68694E-03     76.8888E-03    -79.8232E+06    -53.9136E+06    -26.0825E+06     1.15406E+06    -298.604E-03     594.443E-03    -295.838E-03     145.152E-03    -302.513E-03     597.953E-03    -295.775E-03     117.204E-03
            1597     4.01713E-03     76.6850E-03    -87.0653E+06    -95.2073E+06    -42.8897E+06     845.738E+03    -297.840E-03     593.687E-03    -295.847E-03     125.503E-03    -300.794E-03     596.118E-03    -295.798E-03     101.295E-03
            1598     3.34753E-03     76.5118E-03    -94.5463E+06    -131.863E+06    -59.0433E+06     562.715E+03    -297.185E-03     593.043E-03    -295.858E-03     105.341E-03    -299.301E-03     594.527E-03    -295.825E-03     85.0154E-03
            1599     2.67791E-03     76.3694E-03    -101.525E+06    -143.281E+06    -75.4520E+06     429.789E+03    -296.631E-03     592.468E-03    -295.837E-03     84.8908E-03    -298.071E-03     593.258E-03    -295.860E-03     68.5380E-03
            1600     2.00841E-03     76.2578E-03    -107.421E+06    -153.258E+06    -91.0695E+06     416.509E+03    -296.253E-03     592.073E-03    -295.820E-03     64.1713E-03    -297.156E-03     592.315E-03    -295.897E-03     51.8226E-03
            1601     1.33897E-03     76.1779E-03    -111.976E+06    -162.073E+06    -104.109E+06     496.217E+03    -296.023E-03     591.823E-03    -295.800E-03     43.3761E-03    -296.536E-03     591.665E-03    -295.923E-03     35.0279E-03
            1602     669.517E-06     76.1285E-03    -114.688E+06    -168.095E+06    -112.913E+06     259.894E+03    -295.962E-03     591.640E-03    -295.678E-03     23.7074E-03    -296.239E-03     591.241E-03    -295.833E-03     19.1027E-03
            1603     12.7273E-03     78.9861E-03    -3.10195E+06     43.8926E+06     77.8922E+06    -167.843E+03    -301.328E-03     597.033E-03    -295.705E-03     177.786E-03    -307.051E-03     602.675E-03    -295.374E-03     142.827E-03
            1604     12.0600E-03     78.6599E-03    -5.46977E+06     41.6023E+06     69.2467E+06     566.301E+03    -301.705E-03     597.370E-03    -295.665E-03     215.272E-03    -309.614E-03     605.207E-03    -295.371E-03     173.344E-03
            1605     11.3868E-03     78.3406E-03    -11.7425E+06     32.7830E+06     61.5628E+06     1.92868E+06    -301.652E-03     597.380E-03    -295.728E-03     223.119E-03    -309.945E-03     605.570E-03    -295.451E-03     180.794E-03
            1606     10.7149E-03     77.9934E-03    -17.4857E+06     28.1285E+06     64.9940E+06     1.39601E+06    -302.923E-03     598.781E-03    -295.858E-03     231.886E-03    -311.961E-03     607.668E-03    -295.548E-03     187.688E-03
            1607     10.0439E-03     77.6419E-03    -22.7646E+06     22.2538E+06     63.7865E+06     447.842E+03    -303.539E-03     599.470E-03    -295.932E-03     233.039E-03    -312.792E-03     608.537E-03    -295.612E-03     188.373E-03
            1608     9.37507E-03     77.2884E-03    -28.7077E+06     15.2759E+06     58.5017E+06     387.719E+03    -303.728E-03     599.689E-03    -295.961E-03     232.026E-03    -312.974E-03     608.718E-03    -295.649E-03     187.577E-03
            1609     8.70488E-03     76.9385E-03    -34.5506E+06     8.79006E+06     50.8096E+06     731.904E+03    -303.664E-03     599.623E-03    -295.960E-03     227.707E-03    -312.633E-03     608.354E-03    -295.668E-03     184.129E-03
            1610     8.03558E-03     76.5963E-03    -40.8196E+06     2.09397E+06     40.7692E+06     898.055E+03    -303.247E-03     599.178E-03    -295.931E-03     220.416E-03    -311.716E-03     607.391E-03    -295.671E-03     178.244E-03
            1611     7.36592E-03     76.2681E-03    -48.0813E+06    -6.79237E+06     29.5863E+06     1.48740E+06    -302.419E-03     598.316E-03    -295.897E-03     210.079E-03    -310.182E-03     605.799E-03    -295.669E-03     169.875E-03
            1612     6.69641E-03     75.9583E-03    -55.5099E+06    -16.0144E+06     18.2457E+06     2.03032E+06    -301.456E-03     597.324E-03    -295.868E-03     197.051E-03    -308.354E-03     603.915E-03    -295.673E-03     159.320E-03
            1613     6.02650E-03     75.6716E-03    -63.0231E+06    -25.6520E+06     5.54361E+06     2.17217E+06    -300.515E-03     596.352E-03    -295.836E-03     181.556E-03    -306.436E-03     601.941E-03    -295.680E-03     146.761E-03
            1614     5.35683E-03     75.4096E-03    -70.5627E+06    -35.9436E+06    -8.80862E+06     1.91518E+06    -299.516E-03     595.313E-03    -295.797E-03     163.898E-03    -304.416E-03     599.860E-03    -295.687E-03     132.408E-03
            1615     4.68726E-03     75.1766E-03    -78.5321E+06    -52.8447E+06    -25.4951E+06     1.52004E+06    -298.509E-03     594.274E-03    -295.765E-03     145.010E-03    -302.413E-03     597.785E-03    -295.702E-03     117.079E-03
            1616     4.01765E-03     74.9730E-03    -86.1912E+06    -94.1405E+06    -42.0979E+06     1.34425E+06    -297.722E-03     593.502E-03    -295.780E-03     125.405E-03    -300.673E-03     595.934E-03    -295.729E-03     101.222E-03
            1617     3.34789E-03     74.7999E-03    -93.3916E+06    -130.627E+06    -58.0463E+06     1.15498E+06    -297.125E-03     592.919E-03    -295.793E-03     105.186E-03    -299.237E-03     594.404E-03    -295.759E-03     84.8740E-03
            1618     2.67818E-03     74.6573E-03    -100.327E+06    -142.309E+06    -74.6352E+06     910.082E+03    -296.582E-03     592.348E-03    -295.766E-03     84.5894E-03    -298.017E-03     593.137E-03    -295.787E-03     68.2489E-03
            1619     2.00840E-03     74.5457E-03    -106.468E+06    -152.453E+06    -90.4862E+06     654.029E+03    -296.183E-03     591.922E-03    -295.740E-03     63.8342E-03    -297.081E-03     592.163E-03    -295.816E-03     51.4983E-03
            1620     1.33882E-03     74.4652E-03    -111.122E+06    -161.219E+06    -103.558E+06     404.468E+03    -295.950E-03     591.660E-03    -295.709E-03     43.1139E-03    -296.460E-03     591.503E-03    -295.832E-03     34.7547E-03
            1621     669.445E-06     74.4160E-03    -113.974E+06    -166.902E+06    -111.875E+06     266.132E+03    -295.896E-03     591.443E-03    -295.547E-03     23.4585E-03    -296.172E-03     591.047E-03    -295.699E-03     18.8360E-03
            1622     12.7298E-03     77.2739E-03    -4.35587E+06     40.9548E+06     75.0288E+06    -1.37524E+06    -299.290E-03     594.999E-03    -295.708E-03     181.673E-03    -305.079E-03     600.700E-03    -295.386E-03     146.867E-03
            1623     12.0543E-03     76.9541E-03    -9.27183E+06     35.8894E+06     65.1973E+06    -210.702E+03    -301.329E-03     597.094E-03    -295.765E-03     218.025E-03    -309.265E-03     604.935E-03    -295.477E-03     176.361E-03
            1624     11.3834E-03     76.6287E-03    -10.9611E+06     33.7917E+06     63.3340E+06     1.93470E+06    -302.806E-03     598.640E-03    -295.835E-03     222.527E-03    -311.071E-03     606.803E-03    -295.551E-03     180.165E-03
            1625     10.7144E-03     76.2807E-03    -15.4118E+06     31.0114E+06     68.1087E+06     1.49296E+06    -303.604E-03     599.509E-03    -295.905E-03     230.210E-03    -312.613E-03     608.375E-03    -295.587E-03     185.871E-03
            1626     10.0457E-03     75.9299E-03    -22.3218E+06     22.8863E+06     64.6211E+06     946.282E+03    -303.757E-03     599.688E-03    -295.930E-03     232.122E-03    -313.004E-03     608.749E-03    -295.608E-03     187.350E-03
            1627     9.37487E-03     75.5762E-03    -29.1337E+06     15.3787E+06     57.4853E+06     716.786E+03    -303.980E-03     599.906E-03    -295.926E-03     231.567E-03    -313.221E-03     608.932E-03    -295.619E-03     187.050E-03
            1628     8.70573E-03     75.2252E-03    -35.1545E+06     9.11711E+06     48.5504E+06     389.954E+03    -303.789E-03     599.685E-03    -295.896E-03     227.335E-03    -312.746E-03     608.409E-03    -295.616E-03     183.740E-03
            1629     8.03601E-03     74.8837E-03    -42.0153E+06     740.058E+03     37.3647E+06     737.991E+03    -303.156E-03     599.013E-03    -295.857E-03     220.233E-03    -311.614E-03     607.216E-03    -295.610E-03     178.097E-03
            1630     7.36648E-03     74.5554E-03    -49.2564E+06    -8.03734E+06     27.2071E+06     1.25244E+06    -302.325E-03     598.155E-03    -295.830E-03     210.019E-03    -310.081E-03     605.628E-03    -295.610E-03     169.865E-03
            1631     6.69642E-03     74.2465E-03    -55.8329E+06    -16.2778E+06     17.5749E+06     1.45193E+06    -301.482E-03     597.286E-03    -295.803E-03     196.845E-03    -308.370E-03     603.866E-03    -295.611E-03     159.145E-03
            1632     6.02699E-03     73.9585E-03    -62.9219E+06    -25.4933E+06     5.68559E+06     1.52975E+06    -300.523E-03     596.284E-03    -295.761E-03     181.178E-03    -306.439E-03     601.869E-03    -295.604E-03     146.369E-03
            1633     5.35753E-03     73.6976E-03    -70.3138E+06    -35.5678E+06    -8.15245E+06     1.87977E+06    -299.362E-03     595.081E-03    -295.718E-03     163.647E-03    -304.264E-03     599.631E-03    -295.606E-03     132.139E-03
            1634     4.68766E-03     73.4646E-03    -77.7953E+06    -51.4669E+06    -24.6845E+06     2.13575E+06    -298.363E-03     594.054E-03    -295.691E-03     145.012E-03    -302.271E-03     597.575E-03    -295.627E-03     117.076E-03
            1635     4.01769E-03     73.2613E-03    -85.5057E+06    -92.6589E+06    -41.5815E+06     1.86871E+06    -297.704E-03     593.409E-03    -295.704E-03     125.433E-03    -300.660E-03     595.852E-03    -295.654E-03     101.225E-03
            1636     3.34807E-03     73.0877E-03    -92.7913E+06    -129.446E+06    -57.3805E+06     1.59731E+06    -297.143E-03     592.845E-03    -295.702E-03     105.175E-03    -299.258E-03     594.337E-03    -295.667E-03     84.8431E-03
            1637     2.67856E-03     72.9455E-03    -99.6070E+06    -140.715E+06    -73.6684E+06     1.42376E+06    -296.610E-03     592.255E-03    -295.645E-03     84.5801E-03    -298.046E-03     593.051E-03    -295.665E-03     68.2333E-03
            1638     2.00913E-03     72.8339E-03    -105.630E+06    -150.849E+06    -89.5298E+06     1.08772E+06    -296.164E-03     591.738E-03    -295.575E-03     63.8367E-03    -297.061E-03     591.985E-03    -295.650E-03     51.5046E-03
            1639     1.33950E-03     72.7535E-03    -110.155E+06    -159.705E+06    -102.523E+06     622.088E+03    -295.791E-03     591.301E-03    -295.510E-03     43.0596E-03    -296.299E-03     591.149E-03    -295.632E-03     34.7100E-03
            1640     669.725E-06     72.7042E-03    -113.115E+06    -165.677E+06    -111.349E+06     283.751E+03    -295.715E-03     591.022E-03    -295.307E-03     23.3441E-03    -295.989E-03     590.629E-03    -295.459E-03     18.7420E-03
            1641     12.7205E-03     75.5669E-03    -4.68148E+06     42.2793E+06     72.8218E+06     963.582E+03    -299.581E-03     595.410E-03    -295.829E-03     181.310E-03    -305.332E-03     601.083E-03    -295.519E-03     146.610E-03
            1642     12.0533E-03     75.2386E-03    -8.91899E+06     37.4944E+06     66.3357E+06    -741.955E+03    -302.587E-03     598.431E-03    -295.844E-03     214.225E-03    -310.463E-03     606.216E-03    -295.554E-03     172.313E-03
            1643     11.3862E-03     74.9158E-03    -13.1730E+06     31.3159E+06     62.7767E+06    -1.95095E+06    -303.296E-03     599.137E-03    -295.841E-03     220.821E-03    -311.574E-03     607.297E-03    -295.553E-03     178.132E-03
            1644     10.7162E-03     74.5691E-03    -17.6990E+06     28.5755E+06     66.9257E+06    -231.123E+03    -303.736E-03     599.613E-03    -295.877E-03     230.371E-03    -312.775E-03     608.497E-03    -295.558E-03     185.894E-03
            1645     10.0447E-03     74.2179E-03    -22.8823E+06     22.3143E+06     64.3748E+06     1.21084E+06    -304.062E-03     599.950E-03    -295.887E-03     232.373E-03    -313.307E-03     609.006E-03    -295.565E-03     187.607E-03
            1646     9.37615E-03     73.8628E-03    -28.0642E+06     16.8874E+06     58.2272E+06     1.52967E+06    -304.138E-03     600.004E-03    -295.866E-03     231.450E-03    -313.355E-03     609.013E-03    -295.559E-03     187.018E-03
            1647     8.70629E-03     73.5128E-03    -34.8978E+06     9.56822E+06     48.5660E+06     1.60099E+06    -303.688E-03     599.519E-03    -295.830E-03     227.307E-03    -312.631E-03     608.231E-03    -295.551E-03     183.816E-03
            1648     8.03665E-03     73.1713E-03    -41.7928E+06     780.153E+03     36.8659E+06     1.49598E+06    -303.123E-03     598.913E-03    -295.790E-03     220.192E-03    -311.572E-03     607.110E-03    -295.546E-03     178.121E-03
            1649     7.36658E-03     72.8435E-03    -48.6092E+06    -7.73918E+06     26.0216E+06     968.949E+03    -302.456E-03     598.202E-03    -295.747E-03     209.685E-03    -310.201E-03     605.672E-03    -295.535E-03     169.521E-03
            1650     6.69741E-03     72.5336E-03    -55.8443E+06    -16.5258E+06     16.1747E+06     737.119E+03    -301.496E-03     597.197E-03    -295.701E-03     196.467E-03    -308.379E-03     603.776E-03    -295.515E-03     158.728E-03
            1651     6.02783E-03     72.2465E-03    -63.4810E+06    -26.1303E+06     4.56733E+06     847.858E+03    -300.255E-03     595.916E-03    -295.661E-03     181.053E-03    -306.173E-03     601.502E-03    -295.508E-03     146.231E-03
            1652     5.35782E-03     71.9858E-03    -71.3611E+06    -36.5533E+06    -9.25583E+06     1.09206E+06    -299.127E-03     594.764E-03    -295.637E-03     163.769E-03    -304.039E-03     599.320E-03    -295.527E-03     132.235E-03
            1653     4.68783E-03     71.7533E-03    -78.8512E+06    -51.3854E+06    -25.2095E+06     1.50494E+06    -298.303E-03     593.923E-03    -295.620E-03     145.130E-03    -302.220E-03     597.451E-03    -295.557E-03     117.169E-03
            1654     4.01823E-03     71.5491E-03    -86.2077E+06    -91.1370E+06    -41.7653E+06     1.77513E+06    -297.650E-03     593.280E-03    -295.630E-03     125.500E-03    -300.613E-03     595.734E-03    -295.582E-03     101.288E-03
            1655     3.34858E-03     71.3763E-03    -93.5854E+06    -127.878E+06    -57.7851E+06     1.61150E+06    -297.053E-03     592.681E-03    -295.628E-03     105.374E-03    -299.175E-03     594.184E-03    -295.596E-03     85.0489E-03
            1656     2.67879E-03     71.2335E-03    -100.548E+06    -139.342E+06    -74.2947E+06     1.24142E+06    -296.511E-03     592.091E-03    -295.579E-03     84.9734E-03    -297.955E-03     592.899E-03    -295.603E-03     68.6329E-03
            1657     2.00907E-03     71.1223E-03    -106.241E+06    -149.174E+06    -89.8149E+06     899.388E+03    -296.082E-03     591.607E-03    -295.525E-03     64.3427E-03    -296.989E-03     591.868E-03    -295.604E-03     51.9973E-03
            1658     1.33944E-03     71.0422E-03    -110.768E+06    -158.117E+06    -102.883E+06     638.967E+03    -295.727E-03     591.208E-03    -295.481E-03     43.5953E-03    -296.243E-03     591.068E-03    -295.606E-03     35.2318E-03
            1659     669.773E-06     70.9934E-03    -113.711E+06    -164.216E+06    -111.780E+06     443.701E+03    -295.656E-03     590.994E-03    -295.337E-03     23.7982E-03    -295.936E-03     590.611E-03    -295.493E-03     19.1978E-03
            1660     12.7274E-03     73.8498E-03    -4.61286E+06     43.7163E+06      75.522E+06     586.965E+03    -301.076E-03     596.906E-03    -295.830E-03     177.138E-03    -306.800E-03     602.550E-03    -295.509E-03     142.172E-03
            1661     12.0576E-03     73.5286E-03    -6.78925E+06     40.8050E+06     68.1555E+06     584.663E+03    -302.052E-03     597.850E-03    -295.798E-03     214.627E-03    -309.924E-03     605.645E-03    -295.506E-03     172.816E-03
            1662     11.3847E-03     73.2035E-03    -13.1599E+06     29.9702E+06     60.8564E+06    -278.181E+03    -303.050E-03     598.867E-03    -295.817E-03     222.541E-03    -311.345E-03     607.045E-03    -295.537E-03     179.946E-03
            1663     10.7143E-03     72.8565E-03    -18.8062E+06     25.3697E+06     64.0388E+06    -433.015E+03    -304.167E-03     600.024E-03    -295.857E-03     230.815E-03    -313.218E-03     608.912E-03    -295.546E-03     186.261E-03
            1664     10.0466E-03     72.5044E-03    -22.3801E+06     21.3706E+06     63.4847E+06     417.402E+03    -304.432E-03     600.279E-03    -295.846E-03     232.304E-03    -313.658E-03     609.317E-03    -295.528E-03     187.559E-03
            1665     9.37631E-03     72.1503E-03    -28.4630E+06     15.7411E+06     57.3261E+06     1.14515E+06    -304.191E-03     600.002E-03    -295.811E-03     231.447E-03    -313.403E-03     609.002E-03    -295.506E-03     187.053E-03
            1666     8.70666E-03     71.8006E-03    -34.9181E+06     9.06906E+06     49.1863E+06     1.58692E+06    -303.765E-03     599.536E-03    -295.771E-03     227.116E-03    -312.710E-03     608.246E-03    -295.487E-03     183.613E-03
            1667     8.03680E-03     71.4588E-03    -40.9945E+06     1.87943E+06     39.6365E+06     1.56761E+06    -303.244E-03     598.963E-03    -295.719E-03     219.824E-03    -311.698E-03     607.164E-03    -295.464E-03     177.690E-03
            1668     7.36793E-03     71.1306E-03    -47.7381E+06    -6.58053E+06     28.6149E+06     1.52246E+06    -302.388E-03     598.048E-03    -295.660E-03     209.591E-03    -310.144E-03     605.528E-03    -295.438E-03     169.384E-03
            1669     6.69821E-03     70.8215E-03    -55.2484E+06    -15.9110E+06     17.1070E+06     1.64074E+06    -301.199E-03     596.814E-03    -295.615E-03     196.717E-03    -308.093E-03     603.406E-03    -295.427E-03     158.986E-03
            1670     6.02816E-03     70.5354E-03    -62.9976E+06    -25.7949E+06     4.64902E+06     1.71086E+06    -300.010E-03     595.605E-03    -295.596E-03     181.388E-03    -305.933E-03     601.200E-03    -295.444E-03     146.595E-03
            1671     5.35806E-03     70.2747E-03    -70.7906E+06    -36.1997E+06    -9.44136E+06     1.67292E+06    -299.077E-03     594.663E-03    -295.586E-03     164.068E-03    -303.988E-03     599.221E-03    -295.478E-03     132.567E-03
            1672     4.68835E-03     70.0414E-03    -78.8397E+06    -51.2742E+06    -25.5745E+06     1.61786E+06    -298.252E-03     593.827E-03    -295.575E-03     145.417E-03    -302.171E-03     597.358E-03    -295.514E-03     117.477E-03
            1673     4.01830E-03     69.8380E-03    -86.5960E+06    -90.4605E+06    -42.0188E+06     1.53905E+06    -297.550E-03     593.146E-03    -295.596E-03     125.860E-03    -300.515E-03     595.605E-03    -295.550E-03     101.680E-03
            1674     3.34836E-03     69.6646E-03    -93.6017E+06    -126.360E+06    -57.7171E+06     1.28336E+06    -296.958E-03     592.571E-03    -295.613E-03     105.622E-03    -299.083E-03     594.082E-03    -295.583E-03     85.3241E-03
            1675     2.67862E-03     69.5224E-03    -100.137E+06    -137.690E+06    -73.9799E+06     937.090E+03    -296.384E-03     591.978E-03    -295.594E-03     85.0894E-03    -297.829E-03     592.794E-03    -295.619E-03     68.7603E-03
            1676     2.00881E-03     69.4107E-03    -106.117E+06    -147.925E+06    -89.8387E+06     619.283E+03    -295.961E-03     591.551E-03    -295.590E-03     64.3525E-03    -296.870E-03     591.818E-03    -295.670E-03     52.0034E-03
            1677     1.33904E-03     69.3308E-03    -110.794E+06    -156.952E+06    -103.049E+06     399.961E+03    -295.732E-03     591.337E-03    -295.605E-03     43.5255E-03    -296.251E-03     591.204E-03    -295.732E-03     35.1446E-03
            1678     669.358E-06     69.2816E-03    -113.523E+06    -162.798E+06    -111.656E+06     188.589E+03    -295.817E-03     591.300E-03    -295.482E-03     23.7701E-03    -296.099E-03     590.924E-03    -295.640E-03     19.1578E-03
            1679     12.7260E-03     72.1411E-03    -4.35187E+06     43.0533E+06     74.8599E+06    -538.505E+03    -299.499E-03     595.317E-03    -295.818E-03     180.337E-03    -305.257E-03     600.995E-03    -295.500E-03     145.526E-03
            1680     12.0530E-03     71.8174E-03    -11.3115E+06     36.4399E+06     62.2355E+06     235.931E+03    -302.602E-03     598.426E-03    -295.825E-03     217.541E-03    -310.530E-03     606.263E-03    -295.550E-03     175.702E-03
            1681     11.3846E-03     71.4912E-03    -12.2439E+06     30.6811E+06     59.9233E+06     1.10882E+06    -304.017E-03     599.838E-03    -295.821E-03     222.134E-03    -312.329E-03     608.041E-03    -295.548E-03     179.295E-03
            1682     10.7165E-03     71.1422E-03    -15.9347E+06     27.1962E+06     64.8525E+06     1.24997E+06    -304.441E-03     600.261E-03    -295.820E-03     229.886E-03    -313.455E-03     609.127E-03    -295.512E-03     185.358E-03
            1683     10.0457E-03     70.7913E-03    -23.3820E+06     20.3238E+06     61.2712E+06     609.089E+03    -304.422E-03     600.207E-03    -295.785E-03     231.741E-03    -313.656E-03     609.253E-03    -295.474E-03     186.923E-03
            1684     9.37676E-03     70.4374E-03    -29.5172E+06     14.2947E+06     55.8994E+06     291.937E+03    -304.189E-03     599.930E-03    -295.740E-03     230.859E-03    -313.421E-03     608.945E-03    -295.439E-03     186.315E-03
            1685     8.70740E-03     70.0879E-03    -34.8083E+06     8.41748E+06     49.4071E+06     517.085E+03    -303.774E-03     599.466E-03    -295.691E-03     226.882E-03    -312.736E-03     608.190E-03    -295.406E-03     183.253E-03
            1686     8.03853E-03     69.7463E-03    -40.7357E+06     1.88848E+06     40.2456E+06     1.07781E+06    -303.064E-03     598.703E-03    -295.639E-03     220.136E-03    -311.536E-03     606.920E-03    -295.381E-03     177.959E-03
            1687     7.36824E-03     69.4189E-03    -48.0168E+06    -7.12352E+06     29.1418E+06     1.57124E+06    -302.011E-03     597.614E-03    -295.603E-03     210.158E-03    -309.780E-03     605.103E-03    -295.378E-03     169.992E-03
            1688     6.69813E-03     69.1101E-03    -55.3329E+06    -16.1347E+06     17.9655E+06     2.00623E+06    -300.937E-03     596.530E-03    -295.593E-03     197.123E-03    -307.836E-03     603.123E-03    -295.399E-03     159.453E-03
            1689     6.02805E-03     68.8243E-03    -62.2639E+06    -25.1500E+06     6.12374E+06     2.40999E+06    -299.989E-03     595.581E-03    -295.592E-03     181.690E-03    -305.914E-03     601.178E-03    -295.435E-03     146.937E-03
            1690     5.35826E-03     68.5630E-03    -69.9119E+06    -35.3831E+06    -7.89373E+06     2.74350E+06    -299.081E-03     594.669E-03    -295.588E-03     164.437E-03    -303.991E-03     599.228E-03    -295.475E-03     132.987E-03
            1691     4.68804E-03     68.3303E-03    -77.6122E+06    -49.4496E+06    -24.2616E+06     2.61473E+06    -298.238E-03     593.819E-03    -295.582E-03     145.677E-03    -302.153E-03     597.354E-03    -295.519E-03     117.792E-03
            1692     4.01813E-03     68.1265E-03    -85.1056E+06     -88.248E+06    -40.9001E+06     1.88499E+06    -297.568E-03     593.174E-03    -295.606E-03     125.896E-03    -300.529E-03     595.638E-03    -295.559E-03     101.745E-03
            1693     3.34846E-03     67.9532E-03    -92.5378E+06    -124.996E+06    -56.9918E+06     1.25342E+06    -296.964E-03     592.587E-03    -295.623E-03     105.532E-03    -299.084E-03     594.100E-03    -295.593E-03     85.2447E-03
            1694     2.67862E-03     67.8109E-03    -99.3010E+06    -136.460E+06    -73.3090E+06     913.473E+03    -296.422E-03     592.022E-03    -295.600E-03     84.9212E-03    -297.865E-03     592.840E-03    -295.625E-03     68.5838E-03
            1695     2.00884E-03     67.6994E-03    -105.146E+06    -146.613E+06    -89.0466E+06     686.088E+03    -296.014E-03     591.592E-03    -295.577E-03     64.0529E-03    -296.919E-03     591.861E-03    -295.658E-03     51.7126E-03
            1696     1.33916E-03     67.6189E-03    -109.785E+06    -155.651E+06    -102.243E+06     476.512E+03    -295.745E-03     591.311E-03    -295.565E-03     43.1836E-03    -296.259E-03     591.178E-03    -295.692E-03     34.8351E-03
            1697     669.646E-06     67.5695E-03    -112.851E+06    -161.726E+06    -110.966E+06     283.430E+03    -295.800E-03     591.189E-03    -295.389E-03     23.6189E-03    -296.080E-03     590.816E-03    -295.545E-03     19.0158E-03
            1698     12.7213E-03     70.4328E-03    -3.43917E+06     41.9127E+06     72.5361E+06     1.71065E+06    -300.137E-03     596.010E-03    -295.873E-03     180.414E-03    -305.829E-03     601.628E-03    -295.566E-03     145.808E-03
            1699     12.0540E-03     70.1001E-03    -7.69475E+06     38.5432E+06     63.9801E+06     1.23218E+06    -303.988E-03     599.812E-03    -295.823E-03     214.319E-03    -311.873E-03     607.620E-03    -295.548E-03     172.122E-03
            1700     11.3862E-03     69.7759E-03    -12.5009E+06     30.6642E+06     59.4160E+06     76.6225E+03    -304.124E-03     599.871E-03    -295.747E-03     220.195E-03    -312.435E-03     608.074E-03    -295.477E-03     177.147E-03
            1701     10.7159E-03     69.4301E-03    -17.6937E+06     26.5417E+06     63.7941E+06     1.02356E+06    -304.348E-03     600.074E-03    -295.726E-03     229.127E-03    -313.370E-03     608.942E-03    -295.419E-03     184.538E-03
            1702     10.0477E-03     69.0777E-03    -22.6805E+06     21.9371E+06     62.3007E+06     797.764E+03    -304.094E-03     599.785E-03    -295.691E-03     231.010E-03    -313.341E-03     608.849E-03    -295.378E-03     186.095E-03
            1703     9.37816E-03     68.7254E-03    -28.2921E+06     15.3542E+06     56.5166E+06     350.133E+03    -303.798E-03     599.455E-03    -295.657E-03     230.957E-03    -313.036E-03     608.483E-03    -295.355E-03     186.412E-03
            1704     8.70850E-03     68.3755E-03    -34.5074E+06     7.92947E+06     48.0758E+06     467.176E+03    -303.441E-03     599.070E-03    -295.629E-03     227.679E-03    -312.406E-03     607.801E-03    -295.350E-03     184.127E-03
            1705     8.03787E-03     68.0346E-03    -41.4691E+06     195.383E+03     37.7785E+06     899.206E+03    -302.765E-03     598.372E-03    -295.607E-03     220.758E-03    -311.238E-03     606.588E-03    -295.358E-03     178.661E-03
            1706     7.36812E-03     67.7075E-03    -48.2067E+06    -8.02759E+06     27.9958E+06     1.36744E+06    -301.831E-03     597.433E-03    -295.603E-03     210.413E-03    -309.598E-03     604.920E-03    -295.381E-03     170.287E-03
            1707     6.69800E-03     67.3991E-03    -55.2341E+06    -16.5815E+06     17.6419E+06     1.63633E+06    -300.891E-03     596.502E-03    -295.611E-03     197.310E-03    -307.784E-03     603.088E-03    -295.419E-03     159.679E-03
            1708     6.02806E-03     67.1126E-03    -62.4634E+06    -25.6988E+06     5.94935E+06     1.85063E+06    -300.016E-03     595.634E-03    -295.619E-03     181.902E-03    -305.938E-03     601.226E-03    -295.461E-03     147.172E-03
            1709     5.35777E-03     66.8521E-03    -69.8489E+06    -35.4588E+06    -7.32756E+06     2.16507E+06    -299.172E-03     594.788E-03    -295.616E-03     164.453E-03    -304.080E-03     599.344E-03    -295.500E-03     133.004E-03
            1710     4.68797E-03     66.6185E-03    -77.2036E+06    -47.8063E+06    -23.2509E+06     2.29401E+06    -298.334E-03     593.932E-03    -295.598E-03     145.508E-03    -302.247E-03     597.468E-03    -295.533E-03     117.625E-03
            1711     4.01825E-03     66.4149E-03    -84.3640E+06    -85.7511E+06    -39.8440E+06     2.01077E+06    -297.599E-03     593.209E-03    -295.610E-03     125.753E-03    -300.561E-03     595.683E-03    -295.563E-03     101.588E-03
            1712     3.34834E-03     66.2418E-03    -91.5704E+06    -123.174E+06    -56.0346E+06     1.61057E+06    -297.023E-03     592.640E-03    -295.617E-03     105.502E-03    -299.145E-03     594.161E-03    -295.585E-03     85.1979E-03
            1713     2.67867E-03     66.0993E-03    -98.5106E+06    -135.041E+06    -72.6996E+06     1.22129E+06    -296.538E-03     592.104E-03    -295.566E-03     84.8608E-03    -297.980E-03     592.928E-03    -295.591E-03     68.5147E-03
            1714     2.00916E-03     65.9877E-03    -104.474E+06    -145.302E+06    -88.3847E+06     836.232E+03    -296.087E-03     591.586E-03    -295.500E-03     64.0194E-03    -296.991E-03     591.860E-03    -295.579E-03     51.6735E-03
            1715     1.33954E-03     65.9076E-03    -109.098E+06    -154.205E+06    -101.343E+06     673.492E+03    -295.710E-03     591.152E-03    -295.442E-03     43.3057E-03    -296.224E-03     591.025E-03    -295.566E-03     34.9698E-03
            1716     669.704E-06     65.8581E-03    -112.139E+06    -160.283E+06    -110.046E+06     454.182E+03    -295.680E-03     590.899E-03    -295.219E-03     23.7493E-03    -295.959E-03     590.531E-03    -295.375E-03     19.1411E-03
            1717     12.7255E-03     68.7119E-03    -3.70412E+06     40.8655E+06     73.7110E+06     1.30127E+06    -302.137E-03     597.918E-03    -295.781E-03     177.882E-03    -307.791E-03     603.490E-03    -295.467E-03     143.213E-03
            1718     12.0581E-03     68.3870E-03    -5.08302E+06     40.1629E+06     67.3379E+06     1.25047E+06    -303.316E-03     598.994E-03    -295.678E-03     212.895E-03    -311.185E-03     606.792E-03    -295.392E-03     170.666E-03
            1719     11.3869E-03     68.0648E-03    -11.9268E+06     31.4449E+06     60.2545E+06     1.39528E+06    -303.469E-03     599.084E-03    -295.615E-03     219.966E-03    -311.767E-03     607.277E-03    -295.342E-03     177.049E-03
            1720     10.7189E-03     67.7155E-03    -17.4240E+06     26.7515E+06     64.1505E+06     94.2473E+03    -303.793E-03     599.413E-03    -295.620E-03     229.225E-03    -312.826E-03     608.294E-03    -295.313E-03     184.634E-03
            1721     10.0486E-03     67.3669E-03    -21.8721E+06     22.1718E+06     63.2315E+06     719.991E+03    -303.515E-03     599.140E-03    -295.626E-03     232.037E-03    -312.755E-03     608.198E-03    -295.310E-03     187.311E-03
            1722     9.37814E-03     67.0137E-03    -27.2497E+06     16.3326E+06     57.2509E+06     1.49542E+06    -303.517E-03     599.149E-03    -295.632E-03     232.112E-03    -312.742E-03     608.169E-03    -295.330E-03     187.777E-03
            1723     8.70757E-03     66.6641E-03    -34.3956E+06     7.81148E+06     47.2698E+06     1.55852E+06    -303.271E-03     598.898E-03    -295.627E-03     228.004E-03    -312.221E-03     607.617E-03    -295.352E-03     184.571E-03
            1724     8.03811E-03     66.3229E-03    -41.4944E+06    -468.169E+03     36.1717E+06     1.45027E+06    -302.623E-03     598.243E-03    -295.619E-03     220.678E-03    -311.082E-03     606.447E-03    -295.378E-03     178.647E-03
            1725     7.36783E-03     65.9963E-03    -48.0105E+06    -8.23557E+06     26.8625E+06     1.39418E+06    -301.807E-03     597.433E-03    -295.626E-03     210.356E-03    -309.565E-03     604.914E-03    -295.411E-03     170.259E-03
            1726     6.69778E-03     65.6878E-03    -54.6611E+06    -16.2987E+06     17.5522E+06     1.49879E+06    -300.969E-03     596.608E-03    -295.639E-03     197.325E-03    -307.861E-03     603.197E-03    -295.448E-03     159.680E-03
            1727     6.02748E-03     65.4014E-03    -62.0684E+06    -25.5886E+06     5.71522E+06     1.51069E+06    -300.165E-03     595.801E-03    -295.636E-03     181.739E-03    -306.085E-03     601.393E-03    -295.480E-03     146.976E-03
            1728     5.35793E-03     65.1399E-03    -69.5276E+06    -35.4018E+06    -7.59938E+06     1.46351E+06    -299.280E-03     594.895E-03    -295.615E-03     164.155E-03    -304.186E-03     599.451E-03    -295.501E-03     132.662E-03
            1729     4.68819E-03     64.9070E-03     -76.936E+06    -47.3979E+06    -23.3787E+06     1.52144E+06    -298.333E-03     593.919E-03    -295.586E-03     145.387E-03    -302.248E-03     597.461E-03    -295.523E-03     117.458E-03
            1730     4.01817E-03     64.7035E-03    -84.2889E+06    -84.7706E+06    -39.8249E+06     1.56232E+06    -297.619E-03     593.211E-03    -295.592E-03     125.694E-03    -300.584E-03     595.691E-03    -295.546E-03     101.502E-03
            1731     3.34850E-03     64.5302E-03    -91.3189E+06    -121.750E+06    -55.5888E+06     1.47859E+06    -297.062E-03     592.651E-03    -295.588E-03     105.419E-03    -299.184E-03     594.177E-03    -295.557E-03     85.1061E-03
            1732     2.67890E-03     64.3874E-03    -97.9130E+06    -133.328E+06    -71.7806E+06     1.20497E+06    -296.490E-03     592.023E-03    -295.533E-03     84.8852E-03    -297.933E-03     592.853E-03    -295.557E-03     68.5381E-03
            1733     2.00915E-03     64.2764E-03    -103.763E+06    -143.601E+06    -87.4683E+06      938.69E+03    -296.018E-03     591.495E-03    -295.476E-03     64.1671E-03    -296.924E-03     591.776E-03    -295.555E-03     51.8093E-03
            1734     1.33938E-03     64.1964E-03    -108.421E+06    -152.739E+06    -100.676E+06     619.812E+03    -295.680E-03     591.112E-03    -295.432E-03     43.4859E-03    -296.196E-03     590.992E-03    -295.556E-03     35.1321E-03
            1735     669.757E-06     64.1471E-03    -111.328E+06    -158.690E+06    -109.203E+06     211.849E+03    -295.654E-03     590.895E-03    -295.241E-03     23.9550E-03    -295.934E-03     590.533E-03    -295.395E-03     19.3463E-03
            1736     12.7298E-03     67.0006E-03    -5.38899E+06     38.0774E+06     73.1419E+06    -1.06238E+06    -301.599E-03     597.248E-03    -295.649E-03     179.918E-03    -307.319E-03     602.872E-03    -295.331E-03     145.060E-03
            1737     12.0572E-03     66.6761E-03    -8.91084E+06     34.5269E+06     65.7134E+06     246.067E+03    -302.805E-03     598.393E-03    -295.588E-03     215.267E-03    -310.685E-03     606.173E-03    -295.296E-03     173.372E-03
            1738     11.3897E-03     66.3505E-03    -10.8461E+06     32.5845E+06     63.6101E+06     2.41361E+06    -303.207E-03     598.781E-03    -295.574E-03     221.944E-03    -311.525E-03     606.991E-03    -295.287E-03     179.240E-03
            1739     10.7184E-03     66.0056E-03    -14.4010E+06     29.4036E+06     67.8114E+06     2.76174E+06    -303.248E-03     598.869E-03    -295.620E-03     231.092E-03    -312.290E-03     607.767E-03    -295.303E-03     186.744E-03
            1740     10.0475E-03     65.6557E-03    -20.8345E+06     22.4801E+06     63.6255E+06     2.05838E+06    -303.545E-03     599.196E-03    -295.651E-03     233.144E-03    -312.784E-03     608.256E-03    -295.335E-03     188.531E-03
            1741     9.37747E-03     65.3020E-03    -27.9443E+06     15.4867E+06     56.2352E+06     1.70436E+06    -303.760E-03     599.414E-03    -295.654E-03     232.096E-03    -312.983E-03     608.430E-03    -295.355E-03     187.744E-03
            1742     8.70819E-03     64.9523E-03    -34.4060E+06     7.90239E+06     47.3313E+06     1.88868E+06    -303.297E-03     598.940E-03    -295.643E-03     227.696E-03    -312.245E-03     607.657E-03    -295.368E-03     184.247E-03
            1743     8.03758E-03     64.6118E-03    -40.3871E+06     507.035E+03     36.8255E+06     1.90365E+06    -302.594E-03     598.226E-03    -295.632E-03     220.392E-03    -311.039E-03     606.423E-03    -295.390E-03     178.390E-03
            1744     7.36759E-03     64.2847E-03    -46.9330E+06    -7.44136E+06     27.0041E+06     1.84530E+06    -301.838E-03     597.473E-03    -295.635E-03     209.959E-03    -309.575E-03     604.939E-03    -295.421E-03     169.911E-03
            1745     6.69750E-03     63.9764E-03    -54.0308E+06    -15.8634E+06     17.5020E+06     1.67760E+06    -301.097E-03     596.733E-03    -295.636E-03     196.945E-03    -307.981E-03     603.318E-03    -295.447E-03     159.275E-03
            1746     6.02809E-03     63.6892E-03    -61.0691E+06    -24.7301E+06     6.37170E+06     1.60428E+06    -300.210E-03     595.831E-03    -295.621E-03     181.552E-03    -306.126E-03     601.425E-03    -295.465E-03     146.764E-03
            1747     5.35817E-03     63.4284E-03    -68.6535E+06    -34.7447E+06    -7.19861E+06     1.52910E+06    -299.184E-03     594.784E-03    -295.600E-03     164.224E-03    -304.091E-03     599.346E-03    -295.487E-03     132.716E-03
            1748     4.68809E-03     63.1956E-03    -76.1125E+06    -46.8458E+06    -23.0651E+06     1.40093E+06    -298.308E-03     593.887E-03    -295.579E-03     145.564E-03    -302.225E-03     597.434E-03    -295.516E-03     117.619E-03
            1749     4.01840E-03     62.9918E-03    -83.5294E+06    -84.1060E+06    -39.4054E+06     1.22510E+06    -297.655E-03     593.241E-03    -295.586E-03     125.892E-03    -300.617E-03     595.723E-03    -295.540E-03     101.707E-03
            1750     3.34872E-03     62.8186E-03    -90.7935E+06    -120.920E+06    -55.0455E+06     1.01975E+06    -297.023E-03     592.611E-03    -295.587E-03     105.669E-03    -299.144E-03     594.140E-03    -295.556E-03     85.3680E-03
            1751     2.67883E-03     62.6763E-03    -97.2589E+06    -132.163E+06    -71.0378E+06     889.056E+03    -296.405E-03     591.959E-03    -295.554E-03     85.1349E-03    -297.848E-03     592.794E-03    -295.576E-03     68.7947E-03
            1752     2.00902E-03     62.5650E-03    -103.100E+06    -142.333E+06    -86.7086E+06     717.729E+03    -295.987E-03     591.514E-03    -295.527E-03     64.3119E-03    -296.893E-03     591.800E-03    -295.605E-03     51.9611E-03
            1753     1.33937E-03     62.4850E-03    -107.705E+06    -151.474E+06    -99.9482E+06     452.009E+03    -295.732E-03     591.234E-03    -295.502E-03     43.5104E-03    -296.247E-03     591.119E-03    -295.626E-03     35.1437E-03
            1754     669.578E-06     62.4358E-03    -110.297E+06    -157.435E+06    -108.665E+06     243.944E+03    -295.610E-03     591.045E-03    -295.435E-03     23.9503E-03    -295.887E-03     590.687E-03    -295.591E-03     19.3500E-03
            1755     12.7253E-03     65.2884E-03    -4.01655E+06     38.3930E+06     73.3468E+06    -35.1320E+03    -300.815E-03     596.425E-03    -295.609E-03     179.428E-03    -306.523E-03     602.042E-03    -295.292E-03     144.584E-03
            1756     12.0585E-03     64.9617E-03    -8.73792E+06     33.5661E+06     64.4108E+06     511.749E+03    -302.199E-03     597.778E-03    -295.579E-03     215.036E-03    -310.042E-03     605.522E-03    -295.293E-03     173.336E-03
            1757     11.3865E-03     64.6391E-03    -13.3216E+06     29.0005E+06     59.4894E+06    -239.148E+03    -302.443E-03     598.044E-03    -295.600E-03     222.140E-03    -310.745E-03     606.229E-03    -295.326E-03     179.542E-03
            1758     10.7167E-03     64.2945E-03    -17.5435E+06     26.4798E+06     64.2403E+06     220.056E+03    -303.443E-03     599.112E-03    -295.669E-03     230.880E-03    -312.485E-03     607.999E-03    -295.361E-03     186.463E-03
            1759     10.0471E-03     63.9428E-03    -22.0549E+06     21.8867E+06     63.2533E+06     1.54520E+06    -303.988E-03     599.674E-03    -295.686E-03     232.442E-03    -313.219E-03     608.721E-03    -295.370E-03     187.755E-03
            1760     9.37799E-03     63.5895E-03    -27.5455E+06     15.7550E+06     57.1884E+06     2.32788E+06    -303.820E-03     599.490E-03    -295.670E-03     231.611E-03    -313.040E-03     608.502E-03    -295.367E-03     187.234E-03
            1761     8.70744E-03     63.2408E-03    -33.2534E+06     9.03265E+06     49.0120E+06     2.31322E+06    -303.344E-03     598.995E-03    -295.651E-03     227.455E-03    -312.291E-03     607.714E-03    -295.371E-03     183.994E-03
            1762     8.03800E-03     62.9001E-03    -39.6314E+06     1.35789E+06     39.0466E+06     2.15068E+06    -302.668E-03     598.303E-03    -295.636E-03     220.080E-03    -311.112E-03     606.499E-03    -295.385E-03     178.056E-03
            1763     7.36795E-03     62.5738E-03    -46.0188E+06    -6.48039E+06     28.9913E+06     2.15845E+06    -301.903E-03     597.531E-03    -295.627E-03     209.929E-03    -309.639E-03     604.996E-03    -295.406E-03     169.869E-03
            1764     6.69825E-03     62.2644E-03    -52.7767E+06    -14.8374E+06     18.5613E+06     2.02152E+06    -301.054E-03     596.677E-03    -295.623E-03     197.230E-03    -307.935E-03     603.264E-03    -295.432E-03     159.586E-03
            1765     6.02800E-03     61.9778E-03    -60.1005E+06    -24.0467E+06     6.95131E+06     1.77134E+06    -300.061E-03     595.684E-03    -295.623E-03     181.972E-03    -305.978E-03     601.282E-03    -295.466E-03     147.215E-03
            1766     5.35788E-03     61.7171E-03    -67.7003E+06    -34.0319E+06    -6.41724E+06     1.55706E+06    -299.136E-03     594.758E-03    -295.622E-03     164.600E-03    -304.042E-03     599.321E-03    -295.507E-03     133.117E-03
            1767     4.68810E-03     61.4839E-03    -75.3665E+06     -45.808E+06    -22.1770E+06     1.42392E+06    -298.320E-03     593.932E-03    -295.613E-03     145.863E-03    -302.234E-03     597.481E-03    -295.548E-03     117.949E-03
            1768     4.01814E-03     61.2802E-03    -82.8241E+06    -82.9466E+06    -38.5812E+06     1.25023E+06    -297.603E-03     593.238E-03    -295.635E-03     126.193E-03    -300.566E-03     595.724E-03    -295.588E-03     102.031E-03
            1769     3.34822E-03     61.1071E-03    -89.7735E+06    -119.895E+06    -54.2919E+06     990.311E+03    -297.001E-03     592.660E-03    -295.658E-03     105.898E-03    -299.121E-03     594.192E-03    -295.626E-03     85.6093E-03
            1770     2.67853E-03     60.9648E-03    -96.5785E+06    -131.343E+06    -70.6579E+06     845.306E+03    -296.473E-03     592.111E-03    -295.639E-03     85.2554E-03    -297.915E-03     592.949E-03    -295.662E-03     68.9239E-03
            1771     2.00884E-03     60.8535E-03    -102.626E+06    -141.499E+06    -86.5528E+06     670.958E+03    -296.077E-03     591.693E-03    -295.616E-03     64.3996E-03    -296.981E-03     591.981E-03    -295.695E-03     52.0670E-03
            1772     1.33913E-03     60.7733E-03    -107.195E+06    -150.321E+06    -99.5144E+06     389.052E+03    -295.826E-03     591.419E-03    -295.593E-03     43.5516E-03    -296.339E-03     591.307E-03    -295.717E-03     35.1975E-03
            1773     669.702E-06     60.7241E-03    -110.160E+06    -156.338E+06    -108.165E+06     331.914E+03    -295.779E-03     591.226E-03    -295.447E-03     23.8208E-03    -296.058E-03     590.873E-03    -295.602E-03     19.2225E-03
            1774     12.7310E-03     63.5753E-03    -3.00371E+06     38.8333E+06     73.5657E+06     522.865E+03    -300.142E-03     595.756E-03    -295.614E-03     179.839E-03    -305.880E-03     601.408E-03    -295.298E-03     144.995E-03
            1775     12.0579E-03     63.2534E-03    -7.84662E+06     33.4191E+06     63.1771E+06    -171.265E+03    -301.815E-03     597.427E-03    -295.612E-03     216.460E-03    -309.724E-03     605.244E-03    -295.333E-03     174.573E-03
            1776     11.3877E-03     62.9299E-03    -12.2212E+06     28.3757E+06     58.5671E+06     324.750E+03    -303.005E-03     598.642E-03    -295.637E-03     222.358E-03    -311.309E-03     606.833E-03    -295.368E-03     179.663E-03
            1777     10.7173E-03     62.5816E-03    -17.4035E+06     25.4593E+06     62.4433E+06     794.107E+03    -304.004E-03     599.672E-03    -295.669E-03     230.174E-03    -313.021E-03     608.537E-03    -295.368E-03     185.707E-03
            1778     10.0480E-03     62.2302E-03    -23.0711E+06     20.2871E+06     60.3540E+06     815.021E+03    -303.914E-03     599.575E-03    -295.661E-03     231.849E-03    -313.133E-03     608.609E-03    -295.355E-03     187.147E-03
            1779     9.37734E-03     61.8783E-03    -28.4814E+06     14.5598E+06     55.3136E+06     510.102E+03    -303.617E-03     599.269E-03    -295.652E-03     231.355E-03    -312.840E-03     608.282E-03    -295.355E-03     186.935E-03
            1780     8.70811E-03     61.5282E-03    -33.7496E+06     8.45232E+06     48.8275E+06     702.556E+03    -303.172E-03     598.822E-03    -295.650E-03     227.393E-03    -312.129E-03     607.547E-03    -295.369E-03     183.878E-03
            1781     8.03789E-03     61.1890E-03    -39.7716E+06     1.08941E+06     39.1454E+06     1.08194E+06    -302.593E-03     598.239E-03    -295.646E-03     220.532E-03    -311.048E-03     606.443E-03    -295.394E-03     178.489E-03
            1782     7.36796E-03     60.8619E-03    -46.0669E+06    -6.62633E+06     29.3115E+06     1.39071E+06    -301.921E-03     597.571E-03    -295.650E-03     210.682E-03    -309.667E-03     605.045E-03    -295.427E-03     170.629E-03
            1783     6.69761E-03     60.5532E-03    -52.3490E+06    -14.3651E+06     20.1202E+06     1.66221E+06    -301.036E-03     596.699E-03    -295.663E-03     197.751E-03    -307.920E-03     603.288E-03    -295.466E-03     160.140E-03
            1784     6.02755E-03     60.2665E-03    -59.3841E+06    -23.3938E+06     8.38886E+06     1.77028E+06    -300.107E-03     595.776E-03    -295.670E-03     182.103E-03    -306.017E-03     601.368E-03    -295.508E-03     147.384E-03
            1785     5.35766E-03     60.0053E-03    -66.7750E+06    -33.3217E+06    -5.35681E+06     1.76624E+06    -299.175E-03     594.845E-03    -295.669E-03     164.542E-03    -304.071E-03     599.400E-03    -295.551E-03     133.101E-03
            1786     4.68761E-03     59.7722E-03    -74.4682E+06    -44.9681E+06    -21.3475E+06     1.70813E+06    -298.274E-03     593.941E-03    -295.667E-03     145.788E-03    -302.183E-03     597.487E-03    -295.600E-03     117.902E-03
            1787     4.01771E-03     59.5686E-03    -81.8198E+06    -81.5900E+06    -37.7901E+06     1.56928E+06    -297.589E-03     593.290E-03    -295.701E-03     126.039E-03    -300.547E-03     595.778E-03    -295.653E-03     101.890E-03
            1788     3.34800E-03     59.3954E-03    -89.1806E+06    -118.572E+06    -53.9420E+06     1.41921E+06    -297.055E-03     592.784E-03    -295.729E-03     105.665E-03    -299.171E-03     594.319E-03    -295.697E-03     85.3869E-03
            1789     2.67825E-03     59.2529E-03    -96.2228E+06    -130.168E+06    -70.4658E+06     1.15048E+06    -296.558E-03     592.263E-03    -295.705E-03     84.9938E-03    -297.997E-03     593.103E-03    -295.729E-03     68.6748E-03
            1790     2.00862E-03     59.1416E-03    -102.192E+06    -140.089E+06    -86.1062E+06     868.057E+03    -296.157E-03     591.832E-03    -295.674E-03     64.1905E-03    -297.060E-03     592.124E-03    -295.754E-03     51.8622E-03
            1791     1.33911E-03     59.0613E-03    -106.847E+06    -148.957E+06    -99.1977E+06     642.304E+03    -295.860E-03     591.511E-03    -295.651E-03     43.4033E-03    -296.374E-03     591.404E-03    -295.776E-03     35.0599E-03
            1792     669.405E-06     59.0121E-03    -109.929E+06    -155.049E+06    -107.972E+06     294.694E+03    -295.980E-03     591.349E-03    -295.370E-03     23.8531E-03    -296.260E-03     591.002E-03    -295.525E-03     19.2247E-03
            1793     12.7243E-03     61.8660E-03    -3.54280E+06     37.3853E+06     72.5160E+06    -218.869E+03    -299.800E-03     595.501E-03    -295.701E-03     182.044E-03    -305.600E-03     601.211E-03    -295.388E-03     147.050E-03
            1794     12.0552E-03     61.5403E-03    -7.28537E+06     33.4397E+06     64.6466E+06     688.193E+03    -303.056E-03     598.747E-03    -295.691E-03     216.375E-03    -310.991E-03     606.587E-03    -295.406E-03     174.246E-03
            1795     11.3859E-03     61.2155E-03    -11.2409E+06     28.9480E+06     60.3957E+06     2.17757E+06    -304.060E-03     599.707E-03    -295.648E-03     221.342E-03    -312.333E-03     607.868E-03    -295.371E-03     178.618E-03
            1796     10.7179E-03     60.8680E-03    -15.6874E+06     26.6747E+06     64.5779E+06     1.95970E+06    -304.019E-03     599.658E-03    -295.639E-03     229.533E-03    -313.018E-03     608.510E-03    -295.332E-03     185.097E-03
            1797     10.0475E-03     60.5193E-03    -21.1368E+06     21.5766E+06     61.8515E+06     903.055E+03    -303.572E-03     599.204E-03    -295.632E-03     231.673E-03    -312.805E-03     608.259E-03    -295.323E-03     186.902E-03
            1798     9.37846E-03     60.1657E-03    -26.9044E+06     15.2689E+06     55.5958E+06     476.654E+03    -303.224E-03     598.865E-03    -295.640E-03     231.549E-03    -312.449E-03     607.886E-03    -295.346E-03     187.142E-03
            1799     8.70770E-03     59.8180E-03    -33.4559E+06     7.81730E+06     47.6381E+06     464.079E+03    -302.841E-03     598.510E-03    -295.668E-03     228.027E-03    -311.786E-03     607.225E-03    -295.393E-03     184.624E-03
            1800     8.03731E-03     59.4772E-03    -39.5751E+06     623.957E+03     38.0401E+06     578.599E+03    -302.564E-03     598.257E-03    -295.693E-03     221.022E-03    -310.999E-03     606.443E-03    -295.446E-03     179.080E-03
            1801     7.36702E-03     59.1503E-03    -45.9044E+06    -6.97787E+06     28.1274E+06     458.882E+03    -302.022E-03     597.725E-03    -295.703E-03     210.628E-03    -309.754E-03     605.188E-03    -295.486E-03     170.589E-03
            1802     6.69720E-03     58.8414E-03    -52.9296E+06    -15.3938E+06     18.4226E+06     460.087E+03    -301.196E-03     596.903E-03    -295.707E-03     197.455E-03    -308.073E-03     603.483E-03    -295.515E-03     159.812E-03
            1803     6.02743E-03     58.5545E-03    -59.7628E+06    -24.0155E+06     7.84512E+06     830.518E+03    -300.245E-03     595.948E-03    -295.703E-03     181.809E-03    -306.147E-03     601.530E-03    -295.542E-03     147.082E-03
            1804     5.35752E-03     58.2937E-03    -66.8254E+06    -33.4901E+06    -5.01498E+06     1.27683E+06    -299.242E-03     594.936E-03    -295.694E-03     164.246E-03    -304.133E-03     599.485E-03    -295.573E-03     132.798E-03
            1805     4.68762E-03     58.0607E-03    -74.2356E+06    -44.6428E+06    -21.0422E+06     1.70618E+06    -298.354E-03     594.031E-03    -295.677E-03     145.359E-03    -302.255E-03     597.571E-03    -295.610E-03     117.477E-03
            1806     4.01772E-03     57.8567E-03    -81.8366E+06    -80.5905E+06    -37.8248E+06     1.89385E+06    -297.661E-03     593.351E-03    -295.690E-03     125.474E-03    -300.612E-03     595.835E-03    -295.644E-03     101.335E-03
            1807     3.34796E-03     57.6834E-03    -89.1576E+06    -116.867E+06    -53.6625E+06     1.63016E+06    -297.063E-03     592.762E-03    -295.699E-03     105.126E-03    -299.177E-03     594.300E-03    -295.669E-03     84.8451E-03
            1808     2.67837E-03     57.5409E-03    -95.9274E+06    -128.337E+06    -69.9247E+06     1.23603E+06    -296.520E-03     592.184E-03    -295.665E-03     84.5705E-03    -297.958E-03     593.029E-03    -295.689E-03     68.2461E-03
            1809     2.00879E-03     57.4295E-03    -101.908E+06    -138.597E+06    -85.6650E+06     887.181E+03    -296.104E-03     591.733E-03    -295.628E-03     63.8900E-03    -297.008E-03     592.031E-03    -295.708E-03     51.5544E-03
            1810     1.33912E-03     57.3494E-03    -106.564E+06    -147.602E+06    -98.7889E+06     589.702E+03    -295.815E-03     591.415E-03    -295.600E-03     43.2203E-03    -296.329E-03     591.313E-03    -295.725E-03     34.8701E-03
            1811     669.635E-06     57.3001E-03    -109.135E+06    -153.433E+06    -107.314E+06     331.520E+03    -295.839E-03     591.241E-03    -295.403E-03     23.8056E-03    -296.118E-03     590.900E-03    -295.558E-03     19.1761E-03
            1812     12.7257E-03     60.1513E-03    -4.58112E+06     36.0679E+06     70.7768E+06    -592.388E+03    -300.667E-03     596.367E-03    -295.699E-03     178.735E-03    -306.379E-03     601.984E-03    -295.391E-03     143.770E-03
            1813     12.0570E-03     59.8267E-03    -9.40244E+06     31.1516E+06     62.4814E+06     105.829E+03    -303.331E-03     598.966E-03    -295.635E-03     213.218E-03    -311.180E-03     606.711E-03    -295.354E-03     171.131E-03
            1814     11.3890E-03     59.5010E-03    -12.0385E+06     28.2283E+06     60.2003E+06     644.740E+03    -303.362E-03     598.950E-03    -295.588E-03     219.960E-03    -311.616E-03     607.087E-03    -295.310E-03     177.258E-03
            1815     10.7182E-03     59.1576E-03    -15.5059E+06     26.8830E+06     65.2750E+06     127.799E+03    -303.242E-03     598.859E-03    -295.617E-03     229.786E-03    -312.257E-03     607.725E-03    -295.307E-03     185.365E-03
            1816     10.0489E-03     58.8066E-03    -20.6886E+06     21.7658E+06     63.3176E+06     480.564E+03    -303.150E-03     598.809E-03    -295.659E-03     232.826E-03    -312.388E-03     607.867E-03    -295.344E-03     188.185E-03
            1817     9.37750E-03     58.4564E-03    -26.3724E+06     15.4358E+06     56.9359E+06     1.41274E+06    -303.166E-03     598.867E-03    -295.701E-03     232.614E-03    -312.387E-03     607.884E-03    -295.400E-03     188.353E-03
            1818     8.70683E-03     58.1067E-03    -31.9749E+06     8.85362E+06     48.8991E+06     1.62699E+06    -303.153E-03     598.885E-03    -295.732E-03     228.274E-03    -312.078E-03     607.586E-03    -295.454E-03     184.950E-03
            1819     8.03671E-03     57.7656E-03    -38.3478E+06     1.34138E+06     38.6959E+06     1.05230E+06    -302.836E-03     598.573E-03    -295.736E-03     220.572E-03    -311.244E-03     606.737E-03    -295.489E-03     178.658E-03
            1820     7.36705E-03     57.4381E-03    -45.1053E+06    -6.68532E+06     28.3553E+06     752.282E+03    -302.172E-03     597.898E-03    -295.726E-03     210.020E-03    -309.885E-03     605.344E-03    -295.509E-03     169.985E-03
            1821     6.69726E-03     57.1294E-03    -52.0552E+06    -15.1399E+06     18.2628E+06     664.651E+03    -301.306E-03     597.015E-03    -295.709E-03     196.958E-03    -308.171E-03     603.589E-03    -295.520E-03     159.297E-03
            1822     6.02736E-03     56.8426E-03    -59.6220E+06    -24.5358E+06     6.54968E+06     602.496E+03    -300.323E-03     596.008E-03    -295.684E-03     181.333E-03    -306.220E-03     601.586E-03    -295.530E-03     146.569E-03
            1823     5.35754E-03     56.5818E-03    -67.2423E+06    -34.4102E+06    -6.52035E+06     827.139E+03    -299.376E-03     595.028E-03    -295.652E-03     163.725E-03    -304.261E-03     599.571E-03    -295.537E-03     132.239E-03
            1824     4.68787E-03     56.3487E-03    -75.0328E+06    -45.2235E+06    -21.8074E+06     1.28743E+06    -298.486E-03     594.092E-03    -295.605E-03     144.846E-03    -302.385E-03     597.626E-03    -295.540E-03     116.933E-03
            1825     4.01830E-03     56.1449E-03    -82.2753E+06    -79.6978E+06    -37.6336E+06     1.40364E+06    -297.664E-03     593.254E-03    -295.589E-03     125.098E-03    -300.617E-03     595.741E-03    -295.543E-03     100.932E-03
            1826     3.34867E-03     55.9718E-03    -89.0027E+06    -115.203E+06    -53.1311E+06     1.11912E+06    -296.971E-03     592.552E-03    -295.581E-03     104.963E-03    -299.089E-03     594.099E-03    -295.551E-03     84.6553E-03
            1827     2.67886E-03     55.8293E-03    -95.6916E+06    -127.012E+06    -69.5000E+06     871.042E+03    -296.425E-03     591.961E-03    -295.537E-03     84.5093E-03    -297.865E-03     592.813E-03    -295.561E-03     68.1691E-03
            1828     2.00904E-03     55.7180E-03    -101.412E+06    -137.261E+06    -85.1888E+06     654.204E+03    -296.025E-03     591.508E-03    -295.483E-03     63.7112E-03    -296.927E-03     591.810E-03    -295.563E-03     51.3797E-03
            1829     1.33937E-03     55.6377E-03    -105.853E+06    -146.283E+06    -98.2434E+06     368.005E+03    -295.712E-03     591.134E-03    -295.422E-03     42.9945E-03    -296.224E-03     591.036E-03    -295.548E-03     34.6520E-03
            1830     669.643E-06     55.5883E-03    -108.822E+06    -152.339E+06    -106.867E+06     135.131E+03    -295.494E-03     590.843E-03    -295.349E-03     23.5768E-03    -295.773E-03     590.505E-03    -295.505E-03     18.9673E-03
            1831     12.7291E-03     58.4422E-03    -3.80807E+06     35.8298E+06     71.6067E+06     691.782E+03    -301.292E-03     596.865E-03    -295.573E-03     178.495E-03    -306.954E-03     602.433E-03    -295.262E-03     143.736E-03
            1832     12.0595E-03     58.1114E-03    -7.37066E+06     31.2827E+06     63.7553E+06     200.162E+03    -302.025E-03     597.559E-03    -295.534E-03     214.488E-03    -309.834E-03     605.268E-03    -295.249E-03     172.840E-03
            1833     11.3881E-03     57.7923E-03    -10.6213E+06     28.7360E+06     60.8232E+06    -868.106E+03    -302.004E-03     597.579E-03    -295.575E-03     221.988E-03    -310.273E-03     605.735E-03    -295.297E-03     179.524E-03
            1834     10.7179E-03     57.4450E-03    -15.5352E+06     26.0299E+06     64.4656E+06     46.6330E+03    -302.687E-03     598.370E-03    -295.683E-03     231.857E-03    -311.700E-03     607.233E-03    -295.376E-03     187.698E-03
            1835     10.0459E-03     57.0974E-03    -21.7230E+06     19.9512E+06     61.1958E+06     559.916E+03    -303.314E-03     599.073E-03    -295.759E-03     233.738E-03    -312.542E-03     608.117E-03    -295.450E-03     189.209E-03
            1836     9.37578E-03     56.7433E-03    -26.9978E+06     14.3746E+06     55.7094E+06     231.009E+03    -303.856E-03     599.643E-03    -295.786E-03     232.382E-03    -313.069E-03     608.649E-03    -295.489E-03     188.032E-03
            1837     8.70665E-03     56.3946E-03    -32.2213E+06     8.71416E+06     49.3313E+06     89.3564E+03    -303.822E-03     599.593E-03    -295.772E-03     227.585E-03    -312.748E-03     608.293E-03    -295.491E-03     184.094E-03
            1838     8.03717E-03     56.0533E-03    -38.3727E+06     1.36188E+06     39.4952E+06     576.166E+03    -303.164E-03     598.893E-03    -295.729E-03     219.884E-03    -311.569E-03     607.051E-03    -295.477E-03     177.886E-03
            1839     7.36726E-03     55.7262E-03    -44.7839E+06    -6.64311E+06     28.7443E+06     1.03733E+06    -302.245E-03     597.932E-03    -295.687E-03     209.423E-03    -309.943E-03     605.364E-03    -295.469E-03     169.395E-03
            1840     6.69746E-03     55.4171E-03    -51.5737E+06    -14.9875E+06     18.6659E+06     1.25008E+06    -301.312E-03     596.966E-03    -295.654E-03     196.387E-03    -308.168E-03     603.531E-03    -295.464E-03     158.727E-03
            1841     6.02790E-03     55.1307E-03    -58.8980E+06    -24.1014E+06     7.34569E+06     1.48575E+06    -300.372E-03     595.984E-03    -295.612E-03     180.835E-03    -306.265E-03     601.562E-03    -295.455E-03     146.042E-03
            1842     5.35832E-03     54.8698E-03    -66.6883E+06    -34.1325E+06    -5.83217E+06     1.59063E+06    -299.403E-03     594.961E-03    -295.558E-03     163.424E-03    -304.288E-03     599.505E-03    -295.441E-03     131.920E-03
            1843     4.68872E-03     54.6368E-03    -74.1192E+06    -44.6352E+06    -21.0285E+06     1.13422E+06    -298.403E-03     593.901E-03    -295.498E-03     144.788E-03    -302.304E-03     597.441E-03    -295.431E-03     116.842E-03
            1844     4.01884E-03     54.4336E-03    -81.2811E+06    -78.9396E+06    -36.9976E+06     669.343E+03    -297.567E-03     593.045E-03    -295.477E-03     125.255E-03    -300.525E-03     595.541E-03    -295.430E-03     101.046E-03
            1845     3.34890E-03     54.2606E-03    -88.4438E+06    -114.551E+06    -52.8633E+06     603.245E+03    -296.924E-03     592.385E-03    -295.461E-03     105.109E-03    -299.043E-03     593.936E-03    -295.431E-03     84.7885E-03
            1846     2.67910E-03     54.1181E-03    -95.1172E+06    -126.145E+06    -69.1501E+06     548.913E+03    -296.375E-03     591.775E-03    -295.400E-03     84.5962E-03    -297.814E-03     592.629E-03    -295.425E-03     68.2649E-03
            1847     2.00951E-03     54.0065E-03    -100.963E+06    -136.361E+06    -84.7394E+06     392.387E+03    -295.953E-03     591.276E-03    -295.323E-03     63.7911E-03    -296.855E-03     591.581E-03    -295.403E-03     51.4603E-03
            1848     1.33982E-03     53.9268E-03    -105.485E+06    -145.317E+06    -97.7148E+06     302.582E+03    -295.591E-03     590.822E-03    -295.231E-03     43.0425E-03    -296.104E-03     590.728E-03    -295.356E-03     34.6963E-03
            1849     670.029E-06     53.8775E-03    -108.376E+06    -151.479E+06    -106.535E+06     180.292E+03    -295.372E-03     590.422E-03    -295.051E-03     23.3908E-03    -295.650E-03     590.088E-03    -295.207E-03     18.7850E-03
            1850     12.7297E-03     56.7271E-03    -3.42954E+06     37.0653E+06     72.0110E+06     188.336E+03    -300.491E-03     596.078E-03    -295.586E-03     181.323E-03    -306.225E-03     601.722E-03    -295.275E-03     146.568E-03
            1851     12.0584E-03     56.4054E-03    -6.47294E+06     33.0313E+06     65.1577E+06     129.766E+03    -301.441E-03     597.055E-03    -295.615E-03     217.881E-03    -309.302E-03     604.822E-03    -295.327E-03     176.442E-03
            1852     11.3870E-03     56.0813E-03    -11.3004E+06     27.3542E+06     59.4644E+06    -604.195E+03    -302.140E-03     597.831E-03    -295.691E-03     223.584E-03    -310.407E-03     605.983E-03    -295.417E-03     181.259E-03
            1853     10.7147E-03     55.7364E-03    -17.2125E+06     23.2591E+06     61.3793E+06    -424.071E+03    -303.370E-03     599.153E-03    -295.783E-03     231.341E-03    -312.365E-03     607.992E-03    -295.485E-03     187.090E-03
            1854     10.0455E-03     55.3835E-03    -21.5631E+06     19.5347E+06     60.2006E+06    -525.610E+03    -304.043E-03     599.854E-03    -295.810E-03     232.035E-03    -313.241E-03     608.869E-03    -295.506E-03     187.326E-03
            1855     9.37651E-03     55.0311E-03    -26.2164E+06     14.7067E+06     55.3822E+06    -399.098E+03    -304.274E-03     600.057E-03    -295.783E-03     230.883E-03    -313.448E-03     609.030E-03    -295.490E-03     186.457E-03
            1856     8.70676E-03     54.6806E-03    -32.4738E+06     7.93159E+06     47.5600E+06    -146.870E+03    -303.951E-03     599.679E-03    -295.728E-03     226.599E-03    -312.854E-03     608.358E-03    -295.455E-03     183.085E-03
            1857     8.03749E-03     54.3408E-03    -39.1031E+06     217.374E+03     38.0517E+06     121.923E+03    -303.240E-03     598.905E-03    -295.665E-03     219.271E-03    -311.646E-03     607.062E-03    -295.418E-03     177.211E-03
            1858     7.36810E-03     54.0143E-03    -45.5307E+06    -7.57554E+06     28.3337E+06     512.918E+03    -302.318E-03     597.925E-03    -295.607E-03     209.139E-03    -310.029E-03     605.365E-03    -295.389E-03     169.033E-03
            1859     6.69849E-03     53.7055E-03    -51.8328E+06    -15.2964E+06     18.9568E+06     949.865E+03    -301.296E-03     596.856E-03    -295.560E-03     196.258E-03    -308.157E-03     603.424E-03    -295.368E-03     158.568E-03
            1860     6.02865E-03     53.4189E-03    -58.9838E+06    -24.2316E+06     7.98192E+06     953.097E+03    -300.270E-03     595.784E-03    -295.515E-03     180.922E-03    -306.168E-03     601.364E-03    -295.354E-03     146.124E-03
            1861     5.35888E-03     53.1580E-03    -66.0167E+06    -33.5740E+06    -4.46195E+06     776.377E+03    -299.240E-03     594.708E-03    -295.468E-03     163.647E-03    -304.129E-03     599.257E-03    -295.346E-03     132.135E-03
            1862     4.68889E-03     52.9257E-03    -73.1432E+06    -43.9064E+06    -19.9217E+06     766.104E+03    -298.254E-03     593.671E-03    -295.417E-03     144.967E-03    -302.155E-03     597.214E-03    -295.347E-03     117.026E-03
            1863     4.01896E-03     52.7224E-03    -80.6505E+06    -78.2683E+06    -36.5446E+06     806.525E+03    -297.490E-03     592.891E-03    -295.401E-03     125.343E-03    -300.445E-03     595.388E-03    -295.353E-03     101.158E-03
            1864     3.34931E-03     52.5495E-03    -88.1684E+06    -113.833E+06    -52.6235E+06     712.124E+03    -296.899E-03     592.280E-03    -295.381E-03     105.231E-03    -299.017E-03     593.833E-03    -295.351E-03     84.9378E-03
            1865     2.67960E-03     52.4072E-03    -95.0752E+06    -125.501E+06    -68.9966E+06     557.646E+03    -296.319E-03     591.633E-03    -295.314E-03     84.7894E-03    -297.761E-03     592.492E-03    -295.339E-03     68.4676E-03
            1866     2.00959E-03     52.2958E-03    -101.014E+06    -135.722E+06    -84.7954E+06     410.258E+03    -295.806E-03     591.052E-03    -295.247E-03     64.0287E-03    -296.711E-03     591.363E-03    -295.327E-03     51.6997E-03
            1867     1.33974E-03     52.2159E-03    -105.590E+06    -144.730E+06    -97.8942E+06     193.280E+03    -295.445E-03     590.642E-03    -295.197E-03     43.2795E-03    -295.961E-03     590.554E-03    -295.324E-03     34.9222E-03
            1868     669.869E-06     52.1676E-03    -108.562E+06    -150.747E+06    -106.469E+06     64.6612E+03    -295.574E-03     590.418E-03    -294.845E-03     23.6316E-03    -295.855E-03     590.088E-03    -295.001E-03     19.0175E-03
            1869     12.7250E-03     55.0193E-03    -2.74642E+06     38.3855E+06     70.6404E+06    -60.9516E+03    -299.530E-03     595.250E-03    -295.720E-03     180.516E-03    -305.262E-03     600.904E-03    -295.419E-03     145.762E-03
            1870     12.0538E-03     54.6913E-03    -7.66583E+06     32.9672E+06     60.9270E+06    -742.240E+03    -301.882E-03     597.631E-03    -295.749E-03     216.443E-03    -309.745E-03     605.407E-03    -295.481E-03     174.755E-03
            1871     11.3838E-03     54.3709E-03    -13.1299E+06     25.6466E+06     56.4251E+06    -974.158E+03    -303.363E-03     599.141E-03    -295.777E-03     222.029E-03    -311.619E-03     607.277E-03    -295.513E-03     179.428E-03
            1872     10.7163E-03     54.0216E-03    -16.7903E+06     23.7530E+06     61.8291E+06    -714.615E+03    -304.534E-03     600.327E-03    -295.793E-03     229.849E-03    -313.531E-03     609.170E-03    -295.494E-03     185.289E-03
            1873     10.0471E-03     53.6717E-03    -20.9525E+06     20.1596E+06     60.5051E+06    -331.846E+03    -304.599E-03     600.347E-03    -295.748E-03     231.063E-03    -313.775E-03     609.344E-03    -295.444E-03     186.304E-03
            1874     9.37712E-03     53.3176E-03    -26.8706E+06     14.0293E+06     54.4896E+06    -223.471E+03    -304.301E-03     599.985E-03    -295.684E-03     230.095E-03    -313.456E-03     608.936E-03    -295.393E-03     185.704E-03
            1875     8.70808E-03     52.9685E-03    -33.3419E+06     6.78668E+06     45.9454E+06    -192.667E+03    -303.657E-03     599.278E-03    -295.621E-03     225.907E-03    -312.548E-03     607.941E-03    -295.352E-03     182.420E-03
            1876     8.03827E-03     52.6285E-03    -38.9937E+06    -248.395E+03     36.3331E+06    -204.218E+03    -302.935E-03     598.498E-03    -295.563E-03     218.888E-03    -311.331E-03     606.650E-03    -295.325E-03     176.834E-03
            1877     7.36862E-03     52.3019E-03    -45.5464E+06    -8.09679E+06     27.0339E+06    -433.495E+03    -302.111E-03     597.630E-03    -295.519E-03     209.193E-03    -309.830E-03     605.080E-03    -295.306E-03     169.044E-03
            1878     6.69890E-03     51.9940E-03    -52.7409E+06    -16.4385E+06     18.2015E+06    -496.070E+03    -301.157E-03     596.645E-03    -295.487E-03     196.719E-03    -308.035E-03     603.223E-03    -295.296E-03     159.000E-03
            1879     6.02912E-03     51.7074E-03    -59.0993E+06    -24.6252E+06     7.94281E+06    -363.465E+03    -300.140E-03     595.596E-03    -295.456E-03     181.432E-03    -306.046E-03     601.182E-03    -295.295E-03     146.637E-03
            1880     5.35907E-03     51.4471E-03    -66.1948E+06    -34.1406E+06    -5.16971E+06    -207.230E+03    -299.138E-03     594.559E-03    -295.420E-03     163.982E-03    -304.030E-03     599.109E-03    -295.301E-03     132.484E-03
            1881     4.68922E-03     51.2144E-03    -73.8763E+06    -44.8387E+06    -20.5444E+06     240.690E+03    -298.215E-03     593.594E-03    -295.379E-03     145.145E-03    -302.119E-03     597.136E-03    -295.310E-03     117.221E-03
            1882     4.01938E-03     51.0116E-03    -81.4450E+06    -78.2252E+06    -36.8032E+06     737.229E+03    -297.452E-03     592.819E-03    -295.367E-03     125.528E-03    -300.411E-03     595.317E-03    -295.319E-03     101.373E-03
            1883     3.34929E-03     50.8386E-03    -88.6676E+06    -112.896E+06    -52.9008E+06     825.829E+03    -296.841E-03     592.192E-03    -295.351E-03     105.446E-03    -298.963E-03     593.752E-03    -295.323E-03     85.1730E-03
            1884     2.67934E-03     50.6963E-03    -95.4164E+06    -124.793E+06    -69.4059E+06     593.998E+03    -296.242E-03     591.538E-03    -295.296E-03     84.8856E-03    -297.688E-03     592.403E-03    -295.323E-03     68.5617E-03
            1885     2.00965E-03     50.5853E-03    -101.326E+06    -135.059E+06    -85.2318E+06     383.001E+03    -295.712E-03     590.965E-03    -295.254E-03     64.0655E-03    -296.620E-03     591.281E-03    -295.337E-03     51.7348E-03
            1886     1.33960E-03     50.5057E-03    -105.958E+06    -144.072E+06    -98.3551E+06     226.243E+03    -295.390E-03     590.638E-03    -295.248E-03     43.2625E-03    -295.908E-03     590.554E-03    -295.377E-03     34.9084E-03
            1887     669.671E-06     50.4567E-03    -109.194E+06    -150.295E+06    -107.180E+06     100.738E+03    -295.622E-03     590.571E-03    -294.949E-03     23.6218E-03    -295.906E-03     590.245E-03    -295.109E-03     19.0170E-03
            1888     12.7250E-03     53.3024E-03    -4.14859E+06     37.6983E+06     69.1994E+06    -269.861E+03    -299.934E-03     595.750E-03    -295.816E-03     179.502E-03    -305.656E-03     601.391E-03    -295.519E-03     144.691E-03
            1889     12.0562E-03     52.9854E-03     -7.6186E+06     33.9915E+06     60.9833E+06     31.4041E+03    -302.986E-03     598.787E-03    -295.801E-03     215.553E-03    -310.849E-03     606.567E-03    -295.535E-03     173.634E-03
            1890     11.3864E-03     52.6547E-03    -10.8671E+06     28.2364E+06     56.9607E+06     694.118E+03    -304.529E-03     600.286E-03    -295.756E-03     221.572E-03    -312.786E-03     608.439E-03    -295.496E-03     178.781E-03
            1891     10.7164E-03     52.3087E-03    -16.1696E+06     24.3881E+06     60.2154E+06    -399.214E+03    -304.959E-03     600.668E-03    -295.709E-03     229.063E-03    -313.959E-03     609.522E-03    -295.419E-03     184.386E-03
            1892     10.0472E-03     51.9571E-03    -21.5656E+06     19.4946E+06     58.4092E+06    -728.719E+03    -304.613E-03     600.250E-03    -295.637E-03     230.635E-03    -313.799E-03     609.259E-03    -295.342E-03     185.810E-03
            1893     9.37907E-03     51.6052E-03    -27.4177E+06     13.1360E+06     53.1547E+06    -711.386E+03    -304.075E-03     599.648E-03    -295.573E-03     230.203E-03    -313.260E-03     608.628E-03    -295.287E-03     185.720E-03
            1894     8.70905E-03     51.2571E-03    -33.1729E+06     6.67679E+06     46.3640E+06    -800.558E+03    -303.391E-03     598.919E-03    -295.529E-03     226.516E-03    -312.305E-03     607.605E-03    -295.258E-03     183.005E-03
            1895     8.03935E-03     50.9169E-03    -39.3628E+06    -482.569E+03     37.1823E+06    -881.055E+03    -302.661E-03     598.158E-03    -295.497E-03     219.601E-03    -311.064E-03     606.312E-03    -295.254E-03     177.616E-03
            1896     7.36919E-03     50.5912E-03    -45.9915E+06    -8.59163E+06     26.9387E+06    -816.636E+03    -301.871E-03     597.347E-03    -295.476E-03     209.745E-03    -309.592E-03     604.795E-03    -295.262E-03     169.674E-03
            1897     6.69898E-03     50.2825E-03    -52.3682E+06    -16.5852E+06     17.2467E+06     -866.59E+03    -301.017E-03     596.477E-03    -295.460E-03     197.028E-03    -307.891E-03     603.057E-03    -295.274E-03     159.350E-03
            1898     6.02888E-03     49.9963E-03    -59.6747E+06    -25.7167E+06     6.13910E+06    -858.184E+03    -300.072E-03     595.513E-03    -295.441E-03     181.602E-03    -305.980E-03     601.100E-03    -295.287E-03     146.821E-03
            1899     5.35902E-03     49.7357E-03    -67.2009E+06    -35.4622E+06    -6.49252E+06    -430.215E+03    -299.100E-03     594.517E-03    -295.417E-03     164.147E-03    -303.996E-03     599.067E-03    -295.300E-03     132.659E-03
            1900     4.68908E-03     49.5033E-03    -74.6740E+06    -45.9967E+06    -21.5944E+06    -32.6453E+03    -298.154E-03     593.540E-03    -295.386E-03     145.366E-03    -302.063E-03     597.083E-03    -295.319E-03     117.444E-03
            1901     4.01900E-03     49.3006E-03    -82.1890E+06    -78.7355E+06    -37.8736E+06     334.344E+03    -297.442E-03     592.825E-03    -295.383E-03     125.802E-03    -300.407E-03     595.329E-03    -295.339E-03     101.633E-03
            1902     3.34931E-03     49.1277E-03    -89.4259E+06    -112.570E+06    -53.9297E+06     505.334E+03    -296.839E-03     592.214E-03    -295.374E-03     105.628E-03    -298.969E-03     593.782E-03    -295.351E-03     85.3332E-03
            1903     2.67955E-03     48.9856E-03    -96.0169E+06    -124.161E+06    -70.2052E+06     432.891E+03    -296.214E-03     591.546E-03    -295.332E-03     84.9795E-03    -297.665E-03     592.418E-03    -295.364E-03     68.6377E-03
            1904     2.00942E-03     48.8748E-03    -101.977E+06    -134.462E+06    -85.8944E+06     347.373E+03    -295.770E-03     591.066E-03    -295.297E-03     64.1252E-03    -296.683E-03     591.389E-03    -295.383E-03     51.7749E-03
            1905     1.33964E-03     48.7951E-03    -106.743E+06    -143.510E+06    -99.0406E+06     279.383E+03    -295.506E-03     590.770E-03    -295.264E-03     43.2873E-03    -296.027E-03     590.690E-03    -295.396E-03     34.9370E-03
            1906     669.904E-06     48.7459E-03    -109.546E+06    -149.434E+06    -107.483E+06     298.520E+03    -295.501E-03     590.556E-03    -295.055E-03     23.5660E-03    -295.787E-03     590.235E-03    -295.217E-03     18.9762E-03
            1907     12.7241E-03     51.5962E-03    -4.12329E+06     38.0118E+06     69.1895E+06    -5.47864E+03    -300.677E-03     596.524E-03    -295.848E-03     179.924E-03    -306.396E-03     602.163E-03    -295.551E-03     145.010E-03
            1908     12.0529E-03     51.2655E-03    -9.28758E+06     32.7619E+06     60.1053E+06     573.404E+03    -304.686E-03     600.453E-03    -295.766E-03     214.891E-03    -312.541E-03     608.216E-03    -295.500E-03     172.782E-03
            1909     11.3857E-03     50.9406E-03    -12.2536E+06     27.8043E+06     56.6372E+06     207.858E+03    -304.908E-03     600.552E-03    -295.644E-03     219.349E-03    -313.174E-03     608.709E-03    -295.384E-03     176.313E-03
            1910     10.7181E-03     50.5934E-03    -15.5089E+06     25.7931E+06     61.4695E+06     58.4020E+03    -304.168E-03     599.753E-03    -295.585E-03     227.771E-03    -313.157E-03     608.600E-03    -295.293E-03     183.122E-03
            1911     10.0497E-03     50.2450E-03    -21.0904E+06     20.1750E+06     58.6343E+06    -181.519E+03    -303.759E-03     599.308E-03    -295.549E-03     230.972E-03    -312.963E-03     608.338E-03    -295.254E-03     186.175E-03
            1912     9.37872E-03     49.8933E-03    -26.9299E+06     13.4760E+06     52.5260E+06    -735.208E+03    -303.609E-03     599.138E-03    -295.529E-03     231.310E-03    -312.815E-03     608.143E-03    -295.247E-03     186.866E-03
            1913     8.70911E-03     49.5451E-03    -32.7936E+06     6.86563E+06     45.9886E+06    -898.394E+03    -303.307E-03     598.824E-03    -295.517E-03     227.428E-03    -312.231E-03     607.522E-03    -295.249E-03     183.965E-03
            1914     8.03875E-03     49.2061E-03    -39.4527E+06    -931.704E+03      37.075E+06    -566.104E+03    -302.712E-03     598.211E-03    -295.499E-03     220.132E-03    -311.127E-03     606.375E-03    -295.255E-03     178.164E-03
            1915     7.36872E-03     48.8796E-03    -45.5297E+06    -8.46884E+06     27.7514E+06    -398.252E+03    -301.934E-03     597.415E-03    -295.481E-03     209.943E-03    -309.654E-03     604.863E-03    -295.264E-03     169.909E-03
            1916     6.69893E-03     48.5714E-03    -52.1061E+06    -16.4767E+06     17.6906E+06    -342.137E+03    -301.017E-03     596.481E-03    -295.464E-03     197.009E-03    -307.888E-03     603.057E-03    -295.276E-03     159.366E-03
            1917     6.02902E-03     48.2852E-03    -59.5615E+06    -25.9409E+06     5.65608E+06    -198.695E+03    -299.969E-03     595.417E-03    -295.448E-03     181.577E-03    -305.874E-03     601.002E-03    -295.295E-03     146.824E-03
            1918     5.35898E-03     48.0246E-03    -67.3108E+06    -36.0957E+06    -7.75154E+06    -151.047E+03    -298.927E-03     594.368E-03    -295.440E-03     164.295E-03    -303.824E-03     598.920E-03    -295.329E-03     132.824E-03
            1919     4.68887E-03     47.7926E-03    -75.0293E+06    -46.8506E+06    -22.9248E+06     9.96829E+03    -298.082E-03     593.516E-03    -295.435E-03     145.648E-03    -301.995E-03     597.063E-03    -295.373E-03     117.720E-03
            1920     4.01894E-03     47.5894E-03    -82.4127E+06    -79.2638E+06    -38.6843E+06     206.387E+03    -297.467E-03     592.917E-03    -295.450E-03     126.068E-03    -300.438E-03     595.426E-03    -295.409E-03     101.871E-03
            1921     3.34897E-03     47.4166E-03    -89.4895E+06    -112.494E+06    -54.2134E+06     290.275E+03    -296.856E-03     592.311E-03    -295.455E-03     105.789E-03    -298.990E-03     593.886E-03    -295.433E-03     85.4622E-03
            1922     2.67896E-03     47.2748E-03    -96.2979E+06    -123.899E+06    -70.4306E+06      333.14E+03    -296.283E-03     591.707E-03    -295.424E-03     85.1414E-03    -297.738E-03     592.584E-03    -295.457E-03     68.7862E-03
            1923     2.00934E-03     47.1639E-03    -102.221E+06    -134.032E+06    -86.0444E+06     300.054E+03    -295.914E-03     591.298E-03    -295.384E-03     64.2856E-03    -296.829E-03     591.625E-03    -295.472E-03     51.9280E-03
            1924     1.33958E-03     47.0840E-03    -106.661E+06    -142.886E+06    -98.9842E+06     230.706E+03    -295.624E-03     590.956E-03    -295.332E-03     43.4148E-03    -296.147E-03     590.880E-03    -295.465E-03     35.0485E-03
            1925     669.791E-06     47.0352E-03    -109.223E+06    -148.678E+06    -107.452E+06     92.6960E+03    -295.512E-03     590.670E-03    -295.158E-03     23.6650E-03    -295.798E-03     590.353E-03    -295.321E-03     19.0509E-03
            1926     12.7228E-03     49.8792E-03    -4.05221E+06     37.6632E+06     69.2029E+06     987.162E+03    -302.544E-03     598.254E-03    -295.710E-03     176.775E-03    -308.150E-03     603.779E-03    -295.413E-03     142.015E-03
            1927     12.0585E-03     49.5485E-03    -7.11766E+06     35.0331E+06     61.0058E+06    -196.708E+03    -304.111E-03     599.664E-03    -295.553E-03     210.388E-03    -311.891E-03     607.366E-03    -295.289E-03     168.164E-03
            1928     11.3910E-03     49.2263E-03    -12.0362E+06     28.3185E+06     56.0421E+06    -1.15745E+06    -302.862E-03     598.331E-03    -295.469E-03     218.556E-03    -311.113E-03     606.478E-03    -295.213E-03     175.688E-03
            1929     10.7205E-03     48.8837E-03    -17.1458E+06     24.7703E+06     61.0971E+06    -629.671E+03    -302.966E-03     598.481E-03    -295.515E-03     229.920E-03    -311.957E-03     607.322E-03    -295.221E-03     185.607E-03
            1930     10.0482E-03     48.5341E-03    -21.3315E+06     20.3961E+06     60.7034E+06     86.1293E+03    -303.437E-03     598.996E-03    -295.559E-03     232.662E-03    -312.633E-03     608.012E-03    -295.254E-03     188.121E-03
            1931     9.37864E-03     48.1817E-03    -26.3947E+06     14.4934E+06     54.9297E+06     81.5313E+03    -303.664E-03     599.227E-03    -295.563E-03     231.519E-03    -312.843E-03     608.204E-03    -295.271E-03     187.236E-03
            1932     8.70815E-03     47.8335E-03    -32.7508E+06     7.00256E+06     46.0049E+06     98.4414E+03    -303.340E-03     598.881E-03    -295.541E-03     226.898E-03    -312.239E-03     607.555E-03    -295.274E-03     183.511E-03
            1933     8.03873E-03     47.4939E-03    -38.5003E+06    -474.218E+03     36.2327E+06    -23.8328E+03    -302.713E-03     598.226E-03    -295.512E-03     219.687E-03    -311.118E-03     606.387E-03    -295.275E-03     177.713E-03
            1934     7.36902E-03     47.1686E-03    -44.8831E+06    -8.37302E+06     26.6465E+06    -77.4591E+03    -301.904E-03     597.397E-03    -295.494E-03     209.930E-03    -309.631E-03     604.858E-03    -295.283E-03     169.855E-03
            1935     6.69891E-03     46.8599E-03    -52.2849E+06    -17.0665E+06     16.7263E+06    -96.1192E+03    -300.917E-03     596.405E-03    -295.488E-03     197.316E-03    -307.801E-03     602.995E-03    -295.304E-03     159.648E-03
            1936     6.02888E-03     46.5742E-03    -59.5935E+06    -26.2331E+06     5.59165E+06     206.570E+03    -299.836E-03     595.333E-03    -295.497E-03     182.043E-03    -305.754E-03     600.930E-03    -295.344E-03     147.286E-03
            1937     5.35853E-03     46.3142E-03    -66.9917E+06    -35.9826E+06    -7.37303E+06     544.867E+03    -298.904E-03     594.416E-03    -295.512E-03     164.735E-03    -303.809E-03     598.977E-03    -295.400E-03     133.265E-03
            1938     4.68831E-03     46.0814E-03    -74.6236E+06    -46.7231E+06    -22.8069E+06     515.839E+03    -298.141E-03     593.659E-03    -295.518E-03     145.873E-03    -302.056E-03     597.209E-03    -295.456E-03     117.950E-03
            1939     4.01831E-03     45.8781E-03    -82.1189E+06    -79.2066E+06    -38.7244E+06     357.076E+03    -297.475E-03     593.019E-03    -295.544E-03     126.123E-03    -300.446E-03     595.530E-03    -295.504E-03     101.916E-03
            1940     3.34854E-03     45.7054E-03    -89.2206E+06    -112.413E+06    -54.1529E+06     245.088E+03    -296.878E-03     592.445E-03    -295.566E-03     105.778E-03    -299.012E-03     594.020E-03    -295.545E-03     85.4388E-03
            1941     2.67886E-03     45.5636E-03    -95.8922E+06    -123.653E+06    -70.2003E+06     218.439E+03    -296.379E-03     591.928E-03    -295.548E-03     85.1837E-03    -297.832E-03     592.805E-03    -295.581E-03     68.8247E-03
            1942     2.00897E-03     45.4524E-03    -101.759E+06    -133.702E+06    -85.8087E+06     196.240E+03    -296.011E-03     591.532E-03    -295.520E-03     64.3853E-03    -296.925E-03     591.859E-03    -295.608E-03     52.0310E-03
            1943     1.33933E-03     45.3728E-03    -106.196E+06    -142.437E+06    -98.6018E+06     62.7755E+03    -295.727E-03     591.217E-03    -295.491E-03     43.4698E-03    -296.250E-03     591.144E-03    -295.623E-03     35.0821E-03
            1944     669.653E-06     45.3241E-03    -108.949E+06    -148.309E+06    -107.100E+06     90.0299E+03    -295.688E-03     591.014E-03    -295.326E-03     23.6780E-03    -295.975E-03     590.699E-03    -295.488E-03     19.0339E-03
            1945     12.7335E-03     48.1596E-03    -4.58248E+06     37.1223E+06     70.0096E+06    -100.175E+03    -302.426E-03     597.912E-03    -295.487E-03     176.726E-03    -308.040E-03     603.440E-03    -295.184E-03     142.091E-03
            1946     12.0633E-03     47.8386E-03    -4.85769E+06     36.4184E+06     65.2128E+06    -138.163E+03    -301.277E-03     596.716E-03    -295.438E-03     215.568E-03    -309.091E-03     604.452E-03    -295.158E-03     174.038E-03
            1947     11.3891E-03     47.5191E-03    -11.0587E+06     28.9334E+06     58.2903E+06     1.29397E+06    -302.032E-03     597.535E-03    -295.503E-03     223.976E-03    -310.288E-03     605.685E-03    -295.238E-03     181.760E-03
            1948     10.7165E-03     47.1728E-03    -16.0330E+06     25.7711E+06     61.8687E+06     890.512E+03    -303.656E-03     599.245E-03    -295.589E-03     231.565E-03    -312.639E-03     608.083E-03    -295.294E-03     187.398E-03
            1949     10.0481E-03     46.8217E-03    -20.7767E+06     21.0253E+06     61.1077E+06    -164.139E+03    -304.106E-03     599.705E-03    -295.600E-03     231.995E-03    -313.282E-03     608.705E-03    -295.294E-03     187.419E-03
            1950     9.37809E-03     46.4694E-03    -27.0928E+06     13.9036E+06     54.7199E+06    -322.259E+03    -303.802E-03     599.372E-03    -295.570E-03     230.621E-03    -312.969E-03     608.334E-03    -295.278E-03     186.305E-03
            1951     8.70914E-03     46.1216E-03    -32.4676E+06     7.20058E+06     46.4182E+06    -233.872E+03    -303.129E-03     598.674E-03    -295.545E-03     226.629E-03    -312.026E-03     607.346E-03    -295.276E-03     183.256E-03
            1952     8.03879E-03     45.7830E-03    -39.0638E+06    -1.02064E+06     35.5803E+06    -242.526E+03    -302.421E-03     597.956E-03    -295.535E-03     220.096E-03    -310.839E-03     606.129E-03    -295.299E-03     178.144E-03
            1953     7.36841E-03     45.4569E-03    -45.7234E+06    -9.18296E+06     25.7716E+06     30.3705E+03    -301.662E-03     597.211E-03    -295.549E-03     210.620E-03    -309.413E-03     604.692E-03    -295.340E-03     170.535E-03
            1954     6.69835E-03     45.1490E-03    -52.1832E+06    -17.1982E+06     16.5894E+06      526.61E+03    -300.762E-03     596.341E-03    -295.579E-03     197.981E-03    -307.667E-03     602.951E-03    -295.395E-03     160.298E-03
            1955     6.02785E-03     44.8634E-03    -59.5010E+06    -26.3897E+06     5.46991E+06     648.883E+03    -299.920E-03     595.528E-03    -295.608E-03     182.503E-03    -305.851E-03     601.138E-03    -295.456E-03     147.717E-03
            1956     5.35782E-03     44.6027E-03    -66.9638E+06    -36.0793E+06    -7.03407E+06     621.455E+03    -299.137E-03     594.761E-03    -295.624E-03     164.944E-03    -304.048E-03     599.327E-03    -295.510E-03     133.441E-03
            1957     4.68807E-03     44.3699E-03    -74.3211E+06    -46.5326E+06    -22.0672E+06     723.102E+03    -298.278E-03     593.901E-03    -295.623E-03     145.978E-03    -302.193E-03     597.451E-03    -295.558E-03     118.048E-03
            1958     4.01816E-03     44.1668E-03    -81.5313E+06    -78.5662E+06    -38.1224E+06     672.813E+03    -297.522E-03     593.173E-03    -295.652E-03     126.173E-03    -300.492E-03     595.686E-03    -295.610E-03     101.972E-03
            1959     3.34819E-03     43.9939E-03    -88.6963E+06    -111.798E+06    -53.9362E+06     460.022E+03    -296.948E-03     592.632E-03    -295.684E-03     105.853E-03    -299.081E-03     594.209E-03    -295.662E-03     85.5193E-03
            1960     2.67830E-03     43.8519E-03    -95.6226E+06    -123.451E+06    -70.2913E+06     297.244E+03    -296.499E-03     592.170E-03    -295.672E-03     85.2229E-03    -297.950E-03     593.048E-03    -295.706E-03     68.8608E-03
            1961     2.00872E-03     43.7408E-03    -101.417E+06    -133.341E+06    -85.6887E+06     198.207E+03    -296.117E-03     591.766E-03    -295.649E-03     64.2629E-03    -297.028E-03     592.093E-03    -295.738E-03     51.9083E-03
            1962     1.33903E-03     43.6609E-03    -105.884E+06    -142.067E+06    -98.4830E+06     77.7844E+03    -295.823E-03     591.457E-03    -295.634E-03     43.3120E-03    -296.344E-03     591.384E-03    -295.767E-03     34.9318E-03
            1963     669.521E-06     43.6123E-03    -108.789E+06    -147.903E+06    -106.901E+06    -43.1988E+03    -295.883E-03     591.324E-03    -295.441E-03     23.6174E-03    -296.169E-03     591.009E-03    -295.603E-03     18.9681E-03
            1964     12.7303E-03     46.4526E-03    -2.79338E+06     37.7910E+06     71.2302E+06     155.993E+03    -299.198E-03     594.775E-03    -295.576E-03     183.096E-03    -304.943E-03     600.437E-03    -295.271E-03     148.537E-03
            1965     12.0542E-03     46.1327E-03    -10.1944E+06     30.2009E+06     59.7396E+06     908.793E+03    -302.001E-03     597.628E-03    -295.627E-03     219.380E-03    -309.876E-03     605.400E-03    -295.357E-03     177.955E-03
            1966     11.3844E-03     45.8054E-03    -11.7819E+06     28.1978E+06     58.6849E+06     388.877E+03    -303.984E-03     599.632E-03    -295.648E-03     222.205E-03    -312.222E-03     607.758E-03    -295.378E-03     179.679E-03
            1967     10.7181E-03     45.4582E-03    -14.5105E+06     27.5869E+06     64.6394E+06     12.1421E+03    -304.488E-03     600.125E-03    -295.637E-03     229.271E-03    -313.470E-03     608.966E-03    -295.332E-03     184.777E-03
            1968     10.0484E-03     45.1090E-03    -20.7010E+06     21.1023E+06     60.9358E+06    -191.757E+03    -304.027E-03     599.621E-03    -295.593E-03     231.284E-03    -313.247E-03     608.665E-03    -295.289E-03     186.470E-03
            1969     9.37937E-03     44.7575E-03    -26.1275E+06     14.4868E+06     54.0296E+06    -235.716E+03    -303.332E-03     598.905E-03    -295.573E-03     231.134E-03    -312.532E-03     607.907E-03    -295.286E-03     186.769E-03
            1970     8.70829E-03     44.4109E-03    -32.9316E+06     6.41764E+06     44.9193E+06    -27.9190E+03    -302.758E-03     598.346E-03    -295.588E-03     227.667E-03    -311.679E-03     607.043E-03    -295.325E-03     184.336E-03
            1971     8.03792E-03     44.0718E-03    -39.5510E+06    -1.59855E+06     35.3548E+06     377.693E+03    -302.240E-03     597.864E-03    -295.624E-03     221.017E-03    -310.685E-03     606.060E-03    -295.388E-03     179.077E-03
            1972     7.36765E-03     43.7460E-03    -45.7123E+06    -9.30731E+06     25.9798E+06     517.213E+03    -301.558E-03     597.227E-03    -295.669E-03     211.117E-03    -309.321E-03     604.719E-03    -295.459E-03     171.048E-03
            1973     6.69697E-03     43.4378E-03    -52.5021E+06    -17.6098E+06     16.5309E+06     504.011E+03    -300.866E-03     596.582E-03    -295.715E-03     198.158E-03    -307.772E-03     603.190E-03    -295.531E-03     160.474E-03
            1974     6.02710E-03     43.1515E-03    -59.3621E+06    -26.3513E+06     5.80067E+06     696.835E+03    -300.182E-03     595.923E-03    -295.742E-03     182.533E-03    -306.108E-03     601.529E-03    -295.588E-03     147.734E-03
            1975     5.35733E-03     42.8906E-03    -66.5839E+06    -35.9661E+06    -6.92565E+06     772.792E+03    -299.316E-03     595.063E-03    -295.747E-03     164.934E-03    -304.224E-03     599.627E-03    -295.633E-03     133.415E-03
            1976     4.68730E-03     42.6581E-03    -73.9903E+06    -46.4732E+06    -21.8577E+06     753.860E+03    -298.396E-03     594.139E-03    -295.744E-03     146.041E-03    -302.311E-03     597.690E-03    -295.678E-03     118.094E-03
            1977     4.01740E-03     42.4548E-03    -81.3380E+06    -78.0909E+06    -37.7765E+06     802.413E+03    -297.687E-03     593.457E-03    -295.769E-03     126.182E-03    -300.655E-03     595.968E-03    -295.727E-03     101.985E-03
            1978     3.34772E-03     42.2822E-03    -88.6528E+06    -111.085E+06    -53.7762E+06     759.087E+03    -297.140E-03     592.928E-03    -295.788E-03     105.736E-03    -299.269E-03     594.504E-03    -295.767E-03     85.4160E-03
            1979     2.67815E-03     42.1397E-03    -95.3331E+06    -122.710E+06    -70.0082E+06     598.971E+03    -296.642E-03     592.401E-03    -295.759E-03     85.0108E-03    -298.090E-03     593.278E-03    -295.793E-03     68.6646E-03
            1980     2.00859E-03     42.0285E-03    -101.084E+06    -132.674E+06    -85.4203E+06     402.064E+03    -296.200E-03     591.926E-03    -295.726E-03     64.0669E-03    -297.110E-03     592.253E-03    -295.814E-03     51.7126E-03
            1981     1.33909E-03     41.9490E-03    -105.710E+06    -141.437E+06    -98.2798E+06     277.453E+03    -295.895E-03     591.603E-03    -295.709E-03     43.2695E-03    -296.415E-03     591.532E-03    -295.842E-03     34.9053E-03
            1982     669.461E-06     41.8999E-03    -108.723E+06    -147.342E+06    -106.767E+06     113.640E+03    -295.929E-03     591.474E-03    -295.545E-03     23.5843E-03    -296.215E-03     591.161E-03    -295.708E-03     18.9742E-03
            1983     12.7195E-03     44.7459E-03    -3.96698E+06     35.8207E+06     70.8710E+06     539.346E+03    -300.574E-03     596.366E-03    -295.792E-03     179.953E-03    -306.248E-03     601.947E-03    -295.483E-03     145.227E-03
            1984     12.0548E-03     44.4124E-03    -7.42223E+06     33.9169E+06     64.0366E+06     348.824E+03    -304.422E-03     600.131E-03    -295.709E-03     212.545E-03    -312.240E-03     607.858E-03    -295.428E-03     170.382E-03
            1985     11.3896E-03     44.0914E-03    -10.4444E+06     29.9550E+06     60.0920E+06    -920.499E+03    -303.986E-03     599.587E-03    -295.602E-03     218.967E-03    -312.243E-03     607.740E-03    -295.330E-03     175.998E-03
            1986     10.7182E-03     43.7458E-03    -15.7400E+06     25.8525E+06     61.9638E+06    -866.929E+03    -303.558E-03     599.143E-03    -295.585E-03     229.295E-03    -312.564E-03     608.004E-03    -295.290E-03     184.788E-03
            1987     10.0487E-03     43.3964E-03    -20.6233E+06     20.6988E+06     59.9207E+06    -303.658E+03    -302.981E-03     598.594E-03    -295.613E-03     232.187E-03    -312.212E-03     607.652E-03    -295.314E-03     187.530E-03
            1988     9.37731E-03     43.0472E-03    -27.2451E+06     13.3137E+06     53.3155E+06     734.649E+03    -302.841E-03     598.507E-03    -295.666E-03     232.267E-03    -312.059E-03     607.521E-03    -295.379E-03     188.034E-03
            1989     8.70711E-03     42.6997E-03    -32.8401E+06     6.53792E+06     45.7685E+06     1.50471E+06    -302.730E-03     598.454E-03    -295.724E-03     228.389E-03    -311.669E-03     607.167E-03    -295.457E-03     185.078E-03
            1990     8.03669E-03     42.3606E-03    -38.2314E+06    -437.185E+03     36.5700E+06     1.27453E+06    -302.350E-03     598.123E-03    -295.773E-03     221.374E-03    -310.801E-03     606.331E-03    -295.534E-03     179.424E-03
            1991     7.36619E-03     42.0346E-03    -44.8517E+06    -8.63992E+06     26.4834E+06     897.989E+03    -301.886E-03     597.699E-03    -295.813E-03     211.216E-03    -309.645E-03     605.192E-03    -295.603E-03     171.124E-03
            1992     6.69642E-03     41.7260E-03    -51.9973E+06    -17.4030E+06     16.3522E+06     763.398E+03    -301.260E-03     597.096E-03    -295.836E-03     197.951E-03    -308.151E-03     603.693E-03    -295.653E-03     160.257E-03
            1993     6.02642E-03     41.4391E-03    -59.1297E+06    -26.4734E+06     5.29211E+06     569.194E+03    -300.366E-03     596.208E-03    -295.842E-03     182.178E-03    -306.275E-03     601.797E-03    -295.691E-03     147.391E-03
            1994     5.35650E-03     41.1784E-03    -66.3119E+06    -36.0137E+06    -7.10390E+06     563.016E+03    -299.399E-03     595.239E-03    -295.840E-03     164.502E-03    -304.295E-03     599.792E-03    -295.727E-03     132.981E-03
            1995     4.68682E-03     40.9459E-03    -73.5599E+06    -46.3813E+06    -21.8362E+06     728.782E+03    -298.548E-03     594.375E-03    -295.827E-03     145.504E-03    -302.452E-03     597.916E-03    -295.763E-03     117.546E-03
            1996     4.01714E-03     40.7425E-03    -80.7743E+06    -77.9262E+06    -37.5435E+06     841.806E+03    -297.870E-03     593.702E-03    -295.832E-03     125.590E-03    -300.825E-03     596.202E-03    -295.789E-03     101.402E-03
            1997     3.34760E-03     40.5695E-03    -87.7248E+06    -110.459E+06    -53.0065E+06     924.510E+03    -297.288E-03     593.112E-03    -295.824E-03     105.249E-03    -299.404E-03     594.678E-03    -295.802E-03     84.9585E-03
            1998     2.67811E-03     40.4273E-03    -94.2477E+06    -121.712E+06    -68.9370E+06     938.285E+03    -296.674E-03     592.453E-03    -295.779E-03     84.6681E-03    -298.113E-03     593.325E-03    -295.811E-03     68.3535E-03
            1999     2.00851E-03     40.3163E-03    -100.071E+06    -131.590E+06    -84.3016E+06     778.260E+03    -296.188E-03     591.936E-03    -295.747E-03     63.8778E-03    -297.093E-03     592.262E-03    -295.833E-03     51.5518E-03
            2000     1.33887E-03     40.2367E-03    -104.789E+06    -140.447E+06    -97.2491E+06     627.958E+03    -295.950E-03     591.675E-03    -295.724E-03     43.1755E-03    -296.467E-03     591.603E-03    -295.855E-03     34.8508E-03
            2001     669.512E-06     40.1873E-03    -107.663E+06    -146.326E+06    -105.709E+06     443.650E+03    -295.915E-03     591.485E-03    -295.570E-03     23.3674E-03    -296.197E-03     591.173E-03    -295.730E-03     18.8076E-03
            2002     12.7286E-03     43.0199E-03    -3.25479E+06     38.1560E+06     71.9579E+06    -650.987E+03    -302.707E-03     598.391E-03    -295.684E-03     174.892E-03    -308.324E-03     603.924E-03    -295.375E-03     139.993E-03
            2003     12.0616E-03     42.7010E-03    -6.10522E+06     35.4974E+06     64.0467E+06    -1.52990E+06    -302.696E-03     598.259E-03    -295.564E-03     212.646E-03    -310.550E-03     606.032E-03    -295.286E-03     170.467E-03
            2004     11.3876E-03     42.3797E-03    -12.1695E+06     28.0107E+06     56.6238E+06    -749.175E+03    -302.465E-03     598.013E-03    -295.548E-03     221.925E-03    -310.760E-03     606.200E-03    -295.288E-03     179.278E-03
            2005     10.7188E-03     42.0341E-03    -15.8228E+06     25.5555E+06     61.4757E+06     315.704E+03    -302.667E-03     598.307E-03    -295.640E-03     231.220E-03    -311.691E-03     607.188E-03    -295.347E-03     186.982E-03
            2006     10.0468E-03     41.6880E-03    -21.8325E+06     19.2351E+06     58.3196E+06     1.20028E+06    -302.662E-03     598.392E-03    -295.730E-03     233.249E-03    -311.888E-03     607.439E-03    -295.434E-03     188.813E-03
            2007     9.37611E-03     41.3357E-03    -27.0161E+06     13.1855E+06     52.9154E+06     1.23975E+06    -302.935E-03     598.747E-03    -295.812E-03     232.478E-03    -312.135E-03     607.744E-03    -295.527E-03     188.322E-03
            2008     8.70559E-03     40.9879E-03    -32.4857E+06     6.67137E+06     46.1312E+06     450.899E+03    -302.875E-03     598.753E-03    -295.878E-03     228.299E-03    -311.804E-03     607.457E-03    -295.610E-03     184.964E-03
            2009     8.03520E-03     40.6492E-03    -38.6144E+06    -795.725E+03     36.7806E+06     415.100E+03    -302.734E-03     598.651E-03    -295.918E-03     221.188E-03    -311.172E-03     606.843E-03    -295.677E-03     179.199E-03
            2010     7.36540E-03     40.3217E-03    -44.9609E+06    -8.71579E+06     26.8745E+06     776.469E+03    -302.400E-03     598.326E-03    -295.926E-03     210.748E-03    -310.138E-03     605.796E-03    -295.714E-03     170.621E-03
            2011     6.69569E-03     40.0130E-03    -51.4621E+06    -16.9051E+06     17.1320E+06     881.413E+03    -301.630E-03     597.540E-03    -295.910E-03     197.305E-03    -308.500E-03     604.117E-03    -295.725E-03     159.585E-03
            2012     6.02622E-03     39.7266E-03    -58.4453E+06    -26.0179E+06     5.67536E+06     887.584E+03    -300.599E-03     596.479E-03    -295.880E-03     181.390E-03    -306.480E-03     602.044E-03    -295.729E-03     146.619E-03
            2013     5.35657E-03     39.4661E-03    -65.6888E+06    -35.8166E+06    -7.36109E+06     774.886E+03    -299.597E-03     595.441E-03    -295.843E-03     163.629E-03    -304.458E-03     599.963E-03    -295.733E-03     132.164E-03
            2014     4.68690E-03     39.2330E-03    -73.1190E+06    -46.4306E+06    -22.3779E+06     738.160E+03    -298.708E-03     594.504E-03    -295.795E-03     144.619E-03    -302.583E-03     598.018E-03    -295.734E-03     116.713E-03
            2015     4.01742E-03     39.0300E-03    -80.3041E+06    -77.8390E+06    -37.8388E+06     901.538E+03    -297.936E-03     593.703E-03    -295.768E-03     124.824E-03    -300.868E-03     596.184E-03    -295.728E-03     100.682E-03
            2016     3.34787E-03     38.8570E-03    -87.3324E+06    -109.963E+06    -53.0246E+06     1.05154E+06    -297.261E-03     592.997E-03    -295.736E-03     104.572E-03    -299.361E-03     594.551E-03    -295.715E-03     84.3362E-03
            2017     2.67826E-03     38.7151E-03    -93.9870E+06    -120.797E+06    -68.7721E+06     950.067E+03    -296.627E-03     592.297E-03    -295.670E-03     83.9298E-03    -298.055E-03     593.162E-03    -295.702E-03     67.6569E-03
            2018     2.00861E-03     38.6043E-03    -99.7052E+06    -130.464E+06    -83.9369E+06     789.002E+03    -296.145E-03     591.751E-03    -295.606E-03     63.1970E-03    -297.041E-03     592.073E-03    -295.692E-03     50.9285E-03
            2019     1.33914E-03     38.5241E-03    -103.983E+06    -139.022E+06    -96.4831E+06     645.904E+03    -295.815E-03     591.366E-03    -295.551E-03     42.6236E-03    -296.325E-03     591.294E-03    -295.681E-03     34.3521E-03
            2020     669.563E-06     38.4752E-03    -106.669E+06    -144.900E+06    -104.953E+06     287.312E+03    -295.772E-03     591.110E-03    -295.338E-03     23.0389E-03    -296.051E-03     590.800E-03    -295.498E-03     18.4890E-03
            2021     12.7312E-03     41.3112E-03    -4.36818E+06     36.8694E+06     67.7753E+06    -965.048E+03    -300.129E-03     595.699E-03    -295.570E-03     179.325E-03    -305.845E-03     601.334E-03    -295.278E-03     144.535E-03
            2022     12.0555E-03     40.9921E-03    -7.55866E+06     33.4515E+06     58.1450E+06    -482.241E+03    -301.094E-03     596.684E-03    -295.590E-03     217.080E-03    -308.974E-03     604.487E-03    -295.337E-03     175.437E-03
            2023     11.3876E-03     40.6672E-03    -10.1931E+06     29.1265E+06     55.6415E+06     636.010E+03    -302.083E-03     597.767E-03    -295.684E-03     223.841E-03    -310.367E-03     605.957E-03    -295.433E-03     181.488E-03
            2024     10.7148E-03     40.3251E-03    -17.8821E+06     23.2936E+06     58.4241E+06     328.113E+03    -302.755E-03     598.565E-03    -295.810E-03     232.007E-03    -311.802E-03     607.462E-03    -295.526E-03     187.760E-03
            2025     10.0449E-03     39.9752E-03    -22.7599E+06     18.4497E+06     57.8397E+06    -1.79097E+03    -303.272E-03     599.175E-03    -295.902E-03     233.567E-03    -312.512E-03     608.231E-03    -295.607E-03     189.006E-03
            2026     9.37492E-03     39.6243E-03    -26.4373E+06     13.7907E+06     53.6815E+06    -75.4313E+03    -303.452E-03     599.412E-03    -295.960E-03     232.458E-03    -312.650E-03     608.410E-03    -295.673E-03     188.197E-03
            2027     8.70441E-03     39.2766E-03    -32.2023E+06     6.71510E+06     45.5017E+06     119.964E+03    -303.450E-03     599.438E-03    -295.988E-03     227.850E-03    -312.348E-03     608.114E-03    -295.724E-03     184.479E-03
            2028     8.03457E-03     38.9358E-03    -39.1687E+06    -1.62652E+06     35.2994E+06     216.140E+03    -303.334E-03     599.314E-03    -295.980E-03     220.229E-03    -311.727E-03     607.459E-03    -295.744E-03     178.223E-03
            2029     7.36518E-03     38.6085E-03    -45.4668E+06    -9.38359E+06     26.1339E+06     376.126E+03    -302.748E-03     598.692E-03    -295.944E-03     209.628E-03    -310.439E-03     606.113E-03    -295.734E-03     169.526E-03
            2030     6.69588E-03     38.2996E-03    -51.5601E+06    -17.1188E+06     17.1098E+06     572.516E+03    -301.847E-03     597.739E-03    -295.891E-03     196.210E-03    -308.677E-03     604.275E-03    -295.706E-03     158.518E-03
            2031     6.02644E-03     38.0136E-03    -58.2573E+06    -25.9301E+06     5.95325E+06     791.949E+03    -300.867E-03     596.686E-03    -295.819E-03     180.290E-03    -306.713E-03     602.216E-03    -295.667E-03     145.542E-03
            2032     5.35710E-03     37.7532E-03    -65.4924E+06    -35.7833E+06    -7.20835E+06     1.08861E+06    -299.831E-03     595.561E-03    -295.730E-03     162.588E-03    -304.654E-03     600.045E-03    -295.619E-03     131.197E-03
            2033     4.68779E-03     37.5205E-03    -72.6548E+06    -46.2707E+06    -22.2118E+06     1.35921E+06    -298.778E-03     594.411E-03    -295.633E-03     143.619E-03    -302.615E-03     597.890E-03    -295.572E-03     115.821E-03
            2034     4.01818E-03     37.3177E-03    -80.1317E+06    -77.1815E+06    -37.9418E+06     1.45581E+06    -297.918E-03     593.479E-03    -295.562E-03     123.873E-03    -300.823E-03     595.936E-03    -295.523E-03     99.8295E-03
            2035     3.34864E-03     37.1450E-03    -87.3056E+06    -108.781E+06    -53.1731E+06     1.15908E+06    -297.182E-03     592.669E-03    -295.487E-03     103.616E-03    -299.264E-03     594.209E-03    -295.468E-03     83.4543E-03
            2036     2.67912E-03     37.0033E-03    -93.6872E+06    -119.736E+06    -68.7131E+06     737.233E+03    -296.486E-03     591.860E-03    -295.375E-03     83.1191E-03    -297.900E-03     592.716E-03    -295.409E-03     66.9136E-03
            2037     2.00964E-03     36.8926E-03    -99.2101E+06    -129.406E+06    -83.6962E+06     567.004E+03    -295.937E-03     591.200E-03    -295.263E-03     62.6673E-03    -296.824E-03     591.518E-03    -295.350E-03     50.4576E-03
            2038     1.33984E-03     36.8130E-03    -103.486E+06    -137.947E+06    -96.1248E+06     367.000E+03    -295.474E-03     590.645E-03    -295.172E-03     42.3042E-03    -295.980E-03     590.573E-03    -295.302E-03     34.0581E-03
            2039     669.891E-06     36.7641E-03    -106.416E+06    -143.832E+06    -104.419E+06     217.679E+03    -295.328E-03     590.326E-03    -294.999E-03     22.9856E-03    -295.607E-03     590.020E-03    -295.158E-03     18.4587E-03
            2040     12.7229E-03     39.6022E-03    -1.94446E+06     38.1874E+06     69.2039E+06    -452.385E+03    -298.640E-03     594.375E-03    -295.735E-03     181.248E-03    -304.346E-03     600.009E-03    -295.441E-03     146.627E-03
            2041     12.0565E-03     39.2793E-03    -7.15239E+06     34.5152E+06     60.5295E+06     932.151E+03    -301.620E-03     597.426E-03    -295.805E-03     216.828E-03    -309.451E-03     605.178E-03    -295.542E-03     175.377E-03
            2042     11.3828E-03     38.9583E-03    -13.2073E+06     26.7121E+06     54.8225E+06     1.43848E+06    -302.494E-03     598.371E-03    -295.877E-03     223.101E-03    -310.767E-03     606.533E-03    -295.622E-03     180.743E-03
            2043     10.7138E-03     38.6115E-03    -15.5723E+06     25.5905E+06     60.5357E+06     1.11331E+06    -303.189E-03     599.169E-03    -295.980E-03     231.085E-03    -312.210E-03     608.050E-03    -295.692E-03     186.769E-03
            2044     10.0436E-03     38.2634E-03    -20.1888E+06     20.7075E+06     59.1536E+06     193.195E+03    -303.683E-03     599.726E-03    -296.043E-03     232.931E-03    -312.896E-03     608.770E-03    -295.748E-03     188.277E-03
            2045     9.37310E-03     37.9111E-03    -27.2718E+06     12.8919E+06     52.3610E+06    -123.640E+03    -304.223E-03     600.280E-03    -296.057E-03     231.704E-03    -313.400E-03     609.254E-03    -295.774E-03     187.311E-03
            2046     8.70408E-03     37.5628E-03    -32.8995E+06     6.16767E+06     45.1122E+06     401.524E+03    -304.390E-03     600.410E-03    -296.020E-03     226.729E-03    -313.257E-03     609.051E-03    -295.755E-03     183.245E-03
            2047     8.03522E-03     37.2220E-03    -38.3550E+06    -933.233E+03     35.8555E+06     761.273E+03    -303.913E-03     599.851E-03    -295.938E-03     218.957E-03    -312.256E-03     607.950E-03    -295.702E-03     176.941E-03
            2048     7.36601E-03     36.8952E-03    -44.7604E+06     -9.1769E+06     25.3093E+06     491.721E+03    -303.037E-03     598.876E-03    -295.839E-03     208.274E-03    -310.670E-03     606.244E-03    -295.634E-03     168.215E-03
            2049     6.69669E-03     36.5862E-03    -51.6172E+06    -17.7130E+06     15.5012E+06     271.230E+03    -302.038E-03     597.773E-03    -295.735E-03     194.777E-03    -308.805E-03     604.249E-03    -295.557E-03     157.165E-03
            2050     6.02762E-03     36.3005E-03    -58.4904E+06    -26.5389E+06     4.96744E+06     483.075E+03    -300.995E-03     596.610E-03    -295.615E-03     178.851E-03    -306.784E-03     602.083E-03    -295.467E-03     144.198E-03
            2051     5.35849E-03     36.0403E-03    -65.7177E+06    -36.2072E+06    -7.43278E+06     959.304E+03    -299.870E-03     595.349E-03    -295.478E-03     161.197E-03    -304.645E-03     599.783E-03    -295.368E-03     129.906E-03
            2052     4.68906E-03     35.8086E-03    -73.0668E+06    -46.6784E+06    -21.9758E+06     1.38283E+06    -298.735E-03     594.068E-03    -295.333E-03     142.400E-03    -302.530E-03     597.502E-03    -295.269E-03     114.734E-03
            2053     4.01964E-03     35.6060E-03    -80.0042E+06    -76.1118E+06    -37.3120E+06     1.46850E+06    -297.783E-03     592.997E-03    -295.214E-03     122.858E-03    -300.654E-03     595.421E-03    -295.174E-03     98.9630E-03
            2054     3.35019E-03     35.4337E-03    -86.5503E+06    -106.884E+06    -52.4505E+06     1.07673E+06    -296.911E-03     592.011E-03    -295.099E-03     102.857E-03    -298.968E-03     593.533E-03    -295.081E-03     82.8243E-03
            2055     2.68040E-03     35.2927E-03    -92.9473E+06    -118.548E+06    -68.1502E+06     718.285E+03    -296.117E-03     591.084E-03    -294.967E-03     82.7172E-03    -297.514E-03     591.929E-03    -295.002E-03     66.6320E-03
            2056     2.01029E-03     35.1823E-03    -98.6761E+06    -128.494E+06    -83.2283E+06     538.073E+03    -295.520E-03     590.371E-03    -294.851E-03     62.4542E-03    -296.399E-03     590.685E-03    -294.938E-03     50.3331E-03
            2057     1.34029E-03     35.1032E-03    -103.182E+06    -137.233E+06    -95.8282E+06     352.018E+03    -295.081E-03     589.835E-03    -294.754E-03     42.1450E-03    -295.584E-03     589.763E-03    -294.885E-03     33.9497E-03
            2058     670.199E-06     35.0547E-03    -105.756E+06    -142.860E+06    -104.043E+06     121.674E+03    -294.845E-03     589.480E-03    -294.635E-03     22.9539E-03    -295.122E-03     589.176E-03    -294.794E-03     18.4540E-03
            2059     12.7256E-03     37.8888E-03    -3.56072E+06     36.7365E+06     70.1070E+06    -483.047E+03    -299.395E-03     595.314E-03    -295.919E-03     180.660E-03    -305.086E-03     600.920E-03    -295.617E-03     146.056E-03
            2060     12.0508E-03     37.5695E-03    -9.77233E+06     31.3554E+06     60.8782E+06     83.8775E+03    -302.171E-03     598.126E-03    -295.954E-03     215.235E-03    -310.013E-03     605.868E-03    -295.681E-03     173.544E-03
            2061     11.3836E-03     37.2436E-03    -11.6687E+06     28.3467E+06     57.8788E+06     527.978E+03    -302.706E-03     598.701E-03    -295.995E-03     221.580E-03    -310.968E-03     606.855E-03    -295.730E-03     179.063E-03
            2062     10.7128E-03     36.9007E-03    -15.3137E+06     25.9069E+06     61.3645E+06     145.200E+03    -303.489E-03     599.561E-03    -296.072E-03     230.550E-03    -312.476E-03     608.408E-03    -295.781E-03     186.224E-03
            2063     10.0422E-03     36.5499E-03    -20.9764E+06     19.8786E+06     58.6838E+06     1.06365E+06    -304.505E-03     600.598E-03    -296.093E-03     231.905E-03    -313.674E-03     609.593E-03    -295.798E-03     187.211E-03
            2064     9.37364E-03     36.1969E-03    -25.5400E+06     14.4211E+06     53.7030E+06     1.61307E+06    -305.106E-03     601.144E-03    -296.038E-03     229.924E-03    -314.208E-03     610.052E-03    -295.754E-03     185.522E-03
            2065     8.70493E-03     35.8474E-03    -32.0717E+06     6.68450E+06     45.0973E+06     813.067E+03    -304.919E-03     600.842E-03    -295.923E-03     224.919E-03    -313.719E-03     609.420E-03    -295.660E-03     181.422E-03
            2066     8.03618E-03     35.5080E-03    -38.2093E+06    -999.960E+03     35.7221E+06     214.097E+03    -304.256E-03     600.035E-03    -295.779E-03     217.346E-03    -312.540E-03     608.075E-03    -295.543E-03     175.332E-03
            2067     7.36755E-03     35.1812E-03    -44.4900E+06    -9.11162E+06     25.4142E+06     352.000E+03    -303.339E-03     598.958E-03    -295.619E-03     206.797E-03    -310.906E-03     606.261E-03    -295.414E-03     166.801E-03
            2068     6.69891E-03     34.8736E-03    -51.2327E+06    -17.7555E+06     15.0769E+06     776.298E+03    -302.233E-03     597.684E-03    -295.451E-03     193.363E-03    -308.923E-03     604.085E-03    -295.275E-03     155.905E-03
            2069     6.02985E-03     34.5877E-03    -58.3222E+06    -26.8728E+06     4.16315E+06     1.01314E+06    -301.005E-03     596.281E-03    -295.276E-03     177.556E-03    -306.718E-03     601.679E-03    -295.132E-03     143.111E-03
            2070     5.36065E-03     34.3286E-03    -65.3647E+06    -36.2100E+06    -7.56489E+06     1.01780E+06    -299.751E-03     594.848E-03    -295.097E-03     160.005E-03    -304.461E-03     599.220E-03    -294.987E-03     128.915E-03
            2071     4.69131E-03     34.0974E-03    -72.4939E+06    -46.4224E+06    -21.6908E+06     905.953E+03    -298.557E-03     593.469E-03    -294.912E-03     141.376E-03    -302.298E-03     596.850E-03    -294.848E-03     113.918E-03
            2072     4.02166E-03     33.8954E-03    -79.3592E+06    -75.4889E+06    -36.8564E+06     780.529E+03    -297.448E-03     592.207E-03    -294.760E-03     121.997E-03    -300.273E-03     594.590E-03    -294.720E-03     98.3151E-03
            2073     3.35159E-03     33.7241E-03    -85.9560E+06    -105.943E+06    -51.9040E+06     805.652E+03    -296.480E-03     591.108E-03    -294.628E-03     102.120E-03    -298.503E-03     592.601E-03    -294.609E-03     82.2912E-03
            2074     2.68141E-03     33.5835E-03    -92.2936E+06    -117.563E+06    -67.5569E+06     778.996E+03    -295.675E-03     590.158E-03    -294.483E-03     81.9714E-03    -297.049E-03     590.983E-03    -294.517E-03     66.0634E-03
            2075     2.01127E-03     33.4736E-03    -97.9190E+06    -127.594E+06    -82.7151E+06      679.77E+03    -295.035E-03     589.389E-03    -294.354E-03     61.7273E-03    -295.897E-03     589.690E-03    -294.441E-03     49.7571E-03
            2076     1.34087E-03     33.3946E-03    -102.220E+06    -136.194E+06    -95.1150E+06     488.123E+03    -294.569E-03     588.824E-03    -294.255E-03     41.5566E-03    -295.062E-03     588.746E-03    -294.385E-03     33.4739E-03
            2077     670.474E-06     33.3466E-03    -104.836E+06    -141.749E+06    -102.996E+06     181.874E+03    -294.384E-03     588.482E-03    -294.098E-03     22.6766E-03    -294.657E-03     588.179E-03    -294.256E-03     18.2154E-03
            2078     12.7196E-03     36.1803E-03    -4.11749E+06     35.6782E+06     69.7610E+06     399.913E+03    -299.789E-03     595.746E-03    -295.956E-03     178.363E-03    -305.439E-03     601.305E-03    -295.653E-03     143.760E-03
            2079     12.0545E-03     35.8519E-03    -7.17208E+06     32.0579E+06     61.9735E+06     150.571E+03    -301.453E-03     597.445E-03    -295.992E-03     214.149E-03    -309.249E-03     605.149E-03    -295.718E-03     172.591E-03
            2080     11.3825E-03     35.5356E-03    -10.9082E+06     28.3479E+06     57.8547E+06    -225.566E+03    -302.811E-03     598.861E-03    -296.050E-03     221.988E-03    -311.059E-03     607.003E-03    -295.786E-03     179.505E-03
            2081     10.7116E-03     35.1866E-03    -16.4282E+06     24.6784E+06     60.4821E+06     942.915E+03    -304.743E-03     600.832E-03    -296.089E-03     230.221E-03    -313.699E-03     609.643E-03    -295.799E-03     185.839E-03
            2082     10.0438E-03     34.8351E-03    -20.8520E+06     19.9513E+06     59.2643E+06     748.583E+03    -305.694E-03     601.721E-03    -296.027E-03     230.547E-03    -314.815E-03     610.667E-03    -295.730E-03     185.740E-03
            2083     9.37531E-03     34.4811E-03    -25.9736E+06     13.9155E+06     53.6924E+06     277.972E+03    -305.758E-03     601.646E-03    -295.887E-03     228.577E-03    -314.806E-03     610.495E-03    -295.601E-03     184.132E-03
            2084     8.70706E-03     34.1331E-03    -31.5314E+06     6.97679E+06     45.3954E+06     441.479E+03    -305.210E-03     600.919E-03    -295.709E-03     223.527E-03    -313.938E-03     609.428E-03    -295.447E-03     180.089E-03
            2085     8.03872E-03     33.7936E-03    -37.7186E+06    -972.459E+03     35.2171E+06     857.838E+03    -304.462E-03     599.972E-03    -295.511E-03     216.004E-03    -312.665E-03     607.936E-03    -295.279E-03     174.105E-03
            2086     7.37016E-03     33.4680E-03    -44.2909E+06    -9.27054E+06     25.3392E+06     1.30163E+06    -303.534E-03     598.835E-03    -295.301E-03     205.563E-03    -311.016E-03     606.053E-03    -295.097E-03     165.751E-03
            2087     6.70129E-03     33.1605E-03    -50.8688E+06    -17.5111E+06     16.0771E+06     1.50468E+06    -302.347E-03     597.430E-03    -295.083E-03     192.187E-03    -308.951E-03     603.745E-03    -294.903E-03     154.967E-03
            2088     6.03244E-03     32.8762E-03    -57.4147E+06    -26.1052E+06     5.56637E+06     1.34880E+06    -300.985E-03     595.840E-03    -294.856E-03     176.396E-03    -306.615E-03     601.158E-03    -294.707E-03     142.210E-03
            2089     5.36310E-03     32.6178E-03    -64.2146E+06    -35.4524E+06    -6.74127E+06     993.399E+03    -299.637E-03     594.260E-03    -294.622E-03     158.808E-03    -304.270E-03     598.558E-03    -294.512E-03     127.997E-03
            2090     4.69353E-03     32.3873E-03    -71.1312E+06    -45.5320E+06    -21.0520E+06     752.979E+03    -298.332E-03     592.717E-03    -294.384E-03     140.004E-03    -302.003E-03     596.034E-03    -294.320E-03     112.814E-03
            2091     4.02359E-03     32.1867E-03    -78.0400E+06    -74.9989E+06    -36.2316E+06     707.298E+03    -297.142E-03     591.319E-03    -294.177E-03     120.422E-03    -299.908E-03     593.648E-03    -294.137E-03     96.9896E-03
            2092     3.35355E-03     32.0161E-03    -84.8722E+06    -105.665E+06    -51.3606E+06     736.719E+03    -296.113E-03     590.093E-03    -293.981E-03     100.421E-03    -298.087E-03     591.541E-03    -293.961E-03     80.8320E-03
            2093     2.68332E-03     31.8760E-03    -91.2220E+06    -116.823E+06    -66.7732E+06     713.623E+03    -295.167E-03     588.933E-03    -293.766E-03     80.3139E-03    -296.506E-03     589.727E-03    -293.798E-03     64.6167E-03
            2094     2.01269E-03     31.7668E-03    -96.7228E+06    -126.555E+06    -81.3521E+06     524.090E+03    -294.371E-03     587.950E-03    -293.579E-03     60.3582E-03    -295.211E-03     588.233E-03    -293.662E-03     48.5497E-03
            2095     1.34195E-03     31.6882E-03    -100.844E+06    -135.076E+06    -93.3702E+06     292.807E+03    -293.789E-03     587.229E-03    -293.439E-03     40.5691E-03    -294.270E-03     587.143E-03    -293.564E-03     32.6035E-03
            2096     670.940E-06     31.6405E-03    -103.513E+06    -140.960E+06    -101.556E+06     307.968E+03    -293.618E-03     586.810E-03    -293.191E-03     22.0621E-03    -293.884E-03     586.503E-03    -293.345E-03     17.6817E-03
            2097     12.7283E-03     34.4665E-03    -3.80560E+06     36.7057E+06     67.7615E+06     460.646E+03    -299.304E-03     595.270E-03    -295.967E-03     179.696E-03    -304.947E-03     600.834E-03    -295.676E-03     145.306E-03
            2098     12.0514E-03     34.1487E-03    -7.35065E+06     32.5484E+06     59.6574E+06     918.194E+03    -301.776E-03     597.803E-03    -296.026E-03     216.242E-03    -309.554E-03     605.496E-03    -295.765E-03     174.947E-03
            2099     11.3802E-03     33.8195E-03    -12.3061E+06     26.8455E+06     54.4631E+06     232.873E+03    -304.279E-03     600.322E-03    -296.044E-03     221.850E-03    -312.525E-03     608.462E-03    -295.792E-03     179.159E-03
            2100     10.7137E-03     33.4710E-03    -15.9975E+06     24.8892E+06     60.1026E+06    -280.756E+03    -306.044E-03     602.042E-03    -295.998E-03     228.838E-03    -314.992E-03     610.847E-03    -295.710E-03     184.133E-03
            2101     10.0451E-03     33.1184E-03    -20.6929E+06     19.7872E+06     58.5851E+06    -559.962E+03    -306.312E-03     602.163E-03    -295.851E-03     229.462E-03    -315.398E-03     611.076E-03    -295.557E-03     184.547E-03
            2102     9.37749E-03     32.7656E-03    -26.7058E+06     12.8037E+06     51.9520E+06    -370.592E+03    -306.015E-03     601.670E-03    -295.654E-03     227.591E-03    -315.018E-03     610.472E-03    -295.374E-03     183.135E-03
            2103     8.70947E-03     32.4181E-03    -32.0778E+06     6.08959E+06     44.8124E+06     450.625E+03    -305.425E-03     600.864E-03    -295.439E-03     222.749E-03    -314.083E-03     609.300E-03    -295.177E-03     179.440E-03
            2104     8.04119E-03     32.0800E-03    -38.3457E+06    -1.86733E+06     35.0726E+06     1.19203E+06    -304.757E-03     599.954E-03    -295.197E-03     215.265E-03    -312.872E-03     607.825E-03    -294.963E-03     173.582E-03
            2105     7.37275E-03     31.7548E-03    -44.1099E+06    -9.33712E+06     25.7396E+06     1.31680E+06    -303.821E-03     598.752E-03    -294.931E-03     204.555E-03    -311.204E-03     605.870E-03    -294.725E-03     164.988E-03
            2106     6.70435E-03     31.4486E-03    -49.9662E+06    -16.9467E+06     16.8859E+06     855.784E+03    -302.564E-03     597.209E-03    -294.645E-03     190.771E-03    -309.064E-03     603.423E-03    -294.464E-03     153.806E-03
            2107     6.03533E-03     31.1653E-03    -56.6500E+06    -25.6796E+06     6.20983E+06     580.921E+03    -301.172E-03     595.507E-03    -294.335E-03     174.589E-03    -306.700E-03     600.725E-03    -294.184E-03     140.675E-03
            2108     5.36625E-03     30.9080E-03    -63.4744E+06    -34.9630E+06    -6.00431E+06     689.567E+03    -299.716E-03     593.718E-03    -294.003E-03     156.594E-03    -304.252E-03     597.923E-03    -293.890E-03     126.072E-03
            2109     4.69680E-03     30.6789E-03    -70.4712E+06    -45.0202E+06    -20.1016E+06     737.820E+03    -298.228E-03     591.882E-03    -293.654E-03     137.439E-03    -301.814E-03     595.117E-03    -293.587E-03     110.532E-03
            2110     4.02705E-03     30.4793E-03    -77.5580E+06    -74.3456E+06    -35.2329E+06     683.374E+03    -296.872E-03     590.199E-03    -293.327E-03     117.813E-03    -299.570E-03     592.460E-03    -293.283E-03     94.6482E-03
            2111     3.35695E-03     30.3099E-03    -84.3196E+06    -104.791E+06    -50.0556E+06     454.493E+03    -295.602E-03     588.612E-03    -293.010E-03     98.0665E-03    -297.527E-03     590.010E-03    -292.986E-03     78.7222E-03
            2112     2.68627E-03     30.1713E-03    -90.5063E+06    -115.906E+06    -64.7822E+06     17.3388E+03    -294.404E-03     587.091E-03    -292.687E-03     78.3331E-03    -295.708E-03     587.850E-03    -292.712E-03     62.8480E-03
            2113     2.01523E-03     30.0630E-03    -95.9011E+06    -125.884E+06    -79.3993E+06    -340.355E+03    -293.397E-03     585.801E-03    -292.404E-03     58.7419E-03    -294.216E-03     586.063E-03    -292.480E-03     47.0896E-03
            2114     1.34367E-03     29.9855E-03    -100.348E+06    -135.049E+06    -92.2997E+06    -340.232E+03    -292.643E-03     584.825E-03    -292.182E-03     39.4614E-03    -293.113E-03     584.727E-03    -292.302E-03     31.6074E-03
            2115     672.015E-06     29.9378E-03    -103.221E+06    -141.221E+06    -101.078E+06    -136.265E+03    -292.327E-03     584.210E-03    -291.883E-03     21.4237E-03    -292.589E-03     583.897E-03    -292.034E-03     17.1329E-03
            2116     12.7163E-03     32.7592E-03    -4.81180E+06     35.5521E+06     66.1576E+06     1.56086E+06    -299.930E-03     595.993E-03    -296.063E-03     180.645E-03    -305.582E-03     601.562E-03    -295.777E-03     146.249E-03
            2117     12.0503E-03     32.4320E-03    -7.69969E+06     33.8112E+06     59.6465E+06     308.035E+03    -304.158E-03     600.198E-03    -296.040E-03     215.011E-03    -311.984E-03     607.944E-03    -295.780E-03     173.095E-03
            2118     11.3847E-03     32.1044E-03    -10.4854E+06     29.2436E+06     56.4849E+06    -442.658E+03    -305.828E-03     601.759E-03    -295.931E-03     220.734E-03    -314.122E-03     609.955E-03    -295.676E-03     177.517E-03
            2119     10.7152E-03     31.7543E-03    -14.9209E+06     24.7420E+06     59.3673E+06    -542.898E+03    -306.368E-03     602.164E-03    -295.796E-03     227.989E-03    -315.323E-03     610.981E-03    -295.513E-03     183.068E-03
            2120     10.0481E-03     31.4021E-03    -20.0007E+06     19.0501E+06     56.7550E+06     28.0157E+03    -306.228E-03     601.843E-03    -295.616E-03     228.868E-03    -315.274E-03     610.722E-03    -295.331E-03     183.989E-03
            2121     9.38013E-03     31.0504E-03    -26.0903E+06     12.7888E+06     50.7137E+06     618.333E+03    -306.043E-03     601.449E-03    -295.407E-03     227.422E-03    -314.977E-03     610.190E-03    -295.134E-03     183.140E-03
            2122     8.71187E-03     30.7039E-03    -32.7188E+06     4.99138E+06     43.4562E+06     769.479E+03    -305.875E-03     601.037E-03    -295.162E-03     222.441E-03    -314.448E-03     609.386E-03    -294.905E-03     179.324E-03
            2123     8.04378E-03     30.3659E-03    -38.2271E+06    -1.97009E+06     35.4610E+06     512.552E+03    -305.470E-03     600.327E-03    -294.856E-03     214.173E-03    -313.472E-03     608.083E-03    -294.620E-03     172.713E-03
            2124     7.37590E-03     30.0417E-03    -43.6847E+06    -9.09638E+06     26.5917E+06    -28.9797E+03    -304.534E-03     599.021E-03    -294.487E-03     202.557E-03    -311.789E-03     606.012E-03    -294.278E-03     163.215E-03
            2125     6.70761E-03     29.7368E-03    -49.8330E+06    -17.0840E+06     17.1001E+06     135.863E+03    -303.194E-03     597.260E-03    -294.066E-03     187.986E-03    -309.559E-03     603.338E-03    -293.884E-03     151.277E-03
            2126     6.03948E-03     29.4549E-03    -56.1458E+06    -25.5947E+06     6.10107E+06     391.716E+03    -301.633E-03     595.231E-03    -293.598E-03     171.206E-03    -307.025E-03     600.315E-03    -293.449E-03     137.583E-03
            2127     5.37089E-03     29.1992E-03    -62.9574E+06    -35.0515E+06    -6.42841E+06     383.355E+03    -299.838E-03     592.936E-03    -293.098E-03     152.974E-03    -304.252E-03     597.020E-03    -292.988E-03     122.754E-03
            2128     4.70181E-03     28.9720E-03    -69.9043E+06    -45.0193E+06    -19.9868E+06     575.510E+03    -297.990E-03     590.582E-03    -292.592E-03     134.080E-03    -301.475E-03     593.717E-03    -292.525E-03     107.495E-03
            2129     4.03202E-03     28.7744E-03    -76.7358E+06    -72.9276E+06    -33.1908E+06     365.805E+03    -296.281E-03     588.410E-03    -292.129E-03     114.888E-03    -298.905E-03     590.598E-03    -292.077E-03     92.0396E-03
            2130     3.36143E-03     28.6071E-03    -83.4382E+06    -103.081E+06    -46.8519E+06    -513.584E+03    -294.685E-03     586.380E-03    -291.695E-03     95.5939E-03    -296.558E-03     587.726E-03    -291.658E-03     76.5320E-03
            2131     2.69023E-03     28.4701E-03    -90.0030E+06    -115.803E+06    -62.9678E+06    -1.00987E+06    -293.241E-03     584.512E-03    -291.271E-03     76.4074E-03    -294.510E-03     585.232E-03    -291.287E-03     61.1699E-03
            2132     2.01835E-03     28.3637E-03    -96.0253E+06    -126.576E+06    -79.3354E+06    -806.622E+03    -292.056E-03     582.961E-03    -290.905E-03     57.3567E-03    -292.854E-03     583.199E-03    -290.979E-03     45.9148E-03
            2133     1.34600E-03     28.2874E-03    -100.940E+06    -136.028E+06    -93.0751E+06    -504.703E+03    -291.166E-03     581.787E-03    -290.621E-03     38.6332E-03    -291.628E-03     581.677E-03    -290.743E-03     30.9226E-03
            2134     673.007E-06     28.2407E-03    -103.827E+06    -142.233E+06    -102.132E+06    -407.258E+03    -290.648E-03     581.033E-03    -290.386E-03     20.9371E-03    -290.906E-03     580.715E-03    -290.540E-03     16.7344E-03
            2135     12.7238E-03     31.0428E-03    -3.18124E+06     36.6419E+06     71.2898E+06     823.242E+03    -302.341E-03     598.384E-03    -296.043E-03     177.040E-03    -308.017E-03     603.972E-03    -295.735E-03     142.086E-03
            2136     12.0546E-03     30.7164E-03    -5.59523E+06     35.1831E+06     62.4480E+06    -137.199E+03    -304.816E-03     600.707E-03    -295.891E-03     213.385E-03    -312.745E-03     608.559E-03    -295.622E-03     170.717E-03
            2137     11.3846E-03     30.3864E-03    -10.9557E+06     28.0171E+06     54.7830E+06    -204.517E+03    -305.573E-03     601.304E-03    -295.731E-03     220.816E-03    -313.888E-03     609.521E-03    -295.482E-03     177.523E-03
            2138     10.7189E-03     30.0377E-03    -15.0090E+06     24.0440E+06     58.6352E+06     536.460E+03    -306.051E-03     601.663E-03    -295.613E-03     229.102E-03    -314.994E-03     610.468E-03    -295.332E-03     184.367E-03
            2139     10.0501E-03     29.6877E-03    -19.8669E+06     18.6867E+06     57.0351E+06     1.50261E+06    -306.403E-03     601.851E-03    -295.448E-03     230.390E-03    -315.432E-03     610.711E-03    -295.161E-03     185.674E-03
            2140     9.38144E-03     29.3355E-03    -25.9206E+06     12.6777E+06     51.5141E+06     1.43804E+06    -306.994E-03     602.201E-03    -295.207E-03     227.804E-03    -315.857E-03     610.867E-03    -294.930E-03     183.685E-03
            2141     8.71382E-03     28.9883E-03    -31.8000E+06     5.74650E+06     44.4831E+06     795.798E+03    -307.287E-03     602.145E-03    -294.858E-03     221.059E-03    -315.741E-03     610.377E-03    -294.598E-03     178.061E-03
            2142     8.04692E-03     28.6506E-03    -36.5707E+06    -656.987E+03     36.4012E+06     294.504E+03    -306.857E-03     601.248E-03    -294.391E-03     211.170E-03    -314.706E-03     608.860E-03    -294.155E-03     169.828E-03
            2143     7.38012E-03     28.3278E-03    -42.5557E+06    -8.46457E+06     26.7120E+06     223.988E+03    -305.659E-03     599.488E-03    -293.828E-03     198.455E-03    -312.738E-03     606.308E-03    -293.621E-03     159.316E-03
            2144     6.71348E-03     28.0249E-03    -49.4316E+06    -17.0436E+06     17.1090E+06     152.997E+03    -304.002E-03     597.204E-03    -293.201E-03     183.468E-03    -310.186E-03     603.102E-03    -293.019E-03     147.056E-03
            2145     6.04612E-03     27.7451E-03    -56.0399E+06    -25.7152E+06     6.89335E+06     119.552E+03    -301.972E-03     594.501E-03    -292.529E-03     166.678E-03    -307.193E-03     599.413E-03    -292.376E-03     133.435E-03
            2146     5.37801E-03     27.4925E-03    -63.0035E+06    -35.2890E+06    -5.38702E+06     306.292E+03    -299.682E-03     591.521E-03    -291.839E-03     148.678E-03    -303.942E-03     595.448E-03    -291.723E-03     118.917E-03
            2147     4.70866E-03     27.2683E-03    -70.4968E+06    -45.8794E+06    -19.8170E+06     823.048E+03    -297.378E-03     588.541E-03    -291.163E-03     130.131E-03    -300.732E-03     591.539E-03    -291.093E-03     104.055E-03
            2148     4.03826E-03     27.0733E-03    -78.0730E+06    -68.4984E+06    -35.2561E+06     82.1944E+03    -295.244E-03     585.786E-03    -290.542E-03     111.314E-03    -297.771E-03     587.894E-03    -290.506E-03     88.9703E-03
            2149     3.36707E-03     26.9086E-03    -85.1803E+06    -100.374E+06    -50.1542E+06    -2.04217E+06    -293.343E-03     583.336E-03    -289.994E-03     92.4646E-03    -295.144E-03     584.624E-03    -289.975E-03     73.8533E-03
            2150     2.69480E-03     26.7743E-03    -91.6186E+06    -119.246E+06    -65.5559E+06    -2.15644E+06    -291.664E-03     581.161E-03    -289.497E-03     73.7799E-03    -292.878E-03     581.816E-03    -289.519E-03     58.9330E-03
            2151     2.02175E-03     26.6695E-03    -97.2725E+06    -128.418E+06    -81.1871E+06    -996.347E+03    -290.304E-03     579.377E-03    -289.074E-03     55.2449E-03    -291.070E-03     579.578E-03    -289.152E-03     44.1245E-03
            2152     1.34807E-03     26.5950E-03    -101.810E+06    -137.286E+06    -94.2042E+06    -584.951E+03    -289.337E-03     578.090E-03    -288.753E-03     37.1298E-03    -289.784E-03     577.961E-03    -288.877E-03     29.6361E-03
            2153     674.282E-06     26.5489E-03    -104.763E+06    -143.314E+06    -102.809E+06    -191.221E+03    -288.661E-03     577.256E-03    -288.595E-03     20.0417E-03    -288.917E-03     576.929E-03    -288.749E-03     15.9461E-03
            2154     12.7238E-03     29.3267E-03    -4.70701E+06     34.7650E+06     67.9798E+06    -2.25600E+06    -301.828E-03     597.706E-03    -295.878E-03     179.454E-03    -307.588E-03     603.376E-03    -295.582E-03     144.259E-03
            2155     12.0561E-03     29.0009E-03    -8.23586E+06     30.9063E+06     59.8252E+06    -1.50991E+06    -304.370E-03     600.150E-03    -295.780E-03     217.663E-03    -312.397E-03     608.084E-03    -295.514E-03     175.060E-03
            2156     11.3895E-03     28.6725E-03    -9.95252E+06     28.0958E+06     56.9447E+06     1.55014E+06    -305.316E-03     601.002E-03    -295.686E-03     224.869E-03    -313.691E-03     609.276E-03    -295.428E-03     181.791E-03
            2157     10.7178E-03     28.3236E-03    -15.2765E+06     23.5664E+06     59.2080E+06     1.93003E+06    -306.796E-03     602.379E-03    -295.582E-03     231.860E-03    -315.733E-03     611.173E-03    -295.298E-03     187.317E-03
            2158     10.0494E-03     27.9708E-03    -21.3700E+06     17.8867E+06     56.9749E+06     1.22803E+06    -308.365E-03     603.710E-03    -295.345E-03     230.382E-03    -317.341E-03     612.509E-03    -295.055E-03     185.616E-03
            2159     9.38315E-03     27.6177E-03    -25.7960E+06     13.0856E+06     53.6253E+06     1.13134E+06    -309.392E-03     604.331E-03    -294.939E-03     225.137E-03    -318.129E-03     612.868E-03    -294.652E-03     180.932E-03
            2160     8.71777E-03     27.2701E-03    -29.9415E+06     7.68116E+06     47.5126E+06     953.109E+03    -309.413E-03     603.776E-03    -294.362E-03     216.743E-03    -317.682E-03     611.828E-03    -294.092E-03     173.766E-03
            2161     8.05295E-03     26.9336E-03    -35.5663E+06     223.874E+03     37.7277E+06     649.917E+03    -308.461E-03     602.105E-03    -293.644E-03     205.942E-03    -316.092E-03     609.501E-03    -293.404E-03     164.767E-03
            2162     7.38791E-03     26.6138E-03    -41.9585E+06    -7.99463E+06     28.0611E+06     572.442E+03    -306.788E-03     599.624E-03    -292.836E-03     193.025E-03    -313.628E-03     606.206E-03    -292.624E-03     154.241E-03
            2163     6.72182E-03     26.3134E-03    -48.2188E+06    -16.1122E+06     19.0951E+06     458.399E+03    -304.572E-03     596.546E-03    -291.974E-03     178.044E-03    -310.510E-03     602.201E-03    -291.785E-03     142.162E-03
            2164     6.05489E-03     26.0377E-03    -55.7897E+06    -25.7094E+06     8.18398E+06     341.979E+03    -301.952E-03     593.035E-03    -291.084E-03     161.314E-03    -306.938E-03     597.709E-03    -290.924E-03     128.737E-03
            2165     5.38655E-03     25.7886E-03    -63.8582E+06    -36.0922E+06    -4.35288E+06     618.525E+03    -299.216E-03     589.411E-03    -290.196E-03     143.452E-03    -303.265E-03     593.119E-03    -290.073E-03     114.434E-03
            2166     4.71717E-03     25.5687E-03    -71.3548E+06    -46.9188E+06    -19.4908E+06     1.18582E+06    -296.508E-03     585.838E-03    -289.330E-03     125.077E-03    -299.681E-03     588.648E-03    -289.256E-03     99.7584E-03
            2167     4.04639E-03     25.3774E-03    -78.4160E+06    -62.3170E+06    -37.6179E+06     554.227E+03    -293.915E-03     582.433E-03    -288.518E-03     106.576E-03    -296.299E-03     584.426E-03    -288.502E-03     84.9833E-03
            2168     3.37409E-03     25.2163E-03    -85.2714E+06    -95.8397E+06    -53.9449E+06    -1.49457E+06    -291.658E-03     579.482E-03    -287.823E-03     88.1725E-03    -293.348E-03     580.684E-03    -287.831E-03     70.2533E-03
            2169     2.70090E-03     25.0846E-03    -91.8301E+06    -123.567E+06    -67.7594E+06    -2.35551E+06    -289.742E-03     576.967E-03    -287.225E-03     70.0478E-03    -290.870E-03     577.527E-03    -287.252E-03     55.7768E-03
            2170     2.02665E-03     24.9826E-03    -97.4257E+06    -131.373E+06    -81.8145E+06    -1.55386E+06    -288.140E-03     574.843E-03    -286.703E-03     52.2614E-03    -288.855E-03     574.983E-03    -286.780E-03     41.5986E-03
            2171     1.35168E-03     24.9093E-03    -101.635E+06    -138.937E+06    -94.1682E+06     -792.15E+03    -286.959E-03     573.269E-03    -286.310E-03     34.9701E-03    -287.380E-03     573.108E-03    -286.432E-03     27.8116E-03
            2172     675.873E-06     24.8649E-03    -104.370E+06    -144.682E+06    -102.652E+06    -384.142E+03    -286.161E-03     572.306E-03    -286.145E-03     18.8335E-03    -286.405E-03     571.963E-03    -286.297E-03     14.9421E-03
            2173     12.7244E-03     27.6129E-03    -2.45607E+06     37.1995E+06     65.3038E+06    -542.263E+03    -299.863E-03     595.717E-03    -295.854E-03     184.045E-03    -305.646E-03     601.434E-03    -295.578E-03     149.166E-03
            2174     12.0541E-03     27.2850E-03    -7.98452E+06     30.3546E+06     56.2420E+06     72.4349E+03    -303.684E-03     599.548E-03    -295.864E-03     220.404E-03    -311.658E-03     607.439E-03    -295.616E-03     178.386E-03
            2175     11.3821E-03     26.9563E-03    -13.9685E+06     23.4542E+06     52.3715E+06    -351.706E+03    -307.031E-03     602.809E-03    -295.778E-03     226.315E-03    -315.415E-03     611.074E-03    -295.529E-03     183.105E-03
            2176     10.7165E-03     26.6044E-03    -18.0144E+06     21.3337E+06     57.9314E+06     247.562E+03    -309.976E-03     605.509E-03    -295.533E-03     229.544E-03    -318.866E-03     614.243E-03    -295.248E-03     184.538E-03
            2177     10.0521E-03     26.2492E-03    -20.6911E+06     18.9529E+06     58.1671E+06     452.207E+03    -311.499E-03     606.548E-03    -295.049E-03     225.698E-03    -320.329E-03     615.203E-03    -294.756E-03     180.585E-03
            2178     9.38853E-03     25.8959E-03    -24.4864E+06     14.3373E+06     54.3129E+06    -167.691E+03    -312.032E-03     606.392E-03    -294.360E-03     219.605E-03    -320.560E-03     614.726E-03    -294.073E-03     175.246E-03
            2179     8.72563E-03     25.5496E-03    -29.9435E+06     7.54860E+06     47.4720E+06    -577.928E+03    -311.378E-03     604.884E-03    -293.506E-03     210.837E-03    -319.381E-03     612.670E-03    -293.236E-03     168.025E-03
            2180     8.06211E-03     25.2165E-03    -36.1540E+06    -477.031E+03     38.2225E+06    -500.405E+03    -309.857E-03     602.384E-03    -292.526E-03     199.817E-03    -317.172E-03     609.458E-03    -292.282E-03     159.141E-03
            2181     7.39777E-03     24.8997E-03    -42.3792E+06    -8.52879E+06     29.1248E+06    -193.253E+03    -307.735E-03     599.195E-03    -291.460E-03     186.541E-03    -314.232E-03     605.427E-03    -291.240E-03     148.497E-03
            2182     6.73278E-03     24.6043E-03    -49.0617E+06    -16.8355E+06     20.5142E+06     447.406E+03    -304.984E-03     595.323E-03    -290.338E-03     171.073E-03    -310.580E-03     600.625E-03    -290.140E-03     136.096E-03
            2183     6.06611E-03     24.3333E-03    -55.8789E+06    -25.8951E+06     9.65941E+06     1.21935E+06    -301.822E-03     591.010E-03    -289.188E-03     153.967E-03    -306.479E-03     595.349E-03    -289.021E-03     122.410E-03
            2184     5.39806E-03     24.0895E-03    -62.7413E+06    -35.8529E+06    -3.91002E+06     1.49532E+06    -298.527E-03     586.571E-03    -288.044E-03     136.059E-03    -302.275E-03     589.980E-03    -287.920E-03     108.115E-03
            2185     4.72815E-03     23.8740E-03    -69.8271E+06    -46.4772E+06    -19.2094E+06     1.29162E+06    -295.297E-03     582.239E-03    -286.942E-03     117.951E-03    -298.214E-03     584.799E-03    -286.869E-03     93.6795E-03
            2186     4.05656E-03     23.6881E-03    -76.6291E+06    -58.4946E+06    -35.6802E+06     863.328E+03    -292.230E-03     578.146E-03    -285.916E-03     99.9526E-03    -294.418E-03     579.957E-03    -285.899E-03     79.3462E-03
            2187     3.38344E-03     23.5310E-03    -83.2317E+06    -91.5218E+06    -51.5660E+06     182.085E+03    -289.514E-03     574.544E-03    -285.030E-03     82.3271E-03    -291.059E-03     575.618E-03    -285.034E-03     65.3191E-03
            2188     2.70873E-03     23.4032E-03    -89.9613E+06    -123.831E+06    -66.5152E+06    -562.187E+03    -287.215E-03     571.485E-03    -284.270E-03     65.1822E-03    -288.240E-03     571.943E-03    -284.292E-03     51.6864E-03
            2189     2.03279E-03     23.3040E-03    -96.2673E+06    -133.532E+06    -81.3780E+06    -907.086E+03    -285.312E-03     568.928E-03    -283.615E-03     48.5729E-03    -285.964E-03     568.999E-03    -283.689E-03     38.5041E-03
            2190     1.35572E-03     23.2333E-03    -100.912E+06    -140.716E+06    -93.6734E+06    -757.153E+03    -283.909E-03     567.028E-03    -283.119E-03     32.4290E-03    -284.297E-03     566.829E-03    -283.237E-03     25.6775E-03
            2191     678.109E-06     23.1902E-03    -103.780E+06    -146.220E+06    -101.987E+06    -255.287E+03    -282.848E-03     565.820E-03    -282.972E-03     17.4384E-03    -283.079E-03     565.459E-03    -283.120E-03     13.7946E-03
            2192     12.7233E-03     25.9032E-03    -2.70989E+06     36.5493E+06     68.5670E+06     1.48708E+06    -300.731E-03     596.753E-03    -296.021E-03     187.250E-03    -306.577E-03     602.519E-03    -295.728E-03     152.326E-03
            2193     12.0504E-03     25.5755E-03    -7.59077E+06     31.3936E+06     58.9263E+06     3.06342E+06    -306.358E-03     602.301E-03    -295.943E-03     219.351E-03    -314.274E-03     610.131E-03    -295.683E-03     177.287E-03
            2194     11.3851E-03     25.2338E-03    -11.1951E+06     27.0358E+06     54.3667E+06     1.16768E+06    -310.548E-03     606.188E-03    -295.640E-03     220.872E-03    -318.796E-03     614.335E-03    -295.391E-03     177.217E-03
            2195     10.7216E-03     24.8794E-03    -15.7083E+06     22.8402E+06     57.5823E+06    -1.54018E+06    -313.088E-03     608.202E-03    -295.114E-03     223.290E-03    -321.810E-03     616.782E-03    -294.837E-03     177.765E-03
            2196     10.0594E-03     24.5246E-03    -20.3740E+06     17.8674E+06     56.8314E+06    -2.43638E+06    -314.244E-03     608.595E-03    -294.351E-03     220.004E-03    -322.833E-03     617.010E-03    -294.063E-03     174.754E-03
            2197     9.39801E-03     24.1715E-03    -24.4801E+06     13.8590E+06     53.3782E+06    -2.00109E+06    -314.186E-03     607.574E-03    -293.388E-03     213.457E-03    -322.387E-03     615.583E-03    -293.106E-03     169.398E-03
            2198     8.73623E-03     23.8289E-03    -30.5135E+06     6.32069E+06     45.7796E+06    -1.67719E+06    -313.095E-03     605.354E-03    -292.259E-03     204.019E-03    -320.703E-03     612.744E-03    -291.995E-03     161.853E-03
            2199     8.07407E-03     23.4994E-03    -37.1649E+06    -2.13495E+06     36.3004E+06    -1.33249E+06    -311.300E-03     602.290E-03    -290.990E-03     192.157E-03    -318.178E-03     608.923E-03    -290.751E-03     152.372E-03
            2200     7.41136E-03     23.1875E-03    -43.4633E+06    -10.2194E+06     27.0967E+06    -595.669E+03    -308.711E-03     598.323E-03    -289.612E-03     177.901E-03    -314.750E-03     604.093E-03    -289.398E-03     140.950E-03
            2201     6.74700E-03     22.8977E-03    -49.6631E+06    -18.3281E+06     18.3547E+06    -30.8037E+03    -305.383E-03     593.548E-03    -288.165E-03     161.833E-03    -310.533E-03     598.404E-03    -287.975E-03     128.063E-03
            2202     6.08126E-03     22.6330E-03    -55.7186E+06    -26.7423E+06     8.41676E+06     303.767E+03    -301.598E-03     588.290E-03    -286.692E-03     144.630E-03    -305.848E-03     592.224E-03    -286.531E-03     114.342E-03
            2203     5.41322E-03     22.3961E-03    -61.9407E+06    -35.7748E+06    -3.34302E+06     685.207E+03    -297.643E-03     582.880E-03    -285.237E-03     126.947E-03    -301.038E-03     585.938E-03    -285.112E-03     100.303E-03
            2204     4.74298E-03     22.1870E-03    -68.5947E+06    -45.7446E+06    -17.2272E+06     966.706E+03    -293.737E-03     577.578E-03    -283.841E-03     109.223E-03    -296.362E-03     579.847E-03    -283.761E-03     86.2385E-03
            2205     4.07052E-03     22.0069E-03    -75.5183E+06    -56.8258E+06    -33.7700E+06     922.089E+03    -290.027E-03     572.565E-03    -282.538E-03     91.8578E-03    -291.989E-03     574.154E-03    -282.515E-03     72.4494E-03
            2206     3.39577E-03     21.8555E-03    -82.2900E+06    -89.2326E+06    -49.9470E+06     853.416E+03    -286.724E-03     568.129E-03    -281.406E-03     75.2050E-03    -288.108E-03     569.048E-03    -281.407E-03     59.2594E-03
            2207     2.71917E-03     21.7323E-03    -88.4724E+06    -122.003E+06    -64.4030E+06     714.638E+03    -283.906E-03     564.351E-03    -280.446E-03     59.2146E-03    -284.822E-03     564.706E-03    -280.463E-03     46.6188E-03
            2208     2.04086E-03     21.6370E-03    -93.9300E+06    -132.814E+06    -78.8767E+06     269.872E+03    -281.617E-03     561.253E-03    -279.637E-03     43.8810E-03    -282.199E-03     561.258E-03    -279.702E-03     34.5043E-03
            2209     1.36140E-03     21.5689E-03    -98.6753E+06    -141.357E+06    -91.4959E+06    -61.0802E+03    -279.956E-03     558.979E-03    -279.023E-03     29.1851E-03    -280.307E-03     558.741E-03    -279.132E-03     22.9073E-03
            2210     680.998E-06     21.5276E-03    -101.640E+06    -147.123E+06    -99.6582E+06    -265.545E+03    -278.691E-03     557.507E-03    -278.817E-03     15.5171E-03    -278.904E-03     557.125E-03    -278.954E-03     12.1203E-03
            2211     12.7164E-03     24.1897E-03    -5.57129E+06     33.7174E+06     68.0034E+06     1.57784E+06    -305.024E-03     601.104E-03    -296.081E-03     185.531E-03    -310.890E-03     606.874E-03    -295.781E-03     150.017E-03
            2212     12.0544E-03     23.8492E-03    -7.54768E+06     33.0664E+06     62.6479E+06    -213.753E+03    -311.245E-03     606.975E-03    -295.730E-03     215.781E-03    -319.207E-03     614.845E-03    -295.453E-03     172.545E-03
            2213     11.3925E-03     23.5087E-03    -9.53209E+06     30.0089E+06     59.0368E+06    -1.08887E+06    -314.026E-03     609.160E-03    -295.134E-03     218.201E-03    -322.224E-03     617.259E-03    -294.868E-03     173.948E-03
            2214     10.7305E-03     23.1536E-03    -12.8310E+06     26.0692E+06     62.2050E+06    -494.237E+03    -316.068E-03     610.416E-03    -294.349E-03     219.976E-03    -324.577E-03     618.793E-03    -294.057E-03     174.496E-03
            2215     10.0701E-03     22.7967E-03    -18.2386E+06     19.6940E+06     59.3203E+06    -1.08772E+06    -316.953E-03     610.264E-03    -293.310E-03     214.594E-03    -325.199E-03     618.343E-03    -293.016E-03     169.755E-03
            2216     9.41034E-03     22.4474E-03    -25.3113E+06     12.3452E+06     51.9960E+06    -1.49462E+06    -316.504E-03     608.547E-03    -292.043E-03     206.335E-03    -324.270E-03     616.117E-03    -291.764E-03     163.005E-03
            2217     8.75047E-03     22.1079E-03    -30.9641E+06     5.21493E+06     44.3812E+06    -680.881E+03    -315.195E-03     605.781E-03    -290.586E-03     195.471E-03    -322.310E-03     612.676E-03    -290.326E-03     154.260E-03
            2218     8.09041E-03     21.7830E-03    -36.5718E+06    -2.32864E+06     35.2653E+06    -104.899E+03    -312.953E-03     601.907E-03    -288.954E-03     182.348E-03    -319.306E-03     608.020E-03    -288.721E-03     143.711E-03
            2219     7.42902E-03     21.4774E-03    -42.6160E+06    -10.5533E+06     25.5992E+06    -231.316E+03    -309.690E-03     596.883E-03    -287.193E-03     167.367E-03    -315.205E-03     602.136E-03    -286.988E-03     131.727E-03
            2220     6.76618E-03     21.1949E-03    -48.4195E+06    -18.4800E+06     16.8358E+06    -649.667E+03    -305.633E-03     590.995E-03    -285.362E-03     150.989E-03    -310.285E-03     595.361E-03    -285.181E-03     118.656E-03
            2221     6.10053E-03     20.9387E-03     -54.764E+06    -27.0664E+06     7.02506E+06    -872.467E+03    -301.129E-03     584.637E-03    -283.508E-03     133.775E-03    -304.934E-03     588.133E-03    -283.354E-03     104.977E-03
            2222     5.43242E-03     20.7095E-03    -61.8456E+06    -36.7484E+06    -4.53224E+06    -781.695E+03    -296.444E-03     578.123E-03    -281.679E-03     116.350E-03    -299.464E-03     580.807E-03    -281.559E-03     91.1699E-03
            2223     4.76156E-03     20.5088E-03    -68.4792E+06    -46.6005E+06    -17.7432E+06    -412.093E+03    -291.718E-03     571.644E-03    -279.926E-03     99.2303E-03    -294.042E-03     573.612E-03    -279.848E-03     77.6376E-03
            2224     4.08775E-03     20.3363E-03    -74.6304E+06    -56.8617E+06    -33.0635E+06     131.533E+03    -287.211E-03     565.512E-03    -278.301E-03     82.8348E-03    -288.943E-03     566.872E-03    -278.276E-03     64.7130E-03
            2225     3.41128E-03     20.1920E-03    -80.6268E+06    -88.0287E+06    -48.1624E+06     589.933E+03    -283.241E-03     560.125E-03    -276.884E-03     67.3221E-03    -284.459E-03     560.883E-03    -276.881E-03     52.5146E-03
            2226     2.73230E-03     20.0748E-03    -86.5018E+06    -120.560E+06    -62.2637E+06     585.626E+03    -279.838E-03     555.517E-03    -275.679E-03     52.6777E-03    -280.643E-03     555.766E-03    -275.690E-03     41.0303E-03
            2227     2.05125E-03     19.9843E-03    -91.9280E+06    -131.800E+06    -76.5706E+06     470.224E+03    -277.028E-03     551.705E-03    -274.676E-03     38.8597E-03    -277.544E-03     551.646E-03    -274.735E-03     30.2300E-03
            2228     1.36842E-03     19.9197E-03    -96.1653E+06    -140.521E+06    -89.0218E+06     393.445E+03    -274.985E-03     548.925E-03    -273.940E-03     25.7698E-03    -275.299E-03     548.654E-03    -274.042E-03     20.0216E-03
            2229     684.457E-06     19.8808E-03    -98.7737E+06    -146.739E+06    -97.3036E+06     120.623E+03    -273.697E-03     547.243E-03    -273.546E-03     13.6199E-03    -273.890E-03     546.845E-03    -273.677E-03     10.5177E-03
            2230     12.7258E-03     22.4626E-03    -3.95891E+06     37.6153E+06     68.9476E+06     531.666E+03    -309.470E-03     605.303E-03    -295.832E-03     183.620E-03    -315.406E-03     611.158E-03    -295.537E-03     147.209E-03
            2231     12.0622E-03     22.1233E-03    -6.38047E+06     34.5894E+06     60.5071E+06    -2.03751E+06    -314.216E-03     609.454E-03    -295.239E-03     215.966E-03    -322.258E-03     617.421E-03    -294.977E-03     171.875E-03
            2232     11.3993E-03     21.7808E-03    -12.6643E+06     25.7077E+06     53.4703E+06    -2.85748E+06    -317.818E-03     612.228E-03    -294.410E-03     217.341E-03    -325.938E-03     620.239E-03    -294.161E-03     172.735E-03
            2233     10.7407E-03     21.4211E-03    -15.6529E+06     23.7063E+06     59.8349E+06    -2.18240E+06    -320.075E-03     613.415E-03    -293.340E-03     216.085E-03    -328.333E-03     621.528E-03    -293.052E-03     170.693E-03
            2234     10.0837E-03     21.0679E-03    -20.1624E+06     18.8013E+06     58.8028E+06    -754.377E+03    -320.369E-03     612.334E-03    -291.965E-03     208.354E-03    -328.243E-03     620.034E-03    -291.669E-03     164.005E-03
            2235     9.42652E-03     20.7211E-03    -25.4917E+06     12.1572E+06     52.4039E+06    -4.80373E+03    -319.687E-03     610.011E-03    -290.324E-03     198.395E-03    -326.996E-03     617.122E-03    -290.043E-03     155.811E-03
            2236     8.76961E-03     20.3864E-03    -30.4037E+06     5.39964E+06     44.9749E+06    -212.401E+03    -317.919E-03     606.369E-03    -288.450E-03     186.013E-03    -324.521E-03     612.754E-03    -288.189E-03     145.791E-03
            2237     8.11156E-03     20.0680E-03    -35.9988E+06    -2.46480E+06     35.4744E+06    -445.983E+03    -314.880E-03     601.258E-03    -286.378E-03     171.626E-03    -320.685E-03     606.825E-03    -286.145E-03     134.274E-03
            2238     7.45192E-03     19.7707E-03    -40.8897E+06    -9.65818E+06     26.5611E+06    -524.440E+03    -310.770E-03     594.939E-03    -284.169E-03     155.660E-03    -315.736E-03     599.651E-03    -283.963E-03     121.524E-03
            2239     6.78942E-03     19.4974E-03    -46.9330E+06    -17.7806E+06     17.9955E+06    -632.783E+03    -305.867E-03     587.752E-03    -281.886E-03     138.557E-03    -310.002E-03     591.608E-03    -281.702E-03     107.856E-03
            2240     6.12451E-03     19.2510E-03    -53.8833E+06    -27.0457E+06     7.58831E+06    -598.635E+03    -300.426E-03     580.004E-03    -279.579E-03     121.087E-03    -303.772E-03     583.043E-03    -279.423E-03     93.9589E-03
            2241     5.45629E-03     19.0321E-03    -60.2963E+06    -36.4849E+06    -4.56773E+06    -621.883E+03    -294.704E-03     572.018E-03    -277.314E-03     104.071E-03    -297.335E-03     574.319E-03    -277.197E-03     80.5295E-03
            2242     4.78441E-03     18.8416E-03    -67.1774E+06    -46.7817E+06    -18.2738E+06    -943.768E+03    -289.019E-03     564.184E-03    -275.165E-03     87.8614E-03    -291.035E-03     565.848E-03    -275.091E-03     67.7850E-03
            2243     4.10889E-03     18.6790E-03    -73.9513E+06    -57.5639E+06    -33.2878E+06    -1.17586E+06    -283.672E-03     556.861E-03    -273.189E-03     72.6865E-03    -285.173E-03     557.992E-03    -273.165E-03     55.9267E-03
            2244     3.42988E-03     18.5430E-03    -79.9474E+06    -88.4201E+06    -48.1050E+06    -741.004E+03    -278.934E-03     550.400E-03    -271.466E-03     58.6017E-03    -279.988E-03     550.994E-03    -271.462E-03     44.9851E-03
            2245     2.74796E-03     18.4334E-03    -85.4698E+06    -120.397E+06    -62.3140E+06     71.7347E+03    -274.885E-03     544.888E-03    -270.003E-03     45.5676E-03    -275.582E-03     545.033E-03    -270.016E-03     34.9084E-03
            2246     2.06334E-03     18.3490E-03    -90.7027E+06    -131.431E+06    -76.6309E+06     455.997E+03    -271.565E-03     540.364E-03    -268.799E-03     33.4402E-03    -272.016E-03     540.246E-03    -268.860E-03     25.5813E-03
            2247     1.37669E-03     18.2889E-03    -94.9263E+06    -139.523E+06    -88.2078E+06     535.187E+03    -269.143E-03     537.067E-03    -267.924E-03     22.0670E-03    -269.425E-03     536.769E-03    -268.025E-03     16.8526E-03
            2248     688.715E-06     18.2522E-03    -97.7189E+06    -145.359E+06    -95.5774E+06     458.010E+03    -267.603E-03     535.086E-03    -267.484E-03     11.6949E-03    -267.787E-03     534.681E-03    -267.609E-03     8.89300E-03
            2249     12.7285E-03     20.7378E-03    -3.01590E+06     38.1390E+06     68.0793E+06    -1.02155E+06    -311.783E-03     607.261E-03    -295.477E-03     188.120E-03    -317.873E-03     613.278E-03    -295.188E-03     150.947E-03
            2250     12.0654E-03     20.3937E-03    -7.78361E+06     32.6925E+06     58.6727E+06    -629.545E+03    -318.954E-03     613.646E-03    -294.692E-03     217.470E-03    -327.027E-03     621.637E-03    -294.434E-03     172.856E-03
            2251     11.4093E-03     20.0429E-03    -10.2830E+06     28.0216E+06     55.4747E+06     332.744E+03    -322.955E-03     616.505E-03    -293.550E-03     214.215E-03    -330.909E-03     624.361E-03    -293.298E-03     169.421E-03
            2252     10.7547E-03     19.6860E-03    -15.1480E+06     23.8270E+06     58.0613E+06    -744.834E+03    -324.432E-03     616.528E-03    -292.096E-03     210.902E-03    -332.409E-03     624.368E-03    -291.818E-03     165.622E-03
            2253     10.1000E-03     19.3346E-03    -21.0166E+06     17.4887E+06     55.4806E+06    -1.57958E+06    -324.583E-03     614.900E-03    -290.317E-03     201.809E-03    -332.092E-03     622.237E-03    -290.035E-03     157.808E-03
            2254     9.44643E-03     18.9922E-03    -25.8087E+06     11.2228E+06     50.6551E+06    -1.84810E+06    -323.690E-03     611.921E-03    -288.231E-03     190.138E-03    -330.548E-03     618.582E-03    -287.956E-03     148.232E-03
            2255     8.79215E-03     18.6638E-03    -30.5872E+06     4.55352E+06     43.9808E+06    -1.56519E+06    -321.284E-03     607.147E-03    -285.863E-03     175.795E-03    -327.370E-03     613.016E-03    -285.606E-03     136.601E-03
            2256     8.13668E-03     18.3544E-03    -35.4739E+06    -2.39410E+06     35.6475E+06    -1.35269E+06    -317.416E-03     600.681E-03    -283.264E-03     159.510E-03    -322.669E-03     605.698E-03    -283.031E-03     123.496E-03
            2257     7.47875E-03     18.0672E-03    -41.0730E+06    -10.2447E+06     26.9484E+06    -1.31487E+06    -312.286E-03     592.793E-03    -280.507E-03     141.961E-03    -316.701E-03     596.950E-03    -280.298E-03     109.386E-03
            2258     6.81837E-03     17.8057E-03    -46.5684E+06    -17.9545E+06     18.9690E+06    -921.575E+03    -306.103E-03     583.779E-03    -277.675E-03     124.047E-03    -309.721E-03     587.115E-03    -277.487E-03     95.0501E-03
            2259     6.15388E-03     17.5717E-03    -52.7366E+06    -26.7093E+06     8.82792E+06    -879.981E+03    -299.283E-03     574.134E-03    -274.851E-03     106.710E-03    -302.174E-03     576.719E-03    -274.692E-03     81.3465E-03
            2260     5.48492E-03     17.3662E-03    -58.8591E+06    -36.0796E+06    -3.27305E+06    -977.707E+03    -292.308E-03     564.429E-03    -272.121E-03     90.4330E-03    -294.561E-03     566.355E-03    -272.000E-03     68.6183E-03
            2261     4.81141E-03     17.1879E-03    -64.9620E+06    -46.3334E+06    -17.7887E+06    -866.704E+03    -285.569E-03     555.123E-03    -269.554E-03     75.3417E-03    -287.282E-03     556.493E-03    -269.482E-03     56.8821E-03
            2262     4.13361E-03     17.0370E-03    -71.3020E+06    -57.5035E+06    -34.1596E+06    -655.375E+03    -279.314E-03     546.525E-03    -267.211E-03     61.5894E-03    -280.584E-03     547.436E-03    -267.195E-03     46.2713E-03
            2263     3.45172E-03     16.9116E-03    -77.8673E+06    -88.9888E+06    -49.0058E+06    -78.9381E+03    -273.780E-03     538.962E-03    -265.182E-03     49.1435E-03    -274.671E-03     539.401E-03    -265.185E-03     36.7578E-03
            2264     2.76604E-03     16.8108E-03    -84.3700E+06    -120.790E+06    -62.3635E+06     402.174E+03    -269.085E-03     532.555E-03    -263.471E-03     37.8108E-03    -269.679E-03     532.600E-03    -263.485E-03     28.1488E-03
            2265     2.07737E-03     16.7334E-03    -89.7818E+06    -130.689E+06      -75.28E+06     454.400E+03    -265.283E-03     527.348E-03    -262.065E-03     27.4636E-03    -265.677E-03     527.174E-03    -262.122E-03     20.3574E-03
            2266     1.38635E-03     16.6786E-03    -93.7186E+06    -138.517E+06    -86.3288E+06     227.354E+03    -262.478E-03     523.503E-03    -261.025E-03     17.9883E-03    -262.733E-03     523.180E-03    -261.120E-03     13.2813E-03
            2267     693.570E-06     16.6451E-03    -96.0727E+06    -144.580E+06    -94.3542E+06     10.9261E+03    -260.532E-03     521.121E-03    -260.589E-03     9.52533E-03    -260.703E-03     520.707E-03    -260.712E-03     7.00708E-03
            2268     12.7297E-03     19.0080E-03    -2.94151E+06     37.4005E+06     68.5098E+06    -278.132E+03    -317.066E-03     612.186E-03    -295.120E-03     189.932E-03    -323.219E-03     618.263E-03    -294.827E-03     152.002E-03
            2269     12.0753E-03     18.6492E-03    -6.69059E+06     33.1970E+06     60.5130E+06     12.9319E+03    -324.422E-03     618.441E-03    -294.020E-03     215.647E-03    -332.443E-03     626.381E-03    -293.756E-03     170.494E-03
            2270     11.4222E-03     18.3017E-03    -10.0856E+06     28.8154E+06     55.7052E+06    -643.416E+03    -327.856E-03     620.374E-03    -292.517E-03     211.646E-03    -335.692E-03     628.114E-03    -292.266E-03     166.553E-03
            2271     10.7695E-03     17.9447E-03    -14.8956E+06     24.7058E+06     58.5972E+06    -496.752E+03    -329.607E-03     620.282E-03    -290.674E-03     206.828E-03    -337.339E-03     627.880E-03    -290.396E-03     161.655E-03
            2272     10.1194E-03     17.5966E-03    -19.0627E+06     19.7249E+06     57.6992E+06    -607.746E+03    -330.024E-03     618.456E-03    -288.432E-03     195.195E-03    -337.171E-03     625.440E-03    -288.144E-03     151.601E-03
            2273     9.46911E-03     17.2594E-03    -24.7010E+06     12.3476E+06     51.2930E+06    -1.09300E+06    -328.848E-03     614.636E-03    -285.788E-03     180.448E-03    -335.254E-03     620.852E-03    -285.514E-03     139.216E-03
            2274     8.81877E-03     16.9394E-03    -30.2125E+06     4.75082E+06     43.8872E+06    -1.77818E+06    -325.653E-03     608.454E-03    -282.801E-03     163.005E-03    -331.218E-03     613.804E-03    -282.544E-03     124.782E-03
            2275     8.16663E-03     16.6410E-03    -35.2379E+06    -2.44359E+06     35.7838E+06    -2.16049E+06    -320.588E-03     600.134E-03    -279.547E-03     144.375E-03    -325.285E-03     604.598E-03    -279.313E-03     109.631E-03
            2276     7.51202E-03     16.3671E-03    -41.1750E+06    -10.8251E+06     26.7555E+06    -2.34309E+06    -313.834E-03     589.970E-03    -276.135E-03     125.642E-03    -317.708E-03     593.585E-03    -275.926E-03     94.5943E-03
            2277     6.85262E-03     16.1210E-03    -46.8130E+06    -18.9415E+06     18.5416E+06    -2.54725E+06    -305.904E-03     578.599E-03    -272.695E-03     107.665E-03    -309.027E-03     581.438E-03    -272.507E-03     80.3854E-03
            2278     6.18809E-03     15.9033E-03    -51.7438E+06    -26.8983E+06     9.20893E+06    -2.45403E+06    -297.535E-03     566.863E-03    -269.328E-03     90.8846E-03    -299.994E-03     569.019E-03    -269.168E-03     67.3030E-03
            2279     5.51815E-03     15.7134E-03    -57.7037E+06    -36.8071E+06    -4.19685E+06    -2.12562E+06    -289.219E-03     555.333E-03    -266.114E-03     75.5970E-03    -291.117E-03     556.909E-03    -265.998E-03     55.4967E-03
            2280     4.84276E-03     15.5503E-03    -63.8603E+06    -48.0345E+06    -21.0027E+06    -1.22537E+06    -281.288E-03     544.416E-03    -263.128E-03     61.9475E-03    -282.719E-03     545.511E-03    -263.071E-03     45.0903E-03
            2281     4.16194E-03     15.4130E-03    -69.6448E+06    -59.5111E+06    -38.3774E+06     596.666E+03    -274.046E-03     534.488E-03    -260.442E-03     49.9270E-03    -275.100E-03     535.194E-03    -260.447E-03     36.0642E-03
            2282     3.47625E-03     15.2998E-03    -75.3863E+06    -88.4909E+06    -50.8766E+06     2.34455E+06    -267.769E-03     525.916E-03    -258.147E-03     39.4070E-03    -268.509E-03     526.219E-03    -258.164E-03     28.2819E-03
            2283     2.78655E-03     15.2092E-03    -81.2598E+06    -117.939E+06    -59.9921E+06     2.19385E+06    -262.494E-03     518.728E-03    -256.233E-03     30.1083E-03    -262.993E-03     518.690E-03    -256.245E-03     21.4725E-03
            2284     2.09325E-03     15.1401E-03    -86.9844E+06    -128.750E+06    -72.1848E+06     968.763E+03    -258.240E-03     512.905E-03    -254.665E-03     21.8085E-03    -258.579E-03     512.684E-03    -254.714E-03     15.4687E-03
            2285     1.39712E-03     15.0913E-03    -91.8437E+06    -137.651E+06    -85.2112E+06     667.471E+03    -255.132E-03     508.628E-03    -253.496E-03     14.2585E-03    -255.358E-03     508.282E-03    -253.589E-03     10.0695E-03
            2286     699.129E-06     15.0619E-03    -94.7735E+06    -143.456E+06    -93.5089E+06     854.215E+03    -253.021E-03     505.955E-03    -252.934E-03     7.54351E-03    -253.181E-03     505.536E-03    -253.056E-03     5.30346E-03
            2287     12.7412E-03     17.2658E-03    -4.67905E+06     36.7189E+06     68.1472E+06    -1.89057E+06    -324.355E-03     619.105E-03    -294.750E-03     194.341E-03    -330.738E-03     625.403E-03    -294.456E-03     155.068E-03
            2288     12.0856E-03     16.9059E-03    -8.00060E+06     32.8693E+06     60.4553E+06    -260.330E+03    -330.410E-03     623.709E-03    -293.300E-03     219.075E-03    -338.525E-03     631.738E-03    -293.033E-03     173.403E-03
            2289     11.4334E-03     16.5517E-03    -9.71802E+06     29.8934E+06     57.4137E+06     155.267E+03    -334.002E-03     625.436E-03    -291.434E-03     211.046E-03    -341.746E-03     633.086E-03    -291.176E-03     165.805E-03
            2290     10.7864E-03     16.1963E-03    -13.4372E+06     26.5907E+06     60.6164E+06    -198.760E+03    -336.620E-03     625.735E-03    -289.115E-03     202.322E-03    -344.141E-03     633.128E-03    -288.831E-03     157.030E-03
            2291     10.1402E-03     15.8506E-03    -18.6915E+06     20.5828E+06     57.9567E+06    -820.522E+03    -337.349E-03     623.609E-03    -286.260E-03     186.570E-03    -344.157E-03     630.258E-03    -285.973E-03     143.080E-03
            2292     9.49602E-03     15.5200E-03    -23.9937E+06     13.6523E+06     52.3974E+06    -1.65640E+06    -335.478E-03     618.387E-03    -282.909E-03     167.595E-03    -341.438E-03     624.162E-03    -282.632E-03     126.789E-03
            2293     8.85089E-03     15.2114E-03    -29.6848E+06     5.75326E+06     45.3803E+06    -2.35298E+06    -330.820E-03     609.985E-03    -279.165E-03     147.204E-03    -335.875E-03     614.828E-03    -278.904E-03     109.836E-03
            2294     8.20332E-03     14.9275E-03    -34.9931E+06    -2.23505E+06     36.4374E+06    -2.66602E+06    -323.763E-03     598.925E-03    -275.161E-03     127.054E-03    -327.940E-03     602.869E-03    -274.925E-03     93.5356E-03
            2295     7.55064E-03     14.6720E-03    -39.6714E+06    -10.0137E+06     27.0806E+06    -2.96726E+06    -314.901E-03     585.957E-03    -271.056E-03     107.859E-03    -318.276E-03     589.082E-03    -270.848E-03     78.3175E-03
            2296     6.89225E-03     14.4455E-03    -45.1202E+06    -18.6243E+06     17.9850E+06    -3.29955E+06    -305.135E-03     572.131E-03    -266.996E-03     90.1324E-03    -307.808E-03     574.530E-03    -266.814E-03     64.5141E-03
            2297     6.22742E-03     14.2471E-03    -51.4601E+06    -28.3603E+06     7.07750E+06    -3.12177E+06    -295.126E-03     558.213E-03    -263.087E-03     74.2224E-03    -297.207E-03     559.993E-03    -262.936E-03     52.3202E-03
            2298     5.55584E-03     14.0762E-03    -58.3851E+06    -39.3409E+06    -6.84362E+06    -1.92882E+06    -285.317E-03     544.734E-03    -259.417E-03     60.3491E-03    -286.912E-03     546.004E-03    -259.310E-03     41.8784E-03
            2299     4.87752E-03     13.9308E-03    -65.6529E+06    -51.3929E+06    -23.0252E+06     38.4173E+03    -276.152E-03     532.221E-03    -256.069E-03     48.4866E-03    -277.355E-03     533.075E-03    -256.014E-03     33.1680E-03
            2300     4.19304E-03     13.8095E-03    -73.0078E+06    -64.3955E+06    -41.0444E+06     2.73807E+06    -267.954E-03     521.052E-03    -253.098E-03     38.3884E-03    -268.845E-03     521.573E-03    -253.104E-03     25.9328E-03
            2301     3.50301E-03     13.7098E-03    -79.7321E+06    -86.8999E+06    -58.4582E+06     4.89218E+06    -260.900E-03     511.464E-03    -250.564E-03     29.8758E-03    -261.536E-03     511.675E-03    -250.614E-03     19.9849E-03
            2302     2.80815E-03     13.6306E-03    -84.9709E+06    -110.158E+06    -72.0860E+06     3.84803E+06    -255.084E-03     503.576E-03    -248.492E-03     22.7098E-03    -255.521E-03     503.525E-03    -248.569E-03     15.0922E-03
            2303     2.10947E-03     13.5705E-03    -88.9522E+06    -125.899E+06    -80.5337E+06     1.97288E+06    -250.571E-03     497.460E-03    -246.888E-03     16.4920E-03    -250.870E-03     497.225E-03    -246.980E-03     10.9282E-03
            2304     1.40795E-03     13.5283E-03    -92.2439E+06    -136.158E+06    -86.2952E+06     1.67464E+06    -247.379E-03     493.116E-03    -245.737E-03     10.8266E-03    -247.589E-03     492.760E-03    -245.837E-03     7.16910E-03
            2305     704.458E-06     13.5028E-03    -94.7906E+06    -140.130E+06    -92.2303E+06     851.390E+03    -245.371E-03     490.439E-03    -245.068E-03     5.77567E-03    -245.532E-03     490.030E-03    -245.189E-03     3.80367E-03
            2306     12.7374E-03     15.5108E-03    -4.39434E+06     37.8792E+06     67.2344E+06    -1.09787E+06    -330.868E-03     625.365E-03    -294.497E-03     199.368E-03    -337.498E-03     631.918E-03    -294.209E-03     158.886E-03
            2307     12.0900E-03     15.1466E-03    -8.39898E+06     34.0470E+06     59.6666E+06    -2.11313E+06    -338.032E-03     630.695E-03    -292.664E-03     220.651E-03    -346.413E-03     638.994E-03    -292.402E-03     173.268E-03
            2308     11.4466E-03     14.7923E-03    -11.5148E+06     29.2064E+06     56.5156E+06    -2.07219E+06    -342.859E-03     633.144E-03    -290.285E-03     208.861E-03    -350.613E-03     640.797E-03    -290.028E-03     162.602E-03
            2309     10.8041E-03     14.4359E-03    -16.0320E+06     25.2894E+06     59.5990E+06    -2.18177E+06    -346.328E-03     633.628E-03    -287.299E-03     194.947E-03    -353.674E-03     640.835E-03    -287.015E-03     148.929E-03
            2310     10.1665E-03     14.0928E-03    -19.8375E+06     20.3792E+06     58.3700E+06    -2.44556E+06    -346.382E-03     630.031E-03    -283.649E-03     173.723E-03    -352.855E-03     636.340E-03    -283.358E-03     129.935E-03
            2311     9.52892E-03     13.7729E-03    -23.5668E+06     14.5575E+06     53.4887E+06    -2.42874E+06    -342.591E-03     622.043E-03    -279.452E-03     151.114E-03    -348.111E-03     627.382E-03    -279.172E-03     110.600E-03
            2312     8.88932E-03     13.4793E-03    -28.3570E+06     6.98375E+06     44.9428E+06    -2.63922E+06    -335.582E-03     610.464E-03    -274.882E-03     128.908E-03    -340.160E-03     614.842E-03    -274.626E-03     92.3195E-03
            2313     8.24477E-03     13.2161E-03    -32.9930E+06    -1.18350E+06     34.6692E+06    -3.08517E+06    -326.082E-03     596.208E-03    -270.126E-03     108.089E-03    -329.793E-03     599.704E-03    -269.903E-03     75.6784E-03
            2314     7.59416E-03     12.9832E-03    -37.9862E+06    -9.84400E+06     24.7863E+06    -3.08213E+06    -315.092E-03     580.456E-03    -265.364E-03     89.1667E-03    -318.039E-03     583.168E-03    -265.171E-03     60.9777E-03
            2315     6.93616E-03     12.7801E-03    -44.2390E+06    -19.5765E+06     14.8514E+06    -2.15723E+06    -303.467E-03     564.207E-03    -260.740E-03     72.5593E-03    -305.773E-03     566.249E-03    -260.573E-03     48.4138E-03
            2316     6.27022E-03     12.6051E-03    -51.6043E+06    -30.4819E+06     3.78080E+06    -522.860E+03    -291.822E-03     548.185E-03    -256.363E-03     58.3216E-03    -293.608E-03     549.673E-03    -256.225E-03     37.9027E-03
            2317     5.59620E-03     12.4564E-03    -59.8870E+06    -42.3239E+06    -8.30319E+06     1.30113E+06    -280.694E-03     533.020E-03    -252.326E-03     46.2137E-03    -282.064E-03     534.054E-03    -252.220E-03     29.1870E-03
            2318     4.91448E-03     12.3314E-03    -68.6083E+06    -55.0336E+06    -22.6217E+06     3.67038E+06    -270.491E-03     519.179E-03    -248.688E-03     36.0944E-03    -271.533E-03     519.848E-03    -248.622E-03     22.1291E-03
            2319     4.22572E-03     12.2275E-03    -77.1658E+06    -68.6740E+06    -39.9297E+06     6.65426E+06    -261.459E-03     506.947E-03    -245.488E-03     27.7110E-03    -262.242E-03     507.327E-03    -245.476E-03     16.4690E-03
            2320     3.53079E-03     12.1433E-03    -84.8266E+06    -83.8992E+06    -59.7687E+06     8.57505E+06    -253.746E-03     496.505E-03    -242.758E-03     20.8045E-03    -254.324E-03     496.654E-03    -242.813E-03     11.9632E-03
            2321     2.83058E-03     12.0764E-03    -91.4328E+06    -100.033E+06    -78.3794E+06     7.85621E+06    -247.455E-03     487.991E-03    -240.536E-03     15.1543E-03    -247.874E-03     487.954E-03    -240.651E-03     8.41646E-03
            2322     2.12627E-03     12.0254E-03    -96.9782E+06    -118.251E+06    -90.5854E+06     4.98082E+06    -242.663E-03     481.514E-03    -238.851E-03     10.5356E-03    -242.967E-03     481.311E-03    -238.992E-03     5.64379E-03
            2323     1.41903E-03     11.9894E-03    -100.067E+06    -130.725E+06    -97.5410E+06     1.49140E+06    -239.348E-03     477.011E-03    -237.663E-03     6.68323E-03    -239.573E-03     476.695E-03    -237.816E-03     3.44848E-03
            2324     710.006E-06     11.9677E-03    -100.585E+06    -138.732E+06    -100.534E+06    -699.673E+03    -237.330E-03     474.318E-03    -236.988E-03     3.43507E-03    -237.506E-03     473.930E-03    -237.143E-03     1.68141E-03
            2325     12.7445E-03     13.7452E-03    -678.098E+03     41.0099E+06     72.3300E+06     299.786E+03    -339.010E-03     633.298E-03    -294.288E-03     199.244E-03    -345.765E-03     639.986E-03    -293.984E-03     157.659E-03
            2326     12.1003E-03     13.3774E-03    -6.30363E+06     36.8514E+06     62.5694E+06    -2.17346E+06    -347.363E-03     639.315E-03    -291.951E-03     220.186E-03    -355.978E-03     647.855E-03    -291.683E-03     170.882E-03
            2327     11.4599E-03     13.0170E-03    -13.4789E+06     28.6915E+06     54.9180E+06    -2.46760E+06    -355.208E-03     644.077E-03    -288.869E-03     203.230E-03    -362.957E-03     651.721E-03    -288.616E-03     155.354E-03
            2328     10.8290E-03     12.6567E-03    -16.6409E+06     25.8673E+06     59.7523E+06    -3.16276E+06    -358.337E-03     643.331E-03    -284.994E-03     182.229E-03    -365.469E-03     650.326E-03    -284.708E-03     134.973E-03
            2329     10.1995E-03     12.3230E-03    -20.2684E+06     20.8605E+06     59.2976E+06    -3.76024E+06    -355.630E-03     636.031E-03    -280.401E-03     156.267E-03    -361.763E-03     642.001E-03    -280.106E-03     111.901E-03
            2330     9.56874E-03     12.0181E-03    -24.0110E+06     14.8881E+06     53.7643E+06    -4.00862E+06    -348.677E-03     623.999E-03    -275.321E-03     131.414E-03    -353.782E-03     628.923E-03    -275.039E-03     91.0897E-03
            2331     8.93341E-03     11.7465E-03    -27.7540E+06     7.46518E+06     44.1042E+06    -4.26117E+06    -338.592E-03     608.572E-03    -269.980E-03     108.665E-03    -342.745E-03     612.533E-03    -269.730E-03     72.7812E-03
            2332     8.29168E-03     11.5086E-03    -32.7414E+06    -2.19981E+06     30.9869E+06    -3.87826E+06    -326.547E-03     591.127E-03    -264.580E-03     88.8331E-03    -329.866E-03     594.240E-03    -264.374E-03     57.4832E-03
            2333     7.64158E-03     11.3030E-03    -38.6536E+06    -12.7523E+06     18.8405E+06    -1.97786E+06    -313.609E-03     572.911E-03    -259.302E-03     71.8545E-03    -316.226E-03     575.297E-03    -259.133E-03     44.9042E-03
            2334     6.98238E-03     11.1275E-03    -45.1899E+06    -23.3069E+06     8.92747E+06     600.062E+03    -300.429E-03     554.703E-03    -254.275E-03     57.3348E-03    -302.473E-03     556.484E-03    -254.131E-03     34.4543E-03
            2335     6.31392E-03     10.9791E-03     -52.271E+06    -33.9583E+06    -669.648E+03     3.31596E+06    -287.615E-03     537.201E-03    -249.586E-03     45.0955E-03    -289.201E-03     538.487E-03    -249.464E-03     25.8987E-03
            2336     5.63658E-03     10.8549E-03    -59.8962E+06    -45.0812E+06    -10.9889E+06     6.22500E+06    -275.692E-03     520.987E-03    -245.295E-03     34.7934E-03    -276.913E-03     521.870E-03    -245.198E-03     18.8804E-03
            2337     4.95109E-03     10.7518E-03    -68.1701E+06    -57.1159E+06    -23.2879E+06     8.64467E+06    -264.888E-03     506.324E-03    -241.437E-03     26.2302E-03    -265.825E-03     506.885E-03    -241.371E-03     13.1980E-03
            2338     4.25810E-03     10.6675E-03    -76.1373E+06    -69.1068E+06    -36.9623E+06     10.1392E+06    -255.340E-03     493.379E-03    -238.039E-03     19.1639E-03    -256.056E-03     493.686E-03    -238.013E-03     8.65525E-03
            2339     3.55854E-03     10.5992E-03    -83.0333E+06    -80.1664E+06    -50.2562E+06     10.9087E+06    -247.196E-03     482.321E-03    -235.125E-03     13.3597E-03    -247.740E-03     482.430E-03    -235.140E-03     5.06854E-03
            2340     2.85364E-03     10.5456E-03    -89.0532E+06    -91.2542E+06    -64.4642E+06     10.9637E+06    -240.486E-03     473.182E-03    -232.696E-03     8.76790E-03    -240.899E-03     473.140E-03    -232.757E-03     2.44070E-03
            2341     2.14424E-03     10.5047E-03    -94.4786E+06    -104.787E+06    -81.3698E+06     9.10885E+06    -235.204E-03     465.958E-03    -230.754E-03     5.30994E-03    -235.512E-03     465.791E-03    -230.872E-03     723.044E-06
            2342     1.43145E-03     10.4758E-03    -99.3655E+06    -119.312E+06    -96.5455E+06     5.28117E+06    -231.368E-03     460.698E-03    -229.330E-03     2.86792E-03    -231.601E-03     460.429E-03    -229.496E-03    -164.232E-06
            2343     716.316E-06     10.4580E-03    -103.043E+06    -134.573E+06    -104.046E+06     2.37763E+06    -228.992E-03     457.464E-03    -228.472E-03     1.16241E-03    -229.178E-03     457.103E-03    -228.647E-03    -469.609E-06
            2344     12.7463E-03     11.9724E-03    -3.25025E+06     39.2701E+06     69.4081E+06    -1.11760E+06    -350.135E-03     644.212E-03    -294.077E-03     204.814E-03    -357.225E-03     651.226E-03    -293.782E-03     161.195E-03
            2345     12.1070E-03     11.5898E-03    -7.10520E+06     38.0809E+06     63.3281E+06    -650.497E+03    -363.440E-03     654.472E-03    -291.032E-03     220.671E-03    -372.313E-03     663.270E-03    -290.761E-03     168.819E-03
            2346     11.4825E-03     11.2147E-03    -10.7049E+06     33.6691E+06     60.1484E+06    -844.982E+03    -370.903E-03     657.875E-03    -286.972E-03     193.257E-03    -378.671E-03     665.553E-03    -286.705E-03     142.818E-03
            2347     10.8618E-03     10.8601E-03    -14.0166E+06     30.2561E+06     62.9700E+06    -2.44641E+06    -370.221E-03     652.265E-03    -282.045E-03     166.238E-03    -377.179E-03     659.105E-03    -281.753E-03     117.260E-03
            2348     10.2411E-03     10.5415E-03    -17.6425E+06     24.6303E+06     60.1267E+06    -3.92059E+06    -363.470E-03     639.975E-03    -276.506E-03     137.918E-03    -369.295E-03     645.660E-03    -276.215E-03     92.9418E-03
            2349     9.61582E-03     10.2604E-03    -22.5533E+06     16.1226E+06     52.3666E+06    -4.96605E+06    -352.719E-03     623.367E-03    -270.649E-03     112.690E-03    -357.450E-03     627.934E-03    -270.377E-03     72.7252E-03
            2350     8.98311E-03     10.0170E-03    -28.6377E+06     5.27272E+06     40.7987E+06    -4.66402E+06    -339.320E-03     604.039E-03    -264.719E-03     91.0316E-03    -343.112E-03     607.639E-03    -264.481E-03     56.1435E-03
            2351     8.34066E-03     9.81017E-03    -34.9672E+06    -6.55831E+06     26.2426E+06    -2.38190E+06    -324.787E-03     583.691E-03    -258.904E-03     73.1074E-03    -327.795E-03     586.484E-03    -258.712E-03     43.0803E-03
            2352     7.68832E-03     9.63506E-03    -41.2340E+06    -18.2257E+06     12.8951E+06     528.920E+03    -310.154E-03     563.504E-03    -253.350E-03     58.4100E-03    -312.528E-03     565.636E-03    -253.199E-03     32.8170E-03
            2353     7.02621E-03     9.48951E-03    -47.4401E+06    -28.5300E+06     3.32345E+06     3.47324E+06    -296.046E-03     544.193E-03    -248.147E-03     46.1664E-03    -297.919E-03     545.792E-03    -248.020E-03     24.4578E-03
            2354     6.35442E-03     9.36957E-03    -53.7621E+06    -38.2286E+06    -5.61168E+06     6.41461E+06    -282.749E-03     526.081E-03    -243.332E-03     35.9632E-03    -284.222E-03     527.248E-03    -243.226E-03     17.6776E-03
            2355     5.67350E-03     9.27086E-03    -59.8538E+06    -47.9324E+06    -14.8269E+06     8.87986E+06    -270.482E-03     509.421E-03    -238.939E-03     27.6176E-03    -271.634E-03     510.236E-03    -238.857E-03     12.3400E-03
            2356     4.98417E-03     9.19088E-03    -65.3630E+06    -56.8088E+06    -22.7088E+06     10.5324E+06    -259.513E-03     494.508E-03    -234.995E-03     20.8301E-03    -260.411E-03     495.040E-03    -234.932E-03     8.17124E-03
            2357     4.28742E-03     9.12644E-03    -70.8683E+06    -65.3176E+06    -30.8280E+06     10.7127E+06    -249.852E-03     481.353E-03    -231.501E-03     15.3006E-03    -250.549E-03     481.657E-03    -231.457E-03     4.94623E-03
            2358     3.58412E-03     9.07542E-03    -76.5107E+06    -74.6891E+06    -42.1686E+06     9.79647E+06    -241.463E-03     469.918E-03    -228.455E-03     10.9292E-03    -241.998E-03     470.039E-03    -228.447E-03     2.63506E-03
            2359     2.87495E-03     9.03583E-03    -81.5386E+06    -84.5358E+06    -56.0016E+06     8.86014E+06    -234.435E-03     460.311E-03    -225.876E-03     7.60149E-03    -234.841E-03     460.288E-03    -225.915E-03     1.17926E-03
            2360     2.16106E-03     9.00649E-03    -85.3204E+06    -94.3176E+06    -69.2404E+06     8.39082E+06    -228.786E-03     452.578E-03    -223.792E-03     5.05782E-03    -229.088E-03     452.441E-03    -223.878E-03     369.754E-06
            2361     1.44320E-03     8.98620E-03    -88.1617E+06    -106.673E+06    -79.9013E+06     7.79939E+06    -224.559E-03     446.804E-03    -222.244E-03     3.09776E-03    -224.782E-03     446.564E-03    -222.361E-03     27.5796E-06
            2362     722.416E-06     8.97418E-03    -90.4775E+06    -119.856E+06    -87.5213E+06     5.65195E+06    -221.920E-03     443.149E-03    -221.229E-03     1.49434E-03    -222.089E-03     442.823E-03    -221.362E-03    -130.815E-06
            2363     12.7416E-03     10.1690E-03    -5.05825E+06     39.2924E+06     67.8141E+06    -742.205E+03    -366.970E-03     660.670E-03    -293.700E-03     203.889E-03    -374.230E-03     667.852E-03    -293.411E-03     157.792E-03
            2364     12.1244E-03     9.76072E-03    -7.90222E+06     39.3656E+06     61.6781E+06    -775.410E+03    -382.703E-03     672.327E-03    -289.624E-03     212.029E-03    -391.716E-03     681.273E-03    -289.362E-03     156.725E-03
            2365     11.5125E-03     9.38815E-03    -8.87398E+06     37.1447E+06     59.4276E+06    -3.45828E+06    -385.748E-03     670.181E-03    -284.433E-03     179.362E-03    -393.511E-03     677.878E-03    -284.177E-03     126.058E-03
            2366     10.9017E-03     9.04674E-03    -12.0206E+06     32.9359E+06     60.4046E+06    -4.59738E+06    -379.868E-03     658.386E-03    -278.518E-03     149.253E-03    -386.547E-03     664.974E-03    -278.246E-03     99.2184E-03
            2367     10.2862E-03     8.75273E-03    -16.2016E+06     25.0803E+06     55.6446E+06    -4.11331E+06    -368.366E-03     640.580E-03    -272.215E-03     119.888E-03    -373.757E-03     645.853E-03    -271.949E-03     75.3570E-03
            2368     9.66306E-03     8.50250E-03    -21.4305E+06     14.7667E+06     46.9825E+06    -1.95788E+06    -353.574E-03     619.406E-03    -265.831E-03     95.6837E-03    -357.852E-03     623.535E-03    -265.587E-03     57.1019E-03
            2369     9.02961E-03     8.29472E-03    -27.2649E+06     2.86310E+06     35.8739E+06     508.069E+03    -337.369E-03     596.960E-03    -259.591E-03     76.1829E-03    -340.758E-03     600.168E-03    -259.377E-03     43.1295E-03
            2370     8.38553E-03     8.12255E-03    -34.1947E+06    -10.6458E+06     22.2849E+06     2.87415E+06    -320.988E-03     574.621E-03    -253.633E-03     60.6274E-03    -323.681E-03     577.099E-03    -253.457E-03     32.4134E-03
            2371     7.73021E-03     7.98211E-03    -41.4823E+06    -22.4408E+06     9.77485E+06     5.31017E+06    -305.043E-03     553.103E-03    -248.060E-03     48.4586E-03    -307.197E-03     555.009E-03    -247.919E-03     24.4193E-03
            2372     7.06384E-03     7.86721E-03    -47.9333E+06    -31.5134E+06     284.248E+03     6.90561E+06    -290.110E-03     533.045E-03    -242.935E-03     39.1478E-03    -291.849E-03     534.507E-03    -242.819E-03     18.6117E-03
            2373     6.38792E-03     7.77563E-03    -53.3319E+06    -39.7681E+06    -7.02630E+06     7.67017E+06    -276.521E-03     514.804E-03    -238.283E-03     32.2111E-03    -277.932E-03     515.909E-03    -238.183E-03     14.6655E-03
            2374     5.70275E-03     7.70342E-03    -58.0225E+06    -47.3974E+06    -12.7050E+06     7.80207E+06    -264.357E-03     498.467E-03    -234.110E-03     27.1899E-03    -265.497E-03     499.272E-03    -234.021E-03     12.3232E-03
            2375     5.00922E-03     7.64605E-03    -62.0703E+06    -54.3959E+06    -18.6480E+06     7.17653E+06    -253.591E-03     484.001E-03    -230.410E-03     23.3497E-03    -254.504E-03     484.557E-03    -230.334E-03     10.8804E-03
            2376     4.30836E-03     7.60160E-03    -65.6231E+06    -61.4226E+06    -26.2962E+06     6.77201E+06    -244.232E-03     471.411E-03    -227.179E-03     20.2738E-03    -244.952E-03     471.758E-03    -227.126E-03     9.98318E-03
            2377     3.60082E-03     7.56813E-03    -69.5334E+06    -69.5904E+06    -37.3782E+06     6.49196E+06    -236.294E-03     460.706E-03    -224.412E-03     17.5734E-03    -236.848E-03     460.876E-03    -224.397E-03     9.29397E-03
            2378     2.88767E-03     7.54318E-03    -73.8690E+06    -78.6717E+06    -50.4633E+06     5.51674E+06    -229.741E-03     451.862E-03    -222.121E-03     14.8632E-03    -230.157E-03     451.883E-03    -222.152E-03     8.44026E-03
            2379     2.16976E-03     7.52546E-03    -77.5097E+06    -88.8117E+06    -62.3389E+06     4.20034E+06    -224.625E-03     444.951E-03    -220.327E-03     11.8122E-03    -224.928E-03     444.845E-03    -220.397E-03     7.10622E-03
            2380     1.44838E-03     7.51395E-03    -79.3374E+06    -99.0706E+06    -71.4961E+06     3.30159E+06    -220.982E-03     440.008E-03    -219.026E-03     8.35762E-03    -221.195E-03     439.795E-03    -219.125E-03     5.25384E-03
            2381     724.810E-06     7.50716E-03    -79.4117E+06    -106.379E+06    -76.2577E+06     2.16027E+06    -218.683E-03     436.951E-03    -218.269E-03     4.66396E-03    -218.835E-03     436.666E-03    -218.381E-03     3.00910E-03
            2382     12.7615E-03     8.33357E-03    -4.72197E+06     41.5140E+06     68.5692E+06    -2.46631E+06    -389.391E-03     682.300E-03    -292.909E-03     206.669E-03    -396.976E-03     689.812E-03    -292.620E-03     157.534E-03
            2383     12.1514E-03     7.90577E-03    -5.86650E+06     43.1994E+06     62.4243E+06    -4.15777E+06    -402.263E-03     689.958E-03    -287.695E-03     207.344E-03    -411.526E-03     699.174E-03    -287.437E-03     148.515E-03
            2384     11.5491E-03     7.53915E-03    -7.85517E+06     38.4263E+06     55.7145E+06    -5.49632E+06    -399.543E-03     680.964E-03    -281.421E-03     163.917E-03    -406.930E-03     688.309E-03    -281.187E-03     109.619E-03
            2385     10.9447E-03     7.22261E-03    -10.7792E+06     31.1638E+06     53.0569E+06    -3.70907E+06    -387.313E-03     661.956E-03    -274.643E-03     127.892E-03    -393.187E-03     667.762E-03    -274.407E-03     79.5183E-03
            2386     10.3325E-03     6.96298E-03    -15.6077E+06     20.4935E+06     46.2122E+06    -659.726E+03    -369.975E-03     637.754E-03    -267.780E-03     97.5092E-03    -374.504E-03     642.182E-03    -267.556E-03     55.8912E-03
            2387     9.70857E-03     6.75314E-03    -21.5357E+06     9.17898E+06     36.9411E+06     2.64320E+06    -350.939E-03     612.069E-03    -261.130E-03     75.0136E-03    -354.479E-03     615.471E-03    -260.928E-03     39.5342E-03
            2388     9.07227E-03     6.58375E-03    -28.0623E+06    -2.01265E+06     27.6163E+06     6.68135E+06    -331.845E-03     586.722E-03    -254.876E-03     58.9224E-03    -334.667E-03     589.366E-03    -254.695E-03     28.7186E-03
            2389     8.42363E-03     6.44923E-03    -34.0638E+06    -12.5206E+06     19.4309E+06     9.30892E+06    -313.537E-03     562.661E-03    -249.125E-03     48.2240E-03    -315.837E-03     564.748E-03    -248.960E-03     22.3622E-03
            2390     7.76324E-03     6.34414E-03    -39.1996E+06    -21.0459E+06     11.2596E+06     9.36676E+06    -296.483E-03     540.414E-03    -243.931E-03     41.9626E-03    -298.392E-03     542.082E-03    -243.787E-03     19.7514E-03
            2391     7.09174E-03     6.26198E-03    -43.9427E+06    -28.8847E+06     3.81883E+06     8.37288E+06    -281.064E-03     520.400E-03    -239.336E-03     38.6180E-03    -282.656E-03     521.727E-03    -239.211E-03     19.6121E-03
            2392     6.40897E-03     6.19933E-03    -48.3968E+06    -36.3763E+06    -745.750E+03     6.81277E+06    -267.683E-03     503.031E-03    -235.349E-03     36.8440E-03    -269.016E-03     504.069E-03    -235.230E-03     20.6153E-03
            2393     5.71723E-03     6.15117E-03    -52.8696E+06    -43.0808E+06    -5.05269E+06     4.94830E+06    -256.330E-03     488.254E-03    -231.924E-03     35.7839E-03    -257.441E-03     489.042E-03    -231.810E-03     22.0240E-03
            2394     5.01782E-03     6.11576E-03    -57.8523E+06    -50.7141E+06    -12.4895E+06     3.32873E+06    -246.746E-03     475.761E-03    -229.016E-03     34.7159E-03    -247.658E-03     476.327E-03    -228.921E-03     23.1913E-03
            2395     4.31137E-03     6.08973E-03    -63.3368E+06    -59.1927E+06    -22.1002E+06     2.10480E+06    -238.899E-03     465.498E-03    -226.599E-03     32.9482E-03    -239.635E-03     465.865E-03    -226.532E-03     23.4510E-03
            2396     3.59972E-03     6.07096E-03    -68.2922E+06    -67.2923E+06    -32.0735E+06     1.30993E+06    -232.710E-03     457.349E-03    -224.639E-03     30.0542E-03    -233.289E-03     457.541E-03    -224.603E-03     22.4011E-03
            2397     2.88401E-03     6.05816E-03    -72.4172E+06    -75.3896E+06    -43.5230E+06     691.736E+03    -227.984E-03     451.070E-03    -223.087E-03     25.9321E-03    -228.424E-03     451.112E-03    -223.090E-03     19.9791E-03
            2398     2.16532E-03     6.04952E-03    -76.3574E+06    -86.0176E+06    -56.8075E+06    -128.709E+03    -224.539E-03     446.443E-03    -221.904E-03     20.6003E-03    -224.859E-03     446.351E-03    -221.953E-03     16.2191E-03
            2399     1.44464E-03     6.04398E-03    -80.3053E+06    -97.2103E+06    -69.9576E+06    -961.623E+03    -222.210E-03     443.273E-03    -221.063E-03     14.3674E-03    -222.438E-03     443.072E-03    -221.156E-03     11.4521E-03
            2400     722.631E-06     6.04107E-03    -83.4074E+06    -105.139E+06    -80.0256E+06    -1.09727E+06    -220.669E-03     441.379E-03    -220.710E-03     7.90598E-03    -220.840E-03     441.111E-03    -220.837E-03     6.33931E-03
            2401     12.7657E-03     6.45034E-03    -3.21516E+06     46.3274E+06     64.4945E+06    -5.11060E+06    -418.271E-03     710.377E-03    -292.106E-03     223.834E-03    -426.483E-03     718.545E-03    -291.846E-03     170.629E-03
            2402     12.1752E-03     6.00973E-03    -4.42962E+06     44.1250E+06     56.0459E+06    -6.88652E+06    -428.698E-03     714.226E-03    -285.529E-03     194.989E-03    -437.499E-03     723.015E-03    -285.306E-03     134.493E-03
            2403     11.5870E-03     5.66496E-03    -7.49985E+06     33.6533E+06     46.3865E+06    -4.23984E+06    -414.781E-03     692.772E-03    -277.992E-03     133.353E-03    -420.784E-03     698.754E-03    -277.798E-03     81.9362E-03
            2404     10.9905E-03     5.39122E-03    -11.5799E+06     22.4843E+06     41.3979E+06     418.141E+03    -392.207E-03     662.596E-03    -270.389E-03     92.3875E-03    -396.550E-03     666.879E-03    -270.198E-03     49.0703E-03
            2405     10.3793E-03     5.17917E-03    -16.5654E+06     13.1238E+06     37.3941E+06     5.40644E+06    -367.127E-03     630.321E-03    -263.194E-03     65.3416E-03    -370.377E-03     633.467E-03    -263.002E-03     28.9981E-03
            2406     9.75316E-03     5.01604E-03    -22.1479E+06     4.34108E+06     32.4568E+06     9.45092E+06    -342.736E-03     599.378E-03    -256.642E-03     50.1670E-03    -345.318E-03     601.815E-03    -256.454E-03     19.3428E-03
            2407     9.11175E-03     4.89147E-03    -27.6910E+06    -3.44589E+06     27.9315E+06     10.9654E+06    -320.026E-03     570.883E-03    -250.857E-03     43.4200E-03    -322.166E-03     572.839E-03    -250.672E-03     17.2332E-03
            2408     8.45499E-03     4.79830E-03    -32.3817E+06    -8.44446E+06     24.2552E+06     9.86522E+06    -299.816E-03     545.700E-03    -245.884E-03     42.2096E-03    -301.641E-03     547.315E-03    -245.703E-03     20.0002E-03
            2409     7.78412E-03     4.72866E-03    -36.0120E+06    -15.2260E+06     18.5764E+06     7.84016E+06    -282.728E-03     524.422E-03    -241.693E-03     43.8249E-03    -284.295E-03     525.758E-03    -241.526E-03     25.0277E-03
            2410     7.10092E-03     4.67834E-03    -39.2936E+06    -23.8816E+06     13.2855E+06     6.14264E+06    -268.700E-03     506.929E-03    -238.229E-03     45.9999E-03    -270.040E-03     508.010E-03    -238.071E-03     30.1311E-03
            2411     6.40889E-03     4.64046E-03    -43.5601E+06    -31.3809E+06     9.32256E+06     4.64597E+06    -257.342E-03     492.754E-03    -235.411E-03     47.4145E-03    -258.485E-03     493.607E-03    -235.256E-03     34.0316E-03
            2412     5.70922E-03     4.61387E-03    -49.2072E+06    -38.9877E+06     3.10320E+06     3.16611E+06    -248.361E-03     481.508E-03    -233.147E-03     47.3711E-03    -249.329E-03     482.157E-03    -233.004E-03     36.0877E-03
            2413     5.00341E-03     4.59496E-03    -55.6286E+06    -47.2400E+06    -4.72941E+06     1.67329E+06    -241.534E-03     472.891E-03    -231.356E-03     45.6832E-03    -242.343E-03     473.350E-03    -231.231E-03     36.2278E-03
            2414     4.29397E-03     4.58184E-03    -62.2105E+06    -55.9247E+06    -14.7082E+06    -393.601E+03    -236.481E-03     466.434E-03    -229.952E-03     42.2673E-03    -237.145E-03     466.722E-03    -229.855E-03     34.4079E-03
            2415     3.58145E-03     4.57295E-03    -69.0432E+06    -65.5736E+06    -27.6646E+06    -2.73538E+06    -232.801E-03     461.664E-03    -228.863E-03     37.3119E-03    -233.335E-03     461.799E-03    -228.806E-03     30.8810E-03
            2416     2.86698E-03     4.56694E-03    -75.9338E+06    -76.4324E+06    -43.4776E+06    -3.83011E+06    -230.237E-03     458.267E-03    -228.030E-03     31.1812E-03    -230.656E-03     458.269E-03    -228.027E-03     26.0944E-03
            2417     2.15132E-03     4.56326E-03    -82.4132E+06    -87.8688E+06    -60.9948E+06    -3.39866E+06    -228.521E-03     455.928E-03    -227.407E-03     24.2154E-03    -228.842E-03     455.818E-03    -227.465E-03     20.4184E-03
            2418     1.43471E-03     4.56124E-03     -87.757E+06    -100.065E+06    -77.1508E+06    -2.61909E+06    -227.417E-03     454.390E-03    -226.972E-03     16.6792E-03    -227.659E-03     454.185E-03    -227.086E-03     14.1279E-03
            2419     717.523E-06     4.56034E-03    -91.3677E+06    -110.783E+06    -88.4726E+06    -1.56702E+06    -226.533E-03     453.534E-03    -227.002E-03     9.21320E-03    -226.721E-03     453.258E-03    -227.151E-03     7.83521E-03
            2420     12.7696E-03     4.47674E-03    -3.28631E+06     50.4148E+06     57.7678E+06    -7.92291E+06    -466.140E-03     756.989E-03    -290.849E-03     197.619E-03    -473.188E-03     764.040E-03    -290.629E-03     145.159E-03
            2421     12.2085E-03     4.05530E-03    -4.97904E+06     37.9925E+06     46.4525E+06    -3.43784E+06    -454.575E-03     736.818E-03    -282.243E-03     125.397E-03    -460.296E-03     742.553E-03    -282.059E-03     74.0006E-03
            2422     11.6379E-03     3.76691E-03    -9.18323E+06     25.0898E+06     37.3161E+06     2.16388E+06    -421.212E-03     694.709E-03    -273.497E-03     68.8373E-03    -424.657E-03     698.132E-03    -273.334E-03     26.6700E-03
            2423     11.0464E-03     3.56127E-03    -13.7179E+06     15.5242E+06     34.7492E+06     5.88915E+06    -385.881E-03     651.451E-03    -265.570E-03     44.5457E-03    -388.348E-03     653.843E-03    -265.399E-03     9.32628E-03
            2424     10.4325E-03     3.41278E-03    -18.3461E+06     9.10286E+06     35.0298E+06     7.71814E+06    -353.052E-03     611.799E-03    -258.747E-03     36.0780E-03    -354.962E-03     613.587E-03    -258.558E-03     7.54434E-03
            2425     9.79599E-03     3.30671E-03    -21.5866E+06     4.55494E+06     36.6724E+06     7.68951E+06    -324.723E-03     577.804E-03    -253.081E-03     37.2230E-03    -326.325E-03     579.247E-03    -252.873E-03     13.9835E-03
            2426     9.13894E-03     3.23184E-03    -23.4140E+06     687.890E+03     39.1588E+06     6.88485E+06    -301.454E-03     549.953E-03    -248.499E-03     41.7248E-03    -302.842E-03     551.153E-03    -248.270E-03     22.6774E-03
            2427     8.46537E-03     3.17924E-03    -25.7690E+06    -3.68886E+06     36.7427E+06     6.24031E+06    -283.009E-03     527.857E-03    -244.848E-03     46.0660E-03    -284.217E-03     528.858E-03    -244.621E-03     30.4168E-03
            2428     7.77971E-03     3.14147E-03    -29.9515E+06    -11.2709E+06     29.6827E+06     5.59489E+06    -268.801E-03     510.785E-03    -241.985E-03     48.7307E-03    -269.844E-03     511.601E-03    -241.776E-03     35.7824E-03
            2429     7.08640E-03     3.11406E-03    -35.2963E+06    -20.0346E+06     21.7622E+06     4.63508E+06    -258.058E-03     497.840E-03    -239.782E-03     49.7743E-03    -258.959E-03     498.485E-03    -239.593E-03     38.9168E-03
            2430     6.38656E-03     3.09516E-03    -40.9630E+06    -27.8967E+06     13.8956E+06     3.57066E+06    -250.168E-03     488.281E-03    -238.113E-03     49.2283E-03    -250.945E-03     488.775E-03    -237.944E-03     40.0300E-03
            2431     5.68243E-03     3.08186E-03    -46.3322E+06    -35.4252E+06     5.98107E+06     1.86795E+06    -244.602E-03     481.462E-03    -236.860E-03     46.8873E-03    -245.267E-03     481.820E-03    -236.711E-03     39.0217E-03
            2432     4.97607E-03     3.07256E-03    -51.2903E+06    -42.6372E+06    -2.89482E+06    -779.683E+03    -240.729E-03     476.645E-03    -235.916E-03     43.1016E-03    -241.290E-03     476.881E-03    -235.794E-03     36.3599E-03
            2433     4.26742E-03     3.06618E-03    -56.1981E+06    -52.5862E+06    -14.5609E+06    -3.44803E+06    -238.044E-03     473.248E-03    -235.204E-03     38.3388E-03    -238.505E-03     473.364E-03    -235.119E-03     32.6011E-03
            2434     3.55773E-03     3.06210E-03    -61.3186E+06    -65.5306E+06    -29.3734E+06    -4.72549E+06    -236.246E-03     470.915E-03    -234.669E-03     32.8812E-03    -236.612E-03     470.914E-03    -234.632E-03     28.0937E-03
            2435     2.84705E-03     3.05973E-03    -66.8795E+06    -79.8538E+06    -44.9763E+06    -4.72221E+06    -235.060E-03     469.340E-03    -234.280E-03     26.9096E-03    -235.343E-03     469.230E-03    -234.292E-03     23.0641E-03
            2436     2.13555E-03     3.05822E-03    -72.1464E+06    -93.6904E+06    -59.3741E+06    -3.75870E+06    -234.321E-03     468.337E-03    -234.015E-03     20.5337E-03    -234.536E-03     468.132E-03    -234.072E-03     17.6296E-03
            2437     1.42376E-03     3.05769E-03    -76.4009E+06    -105.568E+06    -70.8826E+06    -2.03295E+06    -233.934E-03     467.789E-03    -233.855E-03     13.9574E-03    -234.097E-03     467.508E-03    -233.946E-03     11.9955E-03
            2438     711.830E-06     3.05746E-03    -79.6417E+06    -115.815E+06    -78.5606E+06    -803.409E+03    -233.335E-03     467.562E-03    -234.227E-03     7.67971E-03    -233.464E-03     467.222E-03    -234.336E-03     6.61597E-03
            2439     12.8246E-03     2.40714E-03    -3.11062E+06     56.9163E+06     61.7937E+06    -4.55555E+06    -569.755E-03     860.752E-03    -290.997E-03     213.144E-03    -577.009E-03     868.069E-03    -290.766E-03     151.754E-03
            2440     12.2905E-03     2.07484E-03    -5.88264E+06     39.9730E+06     54.1064E+06     1.87819E+06    -491.813E-03     771.200E-03    -279.388E-03     100.121E-03    -494.600E-03     774.026E-03    -279.166E-03     64.2253E-03
            2441     11.7166E-03     1.88752E-03    -10.0309E+06     27.9560E+06     48.6377E+06     5.04214E+06    -423.810E-03     693.524E-03    -269.714E-03     49.7096E-03    -425.140E-03     694.821E-03    -269.497E-03     25.7752E-03
            2442     11.1079E-03     1.76682E-03    -13.7778E+06     19.5866E+06     46.4307E+06     5.12507E+06    -372.760E-03     634.833E-03    -262.073E-03     35.7720E-03    -373.740E-03     635.721E-03    -261.849E-03     17.0729E-03
            2443     10.4691E-03     1.69322E-03    -15.8981E+06     13.7635E+06     46.0585E+06     4.05293E+06    -334.595E-03     590.768E-03    -256.173E-03     33.3020E-03    -335.398E-03     591.441E-03    -255.940E-03     18.9727E-03
            2444     9.80801E-03     1.64234E-03    -17.6723E+06     8.37781E+06     45.2734E+06     2.51791E+06    -306.487E-03     558.175E-03    -251.688E-03     34.6033E-03    -307.193E-03     558.724E-03    -251.448E-03     23.3362E-03
            2445     9.13289E-03     1.60886E-03    -20.2343E+06     2.00236E+06     43.3322E+06     1.78770E+06    -286.185E-03     534.495E-03    -248.310E-03     35.6776E-03    -286.812E-03     534.937E-03    -248.067E-03     26.5541E-03
            2446     8.44886E-03     1.58525E-03    -22.8617E+06    -5.53331E+06     36.7586E+06     2.64581E+06    -271.731E-03     517.484E-03    -245.753E-03     36.1578E-03    -272.275E-03     517.824E-03    -245.528E-03     28.6547E-03
            2447     7.75847E-03     1.56935E-03    -25.7279E+06    -11.8941E+06     29.3306E+06     4.19126E+06    -261.370E-03     505.198E-03    -243.828E-03     35.5793E-03    -261.840E-03     505.452E-03    -243.627E-03     29.3051E-03
            2448     7.06151E-03     1.55859E-03    -29.8815E+06    -17.5592E+06     21.5379E+06     4.47036E+06    -253.933E-03     496.326E-03    -242.392E-03     33.8752E-03    -254.346E-03     496.509E-03    -242.216E-03     28.5419E-03
            2449     6.36086E-03     1.55054E-03     -34.077E+06    -23.6542E+06     11.9751E+06     2.72758E+06    -248.731E-03     490.056E-03    -241.326E-03     31.3471E-03    -249.092E-03     490.178E-03    -241.182E-03     26.7192E-03
            2450     5.65794E-03     1.54418E-03    -37.9462E+06    -30.1502E+06     1.95353E+06    -48.1089E+03    -245.139E-03     485.681E-03    -240.542E-03     28.3951E-03    -245.453E-03     485.748E-03    -240.433E-03     24.3218E-03
            2451     4.95282E-03     1.54016E-03    -42.2043E+06    -37.8957E+06    -10.3879E+06    -2.74552E+06    -242.666E-03     482.633E-03    -239.966E-03     25.3036E-03    -242.936E-03     482.648E-03    -239.902E-03     21.7151E-03
            2452     4.24673E-03     1.53751E-03    -46.8507E+06    -51.0224E+06    -23.6419E+06    -4.52992E+06    -241.025E-03     480.588E-03    -239.563E-03     22.1220E-03    -241.248E-03     480.531E-03    -239.539E-03     19.0086E-03
            2453     3.53945E-03     1.53594E-03    -51.1841E+06    -68.6055E+06    -35.4675E+06    -4.88181E+06    -240.013E-03     479.312E-03    -239.299E-03     18.7386E-03    -240.187E-03     479.163E-03    -239.303E-03     16.1083E-03
            2454     2.83179E-03     1.53499E-03    -54.7669E+06    -85.2084E+06    -44.7744E+06    -3.55889E+06    -239.430E-03     478.568E-03    -239.137E-03     15.1866E-03    -239.562E-03     478.331E-03    -239.158E-03     13.0620E-03
            2455     2.12405E-03     1.53471E-03    -58.1180E+06    -99.4350E+06    -52.1938E+06    -1.75512E+06    -239.123E-03     478.169E-03    -239.046E-03     11.4934E-03    -239.221E-03     477.857E-03    -239.078E-03     9.89414E-03
            2456     1.41607E-03     1.53447E-03    -60.9660E+06    -109.991E+06    -57.8835E+06    -518.722E+03    -239.002E-03     478.001E-03    -238.999E-03     7.75420E-03    -239.077E-03     477.635E-03    -239.041E-03     6.67540E-03
            2457     708.104E-06     1.53440E-03    -62.5468E+06    -117.406E+06    -61.8656E+06     204.581E+03    -238.608E-03     477.952E-03    -239.344E-03     4.11372E-03    -238.664E-03     477.549E-03    -239.392E-03     3.53575E-03


