********************************************************************************
Field Output Report, written Wed May 29 01:10:06 2024

Source 1
---------

   ODB: G:/Abaqus_calc_2019/1740/Vel_5/odb/zeides_2a_40_red_1000_cal_10_vel_5_fric_050.odb
   Step: Step-1
   Frame: Increment  18961984: Step Time =    2.111

Loc 1 : Nodal values from source 1

Output sorted by column "Nodal Label".

Field Output reported at nodes for region: DIE_2A_40_D0_36-1.Region_1
   Computation algorithm: EXTRAPOLATE_COMPUTE_AVERAGE
   Averaged at nodes
   Averaging regions: ODB_REGIONS

      Node Label     COORD.COOR1     COORD.COOR2
                          @Loc 1          @Loc 1
-------------------------------------------------
               1     21.7407E-03     134.214E-03


Field Output reported at nodes for region: DIE_2A_40_D0_36-1.Region_2
   Computation algorithm: EXTRAPOLATE_COMPUTE_AVERAGE
   Averaged at nodes
   Averaging regions: ODB_REGIONS

      Node Label     COORD.COOR1     COORD.COOR2
                          @Loc 1          @Loc 1
-------------------------------------------------
               1     21.7407E-03     134.214E-03


Field Output reported at nodes for part: WIRE-1
   Computation algorithm: EXTRAPOLATE_COMPUTE_AVERAGE
   Averaged at nodes
   Averaging regions: ODB_REGIONS

      Node Label     COORD.COOR1     COORD.COOR2           S.S11           S.S22           S.S33           S.S12         PE.PE11         PE.PE22         PE.PE33         PE.PE12         LE.LE11         LE.LE22         LE.LE33         LE.LE12
                          @Loc 1          @Loc 1          @Loc 1          @Loc 1          @Loc 1          @Loc 1          @Loc 1          @Loc 1          @Loc 1          @Loc 1          @Loc 1          @Loc 1          @Loc 1          @Loc 1
-------------------------------------------------------------------------------------------------------------------------------------------------------------------------------------------------------------------------------------------------
               1     25.2725E-09     67.3467E-03    -78.5057E+06    -226.743E+06    -78.4871E+06     362.959E+03    -111.846E-03     223.698E-03    -111.853E-03     8.87497E-03    -111.798E-03     222.798E-03    -111.803E-03     8.67194E-03
               2     16.1013E-03     70.4097E-03    -3.03630E+06     121.076E+06     93.1439E+06    -17.2158E+03    -111.172E-03     222.880E-03    -111.708E-03     137.377E-03    -117.428E-03     229.284E-03    -111.413E-03     134.086E-03
               3     14.9890E-03     140.177E-03    -3.16253E+06    -28.0829E+06    -10.4697E+06    -19.1819E+06     88.6744E-03     79.0284E-03    -167.703E-03     1.12395E-03     88.9297E-03     79.1225E-03    -167.710E-03     876.272E-06
               4    -1.56156E-06     134.376E-03     34.3205E+06    -7.86786E+06     34.0358E+06    -2.55194E+06    -106.423E-03     213.635E-03    -107.213E-03    -14.0201E-03    -106.366E-03     213.417E-03    -107.081E-03    -14.1374E-03
               5     530.989E-09    -8.24341E-15    -46.1595E+06    -195.099E+06    -46.2390E+06     1.38235E+06    -112.990E-03     225.745E-03    -112.755E-03     988.055E-06    -112.866E-03     224.906E-03    -112.637E-03     992.762E-06
               6     15.6295E-03    -8.24341E-15    -10.6458E+06     92.6305E+06     79.7568E+06     6.92816E+06    -286.786E-03     416.933E-03    -130.148E-03     315.350E-03    -293.529E-03     423.669E-03    -129.868E-03     295.485E-03
               7     804.743E-06     67.3567E-03    -77.5010E+06    -225.043E+06    -75.9458E+06     491.980E+03    -111.913E-03     223.771E-03    -111.859E-03     15.1091E-03    -111.876E-03     222.882E-03    -111.800E-03     14.7723E-03
               8     1.60956E-03     67.3808E-03    -75.2160E+06    -220.922E+06    -69.6096E+06     589.022E+03    -112.081E-03     223.965E-03    -111.884E-03     27.9597E-03    -112.075E-03     223.110E-03    -111.803E-03     27.3290E-03
               9     2.41438E-03     67.4196E-03    -72.3123E+06    -215.922E+06    -61.9325E+06     432.122E+03    -112.281E-03     224.196E-03    -111.916E-03     41.2306E-03    -112.327E-03     223.399E-03    -111.807E-03     40.2634E-03
              10     3.21920E-03     67.4734E-03    -68.7597E+06    -204.947E+06    -52.9455E+06     120.567E+03    -112.511E-03     224.441E-03    -111.930E-03     54.4989E-03    -112.640E-03     223.751E-03    -111.798E-03     53.1638E-03
              11     4.02412E-03     67.5418E-03    -64.3573E+06    -190.284E+06      -42.64E+06    -144.369E+03    -112.821E-03     224.757E-03    -111.935E-03     67.6197E-03    -113.064E-03     224.219E-03    -111.779E-03     65.8805E-03
              12     4.82897E-03     67.6248E-03    -59.7297E+06    -180.771E+06    -33.0989E+06    -189.681E+03    -113.209E-03     225.150E-03    -111.942E-03     80.5235E-03    -113.591E-03     224.775E-03    -111.759E-03     78.3368E-03
              13     5.63396E-03     67.7219E-03    -55.5928E+06    -173.153E+06    -25.0878E+06    -86.6135E+03    -113.665E-03     225.610E-03    -111.946E-03     93.1645E-03    -114.227E-03     225.434E-03    -111.740E-03     90.4758E-03
              14     6.43887E-03     67.8328E-03    -51.7255E+06    -148.508E+06    -19.5267E+06     207.066E+03    -114.129E-03     226.045E-03    -111.916E-03     105.746E-03    -114.948E-03     226.210E-03    -111.724E-03     102.502E-03
              15     7.24383E-03     67.9577E-03    -48.1420E+06    -132.205E+06    -14.1190E+06     250.675E+03    -114.580E-03     226.479E-03    -111.899E-03     118.181E-03    -115.716E-03     227.016E-03    -111.708E-03     114.299E-03
              16     8.04874E-03     68.0959E-03    -44.7944E+06    -119.284E+06    -10.4743E+06     168.711E+03    -115.009E-03     226.884E-03    -111.875E-03     130.651E-03    -116.550E-03     227.873E-03    -111.690E-03     126.044E-03
              17     8.85407E-03     68.2475E-03    -41.4418E+06    -89.5862E+06    -8.14705E+06     139.790E+03    -115.422E-03     227.241E-03    -111.819E-03     143.421E-03    -117.512E-03     228.890E-03    -111.670E-03     137.994E-03
              18     9.65906E-03     68.4136E-03    -38.3635E+06    -54.1012E+06    -2.97539E+06     170.615E+03    -115.806E-03     227.576E-03    -111.770E-03     156.473E-03    -118.635E-03     230.086E-03    -111.651E-03     150.100E-03
              19     10.4641E-03     68.5936E-03    -35.2459E+06     1.43173E+06     3.52266E+06    -131.663E+03    -116.024E-03     227.721E-03    -111.698E-03     171.488E-03    -119.901E-03     231.468E-03    -111.631E-03     164.016E-03
              20     11.2694E-03     68.7918E-03    -32.3893E+06     50.0272E+06     13.8541E+06    -746.516E+03    -116.481E-03     228.126E-03    -111.645E-03     192.817E-03    -121.949E-03     233.616E-03    -111.601E-03     183.994E-03
              21     12.0751E-03     69.0181E-03    -28.7408E+06     75.0921E+06     38.1898E+06    -315.506E+03    -117.905E-03     229.594E-03    -111.689E-03     226.349E-03    -126.042E-03     237.785E-03    -111.565E-03     215.769E-03
              22     12.8804E-03     69.2911E-03    -23.1689E+06     92.8064E+06     69.2576E+06     424.533E+03    -119.982E-03     231.750E-03    -111.768E-03     269.880E-03    -132.238E-03     244.052E-03    -111.523E-03     257.457E-03
              23     13.6856E-03     69.6178E-03    -16.6733E+06     107.357E+06     89.5519E+06     391.418E+03    -120.481E-03     232.271E-03    -111.790E-03     298.054E-03    -136.881E-03     248.733E-03    -111.474E-03     285.335E-03
              24     14.4909E-03     69.9555E-03    -10.0118E+06     118.146E+06     97.5859E+06     325.036E+03    -117.514E-03     229.277E-03    -111.763E-03     285.503E-03    -135.393E-03     247.257E-03    -111.432E-03     275.509E-03
              25     15.2995E-03     70.2558E-03    -4.92270E+06     121.926E+06     96.0033E+06     214.390E+03    -113.139E-03     224.864E-03    -111.725E-03     202.561E-03    -125.084E-03     236.946E-03    -111.414E-03     197.009E-03
              26     16.1027E-03     71.5971E-03    -1.91976E+06     121.618E+06     93.5432E+06     150.965E+03    -111.327E-03     223.021E-03    -111.694E-03     136.553E-03    -117.517E-03     229.364E-03    -111.400E-03     133.236E-03
              27     16.1023E-03     72.7791E-03    -1.45688E+06     121.686E+06     93.5643E+06     565.478E+03    -110.403E-03     222.114E-03    -111.711E-03     134.536E-03    -116.559E-03     228.426E-03    -111.418E-03     131.365E-03
              28     16.1018E-03     73.9669E-03    -1.78185E+06     122.426E+06     94.2953E+06    -468.642E+03    -110.040E-03     221.770E-03    -111.730E-03     138.601E-03    -116.397E-03     228.282E-03    -111.434E-03     135.464E-03
              29     16.1030E-03     75.1557E-03    -3.50727E+06     121.584E+06     93.6116E+06    -199.361E+03    -109.726E-03     221.464E-03    -111.738E-03     143.239E-03    -116.278E-03     228.163E-03    -111.441E-03     140.135E-03
              30     16.1015E-03     76.3389E-03    -2.84011E+06     121.519E+06     93.2546E+06     379.194E+03    -109.670E-03     221.404E-03    -111.734E-03     141.131E-03    -116.148E-03     228.034E-03    -111.440E-03     137.955E-03
              31     16.1034E-03     77.5125E-03    -1.39185E+06     122.178E+06     93.9438E+06     4.32056E+03    -110.979E-03     222.660E-03    -111.681E-03     135.912E-03    -117.147E-03     228.985E-03    -111.386E-03     132.573E-03
              32     16.1022E-03     78.7076E-03    -3.05800E+06     121.369E+06     93.3951E+06    -138.067E+03    -111.669E-03     223.359E-03    -111.690E-03     134.820E-03    -117.818E-03     229.657E-03    -111.394E-03     131.496E-03
              33     16.1009E-03     79.8933E-03    -3.16652E+06     121.527E+06     93.5943E+06     323.672E+03    -110.119E-03     221.878E-03    -111.760E-03     136.890E-03    -116.399E-03     228.308E-03    -111.464E-03     133.768E-03
              34     16.1029E-03     81.0707E-03    -1.71016E+06     122.426E+06     94.3495E+06     62.6063E+03    -109.301E-03     221.041E-03    -111.740E-03     137.237E-03    -115.542E-03     227.437E-03    -111.444E-03     134.157E-03
              35     16.1029E-03     82.2630E-03    -1.84848E+06     121.889E+06     94.1891E+06    -450.637E+03    -110.441E-03     222.144E-03    -111.703E-03     138.625E-03    -116.749E-03     228.605E-03    -111.406E-03     135.367E-03
              36     16.1015E-03     83.4452E-03    -1.63047E+06     121.329E+06     94.4928E+06    -308.507E+03    -111.503E-03     223.188E-03    -111.686E-03     138.283E-03    -117.814E-03     229.650E-03    -111.387E-03     134.928E-03
              37     16.1037E-03     84.6284E-03    -2.78007E+06     119.519E+06     93.9068E+06    -450.835E+03    -111.425E-03     223.115E-03    -111.689E-03     135.713E-03    -117.635E-03     229.466E-03    -111.389E-03     132.449E-03
              38     16.1005E-03     85.8227E-03    -2.44399E+06     118.903E+06     93.8429E+06     244.660E+03    -109.173E-03     220.929E-03    -111.756E-03     138.184E-03    -115.478E-03     227.376E-03    -111.456E-03     135.147E-03
              39     16.1044E-03     86.9965E-03    -2.16208E+06     119.240E+06     93.9764E+06     150.806E+03    -108.989E-03     220.722E-03    -111.733E-03     140.512E-03    -115.360E-03     227.237E-03    -111.433E-03     137.401E-03
              40     16.1018E-03     88.1840E-03    -3.54916E+06     118.920E+06     93.5049E+06    -62.4297E+03    -111.697E-03     223.374E-03    -111.677E-03     135.285E-03    -117.891E-03     229.706E-03    -111.377E-03     131.979E-03
              41     16.1018E-03     89.3702E-03    -1.85966E+06     120.325E+06     94.5785E+06     488.685E+03    -111.156E-03     222.869E-03    -111.712E-03     135.780E-03    -117.361E-03     229.220E-03    -111.411E-03     132.528E-03
              42     16.1032E-03     90.5570E-03    -2.34499E+06     121.053E+06     95.2133E+06     269.454E+03    -110.218E-03     221.951E-03    -111.733E-03     138.386E-03    -116.499E-03     228.377E-03    -111.429E-03     135.211E-03
              43     16.1010E-03     91.7417E-03    -2.48716E+06      120.45E+06     95.4521E+06    -807.021E+03    -110.675E-03     222.415E-03    -111.741E-03     137.720E-03    -116.982E-03     228.865E-03    -111.434E-03     134.518E-03
              44     16.1027E-03     92.9253E-03    -2.55688E+06     119.743E+06     94.6787E+06      -29.22E+03    -110.149E-03     221.908E-03    -111.760E-03     136.843E-03    -116.395E-03     228.296E-03    -111.456E-03     133.714E-03
              45     16.1009E-03     94.1112E-03    -2.02450E+06     121.422E+06     95.0127E+06     1.20221E+06    -109.552E-03     221.311E-03    -111.759E-03     137.117E-03    -115.778E-03     227.686E-03    -111.457E-03     134.048E-03
              46     16.1038E-03     95.2920E-03    -2.64298E+06     122.199E+06     94.7086E+06    -217.923E+03    -110.022E-03     221.733E-03    -111.710E-03     137.893E-03    -116.277E-03     228.137E-03    -111.410E-03     134.694E-03
              47     16.1022E-03     96.4812E-03    -3.76123E+06     121.427E+06     94.5939E+06    -30.5511E+03    -110.686E-03     222.359E-03    -111.673E-03     138.353E-03    -116.945E-03     228.762E-03    -111.371E-03     135.109E-03
              48     16.1040E-03     97.6656E-03    -3.11894E+06     121.301E+06     95.9557E+06    -489.303E+03    -111.076E-03     222.782E-03    -111.705E-03     137.220E-03    -117.336E-03     229.183E-03    -111.397E-03     133.971E-03
              49     16.0995E-03     98.8492E-03    -1.39194E+06     121.742E+06     97.1867E+06     315.375E+03    -111.219E-03     222.989E-03    -111.769E-03     134.598E-03    -117.417E-03     229.332E-03    -111.458E-03     131.383E-03
              50     16.1024E-03     100.035E-03    -2.43739E+06     122.105E+06     96.4256E+06     232.244E+03    -109.915E-03     221.682E-03    -111.766E-03     137.827E-03    -116.187E-03     228.099E-03    -111.458E-03     134.698E-03
              51     16.1035E-03     101.222E-03    -2.23383E+06     122.306E+06     96.6009E+06     190.217E+03    -108.918E-03     220.629E-03    -111.712E-03     141.227E-03    -115.272E-03     227.130E-03    -111.403E-03     138.150E-03
              52     16.1037E-03     102.406E-03    -2.11285E+06     124.328E+06     98.0288E+06     1.15605E+06    -109.681E-03     221.352E-03    -111.671E-03     138.558E-03    -115.980E-03     227.801E-03    -111.358E-03     135.411E-03
              53     16.1035E-03     103.580E-03    -2.11644E+06     126.380E+06     98.8724E+06     314.126E+03    -111.205E-03     222.825E-03    -111.621E-03     133.816E-03    -117.320E-03     229.095E-03    -111.306E-03     130.499E-03
              54     16.1042E-03     104.777E-03    -1.95667E+06     129.430E+06     99.7637E+06     1.86313E+06    -110.430E-03     222.028E-03    -111.598E-03     135.989E-03    -116.596E-03     228.357E-03    -111.284E-03     132.767E-03
              55     16.1059E-03     105.958E-03    -2.66954E+06     132.423E+06     100.098E+06     669.631E+03    -109.217E-03     220.776E-03    -111.558E-03     140.161E-03    -115.592E-03     227.321E-03    -111.246E-03     137.010E-03
              56     16.1063E-03     107.141E-03    -2.96420E+06     131.934E+06     100.684E+06    -620.819E+03    -109.862E-03     221.316E-03    -111.454E-03     139.725E-03    -116.220E-03     227.839E-03    -111.137E-03     136.517E-03
              57     16.1096E-03     108.328E-03    -1.42362E+06     132.655E+06     102.406E+06     1.23704E+06    -109.584E-03     220.909E-03    -111.325E-03     140.879E-03    -115.966E-03     227.460E-03    -111.004E-03     137.714E-03
              58     16.1116E-03     109.510E-03    -3.84189E+06     136.949E+06     103.583E+06     2.28846E+06    -109.616E-03     220.790E-03    -111.173E-03     142.325E-03    -116.077E-03     227.423E-03    -110.848E-03     139.166E-03
              59     16.1140E-03     110.695E-03    -3.85957E+06     138.972E+06     103.837E+06    -279.958E+03    -108.737E-03     219.705E-03    -110.968E-03     141.914E-03    -115.147E-03     226.293E-03    -110.645E-03     138.720E-03
              60     16.1214E-03     111.871E-03    -1.44152E+06     133.972E+06     102.474E+06    -1.56494E+06    -107.579E-03     218.209E-03    -110.630E-03     142.091E-03    -113.910E-03     224.713E-03    -110.310E-03     138.947E-03
              61     16.1273E-03     113.054E-03    -2.19617E+06     130.289E+06     102.410E+06     958.311E+03    -109.420E-03     219.572E-03    -110.152E-03     142.189E-03    -115.731E-03     226.041E-03    -109.826E-03     138.964E-03
              62     16.1356E-03     114.237E-03    -2.77194E+06     132.916E+06     105.615E+06     1.62504E+06    -111.988E-03     221.556E-03    -109.569E-03     143.675E-03    -118.387E-03     228.112E-03    -109.229E-03     140.141E-03
              63     16.1464E-03     115.423E-03    -3.80221E+06     136.330E+06     107.949E+06     2.49522E+06    -115.437E-03     224.275E-03    -108.837E-03     147.851E-03    -121.994E-03     230.989E-03    -108.490E-03     144.010E-03
              64     16.1578E-03     116.621E-03    -3.98063E+06     135.878E+06     106.185E+06    -151.968E+03    -119.406E-03     227.428E-03    -108.023E-03     153.216E-03    -126.236E-03     234.420E-03    -107.683E-03     148.898E-03
              65     16.1691E-03     117.817E-03    -1.25873E+06     133.213E+06     105.060E+06     544.407E+03    -125.221E-03     232.412E-03    -107.190E-03     157.541E-03    -132.304E-03     239.658E-03    -106.856E-03     152.649E-03
              66     16.1782E-03     119.019E-03    -3.60745E+06     134.080E+06     107.473E+06     2.22364E+06    -135.493E-03     241.843E-03    -106.350E-03     156.653E-03    -142.662E-03     249.164E-03    -106.002E-03     150.787E-03
              67     16.1862E-03     120.238E-03    -1.97286E+06     138.875E+06     111.711E+06     3.11850E+06    -149.026E-03     254.596E-03    -105.570E-03     159.176E-03    -156.440E-03     262.176E-03    -105.210E-03     151.781E-03
              68     16.1901E-03     121.483E-03    -6.80909E+06     139.459E+06     110.302E+06    -673.598E+03    -163.611E-03     268.532E-03    -104.922E-03     168.030E-03    -171.588E-03     276.665E-03    -104.562E-03     158.784E-03
              69     16.1934E-03     122.739E-03    -895.431E+03     135.144E+06     109.871E+06    -1.21765E+06    -177.928E-03     282.283E-03    -104.356E-03     179.030E-03    -186.457E-03     290.975E-03    -104.001E-03     167.806E-03
              70     16.1976E-03     124.011E-03    -3.49822E+06     127.003E+06     107.610E+06    -2.38420E+06    -192.301E-03     296.126E-03    -103.825E-03     185.393E-03    -201.161E-03     305.116E-03    -103.466E-03     172.090E-03
              71     16.1988E-03     125.298E-03    -2.65952E+06     116.120E+06     106.106E+06    -2.76791E+06    -209.096E-03     312.427E-03    -103.332E-03     192.245E-03    -218.357E-03     321.790E-03    -102.966E-03     176.298E-03
              72     16.1998E-03     126.615E-03    -2.52544E+06     107.222E+06     105.939E+06    -1.80714E+06    -229.550E-03     332.392E-03    -102.842E-03     205.704E-03    -239.425E-03     342.344E-03    -102.464E-03     186.448E-03
              73     16.2005E-03     127.964E-03    -2.16221E+06     103.538E+06     109.126E+06    -167.689E+03    -248.974E-03     351.345E-03    -102.371E-03     220.859E-03    -259.453E-03     361.878E-03    -101.972E-03     198.498E-03
              74     16.2040E-03     129.325E-03    -5.54539E+06     84.7333E+06     110.625E+06    -7.47975E+06    -263.060E-03     365.061E-03    -102.001E-03     229.786E-03    -273.997E-03     375.965E-03    -101.563E-03     204.611E-03
              75     16.2036E-03     130.696E-03     2.11848E+06     68.1611E+06     119.808E+06    -2.16990E+06    -274.842E-03     376.575E-03    -101.733E-03     238.826E-03    -286.387E-03     388.031E-03    -101.235E-03     210.720E-03
              76     16.2064E-03     132.092E-03    -5.69613E+06     49.3872E+06     124.178E+06    -5.08374E+06    -288.153E-03     389.654E-03    -101.501E-03     258.502E-03    -300.748E-03     402.067E-03    -100.943E-03     226.935E-03
              77     16.2048E-03     133.516E-03    -4.42841E+06     5.16117E+06     115.316E+06    -12.3679E+06    -302.589E-03     403.924E-03    -101.335E-03     298.025E-03    -316.765E-03     417.814E-03    -100.759E-03     262.849E-03
              78     16.2063E-03     134.975E-03     6.64542E+06     13.0261E+06     145.471E+06     10.2626E+06    -290.887E-03     392.769E-03    -101.882E-03     345.273E-03    -307.804E-03     409.374E-03    -101.183E-03     308.931E-03
              79     16.2034E-03     136.327E-03    -9.69415E+06     37.9248E+06     125.074E+06     1.51097E+06    -232.608E-03     335.826E-03    -103.218E-03     417.240E-03    -252.133E-03     355.112E-03    -102.634E-03     387.052E-03
              80     16.2202E-03     137.577E-03    -6.24474E+06    -6.87792E+06     40.1865E+06    -28.0361E+06    -108.855E-03     216.720E-03    -107.866E-03     430.782E-03    -121.534E-03     229.340E-03    -107.646E-03     418.115E-03
              81     16.0575E-03     138.460E-03    -2.37583E+06    -791.914E+03     60.0190E+06     10.0041E+06     23.6322E-03     99.3472E-03    -122.979E-03     249.409E-03     20.8949E-03     101.748E-03    -122.675E-03     249.359E-03
              82     15.5153E-03     139.253E-03     6.65004E+06     8.47906E+06     53.9556E+06     22.1855E+06     80.0908E-03     70.8487E-03    -150.939E-03     54.1960E-03     80.0192E-03     70.7919E-03    -150.692E-03     54.4825E-03
              83     14.1246E-03     139.578E-03    -21.8743E+06     3.11099E+06     10.9108E+06     6.68749E+06     84.9994E-03     84.4710E-03    -169.470E-03     15.8789E-03     84.9345E-03     84.5699E-03    -169.389E-03     15.9652E-03
              84     13.3395E-03     139.010E-03    -18.8859E+06     35.3062E+06     66.6336E+06    -19.7161E+06     54.6106E-03     116.654E-03    -171.264E-03     985.065E-06     54.3385E-03     116.742E-03    -170.955E-03     661.871E-06
              85     12.5982E-03     138.394E-03    -20.7566E+06    -28.1857E+06     83.5796E+06    -17.2518E+06     19.8794E-03     149.375E-03    -169.254E-03    -64.8096E-03     19.6812E-03     149.062E-03    -168.765E-03    -65.3067E-03
              86     11.9177E-03     137.823E-03    -13.8875E+06    -12.5366E+06     78.6096E+06    -13.4442E+06     3.09302E-03     161.255E-03    -164.348E-03    -121.193E-03     2.92955E-03     160.857E-03    -163.917E-03    -121.889E-03
              87     11.2308E-03     137.298E-03     2.89138E+06    -12.6393E+06     78.7106E+06    -19.8014E+06    -16.2401E-03     174.757E-03    -158.517E-03    -162.675E-03    -16.2152E-03     174.207E-03    -158.110E-03    -163.717E-03
              88     10.5489E-03     136.829E-03     4.94434E+06    -20.2939E+06     93.4537E+06    -2.70099E+06    -37.2098E-03     189.572E-03    -152.362E-03    -195.500E-03    -37.1053E-03     188.833E-03    -151.873E-03    -196.552E-03
              89     9.86383E-03     136.411E-03     19.6337E+06     -1.7728E+06     105.090E+06    -10.1280E+06    -56.9176E-03     202.985E-03    -146.067E-03    -211.746E-03    -56.7444E-03     202.253E-03    -145.567E-03    -213.016E-03
              90     9.16729E-03     136.051E-03     22.3616E+06    -16.4125E+06     101.532E+06     3.03402E+06    -74.6987E-03     214.761E-03    -140.062E-03    -213.818E-03    -74.4937E-03     213.974E-03    -139.563E-03    -214.948E-03
              91     8.46009E-03     135.738E-03     26.8613E+06    -337.715E+03     101.650E+06    -477.474E+03    -89.8208E-03     224.274E-03    -134.453E-03    -203.236E-03    -89.6552E-03     223.626E-03    -133.983E-03    -204.362E-03
              92     7.73996E-03     135.470E-03     31.1293E+06    -5.04222E+06     92.8223E+06    -660.520E+03    -100.819E-03     230.115E-03    -129.295E-03    -184.335E-03    -100.655E-03     229.528E-03    -128.869E-03    -185.383E-03
              93     7.00654E-03     135.239E-03     35.8876E+06    -847.909E+03     91.1282E+06    -752.256E+03    -107.778E-03     232.438E-03    -124.660E-03    -161.720E-03    -107.636E-03     231.946E-03    -124.255E-03    -162.658E-03
              94     6.26088E-03     135.044E-03     36.6736E+06    -2.68012E+06     86.0797E+06     2.04762E+06    -111.433E-03     231.967E-03    -120.534E-03    -138.183E-03    -111.316E-03     231.542E-03    -120.153E-03    -138.948E-03
              95     5.50353E-03     134.879E-03     35.6526E+06     3.35883E+06     79.2585E+06     731.359E+03    -112.535E-03     229.436E-03    -116.901E-03    -115.530E-03    -112.450E-03     229.112E-03    -116.562E-03    -116.177E-03
              96     4.73546E-03     134.743E-03     34.5501E+06     1.21160E+06     71.1518E+06    -1.19962E+06    -112.003E-03     225.780E-03    -113.777E-03    -95.1842E-03    -111.930E-03     225.502E-03    -113.473E-03    -95.7336E-03
              97     3.95872E-03     134.631E-03     34.2762E+06     1.84583E+06      64.937E+06    -3.10526E+06    -110.393E-03     221.556E-03    -111.162E-03    -76.8808E-03    -110.329E-03     221.322E-03    -110.890E-03    -77.3403E-03
              98     3.17437E-03     134.541E-03     35.3272E+06    -275.373E+03     56.8501E+06    -4.24334E+06    -108.223E-03     217.328E-03    -109.105E-03    -60.3780E-03    -108.150E-03     217.116E-03    -108.872E-03    -60.7610E-03
              99     2.38406E-03     134.472E-03     37.5121E+06    -304.345E+03     48.5551E+06    -5.61951E+06    -106.043E-03     213.794E-03    -107.751E-03    -46.1552E-03    -105.953E-03     213.605E-03    -107.562E-03    -46.4858E-03
             100     1.58822E-03     134.423E-03     39.1362E+06    -2.00626E+06     43.6278E+06    -5.90803E+06    -105.327E-03     212.501E-03    -107.173E-03    -34.4217E-03    -105.227E-03     212.317E-03    -107.009E-03    -34.6858E-03
             101     790.634E-06     134.395E-03     36.8439E+06    -4.93241E+06     38.7237E+06    -3.94116E+06    -106.037E-03     213.179E-03    -107.142E-03    -21.6024E-03    -105.959E-03     212.979E-03    -106.995E-03    -21.7705E-03
             102     1.28306E-06     133.205E-03     21.2648E+06    -8.69993E+06     21.4812E+06    -2.77798E+06    -90.6793E-03     181.715E-03    -91.0358E-03    -7.00386E-03    -90.6357E-03     181.563E-03    -90.9466E-03    -7.10265E-03
             103    -1.14978E-06     132.107E-03    -7.61261E+06    -20.5631E+06    -9.10899E+06    -3.84964E+06    -65.5447E-03     131.527E-03    -65.9823E-03    -289.027E-06    -65.5502E-03     131.438E-03    -65.9870E-03    -367.023E-06
             104     380.360E-09     131.044E-03    -44.7078E+06    -36.4498E+06    -44.1246E+06    -2.86525E+06    -50.0530E-03     100.368E-03    -50.3152E-03     2.65635E-03    -50.1652E-03     100.310E-03    -50.4181E-03     2.60567E-03
             105     21.7124E-09     130.010E-03    -81.8754E+06    -51.6727E+06    -79.7732E+06    -5.20427E+06    -40.1113E-03     80.1850E-03    -40.0737E-03     6.55140E-03    -40.3310E-03     80.1613E-03    -40.2789E-03     6.47593E-03
             106    -338.115E-09     128.990E-03    -119.603E+06    -76.0221E+06    -119.432E+06    -7.75715E+06    -34.8914E-03     69.9290E-03    -35.0376E-03     8.13215E-03    -35.2054E-03     69.8970E-03    -35.3511E-03     8.03080E-03
             107     376.415E-09     127.977E-03    -159.761E+06    -97.6409E+06    -159.735E+06    -4.85557E+06    -34.3044E-03     68.4117E-03    -34.1073E-03     9.87590E-03    -34.7290E-03     68.3885E-03    -34.5327E-03     9.81725E-03
             108    -116.570E-09     126.961E-03    -160.702E+06    -101.166E+06    -163.278E+06     3.05829E+06    -37.6506E-03     75.2790E-03    -37.6284E-03     11.4503E-03    -38.0707E-03     75.2432E-03    -38.0651E-03     11.4971E-03
             109    -182.671E-09     125.933E-03    -117.172E+06    -86.9122E+06    -115.009E+06     6.19475E+06    -44.4223E-03     89.1646E-03    -44.7423E-03     12.6579E-03    -44.7171E-03     89.0654E-03    -45.0214E-03     12.7444E-03
             110    -94.7732E-09     124.888E-03    -76.6363E+06    -78.9438E+06    -74.2185E+06    -960.600E+03    -53.6545E-03     107.027E-03    -53.3726E-03     12.9281E-03    -53.8183E-03     106.850E-03    -53.5181E-03     12.9135E-03
             111     827.991E-09     123.823E-03    -62.4965E+06    -88.0139E+06    -62.6002E+06    -4.69548E+06    -63.2302E-03     125.510E-03    -62.2798E-03     12.9012E-03    -63.3274E-03     125.251E-03    -62.3746E-03     12.8226E-03
             112    -2.57006E-09     122.738E-03    -58.1443E+06    -100.057E+06    -59.1009E+06    -2.71705E+06    -72.0257E-03     143.216E-03    -71.1899E-03     12.9371E-03    -72.0889E-03     142.885E-03    -71.2560E-03     12.8692E-03
             113     518.962E-09     121.634E-03    -56.2677E+06    -107.362E+06    -55.8092E+06    -1.64473E+06    -80.2541E-03     159.743E-03    -79.4885E-03     12.5167E-03    -80.3019E-03     159.369E-03    -79.5303E-03     12.4452E-03
             114     190.614E-09     120.514E-03    -55.6951E+06    -118.763E+06    -55.1003E+06    -3.83206E+06    -87.5681E-03     174.391E-03    -86.8226E-03     11.7394E-03    -87.5973E-03     173.959E-03    -86.8452E-03     11.6188E-03
             115     289.876E-09     119.377E-03    -58.7981E+06    -136.107E+06    -61.9714E+06    -4.44182E+06    -93.4494E-03     186.634E-03    -93.1848E-03     11.3562E-03    -93.4588E-03     186.132E-03    -93.2121E-03     11.2063E-03
             116    -416.132E-09     118.228E-03    -64.5561E+06    -151.022E+06    -65.0268E+06    -3.22223E+06    -98.2953E-03     196.621E-03    -98.3260E-03     10.9476E-03    -98.3074E-03     196.058E-03    -98.3386E-03     10.7888E-03
             117     439.439E-09     117.069E-03    -68.6315E+06    -163.944E+06    -68.6949E+06    -2.87824E+06    -102.413E-03     204.579E-03    -102.166E-03     10.5779E-03    -102.422E-03     203.963E-03    -102.172E-03     10.3952E-03
             118    -108.762E-09     115.902E-03    -74.6119E+06    -174.522E+06    -75.2454E+06    -2.09354E+06    -105.555E-03     210.703E-03    -105.148E-03     10.4983E-03    -105.569E-03     210.053E-03    -105.163E-03     10.3019E-03
             119     384.179E-09     114.729E-03    -75.9827E+06    -182.580E+06    -75.8717E+06    -1.69426E+06    -107.791E-03     215.157E-03    -107.367E-03     10.1902E-03    -107.799E-03     214.470E-03    -107.371E-03     9.98536E-03
             120    -17.4372E-09     113.552E-03    -77.2436E+06    -194.383E+06    -76.9153E+06    -3.32856E+06    -109.131E-03     218.082E-03    -108.951E-03     9.82884E-03    -109.127E-03     217.339E-03    -108.942E-03     9.59437E-03
             121    -96.2000E-09     112.372E-03    -78.7909E+06    -208.673E+06    -79.2013E+06    -3.18389E+06    -109.958E-03     220.047E-03    -110.089E-03     9.42574E-03    -109.937E-03     219.238E-03    -110.068E-03     9.19449E-03
             122    -43.3734E-09     111.191E-03    -83.8713E+06    -216.834E+06    -84.6937E+06    -718.761E+03    -110.787E-03     221.608E-03    -110.822E-03     9.21693E-03    -110.772E-03     220.774E-03    -110.809E-03     9.01541E-03
             123     81.1544E-09     110.007E-03     -85.972E+06    -217.495E+06    -85.8593E+06     377.863E+03    -111.586E-03     222.862E-03    -111.276E-03     9.09761E-03    -111.579E-03     222.029E-03    -111.265E-03     8.90282E-03
             124     346.837E-09     108.822E-03    -83.7315E+06    -218.379E+06    -83.7568E+06    -637.860E+03    -112.030E-03     223.509E-03    -111.479E-03     9.15910E-03    -112.014E-03     222.665E-03    -111.459E-03     8.94531E-03
             125     76.8269E-09     107.637E-03    -83.3496E+06    -220.510E+06    -83.6097E+06    -246.478E+03    -112.087E-03     223.741E-03    -111.654E-03     9.06027E-03    -112.066E-03     222.887E-03    -111.632E-03     8.84621E-03
             126     158.103E-09     106.453E-03     -82.844E+06    -223.180E+06    -82.4672E+06    -1.03453E+06    -111.952E-03     223.977E-03    -112.025E-03     8.99004E-03    -111.926E-03     223.107E-03    -111.994E-03     8.76367E-03
             127    -541.780E-09     105.266E-03    -81.7463E+06    -226.572E+06    -82.2462E+06    -825.011E+03    -111.949E-03     224.028E-03    -112.078E-03     8.94013E-03    -111.913E-03     223.138E-03    -112.042E-03     8.72161E-03
             128     679.245E-09     104.082E-03    -81.8318E+06    -228.758E+06    -81.4647E+06    -89.7259E+03    -112.212E-03     223.873E-03    -111.661E-03     9.09520E-03    -112.174E-03     222.972E-03    -111.618E-03     8.88664E-03
             129     37.7200E-09     102.896E-03    -81.4992E+06    -230.103E+06    -81.9133E+06    -311.505E+03    -112.169E-03     223.876E-03    -111.707E-03     9.35053E-03    -112.127E-03     222.968E-03    -111.665E-03     9.13631E-03
             130    -53.8193E-09     101.712E-03    -81.5768E+06    -230.561E+06    -81.5492E+06     297.814E+03    -112.002E-03     224.000E-03    -111.998E-03     8.93408E-03    -111.960E-03     223.089E-03    -111.953E-03     8.73416E-03
             131     42.2332E-09     100.526E-03    -81.2267E+06    -230.159E+06    -81.0890E+06    -1.36895E+03    -112.024E-03     223.831E-03    -111.807E-03     8.65594E-03    -111.982E-03     222.921E-03    -111.761E-03     8.45318E-03
             132     287.502E-09     99.3414E-03    -80.7181E+06    -229.790E+06    -80.8162E+06    -69.4222E+03    -111.904E-03     223.521E-03    -111.617E-03     8.96444E-03    -111.860E-03     222.612E-03    -111.571E-03     8.75760E-03
             133    -190.605E-09     98.1568E-03    -80.9112E+06    -230.180E+06    -80.8934E+06     29.1330E+03    -111.846E-03     223.610E-03    -111.764E-03     8.98833E-03    -111.802E-03     222.699E-03    -111.717E-03     8.78472E-03
             134     190.518E-09     96.9723E-03    -80.0888E+06    -229.326E+06    -79.9661E+06     201.228E+03    -112.132E-03     223.878E-03    -111.746E-03     8.76888E-03    -112.087E-03     222.969E-03    -111.697E-03     8.56484E-03
             135     399.107E-09     95.7861E-03    -80.2810E+06    -229.095E+06    -80.5907E+06    -145.567E+03    -112.280E-03     223.956E-03    -111.677E-03     9.13331E-03    -112.235E-03     223.050E-03    -111.631E-03     8.91707E-03
             136    -57.1816E-09     94.6017E-03    -80.7721E+06    -229.141E+06    -80.9045E+06     85.9592E+03    -112.065E-03     223.913E-03    -111.848E-03     9.22780E-03    -112.023E-03     223.008E-03    -111.803E-03     9.02068E-03
             137     27.8015E-09     93.4157E-03    -80.1321E+06    -228.595E+06    -79.8736E+06     27.5776E+03    -111.909E-03     223.705E-03    -111.796E-03     9.01778E-03    -111.865E-03     222.800E-03    -111.748E-03     8.81463E-03
             138     150.251E-09     92.2321E-03    -80.1969E+06    -228.989E+06    -80.2737E+06    -191.752E+03    -111.937E-03     223.692E-03    -111.754E-03     8.94906E-03    -111.892E-03     222.785E-03    -111.708E-03     8.74598E-03
             139    -69.7711E-09     91.0466E-03    -80.8137E+06    -229.626E+06    -81.0370E+06     14.6677E+03    -112.009E-03     223.890E-03    -111.881E-03     8.64112E-03    -111.965E-03     222.982E-03    -111.836E-03     8.44456E-03
             140     160.970E-09     89.8617E-03    -80.7396E+06    -229.196E+06    -80.9342E+06     241.845E+03    -111.931E-03     223.750E-03    -111.819E-03     8.54780E-03    -111.887E-03     222.843E-03    -111.774E-03     8.35012E-03
             141    -105.799E-09     88.6767E-03    -78.9429E+06    -227.369E+06    -78.6126E+06     612.064E+03    -111.916E-03     223.690E-03    -111.775E-03     8.77929E-03    -111.869E-03     222.787E-03    -111.724E-03     8.58715E-03
             142     247.605E-09     87.4918E-03    -77.1686E+06    -225.831E+06    -77.0988E+06     153.237E+03    -112.068E-03     223.879E-03    -111.811E-03     8.92995E-03    -112.017E-03     222.979E-03    -111.758E-03     8.73188E-03
             143    -11.0043E-09     86.3060E-03    -78.0523E+06    -226.230E+06    -77.9136E+06    -373.313E+03    -112.078E-03     223.841E-03    -111.762E-03     8.92880E-03    -112.030E-03     222.941E-03    -111.711E-03     8.71919E-03
             144     249.660E-09     85.1219E-03    -79.0299E+06    -227.418E+06    -79.0066E+06    -66.3153E+03    -112.001E-03     223.772E-03    -111.770E-03     8.80393E-03    -111.955E-03     222.869E-03    -111.721E-03     8.59591E-03
             145    -149.698E-09     83.9364E-03    -78.4029E+06    -227.107E+06    -78.7425E+06     290.186E+03    -111.956E-03     223.827E-03    -111.871E-03     8.87367E-03    -111.908E-03     222.925E-03    -111.821E-03     8.67462E-03
             146     150.085E-09     82.7511E-03    -78.1974E+06    -226.596E+06    -78.1951E+06    -123.783E+03    -111.932E-03     223.786E-03    -111.854E-03     9.10463E-03    -111.884E-03     222.886E-03    -111.803E-03     8.89670E-03
             147    -61.4113E-09     81.5661E-03    -79.0745E+06    -227.165E+06    -78.7216E+06    -541.978E+03    -111.865E-03     223.650E-03    -111.785E-03     9.11430E-03    -111.820E-03     222.749E-03    -111.735E-03     8.89859E-03
             148     68.9815E-09     80.3817E-03    -78.3028E+06    -227.137E+06    -79.0982E+06     446.595E+03    -112.003E-03     223.644E-03    -111.641E-03     8.82584E-03    -111.953E-03     222.742E-03    -111.593E-03     8.63226E-03
             149     465.206E-09     79.1968E-03    -77.5345E+06    -225.902E+06    -77.1779E+06     449.243E+03    -112.131E-03     223.754E-03    -111.623E-03     9.02018E-03    -112.082E-03     222.854E-03    -111.569E-03     8.82433E-03
             150    -213.068E-09     78.0114E-03    -78.3506E+06    -226.226E+06    -77.9448E+06    -450.746E+03    -111.821E-03     223.672E-03    -111.851E-03     9.31879E-03    -111.774E-03     222.773E-03    -111.799E-03     9.10381E-03
             151    -120.885E-09     76.8265E-03    -78.7984E+06    -227.119E+06    -79.0590E+06     37.7061E+03    -111.825E-03     223.619E-03    -111.794E-03     9.38356E-03    -111.778E-03     222.718E-03    -111.745E-03     9.17806E-03
             152     464.735E-09     75.6417E-03    -77.9495E+06    -226.511E+06    -77.9491E+06     99.9055E+03    -112.106E-03     223.740E-03    -111.634E-03     9.32542E-03    -112.057E-03     222.839E-03    -111.582E-03     9.12137E-03
             153    -87.5137E-09     74.4571E-03    -78.1312E+06    -226.301E+06    -77.9677E+06    -123.025E+03    -111.903E-03     223.617E-03    -111.714E-03     9.01250E-03    -111.855E-03     222.718E-03    -111.663E-03     8.80609E-03
             154    -19.8309E-09     73.2724E-03    -79.1663E+06    -226.705E+06    -78.7224E+06    -103.287E+03    -111.766E-03     223.590E-03    -111.824E-03     9.01867E-03    -111.722E-03     222.691E-03    -111.774E-03     8.81421E-03
             155     4.72500E-09     72.0874E-03    -78.9238E+06    -226.913E+06    -79.0369E+06     7.24091E+03    -112.022E-03     223.917E-03    -111.895E-03     9.14833E-03    -111.976E-03     223.017E-03    -111.847E-03     8.94350E-03
             156     178.203E-09     70.9019E-03    -77.4292E+06    -225.906E+06    -78.0629E+06     321.263E+03    -112.210E-03     224.104E-03    -111.893E-03     9.18609E-03    -112.160E-03     223.205E-03    -111.844E-03     8.98403E-03
             157     106.278E-09     69.7164E-03    -77.4825E+06    -225.452E+06    -77.4437E+06    -155.001E+03    -112.046E-03     223.934E-03    -111.888E-03     9.17417E-03    -111.998E-03     223.037E-03    -111.836E-03     8.96003E-03
             158    -171.222E-09     68.5318E-03    -78.4856E+06    -226.662E+06    -78.3190E+06    -357.796E+03    -111.831E-03     223.773E-03    -111.942E-03     9.03030E-03    -111.784E-03     222.873E-03    -111.891E-03     8.81448E-03
             159     75.7177E-09     66.1617E-03    -78.1901E+06    -225.755E+06    -77.7743E+06     102.793E+03    -111.816E-03     223.533E-03    -111.717E-03     8.95682E-03    -111.770E-03     222.636E-03    -111.665E-03     8.75133E-03
             160    -47.5915E-09     64.9775E-03    -78.2408E+06    -226.086E+06    -78.5537E+06    -332.433E+03    -111.861E-03     223.512E-03    -111.650E-03     8.85684E-03    -111.814E-03     222.614E-03    -111.602E-03     8.64747E-03
             161     322.165E-09     63.7926E-03    -78.1361E+06    -226.190E+06    -78.5257E+06     406.604E+03    -111.977E-03     223.584E-03    -111.606E-03     8.74391E-03    -111.929E-03     222.685E-03    -111.558E-03     8.54313E-03
             162    -36.3485E-09     62.6080E-03    -78.4486E+06    -226.122E+06    -77.6917E+06    -28.4488E+03    -111.728E-03     223.526E-03    -111.797E-03     8.90518E-03    -111.683E-03     222.627E-03    -111.744E-03     8.70083E-03
             163    -387.342E-09     61.4229E-03    -78.6372E+06    -226.932E+06    -79.2918E+06    -407.931E+03    -111.529E-03     223.433E-03    -111.904E-03     8.88049E-03    -111.481E-03     222.533E-03    -111.858E-03     8.67571E-03
             164     165.602E-09     60.2387E-03    -79.1170E+06    -227.105E+06    -79.4654E+06     199.929E+03    -111.695E-03     223.449E-03    -111.754E-03     8.80225E-03    -111.648E-03     222.549E-03    -111.708E-03     8.60469E-03
             165    -77.1390E-09     59.0541E-03    -78.6132E+06    -226.220E+06    -77.9341E+06    -224.473E+03    -111.794E-03     223.536E-03    -111.742E-03     8.87388E-03    -111.748E-03     222.637E-03    -111.690E-03     8.66754E-03
             166     44.6926E-09     57.8690E-03    -78.5733E+06    -226.860E+06    -79.0553E+06    -146.933E+03    -111.886E-03     223.628E-03    -111.741E-03     9.17858E-03    -111.839E-03     222.728E-03    -111.694E-03     8.97030E-03
             167     179.522E-09     56.6836E-03    -79.0465E+06    -227.080E+06    -78.9661E+06     378.652E+03    -112.090E-03     223.573E-03    -111.484E-03     9.21224E-03    -112.044E-03     222.673E-03    -111.434E-03     9.00963E-03
             168     535.971E-09     55.4997E-03    -78.9202E+06    -226.568E+06    -78.5379E+06    -147.950E+03    -112.130E-03     223.426E-03    -111.296E-03     9.13952E-03    -112.085E-03     222.527E-03    -111.246E-03     8.92873E-03
             169     58.2612E-09     54.3150E-03    -78.1962E+06    -226.121E+06    -78.2664E+06     220.525E+03    -111.978E-03     223.527E-03    -111.549E-03     9.17989E-03    -111.930E-03     222.629E-03    -111.499E-03     8.97641E-03
             170     273.983E-12     53.1302E-03    -76.8046E+06    -224.859E+06    -76.8842E+06     320.174E+03    -111.805E-03     223.501E-03    -111.697E-03     8.80387E-03    -111.754E-03     222.605E-03    -111.644E-03     8.60636E-03
             171     80.2440E-09     51.9459E-03    -78.2515E+06    -225.799E+06    -77.8750E+06    -444.066E+03    -111.657E-03     223.245E-03    -111.588E-03     8.87440E-03    -111.610E-03     222.348E-03    -111.537E-03     8.66626E-03
             172    -80.4592E-09     50.7612E-03    -79.1533E+06    -227.277E+06    -79.5662E+06    -131.152E+03    -111.568E-03     223.217E-03    -111.648E-03     8.90271E-03    -111.522E-03     222.316E-03    -111.602E-03     8.69961E-03
             173    -86.8125E-09     49.5777E-03    -78.5490E+06    -226.616E+06    -78.8114E+06     197.136E+03    -111.442E-03     223.096E-03    -111.655E-03     8.56509E-03    -111.394E-03     222.197E-03    -111.606E-03     8.36505E-03
             174    -122.851E-09     48.3929E-03    -78.9622E+06    -226.641E+06    -79.0748E+06    -173.206E+03    -111.354E-03     222.828E-03    -111.474E-03     8.91840E-03    -111.308E-03     221.930E-03    -111.426E-03     8.71444E-03
             175     104.715E-09     47.2088E-03    -79.8002E+06    -227.719E+06    -80.3300E+06    -361.018E+03    -111.424E-03     222.697E-03    -111.273E-03     9.28223E-03    -111.379E-03     221.796E-03    -111.229E-03     9.07368E-03
             176     113.674E-09     46.0255E-03    -80.3460E+06    -227.748E+06    -79.6827E+06     267.969E+03    -111.475E-03     222.552E-03    -111.077E-03     9.27134E-03    -111.434E-03     221.651E-03    -111.029E-03     9.06745E-03
             177     278.273E-09     44.8416E-03    -79.1001E+06    -226.345E+06    -79.1040E+06    -161.695E+03    -111.349E-03     222.243E-03    -110.894E-03     9.33514E-03    -111.304E-03     221.346E-03    -110.846E-03     9.12779E-03
             178     25.2264E-09     43.6591E-03    -80.0166E+06    -227.052E+06    -80.2242E+06    -577.364E+03    -110.926E-03     221.656E-03    -110.730E-03     9.06315E-03    -110.883E-03     220.759E-03    -110.686E-03     8.85392E-03
             179    -51.4168E-09     42.4774E-03    -80.6167E+06    -227.991E+06    -80.5481E+06     650.816E+03    -110.512E-03     221.072E-03    -110.560E-03     8.58040E-03    -110.470E-03     220.171E-03    -110.515E-03     8.39102E-03
             180    -30.5459E-09     41.2963E-03    -79.7881E+06    -227.183E+06    -79.8364E+06     362.329E+03    -110.359E-03     220.788E-03    -110.429E-03     8.39202E-03    -110.315E-03     219.889E-03    -110.383E-03     8.20080E-03
             181    -32.1456E-09     40.1144E-03    -79.5030E+06    -226.814E+06    -79.6353E+06    -235.509E+03    -110.224E-03     220.422E-03    -110.199E-03     8.46357E-03    -110.179E-03     219.524E-03    -110.153E-03     8.26473E-03
             182     102.644E-09     38.9336E-03    -79.1430E+06    -226.558E+06    -78.9729E+06    -272.643E+03    -109.933E-03     219.830E-03    -109.896E-03     8.73401E-03    -109.888E-03     218.932E-03    -109.848E-03     8.53498E-03
             183    -144.978E-09     37.7536E-03    -78.7414E+06    -226.545E+06    -79.1374E+06     230.144E+03    -109.558E-03     219.112E-03    -109.555E-03     8.76088E-03    -109.510E-03     218.214E-03    -109.508E-03     8.57423E-03
             184     153.862E-09     36.5744E-03    -78.6703E+06    -225.778E+06    -78.4671E+06     468.494E+03    -109.231E-03     218.165E-03    -108.935E-03     8.67390E-03    -109.185E-03     217.270E-03    -108.885E-03     8.49326E-03
             185     284.494E-09     35.3970E-03    -78.8393E+06    -225.617E+06    -78.4501E+06    -415.846E+03    -108.911E-03     217.238E-03    -108.327E-03     8.75527E-03    -108.867E-03     216.344E-03    -108.278E-03     8.55930E-03
             186     191.736E-09     34.2200E-03    -78.2240E+06    -225.829E+06    -78.7339E+06     37.0167E+03    -108.274E-03     216.200E-03    -107.926E-03     8.56830E-03    -108.225E-03     215.303E-03    -107.879E-03     8.38061E-03
             187    -143.524E-09     33.0450E-03    -79.1361E+06    -225.863E+06    -79.0122E+06     124.345E+03    -107.400E-03     214.844E-03    -107.443E-03     8.26866E-03    -107.356E-03     213.949E-03    -107.396E-03     8.08652E-03
             188    -2.80019E-09     31.8717E-03    -80.3684E+06    -226.757E+06    -80.6485E+06    -221.908E+03    -106.771E-03     213.493E-03    -106.722E-03     7.97266E-03    -106.729E-03     212.598E-03    -106.680E-03     7.79161E-03
             189     198.331E-09     30.6994E-03    -80.3880E+06    -226.970E+06    -80.7603E+06     49.8670E+03    -106.047E-03     211.995E-03    -105.948E-03     7.83769E-03    -106.004E-03     211.098E-03    -105.906E-03     7.66665E-03
             190    -265.358E-09     29.5296E-03    -79.7499E+06    -226.106E+06    -79.8304E+06     250.942E+03    -105.210E-03     210.396E-03    -105.186E-03     7.71555E-03    -105.167E-03     209.502E-03    -105.141E-03     7.54613E-03
             191     346.024E-09     28.3611E-03    -80.3311E+06    -225.935E+06    -80.0682E+06    -96.3744E+03    -104.507E-03     208.733E-03    -104.226E-03     7.50602E-03    -104.467E-03     207.841E-03    -104.182E-03     7.33461E-03
             192     8.02077E-09     27.1951E-03    -81.9130E+06    -227.150E+06    -82.1488E+06     130.106E+03    -103.500E-03     206.742E-03    -103.242E-03     7.35324E-03    -103.463E-03     205.849E-03    -103.205E-03     7.19136E-03
             193     31.4370E-09     26.0315E-03    -82.9560E+06    -227.751E+06    -83.1326E+06     994.745E+03    -102.512E-03     204.815E-03    -102.303E-03     7.07764E-03    -102.478E-03     203.922E-03    -102.268E-03     6.93189E-03
             194     246.387E-09     24.8701E-03    -82.8034E+06    -226.553E+06    -82.4281E+06     281.962E+03    -101.726E-03     203.156E-03    -101.430E-03     6.91361E-03    -101.693E-03     202.267E-03    -101.394E-03     6.76038E-03
             195    -60.2257E-09     23.7101E-03    -81.8479E+06    -225.343E+06    -81.8743E+06    -127.258E+03    -100.878E-03     201.471E-03    -100.592E-03     6.77286E-03    -100.843E-03     200.586E-03    -100.556E-03     6.61639E-03
             196     319.753E-09     22.5522E-03    -81.0733E+06    -223.425E+06    -80.8527E+06    -231.301E+03    -99.8870E-03     199.613E-03    -99.7264E-03     6.74056E-03    -99.8524E-03     198.736E-03    -99.6892E-03     6.58763E-03
             197    -335.004E-09     21.3969E-03    -80.8753E+06    -222.536E+06    -80.8736E+06     126.018E+03    -98.9511E-03     197.743E-03    -98.7922E-03     6.43883E-03    -98.9166E-03     196.870E-03    -98.7567E-03     6.29763E-03
             198     591.496E-09     20.2435E-03    -80.1144E+06    -221.304E+06    -80.1256E+06     465.016E+03    -98.2576E-03     195.911E-03    -97.6538E-03     5.83427E-03    -98.2219E-03     195.042E-03    -97.6173E-03     5.70023E-03
             199     122.954E-09     19.0930E-03    -80.1217E+06    -220.227E+06    -80.2047E+06     50.2268E+03    -97.0287E-03     193.724E-03    -96.6949E-03     5.33062E-03    -96.9943E-03     192.859E-03    -96.6605E-03     5.19450E-03
             200    -305.746E-09     17.9443E-03    -82.0768E+06    -220.679E+06    -81.9533E+06     185.320E+03    -95.2800E-03     190.579E-03    -95.2991E-03     4.46680E-03    -95.2521E-03     189.717E-03    -95.2699E-03     4.34176E-03
             201     451.692E-09     16.8003E-03    -81.2026E+06    -218.503E+06    -81.9895E+06     139.887E+03    -93.2353E-03     186.302E-03    -93.0668E-03     3.88247E-03    -93.2059E-03     185.450E-03    -93.0421E-03     3.76787E-03
             202    -334.300E-09     15.6623E-03    -78.4862E+06    -214.501E+06    -78.9809E+06     622.817E+03    -90.4971E-03     181.003E-03    -90.5057E-03     2.90131E-03    -90.4642E-03     180.162E-03    -90.4758E-03     2.80619E-03
             203     195.988E-09     14.5304E-03    -75.9644E+06    -210.521E+06    -75.8260E+06     827.142E+03    -87.1859E-03     174.392E-03    -87.2061E-03     1.83914E-03    -87.1506E-03     173.562E-03    -87.1698E-03     1.76458E-03
             204    -85.7716E-09     13.4067E-03    -74.1940E+06    -206.416E+06    -74.3852E+06     1.57336E+06    -83.2333E-03     166.267E-03    -83.0334E-03     1.27414E-03    -83.1972E-03     165.452E-03    -82.9984E-03     1.22496E-03
             205     311.095E-09     12.2926E-03    -73.2444E+06    -201.467E+06    -72.6446E+06     1.48104E+06    -78.6323E-03     156.889E-03    -78.2570E-03     675.242E-06    -78.6012E-03     156.095E-03    -78.2219E-03     633.663E-06
             206     103.363E-09     11.1906E-03    -71.1507E+06    -196.522E+06    -71.3294E+06     1.21285E+06    -73.8345E-03     147.229E-03    -73.3944E-03     381.943E-06    -73.8019E-03     146.455E-03    -73.3629E-03     343.168E-06
             207     223.413E-09     10.0975E-03    -66.6236E+06    -189.594E+06    -66.5857E+06     1.92271E+06    -69.2613E-03     138.316E-03    -69.0544E-03     365.308E-06    -69.2227E-03     137.563E-03    -69.0158E-03     340.059E-06
             208    -197.557E-09     9.01476E-03    -62.6123E+06    -183.793E+06     -61.974E+06     885.688E+03    -65.9673E-03     131.754E-03    -65.7870E-03     846.781E-06    -65.9233E-03     131.019E-03    -65.7396E-03     810.151E-06
             209     483.808E-09     7.93671E-03    -60.5665E+06    -181.408E+06    -59.3799E+06     119.923E+03    -65.3922E-03     130.430E-03    -65.0374E-03     2.27763E-03    -65.3451E-03     129.700E-03    -64.9835E-03     2.23088E-03
             210    -161.042E-09     6.85644E-03    -59.2509E+06    -182.187E+06    -57.5669E+06    -572.427E+03    -68.4607E-03     136.579E-03    -68.1183E-03     4.29330E-03    -68.4097E-03     135.839E-03    -68.0561E-03     4.23899E-03
             211     433.707E-09     5.76485E-03    -60.0048E+06    -187.721E+06    -59.2789E+06    -1.64072E+06    -75.1767E-03     150.160E-03    -74.9828E-03     5.95739E-03    -75.1207E-03     149.394E-03    -74.9200E-03     5.88888E-03
             212    -362.282E-09     4.65485E-03    -60.6889E+06    -194.248E+06    -61.0574E+06    -1.30438E+06    -84.3130E-03     168.860E-03    -84.5467E-03     6.69085E-03    -84.2496E-03     168.064E-03    -84.4823E-03     6.62269E-03
             213    -77.4760E-09     3.52155E-03    -57.2886E+06    -196.793E+06    -58.1037E+06     67.8063E+03    -94.5373E-03     189.503E-03    -94.9661E-03     6.43256E-03    -94.4571E-03     188.686E-03    -94.8882E-03     6.38244E-03
             214    -174.865E-09     2.36438E-03    -51.9621E+06    -196.663E+06    -52.8655E+06     68.8197E+03    -103.941E-03     208.361E-03    -104.420E-03     5.30955E-03    -103.840E-03     207.531E-03    -104.324E-03     5.26700E-03
             215    -346.735E-09     1.18731E-03    -48.0826E+06    -196.007E+06    -48.4770E+06     356.857E+03    -110.536E-03     221.276E-03    -110.740E-03     2.71003E-03    -110.418E-03     220.437E-03    -110.628E-03     2.68885E-03
             216     803.228E-06    -8.24341E-15    -46.3314E+06    -195.082E+06    -46.0549E+06     370.109E+03    -112.973E-03     225.801E-03    -112.829E-03     2.18170E-03    -112.852E-03     224.960E-03    -112.709E-03     2.16154E-03
             217     1.60610E-03    -8.24341E-15    -45.9715E+06    -194.364E+06    -45.0955E+06    -422.261E+03    -112.925E-03     225.835E-03    -112.910E-03     4.52028E-03    -112.808E-03     224.995E-03    -112.787E-03     4.46625E-03
             218     2.40907E-03    -8.24341E-15    -44.9350E+06    -192.711E+06    -43.2150E+06    -72.3452E+03    -112.851E-03     225.766E-03    -112.915E-03     6.80615E-03    -112.734E-03     224.931E-03    -112.786E-03     6.73548E-03
             219     3.21225E-03    -8.24341E-15    -44.3560E+06    -190.928E+06    -41.0139E+06     448.483E+03    -112.824E-03     225.734E-03    -112.910E-03     9.11737E-03    -112.711E-03     224.904E-03    -112.774E-03     9.03054E-03
             220     4.01523E-03    -8.24341E-15    -43.5963E+06    -189.802E+06    -40.4542E+06    -302.008E+03    -112.882E-03     225.789E-03    -112.906E-03     11.4637E-03    -112.769E-03     224.963E-03    -112.770E-03     11.3411E-03
             221     4.81825E-03    -8.24341E-15    -41.0474E+06    -184.647E+06    -43.9978E+06    -3.00024E+06    -113.016E-03     225.908E-03    -112.892E-03     13.8681E-03    -112.893E-03     225.111E-03    -112.785E-03     13.6850E-03
             222     5.62108E-03    -8.24341E-15    -35.9953E+06    -168.957E+06    -50.2804E+06    -6.17290E+06    -113.284E-03     226.154E-03    -112.869E-03     16.3293E-03    -113.152E-03     225.439E-03    -112.824E-03     16.0749E-03
             223     6.42363E-03    -8.24341E-15    -29.3425E+06    -142.898E+06    -56.3386E+06    -7.48680E+06    -113.749E-03     226.616E-03    -112.867E-03     18.9183E-03    -113.614E-03     226.033E-03    -112.899E-03     18.6114E-03
             224     7.22553E-03    -8.24341E-15    -22.8320E+06    -110.552E+06    -61.0172E+06    -7.68728E+06    -114.450E-03     227.362E-03    -112.913E-03     21.7033E-03    -114.325E-03     226.940E-03    -113.024E-03     21.3547E-03
             225     8.02675E-03    -8.24341E-15    -15.6060E+06    -74.2857E+06    -62.5374E+06    -9.45146E+06    -115.484E-03     228.515E-03    -113.031E-03     24.7932E-03    -115.376E-03     228.269E-03    -113.214E-03     24.3714E-03
             226     8.82681E-03    -8.24341E-15    -9.03309E+06    -28.1868E+06    -58.7660E+06    -7.07625E+06    -116.943E-03     230.189E-03    -113.246E-03     28.1516E-03    -116.880E-03     230.164E-03    -113.486E-03     27.6928E-03
             227     9.62531E-03    -8.24341E-15    -6.83193E+06     14.8649E+06    -38.9006E+06    -788.738E+03    -118.947E-03     232.605E-03    -113.658E-03     32.3797E-03    -118.971E-03     232.770E-03    -113.864E-03     31.9195E-03
             228     10.4209E-03    -8.24341E-15    -8.16829E+06     40.1960E+06    -5.01043E+06     795.190E+03    -121.601E-03     235.902E-03    -114.301E-03     37.7591E-03    -121.730E-03     236.158E-03    -114.372E-03     37.1936E-03
             229     11.2142E-03    -8.24341E-15    -7.13435E+06     54.6534E+06     25.2627E+06    -903.873E+03    -125.132E-03     240.226E-03    -115.094E-03     43.2632E-03    -125.342E-03     240.531E-03    -115.037E-03     42.4593E-03
             230     12.0051E-03    -8.24341E-15    -1.92435E+06     64.4804E+06     53.9717E+06    -2.41289E+06    -130.522E-03     246.614E-03    -116.091E-03     49.5189E-03    -130.788E-03     246.945E-03    -115.912E-03     48.4480E-03
             231     12.7891E-03    -8.24341E-15     4.67834E+06     77.2516E+06     85.1636E+06    -2.51811E+06    -140.281E-03     257.732E-03    -117.451E-03     59.7192E-03    -140.628E-03     258.123E-03    -117.144E-03     58.2597E-03
             232     13.5625E-03    -8.24341E-15     7.39965E+06     87.7513E+06     99.3621E+06     778.445E+03    -157.214E-03     276.571E-03    -119.357E-03     81.9912E-03    -157.724E-03     277.126E-03    -118.998E-03     79.7537E-03
             233     14.3057E-03    -8.24341E-15     1.87389E+06     91.1608E+06     93.1076E+06     5.76429E+06    -189.151E-03     311.428E-03    -122.277E-03     135.785E-03    -190.431E-03     312.761E-03    -121.946E-03     130.593E-03
             234     15.0122E-03    -8.24341E-15    -6.72405E+06     92.4384E+06     83.8733E+06     7.57649E+06    -248.676E-03     375.791E-03    -127.115E-03     244.628E-03    -253.018E-03     380.158E-03    -126.820E-03     230.879E-03
             235     15.8693E-03     1.55137E-03    -11.2872E+06     98.1371E+06     73.7759E+06     4.13885E+06    -245.840E-03     371.444E-03    -125.603E-03     279.628E-03    -252.519E-03     378.170E-03    -125.360E-03     262.449E-03
             236     15.9721E-03     2.85271E-03     3.03450E+06     110.675E+06     75.0949E+06     3.72595E+06    -199.344E-03     317.780E-03    -118.436E-03     206.426E-03    -205.018E-03     323.621E-03    -118.226E-03     192.802E-03
             237     16.0378E-03     4.12551E-03     9.71265E+06     112.214E+06     79.7658E+06     2.33965E+06    -205.813E-03     320.015E-03    -114.202E-03     139.417E-03    -209.995E-03     324.399E-03    -113.980E-03     125.918E-03
             238     16.0548E-03     5.45742E-03    -363.057E+03     106.809E+06     78.9072E+06     738.816E+03    -220.849E-03     332.913E-03    -112.063E-03     99.2155E-03    -224.325E-03     336.549E-03    -111.823E-03     84.9988E-03
             239     16.0673E-03     6.80335E-03    -1.46081E+06     109.404E+06     82.1476E+06     2.13404E+06    -213.299E-03     324.792E-03    -111.493E-03     98.3991E-03    -216.963E-03     328.608E-03    -111.239E-03     84.5905E-03
             240     16.0733E-03     8.10703E-03    -1.90051E+06     111.448E+06     84.0774E+06     609.394E+03    -195.993E-03     307.533E-03    -111.540E-03     106.974E-03    -200.041E-03     311.729E-03    -111.279E-03     94.1536E-03
             241     16.0717E-03     9.39526E-03    -3.00467E+06     111.753E+06     85.2775E+06     238.885E+03    -181.537E-03     293.326E-03    -111.789E-03     109.271E-03    -185.739E-03     297.667E-03    -111.520E-03     97.7920E-03
             242     16.0753E-03     10.6515E-03    -2.03566E+06     113.028E+06     86.5460E+06     276.632E+03    -167.578E-03     279.573E-03    -111.995E-03     110.521E-03    -171.822E-03     283.958E-03    -111.723E-03     100.492E-03
             243     16.0781E-03     11.8967E-03    -1.61302E+06     112.997E+06     87.1608E+06     173.381E+03    -156.762E-03     268.814E-03    -112.051E-03     108.871E-03    -160.988E-03     273.181E-03    -111.777E-03     100.074E-03
             244     16.0820E-03     13.1358E-03    -1.84830E+06      113.19E+06     87.8863E+06     617.859E+03    -148.715E-03     260.777E-03    -112.062E-03     111.211E-03    -153.105E-03     265.308E-03    -111.784E-03     103.293E-03
             245     16.0835E-03     14.3649E-03    -2.62571E+06     114.624E+06     88.3724E+06     796.279E+03    -142.673E-03     254.717E-03    -112.044E-03     114.559E-03    -147.292E-03     259.478E-03    -111.765E-03     107.265E-03
             246     16.0872E-03     15.5866E-03    -3.05543E+06     116.445E+06     89.1052E+06     879.769E+03    -139.007E-03     250.962E-03    -111.955E-03     117.986E-03    -143.814E-03     255.913E-03    -111.674E-03     111.113E-03
             247     16.0898E-03     16.8071E-03    -1.69534E+06     118.288E+06     90.8040E+06     561.661E+03    -136.496E-03     248.340E-03    -111.844E-03     118.870E-03    -141.413E-03     253.407E-03    -111.559E-03     112.269E-03
             248     16.0920E-03     18.0230E-03    -2.12541E+06     118.883E+06     90.8891E+06     341.735E+03    -134.589E-03     246.344E-03    -111.755E-03     121.020E-03    -139.664E-03     251.570E-03    -111.470E-03     114.622E-03
             249     16.0936E-03     19.2383E-03    -3.01388E+06     118.580E+06     90.9616E+06     61.2985E+03    -133.123E-03     244.793E-03    -111.670E-03     123.221E-03    -138.342E-03     250.159E-03    -111.383E-03     117.026E-03
             250     16.0960E-03     20.4515E-03    -2.28384E+06     117.875E+06     91.8652E+06    -323.770E+03    -131.898E-03     243.500E-03    -111.602E-03     125.437E-03    -137.262E-03     249.008E-03    -111.311E-03     119.386E-03
             251     16.0961E-03     21.6627E-03    -2.35432E+06     117.139E+06     91.2090E+06     271.126E+03    -130.408E-03     241.970E-03    -111.562E-03     127.224E-03    -135.891E-03     247.596E-03    -111.273E-03     121.375E-03
             252     16.0983E-03     22.8728E-03    -2.65390E+06     117.645E+06     91.0165E+06     591.833E+03    -127.907E-03     239.458E-03    -111.551E-03     129.655E-03    -133.554E-03     245.250E-03    -111.263E-03     124.093E-03
             253     16.0985E-03     24.0767E-03    -2.71176E+06     119.042E+06     91.8353E+06     704.788E+03    -126.071E-03     237.625E-03    -111.554E-03     131.405E-03    -131.832E-03     243.532E-03    -111.263E-03     126.103E-03
             254     16.0988E-03     25.2821E-03    -1.87679E+06     121.096E+06     92.8190E+06     610.450E+03    -123.625E-03     235.193E-03    -111.568E-03     131.763E-03    -129.422E-03     241.144E-03    -111.277E-03     126.738E-03
             255     16.1010E-03     26.4767E-03    -1.29640E+06     122.083E+06     93.2871E+06     318.959E+03    -121.899E-03     233.449E-03    -111.550E-03     131.562E-03    -127.711E-03     239.419E-03    -111.259E-03     126.750E-03
             256     16.1001E-03     27.6769E-03    -2.13715E+06     122.082E+06     93.3507E+06    -76.0280E+03    -122.126E-03     233.644E-03    -111.517E-03     131.927E-03    -128.003E-03     239.676E-03    -111.225E-03     127.193E-03
             257     16.1014E-03     28.8799E-03    -2.79273E+06     121.639E+06     93.0410E+06     26.3698E+03    -120.842E-03     232.387E-03    -111.545E-03     134.076E-03    -126.849E-03     238.546E-03    -111.252E-03     129.517E-03
             258     16.1001E-03     30.0736E-03    -2.51381E+06     121.285E+06     92.7173E+06     151.926E+03    -117.772E-03     229.382E-03    -111.610E-03     133.247E-03    -123.777E-03     235.540E-03    -111.319E-03     129.029E-03
             259     16.1020E-03     31.2621E-03    -2.25054E+06     121.439E+06     93.1020E+06    -351.074E+03    -116.639E-03     228.247E-03    -111.608E-03     134.123E-03    -122.657E-03     234.418E-03    -111.315E-03     130.037E-03
             260     16.1017E-03     32.4596E-03    -2.62262E+06     121.353E+06     93.2874E+06     236.391E+03    -116.612E-03     228.184E-03    -111.572E-03     135.762E-03    -122.690E-03     234.413E-03    -111.277E-03     131.735E-03
             261     16.1030E-03     33.6524E-03    -2.09150E+06     122.038E+06     93.8414E+06     107.322E+03    -114.866E-03     226.464E-03    -111.598E-03     136.711E-03    -121.032E-03     232.784E-03    -111.303E-03     132.869E-03
             262     16.1019E-03     34.8376E-03    -2.65805E+06     121.904E+06     93.7394E+06    -117.859E+03    -114.740E-03     226.359E-03    -111.619E-03     137.020E-03    -120.959E-03     232.729E-03    -111.323E-03     133.261E-03
             263     16.1017E-03     36.0325E-03    -2.24168E+06     122.102E+06     93.6963E+06     499.924E+03    -114.231E-03     225.870E-03    -111.639E-03     137.395E-03    -120.475E-03     232.267E-03    -111.344E-03     133.714E-03
             264     16.1027E-03     37.2196E-03    -2.50599E+06     121.908E+06     93.2918E+06    -288.323E+03    -112.681E-03     224.348E-03    -111.668E-03     139.038E-03    -118.986E-03     230.807E-03    -111.374E-03     135.473E-03
             265     16.1016E-03     38.4055E-03    -2.96739E+06     121.383E+06     93.0859E+06    -304.075E+03    -112.995E-03     224.653E-03    -111.659E-03     138.406E-03    -119.264E-03     231.073E-03    -111.365E-03     134.889E-03
             266     16.1028E-03     39.5949E-03    -1.81434E+06     121.747E+06     93.6468E+06     184.462E+03    -111.911E-03     223.570E-03    -111.659E-03     135.483E-03    -118.051E-03     229.864E-03    -111.364E-03     132.078E-03
             267     16.1030E-03     40.7746E-03    -2.38014E+06     121.657E+06     93.5237E+06     228.907E+03    -111.435E-03     223.091E-03    -111.657E-03     134.981E-03    -117.559E-03     229.368E-03    -111.362E-03     131.646E-03
             268     16.1023E-03     41.9682E-03    -1.98794E+06     122.474E+06     94.0099E+06     267.413E+03    -112.106E-03     223.751E-03    -111.645E-03     137.274E-03    -118.340E-03     230.140E-03    -111.350E-03     133.872E-03
             269     16.1034E-03     43.1543E-03    -2.04714E+06     122.387E+06     93.7257E+06    -392.694E+03    -111.623E-03     223.279E-03    -111.657E-03     138.452E-03    -117.930E-03     229.742E-03    -111.363E-03     135.062E-03
             270     16.1020E-03     44.3378E-03    -3.02528E+06     122.033E+06     93.1955E+06    -42.3794E+03    -111.243E-03     222.926E-03    -111.683E-03     137.040E-03    -117.516E-03     229.352E-03    -111.389E-03     133.769E-03
             271     16.1025E-03     45.5263E-03    -3.38454E+06     121.530E+06     92.8010E+06     83.6251E+03    -110.736E-03     222.447E-03    -111.711E-03     137.727E-03    -117.052E-03     228.913E-03    -111.418E-03     134.530E-03
             272     16.1019E-03     46.7093E-03    -2.37620E+06     121.618E+06     93.2180E+06     41.7277E+03    -110.512E-03     222.220E-03    -111.708E-03     138.500E-03    -116.843E-03     228.704E-03    -111.415E-03     135.283E-03
             273     16.1033E-03     47.8950E-03    -1.52242E+06     122.484E+06     94.1548E+06     54.7729E+03    -110.813E-03     222.495E-03    -111.682E-03     137.539E-03    -117.105E-03     228.943E-03    -111.387E-03     134.275E-03
             274     16.1023E-03     49.0800E-03    -2.62997E+06     121.602E+06     93.5479E+06    -175.734E+03    -111.132E-03     222.824E-03    -111.692E-03     136.912E-03    -117.403E-03     229.245E-03    -111.396E-03     133.643E-03
             275     16.1017E-03     50.2682E-03    -3.09311E+06     120.921E+06     92.8343E+06     151.582E+03    -110.525E-03     222.258E-03    -111.732E-03     136.252E-03    -116.775E-03     228.657E-03    -111.439E-03     133.044E-03
             276     16.1021E-03     51.4468E-03    -1.88559E+06     121.572E+06     93.2264E+06     400.304E+03    -110.295E-03     222.005E-03    -111.710E-03     136.341E-03    -116.508E-03     228.373E-03    -111.417E-03     133.144E-03
             277     16.1037E-03     52.6367E-03    -1.94315E+06     121.842E+06     93.7794E+06    -438.678E+03    -110.829E-03     222.503E-03    -111.674E-03     135.993E-03    -117.034E-03     228.862E-03    -111.379E-03     132.741E-03
             278     16.1016E-03     53.8226E-03    -3.23381E+06     121.077E+06     93.1698E+06    -267.170E+03    -110.961E-03     222.652E-03    -111.691E-03     138.392E-03    -117.309E-03     229.147E-03    -111.396E-03     135.163E-03
             279     16.1030E-03     55.0090E-03    -2.42206E+06     121.472E+06     93.2989E+06     212.713E+03    -109.992E-03     221.711E-03    -111.719E-03     138.651E-03    -116.347E-03     228.218E-03    -111.425E-03     135.453E-03
             280     16.1021E-03     56.1906E-03    -2.29731E+06     121.525E+06     93.4356E+06     153.026E+03    -110.069E-03     221.767E-03    -111.697E-03     139.481E-03    -116.428E-03     228.278E-03    -111.403E-03     136.280E-03
             281     16.1039E-03     57.3765E-03    -1.76583E+06     122.001E+06     94.0491E+06     147.478E+03    -111.108E-03     222.742E-03    -111.634E-03     140.628E-03    -117.494E-03     229.283E-03    -111.338E-03     137.337E-03
             282     16.1036E-03     58.5677E-03    -2.26253E+06     121.826E+06     93.8261E+06    -548.636E+03    -110.364E-03     222.026E-03    -111.662E-03     139.088E-03    -116.746E-03     228.560E-03    -111.366E-03     135.842E-03
             283     16.1016E-03     59.7426E-03    -3.04644E+06     121.363E+06     93.2779E+06    -121.610E+03    -110.426E-03     222.129E-03    -111.703E-03     137.852E-03    -116.752E-03     228.605E-03    -111.408E-03     134.703E-03
             284     16.1031E-03     60.9328E-03    -1.91766E+06     121.938E+06     93.7497E+06     265.708E+03    -110.748E-03     222.430E-03    -111.682E-03     138.214E-03    -117.014E-03     228.850E-03    -111.387E-03     134.999E-03
             285     16.1031E-03     62.1190E-03    -1.70673E+06     121.836E+06     93.4920E+06     180.414E+03    -109.977E-03     221.665E-03    -111.688E-03     138.537E-03    -116.268E-03     228.111E-03    -111.395E-03     135.375E-03
             286     16.1024E-03     63.2984E-03    -2.93606E+06     120.906E+06     92.8371E+06    -400.255E+03    -110.273E-03     221.985E-03    -111.712E-03     135.401E-03    -116.491E-03     228.353E-03    -111.419E-03     132.264E-03
             287     16.1015E-03     64.4837E-03    -3.53177E+06     120.429E+06     92.6430E+06     261.771E+03    -111.047E-03     222.775E-03    -111.728E-03     134.871E-03    -117.210E-03     229.084E-03    -111.434E-03     131.673E-03
             288     16.1019E-03     65.6741E-03    -1.80455E+06     121.806E+06     93.6527E+06     180.794E+03    -109.889E-03     221.628E-03    -111.739E-03     137.531E-03    -116.135E-03     228.028E-03    -111.445E-03     134.358E-03
             289     16.1034E-03     66.8535E-03    -1.77356E+06     121.698E+06     93.5053E+06    -304.513E+03    -109.833E-03     221.546E-03    -111.712E-03     138.130E-03    -116.107E-03     227.974E-03    -111.419E-03     134.977E-03
             290     16.1017E-03     68.0407E-03    -2.43776E+06     120.994E+06     93.1843E+06     40.6914E+03    -110.323E-03     222.028E-03    -111.704E-03     135.541E-03    -116.523E-03     228.378E-03    -111.410E-03     132.390E-03
             291     16.1031E-03     69.2236E-03    -3.51656E+06     120.470E+06     92.7736E+06    -93.9539E+03    -110.054E-03     221.776E-03    -111.722E-03     136.486E-03    -116.311E-03     228.179E-03    -111.428E-03     133.322E-03
             292     804.814E-06     68.5417E-03    -77.5689E+06    -225.349E+06    -76.5434E+06    -281.166E+03    -111.935E-03     223.857E-03    -111.922E-03     15.2689E-03    -111.897E-03     222.967E-03    -111.865E-03     14.9200E-03
             293     1.60955E-03     68.5659E-03    -75.2021E+06    -221.607E+06    -71.0154E+06     142.449E+03    -112.103E-03     224.019E-03    -111.916E-03     28.0527E-03    -112.094E-03     223.163E-03    -111.841E-03     27.4156E-03
             294     2.41427E-03     68.6047E-03    -71.9258E+06    -216.020E+06    -62.3804E+06     376.209E+03    -112.284E-03     224.225E-03    -111.941E-03     41.2740E-03    -112.327E-03     223.427E-03    -111.835E-03     40.3058E-03
             295     3.21910E-03     68.6583E-03    -68.0371E+06    -204.395E+06    -52.4604E+06     16.2478E+03    -112.532E-03     224.485E-03    -111.953E-03     54.5533E-03    -112.658E-03     223.796E-03    -111.820E-03     53.2160E-03
             296     4.02392E-03     68.7268E-03    -64.0590E+06    -189.968E+06    -42.8744E+06    -205.219E+03    -112.834E-03     224.788E-03    -111.954E-03     67.6702E-03    -113.076E-03     224.253E-03    -111.800E-03     65.9294E-03
             297     4.82892E-03     68.8097E-03    -60.1433E+06    -181.128E+06    -33.7304E+06     108.608E+03    -113.212E-03     225.170E-03    -111.958E-03     80.5500E-03    -113.595E-03     224.794E-03    -111.777E-03     78.3661E-03
             298     5.63385E-03     68.9068E-03    -56.1151E+06    -173.381E+06    -25.4339E+06     342.129E+03    -113.658E-03     225.618E-03    -111.960E-03     93.2373E-03    -114.222E-03     225.442E-03    -111.755E-03     90.5550E-03
             299     6.43880E-03     69.0179E-03    -52.0152E+06    -148.852E+06    -19.8836E+06     316.528E+03    -114.091E-03     226.016E-03    -111.925E-03     105.886E-03    -114.910E-03     226.180E-03    -111.733E-03     102.646E-03
             300     7.24378E-03     69.1427E-03    -48.0147E+06    -132.275E+06    -14.3094E+06     328.584E+03    -114.532E-03     226.433E-03    -111.901E-03     118.290E-03    -115.668E-03     226.970E-03    -111.711E-03     114.412E-03
             301     8.04908E-03     69.2806E-03    -44.1482E+06    -119.100E+06    -9.57963E+06     255.809E+03    -115.028E-03     226.907E-03    -111.879E-03     130.684E-03    -116.568E-03     227.895E-03    -111.690E-03     126.075E-03
             302     8.85385E-03     69.4328E-03    -40.9191E+06    -89.4661E+06    -7.25237E+06     179.235E+03    -115.469E-03     227.294E-03    -111.826E-03     143.434E-03    -117.562E-03     228.946E-03    -111.673E-03     137.997E-03
             303     9.65892E-03     69.5984E-03    -37.8423E+06    -54.1976E+06    -2.93115E+06     79.2048E+03    -115.760E-03     227.533E-03    -111.773E-03     156.597E-03    -118.589E-03     230.044E-03    -111.654E-03     150.222E-03
             304     10.4642E-03     69.7788E-03    -34.9651E+06     1.78562E+06     4.06285E+06     139.954E+03    -115.924E-03     227.620E-03    -111.696E-03     171.421E-03    -119.800E-03     231.366E-03    -111.628E-03     163.960E-03
             305     11.2697E-03     69.9763E-03    -32.5182E+06     50.9993E+06     14.8290E+06     314.884E+03    -116.475E-03     228.118E-03    -111.643E-03     192.546E-03    -121.949E-03     233.614E-03    -111.596E-03     183.729E-03
             306     12.0749E-03     70.2033E-03    -29.3505E+06     74.5973E+06     37.9732E+06    -54.6429E+03    -117.862E-03     229.547E-03    -111.685E-03     226.084E-03    -126.002E-03     237.738E-03    -111.561E-03     215.505E-03
             307     12.8801E-03     70.4762E-03    -23.8155E+06     92.1778E+06     68.7867E+06    -1.14688E+06    -119.425E-03     231.173E-03    -111.749E-03     269.555E-03    -131.673E-03     243.465E-03    -111.504E-03     257.175E-03
             308     13.6873E-03     70.8009E-03    -16.8292E+06     106.975E+06     89.3809E+06    -493.328E+03    -119.916E-03     231.651E-03    -111.735E-03     298.488E-03    -136.205E-03     248.001E-03    -111.419E-03     285.872E-03
             309     14.4950E-03     71.1417E-03    -10.3944E+06     117.606E+06     96.7437E+06     569.339E+03    -117.886E-03     229.582E-03    -111.696E-03     285.278E-03    -135.705E-03     247.502E-03    -111.368E-03     275.259E-03
             310     15.2960E-03     71.4414E-03    -4.57161E+06     122.083E+06     95.7477E+06     221.023E+03    -113.676E-03     225.366E-03    -111.690E-03     201.328E-03    -125.633E-03     237.462E-03    -111.381E-03     195.673E-03
             311     804.751E-06     69.7269E-03    -77.0541E+06    -224.570E+06    -75.7747E+06    -275.290E+03    -112.036E-03     223.957E-03    -111.921E-03     15.2590E-03    -111.998E-03     223.069E-03    -111.863E-03     14.9092E-03
             312     1.60944E-03     69.7510E-03    -75.6252E+06    -222.008E+06    -71.6127E+06    -438.271E+03    -112.071E-03     224.019E-03    -111.948E-03     27.9675E-03    -112.063E-03     223.162E-03    -111.874E-03     27.3217E-03
             313     2.41433E-03     69.7897E-03    -72.8446E+06    -215.883E+06    -64.2947E+06    -530.206E+03    -112.241E-03     224.183E-03    -111.942E-03     41.3251E-03    -112.287E-03     223.390E-03    -111.844E-03     40.3456E-03
             314     3.21911E-03     69.8435E-03    -69.1162E+06    -204.158E+06    -53.8959E+06    -305.556E+03    -112.523E-03     224.470E-03    -111.947E-03     54.6587E-03    -112.654E-03     223.786E-03    -111.820E-03     53.3193E-03
             315     4.02402E-03     69.9118E-03    -65.2309E+06    -190.608E+06    -43.3894E+06     242.221E+03    -112.852E-03     224.807E-03    -111.954E-03     67.7536E-03    -113.098E-03     224.270E-03    -111.800E-03     66.0189E-03
             316     4.82885E-03     69.9948E-03    -61.0044E+06    -181.475E+06    -33.8181E+06     389.168E+03    -113.225E-03     225.188E-03    -111.963E-03     80.6248E-03    -113.612E-03     224.812E-03    -111.780E-03     78.4437E-03
             317     5.63379E-03     70.0918E-03    -56.3257E+06    -173.297E+06    -25.3650E+06     284.039E+03    -113.649E-03     225.613E-03    -111.964E-03     93.3417E-03    -114.215E-03     225.437E-03    -111.758E-03     90.6591E-03
             318     6.43881E-03     70.2028E-03    -51.8795E+06    -148.800E+06    -19.4720E+06     144.193E+03    -114.067E-03     225.994E-03    -111.927E-03     105.898E-03    -114.887E-03     226.159E-03    -111.734E-03     102.654E-03
             319     7.24403E-03     70.3275E-03    -47.7870E+06    -132.180E+06    -13.6771E+06     99.2216E+03    -114.556E-03     226.459E-03    -111.904E-03     118.213E-03    -115.692E-03     226.996E-03    -111.711E-03     114.329E-03
             320     8.04871E-03     70.4658E-03    -44.1974E+06    -119.333E+06    -9.13593E+06     170.699E+03    -115.053E-03     226.938E-03    -111.885E-03     130.657E-03    -116.595E-03     227.926E-03    -111.693E-03     126.043E-03
             321     8.85394E-03     70.6176E-03    -40.7740E+06    -89.7755E+06    -6.81131E+06     109.737E+03    -115.446E-03     227.277E-03    -111.832E-03     143.457E-03    -117.540E-03     228.928E-03    -111.676E-03     138.018E-03
             322     9.65906E-03     70.7836E-03    -37.6668E+06    -53.7834E+06    -2.66858E+06     31.5569E+03    -115.719E-03     227.493E-03    -111.774E-03     156.501E-03    -118.548E-03     230.005E-03    -111.655E-03     150.128E-03
             323     10.4643E-03     70.9635E-03    -34.9198E+06     1.01032E+06     3.85353E+06     550.237E+03    -115.953E-03     227.650E-03    -111.697E-03     171.282E-03    -119.825E-03     231.391E-03    -111.629E-03     163.826E-03
             324     11.2693E-03     71.1615E-03    -31.3977E+06     50.6389E+06     14.3900E+06     1.17982E+06    -116.528E-03     228.171E-03    -111.643E-03     192.576E-03    -121.998E-03     233.668E-03    -111.599E-03     183.764E-03
             325     12.0746E-03     71.3883E-03    -26.8630E+06     76.6349E+06     39.0513E+06     458.109E+03    -117.656E-03     229.339E-03    -111.682E-03     225.946E-03    -125.776E-03     237.522E-03    -111.559E-03     215.404E-03
             326     12.8810E-03     71.6602E-03    -21.9680E+06     93.8562E+06     71.1664E+06    -445.522E+03    -119.288E-03     231.037E-03    -111.749E-03     268.131E-03    -131.485E-03     243.283E-03    -111.498E-03     255.800E-03
             327     13.6875E-03     71.9831E-03    -16.7745E+06     106.980E+06     90.1447E+06    -289.570E+03    -120.503E-03     232.261E-03    -111.758E-03     296.724E-03    -136.721E-03     248.538E-03    -111.439E-03     284.034E-03
             328     14.4917E-03     72.3265E-03    -11.4693E+06     116.330E+06     95.2152E+06    -464.213E+03    -118.094E-03     229.835E-03    -111.742E-03     284.254E-03    -135.807E-03     247.645E-03    -111.418E-03     274.165E-03
             329     15.2987E-03     72.6306E-03    -5.22054E+06     121.073E+06     94.4915E+06    -181.389E+03    -112.900E-03     224.623E-03    -111.723E-03     199.824E-03    -124.777E-03     236.637E-03    -111.418E-03     194.257E-03
             330     804.552E-06     70.9122E-03    -77.0924E+06    -224.548E+06    -75.7316E+06     262.723E+03    -112.090E-03     224.035E-03    -111.945E-03     15.1770E-03    -112.052E-03     223.147E-03    -111.886E-03     14.8367E-03
             331     1.60945E-03     70.9359E-03    -75.6694E+06    -221.161E+06    -70.2435E+06    -212.038E+03    -112.020E-03     223.995E-03    -111.975E-03     27.9086E-03    -112.015E-03     223.141E-03    -111.896E-03     27.2652E-03
             332     2.41425E-03     70.9747E-03    -73.2742E+06    -215.590E+06    -63.4291E+06    -535.747E+03    -112.201E-03     224.146E-03    -111.945E-03     41.3347E-03    -112.250E-03     223.354E-03    -111.843E-03     40.3550E-03
             333     3.21923E-03     71.0284E-03    -70.1188E+06    -204.879E+06    -54.3066E+06    -121.171E+03    -112.482E-03     224.419E-03    -111.937E-03     54.6546E-03    -112.616E-03     223.734E-03    -111.809E-03     53.3189E-03
             334     4.02402E-03     71.0970E-03    -65.7629E+06    -191.131E+06    -43.2064E+06     136.371E+03    -112.824E-03     224.766E-03    -111.942E-03     67.7968E-03    -113.072E-03     224.228E-03    -111.785E-03     66.0614E-03
             335     4.82897E-03     71.1797E-03    -60.7471E+06    -181.334E+06    -33.1171E+06     72.2557E+03    -113.244E-03     225.195E-03    -111.952E-03     80.6959E-03    -113.631E-03     224.819E-03    -111.766E-03     78.5097E-03
             336     5.63392E-03     71.2768E-03    -55.9228E+06    -173.356E+06    -24.9877E+06    -37.4218E+03    -113.703E-03     225.661E-03    -111.958E-03     93.3457E-03    -114.269E-03     225.485E-03    -111.751E-03     90.6554E-03
             337     6.43886E-03     71.3877E-03    -51.4351E+06    -148.733E+06    -19.1144E+06     5.49529E+03    -114.141E-03     226.071E-03    -111.930E-03     105.847E-03    -114.960E-03     226.236E-03    -111.736E-03     102.597E-03
             338     7.24364E-03     71.5126E-03    -47.6166E+06    -132.351E+06    -13.4964E+06     262.790E+03    -114.585E-03     226.497E-03    -111.912E-03     118.192E-03    -115.721E-03     227.033E-03    -111.719E-03     114.307E-03
             339     8.04893E-03     71.6507E-03    -44.1044E+06    -119.456E+06    -9.04430E+06     186.473E+03    -115.034E-03     226.927E-03    -111.893E-03     130.647E-03    -116.576E-03     227.914E-03    -111.701E-03     126.034E-03
             340     8.85384E-03     71.8026E-03    -40.8258E+06    -89.5072E+06    -6.78838E+06    -64.8221E+03    -115.437E-03     227.274E-03    -111.837E-03     143.385E-03    -117.530E-03     228.925E-03    -111.682E-03     137.946E-03
             341     9.65890E-03     71.9685E-03    -37.9151E+06    -53.7490E+06    -2.73882E+06     240.471E+03    -115.727E-03     227.507E-03    -111.780E-03     156.356E-03    -118.555E-03     230.017E-03    -111.661E-03     149.987E-03
             342     10.4640E-03     72.1484E-03    -34.9271E+06     319.585E+03     3.81036E+06     470.799E+03    -115.942E-03     227.646E-03    -111.704E-03     171.306E-03    -119.812E-03     231.381E-03    -111.635E-03     163.853E-03
             343     11.2695E-03     72.3467E-03    -31.1138E+06     49.8715E+06     13.9138E+06    -146.394E+03    -116.430E-03     228.073E-03    -111.643E-03     192.608E-03    -121.891E-03     233.560E-03    -111.600E-03     183.792E-03
             344     12.0751E-03     72.5729E-03    -26.1100E+06     77.3195E+06     39.7911E+06    -243.542E+03    -117.806E-03     229.494E-03    -111.688E-03     225.341E-03    -125.909E-03     237.663E-03    -111.564E-03     214.786E-03
             345     12.8805E-03     72.8442E-03    -20.8344E+06     95.0281E+06     72.6686E+06     964.021E+03    -120.325E-03     232.127E-03    -111.802E-03     266.808E-03    -132.512E-03     244.366E-03    -111.546E-03     254.376E-03
             346     13.6849E-03     73.1678E-03    -16.3470E+06     107.448E+06     90.4406E+06     1.35844E+06    -121.509E-03     233.388E-03    -111.878E-03     295.593E-03    -137.826E-03     249.766E-03    -111.558E-03     282.714E-03
             347     14.4899E-03     73.5125E-03    -11.9845E+06     115.660E+06     95.0916E+06     48.8120E+03    -117.149E-03     229.018E-03    -111.869E-03     283.478E-03    -134.775E-03     246.736E-03    -111.544E-03     273.499E-03
             348     15.2944E-03     73.8116E-03    -5.64952E+06     120.904E+06     94.8230E+06    -645.356E+03    -111.580E-03     223.362E-03    -111.782E-03     201.425E-03    -123.369E-03     235.286E-03    -111.475E-03     196.088E-03
             349     804.740E-06     72.0975E-03    -77.9254E+06    -225.184E+06    -76.4939E+06     150.435E+03    -111.994E-03     223.908E-03    -111.914E-03     15.1363E-03    -111.958E-03     223.019E-03    -111.857E-03     14.7961E-03
             350     1.60944E-03     72.1209E-03    -75.5278E+06    -220.678E+06    -69.2858E+06     322.700E+03    -112.043E-03     223.977E-03    -111.935E-03     27.9485E-03    -112.039E-03     223.124E-03    -111.852E-03     27.3129E-03
             351     2.41438E-03     72.1597E-03    -72.6911E+06    -215.666E+06    -61.0279E+06     482.676E+03    -112.231E-03     224.168E-03    -111.937E-03     41.3714E-03    -112.281E-03     223.372E-03    -111.824E-03     40.4032E-03
             352     3.21911E-03     72.2134E-03    -69.0906E+06    -205.248E+06    -52.8636E+06     296.274E+03    -112.473E-03     224.405E-03    -111.932E-03     54.6508E-03    -112.604E-03     223.715E-03    -111.798E-03     53.3184E-03
             353     4.02419E-03     72.2818E-03    -64.6519E+06    -190.553E+06    -43.1185E+06    -276.259E+03    -112.817E-03     224.746E-03    -111.929E-03     67.7789E-03    -113.061E-03     224.208E-03    -111.774E-03     66.0386E-03
             354     4.82910E-03     72.3648E-03    -60.0611E+06    -181.414E+06    -33.2402E+06    -386.148E+03    -113.273E-03     225.215E-03    -111.942E-03     80.5959E-03    -113.656E-03     224.838E-03    -111.758E-03     78.4029E-03
             355     5.63390E-03     72.4619E-03    -55.5972E+06    -173.593E+06    -24.8666E+06    -38.7397E+03    -113.744E-03     225.701E-03    -111.957E-03     93.2615E-03    -114.307E-03     225.523E-03    -111.749E-03     90.5693E-03
             356     6.43871E-03     72.5728E-03    -51.7784E+06    -148.925E+06    -19.3764E+06     231.513E+03    -114.152E-03     226.084E-03    -111.932E-03     105.886E-03    -114.972E-03     226.248E-03    -111.738E-03     102.639E-03
             357     7.24386E-03     72.6977E-03    -47.9134E+06    -132.633E+06    -13.8453E+06     104.267E+03    -114.592E-03     226.506E-03    -111.914E-03     118.290E-03    -115.729E-03     227.042E-03    -111.721E-03     114.401E-03
             358     8.04862E-03     72.8356E-03    -43.9602E+06    -119.462E+06    -9.12725E+06     160.408E+03    -115.068E-03     226.964E-03    -111.896E-03     130.740E-03    -116.610E-03     227.952E-03    -111.705E-03     126.125E-03
             359     8.85376E-03     72.9878E-03    -40.7995E+06    -89.1250E+06    -6.51538E+06     365.273E+03    -115.453E-03     227.296E-03    -111.843E-03     143.449E-03    -117.547E-03     228.948E-03    -111.687E-03     138.019E-03
             360     9.65886E-03     73.1533E-03    -38.0339E+06    -54.0291E+06    -2.62840E+06     340.466E+03    -115.725E-03     227.511E-03    -111.786E-03     156.428E-03    -118.553E-03     230.020E-03    -111.666E-03     150.063E-03
             361     10.4641E-03     73.3335E-03    -34.5596E+06     749.682E+03     4.14575E+06    -256.767E+03    -115.938E-03     227.646E-03    -111.708E-03     171.335E-03    -119.808E-03     231.384E-03    -111.638E-03     163.871E-03
             362     11.2694E-03     73.5312E-03    -31.1765E+06     50.9757E+06     15.7797E+06    -1.11876E+06    -116.616E-03     228.277E-03    -111.661E-03     192.331E-03    -122.078E-03     233.764E-03    -111.611E-03     183.490E-03
             363     12.0747E-03     73.7578E-03    -28.1549E+06     75.9691E+06     39.7250E+06    -530.713E+03    -118.382E-03     230.114E-03    -111.732E-03     224.880E-03    -126.501E-03     238.287E-03    -111.602E-03     214.255E-03
             364     12.8791E-03     74.0302E-03    -24.0927E+06     91.9216E+06     69.0407E+06     554.877E+03    -120.939E-03     232.805E-03    -111.866E-03     267.574E-03    -133.183E-03     245.089E-03    -111.619E-03     255.031E-03
             365     13.6824E-03     74.3554E-03    -17.4107E+06     106.520E+06     88.8989E+06     634.570E+03    -121.322E-03     233.269E-03    -111.947E-03     297.719E-03    -137.805E-03     249.811E-03    -111.632E-03     284.801E-03
             366     14.4868E-03     74.6951E-03    -9.37198E+06     118.232E+06     97.9015E+06     788.777E+03    -116.715E-03     228.633E-03    -111.918E-03     284.168E-03    -134.348E-03     246.369E-03    -111.587E-03     274.291E-03
             367     15.2984E-03     74.9921E-03    -4.60496E+06     122.223E+06     96.5858E+06     459.304E+03    -111.405E-03     223.209E-03    -111.805E-03     203.296E-03    -123.173E-03     235.115E-03    -111.492E-03     198.059E-03
             368     804.854E-06     73.2824E-03    -78.1065E+06    -225.256E+06    -76.4370E+06    -223.883E+03    -111.883E-03     223.712E-03    -111.829E-03     15.0978E-03    -111.848E-03     222.823E-03    -111.772E-03     14.7537E-03
             369     1.60975E-03     73.3059E-03    -75.6103E+06    -221.573E+06    -70.5786E+06     184.109E+03    -112.093E-03     223.954E-03    -111.861E-03     27.9154E-03    -112.087E-03     223.098E-03    -111.783E-03     27.2782E-03
             370     2.41435E-03     73.3448E-03    -72.2324E+06    -216.020E+06    -61.9485E+06     691.489E+03    -112.275E-03     224.179E-03    -111.904E-03     41.2929E-03    -112.320E-03     223.381E-03    -111.796E-03     40.3274E-03
             371     3.21934E-03     73.3982E-03    -68.1871E+06    -204.507E+06    -52.2691E+06     228.171E+03    -112.522E-03     224.445E-03    -111.923E-03     54.5995E-03    -112.650E-03     223.757E-03    -111.789E-03     53.2647E-03
             372     4.02407E-03     73.4668E-03    -64.1831E+06    -190.057E+06    -43.0033E+06    -121.992E+03    -112.865E-03     224.795E-03    -111.930E-03     67.7483E-03    -113.107E-03     224.259E-03    -111.776E-03     66.0099E-03
             373     4.82888E-03     73.5498E-03    -60.3513E+06    -181.499E+06    -33.5919E+06    -72.1811E+03    -113.267E-03     225.214E-03    -111.947E-03     80.6200E-03    -113.651E-03     224.837E-03    -111.764E-03     78.4323E-03
             374     5.63384E-03     73.6469E-03    -56.3211E+06    -174.009E+06    -25.1360E+06     63.2070E+03    -113.700E-03     225.659E-03    -111.959E-03     93.3108E-03    -114.266E-03     225.480E-03    -111.751E-03     90.6219E-03
             375     6.43887E-03     73.7579E-03    -51.8946E+06    -149.306E+06    -19.4017E+06     260.947E+03    -114.116E-03     226.045E-03    -111.929E-03     105.912E-03    -114.936E-03     226.207E-03    -111.734E-03     102.667E-03
             376     7.24378E-03     73.8826E-03    -48.0435E+06    -132.522E+06    -13.7674E+06     226.479E+03    -114.598E-03     226.507E-03    -111.909E-03     118.331E-03    -115.737E-03     227.045E-03    -111.716E-03     114.444E-03
             377     8.04890E-03     74.0209E-03    -44.6814E+06    -119.431E+06    -9.13067E+06    -27.5842E+03    -115.072E-03     226.965E-03    -111.892E-03     130.795E-03    -116.617E-03     227.954E-03    -111.700E-03     126.178E-03
             378     8.85382E-03     74.1726E-03    -40.8329E+06    -89.4920E+06    -6.34834E+06     29.9163E+03    -115.445E-03     227.285E-03    -111.840E-03     143.538E-03    -117.538E-03     228.933E-03    -111.683E-03     138.108E-03
             379     9.65892E-03     74.3386E-03    -36.8905E+06    -54.1326E+06    -2.05350E+06    -12.8563E+03    -115.761E-03     227.545E-03    -111.784E-03     156.498E-03    -118.587E-03     230.054E-03    -111.662E-03     150.122E-03
             380     10.4641E-03     74.5182E-03    -33.9608E+06     1.54984E+06     4.54737E+06    -327.375E+03    -116.113E-03     227.825E-03    -111.712E-03     171.323E-03    -119.987E-03     231.571E-03    -111.643E-03     163.839E-03
             381     11.2692E-03     74.7166E-03    -31.8385E+06     51.5809E+06     15.8417E+06     106.483E+03    -116.963E-03     228.646E-03    -111.684E-03     192.611E-03    -122.439E-03     234.147E-03    -111.633E-03     183.757E-03
             382     12.0735E-03     74.9438E-03    -29.2917E+06     74.9318E+06     38.7511E+06     598.883E+03    -118.361E-03     230.117E-03    -111.756E-03     226.039E-03    -126.502E-03     238.308E-03    -111.629E-03     215.431E-03
             383     12.8780E-03     75.2164E-03    -24.2456E+06     91.7390E+06     68.7356E+06     208.414E+03    -120.174E-03     232.023E-03    -111.849E-03     270.313E-03    -132.471E-03     244.360E-03    -111.603E-03     257.846E-03
             384     13.6850E-03     75.5409E-03    -16.9314E+06     107.115E+06     89.6305E+06    -584.963E+03    -120.261E-03     232.120E-03    -111.858E-03     300.048E-03    -136.776E-03     248.694E-03    -111.541E-03     287.295E-03
             385     14.4930E-03     75.8815E-03    -10.1476E+06     117.890E+06     97.1859E+06     26.9305E+03    -117.565E-03     229.376E-03    -111.811E-03     285.841E-03    -135.447E-03     247.359E-03    -111.482E-03     275.825E-03
             386     15.2933E-03     76.1749E-03    -4.94671E+06     121.928E+06     95.7157E+06     688.626E+03    -112.749E-03     224.510E-03    -111.761E-03     203.449E-03    -124.740E-03     236.638E-03    -111.452E-03     197.926E-03
             387     804.963E-06     74.4670E-03    -77.4670E+06    -225.017E+06    -75.8532E+06    -83.6618E+03    -111.946E-03     223.723E-03    -111.777E-03     15.1006E-03    -111.909E-03     222.834E-03    -111.718E-03     14.7572E-03
             388     1.60956E-03     74.4911E-03    -75.7467E+06    -222.087E+06    -71.4248E+06    -217.640E+03    -112.061E-03     223.916E-03    -111.855E-03     27.8229E-03    -112.054E-03     223.059E-03    -111.780E-03     27.1811E-03
             389     2.41450E-03     74.5296E-03    -72.7681E+06    -216.271E+06    -64.1287E+06    -324.945E+03    -112.269E-03     224.154E-03    -111.885E-03     41.2345E-03    -112.314E-03     223.359E-03    -111.787E-03     40.2576E-03
             390     3.21916E-03     74.5834E-03    -68.8505E+06    -204.170E+06    -53.1383E+06    -14.2298E+03    -112.550E-03     224.464E-03    -111.915E-03     54.6429E-03    -112.680E-03     223.779E-03    -111.785E-03     53.3063E-03
             391     4.02405E-03     74.6518E-03    -64.9616E+06    -190.688E+06    -42.1702E+06     621.537E+03    -112.850E-03     224.785E-03    -111.935E-03     67.8229E-03    -113.096E-03     224.246E-03    -111.775E-03     66.0945E-03
             392     4.82904E-03     74.7348E-03    -61.0028E+06    -181.472E+06    -32.7222E+06     767.641E+03    -113.233E-03     225.179E-03    -111.946E-03     80.7659E-03    -113.622E-03     224.802E-03    -111.758E-03     78.5913E-03
             393     5.63393E-03     74.8319E-03    -56.6443E+06    -173.392E+06    -24.5774E+06     176.244E+03    -113.691E-03     225.644E-03    -111.953E-03     93.3744E-03    -114.261E-03     225.468E-03    -111.742E-03     90.6878E-03
             394     6.43884E-03     74.9428E-03    -52.2867E+06    -149.614E+06    -19.1289E+06    -78.5414E+03    -114.132E-03     226.056E-03    -111.924E-03     105.924E-03    -114.955E-03     226.217E-03    -111.727E-03     102.672E-03
             395     7.24391E-03     75.0677E-03    -47.8402E+06    -132.534E+06    -13.3975E+06     81.7126E+03    -114.589E-03     226.494E-03    -111.905E-03     118.343E-03    -115.726E-03     227.030E-03    -111.710E-03     114.456E-03
             396     8.04875E-03     75.2058E-03    -43.6833E+06    -119.034E+06    -8.54424E+06     33.3348E+03    -115.017E-03     226.902E-03    -111.885E-03     130.774E-03    -116.557E-03     227.889E-03    -111.692E-03     126.163E-03
             397     8.85394E-03     75.3578E-03    -40.5834E+06    -89.4311E+06    -6.56135E+06    -275.820E+03    -115.419E-03     227.245E-03    -111.826E-03     143.604E-03    -117.509E-03     228.893E-03    -111.671E-03     138.174E-03
             398     9.65907E-03     75.5234E-03    -37.9713E+06    -54.0150E+06    -3.04068E+06    -662.363E+03    -115.849E-03     227.619E-03    -111.771E-03     156.667E-03    -118.682E-03     230.135E-03    -111.653E-03     150.275E-03
             399     10.4641E-03     75.7037E-03    -35.2760E+06     833.850E+03     3.51010E+06     139.329E+03    -116.255E-03     227.964E-03    -111.709E-03     171.663E-03    -120.140E-03     231.717E-03    -111.641E-03     164.172E-03
             400     11.2687E-03     75.9020E-03    -32.5160E+06     50.0848E+06     13.8626E+06     1.34173E+06    -116.699E-03     228.366E-03    -111.668E-03     193.488E-03    -122.177E-03     233.867E-03    -111.624E-03     184.675E-03
             401     12.0742E-03     76.1298E-03    -28.3285E+06     75.3758E+06     38.2106E+06     906.983E+03    -117.571E-03     229.271E-03    -111.700E-03     227.023E-03    -125.699E-03     237.455E-03    -111.577E-03     216.506E-03
             402     12.8817E-03     76.4002E-03    -22.1413E+06     93.7620E+06     70.9820E+06     145.195E+03    -119.389E-03     231.141E-03    -111.751E-03     270.539E-03    -131.673E-03     243.473E-03    -111.500E-03     258.177E-03
             403     13.6877E-03     76.7268E-03    -16.5842E+06     107.561E+06     90.5100E+06     34.5561E+03    -120.115E-03     231.858E-03    -111.743E-03     298.073E-03    -136.521E-03     248.324E-03    -111.422E-03     285.390E-03
             404     14.4931E-03     77.0629E-03    -11.5425E+06     116.692E+06     95.9752E+06    -115.035E+03    -117.696E-03     229.404E-03    -111.708E-03     285.297E-03    -135.615E-03     247.418E-03    -111.380E-03     275.256E-03
             405     15.2997E-03     77.3716E-03    -5.04950E+06     121.649E+06     95.2668E+06    -135.197E+03    -113.361E-03     225.048E-03    -111.687E-03     202.144E-03    -125.340E-03     237.165E-03    -111.380E-03     196.492E-03
             406     804.595E-06     75.6522E-03    -77.3876E+06    -225.214E+06    -76.0138E+06     216.596E+03    -112.026E-03     223.775E-03    -111.749E-03     15.2868E-03    -111.988E-03     222.885E-03    -111.690E-03     14.9465E-03
             407     1.60963E-03     75.6759E-03    -75.5473E+06    -221.452E+06    -70.4173E+06    -44.2349E+03    -112.021E-03     223.891E-03    -111.871E-03     27.9002E-03    -112.015E-03     223.035E-03    -111.792E-03     27.2602E-03
             408     2.41440E-03     75.7146E-03    -73.0610E+06    -215.918E+06    -63.1799E+06    -471.691E+03    -112.236E-03     224.120E-03    -111.884E-03     41.3265E-03    -112.284E-03     223.326E-03    -111.781E-03     40.3491E-03
             409     3.21933E-03     75.7684E-03    -70.0502E+06    -205.288E+06    -54.0799E+06     90.0503E+03    -112.510E-03     224.410E-03    -111.900E-03     54.7140E-03    -112.643E-03     223.722E-03    -111.771E-03     53.3816E-03
             410     4.02419E-03     75.8368E-03    -65.7630E+06    -191.743E+06    -42.3920E+06     780.022E+03    -112.835E-03     224.755E-03    -111.920E-03     67.8364E-03    -113.084E-03     224.212E-03    -111.758E-03     66.1105E-03
             411     4.82908E-03     75.9197E-03    -60.5850E+06    -181.475E+06    -31.8095E+06     911.747E+03    -113.237E-03     225.173E-03    -111.936E-03     80.7282E-03    -113.625E-03     224.794E-03    -111.744E-03     78.5553E-03
             412     5.63403E-03     76.0170E-03    -55.8815E+06    -172.722E+06    -23.7075E+06     798.069E+03    -113.693E-03     225.636E-03    -111.943E-03     93.3657E-03    -114.260E-03     225.461E-03    -111.730E-03     90.6881E-03
             413     6.43892E-03     76.1278E-03    -51.9123E+06    -148.927E+06    -18.5044E+06     195.893E+03    -114.138E-03     226.053E-03    -111.915E-03     105.974E-03    -114.960E-03     226.216E-03    -111.717E-03     102.728E-03
             414     7.24383E-03     76.2527E-03    -48.1897E+06    -132.231E+06    -13.9282E+06    -437.674E+03    -114.562E-03     226.454E-03    -111.892E-03     118.410E-03    -115.701E-03     226.992E-03    -111.700E-03     114.520E-03
             415     8.04903E-03     76.3908E-03    -44.5510E+06    -119.080E+06    -9.31415E+06    -404.153E+03    -115.001E-03     226.872E-03    -111.871E-03     130.802E-03    -116.543E-03     227.860E-03    -111.680E-03     126.189E-03
             416     8.85412E-03     76.5425E-03    -41.0670E+06    -89.1608E+06    -6.35080E+06    -121.640E+03    -115.437E-03     227.254E-03    -111.817E-03     143.579E-03    -117.531E-03     228.904E-03    -111.660E-03     138.146E-03
             417     9.65919E-03     76.7087E-03    -38.2048E+06    -53.7275E+06    -2.64091E+06    -110.240E+03    -115.844E-03     227.607E-03    -111.764E-03     156.781E-03    -118.678E-03     230.123E-03    -111.643E-03     150.400E-03
             418     10.4641E-03     76.8890E-03    -35.4965E+06    -769.972E+03     3.37623E+06     250.410E+03    -115.997E-03     227.688E-03    -111.691E-03     171.920E-03    -119.878E-03     231.431E-03    -111.622E-03     164.453E-03
             419     11.2697E-03     77.0874E-03    -31.7969E+06     49.0483E+06     13.5892E+06     763.762E+03    -116.167E-03     227.787E-03    -111.619E-03     193.347E-03    -121.627E-03     233.269E-03    -111.577E-03     184.575E-03
             420     12.0763E-03     77.3131E-03    -26.9829E+06     76.4843E+06     38.9212E+06     647.904E+03    -117.363E-03     228.998E-03    -111.635E-03     226.045E-03    -125.466E-03     237.164E-03    -111.512E-03     215.549E-03
             421     12.8811E-03     77.5851E-03    -22.4024E+06     93.5812E+06     71.0949E+06     383.389E+03    -119.627E-03     231.331E-03    -111.705E-03     268.475E-03    -131.865E-03     243.616E-03    -111.452E-03     256.103E-03
             422     13.6873E-03     77.9094E-03    -16.8626E+06     107.469E+06     90.3844E+06     565.220E+03    -120.745E-03     232.482E-03    -111.737E-03     296.645E-03    -137.090E-03     248.886E-03    -111.416E-03     283.899E-03
             423     14.4917E-03     78.2510E-03    -10.1948E+06     117.932E+06     97.3482E+06     319.334E+03    -117.576E-03     229.304E-03    -111.728E-03     283.787E-03    -135.323E-03     247.151E-03    -111.397E-03     273.774E-03
             424     15.2978E-03     78.5498E-03    -5.05651E+06     121.848E+06     95.8794E+06    -140.749E+03    -113.114E-03     224.815E-03    -111.701E-03     200.168E-03    -124.935E-03     236.773E-03    -111.391E-03     194.613E-03
             425     805.029E-06     76.8372E-03    -77.8189E+06    -225.413E+06    -76.4671E+06    -33.0122E+03    -111.883E-03     223.693E-03    -111.809E-03     15.3081E-03    -111.847E-03     222.803E-03    -111.752E-03     14.9646E-03
             426     1.60963E-03     76.8608E-03    -75.4479E+06    -221.120E+06    -69.6996E+06    -33.8346E+03    -112.036E-03     223.881E-03    -111.845E-03     27.9451E-03    -112.032E-03     223.026E-03    -111.763E-03     27.3047E-03
             427     2.41452E-03     76.8996E-03    -72.1742E+06    -215.860E+06    -61.5509E+06     183.334E+03    -112.236E-03     224.111E-03    -111.876E-03     41.3249E-03    -112.282E-03     223.314E-03    -111.766E-03     40.3547E-03
             428     3.21933E-03     76.9532E-03    -68.3339E+06    -206.491E+06    -52.7093E+06     472.632E+03    -112.496E-03     224.388E-03    -111.892E-03     54.6516E-03    -112.620E-03     223.690E-03    -111.757E-03     53.3236E-03
             429     4.02425E-03     77.0218E-03    -64.3545E+06    -192.612E+06    -42.5500E+06     922.352E+03    -112.843E-03     224.747E-03    -111.905E-03     67.8166E-03    -113.082E-03     224.198E-03    -111.745E-03     66.0935E-03
             430     4.82909E-03     77.1048E-03    -60.5209E+06    -181.714E+06    -32.5882E+06     1.19550E+06    -113.237E-03     225.158E-03    -111.921E-03     80.7267E-03    -113.623E-03     224.778E-03    -111.733E-03     78.5579E-03
             431     5.63403E-03     77.2018E-03    -56.2184E+06    -172.384E+06    -24.0274E+06     949.718E+03    -113.675E-03     225.606E-03    -111.930E-03     93.4173E-03    -114.244E-03     225.433E-03    -111.719E-03     90.7431E-03
             432     6.43903E-03     77.3129E-03    -51.4601E+06    -147.596E+06    -18.0747E+06     71.3294E+03    -114.116E-03     226.019E-03    -111.903E-03     105.966E-03    -114.938E-03     226.187E-03    -111.704E-03     102.720E-03
             433     7.24413E-03     77.4376E-03    -47.0150E+06    -131.886E+06    -12.5786E+06    -370.275E+03    -114.569E-03     226.454E-03    -111.885E-03     118.283E-03    -115.704E-03     226.990E-03    -111.688E-03     114.392E-03
             434     8.04906E-03     77.5757E-03    -43.3241E+06    -119.328E+06    -8.21157E+06    -26.8761E+03    -115.044E-03     226.911E-03    -111.867E-03     130.684E-03    -116.582E-03     227.896E-03    -111.672E-03     126.070E-03
             435     8.85402E-03     77.7277E-03    -40.2911E+06    -89.6331E+06    -5.70023E+06     46.1001E+03    -115.456E-03     227.273E-03    -111.817E-03     143.536E-03    -117.549E-03     228.921E-03    -111.657E-03     138.099E-03
             436     9.65907E-03     77.8935E-03    -37.4589E+06    -54.3332E+06    -2.13659E+06     529.632E+03    -115.684E-03     227.441E-03    -111.757E-03     156.824E-03    -118.512E-03     229.949E-03    -111.634E-03     150.465E-03
             437     10.4645E-03     78.0742E-03    -34.6443E+06    -759.452E+03     4.10031E+06     515.960E+03    -115.700E-03     227.369E-03    -111.668E-03     171.564E-03    -119.571E-03     231.101E-03    -111.597E-03     164.127E-03
             438     11.2704E-03     78.2710E-03    -31.4652E+06     49.3735E+06     15.0578E+06    -25.4178E+03    -116.240E-03     227.839E-03    -111.598E-03     192.438E-03    -121.691E-03     233.309E-03    -111.549E-03     183.651E-03
             439     12.0753E-03     78.4980E-03    -27.6949E+06     76.1016E+06     39.4219E+06     198.946E+03    -117.821E-03     229.458E-03    -111.638E-03     225.106E-03    -125.919E-03     237.614E-03    -111.511E-03     214.564E-03
             440     12.8813E-03     78.7696E-03    -22.6485E+06     93.3180E+06     70.8586E+06     1.07096E+06    -120.140E-03     231.880E-03    -111.740E-03     267.756E-03    -132.360E-03     244.145E-03    -111.488E-03     255.334E-03
             441     13.6858E-03     79.0946E-03    -16.6817E+06     107.762E+06     90.3654E+06     715.113E+03    -120.858E-03     232.649E-03    -111.790E-03     296.750E-03    -137.186E-03     249.037E-03    -111.470E-03     283.970E-03
             442     14.4919E-03     79.4357E-03    -10.2639E+06     118.144E+06     97.4015E+06    -55.2035E+03    -118.115E-03     229.909E-03    -111.794E-03     283.978E-03    -135.842E-03     247.737E-03    -111.463E-03     273.850E-03
             443     15.2959E-03     79.7356E-03    -5.01272E+06     122.143E+06     96.1521E+06     251.175E+03    -113.039E-03     224.814E-03    -111.776E-03     200.999E-03    -124.906E-03     236.818E-03    -111.465E-03     195.441E-03
             444     804.715E-06     78.0218E-03    -77.3726E+06    -224.849E+06    -75.7564E+06    -422.782E+03    -111.859E-03     223.698E-03    -111.839E-03     15.2736E-03    -111.822E-03     222.810E-03    -111.780E-03     14.9244E-03
             445     1.60976E-03     78.0458E-03    -75.1389E+06    -221.344E+06    -70.1507E+06    -135.679E+03    -112.007E-03     223.845E-03    -111.838E-03     27.9109E-03    -112.000E-03     222.989E-03    -111.759E-03     27.2711E-03
             446     2.41446E-03     78.0844E-03    -72.3058E+06    -216.457E+06    -62.4989E+06     234.955E+03    -112.240E-03     224.103E-03    -111.863E-03     41.2800E-03    -112.284E-03     223.303E-03    -111.757E-03     40.3100E-03
             447     3.21936E-03     78.1381E-03    -68.7749E+06    -206.956E+06    -53.1205E+06     276.003E+03    -112.508E-03     224.395E-03    -111.887E-03     54.6507E-03    -112.634E-03     223.696E-03    -111.753E-03     53.3190E-03
             448     4.02421E-03     78.2067E-03    -64.2495E+06    -194.147E+06    -42.9991E+06     768.948E+03    -112.825E-03     224.726E-03    -111.901E-03     67.8011E-03    -113.061E-03     224.169E-03    -111.741E-03     66.0769E-03
             449     4.82924E-03     78.2897E-03    -59.0399E+06    -182.000E+06    -32.4160E+06     1.37578E+06    -113.227E-03     225.140E-03    -111.914E-03     80.6755E-03    -113.605E-03     224.757E-03    -111.726E-03     78.5102E-03
             450     5.63416E-03     78.3868E-03    -54.0580E+06    -171.147E+06    -22.8617E+06     701.808E+03    -113.689E-03     225.615E-03    -111.925E-03     93.3471E-03    -114.251E-03     225.443E-03    -111.713E-03     90.6685E-03
             451     6.43907E-03     78.4978E-03    -49.9501E+06    -147.162E+06    -16.9360E+06     410.948E+03    -114.127E-03     226.029E-03    -111.902E-03     105.867E-03    -114.944E-03     226.195E-03    -111.701E-03     102.624E-03
             452     7.24398E-03     78.6226E-03    -47.1234E+06    -131.626E+06    -11.9791E+06     541.490E+03    -114.582E-03     226.468E-03    -111.886E-03     118.169E-03    -115.719E-03     227.005E-03    -111.687E-03     114.287E-03
             453     8.04897E-03     78.7607E-03    -44.0594E+06    -119.239E+06    -8.31595E+06    -73.9396E+03    -115.028E-03     226.896E-03    -111.867E-03     130.695E-03    -116.572E-03     227.883E-03    -111.672E-03     126.078E-03
             454     8.85410E-03     78.9126E-03    -40.2840E+06    -90.2136E+06    -6.11662E+06    -238.549E+03    -115.390E-03     227.201E-03    -111.811E-03     143.606E-03    -117.481E-03     228.847E-03    -111.652E-03     138.169E-03
             455     9.65930E-03     79.0785E-03    -36.7538E+06    -55.7030E+06    -1.92730E+06     461.239E+03    -115.593E-03     227.342E-03    -111.748E-03     156.617E-03    -118.413E-03     229.838E-03    -111.624E-03     150.266E-03
             456     10.4648E-03     79.2583E-03    -33.6992E+06    -612.847E+03     4.84425E+06     1.15058E+06    -115.840E-03     227.504E-03    -111.664E-03     171.173E-03    -119.704E-03     231.232E-03    -111.590E-03     163.734E-03
             457     11.2698E-03     79.4561E-03    -31.2702E+06     50.4309E+06     16.4536E+06     987.841E+03    -116.576E-03     228.193E-03    -111.617E-03     192.170E-03    -122.029E-03     233.666E-03    -111.562E-03     183.371E-03
             458     12.0753E-03     79.6830E-03    -28.4599E+06     75.8396E+06     40.3452E+06     543.220E+03    -118.035E-03     229.710E-03    -111.675E-03     225.267E-03    -126.142E-03     237.869E-03    -111.542E-03     214.710E-03
             459     12.8797E-03     79.9545E-03    -23.3411E+06     92.7553E+06     70.3834E+06     501.123E+03    -120.171E-03     231.944E-03    -111.772E-03     268.532E-03    -132.406E-03     244.221E-03    -111.521E-03     256.089E-03
             460     13.6854E-03     80.2798E-03    -16.2960E+06     108.375E+06     90.6803E+06     518.421E+03    -121.292E-03     233.121E-03    -111.829E-03     297.527E-03    -137.674E-03     249.567E-03    -111.509E-03     284.649E-03
             461     14.4906E-03     80.6194E-03    -10.6523E+06     118.249E+06     97.2294E+06     470.045E+03    -118.036E-03     229.872E-03    -111.836E-03     284.784E-03    -135.828E-03     247.764E-03    -111.505E-03     274.683E-03
             462     15.2946E-03     80.9253E-03    -5.16243E+06     121.970E+06     95.7443E+06     281.199E+03    -112.084E-03     223.866E-03    -111.782E-03     201.738E-03    -123.948E-03     235.868E-03    -111.473E-03     196.314E-03
             463     804.828E-06     79.2067E-03    -76.9780E+06    -224.567E+06    -75.0133E+06     348.517E+03    -112.015E-03     223.756E-03    -111.740E-03     15.1936E-03    -111.978E-03     222.867E-03    -111.678E-03     14.8574E-03
             464     1.60956E-03     79.2306E-03    -75.4086E+06    -221.411E+06    -70.0049E+06     40.2367E+03    -111.988E-03     223.845E-03    -111.857E-03     27.9585E-03    -111.982E-03     222.988E-03    -111.776E-03     27.3215E-03
             465     2.41457E-03     79.2694E-03    -72.5452E+06    -216.939E+06    -63.2287E+06    -11.1646E+03    -112.222E-03     224.087E-03    -111.865E-03     41.2733E-03    -112.265E-03     223.286E-03    -111.761E-03     40.3006E-03
             466     3.21933E-03     79.3230E-03    -68.8298E+06    -207.323E+06    -53.4236E+06     351.241E+03    -112.506E-03     224.393E-03    -111.886E-03     54.6280E-03    -112.631E-03     223.692E-03    -111.753E-03     53.2960E-03
             467     4.02426E-03     79.3916E-03    -65.1347E+06    -195.340E+06    -43.3013E+06     499.757E+03    -112.830E-03     224.733E-03    -111.903E-03     67.7723E-03    -113.068E-03     224.172E-03    -111.742E-03     66.0434E-03
             468     4.82909E-03     79.4746E-03    -60.7363E+06    -181.827E+06    -34.5869E+06     107.020E+03    -113.235E-03     225.143E-03    -111.908E-03     80.7029E-03    -113.619E-03     224.766E-03    -111.729E-03     78.5220E-03
             469     5.63403E-03     79.5719E-03    -55.7946E+06    -170.518E+06    -24.8167E+06     49.0481E+03    -113.693E-03     225.614E-03    -111.921E-03     93.3354E-03    -114.261E-03     225.451E-03    -111.717E-03     90.6493E-03
             470     6.43898E-03     79.6828E-03    -51.2845E+06    -148.396E+06    -17.6574E+06     624.893E+03    -114.107E-03     226.012E-03    -111.905E-03     105.862E-03    -114.927E-03     226.175E-03    -111.704E-03     102.623E-03
             471     7.24404E-03     79.8077E-03    -46.7788E+06    -131.564E+06    -11.6908E+06     1.24225E+06    -114.556E-03     226.444E-03    -111.887E-03     118.243E-03    -115.692E-03     226.980E-03    -111.687E-03     114.374E-03
             472     8.04907E-03     79.9455E-03    -43.2060E+06    -117.664E+06    -6.98421E+06     748.921E+03    -115.005E-03     226.873E-03    -111.868E-03     130.669E-03    -116.549E-03     227.866E-03    -111.669E-03     126.062E-03
             473     8.85417E-03     80.0976E-03    -40.6746E+06    -89.9546E+06    -5.46598E+06    -257.616E+03    -115.350E-03     227.160E-03    -111.810E-03     143.451E-03    -117.442E-03     228.804E-03    -111.648E-03     138.020E-03
             474     9.65938E-03     80.2632E-03    -38.2409E+06    -57.5997E+06    -2.45559E+06     251.079E+03    -115.659E-03     227.409E-03    -111.749E-03     156.367E-03    -118.482E-03     229.898E-03    -111.623E-03     150.007E-03
             475     10.4644E-03     80.4432E-03    -35.6465E+06    -1.26551E+06     4.08246E+06     1.03616E+06    -116.040E-03     227.713E-03    -111.674E-03     171.310E-03    -119.913E-03     231.444E-03    -111.600E-03     163.857E-03
             476     11.2696E-03     80.6415E-03    -32.2469E+06     50.6857E+06     15.3489E+06     1.37015E+06    -116.604E-03     228.232E-03    -111.628E-03     192.449E-03    -122.063E-03     233.712E-03    -111.578E-03     183.653E-03
             477     12.0746E-03     80.8677E-03    -27.8503E+06     76.2330E+06     39.8978E+06     1.36795E+06    -117.949E-03     229.630E-03    -111.681E-03     225.838E-03    -126.063E-03     237.800E-03    -111.552E-03     215.293E-03
             478     12.8808E-03     81.1403E-03    -22.4253E+06     93.7799E+06     71.4917E+06     353.771E+03    -120.202E-03     231.982E-03    -111.780E-03     268.761E-03    -132.458E-03     244.283E-03    -111.526E-03     256.291E-03
             479     13.6865E-03     81.4643E-03    -17.1388E+06     107.818E+06     90.3673E+06     351.362E+03    -121.255E-03     233.083E-03    -111.828E-03     298.729E-03    -137.689E-03     249.577E-03    -111.508E-03     285.851E-03
             480     14.4888E-03     81.8097E-03    -11.5495E+06     118.276E+06     96.5433E+06     694.147E+03    -117.404E-03     229.210E-03    -111.806E-03     285.496E-03    -135.240E-03     247.145E-03    -111.478E-03     275.537E-03
             481     15.2989E-03     82.1015E-03    -5.07771E+06     122.611E+06     95.9461E+06    -85.5014E+03    -112.088E-03     223.828E-03    -111.740E-03     201.570E-03    -123.996E-03     235.875E-03    -111.431E-03     196.163E-03
             482     804.790E-06     80.3915E-03    -77.5885E+06    -225.531E+06    -76.4502E+06     585.999E+03    -111.979E-03     223.718E-03    -111.739E-03     15.1134E-03    -111.941E-03     222.827E-03    -111.682E-03     14.7820E-03
             483     1.60969E-03     80.4155E-03    -75.5921E+06    -221.416E+06    -69.8322E+06     687.215E+03    -112.032E-03     223.885E-03    -111.854E-03     27.9913E-03    -112.027E-03     223.029E-03    -111.772E-03     27.3617E-03
             484     2.41440E-03     80.4541E-03    -73.0771E+06    -216.782E+06    -62.4533E+06     323.882E+03    -112.232E-03     224.110E-03    -111.878E-03     41.2987E-03    -112.280E-03     223.310E-03    -111.770E-03     40.3288E-03
             485     3.21935E-03     80.5081E-03    -69.5034E+06    -207.885E+06    -53.8066E+06     129.014E+03    -112.506E-03     224.401E-03    -111.895E-03     54.6048E-03    -112.633E-03     223.699E-03    -111.762E-03     53.2694E-03
             486     4.02420E-03     80.5764E-03    -64.4594E+06    -195.257E+06    -43.4996E+06      1.1435E+03    -112.851E-03     224.761E-03    -111.910E-03     67.7332E-03    -113.086E-03     224.200E-03    -111.751E-03     65.9968E-03
             487     4.82918E-03     80.6596E-03    -59.6670E+06    -181.236E+06    -34.0053E+06    -247.715E+03    -113.236E-03     225.153E-03    -111.917E-03     80.6883E-03    -113.616E-03     224.777E-03    -111.738E-03     78.5024E-03
             488     5.63407E-03     80.7568E-03    -55.5307E+06    -171.385E+06    -25.1400E+06    -2.28032E+03    -113.654E-03     225.579E-03    -111.925E-03     93.3778E-03    -114.219E-03     225.412E-03    -111.722E-03     90.6938E-03
             489     6.43899E-03     80.8679E-03    -51.3414E+06    -149.433E+06    -17.8118E+06     472.483E+03    -114.079E-03     225.984E-03    -111.905E-03     105.904E-03    -114.898E-03     226.142E-03    -111.703E-03     102.665E-03
             490     7.24409E-03     80.9924E-03    -47.4414E+06    -132.555E+06    -11.7659E+06     939.662E+03    -114.544E-03     226.430E-03    -111.886E-03     118.263E-03    -115.681E-03     226.962E-03    -111.684E-03     114.391E-03
             491     8.04905E-03     81.1309E-03    -43.5127E+06    -116.552E+06    -6.56735E+06     1.06885E+06    -115.032E-03     226.898E-03    -111.867E-03     130.620E-03    -116.579E-03     227.896E-03    -111.667E-03     126.018E-03
             492     8.85411E-03     81.2821E-03    -40.1869E+06    -89.1364E+06    -2.91474E+06     1.06940E+06    -115.401E-03     227.225E-03    -111.824E-03     143.242E-03    -117.496E-03     228.869E-03    -111.651E-03     137.823E-03
             493     9.65924E-03     81.4483E-03    -37.5634E+06    -58.4869E+06    -717.153E+03     1.03437E+06    -115.743E-03     227.510E-03    -111.767E-03     156.363E-03    -118.564E-03     229.992E-03    -111.632E-03     150.006E-03
             494     10.4644E-03     81.6280E-03    -34.5799E+06    -1.62008E+06     4.10818E+06     1.26076E+06    -116.039E-03     227.722E-03    -111.683E-03     171.430E-03    -119.905E-03     231.448E-03    -111.610E-03     163.982E-03
             495     11.2697E-03     81.8269E-03    -31.5696E+06     50.0827E+06     14.9776E+06     1.46123E+06    -116.499E-03     228.131E-03    -111.632E-03     192.348E-03    -121.951E-03     233.605E-03    -111.584E-03     183.560E-03
             496     12.0755E-03     82.0521E-03    -27.5389E+06     76.5941E+06     39.3780E+06     837.247E+03    -117.971E-03     229.652E-03    -111.681E-03     225.618E-03    -126.082E-03     237.823E-03    -111.555E-03     215.055E-03
             497     12.8802E-03     82.3257E-03    -22.4028E+06     93.7303E+06     71.1529E+06     905.903E+03    -120.330E-03     232.118E-03    -111.788E-03     268.719E-03    -132.609E-03     244.443E-03    -111.536E-03     256.228E-03
             498     13.6840E-03     82.6498E-03    -16.6728E+06     107.774E+06     90.7858E+06     1.36524E+06    -120.210E-03     232.026E-03    -111.816E-03     297.876E-03    -136.552E-03     248.428E-03    -111.494E-03     285.208E-03
             499     14.4951E-03     82.9922E-03    -10.9738E+06     119.524E+06     97.3034E+06     589.824E+03    -116.814E-03     228.563E-03    -111.750E-03     285.427E-03    -134.583E-03     246.436E-03    -111.421E-03     275.566E-03
             500     15.2958E-03     83.2903E-03    -5.01715E+06     123.324E+06     96.3424E+06    -210.835E+03    -113.141E-03     224.836E-03    -111.695E-03     202.266E-03    -125.100E-03     236.936E-03    -111.385E-03     196.696E-03
             501     804.920E-06     81.5765E-03    -78.1608E+06    -226.050E+06    -77.2192E+06    -345.461E+03    -111.906E-03     223.714E-03    -111.808E-03     15.1979E-03    -111.869E-03     222.823E-03    -111.753E-03     14.8498E-03
             502     1.60962E-03     81.6004E-03    -75.8175E+06    -222.437E+06    -71.6871E+06     355.358E+03    -112.040E-03     223.888E-03    -111.847E-03     27.9689E-03    -112.033E-03     223.029E-03    -111.773E-03     27.3342E-03
             503     2.41452E-03     81.6392E-03    -72.5258E+06    -216.582E+06    -62.4442E+06     778.061E+03    -112.270E-03     224.154E-03    -111.884E-03     41.3152E-03    -112.316E-03     223.355E-03    -111.777E-03     40.3507E-03
             504     3.21925E-03     81.6928E-03    -68.7950E+06    -206.767E+06    -52.4226E+06    -90.8174E+03    -112.543E-03     224.457E-03    -111.914E-03     54.5858E-03    -112.671E-03     223.758E-03    -111.777E-03     53.2473E-03
             505     4.02414E-03     81.7615E-03    -64.6977E+06    -194.895E+06    -43.1603E+06    -921.935E+03    -112.854E-03     224.782E-03    -111.928E-03     67.7297E-03    -113.091E-03     224.223E-03    -111.768E-03     65.9817E-03
             506     4.82893E-03     81.8445E-03    -60.0446E+06    -181.777E+06    -34.0346E+06    -589.044E+03    -113.205E-03     225.136E-03    -111.931E-03     80.6613E-03    -113.586E-03     224.757E-03    -111.750E-03     78.4714E-03
             507     5.63399E-03     81.9417E-03    -55.4832E+06    -172.240E+06    -25.0218E+06     109.789E+03    -113.610E-03     225.542E-03    -111.932E-03     93.3150E-03    -114.173E-03     225.370E-03    -111.727E-03     90.6335E-03
             508     6.43912E-03     82.0526E-03    -51.6016E+06    -150.343E+06    -18.2190E+06     934.643E+03    -114.068E-03     225.974E-03    -111.906E-03     105.853E-03    -114.885E-03     226.128E-03    -111.704E-03     102.621E-03
             509     7.24401E-03     82.1776E-03    -48.0930E+06    -133.173E+06    -11.8575E+06     1.42645E+06    -114.554E-03     226.443E-03    -111.889E-03     118.198E-03    -115.694E-03     226.973E-03    -111.685E-03     114.329E-03
             510     8.04913E-03     82.3154E-03    -44.9105E+06    -116.464E+06    -7.35681E+06     1.12966E+06    -115.031E-03     226.898E-03    -111.867E-03     130.643E-03    -116.582E-03     227.897E-03    -111.670E-03     126.046E-03
             511     8.85403E-03     82.4678E-03    -41.3420E+06    -89.3392E+06     -3.8439E+06     904.757E+03    -115.470E-03     227.297E-03    -111.826E-03     143.230E-03    -117.571E-03     228.944E-03    -111.656E-03     137.803E-03
             512     9.65913E-03     82.6325E-03    -37.6665E+06    -58.5960E+06    -474.351E+03     1.24598E+06    -115.806E-03     227.586E-03    -111.779E-03     156.382E-03    -118.630E-03     230.069E-03    -111.642E-03     150.022E-03
             513     10.4642E-03     82.8139E-03    -34.9685E+06    -1.96814E+06     3.33365E+06     1.33203E+06    -115.991E-03     227.683E-03    -111.691E-03     171.373E-03    -119.854E-03     231.404E-03    -111.621E-03     163.935E-03
             514     11.2696E-03     83.0107E-03    -31.4552E+06     50.0170E+06     14.1754E+06     918.538E+03    -116.505E-03     228.142E-03    -111.637E-03     192.265E-03    -121.954E-03     233.615E-03    -111.593E-03     183.469E-03
             515     12.0744E-03     83.2380E-03    -27.4435E+06     76.9779E+06     39.7296E+06     1.10501E+06    -118.127E-03     229.822E-03    -111.695E-03     225.949E-03    -126.252E-03     238.008E-03    -111.568E-03     215.372E-03
             516     12.8798E-03     83.5103E-03    -23.0014E+06     93.4998E+06     71.0313E+06     1.32277E+06    -120.084E-03     231.879E-03    -111.795E-03     269.039E-03    -132.350E-03     244.189E-03    -111.542E-03     256.615E-03
             517     13.6869E-03     83.8362E-03    -16.7646E+06     107.052E+06     90.2810E+06     1.39734E+06    -120.102E-03     231.917E-03    -111.815E-03     296.193E-03    -136.374E-03     248.248E-03    -111.494E-03     283.550E-03
             518     14.4901E-03     84.1700E-03    -10.0909E+06     121.279E+06     98.6323E+06     1.12541E+06    -116.946E-03     228.709E-03    -111.763E-03     284.527E-03    -134.633E-03     246.505E-03    -111.431E-03     274.622E-03
             519     15.3007E-03     84.4816E-03    -4.83143E+06     124.805E+06     97.4397E+06     70.0518E+03    -112.988E-03     224.696E-03    -111.708E-03     201.838E-03    -124.856E-03     236.706E-03    -111.394E-03     196.317E-03
             520     804.687E-06     82.7614E-03    -77.9282E+06    -225.624E+06    -76.3826E+06    -252.973E+03    -111.928E-03     223.792E-03    -111.864E-03     15.1524E-03    -111.891E-03     222.901E-03    -111.806E-03     14.8053E-03
             521     1.60965E-03     82.7852E-03    -76.4716E+06    -222.949E+06    -72.1319E+06    -443.911E+03    -112.028E-03     223.903E-03    -111.875E-03     27.9613E-03    -112.022E-03     223.043E-03    -111.801E-03     27.3153E-03
             522     2.41440E-03     82.8242E-03    -73.0635E+06    -216.956E+06    -64.1670E+06    -408.851E+03    -112.264E-03     224.156E-03    -111.892E-03     41.3534E-03    -112.309E-03     223.357E-03    -111.792E-03     40.3756E-03
             523     3.21921E-03     82.8780E-03    -68.8782E+06    -205.858E+06    -52.1870E+06    -41.4409E+03    -112.539E-03     224.462E-03    -111.923E-03     54.6431E-03    -112.668E-03     223.767E-03    -111.786E-03     53.3068E-03
             524     4.02402E-03     82.9464E-03    -65.3135E+06    -194.130E+06    -41.5603E+06     8.92372E+03    -112.847E-03     224.789E-03    -111.943E-03     67.7951E-03    -113.091E-03     224.233E-03    -111.774E-03     66.0589E-03
             525     4.82908E-03     83.0294E-03    -61.8868E+06    -182.266E+06    -33.7620E+06    -205.407E+03    -113.211E-03     225.153E-03    -111.942E-03     80.6754E-03    -113.601E-03     224.774E-03    -111.756E-03     78.4897E-03
             526     5.63400E-03     83.1265E-03    -58.0753E+06    -173.407E+06    -25.9344E+06     364.819E+03    -113.636E-03     225.578E-03    -111.942E-03     93.2739E-03    -114.210E-03     225.405E-03    -111.736E-03     90.5930E-03
             527     6.43886E-03     83.2376E-03    -53.6254E+06    -150.896E+06    -19.0942E+06     708.396E+03    -114.058E-03     225.974E-03    -111.916E-03     105.832E-03    -114.883E-03     226.129E-03    -111.715E-03     102.597E-03
             528     7.24406E-03     83.3624E-03    -48.4363E+06    -133.927E+06    -12.7383E+06     630.115E+03    -114.529E-03     226.423E-03    -111.894E-03     118.202E-03    -115.667E-03     226.950E-03    -111.693E-03     114.325E-03
             529     8.04890E-03     83.5007E-03    -43.5456E+06    -116.880E+06    -7.56201E+06     1.44998E+06    -115.014E-03     226.882E-03    -111.869E-03     130.660E-03    -116.556E-03     227.877E-03    -111.674E-03     126.069E-03
             530     8.85420E-03     83.6523E-03    -40.7190E+06    -89.3514E+06    -4.11960E+06     1.87855E+06    -115.480E-03     227.306E-03    -111.826E-03     143.367E-03    -117.576E-03     228.952E-03    -111.658E-03     137.955E-03
             531     9.65891E-03     83.8184E-03    -38.7034E+06    -58.8632E+06    -1.39979E+06     1.35527E+06    -115.819E-03     227.598E-03    -111.779E-03     156.457E-03    -118.649E-03     230.086E-03    -111.645E-03     150.094E-03
             532     10.4642E-03     83.9978E-03    -35.2502E+06    -1.36315E+06     3.16759E+06     779.420E+03    -115.993E-03     227.685E-03    -111.692E-03     171.543E-03    -119.857E-03     231.410E-03    -111.623E-03     164.101E-03
             533     11.2694E-03     84.1968E-03    -32.3025E+06     49.9880E+06     14.0427E+06     663.940E+03    -116.589E-03     228.229E-03    -111.641E-03     192.596E-03    -122.049E-03     233.712E-03    -111.596E-03     183.788E-03
             534     12.0752E-03     84.4221E-03    -28.7420E+06     76.4170E+06     38.8493E+06     1.22345E+06    -118.058E-03     229.753E-03    -111.694E-03     226.290E-03    -126.188E-03     237.939E-03    -111.569E-03     215.727E-03
             535     12.8802E-03     84.6972E-03    -23.4253E+06     93.6460E+06     70.4282E+06     1.34751E+06    -119.790E-03     231.571E-03    -111.781E-03     268.655E-03    -132.000E-03     243.827E-03    -111.531E-03     256.295E-03
             536     13.6851E-03     85.0172E-03    -17.3128E+06     106.869E+06     90.2721E+06     792.442E+03    -120.837E-03     232.656E-03    -111.819E-03     296.563E-03    -137.192E-03     249.067E-03    -111.497E-03     283.767E-03
             537     14.4919E-03     85.3604E-03    -11.0149E+06     121.801E+06     98.3781E+06     315.956E+03    -118.190E-03     230.015E-03    -111.826E-03     283.776E-03    -135.987E-03     247.921E-03    -111.495E-03     273.617E-03
             538     15.2939E-03     85.6570E-03    -5.33355E+06     125.350E+06     97.1492E+06     194.845E+03    -112.217E-03     224.007E-03    -111.790E-03     201.358E-03    -124.115E-03     236.049E-03    -111.479E-03     195.886E-03
             539     804.809E-06     83.9464E-03    -77.7893E+06    -225.681E+06    -76.4511E+06     169.593E+03    -111.955E-03     223.839E-03    -111.884E-03     15.0892E-03    -111.918E-03     222.948E-03    -111.827E-03     14.7485E-03
             540     1.60951E-03     83.9702E-03    -75.9061E+06    -221.873E+06    -70.6012E+06    -347.074E+03    -112.048E-03     223.951E-03    -111.903E-03     28.0385E-03    -112.043E-03     223.093E-03    -111.824E-03     27.3924E-03
             541     2.41437E-03     84.0092E-03    -73.3919E+06    -216.637E+06    -63.3369E+06    -864.396E+03    -112.244E-03     224.156E-03    -111.912E-03     41.3828E-03    -112.292E-03     223.358E-03    -111.808E-03     40.3986E-03
             542     3.21929E-03     84.0628E-03    -69.9575E+06    -207.409E+06    -53.6401E+06    -263.630E+03    -112.495E-03     224.420E-03    -111.925E-03     54.6343E-03    -112.626E-03     223.721E-03    -111.791E-03     53.2961E-03
             543     4.02420E-03     84.1315E-03    -65.0487E+06    -193.920E+06    -40.9609E+06     542.615E+03    -112.849E-03     224.793E-03    -111.944E-03     67.7552E-03    -113.093E-03     224.236E-03    -111.774E-03     66.0254E-03
             544     4.82895E-03     84.2143E-03    -59.8622E+06    -182.486E+06    -30.3951E+06     989.772E+03    -113.250E-03     225.208E-03    -111.958E-03     80.6113E-03    -113.634E-03     224.820E-03    -111.759E-03     78.4386E-03
             545     5.63386E-03     84.3116E-03    -55.4334E+06    -174.456E+06    -23.7796E+06     1.34507E+06    -113.671E-03     225.628E-03    -111.957E-03     93.2756E-03    -114.233E-03     225.444E-03    -111.743E-03     90.6056E-03
             546     6.43892E-03     84.4223E-03    -51.5883E+06    -150.340E+06    -18.8438E+06     1.13512E+06    -114.080E-03     226.001E-03    -111.921E-03     105.895E-03    -114.897E-03     226.156E-03    -111.723E-03     102.665E-03
             547     7.24383E-03     84.5475E-03    -48.3237E+06    -133.430E+06    -13.2751E+06     354.575E+03    -114.526E-03     226.423E-03    -111.897E-03     118.274E-03    -115.663E-03     226.954E-03    -111.700E-03     114.396E-03
             548     8.04912E-03     84.6853E-03    -45.1081E+06    -119.010E+06    -9.37788E+06     507.889E+03    -115.003E-03     226.873E-03    -111.870E-03     130.682E-03    -116.547E-03     227.862E-03    -111.679E-03     126.080E-03
             549     8.85392E-03     84.8378E-03    -40.6186E+06    -90.5554E+06    -4.93084E+06     1.82718E+06    -115.424E-03     227.249E-03    -111.825E-03     143.437E-03    -117.514E-03     228.889E-03    -111.660E-03     138.030E-03
             550     9.65935E-03     85.0030E-03    -36.2396E+06    -57.3656E+06     98.3055E+03     1.78896E+06    -115.782E-03     227.559E-03    -111.777E-03     156.405E-03    -118.602E-03     230.047E-03    -111.641E-03     150.050E-03
             551     10.4643E-03     85.1834E-03    -34.1881E+06    -1.69786E+06     3.88164E+06     1.79433E+06    -116.010E-03     227.702E-03    -111.691E-03     171.327E-03    -119.874E-03     231.427E-03    -111.620E-03     163.885E-03
             552     11.2698E-03     85.3809E-03    -32.3934E+06     49.8630E+06     14.0928E+06     2.06044E+06    -116.564E-03     228.203E-03    -111.638E-03     192.713E-03    -122.026E-03     233.685E-03    -111.593E-03     183.923E-03
             553     12.0742E-03     85.6085E-03    -29.2729E+06     76.7835E+06     38.8822E+06     1.33999E+06    -117.849E-03     229.533E-03    -111.684E-03     226.217E-03    -125.968E-03     237.708E-03    -111.559E-03     215.685E-03
             554     12.8805E-03     85.8799E-03    -24.1120E+06     93.7665E+06     70.3434E+06      597.85E+03    -119.909E-03     231.679E-03    -111.770E-03     268.481E-03    -132.133E-03     243.946E-03    -111.519E-03     256.077E-03
             555     13.6871E-03     86.2045E-03    -17.4179E+06     107.066E+06     90.2267E+06     354.775E+03    -121.175E-03     232.994E-03    -111.819E-03     297.475E-03    -137.603E-03     249.479E-03    -111.498E-03     284.603E-03
             556     14.4892E-03     86.5459E-03    -10.8510E+06     121.924E+06     98.4322E+06     421.093E+03    -118.144E-03     229.970E-03    -111.826E-03     285.623E-03    -136.062E-03     247.997E-03    -111.495E-03     275.497E-03
             557     15.2946E-03     86.8464E-03    -4.81613E+06     125.665E+06     97.4696E+06     247.199E+03    -112.045E-03     223.821E-03    -111.776E-03     203.544E-03    -124.047E-03     235.969E-03    -111.464E-03     198.081E-03
             558     804.728E-06     85.1312E-03    -78.0064E+06    -225.640E+06    -76.4013E+06    -141.215E+03    -112.019E-03     223.859E-03    -111.840E-03     15.0738E-03    -111.983E-03     222.968E-03    -111.782E-03     14.7269E-03
             559     1.60960E-03     85.1553E-03    -75.4996E+06    -221.179E+06    -69.5322E+06    -208.407E+03    -112.088E-03     224.012E-03    -111.923E-03     27.9827E-03    -112.084E-03     223.156E-03    -111.841E-03     27.3382E-03
             560     2.41436E-03     85.1941E-03    -72.2503E+06    -216.084E+06    -61.6290E+06    -303.049E+03    -112.252E-03     224.191E-03    -111.939E-03     41.2754E-03    -112.298E-03     223.392E-03    -111.829E-03     40.2964E-03
             561     3.21914E-03     85.2479E-03    -68.3919E+06    -208.558E+06    -52.0950E+06    -136.458E+03    -112.506E-03     224.456E-03    -111.949E-03     54.5457E-03    -112.629E-03     223.746E-03    -111.808E-03     53.2069E-03
             562     4.02404E-03     85.3163E-03    -64.4790E+06    -195.179E+06    -41.6237E+06     648.391E+03    -112.814E-03     224.767E-03    -111.953E-03     67.7138E-03    -113.052E-03     224.204E-03    -111.785E-03     65.9871E-03
             563     4.82899E-03     85.3996E-03    -60.5826E+06    -183.488E+06    -32.5505E+06     1.25429E+06    -113.211E-03     225.163E-03    -111.952E-03     80.6423E-03    -113.595E-03     224.775E-03    -111.761E-03     78.4752E-03
             564     5.63397E-03     85.4963E-03    -55.8932E+06    -174.532E+06    -24.3997E+06     1.21778E+06    -113.674E-03     225.628E-03    -111.954E-03     93.3185E-03    -114.238E-03     225.444E-03    -111.742E-03     90.6470E-03
             565     6.43885E-03     85.6076E-03    -50.8793E+06    -149.882E+06    -18.9445E+06     886.712E+03    -114.108E-03     226.028E-03    -111.920E-03     105.891E-03    -114.923E-03     226.185E-03    -111.723E-03     102.655E-03
             566     7.24403E-03     85.7321E-03    -46.5703E+06    -133.550E+06    -12.8374E+06     1.45723E+06    -114.567E-03     226.468E-03    -111.901E-03     118.253E-03    -115.696E-03     226.995E-03    -111.704E-03     114.386E-03
             567     8.04875E-03     85.8707E-03    -43.6507E+06    -119.367E+06    -8.41748E+06     1.67006E+06    -115.007E-03     226.886E-03    -111.879E-03     130.664E-03    -116.546E-03     227.871E-03    -111.685E-03     126.074E-03
             568     8.85415E-03     86.0221E-03    -41.4830E+06    -91.2614E+06    -6.81521E+06     800.226E+03    -115.397E-03     227.219E-03    -111.822E-03     143.447E-03    -117.488E-03     228.859E-03    -111.664E-03     138.027E-03
             569     9.65897E-03     86.1886E-03    -39.4894E+06    -58.3552E+06    -2.64855E+06     1.61287E+06    -115.733E-03     227.504E-03    -111.770E-03     156.440E-03    -118.562E-03     229.993E-03    -111.642E-03     150.091E-03
             570     10.4643E-03     86.3679E-03    -36.6879E+06    -2.28925E+06     3.11700E+06     2.42639E+06    -115.975E-03     227.665E-03    -111.690E-03     171.339E-03    -119.853E-03     231.396E-03    -111.618E-03     163.903E-03
             571     11.2692E-03     86.5663E-03    -32.9897E+06     49.7336E+06     12.9968E+06     2.08295E+06    -116.432E-03     228.058E-03    -111.626E-03     192.865E-03    -121.894E-03     233.542E-03    -111.585E-03     184.088E-03
             572     12.0757E-03     86.7929E-03    -28.2925E+06     77.5309E+06     38.8625E+06     1.85100E+06    -117.727E-03     229.392E-03    -111.665E-03     226.095E-03    -125.832E-03     237.560E-03    -111.542E-03     215.589E-03
             573     12.8809E-03     87.0652E-03    -23.1407E+06     95.1785E+06     71.5006E+06     1.17021E+06    -120.232E-03     231.993E-03    -111.761E-03     269.015E-03    -132.500E-03     244.310E-03    -111.508E-03     256.564E-03
             574     13.6842E-03     87.3894E-03    -17.9403E+06     107.547E+06     90.3099E+06    -7.54403E+03    -120.723E-03     232.523E-03    -111.800E-03     298.218E-03    -137.133E-03     248.989E-03    -111.478E-03     285.430E-03
             575     14.4926E-03     87.7320E-03    -10.8418E+06     122.247E+06     98.6842E+06    -242.391E+03    -116.918E-03     228.672E-03    -111.754E-03     286.194E-03    -134.761E-03     246.625E-03    -111.423E-03     276.275E-03
             576     15.3009E-03     88.0298E-03    -5.15207E+06     125.538E+06     97.6597E+06     76.2585E+03    -112.937E-03     224.633E-03    -111.695E-03     201.550E-03    -124.843E-03     236.683E-03    -111.381E-03     196.062E-03
             577     804.852E-06     86.3166E-03    -77.2172E+06    -224.904E+06    -75.6050E+06    -398.352E+03    -112.068E-03     223.918E-03    -111.850E-03     15.1299E-03    -112.030E-03     223.028E-03    -111.790E-03     14.7815E-03
             578     1.60937E-03     86.3403E-03    -75.0155E+06    -221.339E+06    -69.8491E+06    -235.588E+03    -112.092E-03     224.036E-03    -111.943E-03     27.9473E-03    -112.085E-03     223.179E-03    -111.863E-03     27.3038E-03
             579     2.41422E-03     86.3792E-03    -72.2511E+06    -216.251E+06    -61.9438E+06     146.611E+03    -112.246E-03     224.197E-03    -111.951E-03     41.3325E-03    -112.292E-03     223.398E-03    -111.843E-03     40.3598E-03
             580     3.21912E-03     86.4328E-03    -69.0269E+06    -208.705E+06    -52.2143E+06     201.041E+03    -112.511E-03     224.470E-03    -111.959E-03     54.6648E-03    -112.637E-03     223.761E-03    -111.817E-03     53.3294E-03
             581     4.02396E-03     86.5014E-03    -64.5719E+06    -196.692E+06    -42.9672E+06     581.174E+03    -112.809E-03     224.764E-03    -111.955E-03     67.7583E-03    -113.043E-03     224.196E-03    -111.791E-03     66.0305E-03
             582     4.82905E-03     86.5841E-03    -59.3908E+06    -184.166E+06    -33.5391E+06     1.21626E+06    -113.196E-03     225.146E-03    -111.950E-03     80.6481E-03    -113.571E-03     224.753E-03    -111.764E-03     78.4813E-03
             583     5.63392E-03     86.6817E-03    -54.4897E+06    -174.049E+06    -24.0756E+06     941.694E+03    -113.677E-03     225.630E-03    -111.953E-03     93.2707E-03    -114.235E-03     225.447E-03    -111.742E-03     90.5945E-03
             584     6.43894E-03     86.7922E-03    -50.7395E+06    -150.262E+06    -18.6873E+06     841.668E+03    -114.121E-03     226.044E-03    -111.923E-03     105.865E-03    -114.935E-03     226.198E-03    -111.725E-03     102.627E-03
             585     7.24373E-03     86.9175E-03    -47.7541E+06    -135.454E+06    -14.0446E+06     1.50750E+06    -114.555E-03     226.456E-03    -111.901E-03     118.281E-03    -115.687E-03     226.978E-03    -111.706E-03     114.413E-03
             586     8.04905E-03     87.0552E-03    -44.0104E+06    -119.129E+06    -8.63527E+06     2.22375E+06    -115.004E-03     226.882E-03    -111.878E-03     130.739E-03    -116.546E-03     227.870E-03    -111.685E-03     126.156E-03
             587     8.85384E-03     87.2076E-03    -41.1279E+06    -90.8752E+06    -4.83925E+06     2.85481E+06    -115.397E-03     227.228E-03    -111.831E-03     143.499E-03    -117.492E-03     228.868E-03    -111.663E-03     138.105E-03
             588     9.65925E-03     87.3729E-03    -38.5834E+06    -59.5632E+06    -1.87609E+06     2.56426E+06    -115.675E-03     227.447E-03    -111.771E-03     156.567E-03    -118.500E-03     229.929E-03    -111.638E-03     150.233E-03
             589     10.4644E-03     87.5535E-03    -35.0686E+06    -2.41959E+06     3.12624E+06     1.89509E+06    -115.864E-03     227.541E-03    -111.677E-03     171.485E-03    -119.732E-03     231.267E-03    -111.607E-03     164.054E-03
             590     11.2702E-03     87.7508E-03    -31.3147E+06     49.9731E+06     14.1532E+06     1.86768E+06    -116.430E-03     228.043E-03    -111.614E-03     192.777E-03    -121.883E-03     233.522E-03    -111.570E-03     184.003E-03
             591     12.0748E-03     87.9775E-03    -27.6683E+06     77.2215E+06     38.9440E+06     1.82971E+06    -117.797E-03     229.451E-03    -111.654E-03     225.872E-03    -125.898E-03     237.615E-03    -111.531E-03     215.355E-03
             592     12.8807E-03     88.2498E-03    -22.4405E+06     95.1956E+06     71.3730E+06     1.98039E+06    -119.880E-03     231.617E-03    -111.737E-03     269.783E-03    -132.134E-03     243.923E-03    -111.486E-03     257.402E-03
             593     13.6874E-03     88.5772E-03    -15.5750E+06     110.921E+06     92.6504E+06     992.364E+03    -120.491E-03     232.252E-03    -111.761E-03     297.741E-03    -136.848E-03     248.680E-03    -111.436E-03     285.027E-03
             594     14.4932E-03     88.9112E-03    -10.4338E+06     122.703E+06     99.2089E+06    -300.922E+03    -117.601E-03     229.340E-03    -111.739E-03     283.872E-03    -135.406E-03     247.256E-03    -111.406E-03     273.816E-03
             595     15.2958E-03     89.2186E-03    -5.18789E+06     124.255E+06     97.0211E+06     65.6330E+03    -113.223E-03     224.940E-03    -111.717E-03     200.849E-03    -125.136E-03     236.995E-03    -111.405E-03     195.256E-03
             596     804.582E-06     87.5015E-03    -76.7014E+06    -224.688E+06    -75.1980E+06     93.8484E+03    -112.008E-03     223.870E-03    -111.862E-03     15.2112E-03    -111.969E-03     222.980E-03    -111.801E-03     14.8716E-03
             597     1.60957E-03     87.5256E-03    -75.1899E+06    -221.574E+06    -70.1454E+06     137.246E+03    -112.053E-03     223.966E-03    -111.913E-03     28.0706E-03    -112.045E-03     223.109E-03    -111.834E-03     27.4324E-03
             598     2.41439E-03     87.5639E-03    -72.8044E+06    -217.315E+06    -63.3746E+06     773.006E+03    -112.269E-03     224.191E-03    -111.922E-03     41.3938E-03    -112.314E-03     223.389E-03    -111.818E-03     40.4305E-03
             599     3.21919E-03     87.6180E-03    -69.6962E+06    -208.168E+06    -53.8526E+06     869.450E+03    -112.523E-03     224.460E-03    -111.937E-03     54.6729E-03    -112.651E-03     223.758E-03    -111.804E-03     53.3465E-03
             600     4.02414E-03     87.6861E-03    -65.9957E+06    -197.033E+06    -44.0411E+06     218.405E+03    -112.857E-03     224.805E-03    -111.948E-03     67.7209E-03    -113.096E-03     224.238E-03    -111.787E-03     65.9859E-03
             601     4.82885E-03     87.7694E-03    -61.5839E+06    -184.564E+06    -35.8096E+06    -82.4322E+03    -113.216E-03     225.161E-03    -111.945E-03     80.6701E-03    -113.598E-03     224.773E-03    -111.768E-03     78.4854E-03
             602     5.63393E-03     87.8663E-03    -56.9123E+06    -174.372E+06    -26.5787E+06     264.312E+03    -113.636E-03     225.583E-03    -111.947E-03     93.3763E-03    -114.202E-03     225.405E-03    -111.745E-03     90.6941E-03
             603     6.43879E-03     87.9776E-03    -52.7988E+06    -152.073E+06    -19.6260E+06     1.45763E+06    -114.091E-03     226.013E-03    -111.921E-03     105.934E-03    -114.912E-03     226.163E-03    -111.723E-03     102.706E-03
             604     7.24405E-03     88.1020E-03    -48.8998E+06    -135.713E+06    -13.7738E+06     1.78421E+06    -114.547E-03     226.448E-03    -111.901E-03     118.281E-03    -115.685E-03     226.970E-03    -111.702E-03     114.416E-03
             605     8.04886E-03     88.2404E-03    -45.3951E+06    -120.818E+06    -9.57959E+06     1.92321E+06    -114.991E-03     226.865E-03    -111.874E-03     130.736E-03    -116.535E-03     227.847E-03    -111.681E-03     126.151E-03
             606     8.85420E-03     88.3922E-03    -41.2216E+06    -91.8811E+06    -5.49961E+06     2.71889E+06    -115.351E-03     227.174E-03    -111.823E-03     143.481E-03    -117.442E-03     228.809E-03    -111.657E-03     138.090E-03
             607     9.65913E-03     88.5581E-03    -36.9537E+06    -58.1901E+06    -1.07920E+06     2.27840E+06    -115.631E-03     227.392E-03    -111.762E-03     156.535E-03    -118.449E-03     229.876E-03    -111.629E-03     150.202E-03
             608     10.4646E-03     88.7378E-03    -33.7353E+06    -2.49244E+06     3.31646E+06     1.63927E+06    -115.861E-03     227.526E-03    -111.666E-03     171.312E-03    -119.719E-03     231.246E-03    -111.596E-03     163.880E-03
             609     11.2698E-03     88.9357E-03    -30.7483E+06     49.1185E+06     14.3889E+06     1.92723E+06    -116.464E-03     228.071E-03    -111.607E-03     192.607E-03    -121.911E-03     233.541E-03    -111.562E-03     183.832E-03
             610     12.0756E-03     89.1629E-03    -26.8087E+06       77.86E+06     40.1796E+06     1.88714E+06    -117.813E-03     229.466E-03    -111.653E-03     225.786E-03    -125.922E-03     237.640E-03    -111.527E-03     215.260E-03
             611     12.8810E-03     89.4341E-03    -21.4130E+06     94.9177E+06     72.1939E+06     1.78640E+06    -119.770E-03     231.510E-03    -111.739E-03     268.502E-03    -131.987E-03     243.778E-03    -111.485E-03     256.122E-03
             612     13.6876E-03     89.7592E-03    -15.9233E+06     111.381E+06     92.4532E+06     1.75408E+06    -120.872E-03     232.649E-03    -111.778E-03     296.483E-03    -137.174E-03     249.023E-03    -111.454E-03     283.720E-03
             613     14.4901E-03     90.1017E-03    -10.6412E+06     124.264E+06     99.6436E+06     963.774E+03    -118.067E-03     229.849E-03    -111.782E-03     284.077E-03    -135.850E-03     247.747E-03    -111.449E-03     273.992E-03
             614     15.2967E-03     90.4000E-03    -5.17436E+06     124.777E+06     97.7080E+06     339.099E+03    -112.735E-03     224.490E-03    -111.755E-03     202.417E-03    -124.672E-03     236.569E-03    -111.440E-03     196.891E-03
             615     804.945E-06     88.6866E-03    -78.1628E+06    -225.885E+06    -76.3016E+06     859.899E+03    -111.929E-03     223.741E-03    -111.813E-03     15.0935E-03    -111.893E-03     222.849E-03    -111.753E-03     14.7655E-03
             616     1.60970E-03     88.7103E-03    -76.4495E+06    -222.369E+06    -70.5481E+06     1.21083E+06    -112.059E-03     223.927E-03    -111.868E-03     28.0031E-03    -112.056E-03     223.068E-03    -111.787E-03     27.3806E-03
             617     2.41440E-03     88.7494E-03    -73.9672E+06    -218.208E+06    -63.8489E+06     1.18737E+06    -112.297E-03     224.198E-03    -111.900E-03     41.2639E-03    -112.346E-03     223.394E-03    -111.796E-03     40.3059E-03
             618     3.21924E-03     88.8026E-03    -70.4602E+06    -208.149E+06    -55.8432E+06     1.08801E+06    -112.544E-03     224.463E-03    -111.920E-03     54.5831E-03    -112.672E-03     223.765E-03    -111.795E-03     53.2600E-03
             619     4.02398E-03     88.8715E-03    -66.2538E+06    -195.624E+06    -44.7366E+06     475.386E+03    -112.848E-03     224.786E-03    -111.938E-03     67.7321E-03    -113.090E-03     224.228E-03    -111.782E-03     66.0017E-03
             620     4.82901E-03     88.9540E-03    -62.1096E+06    -184.408E+06    -34.9367E+06    -251.032E+03    -113.219E-03     225.165E-03    -111.946E-03     80.6713E-03    -113.605E-03     224.778E-03    -111.763E-03     78.4835E-03
             621     5.63392E-03     89.0514E-03    -58.2051E+06    -176.111E+06    -27.0606E+06     355.422E+03    -113.635E-03     225.582E-03    -111.946E-03     93.3832E-03    -114.205E-03     225.398E-03    -111.742E-03     90.7008E-03
             622     6.43906E-03     89.1622E-03    -53.8227E+06    -153.945E+06    -20.1567E+06     1.20887E+06    -114.069E-03     225.988E-03    -111.920E-03     105.904E-03    -114.890E-03     226.131E-03    -111.719E-03     102.673E-03
             623     7.24385E-03     89.2873E-03    -49.3026E+06    -135.811E+06    -13.9006E+06     1.59624E+06    -114.547E-03     226.444E-03    -111.897E-03     118.262E-03    -115.686E-03     226.966E-03    -111.698E-03     114.396E-03
             624     8.04903E-03     89.4251E-03    -45.1288E+06    -121.911E+06    -9.59540E+06     1.87024E+06    -114.981E-03     226.852E-03    -111.871E-03     130.680E-03    -116.522E-03     227.829E-03    -111.677E-03     126.094E-03
             625     8.85399E-03     89.5772E-03    -41.9243E+06    -92.5868E+06    -7.44672E+06     1.57560E+06    -115.329E-03     227.140E-03    -111.811E-03     143.411E-03    -117.419E-03     228.774E-03    -111.653E-03     138.006E-03
             626     9.65947E-03     89.7427E-03    -38.9481E+06    -57.2825E+06    -2.60862E+06     1.20754E+06    -115.673E-03     227.426E-03    -111.753E-03     156.380E-03    -118.500E-03     229.919E-03    -111.627E-03     150.030E-03
             627     10.4645E-03     89.9229E-03    -35.7362E+06    -2.76510E+06     3.45916E+06     1.14377E+06    -115.951E-03     227.626E-03    -111.675E-03     171.084E-03    -119.821E-03     231.349E-03    -111.602E-03     163.634E-03
             628     11.2699E-03     90.1206E-03    -32.5065E+06     49.0581E+06     13.4761E+06     1.16773E+06    -116.505E-03     228.123E-03    -111.618E-03     192.277E-03    -121.960E-03     233.598E-03    -111.575E-03     183.480E-03
             629     12.0751E-03     90.3472E-03    -28.1388E+06     77.5122E+06     38.9101E+06     967.840E+03    -117.908E-03     229.579E-03    -111.671E-03     225.069E-03    -126.019E-03     237.753E-03    -111.548E-03     214.507E-03
             630     12.8807E-03     90.6193E-03    -22.9572E+06     93.6115E+06     71.2256E+06     1.30805E+06    -120.200E-03     231.982E-03    -111.782E-03     267.888E-03    -132.431E-03     244.257E-03    -111.528E-03     255.436E-03
             631     13.6837E-03     90.9440E-03    -17.3509E+06     111.102E+06     92.3324E+06     2.32649E+06    -120.831E-03     232.660E-03    -111.829E-03     297.638E-03    -137.146E-03     249.040E-03    -111.503E-03     284.898E-03
             632     14.4923E-03     91.2860E-03    -11.6983E+06     126.463E+06     100.056E+06     1.84092E+06    -117.522E-03     229.325E-03    -111.802E-03     284.988E-03    -135.279E-03     247.198E-03    -111.468E-03     275.019E-03
             633     15.2972E-03     91.5859E-03    -5.75408E+06     125.986E+06     98.0823E+06     65.6508E+03    -112.791E-03     224.549E-03    -111.758E-03     201.687E-03    -124.716E-03     236.617E-03    -111.442E-03     196.194E-03
             634     804.781E-06     89.8712E-03    -79.7977E+06    -227.848E+06    -78.8503E+06     600.702E+03    -111.952E-03     223.799E-03    -111.848E-03     14.9109E-03    -111.918E-03     222.903E-03    -111.796E-03     14.5796E-03
             635     1.60954E-03     89.8955E-03    -77.3895E+06    -223.970E+06    -72.6885E+06     1.30954E+06    -112.053E-03     223.940E-03    -111.887E-03     27.9166E-03    -112.049E-03     223.078E-03    -111.814E-03     27.2956E-03
             636     2.41443E-03     89.9341E-03    -74.0435E+06    -218.295E+06    -63.7840E+06     1.27405E+06    -112.261E-03     224.172E-03    -111.911E-03     41.2331E-03    -112.309E-03     223.368E-03    -111.806E-03     40.2769E-03
             637     3.21914E-03     89.9880E-03    -69.8307E+06    -208.037E+06    -53.6610E+06     478.573E+03    -112.520E-03     224.450E-03    -111.930E-03     54.5714E-03    -112.649E-03     223.748E-03    -111.795E-03     53.2414E-03
             638     4.02419E-03     90.0561E-03    -64.7952E+06    -194.805E+06    -42.3556E+06     116.581E+03    -112.824E-03     224.766E-03    -111.942E-03     67.7197E-03    -113.063E-03     224.206E-03    -111.777E-03     65.9845E-03
             639     4.82901E-03     90.1393E-03    -60.1089E+06    -184.935E+06    -32.0454E+06     667.609E+03    -113.234E-03     225.187E-03    -111.953E-03     80.6170E-03    -113.614E-03     224.790E-03    -111.758E-03     78.4402E-03
             640     5.63394E-03     90.2361E-03    -56.0680E+06    -177.392E+06    -24.9786E+06     1.25456E+06    -113.691E-03     225.646E-03    -111.955E-03     93.2922E-03    -114.251E-03     225.450E-03    -111.742E-03     90.6180E-03
             641     6.43877E-03     90.3474E-03    -52.1326E+06    -154.296E+06    -20.0363E+06     1.37759E+06    -114.087E-03     226.009E-03    -111.922E-03     105.835E-03    -114.900E-03     226.147E-03    -111.723E-03     102.605E-03
             642     7.24407E-03     90.4720E-03    -48.5198E+06    -136.973E+06    -14.0804E+06     1.68898E+06    -114.503E-03     226.401E-03    -111.898E-03     118.205E-03    -115.635E-03     226.915E-03    -111.700E-03     114.343E-03
             643     8.04896E-03     90.6103E-03    -45.1574E+06    -122.184E+06    -9.21196E+06     1.71562E+06    -114.971E-03     226.844E-03    -111.873E-03     130.606E-03    -116.513E-03     227.818E-03    -111.676E-03     126.017E-03
             644     8.85424E-03     90.7617E-03    -41.5096E+06    -92.3747E+06    -6.35858E+06     1.53604E+06    -115.417E-03     227.236E-03    -111.818E-03     143.297E-03    -117.509E-03     228.870E-03    -111.656E-03     137.884E-03
             645     9.65909E-03     90.9279E-03    -38.3100E+06    -57.4167E+06    -2.15057E+06     1.65020E+06    -115.755E-03     227.521E-03    -111.766E-03     156.296E-03    -118.581E-03     230.013E-03    -111.638E-03     149.944E-03
             646     10.4642E-03     91.1077E-03    -36.0549E+06    -2.41166E+06     3.91166E+06     1.59084E+06    -116.043E-03     227.737E-03    -111.694E-03     171.065E-03    -119.916E-03     231.462E-03    -111.619E-03     163.614E-03
             647     11.2694E-03     91.3055E-03    -33.4249E+06     49.9052E+06     13.9849E+06     1.09040E+06    -116.656E-03     228.302E-03    -111.646E-03     192.241E-03    -122.118E-03     233.782E-03    -111.600E-03     183.433E-03
             648     12.0744E-03     91.5325E-03    -30.1129E+06     77.0970E+06     38.3602E+06     718.528E+03    -118.157E-03     229.864E-03    -111.707E-03     225.539E-03    -126.288E-03     238.050E-03    -111.583E-03     214.953E-03
             649     12.8790E-03     91.8042E-03    -25.4579E+06     92.2949E+06     69.7306E+06     861.340E+03    -120.048E-03     231.861E-03    -111.813E-03     268.343E-03    -132.299E-03     244.147E-03    -111.561E-03     255.904E-03
             650     13.6871E-03     92.1297E-03    -18.9894E+06     109.739E+06     90.7929E+06     1.26493E+06    -120.636E-03     232.483E-03    -111.847E-03     297.505E-03    -136.967E-03     248.873E-03    -111.525E-03     284.752E-03
             651     14.4907E-03     92.4694E-03    -11.0193E+06     127.677E+06     100.746E+06     990.793E+03    -117.738E-03     229.564E-03    -111.826E-03     284.713E-03    -135.507E-03     247.455E-03    -111.492E-03     274.690E-03
             652     15.2958E-03     92.7727E-03    -4.58849E+06     127.575E+06     98.8833E+06     202.760E+03    -112.619E-03     224.404E-03    -111.784E-03     201.069E-03    -124.515E-03     236.449E-03    -111.468E-03     195.597E-03
             653     804.634E-06     91.0565E-03    -80.2462E+06    -228.420E+06    -79.1817E+06    -61.4870E+03    -111.991E-03     223.892E-03    -111.901E-03     15.0162E-03    -111.958E-03     222.994E-03    -111.850E-03     14.6764E-03
             654     1.60951E-03     91.0802E-03    -78.0817E+06    -225.103E+06    -74.4092E+06    -110.348E+03    -112.038E-03     223.953E-03    -111.915E-03     28.0171E-03    -112.034E-03     223.088E-03    -111.847E-03     27.3756E-03
             655     2.41429E-03     91.1193E-03    -74.2257E+06    -218.100E+06    -65.0881E+06    -179.459E+03    -112.218E-03     224.134E-03    -111.916E-03     41.3055E-03    -112.266E-03     223.333E-03    -111.818E-03     40.3309E-03
             656     3.21930E-03     91.1727E-03    -69.8192E+06    -207.521E+06    -51.6626E+06    -8.47363E+03    -112.492E-03     224.430E-03    -111.938E-03     54.5774E-03    -112.624E-03     223.727E-03    -111.794E-03     53.2419E-03
             657     4.02400E-03     91.2414E-03    -65.8513E+06    -195.661E+06    -41.3326E+06     499.863E+03    -112.837E-03     224.785E-03    -111.948E-03     67.6806E-03    -113.082E-03     224.221E-03    -111.776E-03     65.9482E-03
             658     4.82903E-03     91.3239E-03    -61.7683E+06    -186.289E+06    -33.5752E+06     1.07215E+06    -113.234E-03     225.184E-03    -111.951E-03     80.6003E-03    -113.618E-03     224.785E-03    -111.759E-03     78.4282E-03
             659     5.63392E-03     91.4215E-03    -57.1870E+06    -177.994E+06    -25.4321E+06     1.28597E+06    -113.686E-03     225.642E-03    -111.956E-03     93.3177E-03    -114.250E-03     225.445E-03    -111.742E-03     90.6460E-03
             660     6.43893E-03     91.5320E-03    -52.7218E+06    -154.330E+06    -19.8675E+06     1.32047E+06    -114.120E-03     226.047E-03    -111.927E-03     105.865E-03    -114.937E-03     226.186E-03    -111.726E-03     102.632E-03
             661     7.24375E-03     91.6571E-03    -48.2614E+06    -137.641E+06    -14.1262E+06     1.39857E+06    -114.538E-03     226.443E-03    -111.905E-03     118.134E-03    -115.669E-03     226.955E-03    -111.706E-03     114.263E-03
             662     8.04907E-03     91.7948E-03    -43.7974E+06    -122.711E+06    -8.75842E+06     1.69626E+06    -115.007E-03     226.891E-03    -111.884E-03     130.511E-03    -116.542E-03     227.860E-03    -111.686E-03     125.918E-03
             663     8.85389E-03     91.9472E-03    -40.7986E+06    -92.7975E+06    -6.01620E+06     2.20049E+06    -115.476E-03     227.309E-03    -111.833E-03     143.245E-03    -117.563E-03     228.939E-03    -111.669E-03     137.838E-03
             664     9.65902E-03     92.1125E-03    -38.6364E+06    -57.9111E+06    -2.70071E+06     2.34012E+06    -115.780E-03     227.560E-03    -111.780E-03     156.244E-03    -118.606E-03     230.051E-03    -111.653E-03     149.899E-03
             665     10.4643E-03     92.2929E-03    -35.8583E+06    -2.44172E+06     3.69720E+06     2.37189E+06    -116.031E-03     227.738E-03    -111.707E-03     171.286E-03    -119.900E-03     231.460E-03    -111.633E-03     163.854E-03
             666     11.2692E-03     92.4909E-03    -33.3292E+06     50.5171E+06     15.1654E+06     2.08114E+06    -116.665E-03     228.326E-03    -111.661E-03     192.660E-03    -122.133E-03     233.811E-03    -111.610E-03     183.866E-03
             667     12.0746E-03     92.7172E-03    -29.9237E+06     77.8152E+06     39.6385E+06     1.44704E+06    -118.065E-03     229.779E-03    -111.715E-03     226.206E-03    -126.204E-03     237.974E-03    -111.586E-03     215.645E-03
             668     12.8803E-03     92.9909E-03    -24.3573E+06     93.0314E+06     70.7212E+06     987.589E+03    -120.136E-03     231.951E-03    -111.815E-03     268.446E-03    -132.403E-03     244.257E-03    -111.561E-03     255.996E-03
             669     13.6838E-03     93.3113E-03    -17.0253E+06     110.998E+06     92.0984E+06     265.022E+03    -121.076E-03     232.942E-03    -111.866E-03     297.475E-03    -137.484E-03     249.417E-03    -111.542E-03     284.611E-03
             670     14.4903E-03     93.6577E-03    -11.0096E+06     126.724E+06     99.7227E+06    -257.402E+03    -117.758E-03     229.611E-03    -111.854E-03     285.178E-03    -135.596E-03     247.571E-03    -111.523E-03     275.098E-03
             671     15.2959E-03     93.9550E-03    -5.56228E+06     126.548E+06     97.3663E+06     502.041E+03    -112.093E-03     223.889E-03    -111.796E-03     201.311E-03    -123.989E-03     235.932E-03    -111.484E-03     195.888E-03
             672     804.868E-06     92.2414E-03    -79.4868E+06    -227.693E+06    -78.2396E+06    -268.804E+03    -111.987E-03     223.803E-03    -111.816E-03     15.1758E-03    -111.953E-03     222.907E-03    -111.762E-03     14.8313E-03
             673     1.60951E-03     92.2654E-03    -77.8329E+06    -224.362E+06    -73.3578E+06    -846.062E+03    -112.088E-03     223.979E-03    -111.892E-03     28.0425E-03    -112.085E-03     223.117E-03    -111.820E-03     27.3906E-03
             674     2.41442E-03     92.3040E-03    -75.4059E+06    -217.935E+06    -65.2927E+06    -1.08930E+06    -112.237E-03     224.151E-03    -111.914E-03     41.3167E-03    -112.291E-03     223.353E-03    -111.815E-03     40.3307E-03
             675     3.21915E-03     92.3579E-03    -71.8263E+06    -208.942E+06    -53.6965E+06     58.0041E+03    -112.477E-03     224.411E-03    -111.933E-03     54.5682E-03    -112.614E-03     223.707E-03    -111.795E-03     53.2352E-03
             676     4.02420E-03     92.4261E-03    -67.2392E+06    -196.750E+06    -42.3527E+06     1.09192E+06    -112.831E-03     224.777E-03    -111.946E-03     67.7318E-03    -113.080E-03     224.211E-03    -111.775E-03     66.0075E-03
             677     4.82893E-03     92.5092E-03    -62.0542E+06    -186.720E+06    -33.2544E+06     1.11439E+06    -113.252E-03     225.205E-03    -111.953E-03     80.6144E-03    -113.638E-03     224.804E-03    -111.759E-03     78.4401E-03
             678     5.63396E-03     92.6060E-03    -57.1167E+06    -178.601E+06    -25.3530E+06     1.27072E+06    -113.678E-03     225.636E-03    -111.959E-03     93.2846E-03    -114.240E-03     225.436E-03    -111.743E-03     90.6130E-03
             679     6.43885E-03     92.7174E-03    -52.7256E+06    -154.378E+06    -19.5471E+06     1.16858E+06    -114.123E-03     226.052E-03    -111.929E-03     105.852E-03    -114.940E-03     226.191E-03    -111.726E-03     102.618E-03
             680     7.24397E-03     92.8418E-03    -48.6892E+06    -137.381E+06    -14.5891E+06     570.442E+03    -114.635E-03     226.544E-03    -111.909E-03     118.161E-03    -115.769E-03     227.059E-03    -111.712E-03     114.275E-03
             681     8.04862E-03     92.9801E-03    -45.1852E+06     -124.22E+06    -10.2841E+06     1.07476E+06    -115.094E-03     226.989E-03    -111.895E-03     130.555E-03    -116.632E-03     227.955E-03    -111.701E-03     125.949E-03
             682     8.85389E-03     93.1318E-03    -41.3731E+06    -94.3561E+06    -6.66759E+06     2.39728E+06    -115.446E-03     227.295E-03    -111.849E-03     143.316E-03    -117.532E-03     228.918E-03    -111.685E-03     137.914E-03
             683     9.65886E-03     93.2980E-03    -37.6763E+06    -58.0353E+06    -1.90953E+06     2.73513E+06    -115.768E-03     227.563E-03    -111.795E-03     156.321E-03    -118.590E-03     230.050E-03    -111.665E-03     149.982E-03
             684     10.4638E-03     93.4774E-03    -34.7818E+06    -3.45152E+06     4.24019E+06     2.89474E+06    -115.951E-03     227.667E-03    -111.716E-03     171.285E-03    -119.814E-03     231.383E-03    -111.640E-03     163.861E-03
             685     11.2697E-03     93.6761E-03    -31.5041E+06     50.7845E+06     15.3444E+06     3.23226E+06    -116.436E-03     228.089E-03    -111.653E-03     192.843E-03    -121.893E-03     233.570E-03    -111.604E-03     184.085E-03
             686     12.0745E-03     93.9028E-03    -27.7210E+06     79.7839E+06     41.0169E+06     2.26549E+06    -117.929E-03     229.625E-03    -111.696E-03     226.340E-03    -126.061E-03     237.823E-03    -111.566E-03     215.805E-03
             687     12.8802E-03     94.1746E-03    -22.0992E+06     95.1608E+06     72.8798E+06     917.651E+03    -120.458E-03     232.262E-03    -111.803E-03     268.963E-03    -132.747E-03     244.599E-03    -111.545E-03     256.474E-03
             688     13.6859E-03     94.5008E-03    -15.9017E+06     111.662E+06     92.7576E+06     650.646E+03    -121.228E-03     233.092E-03    -111.863E-03     297.805E-03    -137.687E-03     249.621E-03    -111.538E-03     284.925E-03
             689     14.4901E-03     94.8397E-03    -11.2194E+06     126.001E+06     99.3298E+06     1.07660E+06    -117.175E-03     229.012E-03    -111.837E-03     285.658E-03    -135.040E-03     246.996E-03    -111.507E-03     275.695E-03
             690     15.2960E-03     95.1422E-03    -5.82748E+06     126.616E+06     97.2018E+06     543.340E+03    -111.930E-03     223.684E-03    -111.755E-03     202.422E-03    -123.836E-03     235.738E-03    -111.444E-03     197.025E-03
             691     804.873E-06     93.4267E-03    -79.3932E+06    -227.131E+06    -77.7562E+06    -164.368E+03    -111.959E-03     223.795E-03    -111.836E-03     15.1091E-03    -111.926E-03     222.901E-03    -111.781E-03     14.7664E-03
             692     1.60967E-03     93.4503E-03    -77.5328E+06    -223.288E+06    -71.7197E+06    -309.345E+03    -112.080E-03     223.974E-03    -111.894E-03     27.8666E-03    -112.079E-03     223.114E-03    -111.817E-03     27.2237E-03
             693     2.41430E-03     93.4892E-03    -75.0773E+06    -218.165E+06    -64.0337E+06     25.5727E+03    -112.242E-03     224.160E-03    -111.918E-03     41.2254E-03    -112.295E-03     223.358E-03    -111.813E-03     40.2534E-03
             694     3.21926E-03     93.5426E-03    -71.5952E+06    -210.526E+06    -54.7076E+06     351.366E+03    -112.485E-03     224.415E-03    -111.930E-03     54.5627E-03    -112.617E-03     223.705E-03    -111.795E-03     53.2317E-03
             695     4.02404E-03     93.6112E-03    -66.8030E+06    -197.566E+06    -43.5036E+06     585.841E+03    -112.831E-03     224.771E-03    -111.940E-03     67.7599E-03    -113.075E-03     224.203E-03    -111.774E-03     66.0295E-03
             696     4.82911E-03     93.6941E-03    -61.8672E+06    -186.802E+06    -33.3836E+06     804.764E+03    -113.271E-03     225.224E-03    -111.953E-03     80.6078E-03    -113.656E-03     224.823E-03    -111.760E-03     78.4288E-03
             697     5.63382E-03     93.7912E-03    -57.0484E+06    -179.018E+06    -25.6431E+06     832.091E+03    -113.725E-03     225.688E-03    -111.963E-03     93.2179E-03    -114.286E-03     225.486E-03    -111.749E-03     90.5371E-03
             698     6.43889E-03     93.9020E-03    -52.1693E+06    -154.312E+06    -19.7393E+06     811.032E+03    -114.132E-03     226.068E-03    -111.936E-03     105.810E-03    -114.946E-03     226.206E-03    -111.735E-03     102.571E-03
             699     7.24375E-03     94.0272E-03    -48.0666E+06    -137.640E+06    -13.9200E+06     909.054E+03    -114.629E-03     226.549E-03    -111.919E-03     118.184E-03    -115.760E-03     227.060E-03    -111.720E-03     114.303E-03
             700     8.04883E-03     94.1651E-03    -44.4427E+06    -125.127E+06    -9.81281E+06     1.14129E+06    -115.123E-03     227.028E-03    -111.905E-03     130.599E-03    -116.659E-03     227.990E-03    -111.708E-03     125.992E-03
             701     8.85358E-03     94.3169E-03    -40.8370E+06    -95.8444E+06    -7.21851E+06     1.37282E+06    -115.434E-03     227.288E-03    -111.854E-03     143.379E-03    -117.517E-03     228.907E-03    -111.692E-03     137.961E-03
             702     9.65891E-03     94.4827E-03    -37.3165E+06    -59.1811E+06    -2.41146E+06     2.22635E+06    -115.725E-03     227.521E-03    -111.796E-03     156.551E-03    -118.541E-03     230.001E-03    -111.668E-03     150.212E-03
             703     10.4642E-03     94.6630E-03    -33.7458E+06    -4.09870E+06     4.33978E+06     3.01213E+06    -115.967E-03     227.684E-03    -111.717E-03     171.265E-03    -119.829E-03     231.399E-03    -111.640E-03     163.836E-03
             704     11.2691E-03     94.8602E-03    -30.2929E+06     49.9557E+06     14.9202E+06     3.09228E+06    -116.328E-03     227.977E-03    -111.649E-03     192.530E-03    -121.777E-03     233.452E-03    -111.603E-03     183.770E-03
             705     12.0757E-03     95.0876E-03    -26.1680E+06     81.4596E+06     41.5576E+06     3.17074E+06    -117.908E-03     229.596E-03    -111.688E-03     226.271E-03    -126.017E-03     237.781E-03    -111.561E-03     215.766E-03
             706     12.8803E-03     95.3610E-03    -22.1952E+06     97.1501E+06     73.0726E+06     1.92616E+06    -120.278E-03     232.065E-03    -111.788E-03     269.291E-03    -132.563E-03     244.404E-03    -111.531E-03     256.851E-03
             707     13.6846E-03     95.6853E-03    -17.4752E+06     109.382E+06     90.9499E+06     1.08004E+06    -120.636E-03     232.456E-03    -111.820E-03     298.022E-03    -137.054E-03     248.936E-03    -111.499E-03     285.267E-03
             708     14.4912E-03     96.0255E-03    -10.1472E+06     126.771E+06     100.637E+06     1.52781E+06    -116.940E-03     228.718E-03    -111.779E-03     285.171E-03    -134.753E-03     246.654E-03    -111.445E-03     275.267E-03
             709     15.2994E-03     96.3236E-03    -4.89105E+06     129.680E+06     99.4433E+06     746.312E+03    -112.329E-03     224.037E-03    -111.708E-03     202.240E-03    -124.237E-03     236.099E-03    -111.391E-03     196.789E-03
             710     804.608E-06     94.6113E-03     -79.959E+06    -227.432E+06    -78.0808E+06     138.239E+03    -112.015E-03     223.907E-03    -111.892E-03     15.2196E-03    -111.984E-03     223.012E-03    -111.836E-03     14.8783E-03
             711     1.60941E-03     94.6355E-03    -77.7686E+06    -223.474E+06    -71.5135E+06     367.106E+03    -112.025E-03     223.956E-03    -111.931E-03     27.8488E-03    -112.025E-03     223.094E-03    -111.851E-03     27.2154E-03
             712     2.41441E-03     94.6739E-03    -74.6296E+06    -218.853E+06    -64.1516E+06     743.188E+03    -112.223E-03     224.149E-03    -111.926E-03     41.1655E-03    -112.273E-03     223.343E-03    -111.821E-03     40.2008E-03
             713     3.21921E-03     94.7277E-03    -71.1359E+06    -210.359E+06    -55.9020E+06     535.463E+03    -112.516E-03     224.445E-03    -111.929E-03     54.4968E-03    -112.644E-03     223.736E-03    -111.801E-03     53.1653E-03
             714     4.02414E-03     94.7960E-03    -67.1166E+06    -197.789E+06    -45.8239E+06     85.4399E+03    -112.848E-03     224.787E-03    -111.939E-03     67.7160E-03    -113.089E-03     224.220E-03    -111.784E-03     65.9797E-03
             715     4.82890E-03     94.8792E-03    -62.1206E+06    -187.369E+06    -34.7999E+06     212.793E+03    -113.257E-03     225.212E-03    -111.955E-03     80.6327E-03    -113.640E-03     224.810E-03    -111.768E-03     78.4488E-03
             716     5.63392E-03     94.9762E-03    -57.1847E+06    -178.952E+06    -25.6751E+06     221.764E+03    -113.747E-03     225.717E-03    -111.970E-03     93.2445E-03    -114.310E-03     225.516E-03    -111.756E-03     90.5540E-03
             717     6.43862E-03     95.0871E-03    -52.8890E+06    -154.932E+06    -20.2964E+06     308.661E+03    -114.177E-03     226.122E-03    -111.945E-03     105.829E-03    -114.993E-03     226.259E-03    -111.745E-03     102.581E-03
             718     7.24376E-03     95.2120E-03    -48.7670E+06    -138.135E+06    -14.8116E+06     622.653E+03    -114.589E-03     226.515E-03    -111.926E-03     118.232E-03    -115.720E-03     227.026E-03    -111.729E-03     114.353E-03
             719     8.04866E-03     95.3502E-03    -44.9063E+06    -125.460E+06    -10.6514E+06     640.425E+03    -115.040E-03     226.944E-03    -111.904E-03     130.623E-03    -116.574E-03     227.905E-03    -111.710E-03     126.017E-03
             720     8.85386E-03     95.5020E-03    -41.3101E+06    -96.4360E+06    -8.44582E+06     689.077E+03    -115.434E-03     227.282E-03    -111.848E-03     143.329E-03    -117.518E-03     228.901E-03    -111.690E-03     137.901E-03
             721     9.65890E-03     95.6674E-03    -37.8507E+06    -61.0096E+06    -3.86733E+06     1.34525E+06    -115.721E-03     227.511E-03    -111.790E-03     156.530E-03    -118.534E-03     229.984E-03    -111.666E-03     150.182E-03
             722     10.4640E-03     95.8481E-03    -34.6018E+06    -5.65922E+06     3.00362E+06     2.14356E+06    -115.959E-03     227.671E-03    -111.712E-03     171.255E-03    -119.818E-03     231.378E-03    -111.638E-03     163.821E-03
             723     11.2696E-03     96.0452E-03    -31.4710E+06     49.7164E+06     13.9211E+06     2.76105E+06    -116.563E-03     228.216E-03    -111.654E-03     192.228E-03    -122.025E-03     233.703E-03    -111.610E-03     183.433E-03
             724     12.0741E-03     96.2717E-03    -28.5266E+06       79.88E+06     38.5552E+06     3.60510E+06    -117.763E-03     229.454E-03    -111.691E-03     226.227E-03    -125.867E-03     237.628E-03    -111.573E-03     215.741E-03
             725     12.8802E-03     96.5465E-03    -23.9286E+06     98.7618E+06     72.0748E+06     2.96517E+06    -119.532E-03     231.295E-03    -111.763E-03     269.858E-03    -131.790E-03     243.610E-03    -111.511E-03     257.538E-03
             726     13.6872E-03     96.8701E-03    -17.9954E+06     111.126E+06     92.4578E+06     1.63432E+06    -120.234E-03     232.002E-03    -111.768E-03     298.062E-03    -136.577E-03     248.407E-03    -111.441E-03     285.418E-03
             727     14.4935E-03     97.2100E-03    -12.1330E+06     126.865E+06     100.567E+06     701.476E+03    -117.566E-03     229.299E-03    -111.733E-03     284.517E-03    -135.388E-03     247.236E-03    -111.396E-03     274.510E-03
             728     15.2960E-03     97.5091E-03    -6.05836E+06     131.069E+06     100.030E+06    -247.619E+03    -113.154E-03     224.864E-03    -111.710E-03     201.338E-03    -125.138E-03     237.001E-03    -111.391E-03     195.740E-03
             729     804.793E-06     95.7969E-03    -79.5890E+06    -227.844E+06    -78.3603E+06     162.598E+03    -112.120E-03     223.930E-03    -111.810E-03     15.1295E-03    -112.086E-03     223.033E-03    -111.756E-03     14.7862E-03
             730     1.60957E-03     95.8202E-03    -77.6149E+06    -224.332E+06    -72.5986E+06     576.107E+03    -112.036E-03     223.973E-03    -111.937E-03     27.8181E-03    -112.033E-03     223.108E-03    -111.862E-03     27.1875E-03
             731     2.41431E-03     95.8591E-03    -74.7011E+06    -219.488E+06    -65.1695E+06     628.166E+03    -112.253E-03     224.187E-03    -111.934E-03     41.1756E-03    -112.301E-03     223.380E-03    -111.833E-03     40.2084E-03
             732     3.21912E-03     95.9125E-03    -71.0030E+06    -209.813E+06    -55.5500E+06     502.569E+03    -112.536E-03     224.482E-03    -111.946E-03     54.4896E-03    -112.666E-03     223.776E-03    -111.816E-03     53.1569E-03
             733     4.02393E-03     95.9811E-03    -66.9105E+06    -197.275E+06    -45.0040E+06     73.9242E+03    -112.854E-03     224.811E-03    -111.957E-03     67.7052E-03    -113.096E-03     224.246E-03    -111.799E-03     65.9689E-03
             734     4.82895E-03     96.0641E-03    -62.5659E+06    -187.850E+06    -35.4124E+06    -281.341E+03    -113.246E-03     225.213E-03    -111.966E-03     80.6517E-03    -113.630E-03     224.810E-03    -111.780E-03     78.4629E-03
             735     5.63380E-03     96.1613E-03    -57.9836E+06    -179.320E+06    -26.8463E+06    -100.031E+03    -113.730E-03     225.705E-03    -111.975E-03     93.2959E-03    -114.294E-03     225.505E-03    -111.765E-03     90.6038E-03
             736     6.43879E-03     96.2723E-03    -53.4725E+06    -154.995E+06    -21.3353E+06    -49.8118E+03    -114.181E-03     226.129E-03    -111.948E-03     105.800E-03    -114.998E-03     226.268E-03    -111.752E-03     102.547E-03
             737     7.24360E-03     96.3970E-03    -49.2453E+06    -138.290E+06    -15.8876E+06     69.0249E+03    -114.587E-03     226.515E-03    -111.928E-03     118.211E-03    -115.718E-03     227.027E-03    -111.736E-03     114.326E-03
             738     8.04874E-03     96.5352E-03    -45.3509E+06    -125.749E+06    -11.2262E+06     80.1728E+03    -114.997E-03     226.904E-03    -111.906E-03     130.588E-03    -116.532E-03     227.864E-03    -111.714E-03     125.976E-03
             739     8.85380E-03     96.6868E-03    -41.8872E+06    -97.0579E+06    -9.13960E+06     53.6114E+03    -115.429E-03     227.277E-03    -111.848E-03     143.272E-03    -117.512E-03     228.894E-03    -111.692E-03     137.836E-03
             740     9.65878E-03     96.8527E-03    -38.7340E+06    -62.7471E+06    -5.43337E+06     454.992E+03    -115.726E-03     227.515E-03    -111.789E-03     156.374E-03    -118.540E-03     229.984E-03    -111.669E-03     150.011E-03
             741     10.4642E-03     97.0324E-03    -35.8534E+06    -7.78819E+06     1.27688E+06     1.70163E+06    -115.959E-03     227.670E-03    -111.711E-03     171.309E-03    -119.814E-03     231.367E-03    -111.641E-03     163.877E-03
             742     11.2691E-03     97.2308E-03    -33.4271E+06     48.3405E+06     11.8098E+06     3.44707E+06    -116.576E-03     228.225E-03    -111.649E-03     192.568E-03    -122.043E-03     233.711E-03    -111.612E-03     183.791E-03
             743     12.0746E-03     97.4572E-03    -29.8825E+06     79.7250E+06     37.1603E+06     3.80407E+06    -117.622E-03     229.307E-03    -111.685E-03     225.950E-03    -125.749E-03     237.503E-03    -111.571E-03     215.455E-03
             744     12.8812E-03     97.7285E-03    -24.6480E+06     99.9714E+06     72.1682E+06     3.31789E+06    -119.425E-03     231.185E-03    -111.760E-03     268.940E-03    -131.662E-03     243.480E-03    -111.508E-03     256.616E-03
             745     13.6872E-03     98.0553E-03    -18.2180E+06     113.123E+06     93.0994E+06     1.37575E+06    -120.322E-03     232.099E-03    -111.777E-03     296.218E-03    -136.600E-03     248.444E-03    -111.449E-03     283.520E-03
             746     14.4918E-03     98.3939E-03    -11.3971E+06     127.816E+06     101.126E+06    -260.835E+03    -117.904E-03     229.669E-03    -111.765E-03     283.688E-03    -135.712E-03     247.597E-03    -111.428E-03     273.584E-03
             747     15.2985E-03     98.6980E-03    -4.77901E+06     131.182E+06     100.717E+06     102.975E+03    -113.502E-03     225.266E-03    -111.764E-03     200.518E-03    -125.470E-03     237.391E-03    -111.444E-03     194.901E-03
             748     804.621E-06     96.9816E-03    -79.6481E+06    -228.296E+06    -78.3316E+06     146.318E+03    -112.059E-03     223.894E-03    -111.835E-03     14.9246E-03    -112.024E-03     222.994E-03    -111.780E-03     14.5848E-03
             749     1.60947E-03     97.0054E-03    -77.8504E+06    -225.015E+06    -73.3484E+06     244.355E+03    -112.073E-03     224.000E-03    -111.927E-03     27.8091E-03    -112.069E-03     223.133E-03    -111.854E-03     27.1749E-03
             750     2.41428E-03     97.0440E-03    -74.7697E+06    -219.770E+06    -65.4806E+06     410.390E+03    -112.270E-03     224.208E-03    -111.938E-03     41.2284E-03    -112.318E-03     223.400E-03    -111.838E-03     40.2594E-03
             751     3.21913E-03     97.0977E-03    -71.1427E+06    -209.809E+06    -55.3516E+06     399.791E+03    -112.543E-03     224.496E-03    -111.954E-03     54.5811E-03    -112.673E-03     223.790E-03    -111.823E-03     53.2471E-03
             752     4.02400E-03     97.1660E-03    -66.9552E+06    -196.597E+06    -44.6344E+06     192.340E+03    -112.888E-03     224.855E-03    -111.967E-03     67.7400E-03    -113.132E-03     224.293E-03    -111.808E-03     66.0036E-03
             753     4.82879E-03     97.2491E-03    -62.5182E+06    -187.570E+06    -35.5456E+06    -203.510E+03    -113.286E-03     225.265E-03    -111.979E-03     80.6373E-03    -113.669E-03     224.864E-03    -111.794E-03     78.4474E-03
             754     5.63375E-03     97.3463E-03    -58.0447E+06     -179.58E+06    -27.7570E+06    -333.357E+03    -113.720E-03     225.705E-03    -111.985E-03     93.2891E-03    -114.282E-03     225.504E-03    -111.779E-03     90.5957E-03
             755     6.43858E-03     97.4574E-03    -53.9103E+06    -154.893E+06    -22.0418E+06    -232.045E+03    -114.131E-03     226.085E-03    -111.954E-03     105.765E-03    -114.949E-03     226.226E-03    -111.761E-03     102.512E-03
             756     7.24368E-03     97.5820E-03    -50.1504E+06    -138.331E+06    -16.5793E+06    -401.604E+03    -114.568E-03     226.499E-03    -111.931E-03     118.151E-03    -115.703E-03     227.013E-03    -111.741E-03     114.258E-03
             757     8.04860E-03     97.7201E-03    -46.0912E+06    -125.531E+06    -11.8265E+06    -658.883E+03    -115.046E-03     226.956E-03    -111.910E-03     130.597E-03    -116.584E-03     227.919E-03    -111.720E-03     125.973E-03
             758     8.85365E-03     97.8719E-03    -42.2148E+06    -97.4389E+06    -9.58529E+06    -881.045E+03    -115.448E-03     227.304E-03    -111.856E-03     143.250E-03    -117.532E-03     228.920E-03    -111.701E-03     137.800E-03
             759     9.65888E-03     98.0376E-03    -39.0258E+06    -64.7251E+06    -6.52113E+06    -75.6295E+03    -115.748E-03     227.545E-03    -111.798E-03     156.180E-03    -118.559E-03     230.008E-03    -111.680E-03     149.803E-03
             760     10.4638E-03     98.2173E-03    -36.3251E+06    -11.0849E+06    -271.718E+03     2.11218E+06    -115.937E-03     227.656E-03    -111.720E-03     171.141E-03    -119.786E-03     231.338E-03    -111.652E-03     163.713E-03
             761     11.2695E-03     98.4159E-03    -33.0581E+06     46.3761E+06     11.3482E+06     3.36237E+06    -116.374E-03     228.027E-03    -111.653E-03     192.357E-03    -121.824E-03     233.491E-03    -111.615E-03     183.600E-03
             762     12.0752E-03     98.6416E-03    -27.8652E+06     80.2537E+06     38.2232E+06     3.42100E+06    -117.903E-03     229.600E-03    -111.697E-03     224.914E-03    -126.034E-03     237.806E-03    -111.582E-03     214.363E-03
             763     12.8797E-03     98.9134E-03    -21.4294E+06     99.8426E+06     73.0567E+06     3.60942E+06    -120.187E-03     232.000E-03    -111.813E-03     267.587E-03    -132.423E-03     244.303E-03    -111.562E-03     255.147E-03
             764     13.6845E-03     99.2388E-03    -14.6658E+06     116.286E+06     95.1774E+06     2.69034E+06    -120.870E-03     232.747E-03    -111.877E-03     295.683E-03    -137.181E-03     249.142E-03    -111.548E-03     282.894E-03
             765     14.4910E-03     99.5789E-03    -9.94086E+06     130.938E+06     102.698E+06     1.31276E+06    -117.474E-03     229.339E-03    -111.865E-03     283.688E-03    -135.204E-03     247.200E-03    -111.527E-03     273.677E-03
             766     15.2935E-03     99.8834E-03    -5.59099E+06     130.559E+06     99.9371E+06     618.812E+03    -112.222E-03     224.025E-03    -111.803E-03     202.177E-03    -124.100E-03     236.057E-03    -111.485E-03     196.741E-03
             767     804.909E-06     98.1669E-03    -80.1870E+06    -228.832E+06    -78.8415E+06     35.3678E+03    -111.939E-03     223.746E-03    -111.807E-03     15.1696E-03    -111.906E-03     222.846E-03    -111.753E-03     14.8273E-03
             768     1.60955E-03     98.1903E-03    -78.1893E+06    -225.105E+06    -73.1408E+06     46.1397E+03    -112.112E-03     223.989E-03    -111.877E-03     27.9810E-03    -112.110E-03     223.122E-03    -111.803E-03     27.3415E-03
             769     2.41434E-03     98.2291E-03    -75.3576E+06    -220.277E+06    -65.7940E+06     204.246E+03    -112.312E-03     224.231E-03    -111.919E-03     41.2908E-03    -112.361E-03     223.422E-03    -111.820E-03     40.3201E-03
             770     3.21915E-03     98.2826E-03    -71.8107E+06    -209.778E+06    -57.0391E+06     230.480E+03    -112.584E-03     224.527E-03    -111.943E-03     54.6036E-03    -112.716E-03     223.824E-03    -111.820E-03     53.2680E-03
             771     4.02393E-03     98.3512E-03    -67.6513E+06    -196.165E+06    -46.4865E+06    -6.70315E+03    -112.932E-03     224.896E-03    -111.965E-03     67.7384E-03    -113.177E-03     224.340E-03    -111.815E-03     65.9977E-03
             772     4.82878E-03     98.4341E-03    -63.0864E+06    -186.823E+06    -36.2552E+06    -362.355E+03    -113.333E-03     225.322E-03    -111.989E-03     80.6334E-03    -113.720E-03     224.927E-03    -111.808E-03     78.4391E-03
             773     5.63357E-03     98.5314E-03    -58.4579E+06    -179.110E+06    -28.1261E+06    -753.567E+03    -113.718E-03     225.717E-03    -111.998E-03     93.2546E-03    -114.283E-03     225.520E-03    -111.795E-03     90.5547E-03
             774     6.43863E-03     98.6423E-03    -53.7393E+06    -155.306E+06    -22.5630E+06    -815.354E+03    -114.100E-03     226.064E-03    -111.963E-03     105.761E-03    -114.916E-03     226.202E-03    -111.773E-03     102.503E-03
             775     7.24358E-03     98.7671E-03    -49.3194E+06    -138.333E+06    -16.7073E+06    -515.037E+03    -114.582E-03     226.520E-03    -111.939E-03     118.080E-03    -115.713E-03     227.034E-03    -111.750E-03     114.183E-03
             776     8.04866E-03     98.9050E-03    -45.7484E+06    -124.336E+06    -11.7964E+06    -1.04391E+06    -115.057E-03     226.975E-03    -111.918E-03     130.544E-03    -116.595E-03     227.943E-03    -111.730E-03     125.915E-03
             777     8.85357E-03     99.0571E-03    -42.5004E+06    -97.4170E+06    -9.60948E+06    -1.61944E+06    -115.493E-03     227.361E-03    -111.868E-03     143.260E-03    -117.579E-03     228.977E-03    -111.713E-03     137.799E-03
             778     9.65850E-03     99.2223E-03    -39.5581E+06    -67.3385E+06    -6.78808E+06    -203.301E+03    -115.840E-03     227.658E-03    -111.818E-03     156.143E-03    -118.652E-03     230.110E-03    -111.697E-03     149.756E-03
             779     10.4637E-03     99.4028E-03    -36.3877E+06    -13.8508E+06    -1.00282E+06     1.53836E+06    -116.002E-03     227.745E-03    -111.743E-03     170.844E-03    -119.849E-03     231.416E-03    -111.675E-03     163.396E-03
             780     11.2690E-03     99.5996E-03    -32.1809E+06     44.8835E+06     10.5912E+06     1.97358E+06    -116.551E-03     228.233E-03    -111.682E-03     191.918E-03    -121.994E-03     233.691E-03    -111.648E-03     183.119E-03
             781     12.0739E-03     99.8273E-03    -27.5065E+06     79.1656E+06     37.3240E+06     1.86576E+06    -118.220E-03     229.961E-03    -111.740E-03     225.144E-03    -126.347E-03     238.162E-03    -111.628E-03     214.550E-03
             782     12.8787E-03     100.099E-03    -22.0180E+06     98.3739E+06     72.1901E+06     2.19441E+06    -120.443E-03     232.314E-03    -111.871E-03     267.970E-03    -132.699E-03     244.632E-03    -111.621E-03     255.491E-03
             783     13.6842E-03     100.424E-03    -16.9351E+06     117.676E+06     94.6445E+06     3.52134E+06    -121.072E-03     233.007E-03    -111.935E-03     297.575E-03    -137.457E-03     249.475E-03    -111.608E-03     284.795E-03
             784     14.4870E-03     100.765E-03    -11.0727E+06     133.754E+06     103.262E+06     2.95929E+06    -116.930E-03     228.827E-03    -111.897E-03     285.019E-03    -134.660E-03     246.694E-03    -111.559E-03     275.171E-03
             785     15.2986E-03     101.063E-03    -4.67339E+06     131.531E+06     100.914E+06     818.335E+03    -111.063E-03     222.845E-03    -111.782E-03     203.325E-03    -122.927E-03     234.867E-03    -111.461E-03     198.048E-03
             786     804.934E-06     99.3515E-03    -80.1264E+06    -228.629E+06    -78.8565E+06     23.4365E+03    -111.941E-03     223.651E-03    -111.710E-03     15.1713E-03    -111.908E-03     222.752E-03    -111.656E-03     14.8283E-03
             787     1.60977E-03     99.3756E-03    -78.3050E+06    -225.297E+06    -73.4862E+06     89.3972E+03    -112.118E-03     223.957E-03    -111.839E-03     27.9244E-03    -112.116E-03     223.090E-03    -111.767E-03     27.2853E-03
             788     2.41444E-03     99.4140E-03    -75.4697E+06    -220.561E+06    -66.1661E+06     74.5576E+03    -112.377E-03     224.283E-03    -111.906E-03     41.1927E-03    -112.426E-03     223.473E-03    -111.807E-03     40.2193E-03
             789     3.21912E-03     99.4679E-03    -71.7709E+06    -209.773E+06    -56.9766E+06     64.9223E+03    -112.633E-03     224.583E-03    -111.950E-03     54.5580E-03    -112.764E-03     223.880E-03    -111.826E-03     53.2198E-03
             790     4.02391E-03     99.5362E-03    -67.5660E+06    -195.648E+06    -46.6493E+06    -224.544E+03    -112.950E-03     224.926E-03    -111.976E-03     67.7327E-03    -113.196E-03     224.372E-03    -111.827E-03     65.9882E-03
             791     4.82868E-03     99.6194E-03    -63.3307E+06    -185.943E+06    -36.9764E+06    -773.478E+03    -113.333E-03     225.329E-03    -111.996E-03     80.6333E-03    -113.721E-03     224.939E-03    -111.820E-03     78.4333E-03
             792     5.63356E-03     99.7164E-03    -58.8600E+06    -178.269E+06    -28.6059E+06    -1.38617E+06    -113.735E-03     225.742E-03    -112.007E-03     93.1965E-03    -114.302E-03     225.551E-03    -111.807E-03     90.4863E-03
             793     6.43844E-03     99.8273E-03    -54.2796E+06    -155.069E+06    -23.1953E+06    -1.83357E+06    -114.138E-03     226.114E-03    -111.975E-03     105.727E-03    -114.956E-03     226.255E-03    -111.788E-03     102.453E-03
             794     7.24350E-03     99.9521E-03    -49.3320E+06    -138.967E+06    -17.4614E+06    -1.81254E+06    -114.603E-03     226.556E-03    -111.952E-03     118.079E-03    -115.732E-03     227.067E-03    -111.767E-03     114.164E-03
             795     8.04829E-03     100.090E-03    -44.6269E+06    -123.377E+06    -11.8217E+06    -1.62835E+06    -115.050E-03     226.981E-03    -111.931E-03     130.479E-03    -116.584E-03     227.953E-03    -111.746E-03     125.838E-03
             796     8.85358E-03     100.242E-03    -41.2140E+06    -98.0701E+06    -8.13051E+06    -1.19323E+06    -115.492E-03     227.380E-03    -111.888E-03     143.317E-03    -117.571E-03     228.988E-03    -111.727E-03     137.864E-03
             797     9.65846E-03     100.408E-03    -38.3135E+06    -69.6843E+06    -6.04465E+06    -182.041E+03    -115.866E-03     227.701E-03    -111.835E-03     156.232E-03    -118.667E-03     230.137E-03    -111.709E-03     149.851E-03
             798     10.4634E-03     100.587E-03    -35.2947E+06    -15.1350E+06    -1.74920E+06     685.059E+03    -116.145E-03     227.900E-03    -111.755E-03     171.112E-03    -119.988E-03     231.570E-03    -111.691E-03     163.645E-03
             799     11.2683E-03     100.786E-03    -32.6655E+06     43.6668E+06     9.14524E+06     1.32196E+06    -116.734E-03     228.433E-03    -111.699E-03     192.725E-03    -122.186E-03     233.898E-03    -111.669E-03     183.907E-03
             800     12.0735E-03     101.012E-03    -29.6147E+06     79.2608E+06     35.7170E+06     1.23407E+06    -117.996E-03     229.741E-03    -111.745E-03     226.600E-03    -126.130E-03     237.948E-03    -111.639E-03     216.044E-03
             801     12.8791E-03     101.286E-03    -25.2536E+06     96.2959E+06     70.3209E+06     1.91746E+06    -120.163E-03     232.011E-03    -111.848E-03     269.948E-03    -132.450E-03     244.346E-03    -111.599E-03     257.528E-03
             802     13.6838E-03     101.609E-03    -18.8684E+06     116.591E+06     93.3591E+06     3.06452E+06    -120.241E-03     232.104E-03    -111.863E-03     299.211E-03    -136.628E-03     248.568E-03    -111.538E-03     286.586E-03
             803     14.4932E-03     101.951E-03    -10.4267E+06     135.364E+06     103.906E+06     2.11257E+06    -116.805E-03     228.596E-03    -111.792E-03     286.849E-03    -134.690E-03     246.624E-03    -111.454E-03     276.990E-03
             804     15.2950E-03     102.245E-03    -4.04206E+06     132.880E+06     102.021E+06     1.16703E+06    -112.152E-03     223.860E-03    -111.707E-03     203.225E-03    -124.172E-03     236.041E-03    -111.384E-03     197.766E-03
             805     804.737E-06     100.536E-03    -80.4723E+06    -228.754E+06    -78.9121E+06     138.123E+03    -111.990E-03     223.844E-03    -111.854E-03     15.0000E-03    -111.958E-03     222.945E-03    -111.800E-03     14.6610E-03
             806     1.60956E-03     100.560E-03    -78.4924E+06    -225.367E+06    -73.5932E+06     39.1507E+03    -112.082E-03     223.992E-03    -111.910E-03     27.8839E-03    -112.080E-03     223.125E-03    -111.838E-03     27.2459E-03
             807     2.41428E-03     100.599E-03    -75.4788E+06    -220.482E+06    -66.1037E+06    -163.331E+03    -112.354E-03     224.295E-03    -111.941E-03     41.1312E-03    -112.403E-03     223.485E-03    -111.842E-03     40.1540E-03
             808     3.21904E-03     100.653E-03    -71.8732E+06    -209.658E+06    -56.7261E+06    -217.564E+03    -112.630E-03     224.604E-03    -111.974E-03     54.5130E-03    -112.762E-03     223.901E-03    -111.849E-03     53.1699E-03
             809     4.02380E-03     100.722E-03    -67.5844E+06    -194.804E+06    -46.8367E+06    -617.462E+03    -112.933E-03     224.923E-03    -111.990E-03     67.7342E-03    -113.180E-03     224.375E-03    -111.844E-03     65.9851E-03
             810     4.82865E-03     100.804E-03    -62.9188E+06    -184.817E+06    -37.4459E+06    -1.23532E+06    -113.312E-03     225.314E-03    -112.003E-03     80.6369E-03    -113.699E-03     224.930E-03    -111.831E-03     78.4316E-03
             811     5.63353E-03     100.902E-03    -58.2948E+06    -177.265E+06    -28.8064E+06    -1.81642E+06    -113.759E-03     225.772E-03    -112.013E-03     93.2066E-03    -114.324E-03     225.585E-03    -111.816E-03     90.4891E-03
             812     6.43838E-03     101.012E-03    -54.0483E+06    -154.025E+06    -23.1957E+06    -2.31618E+06    -114.178E-03     226.163E-03    -111.985E-03     105.774E-03    -114.996E-03     226.310E-03    -111.799E-03     102.491E-03
             813     7.24324E-03     101.137E-03    -50.5628E+06    -138.613E+06    -18.6519E+06    -2.97538E+06    -114.587E-03     226.546E-03    -111.959E-03     118.205E-03    -115.720E-03     227.062E-03    -111.778E-03     114.277E-03
             814     8.04845E-03     101.275E-03    -46.9049E+06    -123.568E+06    -14.3246E+06    -3.24123E+06    -115.048E-03     226.978E-03    -111.931E-03     130.680E-03    -116.589E-03     227.956E-03    -111.755E-03     126.022E-03
             815     8.85316E-03     101.427E-03    -42.7184E+06    -99.7904E+06    -10.2900E+06    -2.35579E+06    -115.404E-03     227.288E-03    -111.885E-03     143.533E-03    -117.483E-03     228.891E-03    -111.729E-03     138.075E-03
             816     9.65850E-03     101.593E-03    -38.7186E+06    -72.1034E+06    -7.26546E+06    -1.04073E+06    -115.697E-03     227.520E-03    -111.822E-03     156.737E-03    -118.492E-03     229.942E-03    -111.698E-03     150.366E-03
             817     10.4636E-03     101.773E-03    -35.8776E+06    -17.0408E+06    -3.23033E+06     453.839E+03    -115.985E-03     227.708E-03    -111.723E-03     171.948E-03    -119.830E-03     231.375E-03    -111.663E-03     164.495E-03
             818     11.2691E-03     101.970E-03    -33.2508E+06     43.3867E+06     8.24484E+06     1.59412E+06    -116.458E-03     228.105E-03    -111.647E-03     193.850E-03    -121.911E-03     233.570E-03    -111.620E-03     185.075E-03
             819     12.0745E-03     102.198E-03    -30.1865E+06     79.6281E+06     35.2502E+06     2.21574E+06    -117.702E-03     229.372E-03    -111.670E-03     227.593E-03    -125.847E-03     237.590E-03    -111.565E-03     217.087E-03
             820     12.8809E-03     102.469E-03    -25.2042E+06     96.0127E+06     69.4009E+06     2.32034E+06    -119.677E-03     231.419E-03    -111.742E-03     270.913E-03    -131.944E-03     243.735E-03    -111.497E-03     258.586E-03
             821     13.6876E-03     102.797E-03    -18.0882E+06     116.346E+06     93.4068E+06     1.64574E+06    -119.768E-03     231.506E-03    -111.739E-03     297.842E-03    -136.088E-03     247.905E-03    -111.414E-03     285.277E-03
             822     14.4935E-03     103.128E-03    -11.5518E+06     135.037E+06     103.960E+06     1.62780E+06    -116.910E-03     228.588E-03    -111.678E-03     286.324E-03    -134.863E-03     246.677E-03    -111.337E-03     276.394E-03
             823     15.3015E-03     103.442E-03    -5.37064E+06     133.783E+06     102.120E+06     1.16171E+06    -113.127E-03     224.757E-03    -111.630E-03     202.356E-03    -125.154E-03     236.944E-03    -111.306E-03     196.757E-03
             824     804.601E-06     101.721E-03    -80.7554E+06    -229.063E+06    -79.3032E+06     54.2441E+03    -112.022E-03     224.013E-03    -111.991E-03     15.1651E-03    -111.990E-03     223.113E-03    -111.939E-03     14.8234E-03
             825     1.60932E-03     101.746E-03    -78.5515E+06    -225.097E+06    -73.3770E+06    -77.3298E+03    -112.098E-03     224.080E-03    -111.982E-03     28.0487E-03    -112.098E-03     223.214E-03    -111.908E-03     27.4077E-03
             826     2.41422E-03     101.784E-03    -75.7082E+06    -220.248E+06    -65.9831E+06    -175.855E+03    -112.313E-03     224.297E-03    -111.984E-03     41.2982E-03    -112.364E-03     223.489E-03    -111.885E-03     40.3203E-03
             827     3.21892E-03     101.838E-03    -72.0744E+06    -209.072E+06    -57.2593E+06    -643.812E+03    -112.616E-03     224.609E-03    -111.994E-03     54.5634E-03    -112.749E-03     223.911E-03    -111.873E-03     53.2145E-03
             828     4.02377E-03     101.907E-03    -67.8148E+06    -193.488E+06    -47.7289E+06    -1.27807E+06    -112.927E-03     224.927E-03    -112.001E-03     67.7263E-03    -113.175E-03     224.386E-03    -111.861E-03     65.9702E-03
             829     4.82862E-03     101.990E-03    -63.1857E+06    -183.529E+06    -38.2861E+06    -1.99872E+06    -113.294E-03     225.303E-03    -112.009E-03     80.5884E-03    -113.682E-03     224.927E-03    -111.843E-03     78.3748E-03
             830     5.63347E-03     102.087E-03    -58.3235E+06    -176.260E+06    -29.6705E+06    -2.58837E+06    -113.715E-03     225.729E-03    -112.014E-03     93.2430E-03    -114.281E-03     225.548E-03    -111.822E-03     90.5187E-03
             831     6.43835E-03     102.198E-03    -53.7043E+06    -153.006E+06    -23.8063E+06    -3.09995E+06    -114.114E-03     226.092E-03    -111.978E-03     105.857E-03    -114.930E-03     226.244E-03    -111.798E-03     102.568E-03
             832     7.24346E-03     102.322E-03    -49.3025E+06    -137.742E+06    -18.2738E+06    -3.13977E+06    -114.542E-03     226.491E-03    -111.949E-03     118.366E-03    -115.671E-03     227.009E-03    -111.769E-03     114.441E-03
             833     8.04829E-03     102.460E-03    -45.7827E+06    -123.006E+06    -14.3783E+06    -3.17274E+06    -114.944E-03     226.855E-03    -111.910E-03     130.987E-03    -116.479E-03     227.832E-03    -111.737E-03     126.341E-03
             834     8.85367E-03     102.612E-03    -43.0234E+06    -100.321E+06    -11.1818E+06    -3.38638E+06    -115.239E-03     227.090E-03    -111.851E-03     143.843E-03    -117.317E-03     228.691E-03    -111.699E-03     138.385E-03
             835     9.65894E-03     102.777E-03    -40.2950E+06    -74.9956E+06    -8.83184E+06    -2.20438E+06    -115.452E-03     227.225E-03    -111.773E-03     157.159E-03    -118.248E-03     229.637E-03    -111.650E-03     150.790E-03
             836     10.4647E-03     102.958E-03    -37.0852E+06    -20.2556E+06    -5.18136E+06    -279.793E+03    -115.668E-03     227.319E-03    -111.651E-03     172.313E-03    -119.506E-03     230.969E-03    -111.594E-03     164.881E-03
             837     11.2702E-03     103.155E-03    -33.8613E+06     41.7089E+06     6.06399E+06     1.29854E+06    -116.171E-03     227.724E-03    -111.553E-03     193.621E-03    -121.615E-03     233.178E-03    -111.534E-03     184.868E-03
             838     12.0767E-03     103.382E-03    -30.2893E+06     79.0978E+06     33.0660E+06     2.67641E+06    -117.614E-03     229.182E-03    -111.569E-03     227.101E-03    -125.742E-03     237.389E-03    -111.474E-03     216.614E-03
             839     12.8817E-03     103.655E-03    -26.1126E+06     97.7629E+06     67.9841E+06     1.83006E+06    -119.349E-03     230.994E-03    -111.644E-03     269.322E-03    -131.581E-03     243.283E-03    -111.408E-03     257.022E-03
             840     13.6885E-03     103.977E-03    -19.4161E+06     116.214E+06     92.5774E+06    -271.754E+03    -120.197E-03     231.865E-03    -111.668E-03     296.917E-03    -136.539E-03     248.282E-03    -111.346E-03     284.214E-03
             841     14.4931E-03     104.318E-03    -11.1842E+06     132.639E+06     103.771E+06     378.393E+03    -117.582E-03     229.237E-03    -111.655E-03     284.966E-03    -135.460E-03     247.245E-03    -111.312E-03     274.903E-03
             842     15.2981E-03     104.618E-03    -4.80014E+06     134.906E+06     102.667E+06     1.77987E+06    -112.599E-03     224.217E-03    -111.619E-03     201.601E-03    -124.534E-03     236.317E-03    -111.294E-03     196.072E-03
             843     804.798E-06     102.907E-03    -80.8152E+06    -228.692E+06    -79.5839E+06    -321.337E+03    -112.130E-03     223.963E-03    -111.833E-03     15.3582E-03    -112.099E-03     223.066E-03    -111.782E-03     15.0089E-03
             844     1.60947E-03     102.930E-03    -78.7057E+06    -224.954E+06    -73.7209E+06    -368.696E+03    -112.159E-03     224.132E-03    -111.973E-03     28.0857E-03    -112.159E-03     223.268E-03    -111.901E-03     27.4408E-03
             845     2.41413E-03     102.970E-03    -75.4925E+06    -219.832E+06    -66.0363E+06    -445.639E+03    -112.342E-03     224.337E-03    -111.995E-03     41.3872E-03    -112.392E-03     223.531E-03    -111.897E-03     40.4067E-03
             846     3.21896E-03     103.023E-03    -71.8344E+06    -207.850E+06    -57.4321E+06    -1.01087E+06    -112.618E-03     224.622E-03    -112.004E-03     54.6244E-03    -112.752E-03     223.930E-03    -111.885E-03     53.2724E-03
             847     4.02367E-03     103.092E-03    -67.6957E+06    -191.674E+06    -48.3674E+06    -2.05527E+06    -112.933E-03     224.939E-03    -112.006E-03     67.7441E-03    -113.183E-03     224.408E-03    -111.872E-03     65.9790E-03
             848     4.82847E-03     103.175E-03    -62.9368E+06    -181.896E+06    -39.0130E+06    -3.02127E+06    -113.250E-03     225.259E-03    -112.009E-03     80.6263E-03    -113.638E-03     224.891E-03    -111.849E-03     78.4021E-03
             849     5.63344E-03     103.272E-03    -58.1255E+06    -175.036E+06    -30.3965E+06    -3.63522E+06    -113.614E-03     225.617E-03    -112.003E-03     93.3555E-03    -114.179E-03     225.442E-03    -111.817E-03     90.6233E-03
             850     6.43852E-03     103.382E-03    -53.7013E+06    -151.797E+06    -24.4906E+06    -4.03157E+06    -114.002E-03     225.956E-03    -111.954E-03     105.976E-03    -114.818E-03     226.114E-03    -111.779E-03     102.681E-03
             851     7.24357E-03     103.507E-03    -49.8314E+06     -137.82E+06    -19.4008E+06    -4.14427E+06    -114.405E-03     226.318E-03    -111.913E-03     118.494E-03    -115.533E-03     226.836E-03    -111.738E-03     114.565E-03
             852     8.04889E-03     103.645E-03    -45.7617E+06    -122.403E+06    -15.0487E+06    -3.89717E+06    -114.759E-03     226.620E-03    -111.861E-03     131.097E-03    -116.291E-03     227.599E-03    -111.692E-03     126.456E-03
             853     8.85421E-03     103.797E-03    -41.8121E+06    -100.490E+06    -10.2642E+06    -3.22266E+06    -115.065E-03     226.860E-03    -111.795E-03     143.850E-03    -117.136E-03     228.456E-03    -111.640E-03     138.405E-03
             854     9.65969E-03     103.962E-03    -38.4922E+06    -76.5846E+06    -8.12014E+06    -2.71049E+06    -115.360E-03     227.072E-03    -111.711E-03     157.019E-03    -118.146E-03     229.472E-03    -111.585E-03     150.647E-03
             855     10.4653E-03     104.142E-03    -35.5294E+06    -23.7285E+06    -6.44898E+06    -1.05798E+06    -115.627E-03     227.210E-03    -111.583E-03     172.005E-03    -119.444E-03     230.836E-03    -111.530E-03     164.572E-03
             856     11.2711E-03     104.340E-03    -33.6583E+06     38.5171E+06     3.13644E+06     2.30015E+06    -116.258E-03     227.745E-03    -111.487E-03     193.004E-03    -121.689E-03     233.184E-03    -111.478E-03     184.256E-03
             857     12.0760E-03     104.566E-03    -31.5602E+06     78.9878E+06     29.2932E+06     3.19723E+06    -117.507E-03     229.011E-03    -111.504E-03     226.402E-03    -125.616E-03     237.203E-03    -111.426E-03     215.942E-03
             858     12.8825E-03     104.840E-03    -25.5934E+06     100.662E+06     67.8627E+06     1.01019E+06    -119.355E-03     230.950E-03    -111.596E-03     268.720E-03    -131.572E-03     243.237E-03    -111.365E-03     256.406E-03
             859     13.6880E-03     105.160E-03    -18.3623E+06     117.969E+06     93.6620E+06    -477.774E+03    -120.730E-03     232.372E-03    -111.642E-03     298.026E-03    -137.102E-03     248.826E-03    -111.318E-03     285.240E-03
             860     14.4938E-03     105.505E-03    -12.7421E+06     129.241E+06     102.101E+06    -111.539E+03    -117.907E-03     229.548E-03    -111.641E-03     285.621E-03    -135.746E-03     247.505E-03    -111.300E-03     275.524E-03
             861     15.2982E-03     105.803E-03    -6.28599E+06     134.411E+06     101.910E+06     500.719E+03    -112.008E-03     223.603E-03    -111.595E-03     202.906E-03    -123.987E-03     235.741E-03    -111.271E-03     197.417E-03
             862     804.740E-06     104.092E-03    -80.8257E+06    -227.387E+06    -79.2356E+06    -476.459E+03    -112.142E-03     223.949E-03    -111.807E-03     15.1965E-03    -112.113E-03     223.058E-03    -111.756E-03     14.8486E-03
             863     1.60945E-03     104.116E-03    -78.4084E+06    -224.068E+06    -73.6451E+06    -1.08367E+06    -112.165E-03     224.133E-03    -111.969E-03     28.0169E-03    -112.164E-03     223.273E-03    -111.898E-03     27.3652E-03
             864     2.41417E-03     104.155E-03    -75.1072E+06    -219.444E+06    -66.1999E+06    -1.30769E+06    -112.360E-03     224.355E-03    -111.995E-03     41.3659E-03    -112.409E-03     223.550E-03    -111.899E-03     40.3747E-03
             865     3.21887E-03     104.209E-03    -71.3273E+06    -206.441E+06    -57.8134E+06    -1.68918E+06    -112.588E-03     224.587E-03    -111.999E-03     54.7128E-03    -112.720E-03     223.901E-03    -111.885E-03     53.3535E-03
             866     4.02370E-03     104.277E-03    -67.3015E+06    -189.058E+06    -48.8738E+06    -2.83923E+06    -112.862E-03     224.850E-03    -111.988E-03     67.8723E-03    -113.112E-03     224.332E-03    -111.861E-03     66.0986E-03
             867     4.82862E-03     104.360E-03    -62.8881E+06    -179.830E+06    -39.6498E+06    -4.03907E+06    -113.177E-03     225.158E-03    -111.981E-03     80.7358E-03    -113.566E-03     224.801E-03    -111.827E-03     78.5010E-03
             868     5.63366E-03     104.457E-03    -58.3227E+06    -173.543E+06    -31.3482E+06    -4.79425E+06    -113.530E-03     225.496E-03    -111.966E-03     93.4630E-03    -114.096E-03     225.330E-03    -111.786E-03     90.7204E-03
             869     6.43873E-03     104.567E-03    -53.9299E+06    -150.804E+06    -25.6176E+06    -5.01213E+06    -113.884E-03     225.791E-03    -111.908E-03     106.103E-03    -114.700E-03     225.956E-03    -111.739E-03     102.804E-03
             870     7.24399E-03     104.692E-03    -49.6974E+06    -137.265E+06    -19.9124E+06    -5.03929E+06    -114.258E-03     226.117E-03    -111.859E-03     118.535E-03    -115.384E-03     226.637E-03    -111.687E-03     114.603E-03
             871     8.04930E-03     104.830E-03    -45.7074E+06    -122.040E+06    -15.7403E+06    -5.23055E+06    -114.624E-03     226.421E-03    -111.797E-03     131.077E-03    -116.153E-03     227.400E-03    -111.632E-03     126.429E-03
             872     8.85474E-03     104.981E-03    -41.7538E+06    -101.772E+06    -11.6462E+06    -4.77653E+06    -114.982E-03     226.708E-03    -111.726E-03     143.794E-03    -117.047E-03     228.298E-03    -111.576E-03     138.335E-03
             873     9.66036E-03     105.146E-03    -38.0367E+06    -77.1842E+06    -8.80489E+06    -3.66265E+06    -115.405E-03     227.053E-03    -111.647E-03     156.990E-03    -118.185E-03     229.449E-03    -111.524E-03     150.608E-03
             874     10.4657E-03     105.327E-03    -35.3051E+06    -28.1149E+06    -5.86594E+06    -1.30938E+06    -115.766E-03     227.309E-03    -111.543E-03     171.968E-03    -119.578E-03     230.913E-03    -111.480E-03     164.526E-03
             875     11.2710E-03     105.524E-03    -32.5436E+06     32.6642E+06     370.902E+03     2.95781E+06    -116.277E-03     227.714E-03    -111.437E-03     193.369E-03    -121.686E-03     233.123E-03    -111.436E-03     184.643E-03
             876     12.0769E-03     105.752E-03    -28.0238E+06     81.6219E+06     25.9256E+06     3.72605E+06    -117.390E-03     228.822E-03    -111.432E-03     226.607E-03    -125.471E-03     237.018E-03    -111.380E-03     216.178E-03
             877     12.8830E-03     106.021E-03    -22.7121E+06     103.522E+06     67.2541E+06     1.18187E+06    -119.595E-03     231.134E-03    -111.538E-03     269.318E-03    -131.798E-03     243.428E-03    -111.319E-03     256.979E-03
             878     13.6892E-03     106.348E-03    -17.9141E+06     118.222E+06     93.4300E+06     788.119E+03    -120.749E-03     232.343E-03    -111.594E-03     299.151E-03    -137.110E-03     248.789E-03    -111.272E-03     286.401E-03
             879     14.4936E-03     106.689E-03    -12.4668E+06     129.910E+06     102.789E+06     422.372E+03    -117.091E-03     228.659E-03    -111.569E-03     286.500E-03    -134.926E-03     246.613E-03    -111.225E-03     276.537E-03
             880     15.3015E-03     106.988E-03    -6.16697E+06     134.056E+06     102.479E+06    -481.803E+03    -111.802E-03     223.296E-03    -111.494E-03     203.281E-03    -123.775E-03     235.426E-03    -111.167E-03     197.836E-03
             881     804.655E-06     105.277E-03    -80.9312E+06    -225.228E+06    -79.9028E+06    -1.16357E+06    -111.987E-03     224.019E-03    -112.033E-03     15.1625E-03    -111.961E-03     223.140E-03    -111.988E-03     14.8044E-03
             882     1.60940E-03     105.301E-03    -78.6536E+06    -222.134E+06    -73.7967E+06    -1.81269E+06    -112.115E-03     224.103E-03    -111.988E-03     28.0623E-03    -112.119E-03     223.253E-03    -111.921E-03     27.4009E-03
             883     2.41414E-03     105.340E-03    -75.3454E+06    -218.467E+06    -66.3942E+06    -2.33959E+06    -112.305E-03     224.295E-03    -111.990E-03     41.3750E-03    -112.357E-03     223.496E-03    -111.896E-03     40.3713E-03
             884     3.21896E-03     105.393E-03    -71.3137E+06    -204.604E+06    -58.6062E+06    -2.93735E+06    -112.491E-03     224.463E-03    -111.972E-03     54.7474E-03    -112.625E-03     223.788E-03    -111.865E-03     53.3746E-03
             885     4.02392E-03     105.462E-03    -67.0945E+06    -186.209E+06    -49.9360E+06    -3.86788E+06    -112.730E-03     224.670E-03    -111.939E-03     67.9289E-03    -112.982E-03     224.167E-03    -111.822E-03     66.1469E-03
             886     4.82890E-03     105.545E-03    -62.9413E+06    -177.328E+06     -40.599E+06    -4.92819E+06    -113.074E-03     224.995E-03    -111.920E-03     80.7857E-03    -113.466E-03     224.651E-03    -111.775E-03     78.5441E-03
             887     5.63392E-03     105.642E-03    -58.4698E+06    -171.414E+06    -32.0226E+06    -5.92463E+06    -113.441E-03     225.342E-03    -111.901E-03     93.5431E-03    -114.009E-03     225.187E-03    -111.727E-03     90.7917E-03
             888     6.43913E-03     105.752E-03    -53.8436E+06     -150.15E+06    -26.3561E+06    -6.43821E+06    -113.750E-03     225.588E-03    -111.837E-03     106.217E-03    -114.565E-03     225.755E-03    -111.673E-03     102.908E-03
             889     7.24451E-03     105.876E-03    -49.5795E+06    -136.672E+06    -20.7739E+06    -6.34337E+06    -114.134E-03     225.914E-03    -111.779E-03     118.714E-03    -115.258E-03     226.436E-03    -111.613E-03     114.779E-03
             890     8.04984E-03     106.014E-03    -45.7243E+06    -121.184E+06    -16.3192E+06    -6.15600E+06    -114.566E-03     226.281E-03    -111.715E-03     131.254E-03    -116.093E-03     227.263E-03    -111.555E-03     126.606E-03
             891     8.85549E-03     106.165E-03    -42.4650E+06    -102.105E+06    -12.3977E+06    -5.89494E+06    -114.990E-03     226.639E-03    -111.649E-03     143.976E-03    -117.056E-03     228.228E-03    -111.502E-03     138.510E-03
             892     9.66075E-03     106.331E-03    -39.7796E+06    -78.7792E+06    -10.5931E+06    -4.90142E+06    -115.400E-03     226.974E-03    -111.574E-03     157.325E-03    -118.183E-03     229.367E-03    -111.455E-03     150.936E-03
             893     10.4664E-03     106.511E-03    -36.6749E+06    -33.4993E+06    -6.41380E+06    -2.32745E+06    -115.683E-03     227.162E-03    -111.479E-03     172.529E-03    -119.488E-03     230.737E-03    -111.409E-03     165.098E-03
             894     11.2719E-03     106.709E-03    -32.2505E+06     27.1462E+06    -1.26347E+06    -174.485E+03    -116.099E-03     227.456E-03    -111.356E-03     193.983E-03    -121.490E-03     232.832E-03    -111.355E-03     185.249E-03
             895     12.0782E-03     106.935E-03    -26.5877E+06     81.5576E+06     20.2994E+06     846.795E+03    -117.505E-03     228.823E-03    -111.318E-03     227.165E-03    -125.573E-03     237.028E-03    -111.297E-03     216.687E-03
             896     12.8839E-03     107.207E-03    -21.1772E+06     104.835E+06     63.0972E+06     2.30572E+06    -119.902E-03     231.344E-03    -111.442E-03     270.047E-03    -132.107E-03     243.663E-03    -111.248E-03     257.688E-03
             897     13.6890E-03     107.531E-03    -15.3353E+06     118.990E+06     93.5980E+06     2.61526E+06    -120.341E-03     231.857E-03    -111.516E-03     299.364E-03    -136.693E-03     248.305E-03    -111.198E-03     286.697E-03
             898     14.4973E-03     107.874E-03    -8.73673E+06     131.251E+06     105.164E+06     1.79503E+06    -116.408E-03     227.880E-03    -111.471E-03     285.898E-03    -134.129E-03     245.731E-03    -111.123E-03     276.081E-03
             899     15.3027E-03     108.171E-03    -3.52223E+06     135.140E+06     104.751E+06     1.35779E+06    -111.456E-03     222.830E-03    -111.374E-03     203.470E-03    -123.340E-03     234.878E-03    -111.041E-03     198.119E-03
             900     804.620E-06     106.462E-03    -82.2188E+06    -221.752E+06    -80.7373E+06    -1.51871E+06    -111.994E-03     223.992E-03    -111.999E-03     15.2505E-03    -111.978E-03     223.133E-03    -111.961E-03     14.8846E-03
             901     1.60940E-03     106.486E-03     -79.968E+06    -218.941E+06    -75.0350E+06    -2.70421E+06    -112.070E-03     224.037E-03    -111.968E-03     28.1141E-03    -112.083E-03     223.207E-03    -111.909E-03     27.4405E-03
             902     2.41420E-03     106.525E-03    -76.0637E+06    -216.350E+06    -66.8416E+06    -3.91042E+06    -112.196E-03     224.152E-03    -111.956E-03     41.4235E-03    -112.253E-03     223.365E-03    -111.866E-03     40.4014E-03
             903     3.21909E-03     106.579E-03    -71.7807E+06    -202.396E+06    -59.4058E+06    -4.54005E+06    -112.373E-03     224.288E-03    -111.915E-03     54.7853E-03    -112.511E-03     223.625E-03    -111.815E-03     53.3962E-03
             904     4.02409E-03     106.647E-03    -67.7525E+06    -183.514E+06    -51.5021E+06    -5.17906E+06    -112.585E-03     224.447E-03    -111.862E-03     67.9878E-03    -112.840E-03     223.960E-03    -111.756E-03     66.1969E-03
             905     4.82925E-03     106.730E-03    -63.5223E+06    -174.605E+06    -41.8087E+06    -6.12591E+06    -112.903E-03     224.732E-03    -111.829E-03     80.9423E-03    -113.298E-03     224.404E-03    -111.693E-03     78.6955E-03
             906     5.63448E-03     106.826E-03    -58.8140E+06    -168.380E+06    -32.5186E+06    -7.30957E+06    -113.271E-03     225.070E-03    -111.799E-03     93.7225E-03    -113.843E-03     224.930E-03    -111.632E-03     90.9649E-03
             907     6.43976E-03     106.937E-03    -53.8701E+06    -149.025E+06    -26.6980E+06    -8.01187E+06    -113.606E-03     225.336E-03    -111.730E-03     106.442E-03    -114.421E-03     225.507E-03    -111.569E-03     103.126E-03
             908     7.24526E-03     107.060E-03    -49.6127E+06    -136.481E+06    -21.5346E+06    -7.57168E+06    -113.996E-03     225.661E-03    -111.665E-03     119.026E-03    -115.116E-03     226.182E-03    -111.503E-03     115.091E-03
             909     8.05089E-03     107.198E-03    -46.3733E+06    -121.120E+06    -17.1937E+06    -6.72564E+06    -114.467E-03     226.064E-03    -111.597E-03     131.711E-03    -115.994E-03     227.046E-03    -111.440E-03     127.074E-03
             910     8.85614E-03     107.350E-03    -43.4709E+06    -101.745E+06    -12.9840E+06    -6.27861E+06    -114.942E-03     226.475E-03    -111.532E-03     144.650E-03    -117.012E-03     228.066E-03    -111.387E-03     139.197E-03
             911     9.66188E-03     107.515E-03    -40.1737E+06    -79.8474E+06    -11.5788E+06    -5.94717E+06    -115.257E-03     226.709E-03    -111.452E-03     158.126E-03    -118.036E-03     229.096E-03    -111.336E-03     151.752E-03
             912     10.4675E-03     107.695E-03    -36.4420E+06    -37.3767E+06    -8.25704E+06    -4.64322E+06    -115.436E-03     226.779E-03    -111.343E-03     173.449E-03    -119.223E-03     230.328E-03    -111.278E-03     166.033E-03
             913     11.2738E-03     107.892E-03    -32.6703E+06     24.5533E+06    -1.99929E+06    -3.35205E+06    -116.043E-03     227.258E-03    -111.216E-03     194.955E-03    -121.434E-03     232.627E-03    -111.214E-03     186.198E-03
             914     12.0793E-03     108.119E-03    -29.8323E+06     78.7238E+06     17.3036E+06    -1.72439E+06    -117.735E-03     228.911E-03    -111.176E-03     228.646E-03    -125.832E-03     237.132E-03    -111.161E-03     218.126E-03
             915     12.8850E-03     108.392E-03    -25.6723E+06     102.924E+06     56.0517E+06     148.191E+03    -119.927E-03     231.213E-03    -111.286E-03     271.499E-03    -132.182E-03     243.580E-03    -111.118E-03     259.122E-03
             916     13.6916E-03     108.716E-03    -19.0343E+06     118.457E+06     88.5533E+06     50.2384E+03    -120.039E-03     231.398E-03    -111.359E-03     300.298E-03    -136.467E-03     247.923E-03    -111.060E-03     287.623E-03
             917     14.4963E-03     109.055E-03    -11.0049E+06     128.833E+06     104.151E+06     710.593E+03    -116.197E-03     227.520E-03    -111.323E-03     287.350E-03    -134.010E-03     245.450E-03    -110.973E-03     277.520E-03
             918     15.3049E-03     109.354E-03    -5.13708E+06     135.680E+06     105.560E+06     2.16426E+06    -111.433E-03     222.657E-03    -111.224E-03     205.129E-03    -123.404E-03     234.786E-03    -110.885E-03     199.772E-03
             919     804.833E-06     107.648E-03     -82.771E+06    -217.908E+06    -81.2949E+06    -1.13160E+06    -112.032E-03     223.797E-03    -111.765E-03     15.2950E-03    -112.025E-03     222.959E-03    -111.735E-03     14.9352E-03
             920     1.60943E-03     107.671E-03    -80.9330E+06    -214.297E+06    -75.3461E+06    -2.99089E+06    -111.971E-03     223.842E-03    -111.871E-03     28.1415E-03    -111.995E-03     223.037E-03    -111.820E-03     27.4652E-03
             921     2.41440E-03     107.710E-03    -77.9530E+06    -212.098E+06    -67.7592E+06    -5.06674E+06    -112.044E-03     223.895E-03    -111.851E-03     41.5644E-03    -112.115E-03     223.133E-03    -111.769E-03     40.5320E-03
             922     3.21941E-03     107.763E-03    -73.6346E+06    -199.162E+06    -60.5182E+06    -6.83258E+06    -112.207E-03     224.004E-03    -111.797E-03     54.9980E-03    -112.357E-03     223.361E-03    -111.704E-03     53.5863E-03
             923     4.02455E-03     107.831E-03    -68.4788E+06    -181.532E+06    -52.6277E+06    -7.21865E+06    -112.401E-03     224.132E-03    -111.732E-03     68.2317E-03    -112.660E-03     223.657E-03    -111.632E-03     66.4237E-03
             924     4.82986E-03     107.914E-03    -64.0233E+06    -172.463E+06    -42.8949E+06    -7.01935E+06    -112.678E-03     224.362E-03    -111.684E-03     81.2922E-03    -113.076E-03     224.045E-03    -111.555E-03     79.0494E-03
             925     5.63525E-03     108.010E-03    -60.1694E+06    -164.007E+06    -33.4194E+06    -8.33862E+06    -113.035E-03     224.672E-03    -111.637E-03     94.1019E-03    -113.616E-03     224.555E-03    -111.479E-03     91.3505E-03
             926     6.44082E-03     108.120E-03    -56.2615E+06    -147.237E+06    -27.5736E+06    -9.68691E+06    -113.411E-03     224.974E-03    -111.563E-03     106.868E-03    -114.236E-03     225.157E-03    -111.406E-03     103.551E-03
             927     7.24641E-03     108.245E-03    -51.9791E+06    -137.027E+06    -22.9767E+06    -9.05316E+06    -113.797E-03     225.289E-03    -111.492E-03     119.567E-03    -114.922E-03     225.810E-03    -111.333E-03     115.638E-03
             928     8.05202E-03     108.382E-03    -47.5218E+06    -121.211E+06    -18.5370E+06    -8.16364E+06    -114.195E-03     225.606E-03    -111.411E-03     132.560E-03    -115.720E-03     226.586E-03    -111.260E-03     127.941E-03
             929     8.85813E-03     108.534E-03    -42.8771E+06    -101.513E+06    -13.9170E+06    -8.17831E+06    -114.620E-03     225.947E-03    -111.327E-03     145.843E-03    -116.679E-03     227.534E-03    -111.187E-03     140.413E-03
             930     9.66366E-03     108.699E-03     -38.267E+06    -80.4689E+06    -11.8322E+06    -7.80896E+06    -114.945E-03     226.174E-03    -111.229E-03     159.451E-03    -117.707E-03     228.549E-03    -111.116E-03     153.105E-03
             931     10.4701E-03     108.878E-03    -34.5925E+06    -40.1457E+06    -9.19657E+06    -6.23996E+06    -115.255E-03     226.360E-03    -111.106E-03     175.042E-03    -119.029E-03     229.896E-03    -111.043E-03     167.649E-03
             932     11.2759E-03     109.076E-03    -32.4188E+06     22.6132E+06    -2.43966E+06    -3.57300E+06    -116.138E-03     227.119E-03    -110.981E-03     196.961E-03    -121.539E-03     232.492E-03    -110.979E-03     188.225E-03
             933     12.0823E-03     109.303E-03    -30.2673E+06     77.2194E+06     18.9403E+06    -1.14448E+06    -117.771E-03     228.727E-03    -110.957E-03     230.622E-03    -125.887E-03     236.955E-03    -110.930E-03     220.149E-03
             934     12.8882E-03     109.577E-03    -26.3226E+06     101.340E+06     58.0662E+06    -664.784E+03    -119.654E-03     230.714E-03    -111.059E-03     273.539E-03    -131.958E-03     243.115E-03    -110.878E-03     261.210E-03
             935     13.6941E-03     109.900E-03    -20.5435E+06     118.525E+06     90.1678E+06    -1.02685E+06    -119.915E-03     231.031E-03    -111.116E-03     301.924E-03    -136.396E-03     247.599E-03    -110.807E-03     289.279E-03
             936     14.5034E-03     110.240E-03    -15.6500E+06     126.855E+06     101.727E+06    -815.680E+03    -116.710E-03     227.794E-03    -111.084E-03     288.262E-03    -134.633E-03     245.817E-03    -110.737E-03     278.348E-03
             937     15.3091E-03     110.538E-03    -9.00545E+06     133.686E+06     102.848E+06    -420.631E+03    -111.453E-03     222.462E-03    -111.009E-03     205.370E-03    -123.497E-03     234.650E-03    -110.675E-03     199.895E-03
             938     804.799E-06     108.832E-03    -82.9256E+06    -215.466E+06    -81.2392E+06    -736.842E+03    -111.855E-03     223.444E-03    -111.589E-03     15.2810E-03    -111.851E-03     222.618E-03    -111.563E-03     14.9304E-03
             939     1.60988E-03     108.856E-03    -81.2697E+06    -210.279E+06    -74.6897E+06    -1.71662E+06    -111.706E-03     223.385E-03    -111.679E-03     28.1510E-03    -111.739E-03     222.600E-03    -111.630E-03     27.4966E-03
             940     2.41486E-03     108.894E-03    -78.7425E+06    -204.797E+06    -66.3395E+06    -4.63450E+06    -111.813E-03     223.453E-03    -111.640E-03     41.7928E-03    -111.900E-03     222.726E-03    -111.561E-03     40.7752E-03
             941     3.22006E-03     108.948E-03    -75.0768E+06    -192.904E+06    -59.1834E+06    -8.33357E+06    -111.964E-03     223.548E-03    -111.584E-03     55.3159E-03    -112.131E-03     222.935E-03    -111.491E-03     53.8964E-03
             942     4.02542E-03     109.015E-03    -70.7682E+06    -180.333E+06    -52.8879E+06    -9.51768E+06    -112.150E-03     223.663E-03    -111.513E-03     68.5841E-03    -112.422E-03     223.196E-03    -111.413E-03     66.7611E-03
             943     4.83094E-03     109.098E-03    -65.7920E+06    -171.405E+06    -44.4203E+06    -8.59099E+06    -112.399E-03     223.848E-03    -111.449E-03     81.7368E-03    -112.803E-03     223.539E-03    -111.327E-03     79.4946E-03
             944     5.63664E-03     109.194E-03    -60.3205E+06    -158.612E+06    -33.6943E+06    -9.50936E+06    -112.717E-03     224.104E-03    -111.387E-03     94.7187E-03    -113.303E-03     224.011E-03    -111.238E-03     91.9808E-03
             945     6.44231E-03     109.304E-03    -55.2939E+06    -145.469E+06    -26.1726E+06    -10.6644E+06    -113.073E-03     224.382E-03    -111.309E-03     107.653E-03    -113.893E-03     224.566E-03    -111.149E-03     104.357E-03
             946     7.24821E-03     109.428E-03    -50.9244E+06    -136.662E+06    -22.5896E+06    -10.6539E+06    -113.422E-03     224.638E-03    -111.217E-03     120.620E-03    -114.538E-03     225.154E-03    -111.058E-03     116.712E-03
             947     8.05444E-03     109.565E-03    -46.0385E+06    -120.090E+06    -19.3155E+06    -11.0924E+06    -113.738E-03     224.843E-03    -111.104E-03     133.931E-03    -115.250E-03     225.820E-03    -110.960E-03     129.329E-03
             948     8.86054E-03     109.717E-03    -41.1053E+06    -101.386E+06    -14.6379E+06    -11.0393E+06    -114.075E-03     225.065E-03    -110.990E-03     147.528E-03    -116.113E-03     226.640E-03    -110.857E-03     142.137E-03
             949     9.66750E-03     109.882E-03    -37.0902E+06    -80.8528E+06    -11.5223E+06    -10.2088E+06    -114.520E-03     225.391E-03    -110.872E-03     161.254E-03    -117.266E-03     227.752E-03    -110.758E-03     154.953E-03
             950     10.4737E-03     110.061E-03    -33.4449E+06    -43.5066E+06    -8.67144E+06    -7.94696E+06    -115.130E-03     225.874E-03    -110.745E-03     176.993E-03    -118.899E-03     229.396E-03    -110.676E-03     169.622E-03
             951     11.2806E-03     110.260E-03    -29.4052E+06     17.2594E+06    -1.82687E+06    -3.69945E+06    -116.066E-03     226.687E-03    -110.622E-03     199.371E-03    -121.446E-03     232.029E-03    -110.613E-03     190.697E-03
             952     12.0860E-03     110.488E-03    -25.8699E+06     74.5352E+06     22.3832E+06     180.925E+03    -117.581E-03     228.179E-03    -110.599E-03     233.227E-03    -125.684E-03     236.390E-03    -110.557E-03     222.857E-03
             953     12.8929E-03     110.760E-03    -21.5962E+06     102.687E+06     64.4972E+06     1.66423E+06    -119.668E-03     230.374E-03    -110.706E-03     275.752E-03    -131.989E-03     242.795E-03    -110.501E-03     263.509E-03
             954     13.7008E-03     111.085E-03    -17.0457E+06     118.714E+06     94.2399E+06     2.48844E+06    -120.503E-03     231.279E-03    -110.776E-03     303.025E-03    -136.970E-03     247.834E-03    -110.453E-03     290.421E-03
             955     14.5048E-03     111.423E-03    -11.9019E+06     130.186E+06     104.260E+06     1.36509E+06    -117.164E-03     227.930E-03    -110.766E-03     289.715E-03    -135.045E-03     245.928E-03    -110.416E-03     279.850E-03
             956     15.3099E-03     111.724E-03    -4.90399E+06     134.443E+06     104.422E+06    -1.00905E+06    -110.858E-03     221.546E-03    -110.689E-03     206.735E-03    -122.843E-03     233.689E-03    -110.354E-03     201.332E-03
             957     805.016E-06     110.017E-03    -85.2268E+06    -213.911E+06    -83.4009E+06    -431.997E+03    -111.449E-03     222.767E-03    -111.318E-03     15.2770E-03    -111.456E-03     221.955E-03    -111.301E-03     14.9364E-03
             958     1.61027E-03     110.040E-03    -81.6834E+06    -206.393E+06    -75.6678E+06    -2.26661E+06    -111.352E-03     222.688E-03    -111.336E-03     28.3253E-03    -111.390E-03     221.923E-03    -111.297E-03     27.6733E-03
             959     2.41576E-03     110.079E-03    -76.3841E+06    -197.195E+06    -64.3131E+06    -4.80428E+06    -111.470E-03     222.767E-03    -111.296E-03     42.0638E-03    -111.559E-03     222.071E-03    -111.221E-03     41.0576E-03
             960     3.22116E-03     110.131E-03    -71.9682E+06    -185.617E+06    -53.4610E+06    -7.51716E+06    -111.622E-03     222.877E-03    -111.255E-03     55.6420E-03    -111.791E-03     222.287E-03    -111.149E-03     54.2506E-03
             961     4.02676E-03     110.199E-03    -68.4060E+06    -177.475E+06    -46.2577E+06    -9.18734E+06    -111.791E-03     222.983E-03    -111.192E-03     69.0426E-03    -112.062E-03     222.516E-03    -111.067E-03     67.2463E-03
             962     4.83253E-03     110.281E-03    -64.0979E+06    -168.333E+06    -41.5426E+06    -10.8211E+06    -111.986E-03     223.085E-03    -111.099E-03     82.4252E-03    -112.387E-03     222.782E-03    -110.970E-03     80.1845E-03
             963     5.63852E-03     110.377E-03    -58.3080E+06    -154.035E+06    -34.2965E+06    -12.3572E+06    -112.200E-03     223.195E-03    -110.995E-03     95.7439E-03    -112.777E-03     223.118E-03    -110.859E-03     93.0136E-03
             964     6.44486E-03     110.487E-03    -52.3475E+06    -144.328E+06    -25.7272E+06    -12.3959E+06    -112.470E-03     223.364E-03    -110.894E-03     108.957E-03    -113.272E-03     223.542E-03    -110.737E-03     105.695E-03
             965     7.25141E-03     110.611E-03    -47.0740E+06    -134.209E+06    -20.6389E+06    -12.5774E+06    -112.790E-03     223.560E-03    -110.770E-03     122.247E-03    -113.886E-03     224.072E-03    -110.610E-03     118.382E-03
             966     8.05801E-03     110.748E-03    -42.6874E+06    -117.333E+06    -17.7378E+06    -13.6312E+06    -113.116E-03     223.739E-03    -110.623E-03     135.794E-03    -114.608E-03     224.715E-03    -110.480E-03     131.235E-03
             967     8.86539E-03     110.899E-03    -38.5525E+06    -101.289E+06    -13.0002E+06    -13.4418E+06    -113.510E-03     223.998E-03    -110.488E-03     149.610E-03    -115.526E-03     225.555E-03    -110.350E-03     144.275E-03
             968     9.67216E-03     111.064E-03    -34.4090E+06    -81.0572E+06    -9.12918E+06    -12.0393E+06    -114.093E-03     224.449E-03    -110.355E-03     163.680E-03    -116.819E-03     226.791E-03    -110.234E-03     157.446E-03
             969     10.4794E-03     111.244E-03    -30.1956E+06    -47.0411E+06    -6.01578E+06    -10.1922E+06    -114.828E-03     225.052E-03    -110.224E-03     179.896E-03    -118.577E-03     228.544E-03    -110.142E-03     172.582E-03
             970     11.2853E-03     111.443E-03    -27.0622E+06     8.17472E+06    -1.84331E+06    -5.46730E+06    -115.704E-03     225.790E-03    -110.086E-03     202.656E-03    -121.051E-03     231.075E-03    -110.068E-03     194.072E-03
             971     12.0937E-03     111.671E-03    -23.4472E+06     68.9785E+06     19.6566E+06     368.159E+03    -117.442E-03     227.475E-03    -110.033E-03     236.757E-03    -125.522E-03     235.659E-03    -110.001E-03     226.499E-03
             972     12.9002E-03     111.946E-03    -19.8061E+06     102.134E+06     60.7577E+06     3.59486E+06    -120.119E-03     230.258E-03    -110.139E-03     279.380E-03    -132.463E-03     242.717E-03    -109.954E-03     267.205E-03
             973     13.7049E-03     112.269E-03    -15.0763E+06     119.196E+06     92.7281E+06     4.67794E+06    -120.990E-03     231.230E-03    -110.239E-03     307.626E-03    -137.529E-03     247.869E-03    -109.927E-03     295.089E-03
             974     14.5125E-03     112.610E-03    -7.71052E+06     135.551E+06     107.801E+06     2.88014E+06    -116.989E-03     227.232E-03    -110.243E-03     294.195E-03    -135.005E-03     245.389E-03    -109.889E-03     284.427E-03
             975     15.3232E-03     112.904E-03    -3.18573E+06     136.176E+06     107.264E+06     950.598E+03    -111.484E-03     221.672E-03    -110.188E-03     208.434E-03    -123.548E-03     233.897E-03    -109.845E-03     203.040E-03
             976     805.628E-06     111.200E-03    -82.8402E+06    -210.013E+06    -83.2123E+06    -2.22029E+06    -110.839E-03     221.639E-03    -110.800E-03     15.4548E-03    -110.840E-03     220.843E-03    -110.792E-03     15.1002E-03
             977     1.61121E-03     111.223E-03    -80.2757E+06    -200.157E+06    -77.0804E+06    -4.94828E+06    -110.930E-03     221.712E-03    -110.782E-03     28.6789E-03    -110.968E-03     220.978E-03    -110.761E-03     28.0043E-03
             978     2.41678E-03     111.261E-03    -76.1592E+06    -191.595E+06    -66.0434E+06    -6.82740E+06    -110.987E-03     221.760E-03    -110.773E-03     42.5266E-03    -111.079E-03     221.093E-03    -110.715E-03     41.5125E-03
             979     3.22271E-03     111.314E-03    -70.7660E+06    -180.606E+06    -52.7266E+06    -7.61423E+06    -111.052E-03     221.789E-03    -110.737E-03     56.2469E-03    -111.222E-03     221.219E-03    -110.636E-03     54.8811E-03
             980     4.02875E-03     111.382E-03    -65.2375E+06    -172.749E+06    -41.7471E+06    -8.72465E+06    -111.173E-03     221.842E-03    -110.668E-03     69.8999E-03    -111.439E-03     221.384E-03    -110.532E-03     68.1453E-03
             981     4.83511E-03     111.463E-03    -60.5588E+06    -161.305E+06    -36.7359E+06    -11.6071E+06    -111.286E-03     221.831E-03    -110.545E-03     83.5910E-03    -111.682E-03     221.546E-03    -110.407E-03     81.3882E-03
             982     5.64180E-03     111.559E-03    -56.8475E+06    -149.668E+06    -33.9494E+06    -14.3234E+06    -111.397E-03     221.785E-03    -110.388E-03     97.2633E-03    -111.967E-03     221.720E-03    -110.259E-03     94.5707E-03
             983     6.44886E-03     111.668E-03    -52.9017E+06    -142.889E+06    -27.7885E+06    -15.0145E+06    -111.605E-03     221.845E-03    -110.240E-03     110.841E-03    -112.399E-03     222.024E-03    -110.095E-03     107.626E-03
             984     7.25617E-03     111.792E-03    -48.0144E+06    -130.433E+06    -20.2214E+06    -15.6956E+06    -111.902E-03     221.986E-03    -110.084E-03     124.426E-03    -112.996E-03     222.505E-03    -109.926E-03     120.615E-03
             985     8.06396E-03     111.929E-03    -42.7641E+06    -114.449E+06    -15.8579E+06    -16.4313E+06    -112.289E-03     222.199E-03    -109.910E-03     138.292E-03    -113.774E-03     223.172E-03    -109.761E-03     133.802E-03
             986     8.87129E-03     112.080E-03    -38.3793E+06    -100.892E+06    -12.2039E+06    -15.9790E+06    -112.802E-03     222.548E-03    -109.747E-03     152.632E-03    -114.804E-03     224.092E-03    -109.606E-03     147.379E-03
             987     9.67944E-03     112.245E-03    -34.0985E+06    -81.8830E+06    -9.06142E+06    -15.0672E+06    -113.454E-03     223.045E-03    -109.591E-03     167.564E-03    -116.162E-03     225.368E-03    -109.468E-03     161.422E-03
             988     10.4868E-03     112.426E-03    -30.7131E+06    -50.7707E+06    -6.30636E+06    -12.7029E+06    -114.181E-03     223.622E-03    -109.441E-03     184.270E-03    -117.910E-03     227.080E-03    -109.354E-03     177.081E-03
             989     11.2956E-03     112.625E-03    -27.6539E+06    -526.604E+03    -2.22118E+06    -6.99356E+06    -115.396E-03     224.691E-03    -109.295E-03     207.210E-03    -120.724E-03     229.925E-03    -109.265E-03     198.753E-03
             990     12.1020E-03     112.854E-03    -25.6245E+06     61.1651E+06     12.0263E+06    -413.534E+03    -117.590E-03     226.804E-03    -109.214E-03     241.739E-03    -125.677E-03     234.982E-03    -109.206E-03     231.573E-03
             991     12.9095E-03     113.129E-03    -22.0451E+06      99.462E+06     49.5981E+06     2.81479E+06    -120.251E-03     229.556E-03    -109.306E-03     284.781E-03    -132.628E-03     242.064E-03    -109.170E-03     272.708E-03
             992     13.7182E-03     113.456E-03    -14.7018E+06     119.763E+06     89.0377E+06     3.19503E+06    -120.827E-03     230.260E-03    -109.434E-03     311.984E-03    -137.377E-03     246.926E-03    -109.141E-03     299.582E-03
             993     14.5261E-03     113.793E-03    -10.3289E+06     136.717E+06     107.808E+06     3.88635E+06    -117.604E-03     227.087E-03    -109.483E-03     296.689E-03    -135.673E-03     245.292E-03    -109.127E-03     286.953E-03
             994     15.3292E-03     114.090E-03    -6.19676E+06     137.598E+06     109.015E+06     3.16984E+06    -113.557E-03     223.091E-03    -109.534E-03     210.145E-03    -125.724E-03     235.408E-03    -109.179E-03     204.557E-03
             995     806.223E-06     112.382E-03    -78.7669E+06    -201.624E+06    -79.1338E+06    -4.14423E+06    -110.067E-03     220.116E-03    -110.049E-03     15.7607E-03    -110.065E-03     219.350E-03    -110.038E-03     15.3898E-03
             996     1.61235E-03     112.405E-03    -78.0440E+06    -192.603E+06    -75.2118E+06    -6.09275E+06    -110.213E-03     220.233E-03    -110.020E-03     29.1116E-03    -110.253E-03     219.530E-03    -110.004E-03     28.4404E-03
             997     2.41862E-03     112.443E-03    -75.8596E+06    -185.808E+06    -67.0618E+06    -8.01974E+06    -110.211E-03     220.216E-03    -110.005E-03     43.1470E-03    -110.307E-03     219.578E-03    -109.961E-03     42.1458E-03
             998     3.22508E-03     112.496E-03    -71.5310E+06    -176.432E+06    -57.1716E+06    -9.59047E+06    -110.153E-03     220.085E-03    -109.932E-03     57.2125E-03    -110.323E-03     219.540E-03    -109.858E-03     55.8626E-03
             999     4.03201E-03     112.563E-03    -65.4825E+06    -167.198E+06    -45.3318E+06    -11.3368E+06    -110.166E-03     219.988E-03    -109.822E-03     71.2558E-03    -110.431E-03     219.558E-03    -109.711E-03     69.5238E-03
            1000     4.83916E-03     112.644E-03    -59.0506E+06    -154.558E+06    -34.5701E+06    -13.1410E+06    -110.220E-03     219.896E-03    -109.676E-03     85.2410E-03    -110.615E-03     219.633E-03    -109.539E-03     83.0884E-03
            1001     5.64684E-03     112.739E-03    -53.9494E+06    -144.816E+06    -28.2562E+06    -14.2465E+06    -110.301E-03     219.795E-03    -109.494E-03     99.2118E-03    -110.863E-03     219.733E-03    -109.347E-03     96.6041E-03
            1002     6.45486E-03     112.848E-03    -50.1528E+06    -138.541E+06    -24.2700E+06    -15.9707E+06    -110.455E-03     219.748E-03    -109.292E-03     113.273E-03    -111.234E-03     219.926E-03    -109.140E-03     110.150E-03
            1003     7.26330E-03     112.971E-03    -45.9246E+06    -125.741E+06    -18.6584E+06    -18.0504E+06    -110.715E-03     219.797E-03    -109.082E-03     127.457E-03    -111.789E-03     220.316E-03    -108.927E-03     123.746E-03
            1004     8.07173E-03     113.107E-03    -42.0190E+06    -112.689E+06    -14.6715E+06    -18.4477E+06    -111.110E-03     219.978E-03    -108.868E-03     141.967E-03    -112.574E-03     220.935E-03    -108.717E-03     137.605E-03
            1005     8.88109E-03     113.258E-03    -38.5258E+06    -99.4359E+06    -11.8121E+06    -17.8617E+06    -111.688E-03     220.350E-03    -108.662E-03     157.120E-03    -113.670E-03     221.876E-03    -108.521E-03     152.017E-03
            1006     9.68976E-03     113.424E-03    -35.8669E+06    -82.2179E+06    -9.65715E+06    -17.3237E+06    -112.431E-03     220.901E-03    -108.471E-03     172.806E-03    -115.123E-03     223.202E-03    -108.348E-03     166.826E-03
            1007     10.4993E-03     113.606E-03    -33.0219E+06    -54.6815E+06    -7.08265E+06    -14.6368E+06    -113.486E-03     221.789E-03    -108.303E-03     190.027E-03    -117.192E-03     225.204E-03    -108.211E-03     183.015E-03
            1008     11.3070E-03     113.805E-03    -30.3469E+06    -9.86622E+06    -4.95384E+06    -8.77271E+06    -115.210E-03     223.368E-03    -108.157E-03     213.515E-03    -120.529E-03     228.558E-03    -108.124E-03     205.209E-03
            1009     12.1162E-03     114.037E-03    -27.6823E+06     53.3205E+06     2.46289E+06    -1.20629E+06    -117.888E-03     225.951E-03    -108.063E-03     248.522E-03    -125.990E-03     234.138E-03    -108.088E-03     238.480E-03
            1010     12.9237E-03     114.313E-03    -25.2237E+06     100.117E+06     37.0833E+06     1.79580E+06    -120.882E-03     229.054E-03    -108.172E-03     290.589E-03    -133.318E-03     241.649E-03    -108.095E-03     278.579E-03
            1011     13.7308E-03     114.640E-03    -22.5708E+06     117.070E+06     78.3702E+06     397.325E+03    -121.713E-03     230.099E-03    -108.387E-03     315.436E-03    -138.343E-03     246.838E-03    -108.132E-03     303.004E-03
            1012     14.5373E-03     114.978E-03    -15.6437E+06     133.217E+06     103.525E+06     1.08234E+06    -118.808E-03     227.357E-03    -108.549E-03     300.298E-03    -136.921E-03     245.587E-03    -108.202E-03     290.456E-03
            1013     15.3456E-03     115.278E-03    -7.39136E+06     139.169E+06     110.980E+06     2.29989E+06    -115.946E-03     224.678E-03    -108.732E-03     214.714E-03    -128.205E-03     237.083E-03    -108.369E-03     208.895E-03
            1014     806.963E-06     113.562E-03    -76.5677E+06    -191.334E+06    -74.9110E+06    -4.15667E+06    -109.105E-03     218.087E-03    -108.983E-03     16.2158E-03    -109.113E-03     217.363E-03    -108.969E-03     15.8531E-03
            1015     1.61399E-03     113.585E-03    -74.7171E+06    -185.724E+06    -69.8684E+06    -5.82906E+06    -109.042E-03     218.027E-03    -108.986E-03     29.6966E-03    -109.081E-03     217.345E-03    -108.957E-03     29.0559E-03
            1016     2.42112E-03     113.623E-03    -71.7076E+06    -178.161E+06     -63.637E+06    -8.33932E+06    -108.956E-03     217.852E-03    -108.897E-03     44.0323E-03    -109.045E-03     217.239E-03    -108.852E-03     43.0692E-03
            1017     3.22873E-03     113.675E-03    -68.0087E+06    -169.791E+06    -56.0291E+06    -11.3459E+06    -108.852E-03     217.613E-03    -108.761E-03     58.5111E-03    -109.011E-03     217.091E-03    -108.697E-03     57.1953E-03
            1018     4.03669E-03     113.741E-03    -63.6550E+06    -160.785E+06    -45.8756E+06    -13.8694E+06    -108.751E-03     217.347E-03    -108.595E-03     72.9945E-03    -109.010E-03     216.941E-03    -108.499E-03     71.3048E-03
            1019     4.84524E-03     113.822E-03    -58.8302E+06    -149.627E+06    -34.7633E+06    -15.3903E+06    -108.718E-03     217.118E-03    -108.401E-03     87.4513E-03    -109.109E-03     216.870E-03    -108.272E-03     85.3655E-03
            1020     5.65404E-03     113.916E-03    -53.4013E+06    -140.920E+06    -25.8020E+06    -15.8275E+06    -108.760E-03     216.939E-03    -108.179E-03     101.952E-03    -109.314E-03     216.878E-03    -108.026E-03     99.4417E-03
            1021     6.46342E-03     114.025E-03    -48.0331E+06    -132.166E+06    -20.6809E+06    -16.9919E+06    -108.823E-03     216.745E-03    -107.921E-03     116.666E-03    -109.587E-03     216.928E-03    -107.764E-03     113.676E-03
            1022     7.27330E-03     114.147E-03    -44.4029E+06    -120.916E+06    -17.9674E+06    -18.8377E+06    -108.991E-03     216.629E-03    -107.638E-03     131.724E-03    -110.039E-03     217.142E-03    -107.488E-03     128.184E-03
            1023     8.08392E-03     114.284E-03    -41.3678E+06    -110.966E+06    -14.4558E+06    -19.1444E+06    -109.431E-03     216.796E-03    -107.365E-03     147.142E-03    -110.862E-03     217.728E-03    -107.216E-03     142.982E-03
            1024     8.89415E-03     114.434E-03    -38.6184E+06    -97.4780E+06    -11.3137E+06    -18.6219E+06    -110.156E-03     217.264E-03    -107.108E-03     163.136E-03    -112.107E-03     218.765E-03    -106.968E-03     158.255E-03
            1025     9.70526E-03     114.601E-03    -35.9847E+06    -81.4308E+06    -9.19211E+06    -17.6149E+06    -111.227E-03     218.112E-03    -106.885E-03     179.564E-03    -113.886E-03     220.381E-03    -106.761E-03     173.824E-03
            1026     10.5152E-03     114.783E-03    -34.0410E+06    -57.8607E+06    -8.33816E+06    -15.1984E+06    -112.769E-03     219.477E-03    -106.708E-03     197.624E-03    -116.445E-03     222.850E-03    -106.616E-03     190.845E-03
            1027     11.3258E-03     114.986E-03    -32.0370E+06    -18.1920E+06    -8.36612E+06    -10.3348E+06    -115.120E-03     221.700E-03    -106.581E-03     221.846E-03    -120.425E-03     226.852E-03    -106.550E-03     213.730E-03
            1028     12.1338E-03     115.217E-03    -29.3069E+06     44.0451E+06    -8.50644E+06    -3.34573E+06    -118.545E-03     225.047E-03    -106.502E-03     257.036E-03    -126.665E-03     233.244E-03    -106.566E-03     247.112E-03
            1029     12.9419E-03     115.498E-03    -25.4487E+06     98.5328E+06     25.0550E+06     1.88353E+06    -122.326E-03     229.002E-03    -106.675E-03     299.041E-03    -134.861E-03     241.723E-03    -106.656E-03     287.070E-03
            1030     13.7482E-03     115.826E-03    -19.9968E+06     120.634E+06     74.9831E+06     2.64488E+06    -124.240E-03     231.289E-03    -107.049E-03     323.022E-03    -141.089E-03     248.278E-03    -106.820E-03     310.468E-03
            1031     14.5549E-03     116.165E-03    -14.0984E+06     133.295E+06     100.449E+06     635.818E+03    -121.973E-03     229.373E-03    -107.400E-03     304.603E-03    -140.273E-03     247.806E-03    -107.070E-03     294.430E-03
            1032     15.3586E-03     116.463E-03    -7.44038E+06     137.455E+06     108.152E+06    -320.447E+03    -119.508E-03     227.310E-03    -107.803E-03     218.307E-03    -131.951E-03     239.902E-03    -107.450E-03     212.042E-03
            1033     808.017E-06     114.739E-03    -75.2771E+06    -181.826E+06    -73.3128E+06    -3.28610E+06    -107.624E-03     215.059E-03    -107.436E-03     16.7410E-03    -107.641E-03     214.378E-03    -107.429E-03     16.4063E-03
            1034     1.61624E-03     114.762E-03    -72.6347E+06    -177.792E+06    -67.3796E+06    -6.45835E+06    -107.349E-03     214.786E-03    -107.437E-03     30.5973E-03    -107.393E-03     214.136E-03    -107.411E-03     29.9821E-03
            1035     2.42503E-03     114.799E-03    -68.7125E+06    -169.511E+06    -59.8144E+06    -9.53584E+06    -107.167E-03     214.447E-03    -107.280E-03     45.3766E-03    -107.256E-03     213.863E-03    -107.234E-03     44.4515E-03
            1036     3.23401E-03     114.850E-03    -64.6314E+06    -161.728E+06    -51.3822E+06    -12.2296E+06    -107.012E-03     214.102E-03    -107.089E-03     60.3035E-03    -107.168E-03     213.603E-03    -107.018E-03     59.0514E-03
            1037     4.04354E-03     114.916E-03    -61.0121E+06    -153.540E+06    -43.2167E+06    -14.2824E+06    -106.825E-03     213.686E-03    -106.861E-03     75.3177E-03    -107.075E-03     213.300E-03    -106.766E-03     73.7224E-03
            1038     4.85357E-03     114.996E-03    -57.4986E+06    -144.065E+06    -35.4574E+06    -16.0691E+06    -106.639E-03     213.230E-03    -106.591E-03     90.4693E-03    -107.017E-03     212.994E-03    -106.476E-03     88.5049E-03
            1039     5.66442E-03     115.090E-03    -53.3796E+06    -136.568E+06    -27.6524E+06    -17.6264E+06    -106.539E-03     212.832E-03    -106.292E-03     105.761E-03    -107.077E-03     212.774E-03    -106.155E-03     103.393E-03
            1040     6.47575E-03     115.197E-03    -48.9957E+06    -127.177E+06    -20.9300E+06    -18.7607E+06    -106.524E-03     212.489E-03    -105.965E-03     121.291E-03    -107.271E-03     212.671E-03    -105.814E-03     118.477E-03
            1041     7.28791E-03     115.319E-03    -44.9343E+06    -116.426E+06    -16.6712E+06    -19.2344E+06    -106.676E-03     212.289E-03    -105.614E-03     137.240E-03    -107.698E-03     212.787E-03    -105.463E-03     133.929E-03
            1042     8.10037E-03     115.455E-03    -41.9386E+06    -108.735E+06    -14.4850E+06    -19.4185E+06    -107.199E-03     212.467E-03    -105.268E-03     153.732E-03    -108.591E-03     213.366E-03    -105.122E-03     149.837E-03
            1043     8.91352E-03     115.607E-03    -39.2394E+06    -95.5628E+06    -12.2687E+06    -18.9756E+06    -108.239E-03     213.195E-03    -104.955E-03     170.807E-03    -110.146E-03     214.658E-03    -104.821E-03     166.212E-03
            1044     9.72584E-03     115.774E-03    -36.8313E+06    -80.8502E+06     -10.249E+06    -17.8606E+06    -109.834E-03     214.546E-03    -104.711E-03     188.351E-03    -112.448E-03     216.771E-03    -104.592E-03     182.909E-03
            1045     10.5382E-03     115.958E-03    -34.1941E+06    -59.1812E+06    -9.17626E+06    -15.6505E+06    -112.105E-03     216.657E-03    -104.552E-03     207.337E-03    -115.747E-03     219.994E-03    -104.462E-03     200.831E-03
            1046     11.3486E-03     116.161E-03    -30.8544E+06    -24.4328E+06    -7.56084E+06    -11.8635E+06    -115.325E-03     219.820E-03    -104.494E-03     232.188E-03    -120.610E-03     224.930E-03    -104.452E-03     224.284E-03
            1047     12.1586E-03     116.400E-03    -26.5881E+06     34.6161E+06    -8.36636E+06    -6.09325E+06    -119.633E-03     224.138E-03    -104.506E-03     267.828E-03    -127.778E-03     232.337E-03    -104.559E-03     258.016E-03
            1048     12.9664E-03     116.681E-03    -21.4271E+06     93.0473E+06     21.8410E+06     76.3960E+03    -124.577E-03     229.364E-03    -104.787E-03     309.195E-03    -137.227E-03     242.205E-03    -104.781E-03     297.178E-03
            1049     13.7740E-03     117.015E-03    -15.3780E+06     121.793E+06     71.8682E+06     3.32124E+06    -127.934E-03     233.282E-03    -105.348E-03     330.963E-03    -145.005E-03     250.523E-03    -105.143E-03     318.116E-03
            1050     14.5747E-03     117.357E-03    -7.88081E+06     137.944E+06     100.756E+06     3.02942E+06    -127.780E-03     233.786E-03    -106.006E-03     310.164E-03    -146.415E-03     252.592E-03    -105.691E-03     299.300E-03
            1051     15.3730E-03     117.656E-03    -2.59808E+06     137.734E+06     108.358E+06     1.23388E+06    -126.007E-03     232.789E-03    -106.782E-03     222.785E-03    -138.769E-03     245.717E-03    -106.436E-03     215.765E-03
            1052     809.855E-06     115.912E-03    -73.3227E+06    -172.590E+06    -72.3788E+06    -3.75266E+06    -105.357E-03     210.554E-03    -105.197E-03     17.3208E-03    -105.379E-03     209.914E-03    -105.202E-03     17.0039E-03
            1053     1.62003E-03     115.934E-03    -70.6292E+06    -167.198E+06    -65.9412E+06    -7.59379E+06    -105.042E-03     210.207E-03    -105.165E-03     31.6965E-03    -105.091E-03     209.602E-03    -105.150E-03     31.1113E-03
            1054     2.43039E-03     115.971E-03    -67.2201E+06    -160.677E+06    -57.7930E+06    -10.8503E+06    -104.777E-03     209.757E-03    -104.980E-03     47.0504E-03    -104.871E-03     209.209E-03    -104.939E-03     46.1769E-03
            1055     3.24148E-03     116.022E-03    -63.2007E+06    -154.394E+06    -49.3742E+06    -12.7580E+06    -104.481E-03     209.221E-03    -104.741E-03     62.6006E-03    -104.635E-03     208.746E-03    -104.672E-03     61.4396E-03
            1056     4.05310E-03     116.086E-03    -58.7266E+06    -146.051E+06    -41.7529E+06    -14.7140E+06    -104.156E-03     208.597E-03    -104.441E-03     78.3036E-03    -104.395E-03     208.230E-03    -104.353E-03     76.8336E-03
            1057     4.86556E-03     116.165E-03    -53.9477E+06    -137.481E+06    -33.9056E+06    -16.7029E+06    -103.817E-03     207.909E-03    -104.092E-03     94.2916E-03    -104.168E-03     207.679E-03    -103.984E-03     92.4862E-03
            1058     5.67876E-03     116.258E-03    -49.8492E+06    -131.395E+06    -26.4657E+06    -18.1017E+06    -103.547E-03     207.252E-03    -103.705E-03     110.495E-03    -104.048E-03     207.185E-03    -103.574E-03     108.327E-03
            1059     6.49295E-03     116.365E-03    -46.3931E+06    -121.947E+06    -19.9685E+06    -19.1342E+06    -103.476E-03     206.761E-03    -103.285E-03     127.027E-03    -104.181E-03     206.925E-03    -103.141E-03     124.455E-03
            1060     7.30766E-03     116.486E-03    -43.2951E+06    -113.825E+06    -15.5433E+06    -19.1461E+06    -103.739E-03     206.598E-03    -102.859E-03     144.096E-03    -104.711E-03     207.056E-03    -102.709E-03     141.070E-03
            1061     8.12315E-03     116.622E-03    -40.3710E+06    -104.774E+06    -13.2263E+06    -19.2655E+06    -104.519E-03     206.971E-03    -102.451E-03     161.846E-03    -105.854E-03     207.828E-03    -102.307E-03     158.270E-03
            1062     8.93849E-03     116.774E-03    -37.4437E+06    -94.2409E+06    -11.3966E+06    -19.2632E+06    -106.008E-03     208.115E-03    -102.107E-03     180.106E-03    -107.844E-03     209.516E-03    -101.973E-03     175.848E-03
            1063     9.75379E-03     116.943E-03    -34.4777E+06    -80.0850E+06    -8.64170E+06    -17.7503E+06    -108.324E-03     210.196E-03    -101.871E-03     198.727E-03    -110.868E-03     212.356E-03    -101.748E-03     193.628E-03
            1064     10.5676E-03     117.129E-03    -31.4262E+06    -59.7187E+06    -6.48923E+06    -16.6725E+06    -111.600E-03     213.372E-03    -101.772E-03     218.824E-03    -115.191E-03     216.658E-03    -101.672E-03     212.610E-03
            1065     11.3797E-03     117.339E-03    -28.0296E+06    -28.5545E+06    -3.53058E+06    -14.0527E+06    -115.976E-03     217.808E-03    -101.832E-03     244.358E-03    -121.251E-03     222.892E-03    -101.767E-03     236.650E-03
            1066     12.1894E-03     117.578E-03    -24.4428E+06     28.6816E+06    -767.756E+03    -9.22578E+06    -121.597E-03     223.622E-03    -102.025E-03     279.685E-03    -129.818E-03     231.861E-03    -102.035E-03     269.904E-03
            1067     12.9974E-03     117.869E-03    -20.2116E+06     85.7785E+06     24.3630E+06    -3.09005E+06    -128.351E-03     230.862E-03    -102.511E-03     320.555E-03    -141.224E-03     243.897E-03    -102.484E-03     308.268E-03
            1068     13.7988E-03     118.206E-03    -14.4468E+06     118.710E+06     67.0126E+06     1.19672E+06    -133.410E-03     236.746E-03    -103.336E-03     340.523E-03    -150.887E-03     254.400E-03    -103.152E-03     327.037E-03
            1069     14.6002E-03     118.555E-03    -8.96275E+06     137.660E+06     99.0198E+06     3.02116E+06    -134.993E-03     239.392E-03    -104.400E-03     317.623E-03    -154.257E-03     258.829E-03    -104.091E-03     305.699E-03
            1070     15.3924E-03     118.861E-03    -5.15989E+06     139.891E+06     110.483E+06     3.26817E+06    -135.312E-03     240.988E-03    -105.675E-03     225.897E-03    -148.501E-03     254.336E-03    -105.318E-03     217.742E-03
            1071     812.309E-06     117.079E-03    -67.5431E+06    -161.745E+06    -66.8903E+06    -4.59838E+06    -102.251E-03     204.419E-03    -102.168E-03     17.8241E-03    -102.267E-03     203.815E-03    -102.170E-03     17.5308E-03
            1072     1.62484E-03     117.100E-03    -65.7772E+06    -156.025E+06    -62.3574E+06    -8.06482E+06    -101.946E-03     204.024E-03    -102.077E-03     32.9465E-03    -101.990E-03     203.460E-03    -102.068E-03     32.4133E-03
            1073     2.43795E-03     117.136E-03    -63.4841E+06    -151.868E+06    -55.7778E+06    -11.0074E+06    -101.586E-03     203.448E-03    -101.862E-03     48.9773E-03    -101.672E-03     202.929E-03    -101.828E-03     48.1886E-03
            1074     3.25157E-03     117.186E-03    -60.1595E+06    -146.686E+06    -48.2007E+06    -13.7009E+06    -101.101E-03     202.665E-03    -101.564E-03     65.3357E-03    -101.243E-03     202.212E-03    -101.505E-03     64.2843E-03
            1075     4.06612E-03     117.250E-03    -56.1689E+06    -138.396E+06    -40.2953E+06    -16.1753E+06    -100.577E-03     201.763E-03    -101.186E-03     81.9134E-03    -100.800E-03     201.410E-03    -101.105E-03     80.5840E-03
            1076     4.88157E-03     117.327E-03    -52.1480E+06    -131.578E+06    -32.5483E+06    -17.4760E+06    -100.075E-03     200.822E-03    -100.747E-03     98.8259E-03    -100.403E-03     200.590E-03    -100.643E-03     97.2111E-03
            1077     5.69814E-03     117.419E-03    -48.5123E+06    -125.358E+06    -25.9817E+06    -18.9045E+06    -99.7028E-03     199.961E-03    -100.258E-03     116.135E-03    -100.169E-03     199.884E-03    -100.136E-03     114.202E-03
            1078     6.51562E-03     117.525E-03    -44.8189E+06    -118.049E+06    -20.5541E+06    -19.3785E+06    -99.6531E-03     199.398E-03    -99.7451E-03     133.896E-03    -100.305E-03     199.530E-03    -99.6117E-03     131.612E-03
            1079     7.33407E-03     117.646E-03    -41.0802E+06    -110.591E+06    -15.1892E+06    -19.3162E+06    -100.186E-03     199.439E-03    -99.2531E-03     152.222E-03    -101.090E-03     199.848E-03    -99.1091E-03     149.521E-03
            1080     8.15269E-03     117.782E-03    -37.4171E+06    -100.984E+06    -11.1583E+06    -19.5377E+06    -101.497E-03     200.316E-03    -98.8190E-03     171.270E-03    -102.755E-03     201.113E-03    -98.6741E-03     168.043E-03
            1081     8.97120E-03     117.936E-03    -34.6923E+06    -92.5462E+06    -8.51819E+06    -18.9338E+06    -103.703E-03     202.197E-03    -98.4936E-03     190.738E-03    -105.458E-03     203.523E-03    -98.3517E-03     186.847E-03
            1082     9.78867E-03     118.106E-03    -32.3068E+06    -78.8646E+06    -6.26439E+06    -18.2826E+06    -107.008E-03     205.326E-03    -98.3183E-03     210.574E-03    -109.478E-03     207.419E-03    -98.1884E-03     205.817E-03
            1083     10.6042E-03     118.298E-03    -30.4501E+06    -59.4771E+06    -3.93058E+06    -16.9875E+06    -111.527E-03     209.869E-03    -98.3417E-03     231.494E-03    -115.078E-03     213.111E-03    -98.2309E-03     225.569E-03
            1084     11.4174E-03     118.510E-03    -29.3779E+06    -29.8246E+06    -308.529E+03    -14.9413E+06    -117.474E-03     216.070E-03    -98.5966E-03     257.219E-03    -122.784E-03     221.172E-03    -98.5123E-03     249.662E-03
            1085     12.2268E-03     118.760E-03    -28.2891E+06     24.7837E+06       5.039E+06    -11.1291E+06    -125.064E-03     224.140E-03    -99.0762E-03     292.263E-03    -133.463E-03     232.514E-03    -99.0459E-03     282.360E-03
            1086     13.0316E-03     119.054E-03    -26.2842E+06     79.8827E+06     27.2698E+06    -7.35843E+06    -133.733E-03     233.632E-03    -99.8988E-03     332.216E-03    -146.987E-03     246.999E-03    -99.8402E-03     319.384E-03
            1087     13.8346E-03     119.407E-03    -21.7597E+06     112.218E+06     61.8888E+06    -4.08973E+06    -140.859E-03     241.975E-03    -101.116E-03     349.536E-03    -158.863E-03     260.123E-03    -100.938E-03     335.007E-03
            1088     14.6246E-03     119.758E-03    -15.3495E+06     131.867E+06     94.2206E+06    -73.7054E+03    -144.242E-03     246.934E-03    -102.692E-03     323.959E-03    -164.099E-03     266.935E-03    -102.390E-03     310.624E-03
            1089     15.4096E-03     120.077E-03    -6.96140E+06     140.185E+06     111.262E+06     2.44809E+06    -146.993E-03     251.565E-03    -104.573E-03     230.016E-03    -160.615E-03     265.341E-03    -104.210E-03     220.329E-03
            1090     815.525E-06     118.237E-03    -64.1425E+06    -149.774E+06    -64.1294E+06    -4.88613E+06    -98.1707E-03     196.414E-03    -98.2432E-03     18.5359E-03    -98.1904E-03     195.860E-03    -98.2536E-03     18.2775E-03
            1091     1.63140E-03     118.259E-03    -62.6739E+06    -145.747E+06    -60.5988E+06    -7.97653E+06    -97.8639E-03     195.913E-03    -98.0487E-03     34.4590E-03    -97.9067E-03     195.389E-03    -98.0494E-03     33.9936E-03
            1092     2.44768E-03     118.293E-03    -60.3660E+06    -142.025E+06    -54.1374E+06    -11.5097E+06    -97.3851E-03     195.169E-03    -97.7843E-03     51.2417E-03    -97.4641E-03     194.685E-03    -97.7615E-03     50.5489E-03
            1093     3.26490E-03     118.342E-03    -57.1426E+06    -137.252E+06    -46.7021E+06    -15.2375E+06    -96.7132E-03     194.131E-03    -97.4182E-03     68.4445E-03    -96.8428E-03     193.704E-03    -97.3698E-03     67.5137E-03
            1094     4.08318E-03     118.404E-03    -53.6056E+06    -131.694E+06    -39.3754E+06    -17.1522E+06    -95.9979E-03     192.951E-03    -96.9533E-03     86.0427E-03    -96.1970E-03     192.605E-03    -96.8815E-03     84.8834E-03
            1095     4.90262E-03     118.481E-03    -49.8925E+06    -125.581E+06    -32.2152E+06    -18.3479E+06    -95.3851E-03     191.803E-03    -96.4179E-03     103.982E-03    -95.6775E-03     191.564E-03    -96.3245E-03     102.583E-03
            1096     5.72325E-03     118.571E-03    -46.1315E+06    -119.619E+06    -25.5495E+06    -19.2855E+06    -95.0284E-03     190.872E-03    -95.8435E-03     122.433E-03    -95.4449E-03     190.772E-03    -95.7310E-03     120.770E-03
            1097     6.54497E-03     118.676E-03    -42.9072E+06    -114.701E+06    -20.1104E+06    -19.7461E+06    -95.2075E-03     190.478E-03    -95.2701E-03     141.435E-03    -95.7939E-03     190.561E-03    -95.1421E-03     139.460E-03
            1098     7.36725E-03     118.796E-03     -39.704E+06    -106.262E+06    -15.3190E+06    -20.2208E+06    -96.2238E-03     190.971E-03    -94.7468E-03     161.161E-03    -97.0524E-03     191.323E-03    -94.6117E-03     158.796E-03
            1099     8.18948E-03     118.934E-03    -37.5038E+06    -99.6297E+06    -11.2299E+06    -19.2492E+06    -98.2908E-03     192.631E-03    -94.3401E-03     181.491E-03    -99.4664E-03     193.351E-03    -94.1975E-03     178.635E-03
            1100     9.01106E-03     119.089E-03    -35.9103E+06    -89.7593E+06    -7.92504E+06    -18.4858E+06    -101.592E-03     195.690E-03    -94.0982E-03     202.209E-03    -103.275E-03     196.949E-03    -93.9557E-03     198.684E-03
            1101     9.83078E-03     119.265E-03    -34.6518E+06    -77.0721E+06    -5.26264E+06    -18.3250E+06    -106.258E-03     200.335E-03    -94.0767E-03     223.033E-03    -108.682E-03     202.377E-03    -93.9410E-03     218.592E-03
            1102     10.6481E-03     119.460E-03    -33.6828E+06    -59.4562E+06    -2.41655E+06    -16.3092E+06    -112.483E-03     206.812E-03    -94.3293E-03     244.603E-03    -116.028E-03     210.034E-03    -94.2063E-03     238.914E-03
            1103     11.4605E-03     119.683E-03    -32.3186E+06    -28.4487E+06     3.18271E+06    -14.2300E+06    -120.337E-03     215.230E-03    -94.8931E-03     270.426E-03    -125.738E-03     220.408E-03    -94.7891E-03     262.917E-03
            1104     12.2685E-03     119.938E-03    -30.5350E+06     21.3473E+06     12.5944E+06    -10.4628E+06    -130.194E-03     225.976E-03    -95.7824E-03     305.238E-03    -138.843E-03     234.559E-03    -95.7061E-03     295.045E-03
            1105     13.0709E-03     120.249E-03    -28.4531E+06     78.6991E+06     35.0293E+06    -6.79221E+06    -141.230E-03     238.305E-03    -97.0752E-03     343.740E-03    -154.994E-03     252.149E-03    -96.9729E-03     330.083E-03
            1106     13.8628E-03     120.606E-03    -24.2090E+06     108.839E+06     64.8072E+06    -6.86584E+06    -150.535E-03     249.362E-03    -98.8270E-03     359.576E-03    -169.251E-03     268.194E-03    -98.6256E-03     343.580E-03
            1107     14.6505E-03     120.977E-03    -16.2400E+06     124.768E+06     93.3031E+06    -4.39652E+06    -155.956E-03     256.968E-03    -101.012E-03     331.125E-03    -176.396E-03     277.528E-03    -100.703E-03     315.841E-03
            1108     15.4267E-03     121.299E-03    -9.17939E+06     137.656E+06     109.485E+06    -1.07099E+06    -160.584E-03     264.152E-03    -103.568E-03     236.583E-03    -174.700E-03     278.411E-03    -103.207E-03     224.905E-03
            1109     819.584E-06     119.386E-03    -59.5703E+06    -137.002E+06    -60.6686E+06    -5.90286E+06    -93.2158E-03     186.381E-03    -93.1653E-03     19.2657E-03    -93.2353E-03     185.878E-03    -93.1836E-03     19.0333E-03
            1110     1.63960E-03     119.406E-03    -58.8824E+06    -135.815E+06    -57.0241E+06    -8.83505E+06    -92.6930E-03     185.692E-03    -92.9992E-03     35.9161E-03    -92.7327E-03     185.204E-03    -93.0021E-03     35.5121E-03
            1111     2.46032E-03     119.440E-03    -56.3864E+06    -130.278E+06    -51.9545E+06    -12.7725E+06    -92.0267E-03     184.674E-03    -92.6472E-03     53.5780E-03    -92.0974E-03     184.230E-03    -92.6363E-03     52.9800E-03
            1112     3.28192E-03     119.487E-03    -54.2984E+06    -127.929E+06    -45.7833E+06    -16.0587E+06    -91.2498E-03     183.446E-03    -92.1966E-03     71.7226E-03    -91.3640E-03     183.044E-03    -92.1613E-03     70.9330E-03
            1113     4.10481E-03     119.548E-03    -51.5445E+06    -125.459E+06    -39.7095E+06    -17.7600E+06    -90.4483E-03     182.103E-03    -91.6543E-03     90.2936E-03    -90.6191E-03     181.757E-03    -91.5962E-03     89.3226E-03
            1114     4.92903E-03     119.622E-03    -49.0243E+06    -119.276E+06    -34.0745E+06    -18.8236E+06    -89.8216E-03     180.865E-03    -91.0433E-03     109.324E-03    -90.0761E-03     180.618E-03    -90.9697E-03     108.161E-03
            1115     5.75437E-03     119.712E-03    -47.1032E+06    -115.145E+06    -27.9178E+06    -19.3057E+06    -89.6826E-03     180.107E-03    -90.4241E-03     128.985E-03    -90.0521E-03     179.978E-03    -90.3284E-03     127.604E-03
            1116     6.58063E-03     119.816E-03    -44.9075E+06    -110.181E+06    -22.4925E+06    -19.9015E+06    -90.3595E-03     180.204E-03    -89.8449E-03     149.383E-03    -90.8887E-03     180.246E-03    -89.7325E-03     147.726E-03
            1117     7.40710E-03     119.938E-03    -43.9736E+06    -103.529E+06    -18.4635E+06    -19.3042E+06    -92.1561E-03     181.526E-03    -89.3702E-03     170.463E-03    -92.9226E-03     181.820E-03    -89.2486E-03     168.454E-03
            1118     8.23328E-03     120.076E-03    -43.3177E+06    -98.0889E+06    -13.9703E+06    -18.3072E+06    -95.3363E-03     184.416E-03    -89.0800E-03     191.992E-03    -96.4500E-03     185.067E-03    -88.9448E-03     189.497E-03
            1119     9.05752E-03     120.236E-03    -41.8007E+06    -85.9587E+06    -9.24407E+06    -18.4866E+06    -100.102E-03     189.128E-03    -89.0263E-03     213.764E-03    -101.736E-03     190.335E-03    -88.8873E-03     210.563E-03
            1120     9.87924E-03     120.417E-03    -40.1437E+06    -75.8792E+06    -4.69688E+06    -17.5963E+06    -106.579E-03     195.862E-03    -89.2839E-03     235.301E-03    -108.981E-03     197.866E-03    -89.1391E-03     231.119E-03
            1121     10.6959E-03     120.622E-03    -37.6024E+06    -57.8786E+06    -483.071E+03    -16.7102E+06    -114.583E-03     204.464E-03    -89.8810E-03     257.511E-03    -118.155E-03     207.699E-03    -89.7450E-03     251.952E-03
            1122     11.5081E-03     120.853E-03    -33.4738E+06    -28.9800E+06     6.65512E+06    -15.3114E+06    -124.573E-03     215.430E-03    -90.8576E-03     284.185E-03    -130.098E-03     220.717E-03    -90.7337E-03     276.574E-03
            1123     12.3129E-03     121.122E-03    -29.1851E+06     16.4314E+06     19.2575E+06    -9.60356E+06    -136.929E-03     229.173E-03    -92.2447E-03     319.603E-03    -145.909E-03     238.057E-03    -92.1299E-03     308.911E-03
            1124     13.1094E-03     121.444E-03    -23.7869E+06     79.8560E+06     41.2121E+06    -6.05948E+06    -150.534E-03     244.613E-03    -94.0791E-03     357.961E-03    -164.956E-03     259.119E-03    -93.9544E-03     343.129E-03
            1125     13.8999E-03     121.821E-03    -16.8938E+06     110.041E+06     70.2956E+06    -5.29919E+06    -162.381E-03     258.845E-03    -96.4633E-03     372.125E-03    -181.981E-03     278.577E-03    -96.2469E-03     354.234E-03
            1126     14.6747E-03     122.203E-03    -11.9118E+06     122.017E+06     95.4867E+06    -3.82440E+06    -169.915E-03     269.272E-03    -99.3576E-03     341.414E-03    -191.285E-03     290.762E-03    -99.0398E-03     323.592E-03
            1127     15.4381E-03     122.543E-03    -5.53322E+06     134.020E+06     108.150E+06    -2.40265E+06    -175.225E-03     277.861E-03    -102.636E-03     246.803E-03    -190.081E-03     292.865E-03    -102.281E-03     232.695E-03
            1128     824.568E-06     120.521E-03    -55.2901E+06    -123.366E+06    -53.7826E+06    -5.61454E+06    -87.2089E-03     174.138E-03    -86.9292E-03     20.0352E-03    -87.2359E-03     173.684E-03    -86.9391E-03     19.8454E-03
            1129     1.64954E-03     120.541E-03    -54.6495E+06    -124.471E+06    -53.1631E+06    -9.74467E+06    -86.4336E-03     173.279E-03    -86.8456E-03     37.3569E-03    -86.4701E-03     172.830E-03    -86.8517E-03     37.0155E-03
            1130     2.47556E-03     120.574E-03    -54.1646E+06    -119.236E+06    -52.5633E+06    -13.1628E+06    -85.5875E-03     171.995E-03    -86.4070E-03     55.8005E-03    -85.6522E-03     171.592E-03    -86.4184E-03     55.3112E-03
            1131     3.30277E-03     120.619E-03    -53.7609E+06    -119.700E+06    -48.2543E+06    -15.3480E+06    -84.7571E-03     170.641E-03    -85.8836E-03     74.8365E-03    -84.8583E-03     170.262E-03    -85.8734E-03     74.2107E-03
            1132     4.13100E-03     120.678E-03    -53.7280E+06    -118.533E+06    -43.5584E+06    -17.1861E+06    -84.0039E-03     169.296E-03    -85.2918E-03     94.3827E-03    -84.1597E-03     168.962E-03    -85.2598E-03     93.6151E-03
            1133     4.96057E-03     120.752E-03    -53.2091E+06    -114.139E+06    -39.3146E+06    -18.0466E+06    -83.5811E-03     168.240E-03    -84.6589E-03     114.598E-03    -83.8118E-03     167.987E-03    -84.6128E-03     113.682E-03
            1134     5.79132E-03     120.840E-03    -52.1842E+06    -110.717E+06    -34.0477E+06    -18.4100E+06    -83.9577E-03     168.017E-03    -84.0596E-03     135.562E-03    -84.2902E-03     167.867E-03    -83.9936E-03     134.465E-03
            1135     6.62240E-03     120.944E-03    -52.3366E+06    -106.722E+06    -28.1841E+06    -17.9679E+06    -85.5127E-03     169.086E-03    -83.5728E-03     157.228E-03    -86.0014E-03     169.089E-03    -83.4831E-03     155.893E-03
            1136     7.45328E-03     121.067E-03    -52.2685E+06    -101.745E+06    -22.0605E+06    -16.8719E+06    -88.5037E-03     171.777E-03    -83.2729E-03     179.403E-03    -89.2252E-03     172.013E-03    -83.1599E-03     177.732E-03
            1137     8.28222E-03     121.210E-03    -50.8022E+06    -93.3255E+06    -15.9223E+06    -17.7555E+06    -93.1421E-03     176.365E-03    -83.2229E-03     201.988E-03    -94.2125E-03     176.969E-03    -83.0935E-03     199.797E-03
            1138     9.10887E-03     121.375E-03    -48.3810E+06    -82.8110E+06    -10.0531E+06    -18.6707E+06    -99.6462E-03     183.135E-03    -83.4886E-03     224.802E-03    -101.245E-03     184.297E-03    -83.3487E-03     221.859E-03
            1139     9.93069E-03     121.565E-03    -44.6961E+06    -74.9139E+06    -4.56948E+06    -18.5120E+06    -107.880E-03     192.008E-03    -84.1287E-03     247.389E-03    -110.267E-03     193.985E-03    -83.9781E-03     243.386E-03
            1140     10.7476E-03     121.779E-03    -40.3502E+06    -54.0996E+06     1.08851E+06    -18.8232E+06    -117.755E-03     202.912E-03    -85.1569E-03     270.610E-03    -121.379E-03     206.200E-03    -85.0145E-03     265.073E-03
            1141     11.5575E-03     122.023E-03    -36.6876E+06    -31.4235E+06     7.70873E+06    -17.3845E+06    -129.957E-03     216.580E-03    -86.6226E-03     298.714E-03    -135.652E-03     222.014E-03    -86.4852E-03     290.876E-03
            1142     12.3594E-03     122.308E-03    -31.3720E+06     11.5525E+06     20.0855E+06    -14.3678E+06    -144.703E-03     233.251E-03    -88.5478E-03     335.011E-03    -154.089E-03     242.513E-03    -88.4186E-03     323.585E-03
            1143     13.1529E-03     122.648E-03    -24.3880E+06     80.0574E+06     43.2260E+06    -10.8009E+06    -161.351E-03     252.342E-03    -90.9912E-03     373.443E-03    -176.549E-03     267.619E-03    -90.8557E-03     357.041E-03
            1144     13.9311E-03     123.044E-03    -18.4368E+06     106.106E+06     68.4349E+06     -7.6883E+06    -175.651E-03     269.712E-03    -94.0613E-03     385.586E-03    -196.276E-03     290.458E-03    -93.8462E-03     365.319E-03
            1145     14.6994E-03     123.446E-03    -11.3095E+06     118.760E+06     91.1751E+06    -4.75976E+06    -184.808E-03     282.499E-03    -97.6913E-03     354.095E-03    -207.354E-03     305.171E-03    -97.3913E-03     333.213E-03
            1146     15.4544E-03     123.805E-03    -5.26101E+06     131.090E+06     105.414E+06    -2.63257E+06    -190.340E-03     292.067E-03    -101.726E-03     257.024E-03    -206.003E-03     307.877E-03    -101.382E-03     240.166E-03
            1147     830.657E-06     121.643E-03    -55.9214E+06    -111.085E+06    -55.0098E+06    -4.35099E+06    -79.8942E-03     159.492E-03    -79.5980E-03     20.8900E-03    -79.9396E-03     159.101E-03    -79.6309E-03     20.7531E-03
            1148     1.66178E-03     121.661E-03    -55.9058E+06    -112.048E+06     -55.006E+06    -9.08546E+06    -79.1395E-03     158.664E-03    -79.5249E-03     38.6474E-03    -79.1931E-03     158.276E-03    -79.5564E-03     38.3856E-03
            1149     2.49381E-03     121.692E-03    -56.9718E+06    -110.328E+06    -55.6484E+06    -12.0218E+06    -78.3018E-03     157.398E-03    -79.0962E-03     57.8161E-03    -78.3781E-03     157.037E-03    -79.1319E-03     57.4487E-03
            1150     3.32694E-03     121.736E-03    -58.1917E+06    -112.602E+06    -53.8095E+06    -13.4794E+06    -77.4469E-03     156.012E-03    -78.5649E-03     77.6259E-03    -77.5523E-03     155.662E-03    -78.5863E-03     77.1685E-03
            1151     4.16149E-03     121.794E-03    -59.1465E+06    -112.280E+06    -50.0086E+06    -14.4834E+06    -76.8940E-03     154.874E-03    -77.9799E-03     98.1333E-03    -77.0444E-03     154.556E-03    -77.9813E-03     97.5818E-03
            1152     4.99705E-03     121.865E-03    -60.5108E+06    -109.160E+06    -46.1748E+06    -15.3971E+06    -77.0941E-03     154.505E-03    -77.4114E-03     119.460E-03    -77.3127E-03     154.251E-03    -77.3962E-03     118.791E-03
            1153     5.83308E-03     121.954E-03    -62.0433E+06    -107.022E+06    -41.1469E+06    -15.6427E+06    -78.4459E-03     155.405E-03    -76.9594E-03     141.493E-03    -78.7630E-03     155.238E-03    -76.9200E-03     140.668E-03
            1154     6.66890E-03     122.060E-03    -62.0112E+06    -104.519E+06    -33.3857E+06    -14.9555E+06    -81.2466E-03     157.957E-03    -76.7106E-03     164.125E-03    -81.7083E-03     157.922E-03    -76.6361E-03     163.080E-03
            1155     7.50284E-03     122.187E-03    -60.3094E+06    -97.7839E+06    -24.9958E+06    -15.5923E+06    -85.6628E-03     162.381E-03    -76.7183E-03     187.324E-03    -86.3476E-03     162.576E-03    -76.6140E-03     185.924E-03
            1156     8.33468E-03     122.335E-03    -57.7070E+06    -87.5850E+06    -17.4453E+06    -17.4635E+06    -91.9167E-03     168.953E-03    -77.0365E-03     211.119E-03    -92.9520E-03     169.523E-03    -76.9130E-03     209.172E-03
            1157     9.16196E-03     122.508E-03    -54.1356E+06    -78.3952E+06    -10.7424E+06    -19.8068E+06    -100.018E-03     177.739E-03    -77.7207E-03     235.310E-03    -101.588E-03     178.870E-03    -77.5823E-03     232.561E-03
            1158     9.98452E-03     122.707E-03    -48.4217E+06    -71.1801E+06    -5.02079E+06    -23.0276E+06    -109.890E-03     188.697E-03    -78.8067E-03     259.257E-03    -112.271E-03     190.669E-03    -78.6584E-03     255.336E-03
            1159     10.8004E-03     122.934E-03    -41.1218E+06    -53.6237E+06     882.701E+03    -22.6646E+06    -121.884E-03     202.207E-03    -80.3224E-03     283.949E-03    -125.561E-03     205.548E-03    -80.1806E-03     278.343E-03
            1160     11.6080E-03     123.193E-03    -33.6468E+06    -32.5352E+06     9.66050E+06    -19.8102E+06    -136.376E-03     218.707E-03    -82.3312E-03     313.343E-03    -142.254E-03     224.327E-03    -82.1869E-03     305.157E-03
            1161     12.4064E-03     123.496E-03    -27.4116E+06     10.6380E+06     22.6490E+06    -16.7774E+06    -153.785E-03     238.633E-03    -84.8480E-03     350.748E-03    -163.628E-03     248.358E-03    -84.7105E-03     338.398E-03
            1162     13.1921E-03     123.859E-03    -23.3549E+06     77.8225E+06     42.7612E+06    -11.9523E+06    -172.950E-03     260.873E-03    -87.9235E-03     390.399E-03    -188.998E-03     277.000E-03    -87.7887E-03     372.249E-03
            1163     13.9664E-03     124.281E-03    -19.1969E+06     103.158E+06     66.6287E+06     -9.1736E+06    -189.295E-03     280.965E-03    -91.6703E-03     402.846E-03    -211.134E-03     302.919E-03    -91.4589E-03     379.913E-03
            1164     14.7234E-03     124.701E-03    -14.5073E+06     114.996E+06     88.6406E+06    -8.63669E+06    -200.555E-03     296.582E-03    -96.0277E-03     371.194E-03    -224.573E-03     320.712E-03    -95.7303E-03     346.673E-03
            1165     15.4652E-03     125.085E-03    -7.46250E+06     124.290E+06     102.760E+06    -5.50059E+06    -207.108E-03     307.942E-03    -100.834E-03     269.042E-03    -223.760E-03     324.720E-03    -100.490E-03     248.791E-03
            1166     837.696E-06     122.746E-03    -58.3336E+06    -100.436E+06    -59.1641E+06    -4.61518E+06    -71.6369E-03     142.942E-03    -71.3047E-03     21.3652E-03    -71.7026E-03     142.611E-03    -71.3703E-03     21.2574E-03
            1167     1.67572E-03     122.764E-03    -58.9228E+06    -101.135E+06    -58.8153E+06    -8.04603E+06    -70.9558E-03     142.222E-03    -71.2665E-03     39.4506E-03    -71.0300E-03     141.893E-03    -71.3285E-03     39.2645E-03
            1168     2.51450E-03     122.793E-03    -59.8520E+06    -103.517E+06    -57.9571E+06    -9.89044E+06    -70.2875E-03     141.189E-03    -70.9015E-03     59.2105E-03    -70.3738E-03     140.858E-03    -70.9544E-03     58.9630E-03
            1169     3.35440E-03     122.836E-03    -61.8091E+06    -108.138E+06    -57.5825E+06    -9.89129E+06    -69.7009E-03     140.144E-03    -70.4435E-03     79.7464E-03    -69.8055E-03     139.807E-03    -70.4850E-03     79.4581E-03
            1170     4.19537E-03     122.892E-03    -65.4773E+06    -108.153E+06    -57.1240E+06    -9.33426E+06    -69.7680E-03     139.739E-03    -69.9709E-03     101.127E-03    -69.9146E-03     139.430E-03    -70.0048E-03     100.792E-03
            1171     5.03685E-03     122.964E-03    -69.6423E+06    -104.667E+06    -53.0332E+06    -9.48583E+06    -71.0286E-03     140.646E-03    -69.6172E-03     123.316E-03    -71.2466E-03     140.395E-03    -69.6296E-03     122.895E-03
            1172     5.87776E-03     123.054E-03    -72.1366E+06    -102.991E+06    -45.2646E+06    -10.6836E+06    -73.7025E-03     143.188E-03    -69.4850E-03     146.195E-03    -74.0164E-03     143.008E-03    -69.4574E-03     145.620E-03
            1173     6.71693E-03     123.164E-03    -71.5213E+06    -99.6486E+06    -37.2149E+06    -13.5852E+06    -77.8542E-03     147.465E-03    -69.6104E-03     169.820E-03    -78.3021E-03     147.411E-03    -69.5483E-03     168.989E-03
            1174     7.55410E-03     123.295E-03    -67.0606E+06    -91.5712E+06    -28.2196E+06    -17.0869E+06    -83.7014E-03     153.736E-03    -70.0350E-03     194.203E-03    -84.3556E-03     153.909E-03    -69.9461E-03     192.985E-03
            1175     8.38706E-03     123.451E-03    -60.5180E+06    -83.1068E+06    -18.9978E+06    -19.1912E+06    -91.3939E-03     162.200E-03    -70.8059E-03     219.469E-03    -92.3783E-03     162.730E-03    -70.6926E-03     217.698E-03
            1176     9.21565E-03     123.634E-03    -53.6102E+06    -70.0866E+06    -9.73787E+06    -22.2521E+06    -100.923E-03     172.877E-03    -71.9540E-03     245.162E-03    -102.446E-03     173.990E-03    -71.8233E-03     242.555E-03
            1177     10.0381E-03     123.845E-03    -47.1286E+06    -64.1226E+06    -4.25795E+06    -27.0582E+06    -112.621E-03     186.142E-03    -73.5210E-03     270.816E-03    -114.985E-03     188.126E-03    -73.3809E-03     266.938E-03
            1178     10.8525E-03     124.087E-03    -40.1793E+06    -54.8016E+06    -597.454E+03    -28.9442E+06    -126.746E-03     202.300E-03    -75.5546E-03     297.366E-03    -130.472E-03     205.696E-03    -75.4198E-03     291.609E-03
            1179     11.6577E-03     124.364E-03    -32.7067E+06    -36.0107E+06     6.61294E+06    -25.9704E+06    -143.605E-03     221.722E-03    -78.1171E-03     328.450E-03    -149.691E-03     227.552E-03    -77.9844E-03     319.777E-03
            1180     12.4510E-03     124.689E-03    -26.8290E+06     6.11300E+06     18.5052E+06    -19.6079E+06    -163.597E-03     244.823E-03    -81.2264E-03     368.453E-03    -173.932E-03     255.040E-03    -81.1038E-03     355.075E-03
            1181     13.2323E-03     125.078E-03    -21.7331E+06     73.0004E+06     38.7292E+06    -12.0598E+06    -184.651E-03     269.566E-03    -84.9144E-03     409.408E-03    -201.592E-03     286.587E-03    -84.7951E-03     389.399E-03
            1182     13.9992E-03     125.523E-03    -16.3406E+06     103.276E+06     66.2801E+06    -9.36507E+06    -203.082E-03     292.384E-03    -89.3025E-03     422.419E-03    -226.210E-03     315.642E-03    -89.0972E-03     396.556E-03
            1183     14.7497E-03     125.978E-03    -8.89127E+06     113.642E+06     91.3934E+06    -8.58134E+06    -216.551E-03     310.905E-03    -94.3538E-03     390.382E-03    -241.970E-03     336.445E-03    -94.0488E-03     362.126E-03
            1184     15.4832E-03     126.384E-03    -3.38899E+06     115.564E+06     103.532E+06    -4.35166E+06    -225.705E-03     325.636E-03    -99.9312E-03     284.678E-03    -243.334E-03     343.376E-03    -99.5761E-03     260.790E-03
            1185     845.045E-06     123.830E-03    -62.8764E+06    -89.4697E+06    -63.9542E+06    -5.56031E+06    -62.8308E-03     125.258E-03    -62.4271E-03     21.4531E-03    -62.9269E-03     124.993E-03    -62.5259E-03     21.3592E-03
            1186     1.69068E-03     123.847E-03    -65.2038E+06    -94.5072E+06    -66.5492E+06    -6.05442E+06    -62.1943E-03     124.631E-03    -62.4365E-03     39.7866E-03    -62.2938E-03     124.350E-03    -62.5377E-03     39.6753E-03
            1187     2.53687E-03     123.876E-03    -70.4742E+06    -100.597E+06    -69.7476E+06    -4.97345E+06    -61.8733E-03     124.010E-03    -62.1371E-03     59.8991E-03    -61.9897E-03     123.716E-03    -62.2378E-03     59.7872E-03
            1188     3.38384E-03     123.917E-03    -76.8504E+06    -106.571E+06    -71.9090E+06    -3.73660E+06    -62.1094E-03     123.964E-03    -61.8543E-03     80.9202E-03    -62.2529E-03     123.659E-03    -61.9479E-03     80.8039E-03
            1189     4.23098E-03     123.974E-03    -81.0142E+06    -105.310E+06     -68.688E+06    -3.73759E+06    -63.3547E-03     125.050E-03    -61.6949E-03     102.930E-03    -63.5401E-03     124.769E-03    -61.7682E-03     102.776E-03
            1190     5.07742E-03     124.047E-03    -81.1182E+06    -100.923E+06    -59.4861E+06    -5.27516E+06    -65.8945E-03     127.645E-03    -61.7507E-03     125.827E-03    -66.1307E-03     127.405E-03    -61.7841E-03     125.583E-03
            1191     5.92215E-03     124.141E-03    -77.7892E+06    -96.9761E+06    -47.8276E+06    -8.46080E+06    -69.8263E-03     131.893E-03    -62.0667E-03     149.532E-03    -70.1289E-03     131.712E-03    -62.0524E-03     149.124E-03
            1192     6.76472E-03     124.255E-03    -72.2433E+06    -90.1394E+06    -37.0701E+06    -13.9694E+06    -75.2686E-03     137.927E-03    -62.6586E-03     174.254E-03    -75.6806E-03     137.869E-03    -62.6085E-03     173.569E-03
            1193     7.60345E-03     124.394E-03    -66.4720E+06    -84.4880E+06    -28.2733E+06    -19.2365E+06    -82.3752E-03     145.934E-03    -63.5589E-03     200.068E-03    -82.9757E-03     146.081E-03    -63.4813E-03     198.985E-03
            1194     8.43827E-03     124.559E-03    -59.8818E+06    -76.5155E+06    -19.7200E+06    -23.6588E+06    -91.2803E-03     156.079E-03    -64.7985E-03     226.901E-03    -92.2040E-03     156.576E-03    -64.6993E-03     225.239E-03
            1195     9.26737E-03     124.753E-03    -52.1370E+06    -62.7543E+06    -10.9195E+06    -26.9052E+06    -102.319E-03     168.732E-03    -66.4137E-03     254.331E-03    -103.784E-03     169.824E-03    -66.3017E-03     251.811E-03
            1196     10.0893E-03     124.978E-03    -45.9492E+06    -55.4262E+06    -5.35330E+06    -29.9674E+06    -115.804E-03     184.271E-03    -68.4665E-03     282.006E-03    -118.145E-03     186.271E-03    -68.3463E-03     278.169E-03
            1197     10.9024E-03     125.237E-03    -42.5287E+06    -51.5211E+06    -3.04842E+06    -32.7757E+06    -131.914E-03     202.928E-03    -71.0140E-03     310.909E-03    -135.696E-03     206.390E-03    -70.8928E-03     305.027E-03
            1198     11.7044E-03     125.535E-03    -40.0612E+06    -40.1621E+06     500.700E+03    -32.2142E+06    -151.049E-03     225.156E-03    -74.1067E-03     344.679E-03    -157.344E-03     231.172E-03    -73.9879E-03     335.539E-03
            1199     12.4947E-03     125.885E-03    -34.6193E+06    -733.537E+03     9.62214E+06    -28.6220E+06    -173.113E-03     250.863E-03    -77.7492E-03     387.105E-03    -183.877E-03     261.483E-03    -77.6499E-03     372.702E-03
            1200     13.2713E-03     126.301E-03    -24.3397E+06     57.2870E+06     32.5248E+06    -21.7312E+06    -196.743E-03     278.757E-03    -82.0143E-03     429.960E-03    -214.494E-03     296.544E-03    -81.8994E-03     407.918E-03
            1201     14.0319E-03     126.778E-03    -13.5054E+06     98.3101E+06     69.0529E+06    -12.6354E+06    -217.414E-03     304.434E-03    -87.0201E-03     444.456E-03    -241.963E-03     329.099E-03    -86.7978E-03     415.319E-03
            1202     14.7736E-03     127.263E-03    -8.24625E+06     110.227E+06     91.6854E+06    -7.66350E+06    -233.400E-03     326.119E-03    -92.7187E-03     412.125E-03    -260.480E-03     353.313E-03    -92.4081E-03     379.603E-03
            1203     15.4961E-03     127.701E-03    -4.80689E+06     104.571E+06     101.669E+06    -3.79530E+06    -244.825E-03     343.874E-03    -99.0483E-03     302.654E-03    -263.533E-03     362.657E-03    -98.6846E-03     274.868E-03
            1204     853.001E-06     124.895E-03    -80.7925E+06    -83.5796E+06    -78.8079E+06    -352.526E+03    -53.5618E-03     106.964E-03    -53.4026E-03     21.4355E-03    -53.7333E-03     106.775E-03    -53.5583E-03     21.4296E-03
            1205     1.70610E-03     124.912E-03    -89.0656E+06    -93.2203E+06    -87.6331E+06     581.719E+03    -53.5095E-03     106.892E-03    -53.3823E-03     39.6613E-03    -53.6956E-03     106.679E-03    -53.5562E-03     39.6689E-03
            1206     2.55991E-03     124.940E-03    -94.9848E+06    -100.642E+06    -92.7796E+06     1.17868E+06    -53.9772E-03     107.303E-03    -53.3253E-03     59.7344E-03    -54.1742E-03     107.069E-03    -53.5056E-03     59.7488E-03
            1207     3.41322E-03     124.982E-03    -95.9754E+06    -105.054E+06    -88.5705E+06      51.112E+03    -55.4419E-03     108.872E-03    -53.4301E-03     81.0117E-03    -55.6453E-03     108.615E-03    -53.5815E-03     81.0031E-03
            1208     4.26539E-03     125.040E-03    -92.9896E+06    -101.850E+06    -76.9562E+06    -2.51258E+06    -58.0427E-03     111.807E-03    -53.7643E-03     103.471E-03    -58.2613E-03     111.554E-03    -53.8666E-03     103.402E-03
            1209     5.11574E-03     125.118E-03    -87.9562E+06    -95.6297E+06    -64.5429E+06    -6.10124E+06    -61.7438E-03     116.074E-03    -54.3304E-03     126.965E-03    -61.9878E-03     115.852E-03    -54.3869E-03     126.793E-03
            1210     5.96394E-03     125.216E-03    -81.0545E+06    -88.1307E+06    -51.7833E+06    -11.7894E+06    -66.7057E-03     121.845E-03    -55.1394E-03     151.556E-03    -66.9959E-03     121.684E-03    -55.1530E-03     151.203E-03
            1211     6.80870E-03     125.337E-03    -73.6985E+06    -80.7308E+06    -39.8014E+06    -17.4312E+06    -73.1825E-03     129.396E-03    -56.2131E-03     177.457E-03    -73.5647E-03     129.345E-03    -56.1882E-03     176.846E-03
            1212     7.64975E-03     125.484E-03    -66.8189E+06    -76.2875E+06    -29.7786E+06    -22.1654E+06    -81.3534E-03     138.935E-03    -57.5817E-03     204.649E-03    -81.9071E-03     139.068E-03    -57.5231E-03     203.665E-03
            1213     8.48545E-03     125.659E-03    -60.7398E+06    -65.9913E+06    -21.2557E+06    -27.6319E+06    -91.4841E-03     150.755E-03    -59.2705E-03     233.099E-03    -92.3578E-03     151.242E-03    -59.1930E-03     231.535E-03
            1214     9.31495E-03     125.866E-03    -55.2970E+06    -57.1230E+06    -15.3311E+06    -31.8877E+06    -103.988E-03     165.323E-03    -61.3341E-03     262.548E-03    -105.401E-03     166.384E-03    -61.2478E-03     260.106E-03
            1215     10.1365E-03     126.107E-03    -50.5008E+06    -49.2836E+06    -9.67657E+06    -33.1468E+06    -119.054E-03     182.899E-03    -63.8450E-03     292.472E-03    -121.359E-03     184.882E-03    -63.7487E-03     288.698E-03
            1216     10.9481E-03     126.385E-03    -46.3518E+06    -45.3534E+06    -4.47672E+06     -34.768E+06    -136.938E-03     203.804E-03    -66.8655E-03     323.961E-03    -140.732E-03     207.291E-03    -66.7549E-03     318.035E-03
            1217     11.7487E-03     126.707E-03    -39.4624E+06    -39.0106E+06     1.27894E+06    -36.6327E+06    -158.043E-03     228.475E-03    -70.4319E-03     360.627E-03    -164.409E-03     234.567E-03    -70.3117E-03     351.169E-03
            1218     12.5352E-03     127.083E-03    -29.1595E+06    -4.10285E+06     12.1905E+06    -36.3295E+06    -182.500E-03     257.055E-03    -74.5554E-03     405.343E-03    -193.494E-03     267.908E-03    -74.4463E-03     390.031E-03
            1219     13.3081E-03     127.528E-03    -20.8593E+06     39.5029E+06     30.1421E+06    -28.9407E+06    -208.905E-03     288.224E-03    -79.3191E-03     450.713E-03    -227.219E-03     306.531E-03    -79.1954E-03     426.767E-03
            1220     14.0632E-03     128.042E-03    -17.7152E+06     81.6182E+06     63.2923E+06    -15.7966E+06    -232.144E-03     317.014E-03    -84.8696E-03     466.522E-03    -257.985E-03     342.917E-03    -84.6458E-03     433.915E-03
            1221     14.7992E-03     128.562E-03    -14.2219E+06     107.818E+06     89.5659E+06    -8.47156E+06    -251.718E-03     342.950E-03    -91.2317E-03     435.490E-03    -280.964E-03     372.292E-03    -90.9196E-03     397.637E-03
            1222     15.5088E-03     129.049E-03    -8.40686E+06     96.7456E+06     102.141E+06    -7.52036E+06    -262.228E-03     360.531E-03    -98.3030E-03     319.634E-03    -282.425E-03     380.762E-03    -97.9204E-03     287.342E-03
            1223     860.930E-06     125.941E-03    -117.589E+06    -89.9768E+06    -114.652E+06     7.29638E+06    -44.7744E-03     89.5068E-03    -44.7324E-03     20.8406E-03    -45.0671E-03     89.3911E-03    -45.0047E-03     20.9450E-03
            1224     1.72163E-03     125.957E-03    -117.955E+06    -93.9982E+06    -114.266E+06     6.65315E+06    -45.7660E-03     90.6397E-03    -44.8737E-03     38.6485E-03    -46.0535E-03     90.5016E-03    -45.1377E-03     38.7521E-03
            1225     2.58103E-03     125.987E-03    -115.505E+06    -97.6338E+06    -109.732E+06     1.54378E+06    -47.4826E-03     92.7761E-03    -45.2934E-03     58.6092E-03    -47.7564E-03     92.6081E-03    -45.5330E-03     58.6523E-03
            1226     3.43951E-03     126.031E-03    -109.343E+06    -100.876E+06    -99.5876E+06    -3.76646E+06    -50.1344E-03     96.0694E-03    -45.9350E-03     79.9737E-03    -50.3861E-03     95.8613E-03    -46.1282E-03     79.9462E-03
            1227     4.29575E-03     126.094E-03    -101.301E+06    -97.0667E+06    -86.9316E+06    -7.49615E+06    -53.7463E-03     100.531E-03    -46.7851E-03     102.637E-03    -53.9859E-03     100.317E-03    -46.9322E-03     102.545E-03
            1228     5.14962E-03     126.176E-03    -91.5449E+06    -87.6413E+06    -72.0111E+06    -12.3976E+06    -58.3506E-03     106.194E-03    -47.8439E-03     126.615E-03    -58.5937E-03     106.009E-03    -47.9441E-03     126.416E-03
            1229     6.00022E-03     126.280E-03     -81.771E+06    -78.5412E+06    -57.1513E+06    -17.8768E+06    -64.1547E-03     113.271E-03    -49.1166E-03     152.058E-03    -64.4255E-03     113.138E-03    -49.1699E-03     151.699E-03
            1230     6.84746E-03     126.409E-03    -73.5468E+06    -73.1790E+06    -44.1137E+06    -21.8976E+06    -71.4723E-03     122.099E-03    -50.6271E-03     179.042E-03    -71.8161E-03     122.051E-03    -50.6349E-03     178.470E-03
            1231     7.68976E-03     126.566E-03    -65.9543E+06    -66.6798E+06    -32.9135E+06    -26.4677E+06    -80.5831E-03     132.990E-03    -52.4065E-03     207.479E-03    -81.0832E-03     133.116E-03    -52.3787E-03     206.562E-03
            1232     8.52663E-03     126.752E-03    -58.8931E+06    -56.5752E+06    -23.2160E+06    -30.3732E+06    -91.8667E-03     146.367E-03    -54.5005E-03     237.595E-03    -92.6653E-03     146.826E-03    -54.4491E-03     236.141E-03
            1233     9.35626E-03     126.973E-03    -53.7255E+06    -49.4014E+06    -15.1416E+06    -33.3257E+06    -105.663E-03     162.640E-03    -56.9767E-03     269.053E-03    -106.983E-03     163.641E-03    -56.9029E-03     266.754E-03
            1234     10.1772E-03     127.231E-03    -47.5893E+06    -44.8779E+06    -7.71406E+06    -36.1281E+06    -122.141E-03     182.037E-03    -59.8957E-03     301.255E-03    -124.328E-03     183.923E-03    -59.8002E-03     297.596E-03
            1235     10.9881E-03     127.530E-03    -37.9971E+06    -39.3695E+06     1.14345E+06    -37.8255E+06    -141.626E-03     204.942E-03    -63.3162E-03     335.329E-03    -145.277E-03     208.322E-03    -63.1983E-03     329.456E-03
            1236     11.7862E-03     127.875E-03    -28.5132E+06    -32.7692E+06     9.25038E+06    -40.9491E+06    -164.721E-03     232.008E-03    -67.2869E-03     374.197E-03    -170.960E-03     238.013E-03    -67.1518E-03     364.567E-03
            1237     12.5719E-03     128.280E-03    -23.5561E+06    -7.73779E+06     16.6710E+06    -39.8169E+06    -191.785E-03     263.627E-03    -71.8423E-03     420.270E-03    -202.705E-03     274.401E-03    -71.7136E-03     404.325E-03
            1238     13.3398E-03     128.760E-03    -24.4350E+06     21.7257E+06     26.4489E+06    -28.7795E+06    -220.800E-03     297.872E-03    -77.0728E-03     466.239E-03    -239.184E-03     316.186E-03    -76.9366E-03     440.800E-03
            1239     14.0910E-03     129.309E-03    -21.8299E+06     67.4545E+06     58.9720E+06    -18.9943E+06    -246.954E-03     330.103E-03    -83.1493E-03     484.911E-03    -273.643E-03     356.805E-03    -82.9206E-03     448.774E-03
            1240     14.8152E-03     129.877E-03    -13.5130E+06     101.125E+06     90.1884E+06    -15.2364E+06    -268.025E-03     358.122E-03    -90.0972E-03     459.939E-03    -299.569E-03     389.741E-03    -89.7733E-03     416.261E-03
            1241     15.5150E-03     130.411E-03    -3.63075E+06     82.5110E+06     107.114E+06    -7.89959E+06    -276.140E-03     373.891E-03    -97.7518E-03     338.059E-03    -298.181E-03     395.920E-03    -97.3306E-03     300.968E-03
            1242     867.262E-06     126.969E-03    -156.002E+06    -98.2602E+06    -158.564E+06     2.40253E+06    -38.1364E-03     75.9049E-03    -37.7685E-03     19.1411E-03    -38.5438E-03     75.8685E-03    -38.1927E-03     19.1837E-03
            1243     1.73349E-03     126.987E-03    -145.011E+06    -91.5947E+06    -146.154E+06    -810.956E+03    -39.7247E-03     77.9489E-03    -38.2242E-03     36.2877E-03    -40.1030E-03     77.9089E-03    -38.6119E-03     36.2982E-03
            1244     2.59831E-03     127.020E-03    -133.469E+06    -89.0196E+06    -131.131E+06    -6.87094E+06    -42.4331E-03     81.4465E-03    -39.0134E-03     56.0047E-03    -42.7757E-03     81.3780E-03    -39.3465E-03     55.9458E-03
            1245     3.46003E-03     127.068E-03    -122.196E+06    -91.8638E+06    -116.633E+06    -14.1625E+06    -46.0025E-03     86.0760E-03    -40.0735E-03     77.4140E-03    -46.3026E-03     85.9535E-03    -40.3463E-03     77.2642E-03
            1246     4.31959E-03     127.136E-03    -108.161E+06    -89.6988E+06    -100.179E+06    -20.2792E+06    -50.3524E-03     91.6902E-03    -41.3377E-03     100.238E-03    -50.6104E-03     91.5357E-03    -41.5517E-03     100.001E-03
            1247     5.17597E-03     127.224E-03    -93.4951E+06    -78.8155E+06    -81.8936E+06    -24.5417E+06    -55.6163E-03     98.3956E-03    -42.7793E-03     124.405E-03    -55.8542E-03     98.2593E-03    -42.9389E-03     124.082E-03
            1248     6.02914E-03     127.335E-03    -80.8696E+06    -72.0027E+06    -64.2328E+06    -27.0444E+06    -62.1123E-03     106.532E-03    -44.4197E-03     150.324E-03    -62.3547E-03     106.418E-03    -44.5192E-03     149.899E-03
            1249     6.87774E-03     127.473E-03    -69.5152E+06    -66.4534E+06    -47.9984E+06    -29.0636E+06    -70.1299E-03     116.411E-03    -46.2811E-03     178.043E-03    -70.4194E-03     116.358E-03    -46.3240E-03     177.457E-03
            1250     7.72149E-03     127.639E-03    -60.0948E+06    -58.5657E+06    -34.3441E+06    -31.1986E+06    -80.0216E-03     128.418E-03    -48.3961E-03     207.613E-03    -80.4407E-03     128.517E-03    -48.3958E-03     206.749E-03
            1251     8.55876E-03     127.838E-03    -52.9511E+06    -50.0036E+06    -21.7882E+06    -33.2366E+06    -92.2824E-03     143.113E-03    -50.8307E-03     239.216E-03    -92.9694E-03     143.501E-03    -50.7904E-03     237.880E-03
            1252     9.38854E-03     128.074E-03    -45.3313E+06    -42.6094E+06    -9.40231E+06    -34.9258E+06    -107.205E-03     160.857E-03    -53.6519E-03     272.273E-03    -108.366E-03     161.737E-03    -53.5714E-03     270.149E-03
            1253     10.2092E-03     128.350E-03    -38.4043E+06    -36.4431E+06     1.31865E+06    -37.8474E+06    -124.934E-03     181.849E-03    -56.9150E-03     306.136E-03    -126.908E-03     183.559E-03    -56.7999E-03     302.687E-03
            1254     11.0187E-03     128.670E-03    -33.6626E+06    -32.4007E+06     8.26179E+06    -43.0758E+06    -145.946E-03     206.621E-03    -60.6754E-03     341.774E-03    -149.326E-03     209.751E-03    -60.5383E-03     336.070E-03
            1255     11.8164E-03     129.042E-03    -30.5838E+06    -26.7438E+06     13.8758E+06    -45.8698E+06    -171.247E-03     236.263E-03    -65.0153E-03     381.827E-03    -177.148E-03     241.930E-03    -64.8628E-03     372.257E-03
            1256     12.5963E-03     129.476E-03    -29.4408E+06    -16.2476E+06     16.7886E+06    -41.1748E+06    -200.821E-03     270.817E-03    -69.9958E-03     428.079E-03    -211.224E-03     281.023E-03    -69.8456E-03     411.951E-03
            1257     13.3609E-03     129.989E-03    -23.2980E+06     365.806E+03     26.6230E+06    -28.4530E+06    -232.371E-03     308.072E-03    -75.7015E-03     474.409E-03    -250.037E-03     325.597E-03    -75.5352E-03     448.095E-03
            1258     14.1031E-03     130.578E-03    -15.9585E+06     64.2583E+06     62.4404E+06    -20.4546E+06    -259.252E-03     341.450E-03    -82.1982E-03     500.002E-03    -285.896E-03     368.105E-03    -81.9560E-03     461.448E-03
            1259     14.8250E-03     131.199E-03    -10.9613E+06     94.2265E+06     93.2769E+06    -17.2349E+06    -278.041E-03     367.481E-03    -89.4404E-03     487.433E-03    -311.473E-03     400.962E-03    -89.0948E-03     439.273E-03
            1260     15.5258E-03     131.781E-03    -6.62593E+06     61.3312E+06     111.440E+06    -9.61163E+06    -286.971E-03     384.340E-03    -97.3689E-03     364.697E-03    -311.086E-03     408.351E-03    -96.8911E-03     323.111E-03
            1261     870.139E-06     127.986E-03    -157.257E+06    -91.9862E+06    -158.537E+06    -8.25869E+06    -34.8440E-03     69.1622E-03    -34.3182E-03     16.7306E-03    -35.2662E-03     69.1604E-03    -34.7494E-03     16.6306E-03
            1262     1.73979E-03     128.006E-03    -150.989E+06    -81.8579E+06    -152.684E+06    -13.9558E+06    -36.4543E-03     71.3173E-03    -34.8629E-03     32.2758E-03    -36.8674E-03     71.3462E-03    -35.2887E-03     32.1091E-03
            1263     2.60718E-03     128.043E-03    -141.437E+06    -76.3512E+06    -140.053E+06    -19.6772E+06    -39.1587E-03     74.8486E-03    -35.6898E-03     50.7069E-03    -39.5477E-03     74.8703E-03    -36.0743E-03     50.4743E-03
            1264     3.47267E-03     128.096E-03    -129.453E+06    -76.9165E+06    -124.738E+06    -27.5146E+06    -42.9200E-03     79.7279E-03    -36.8078E-03     71.3638E-03    -43.2674E-03     79.7044E-03    -37.1323E-03     71.0362E-03
            1265     4.33439E-03     128.170E-03    -117.389E+06    -76.2565E+06    -111.889E+06    -36.2242E+06    -47.5985E-03     85.7537E-03    -38.1552E-03     94.1009E-03    -47.9037E-03     85.6963E-03    -38.4339E-03     93.6604E-03
            1266     5.19285E-03     128.264E-03    -103.968E+06    -70.4652E+06    -95.0314E+06    -41.3052E+06    -53.3644E-03     93.1010E-03    -39.7366E-03     118.630E-03    -53.6409E-03     93.0345E-03    -39.9588E-03     118.106E-03
            1267     6.04707E-03     128.383E-03    -88.5998E+06    -67.1546E+06    -74.1098E+06    -42.5567E+06    -60.5080E-03     102.083E-03    -41.5750E-03     144.927E-03    -60.7649E-03     102.003E-03    -41.7197E-03     144.338E-03
            1268     6.89681E-03     128.529E-03    -73.7556E+06    -62.1060E+06    -55.6262E+06    -42.3540E+06    -69.1437E-03     112.800E-03    -43.6568E-03     172.918E-03    -69.4159E-03     112.753E-03    -43.7379E-03     172.223E-03
            1269     7.74099E-03     128.706E-03    -61.0255E+06    -56.3651E+06    -38.0047E+06    -40.5031E+06    -79.6969E-03     125.720E-03    -46.0229E-03     202.941E-03    -80.0553E-03     125.774E-03    -46.0427E-03     202.062E-03
            1270     8.57856E-03     128.918E-03    -51.8170E+06    -46.8629E+06    -19.6898E+06    -37.7571E+06    -92.6782E-03     141.407E-03    -48.7288E-03     235.184E-03    -93.2557E-03     141.694E-03    -48.6842E-03     233.956E-03
            1271     9.40780E-03     129.170E-03    -46.8357E+06    -35.5105E+06    -4.43066E+06    -39.0642E+06    -108.450E-03     160.272E-03    -51.8227E-03     269.059E-03    -109.450E-03     160.998E-03    -51.7254E-03     267.127E-03
            1272     10.2271E-03     129.464E-03    -42.1679E+06    -28.6271E+06     6.09180E+06    -42.5159E+06    -127.349E-03     182.718E-03    -55.3693E-03     303.607E-03    -129.066E-03     184.172E-03    -55.2362E-03     300.437E-03
            1273     11.0350E-03     129.806E-03    -38.0119E+06    -22.5312E+06     14.2066E+06    -44.9045E+06    -150.057E-03     209.514E-03    -59.4574E-03     339.598E-03    -153.032E-03     212.241E-03    -59.2986E-03     334.290E-03
            1274     11.8276E-03     130.202E-03    -36.5946E+06    -22.1864E+06     18.2840E+06    -45.9430E+06    -177.209E-03     241.383E-03    -64.1734E-03     379.706E-03    -182.431E-03     246.353E-03    -63.9968E-03     370.654E-03
            1275     12.6057E-03     130.669E-03    -31.8797E+06    -23.6036E+06     22.0956E+06    -44.1339E+06    -208.539E-03     278.118E-03    -69.5783E-03     425.518E-03    -217.743E-03     287.074E-03    -69.3874E-03     409.998E-03
            1276     13.3628E-03     131.215E-03    -25.1208E+06    -24.4468E+06     29.2384E+06    -39.2466E+06    -240.715E-03     316.384E-03    -75.6691E-03     473.874E-03    -256.505E-03     331.929E-03    -75.4511E-03     448.209E-03
            1277     14.1026E-03     131.845E-03    -19.4328E+06     42.6587E+06     60.5714E+06    -25.5740E+06    -264.770E-03     347.079E-03    -82.3088E-03     507.914E-03    -289.349E-03     371.579E-03    -82.0396E-03     470.230E-03
            1278     14.8270E-03     132.504E-03    -17.3412E+06     95.6061E+06     97.6779E+06    -17.8604E+06    -280.251E-03     369.668E-03    -89.4174E-03     512.068E-03    -313.902E-03     403.335E-03    -89.0425E-03     462.925E-03
            1279     15.5316E-03     133.148E-03    -11.4322E+06     42.9976E+06     111.463E+06    -16.1676E+06    -294.909E-03     392.124E-03    -97.2150E-03     402.081E-03    -320.986E-03     418.026E-03    -96.7035E-03     357.177E-03
            1280     869.966E-06     129.000E-03    -119.284E+06    -72.9553E+06    -116.924E+06    -10.8853E+06    -35.4988E-03     70.6831E-03    -35.1843E-03     13.7918E-03    -35.8198E-03     70.6615E-03    -35.4902E-03     13.6498E-03
            1281     1.73831E-03     129.023E-03    -118.116E+06    -65.7870E+06    -113.465E+06    -17.7158E+06    -36.9946E-03     72.6262E-03    -35.6316E-03     26.6445E-03    -37.3258E-03     72.6327E-03    -35.9322E-03     26.4142E-03
            1282     2.60621E-03     129.062E-03    -115.955E+06    -59.5797E+06    -109.136E+06    -25.1931E+06    -39.1381E-03     75.4802E-03    -36.3422E-03     42.1676E-03    -39.4734E-03     75.5082E-03    -36.6333E-03     41.8417E-03
            1283     3.47162E-03     129.120E-03    -112.608E+06    -57.7631E+06    -101.901E+06    -33.6725E+06    -42.1387E-03     79.4083E-03    -37.2696E-03     60.1464E-03    -42.4699E-03     79.4297E-03    -37.5321E-03     59.7128E-03
            1284     4.33506E-03     129.198E-03    -108.039E+06    -56.7292E+06    -94.8815E+06    -42.9399E+06    -46.2665E-03     84.6853E-03    -38.4188E-03     80.8017E-03    -46.5863E-03     84.6952E-03    -38.6543E-03     80.2486E-03
            1285     5.19490E-03     129.299E-03    -102.453E+06    -56.9895E+06    -86.1176E+06    -51.0690E+06    -51.7996E-03     91.6382E-03    -39.8386E-03     104.302E-03    -52.1063E-03     91.6290E-03    -40.0380E-03     103.636E-03
            1286     6.05019E-03     129.426E-03    -94.9345E+06    -58.7121E+06    -75.6054E+06    -55.6119E+06    -58.9393E-03     100.501E-03    -41.5622E-03     130.395E-03    -59.2332E-03     100.470E-03    -41.7174E-03     129.643E-03
            1287     6.89987E-03     129.581E-03    -84.8573E+06    -57.5644E+06    -64.1483E+06    -57.2235E+06    -67.9431E-03     111.553E-03    -43.6096E-03     158.753E-03    -68.2398E-03     111.531E-03    -43.7238E-03     157.908E-03
            1288     7.74327E-03     129.769E-03    -72.7001E+06    -57.3730E+06    -45.1821E+06    -55.5477E+06    -79.1753E-03     125.234E-03    -46.0591E-03     189.278E-03    -79.5191E-03     125.250E-03    -46.0964E-03     188.299E-03
            1289     8.57926E-03     129.993E-03    -58.9162E+06    -51.7274E+06    -21.1887E+06    -49.4885E+06    -92.8848E-03     141.819E-03    -48.9342E-03     221.532E-03    -93.3666E-03     141.972E-03    -48.8797E-03     220.325E-03
            1290     9.40673E-03     130.259E-03    -46.8114E+06    -32.8652E+06    -135.514E+03    -42.3980E+06    -109.335E-03     161.571E-03    -52.2358E-03     254.883E-03    -110.122E-03     162.079E-03    -52.1210E-03     253.201E-03
            1291     10.2238E-03     130.572E-03    -41.4962E+06    -19.3807E+06     14.1773E+06    -41.3738E+06    -129.098E-03     185.142E-03    -56.0437E-03     288.827E-03    -130.453E-03     186.245E-03    -55.8845E-03     286.130E-03
            1292     11.0274E-03     130.935E-03    -40.2696E+06    -16.3858E+06     22.7912E+06    -42.4921E+06    -152.945E-03     213.396E-03    -60.4513E-03     324.364E-03    -155.296E-03     215.487E-03    -60.2552E-03     319.814E-03
            1293     11.8165E-03     131.358E-03      -37.42E+06    -14.5443E+06     30.8581E+06    -43.7612E+06    -181.146E-03     246.684E-03    -65.5386E-03     363.406E-03    -185.276E-03     250.550E-03    -65.3089E-03     355.530E-03
            1294     12.5862E-03     131.851E-03    -35.8943E+06    -23.2061E+06     33.6906E+06    -46.3367E+06    -212.564E-03     283.875E-03    -71.3114E-03     407.721E-03    -219.834E-03     290.850E-03    -71.0573E-03     394.087E-03
            1295     13.3401E-03     132.430E-03    -36.7041E+06    -33.5450E+06     38.4097E+06    -46.1643E+06    -241.871E-03     319.527E-03    -77.6558E-03     454.671E-03    -254.396E-03     331.702E-03    -77.3619E-03     432.231E-03
            1296     14.0805E-03     133.085E-03    -27.7876E+06     7.09089E+06     63.1254E+06    -43.4269E+06    -259.068E-03     343.274E-03    -84.2065E-03     491.825E-03    -278.700E-03     362.658E-03    -83.8608E-03     459.502E-03
            1297     14.8141E-03     133.783E-03    -939.181E+03     64.2463E+06     103.334E+06    -20.3760E+06    -273.159E-03     364.005E-03    -90.8461E-03     515.248E-03    -303.327E-03     394.118E-03    -90.4212E-03     469.806E-03
            1298     15.5316E-03     134.491E-03     11.6870E+06     46.1623E+06     135.235E+06     5.23973E+06    -286.996E-03     385.051E-03    -98.0559E-03     435.004E-03    -313.881E-03     411.787E-03    -97.4636E-03     389.889E-03
            1299     865.170E-06     130.020E-03    -81.0287E+06    -52.7775E+06    -77.3628E+06    -8.49041E+06    -40.6195E-03     80.8933E-03    -40.2737E-03     10.4050E-03    -40.8383E-03     80.8585E-03    -40.4665E-03     10.2821E-03
            1300     1.73034E-03     130.045E-03     -78.737E+06    -47.6666E+06    -71.7370E+06    -15.6431E+06    -41.9021E-03     82.6764E-03    -40.7744E-03     19.4429E-03    -42.1270E-03     82.6560E-03    -40.9498E-03     19.2159E-03
            1301     2.59310E-03     130.086E-03    -76.1910E+06    -41.3467E+06    -66.3492E+06    -22.9195E+06    -43.6397E-03     85.0961E-03    -41.4564E-03     30.6554E-03    -43.8714E-03     85.0981E-03    -41.6177E-03     30.3215E-03
            1302     3.45527E-03     130.146E-03    -74.3718E+06    -37.9195E+06    -60.0677E+06    -30.5013E+06    -45.8699E-03     88.1682E-03    -42.2984E-03     43.8822E-03    -46.1102E-03     88.1791E-03    -42.4359E-03     43.4374E-03
            1303     4.31521E-03     130.227E-03    -73.2524E+06    -36.2716E+06    -52.9056E+06    -38.7381E+06    -48.8886E-03     92.2042E-03    -43.3156E-03     59.5972E-03    -49.1409E-03     92.2164E-03    -43.4214E-03     59.0324E-03
            1304     5.17248E-03     130.333E-03    -73.2846E+06    -38.2419E+06    -49.6921E+06    -46.1962E+06    -52.9819E-03     97.5082E-03    -44.5263E-03     78.5450E-03    -53.2421E-03     97.5126E-03    -44.6130E-03     77.8705E-03
            1305     6.02643E-03     130.466E-03    -73.9510E+06    -43.2205E+06    -49.4538E+06    -52.9123E+06    -58.6065E-03     104.588E-03    -45.9812E-03     101.208E-03    -58.8719E-03     104.578E-03    -46.0585E-03     100.429E-03
            1306     6.87570E-03     130.629E-03    -73.8102E+06    -45.4705E+06    -46.6015E+06    -58.4208E+06    -66.4810E-03     114.254E-03    -47.7731E-03     127.584E-03    -66.7647E-03     114.248E-03    -47.8332E-03     126.697E-03
            1307     7.71823E-03     130.827E-03    -70.6240E+06    -51.0469E+06    -38.1640E+06    -62.1783E+06    -77.1848E-03     127.201E-03    -50.0166E-03     157.351E-03    -77.4988E-03     127.194E-03    -50.0310E-03     156.326E-03
            1308     8.55199E-03     131.064E-03    -63.4875E+06    -56.2369E+06    -26.3703E+06    -61.3495E+06    -90.9657E-03     143.742E-03    -52.7762E-03     189.539E-03    -91.3452E-03     143.774E-03    -52.7344E-03     188.333E-03
            1309     9.37536E-03     131.345E-03    -53.0573E+06    -43.3340E+06    -6.19924E+06    -54.2657E+06    -107.955E-03     164.074E-03    -56.1189E-03     222.797E-03    -108.513E-03     164.310E-03    -56.0101E-03     221.296E-03
            1310     10.1869E-03     131.673E-03    -42.6002E+06    -22.8169E+06     19.5073E+06    -42.9351E+06    -128.441E-03     188.561E-03    -60.1193E-03     255.873E-03    -129.364E-03     189.197E-03    -59.9270E-03     253.766E-03
            1311     10.9850E-03     132.057E-03    -34.9055E+06    -9.53032E+06     38.2482E+06    -38.1126E+06    -152.693E-03     217.507E-03    -64.8142E-03     289.082E-03    -154.262E-03     218.812E-03    -64.5586E-03     285.641E-03
            1312     11.7662E-03     132.502E-03    -32.0673E+06    -8.70659E+06     49.3381E+06    -35.5893E+06    -180.203E-03     250.451E-03    -70.2476E-03     324.224E-03    -182.939E-03     252.903E-03    -69.9418E-03     318.284E-03
            1313     12.5308E-03     133.022E-03    -29.4402E+06    -6.56556E+06     60.3767E+06    -35.3805E+06    -208.734E-03     285.090E-03    -76.3559E-03     363.456E-03    -213.536E-03     289.593E-03    -76.0018E-03     353.225E-03
            1314     13.2777E-03     133.619E-03    -17.6401E+06    -23.9049E+06     65.4775E+06    -35.1028E+06    -231.971E-03     314.796E-03    -82.8250E-03     405.976E-03    -240.088E-03     322.580E-03    -82.4374E-03     389.478E-03
            1315     14.0138E-03     134.290E-03    -2.26301E+06     11.7227E+06     82.1633E+06    -36.6786E+06    -242.336E-03     331.503E-03    -89.1676E-03     439.753E-03    -255.344E-03     344.308E-03    -88.7705E-03     415.901E-03
            1316     14.7574E-03     134.986E-03    -8.34446E+06     8.69825E+06     71.5641E+06    -33.3635E+06    -251.585E-03     346.659E-03    -95.0741E-03     484.875E-03    -273.701E-03     368.582E-03    -94.7168E-03     449.805E-03
            1317     15.4734E-03     135.786E-03    -15.4149E+06    -6.76905E+06     83.7151E+06    -11.2723E+06    -246.104E-03     346.665E-03    -100.560E-03     467.532E-03    -270.036E-03     370.301E-03    -100.110E-03     431.197E-03
            1318     857.505E-06     131.056E-03    -43.9094E+06    -35.2188E+06    -42.0959E+06    -6.77538E+06    -50.4803E-03     100.894E-03    -50.4141E-03     5.14481E-03    -50.5945E-03     100.838E-03    -50.5098E-03     5.02677E-03
            1319     1.71302E-03     131.082E-03    -42.3980E+06    -30.4548E+06    -36.7943E+06    -13.4481E+06    -51.7863E-03     102.631E-03    -50.8450E-03     10.2695E-03    -51.9106E-03     102.590E-03    -50.9233E-03     10.0323E-03
            1320     2.56840E-03     131.124E-03    -40.8073E+06    -25.2871E+06    -28.9495E+06    -19.1535E+06    -53.6256E-03     105.276E-03    -51.6509E-03     15.6204E-03    -53.7649E-03     105.250E-03    -51.6998E-03     15.2742E-03
            1321     3.42096E-03     131.186E-03    -39.4843E+06    -21.5606E+06    -22.3458E+06    -24.4932E+06    -55.5037E-03     108.156E-03    -52.6524E-03     22.1301E-03    -55.6572E-03     108.142E-03    -52.6756E-03     21.6742E-03
            1322     4.27160E-03     131.270E-03    -39.5125E+06    -18.4372E+06    -17.5603E+06    -29.9732E+06    -57.4569E-03     111.221E-03    -53.7643E-03     30.9617E-03    -57.6303E-03     111.223E-03    -53.7680E-03     30.3927E-03
            1323     5.12017E-03     131.377E-03    -40.1043E+06    -20.8833E+06    -12.9303E+06    -35.5986E+06    -59.8687E-03     114.872E-03    -55.0032E-03     42.5625E-03    -60.0591E-03     114.866E-03    -54.9794E-03     41.8802E-03
            1324     5.96603E-03     131.512E-03    -41.1033E+06    -25.7356E+06    -9.89882E+06    -40.8129E+06    -63.2156E-03     119.628E-03    -56.4121E-03     57.5411E-03    -63.4215E-03     119.608E-03    -56.3647E-03     56.7537E-03
            1325     6.80831E-03     131.679E-03    -43.2756E+06    -29.2283E+06    -8.28032E+06    -45.4723E+06    -68.1593E-03     126.232E-03    -58.0726E-03     76.5647E-03    -68.3893E-03     126.212E-03    -58.0089E-03     75.6806E-03
            1326     7.64530E-03     131.884E-03    -48.6742E+06    -34.9025E+06    -9.60546E+06    -49.6039E+06    -75.4832E-03     135.574E-03    -60.0910E-03     100.029E-03    -75.7522E-03     135.560E-03    -60.0179E-03     99.0445E-03
            1327     8.47503E-03     132.130E-03    -54.3974E+06    -44.2862E+06    -12.3088E+06    -55.6844E+06    -86.0727E-03     148.667E-03    -62.5940E-03     127.724E-03    -86.3899E-03     148.658E-03    -62.5124E-03     126.579E-03
            1328     9.29462E-03     132.423E-03    -56.0085E+06    -47.0229E+06    -5.96564E+06    -58.0193E+06    -100.689E-03     166.434E-03    -65.7453E-03     158.237E-03    -101.090E-03     166.478E-03    -65.6257E-03     156.891E-03
            1329     10.1007E-03     132.767E-03    -48.5969E+06    -36.9194E+06     11.8091E+06    -54.3744E+06    -119.722E-03     189.396E-03    -69.6741E-03     189.523E-03    -120.271E-03     189.601E-03    -69.4910E-03     187.853E-03
            1330     10.8896E-03     133.168E-03    -37.8994E+06    -19.7055E+06     40.0121E+06    -43.2332E+06    -142.777E-03     217.270E-03    -74.4925E-03     220.436E-03    -143.629E-03     217.798E-03    -74.2089E-03     218.135E-03
            1331     11.6601E-03     133.632E-03    -28.8647E+06    -13.3471E+06     70.1336E+06    -31.9210E+06    -168.177E-03     248.381E-03    -80.2041E-03     251.184E-03    -169.591E-03     249.438E-03    -79.7922E-03     247.541E-03
            1332     12.4115E-03     134.165E-03    -16.6945E+06     2.43940E+06     89.2951E+06    -30.3819E+06    -191.656E-03     278.188E-03    -86.5325E-03     283.561E-03    -194.049E-03     280.264E-03    -86.0654E-03     277.432E-03
            1333     13.1499E-03     134.773E-03    -6.76571E+06    -14.0569E+06     79.4905E+06    -34.7468E+06    -206.059E-03     299.064E-03    -93.0052E-03     316.267E-03    -209.991E-03     302.674E-03    -92.5776E-03     306.570E-03
            1334     13.8908E-03     135.437E-03    -11.2370E+06     5.43148E+06     78.1134E+06    -36.2360E+06    -210.607E-03     309.835E-03    -99.2280E-03     344.050E-03    -217.206E-03     316.171E-03    -98.8290E-03     329.803E-03
            1335     14.6155E-03     136.145E-03    -19.3596E+06     5.62731E+06     79.3515E+06    -21.0185E+06    -202.778E-03     307.412E-03    -104.635E-03     389.211E-03    -214.164E-03     318.493E-03    -104.218E-03     370.063E-03
            1336     15.3933E-03     136.919E-03    -12.8769E+06    -28.3342E+06     52.8111E+06    -18.0187E+06    -151.589E-03     259.035E-03    -107.445E-03     426.574E-03    -165.135E-03     272.308E-03    -107.121E-03     409.479E-03
            1337     843.259E-06     132.117E-03    -8.34265E+06    -19.6107E+06    -7.68871E+06    -5.55354E+06    -66.4961E-03     132.740E-03    -66.2440E-03    -411.956E-06    -66.5127E-03     132.652E-03    -66.2419E-03    -540.344E-06
            1338     1.68750E-03     132.145E-03    -9.27375E+06    -16.5773E+06    -3.16961E+06    -9.80375E+06    -68.3418E-03     135.395E-03    -67.0537E-03    -2.23790E-03    -68.3779E-03     135.313E-03    -67.0320E-03    -2.48166E-03
            1339     2.52741E-03     132.190E-03    -8.83882E+06    -12.5872E+06     3.44204E+06    -14.0647E+06    -69.9659E-03     138.181E-03    -68.2154E-03    -4.88103E-03    -70.0153E-03     138.109E-03    -68.1671E-03    -5.25111E-03
            1340     3.36541E-03     132.254E-03    -7.70540E+06    -9.30628E+06     10.1807E+06    -17.5392E+06    -71.4509E-03     140.945E-03    -69.4944E-03    -6.06492E-03    -71.5110E-03     140.879E-03    -69.4188E-03    -6.55982E-03
            1341     4.20112E-03     132.338E-03    -7.42884E+06    -6.47814E+06     16.3159E+06    -19.8895E+06    -72.8993E-03     143.791E-03    -70.8916E-03    -5.79173E-03    -72.9751E-03     143.730E-03    -70.7898E-03    -6.39886E-03
            1342     5.03407E-03     132.446E-03    -9.45663E+06    -6.67723E+06     21.9886E+06    -22.5123E+06    -74.3162E-03     146.760E-03    -72.4435E-03    -3.90719E-03    -74.4162E-03     146.695E-03    -72.3101E-03    -4.63178E-03
            1343     5.86371E-03     132.581E-03    -13.3078E+06    -11.5270E+06     24.7715E+06    -25.8596E+06    -75.8545E-03     150.032E-03    -74.1775E-03     166.452E-06    -75.9794E-03     149.950E-03    -74.0176E-03    -686.191E-06
            1344     6.68917E-03     132.748E-03    -18.2259E+06    -15.3832E+06     24.8027E+06    -28.5193E+06    -77.6922E-03     153.827E-03    -76.1349E-03     7.22695E-03    -77.8482E-03     153.740E-03    -75.9621E-03     6.26165E-03
            1345     7.51000E-03     132.952E-03    -21.9540E+06    -20.3438E+06     25.8517E+06    -29.8867E+06    -80.3187E-03     158.725E-03    -78.4062E-03     17.6736E-03    -80.5033E-03     158.629E-03    -78.2156E-03     16.6205E-03
            1346     8.32468E-03     133.198E-03    -23.8920E+06    -22.1420E+06     28.9282E+06    -34.4295E+06    -84.4873E-03     165.585E-03    -81.0978E-03     31.8949E-03    -84.7026E-03     165.494E-03    -80.8864E-03     30.7132E-03
            1347     9.13072E-03     133.494E-03    -24.2691E+06    -31.6116E+06     28.3962E+06    -39.8874E+06    -91.1809E-03     175.519E-03    -84.3384E-03     49.9483E-03    -91.4085E-03     175.407E-03    -84.1154E-03     48.6150E-03
            1348     9.92482E-03     133.845E-03    -26.4624E+06    -31.8831E+06     32.8534E+06    -42.8055E+06    -101.269E-03     189.578E-03    -88.3093E-03     71.2506E-03    -101.552E-03     189.502E-03    -88.0604E-03     69.7592E-03
            1349     10.7035E-03     134.257E-03    -25.2984E+06    -30.7898E+06     50.1530E+06    -39.8158E+06    -114.747E-03     207.927E-03    -93.1799E-03     94.5539E-03    -115.122E-03     207.904E-03    -92.8478E-03     92.8723E-03
            1350     11.4633E-03     134.733E-03    -15.1447E+06    -24.3593E+06     82.7990E+06    -31.0630E+06    -130.420E-03     229.396E-03    -98.9757E-03     119.289E-03    -130.950E-03     229.497E-03    -98.5044E-03     117.251E-03
            1351     12.2030E-03     135.276E-03    -2.72729E+06     293.987E+03     104.398E+06    -26.1741E+06    -143.080E-03     248.418E-03    -105.338E-03     144.883E-03    -143.897E-03     248.875E-03    -104.812E-03     142.076E-03
            1352     12.9303E-03     135.874E-03     361.133E+03     8.38858E+06     98.1528E+06    -19.4522E+06    -148.444E-03     260.218E-03    -111.774E-03     169.413E-03    -149.727E-03     261.200E-03    -111.296E-03     165.438E-03
            1353     13.6442E-03     136.517E-03    -3.16184E+06     9.13972E+06     108.335E+06    -9.21387E+06    -146.339E-03     264.344E-03    -118.005E-03     193.816E-03    -148.424E-03     266.077E-03    -117.472E-03     188.388E-03
            1354     14.3744E-03     137.210E-03     20.3207E+06     10.5097E+06     127.375E+06     -805.73E+03    -121.747E-03     244.681E-03    -122.934E-03     229.090E-03    -124.886E-03     247.516E-03    -122.342E-03     222.919E-03
            1355     15.1113E-03     137.880E-03     20.8555E+06     5.40690E+06     95.3921E+06     6.49186E+06    -38.2428E-03     162.145E-03    -123.902E-03     250.559E-03    -41.4608E-03     165.098E-03    -123.464E-03     247.470E-03
            1356     826.859E-06     133.220E-03     21.1222E+06    -8.63678E+06     23.0866E+06    -4.27892E+06    -91.2278E-03     182.547E-03    -91.3191E-03    -12.0571E-03    -91.1817E-03     182.397E-03    -91.2218E-03    -12.2073E-03
            1357     1.64676E-03     133.252E-03     21.5858E+06    -6.43144E+06     27.4400E+06    -6.61875E+06    -91.9713E-03     183.998E-03    -92.0268E-03    -22.0233E-03    -91.9231E-03     183.854E-03    -91.9116E-03    -22.2759E-03
            1358     2.46680E-03     133.299E-03     22.1909E+06    -3.67455E+06     33.6244E+06    -8.42489E+06    -92.9157E-03     185.943E-03    -93.0275E-03    -31.4753E-03    -92.8722E-03     185.798E-03    -92.8862E-03    -31.8331E-03
            1359     3.28470E-03     133.365E-03     21.7470E+06    -2.15359E+06     41.3749E+06    -9.09857E+06    -94.6241E-03     189.034E-03    -94.4100E-03    -41.1042E-03    -94.5920E-03     188.877E-03    -94.2316E-03    -41.5566E-03
            1360     4.09867E-03     133.451E-03     20.8395E+06    -296.277E+03     49.1407E+06    -8.97856E+06    -96.4142E-03     192.638E-03    -96.2241E-03    -51.6213E-03    -96.3946E-03     192.467E-03    -96.0081E-03    -52.1694E-03
            1361     4.90830E-03     133.559E-03     19.5189E+06     365.861E+03     55.1369E+06    -8.09123E+06    -97.7833E-03     196.204E-03    -98.4203E-03    -62.5800E-03    -97.7719E-03     196.009E-03    -98.1734E-03    -63.2276E-03
            1362     5.71289E-03     133.694E-03     17.6523E+06    -880.173E+03     60.1215E+06    -8.20918E+06    -98.4615E-03     199.441E-03    -100.980E-03    -73.7949E-03    -98.4553E-03     199.213E-03    -100.704E-03    -74.5621E-03
            1363     6.51200E-03     133.858E-03     15.4599E+06    -5.93349E+06     63.5504E+06    -8.43721E+06    -98.1661E-03     202.082E-03    -103.916E-03    -85.0612E-03    -98.1568E-03     201.795E-03    -103.612E-03    -85.9530E-03
            1364     7.30407E-03     134.058E-03     14.8350E+06    -7.93810E+06     67.7060E+06    -10.7467E+06    -96.5469E-03     203.807E-03    -107.260E-03    -95.6145E-03    -96.5298E-03     203.471E-03    -106.932E-03    -96.6545E-03
            1365     8.08755E-03     134.297E-03     14.1795E+06    -8.38024E+06     72.4009E+06    -11.4633E+06    -93.3378E-03     204.400E-03    -111.062E-03    -104.359E-03    -93.3171E-03     204.020E-03    -110.709E-03    -105.512E-03
            1366     8.86120E-03     134.583E-03     11.9995E+06    -10.4927E+06     77.4813E+06    -14.5353E+06    -88.5019E-03     203.881E-03    -115.379E-03    -109.339E-03    -88.4860E-03     203.455E-03    -114.994E-03    -110.618E-03
            1367     9.62312E-03     134.922E-03     6.66122E+06    -20.0722E+06     79.7721E+06    -12.3734E+06    -82.4633E-03     202.720E-03    -120.257E-03    -108.134E-03    -82.4575E-03     202.230E-03    -119.838E-03    -109.449E-03
            1368     10.3707E-03     135.321E-03     9.33547E+06    -13.3577E+06     87.4736E+06    -18.5194E+06    -76.2262E-03     201.952E-03    -125.726E-03    -98.9691E-03    -76.2382E-03     201.488E-03    -125.283E-03    -100.383E-03
            1369     11.1026E-03     135.782E-03     4.40641E+06    -25.2275E+06     89.5494E+06    -13.9961E+06    -69.9104E-03     201.670E-03    -131.759E-03    -80.8495E-03    -69.9660E-03     201.192E-03    -131.281E-03    -82.1583E-03
            1370     11.8193E-03     136.307E-03     6.93638E+06    -3.99828E+06     94.9837E+06    -17.3883E+06    -61.6268E-03     199.637E-03    -138.011E-03    -53.7384E-03    -61.7673E-03     199.340E-03    -137.540E-03    -55.0019E-03
            1371     12.5274E-03     136.882E-03     1.62909E+06     5.71986E+06     98.6557E+06    -5.94766E+06    -52.6065E-03     196.740E-03    -144.134E-03    -20.8349E-03    -52.8775E-03     196.602E-03    -143.651E-03    -21.9110E-03
            1372     13.2366E-03     137.509E-03     8.65287E+06     4.70219E+06     119.778E+06     8.99828E+06    -41.7023E-03     191.408E-03    -149.706E-03     19.6339E-03    -42.0873E-03     191.400E-03    -149.126E-03     18.5962E-03
            1373     13.9318E-03     138.155E-03     9.52309E+06     15.8546E+06     99.8536E+06    -14.1962E+06    -9.85906E-03     162.822E-03    -152.963E-03     71.5384E-03    -10.2944E-03     163.021E-03    -152.501E-03     70.4148E-03
            1374     14.7323E-03     138.785E-03    -4.89584E+06    -1.79614E+06     52.0571E+06     1.56437E+06     47.6073E-03     104.697E-03    -152.304E-03     77.1638E-03     47.3477E-03     104.751E-03    -152.034E-03     76.8949E-03
            1375     15.2940E-03     69.0713E-03    -5.43629E+06     121.115E+06     95.1618E+06     82.9761E+03    -112.234E-03     223.994E-03    -111.760E-03     201.490E-03    -124.103E-03     235.998E-03    -111.452E-03     196.057E-03
            1376     14.4905E-03     68.7694E-03    -10.5872E+06     117.388E+06     96.5013E+06    -224.199E+03    -117.360E-03     229.183E-03    -111.824E-03     284.513E-03    -135.159E-03     247.082E-03    -111.496E-03     274.513E-03
            1377     13.6860E-03     68.4323E-03    -16.5582E+06     107.694E+06     90.2141E+06     163.562E+03    -121.047E-03     232.887E-03    -111.840E-03     297.280E-03    -137.472E-03     249.374E-03    -111.521E-03     284.449E-03
            1378     12.8804E-03     68.1067E-03    -22.0902E+06     93.9425E+06     71.0529E+06     969.106E+03    -120.288E-03     232.079E-03    -111.791E-03     269.655E-03    -132.555E-03     244.395E-03    -111.540E-03     257.210E-03
            1379     12.0743E-03     67.8331E-03    -26.8294E+06     76.5477E+06     38.8263E+06     384.940E+03    -117.874E-03     229.570E-03    -111.696E-03     226.374E-03    -125.987E-03     237.747E-03    -111.574E-03     215.822E-03
            1380     11.2693E-03     67.6068E-03    -30.8979E+06     49.7464E+06     13.1110E+06    -178.098E+03    -116.622E-03     228.268E-03    -111.646E-03     192.651E-03    -122.078E-03     233.752E-03    -111.607E-03     183.825E-03
            1381     10.4641E-03     67.4084E-03    -34.0405E+06     600.099E+03     3.13495E+06    -177.339E+03    -116.128E-03     227.821E-03    -111.692E-03     171.400E-03    -119.997E-03     231.562E-03    -111.628E-03     163.922E-03
            1382     9.65916E-03     67.2283E-03    -36.8160E+06    -54.6742E+06    -881.640E+03     756.182E+03    -115.790E-03     227.563E-03    -111.773E-03     156.338E-03    -118.613E-03     230.064E-03    -111.645E-03     149.973E-03
            1383     8.85388E-03     67.0629E-03    -40.5762E+06    -89.0444E+06    -5.71002E+06     1.23592E+06    -115.421E-03     227.242E-03    -111.822E-03     143.304E-03    -117.511E-03     228.889E-03    -111.662E-03     137.890E-03
            1384     8.04897E-03     66.9107E-03    -44.3195E+06    -118.111E+06    -9.58460E+06     239.881E+03    -115.062E-03     226.927E-03    -111.865E-03     130.499E-03    -116.603E-03     227.920E-03    -111.678E-03     125.889E-03
            1385     7.24404E-03     66.7727E-03    -47.8614E+06    -132.558E+06    -13.8871E+06    -172.655E+03    -114.603E-03     226.484E-03    -111.882E-03     118.063E-03    -115.737E-03     227.019E-03    -111.690E-03     114.174E-03
            1386     6.43904E-03     66.6478E-03    -51.5915E+06    -148.126E+06    -19.3179E+06    -90.4442E+03    -114.099E-03     225.995E-03    -111.896E-03     105.689E-03    -114.918E-03     226.161E-03    -111.703E-03     102.442E-03
            1387     5.63405E-03     66.5370E-03    -55.8085E+06    -172.775E+06    -24.7273E+06    -268.180E+03    -113.651E-03     225.578E-03    -111.926E-03     93.1247E-03    -114.216E-03     225.402E-03    -111.719E-03     90.4348E-03
            1388     4.82915E-03     66.4398E-03    -60.3828E+06    -181.061E+06    -33.7541E+06    -194.163E+03    -113.204E-03     225.120E-03    -111.916E-03     80.5352E-03    -113.587E-03     224.745E-03    -111.735E-03     78.3496E-03
            1389     4.02416E-03     66.3569E-03    -64.6250E+06    -190.673E+06    -43.6531E+06     55.1371E+03    -112.820E-03     224.724E-03    -111.904E-03     67.6482E-03    -113.062E-03     224.186E-03    -111.752E-03     65.9134E-03
            1390     3.21931E-03     66.2884E-03    -68.6307E+06    -205.022E+06    -53.0379E+06     171.881E+03    -112.526E-03     224.419E-03    -111.893E-03     54.5032E-03    -112.654E-03     223.730E-03    -111.762E-03     53.1682E-03
            1391     2.41446E-03     66.2347E-03    -72.3225E+06    -215.774E+06    -61.6869E+06     138.719E+03    -112.275E-03     224.142E-03    -111.866E-03     41.1951E-03    -112.322E-03     223.345E-03    -111.757E-03     40.2227E-03
            1392     1.60973E-03     66.1957E-03    -75.5004E+06    -220.750E+06    -69.2992E+06     109.712E+03    -112.039E-03     223.860E-03    -111.821E-03     27.8407E-03    -112.035E-03     223.006E-03    -111.738E-03     27.2037E-03
            1393     804.941E-06     66.1720E-03    -77.6116E+06    -224.443E+06    -75.3831E+06     121.200E+03    -111.871E-03     223.628E-03    -111.757E-03     15.0668E-03    -111.836E-03     222.741E-03    -111.696E-03     14.7258E-03
            1394     15.2988E-03     67.8863E-03    -5.44650E+06     120.856E+06     94.6082E+06    -265.083E+03    -112.073E-03     223.813E-03    -111.740E-03     199.955E-03    -123.878E-03     235.753E-03    -111.435E-03     194.559E-03
            1395     14.4907E-03     67.5873E-03    -10.8529E+06     116.926E+06     95.7873E+06    -78.4461E+03    -117.014E-03     228.831E-03    -111.817E-03     284.468E-03    -134.697E-03     246.612E-03    -111.491E-03     274.547E-03
            1396     13.6840E-03     67.2438E-03    -16.8018E+06     107.353E+06     89.8538E+06    -113.566E+03    -120.916E-03     232.771E-03    -111.855E-03     297.426E-03    -137.266E-03     249.182E-03    -111.537E-03     284.614E-03
            1397     12.8801E-03     66.9221E-03    -22.5764E+06     93.6749E+06     70.8494E+06    -576.855E+03    -120.350E-03     232.157E-03    -111.807E-03     268.684E-03    -132.629E-03     244.483E-03    -111.556E-03     256.192E-03
            1398     12.0749E-03     66.6483E-03    -26.9344E+06     76.5963E+06     39.0748E+06     303.249E+03    -118.074E-03     229.773E-03    -111.699E-03     226.327E-03    -126.191E-03     237.953E-03    -111.575E-03     215.762E-03
            1399     11.2694E-03     66.4216E-03    -30.6842E+06     50.6490E+06     13.8998E+06     560.715E+03    -116.690E-03     228.329E-03    -111.640E-03     192.584E-03    -122.147E-03     233.817E-03    -111.599E-03     183.762E-03
            1400     10.4644E-03     66.2232E-03    -34.3024E+06      88.351E+03     3.43916E+06     38.4957E+03    -116.109E-03     227.792E-03    -111.683E-03     171.204E-03    -119.979E-03     231.531E-03    -111.616E-03     163.727E-03
            1401     9.65911E-03     66.0435E-03    -37.7007E+06    -56.4835E+06    -930.624E+03     773.354E+03    -115.793E-03     227.556E-03    -111.762E-03     156.111E-03    -118.619E-03     230.050E-03    -111.631E-03     149.743E-03
            1402     8.85424E-03     65.8777E-03    -40.2658E+06    -87.6870E+06    -4.20147E+06     1.24118E+06    -115.462E-03     227.269E-03    -111.807E-03     143.117E-03    -117.555E-03     228.920E-03    -111.643E-03     137.699E-03
            1403     8.04917E-03     65.7258E-03    -43.3194E+06    -116.582E+06    -8.45949E+06     627.782E+03    -115.044E-03     226.888E-03    -111.844E-03     130.481E-03    -116.583E-03     227.884E-03    -111.655E-03     125.879E-03
            1404     7.24419E-03     65.5877E-03    -47.2285E+06    -132.963E+06    -13.7809E+06     1.21119E+03    -114.563E-03     226.423E-03    -111.859E-03     118.058E-03    -115.694E-03     226.954E-03    -111.667E-03     114.173E-03
            1405     6.43915E-03     65.4630E-03    -51.2982E+06    -148.018E+06    -19.4544E+06     32.4615E+03    -114.076E-03     225.950E-03    -111.874E-03     105.691E-03    -114.893E-03     226.116E-03    -111.682E-03     102.448E-03
            1406     5.63420E-03     65.3520E-03    -55.7661E+06    -172.546E+06    -24.9543E+06     115.595E+03    -113.652E-03     225.555E-03    -111.902E-03     93.1302E-03    -114.216E-03     225.381E-03    -111.696E-03     90.4469E-03
            1407     4.82920E-03     65.2550E-03    -60.5289E+06    -181.114E+06    -33.3255E+06    -76.1813E+03    -113.225E-03     225.116E-03    -111.890E-03     80.4726E-03    -113.611E-03     224.740E-03    -111.706E-03     78.2868E-03
            1408     4.02431E-03     65.1719E-03    -64.9986E+06    -190.767E+06    -43.4313E+06    -159.202E+03    -112.825E-03     224.692E-03    -111.867E-03     67.5487E-03    -113.069E-03     224.154E-03    -111.714E-03     65.8106E-03
            1409     3.21944E-03     65.1035E-03    -68.8488E+06    -205.166E+06    -53.1569E+06    -77.5516E+03    -112.500E-03     224.347E-03    -111.847E-03     54.4602E-03    -112.628E-03     223.657E-03    -111.716E-03     53.1231E-03
            1410     2.41470E-03     65.0496E-03    -72.3479E+06    -215.709E+06    -61.6424E+06    -22.1285E+03    -112.215E-03     224.036E-03    -111.820E-03     41.2168E-03    -112.262E-03     223.239E-03    -111.711E-03     40.2436E-03
            1411     1.60980E-03     65.0110E-03    -75.3275E+06    -220.646E+06    -69.6919E+06    -261.141E+03    -111.971E-03     223.755E-03    -111.784E-03     27.9093E-03    -111.966E-03     222.901E-03    -111.703E-03     27.2669E-03
            1412     804.883E-06     64.9872E-03    -77.3840E+06    -224.529E+06    -76.1325E+06    -361.489E+03    -111.866E-03     223.574E-03    -111.708E-03     15.0781E-03    -111.829E-03     222.688E-03    -111.651E-03     14.7310E-03
            1413     15.2963E-03     66.7021E-03    -4.77204E+06     121.699E+06     95.3052E+06    -237.318E+03    -112.327E-03     224.073E-03    -111.746E-03     201.562E-03    -124.191E-03     236.076E-03    -111.439E-03     196.115E-03
            1414     14.4913E-03     66.4039E-03    -11.0631E+06     116.922E+06     95.9402E+06     286.277E+03    -117.604E-03     229.408E-03    -111.804E-03     284.993E-03    -135.310E-03     247.211E-03    -111.478E-03     275.021E-03
            1415     13.6861E-03     66.0597E-03    -16.8710E+06     107.212E+06     89.4023E+06    -24.6196E+03    -120.702E-03     232.535E-03    -111.833E-03     297.720E-03    -137.020E-03     248.915E-03    -111.517E-03     284.948E-03
            1416     12.8797E-03     65.7358E-03    -22.9145E+06     93.3032E+06     69.8254E+06    -692.264E+03    -120.176E-03     231.970E-03    -111.794E-03     268.208E-03    -132.441E-03     244.282E-03    -111.547E-03     255.718E-03
            1417     12.0746E-03     65.4636E-03    -28.7309E+06     75.1707E+06     38.1661E+06    -507.494E+03    -118.230E-03     229.914E-03    -111.684E-03     225.770E-03    -126.369E-03     238.108E-03    -111.561E-03     215.158E-03
            1418     11.2696E-03     65.2360E-03    -32.6598E+06     50.9292E+06     14.1110E+06     105.613E+03    -116.651E-03     228.270E-03    -111.619E-03     192.398E-03    -122.114E-03     233.757E-03    -111.575E-03     183.576E-03
            1419     10.4645E-03     65.0385E-03    -35.9784E+06     195.007E+03     3.87318E+06     669.936E+03    -116.042E-03     227.705E-03    -111.663E-03     170.921E-03    -119.917E-03     231.443E-03    -111.592E-03     163.456E-03
            1420     9.65954E-03     64.8583E-03    -38.9449E+06    -56.3254E+06    -2.30382E+06    -85.6968E+03    -115.769E-03     227.501E-03    -111.733E-03     156.044E-03    -118.597E-03     229.999E-03    -111.606E-03     149.666E-03
            1421     8.85447E-03     64.6929E-03    -41.2787E+06    -88.4191E+06    -6.32522E+06    -503.118E+03    -115.429E-03     227.204E-03    -111.775E-03     143.165E-03    -117.522E-03     228.855E-03    -111.619E-03     137.727E-03
            1422     8.04936E-03     64.5409E-03    -43.8190E+06    -116.888E+06    -8.80394E+06     409.823E+03    -115.005E-03     226.826E-03    -111.820E-03     130.501E-03    -116.546E-03     227.821E-03    -111.631E-03     125.898E-03
            1423     7.24431E-03     64.4028E-03    -47.3322E+06    -131.820E+06    -13.4578E+06     333.727E+03    -114.532E-03     226.369E-03    -111.837E-03     118.018E-03    -115.665E-03     226.905E-03    -111.645E-03     114.139E-03
            1424     6.43929E-03     64.2781E-03    -51.2728E+06    -148.872E+06    -19.6748E+06     96.2875E+03    -114.080E-03     225.930E-03    -111.850E-03     105.612E-03    -114.895E-03     226.092E-03    -111.658E-03     102.369E-03
            1425     5.63427E-03     64.1672E-03    -55.4379E+06    -172.398E+06    -25.0704E+06     581.747E+03    -113.665E-03     225.537E-03    -111.872E-03     93.0704E-03    -114.227E-03     225.363E-03    -111.667E-03     90.3926E-03
            1426     4.82946E-03     64.0700E-03    -60.2210E+06    -180.388E+06    -31.5397E+06     271.878E+03    -113.228E-03     225.090E-03    -111.862E-03     80.4338E-03    -113.615E-03     224.715E-03    -111.671E-03     78.2528E-03
            1427     4.02461E-03     63.9871E-03    -65.3241E+06    -190.764E+06    -42.0010E+06     38.9286E+03    -112.793E-03     224.628E-03    -111.835E-03     67.5760E-03    -113.040E-03     224.088E-03    -111.674E-03     65.8410E-03
            1428     3.21968E-03     63.9187E-03    -69.9525E+06    -204.902E+06    -54.5120E+06    -225.365E+03    -112.416E-03     224.222E-03    -111.807E-03     54.5668E-03    -112.548E-03     223.537E-03    -111.681E-03     53.2315E-03
            1429     2.41462E-03     63.8649E-03    -73.2886E+06    -215.829E+06    -63.8122E+06    -742.250E+03    -112.124E-03     223.919E-03    -111.795E-03     41.2896E-03    -112.172E-03     223.126E-03    -111.695E-03     40.3104E-03
            1430     1.60971E-03     63.8263E-03    -75.6006E+06    -221.208E+06    -70.6058E+06    -389.125E+03    -111.930E-03     223.720E-03    -111.790E-03     27.9398E-03    -111.924E-03     222.865E-03    -111.712E-03     27.2965E-03
            1431     804.831E-06     63.8025E-03    -77.3890E+06    -224.720E+06    -76.1538E+06     218.933E+03    -111.922E-03     223.618E-03    -111.697E-03     15.0410E-03    -111.884E-03     222.731E-03    -111.640E-03     14.7010E-03
            1432     15.2951E-03     65.5153E-03    -4.94299E+06     121.624E+06     95.3289E+06     222.799E+03    -112.552E-03     224.318E-03    -111.766E-03     201.193E-03    -124.424E-03     236.328E-03    -111.459E-03     195.702E-03
            1433     14.4913E-03     65.2169E-03    -10.6020E+06     117.608E+06     96.5940E+06    -303.374E+03    -117.933E-03     229.736E-03    -111.803E-03     284.153E-03    -135.731E-03     247.633E-03    -111.475E-03     274.083E-03
            1434     13.6856E-03     64.8765E-03    -16.5506E+06     107.689E+06     89.8320E+06    -152.738E+03    -120.924E-03     232.730E-03    -111.806E-03     297.724E-03    -137.293E-03     249.161E-03    -111.489E-03     284.914E-03
            1435     12.8803E-03     64.5501E-03    -23.1726E+06     92.9959E+06     69.7296E+06     490.195E+03    -120.176E-03     231.936E-03    -111.760E-03     268.570E-03    -132.420E-03     244.225E-03    -111.512E-03     256.104E-03
            1436     12.0757E-03     64.2783E-03    -28.7490E+06     75.2735E+06     38.6366E+06    -99.8653E+03    -118.129E-03     229.782E-03    -111.653E-03     225.240E-03    -126.269E-03     237.975E-03    -111.527E-03     214.623E-03
            1437     11.2703E-03     64.0516E-03    -32.7043E+06     49.6780E+06     13.4124E+06    -190.611E+03    -116.565E-03     228.151E-03    -111.585E-03     192.350E-03    -122.022E-03     233.629E-03    -111.543E-03     183.534E-03
            1438     10.4650E-03     63.8531E-03    -35.2117E+06     180.323E+03     3.64841E+06     329.007E+03    -115.919E-03     227.555E-03    -111.636E-03     171.117E-03    -119.785E-03     231.286E-03    -111.567E-03     163.666E-03
            1439     9.65972E-03     63.6737E-03    -37.9198E+06    -54.6254E+06    -1.42063E+06    -29.3542E+03    -115.722E-03     227.437E-03    -111.715E-03     156.261E-03    -118.550E-03     229.940E-03    -111.588E-03     149.890E-03
            1440     8.85450E-03     63.5078E-03    -42.0266E+06    -89.1624E+06    -7.25445E+06    -249.665E+03    -115.445E-03     227.200E-03    -111.755E-03     143.219E-03    -117.541E-03     228.851E-03    -111.601E-03     137.784E-03
            1441     8.04956E-03     63.3561E-03    -46.2480E+06    -117.393E+06    -10.5985E+06    -265.817E+03    -115.023E-03     226.817E-03    -111.794E-03     130.454E-03    -116.572E-03     227.816E-03    -111.610E-03     125.841E-03
            1442     7.24452E-03     63.2179E-03    -49.7873E+06    -131.208E+06    -14.4608E+06    -282.452E+03    -114.520E-03     226.329E-03    -111.809E-03     117.984E-03    -115.664E-03     226.872E-03    -111.619E-03     114.099E-03
            1443     6.43950E-03     63.0932E-03    -53.9936E+06    -149.804E+06    -20.0396E+06     145.840E+03    -114.057E-03     225.882E-03    -111.825E-03     105.602E-03    -114.884E-03     226.043E-03    -111.629E-03     102.360E-03
            1444     5.63463E-03     62.9824E-03    -58.4557E+06    -171.730E+06    -26.9307E+06    -130.919E+03    -113.615E-03     225.453E-03    -111.837E-03     93.1572E-03    -114.191E-03     225.289E-03    -111.638E-03     90.4728E-03
            1445     4.82958E-03     62.8852E-03    -61.9726E+06    -180.148E+06    -34.7057E+06    -668.267E+03    -113.143E-03     224.969E-03    -111.826E-03     80.5839E-03    -113.534E-03     224.601E-03    -111.648E-03     78.3957E-03
            1446     4.02455E-03     62.8024E-03    -65.4695E+06    -191.523E+06    -42.7047E+06    -238.093E+03    -112.745E-03     224.565E-03    -111.820E-03     67.7040E-03    -112.991E-03     224.022E-03    -111.661E-03     65.9681E-03
            1447     3.21956E-03     62.7340E-03    -69.3473E+06    -203.933E+06    -53.4046E+06    -87.2979E+03    -112.408E-03     224.209E-03    -111.801E-03     54.5890E-03    -112.540E-03     223.526E-03    -111.672E-03     53.2560E-03
            1448     2.41469E-03     62.6803E-03    -73.0769E+06    -215.995E+06    -64.3104E+06    -501.802E+03    -112.127E-03     223.909E-03    -111.781E-03     41.2380E-03    -112.173E-03     223.115E-03    -111.684E-03     40.2623E-03
            1449     1.60973E-03     62.6416E-03    -76.1346E+06    -222.194E+06    -71.9491E+06    -535.459E+03    -111.931E-03     223.698E-03    -111.767E-03     27.8582E-03    -111.925E-03     222.841E-03    -111.694E-03     27.2134E-03
            1450     804.877E-06     62.6176E-03    -77.9511E+06    -225.122E+06    -76.1865E+06    -264.245E+03    -111.791E-03     223.571E-03    -111.780E-03     15.0626E-03    -111.755E-03     222.682E-03    -111.721E-03     14.7172E-03
            1451     15.2985E-03     64.3345E-03    -5.07958E+06     121.656E+06     95.5164E+06     407.076E+03    -112.862E-03     224.611E-03    -111.749E-03     201.066E-03    -124.766E-03     236.652E-03    -111.441E-03     195.567E-03
            1452     14.4907E-03     64.0296E-03    -10.0990E+06     118.121E+06     96.9495E+06    -271.910E+03    -117.595E-03     229.380E-03    -111.785E-03     284.529E-03    -135.467E-03     247.355E-03    -111.457E-03     274.449E-03
            1453     13.6867E-03     63.6922E-03    -16.8957E+06     107.419E+06     89.6711E+06    -226.031E+03    -121.096E-03     232.882E-03    -111.787E-03     297.123E-03    -137.479E-03     249.326E-03    -111.469E-03     284.276E-03
            1454     12.8813E-03     63.3651E-03    -22.9769E+06     93.2329E+06     70.3302E+06     476.761E+03    -120.274E-03     232.007E-03    -111.733E-03     269.209E-03    -132.515E-03     244.293E-03    -111.483E-03     256.752E-03
            1455     12.0754E-03     63.0931E-03    -27.5824E+06     76.3216E+06     39.4397E+06     187.143E+03    -117.980E-03     229.611E-03    -111.631E-03     225.720E-03    -126.101E-03     237.791E-03    -111.505E-03     215.140E-03
            1456     11.2704E-03     62.8665E-03    -30.6821E+06     49.3870E+06     13.8806E+06    -231.756E+03    -116.568E-03     228.138E-03    -111.570E-03     192.549E-03    -122.018E-03     233.614E-03    -111.528E-03     183.734E-03
            1457     10.4649E-03     62.6689E-03    -33.1308E+06    -214.411E+03     2.88915E+06    -399.244E+03    -115.944E-03     227.558E-03    -111.614E-03     171.278E-03    -119.798E-03     231.286E-03    -111.552E-03     163.820E-03
            1458     9.65955E-03     62.4884E-03    -35.9779E+06    -55.8336E+06     247.024E+03     1.12984E+06    -115.739E-03     227.444E-03    -111.705E-03     156.145E-03    -118.556E-03     229.934E-03    -111.571E-03     149.789E-03
            1459     8.85479E-03     62.3230E-03    -39.9185E+06    -88.0314E+06    -3.90186E+06     2.09698E+06    -115.438E-03     227.185E-03    -111.748E-03     143.069E-03    -117.529E-03     228.834E-03    -111.582E-03     137.663E-03
            1460     8.04968E-03     62.1711E-03    -44.3001E+06    -115.526E+06    -8.68446E+06     731.815E+03    -115.022E-03     226.799E-03    -111.777E-03     130.420E-03    -116.566E-03     227.801E-03    -111.589E-03     125.820E-03
            1461     7.24476E-03     62.0332E-03    -48.9479E+06    -132.160E+06    -13.4117E+06     314.708E+03    -114.506E-03     226.299E-03    -111.793E-03     118.017E-03    -115.646E-03     226.835E-03    -111.597E-03     114.140E-03
            1462     6.43967E-03     61.9085E-03    -53.1764E+06    -148.914E+06    -19.1991E+06     133.917E+03    -114.007E-03     225.814E-03    -111.807E-03     105.749E-03    -114.832E-03     225.977E-03    -111.610E-03     102.512E-03
            1463     5.63456E-03     61.7976E-03    -56.5887E+06    -170.702E+06    -25.7547E+06    -986.519E+03    -113.554E-03     225.381E-03    -111.827E-03     93.2727E-03    -114.123E-03     225.218E-03    -111.626E-03     90.5810E-03
            1464     4.82954E-03     61.7006E-03    -60.7274E+06    -180.604E+06    -35.5057E+06    -1.10442E+06    -113.101E-03     224.918E-03    -111.817E-03     80.6400E-03    -113.484E-03     224.547E-03    -111.645E-03     78.4496E-03
            1465     4.02452E-03     61.6176E-03    -65.0748E+06    -192.459E+06    -44.0695E+06    -971.256E+03    -112.737E-03     224.553E-03    -111.816E-03     67.7369E-03    -112.978E-03     224.007E-03    -111.663E-03     65.9934E-03
            1466     3.21966E-03     61.5492E-03    -68.7943E+06    -204.562E+06    -52.4837E+06    -475.458E+03    -112.441E-03     224.247E-03    -111.806E-03     54.5643E-03    -112.571E-03     223.558E-03    -111.672E-03     53.2237E-03
            1467     2.41472E-03     61.4957E-03    -72.5007E+06    -216.014E+06    -62.2601E+06     376.439E+03    -112.173E-03     223.949E-03    -111.776E-03     41.2351E-03    -112.219E-03     223.152E-03    -111.669E-03     40.2691E-03
            1468     1.60991E-03     61.4568E-03    -75.8610E+06    -221.930E+06    -71.4330E+06     180.672E+03    -111.931E-03     223.667E-03    -111.736E-03     27.8777E-03    -111.924E-03     222.810E-03    -111.662E-03     27.2420E-03
            1469     804.935E-06     61.4332E-03    -77.9607E+06    -225.694E+06    -77.3414E+06    -302.909E+03    -111.676E-03     223.488E-03    -111.812E-03     15.0401E-03    -111.638E-03     222.598E-03    -111.758E-03     14.6965E-03
            1470     15.2956E-03     63.1479E-03    -5.49079E+06     121.178E+06     94.8256E+06    -325.826E+03    -112.735E-03     224.470E-03    -111.734E-03     200.970E-03    -124.645E-03     236.515E-03    -111.428E-03     195.465E-03
            1471     14.4922E-03     62.8461E-03    -10.7540E+06     117.387E+06     96.2212E+06     208.522E+03    -117.705E-03     229.480E-03    -111.774E-03     285.147E-03    -135.528E-03     247.401E-03    -111.448E-03     275.093E-03
            1472     13.6859E-03     62.5052E-03    -16.6097E+06     107.689E+06     90.1249E+06     467.828E+03    -121.044E-03     232.830E-03    -111.786E-03     297.857E-03    -137.430E-03     249.278E-03    -111.467E-03     285.039E-03
            1473     12.8809E-03     62.1810E-03    -22.3024E+06     93.9383E+06     70.9541E+06    -105.690E+03    -120.442E-03     232.172E-03    -111.730E-03     269.079E-03    -132.700E-03     244.479E-03    -111.479E-03     256.594E-03
            1474     12.0756E-03     61.9078E-03    -27.1726E+06     76.4360E+06     38.6235E+06    -401.388E+03    -117.978E-03     229.594E-03    -111.616E-03     225.574E-03    -126.079E-03     237.758E-03    -111.495E-03     215.003E-03
            1475     11.2701E-03     61.6818E-03    -31.0767E+06     49.8627E+06     13.7873E+06    -606.205E+03    -116.550E-03     228.107E-03    -111.558E-03     192.144E-03    -121.998E-03     233.582E-03    -111.516E-03     183.323E-03
            1476     10.4652E-03     61.4838E-03    -34.5535E+06    -754.543E+03     2.82443E+06    -407.576E+03    -116.002E-03     227.602E-03    -111.600E-03     171.111E-03    -119.864E-03     231.331E-03    -111.535E-03     163.646E-03
            1477     9.66035E-03     61.3037E-03    -37.9116E+06    -58.9268E+06    -1.32223E+06     795.063E+03    -115.710E-03     227.394E-03    -111.684E-03     156.254E-03    -118.530E-03     229.874E-03    -111.550E-03     149.897E-03
            1478     8.85488E-03     61.1382E-03    -39.9262E+06    -87.4726E+06    -2.75039E+06     1.46895E+06    -115.378E-03     227.113E-03    -111.736E-03     143.246E-03    -117.471E-03     228.762E-03    -111.565E-03     137.838E-03
            1479     8.04988E-03     60.9862E-03    -42.2863E+06    -113.935E+06    -6.31764E+06     1.57572E+06    -114.953E-03     226.725E-03    -111.773E-03     130.503E-03    -116.493E-03     227.729E-03    -111.578E-03     125.919E-03
            1480     7.24475E-03     60.8485E-03    -45.7803E+06    -131.636E+06     -11.425E+06     1.18640E+06    -114.464E-03     226.258E-03    -111.793E-03     118.156E-03    -115.592E-03     226.789E-03    -111.593E-03     114.295E-03
            1481     6.43963E-03     60.7238E-03    -49.2203E+06    -146.752E+06    -17.1914E+06    -197.176E+03    -114.006E-03     225.816E-03    -111.809E-03     105.892E-03    -114.817E-03     225.981E-03    -111.611E-03     102.652E-03
            1482     5.63463E-03     60.6129E-03    -53.6662E+06    -171.232E+06    -23.3040E+06    -521.706E+03    -113.577E-03     225.415E-03    -111.838E-03     93.3012E-03    -114.134E-03     225.241E-03    -111.628E-03     90.6149E-03
            1483     4.82954E-03     60.5159E-03    -58.8921E+06    -180.805E+06    -32.8104E+06     177.688E+03    -113.134E-03     224.961E-03    -111.827E-03     80.5810E-03    -113.511E-03     224.582E-03    -111.643E-03     78.4063E-03
            1484     4.02458E-03     60.4329E-03    -64.2800E+06    -191.908E+06    -44.1197E+06    -37.1467E+03    -112.727E-03     224.538E-03    -111.811E-03     67.7171E-03    -112.964E-03     223.993E-03    -111.660E-03     65.9875E-03
            1485     3.21952E-03     60.3645E-03    -69.4137E+06    -205.966E+06    -54.3274E+06    -277.799E+03    -112.423E-03     224.224E-03    -111.800E-03     54.6009E-03    -112.551E-03     223.532E-03    -111.673E-03     53.2656E-03
            1486     2.41474E-03     60.3108E-03    -73.2099E+06    -216.451E+06    -62.3284E+06     116.257E+03    -112.163E-03     223.947E-03    -111.784E-03     41.2426E-03    -112.212E-03     223.148E-03    -111.675E-03     40.2730E-03
            1487     1.60977E-03     60.2723E-03    -76.0630E+06    -221.168E+06    -69.6278E+06     451.690E+03    -111.929E-03     223.684E-03    -111.755E-03     27.9131E-03    -111.927E-03     222.829E-03    -111.672E-03     27.2808E-03
            1488     804.916E-06     60.2485E-03    -78.2576E+06    -225.314E+06    -76.4193E+06     375.861E+03    -111.767E-03     223.514E-03    -111.747E-03     15.0377E-03    -111.732E-03     222.625E-03    -111.689E-03     14.7030E-03
            1489     15.2977E-03     61.9596E-03    -4.78365E+06     121.682E+06     95.1563E+06    -234.926E+03    -112.378E-03     224.096E-03    -111.718E-03     201.191E-03    -124.218E-03     236.075E-03    -111.412E-03     195.733E-03
            1490     14.4914E-03     61.6631E-03    -11.1047E+06     116.966E+06     95.8504E+06    -38.8253E+03    -117.715E-03     229.481E-03    -111.766E-03     284.464E-03    -135.432E-03     247.295E-03    -111.440E-03     274.456E-03
            1491     13.6857E-03     61.3193E-03    -17.0810E+06     107.256E+06     89.6989E+06    -57.5329E+03    -121.133E-03     232.907E-03    -111.774E-03     297.674E-03    -137.506E-03     249.340E-03    -111.456E-03     284.836E-03
            1492     12.8811E-03     60.9950E-03    -22.5152E+06     93.7746E+06     70.6390E+06    -701.848E+03    -120.323E-03     232.035E-03    -111.712E-03     267.897E-03    -132.570E-03     244.330E-03    -111.462E-03     255.401E-03
            1493     12.0761E-03     60.7233E-03    -27.7231E+06     76.0388E+06     38.5706E+06    -395.189E+03    -117.958E-03     229.553E-03    -111.596E-03     225.241E-03    -126.059E-03     237.714E-03    -111.473E-03     214.674E-03
            1494     11.2709E-03     60.4969E-03    -32.4349E+06     50.2228E+06     13.9823E+06     173.849E+03    -116.414E-03     227.955E-03    -111.541E-03     192.260E-03    -121.865E-03     233.428E-03    -111.497E-03     183.466E-03
            1495     10.4655E-03     60.2988E-03    -36.7690E+06    -1.71560E+06     2.87566E+06     513.512E+03    -115.846E-03     227.443E-03    -111.597E-03     171.456E-03    -119.720E-03     231.172E-03    -111.527E-03     164.014E-03
            1496     9.65980E-03     60.1192E-03    -39.8093E+06    -58.1470E+06    -3.34068E+06    -595.507E+03    -115.691E-03     227.368E-03    -111.677E-03     156.714E-03    -118.522E-03     229.860E-03    -111.551E-03     150.343E-03
            1497     8.85498E-03     59.9531E-03    -41.7086E+06    -88.7316E+06    -5.70550E+06    -1.37074E+06    -115.371E-03     227.101E-03    -111.730E-03     143.551E-03    -117.467E-03     228.750E-03    -111.569E-03     138.111E-03
            1498     8.04977E-03     59.8016E-03    -43.5951E+06    -115.811E+06    -7.60812E+06    -68.2367E+03    -114.910E-03     226.690E-03    -111.780E-03     130.709E-03    -116.452E-03     227.688E-03    -111.587E-03     126.108E-03
            1499     7.24459E-03     59.6637E-03    -46.0386E+06    -129.759E+06    -11.7847E+06     303.166E+03    -114.470E-03     226.272E-03    -111.802E-03     118.288E-03    -115.601E-03     226.813E-03    -111.606E-03     114.418E-03
            1500     6.43952E-03     59.5390E-03    -50.1839E+06    -146.230E+06    -17.5098E+06     172.813E+03    -114.038E-03     225.859E-03    -111.821E-03     105.902E-03    -114.854E-03     226.029E-03    -111.624E-03     102.667E-03
            1501     5.63447E-03     59.4282E-03    -55.4721E+06    -171.643E+06    -23.8640E+06     645.912E+03    -113.627E-03     225.473E-03    -111.846E-03     93.3143E-03    -114.192E-03     225.301E-03    -111.636E-03     90.6426E-03
            1502     4.82962E-03     59.3310E-03    -60.5358E+06    -180.993E+06    -32.6260E+06     715.423E+03    -113.166E-03     224.997E-03    -111.831E-03     80.5762E-03    -113.552E-03     224.620E-03    -111.644E-03     78.4078E-03
            1503     4.02458E-03     59.2484E-03    -64.9029E+06    -191.101E+06    -43.5018E+06     749.892E+03    -112.738E-03     224.547E-03    -111.809E-03     67.6969E-03    -112.980E-03     224.007E-03    -111.655E-03     65.9778E-03
            1504     3.21966E-03     59.1797E-03    -68.8905E+06    -205.672E+06    -54.2104E+06     646.249E+03    -112.389E-03     224.187E-03    -111.797E-03     54.5661E-03    -112.515E-03     223.495E-03    -111.670E-03     53.2449E-03
            1505     2.41462E-03     59.1262E-03    -72.7396E+06    -216.495E+06    -62.7734E+06     25.7145E+03    -112.122E-03     223.913E-03    -111.791E-03     41.1949E-03    -112.168E-03     223.114E-03    -111.686E-03     40.2247E-03
            1506     1.60978E-03     59.0876E-03    -75.8222E+06    -221.240E+06    -70.2014E+06    -329.480E+03    -111.933E-03     223.710E-03    -111.777E-03     27.8651E-03    -111.929E-03     222.855E-03    -111.697E-03     27.2224E-03
            1507     804.867E-06     59.0638E-03    -77.8331E+06    -224.853E+06    -75.9180E+06    -227.397E+03    -111.822E-03     223.577E-03    -111.755E-03     15.0516E-03    -111.787E-03     222.689E-03    -111.695E-03     14.7079E-03
            1508     15.2971E-03     60.7765E-03    -4.86889E+06     121.873E+06     95.5176E+06     162.058E+03    -112.552E-03     224.260E-03    -111.708E-03     201.721E-03    -124.461E-03     236.307E-03    -111.400E-03     196.231E-03
            1509     14.4917E-03     60.4774E-03    -10.6148E+06     117.626E+06     96.6242E+06     122.391E+03    -117.852E-03     229.597E-03    -111.746E-03     284.851E-03    -135.679E-03     247.524E-03    -111.418E-03     274.759E-03
            1510     13.6876E-03     60.1344E-03    -16.7076E+06     107.686E+06     89.8958E+06    -540.636E+03    -121.314E-03     233.051E-03    -111.737E-03     297.495E-03    -137.703E-03     249.503E-03    -111.420E-03     284.604E-03
            1511     12.8819E-03     59.8104E-03    -23.2271E+06     93.0814E+06     69.7995E+06    -750.728E+03    -119.955E-03     231.632E-03    -111.677E-03     267.941E-03    -132.185E-03     243.907E-03    -111.429E-03     255.498E-03
            1512     12.0762E-03     59.5383E-03    -28.7201E+06     75.3171E+06     38.7431E+06     16.9896E+03    -117.633E-03     229.221E-03    -111.589E-03     225.605E-03    -125.730E-03     237.372E-03    -111.463E-03     215.085E-03
            1513     11.2707E-03     59.3122E-03    -32.5018E+06     49.5037E+06     14.6935E+06     537.235E+03    -116.290E-03     227.846E-03    -111.555E-03     192.968E-03    -121.746E-03     233.319E-03    -111.507E-03     184.194E-03
            1514     10.4649E-03     59.1146E-03    -34.5350E+06    -1.23007E+06     4.13348E+06     512.750E+03    -115.899E-03     227.516E-03    -111.617E-03     171.789E-03    -119.769E-03     231.247E-03    -111.544E-03     164.342E-03
            1515     9.65994E-03     58.9339E-03    -36.6530E+06    -55.4385E+06    -1.90574E+06    -368.008E+03    -115.697E-03     227.391E-03    -111.694E-03     156.761E-03    -118.517E-03     229.890E-03    -111.570E-03     150.395E-03
            1516     8.85463E-03     58.7685E-03    -40.5756E+06    -89.3433E+06    -6.39576E+06    -1.25032E+06    -115.353E-03     227.101E-03    -111.748E-03     143.568E-03    -117.442E-03     228.747E-03    -111.591E-03     138.130E-03
            1517     8.04944E-03     58.6169E-03    -44.7822E+06    -117.485E+06    -9.47615E+06    -1.47213E+06    -114.972E-03     226.769E-03    -111.797E-03     130.756E-03    -116.514E-03     227.763E-03    -111.610E-03     126.137E-03
            1518     7.24450E-03     58.4788E-03    -48.4048E+06    -130.166E+06    -13.6747E+06    -675.586E+03    -114.528E-03     226.343E-03    -111.815E-03     118.287E-03    -115.668E-03     226.888E-03    -111.624E-03     114.402E-03
            1519     6.43943E-03     58.3543E-03    -52.0900E+06    -147.228E+06    -18.4979E+06     406.637E+03    -114.087E-03     225.919E-03    -111.833E-03     105.875E-03    -114.910E-03     226.088E-03    -111.636E-03     102.641E-03
            1520     5.63454E-03     58.2432E-03    -56.0731E+06    -171.636E+06    -23.9398E+06     905.334E+03    -113.643E-03     225.498E-03    -111.855E-03     93.2645E-03    -114.211E-03     225.327E-03    -111.644E-03     90.5954E-03
            1521     4.82946E-03     58.1464E-03    -60.6774E+06    -180.735E+06    -31.9763E+06     987.435E+03    -113.181E-03     225.022E-03    -111.842E-03     80.5584E-03    -113.568E-03     224.645E-03    -111.651E-03     78.3937E-03
            1522     4.02460E-03     58.0634E-03    -65.8273E+06    -190.780E+06    -42.3458E+06     826.613E+03    -112.768E-03     224.587E-03    -111.819E-03     67.6960E-03    -113.017E-03     224.048E-03    -111.658E-03     65.9764E-03
            1523     3.21964E-03     57.9952E-03    -70.1173E+06    -204.626E+06    -53.9341E+06     365.736E+03    -112.387E-03     224.185E-03    -111.798E-03     54.5683E-03    -112.521E-03     223.500E-03    -111.669E-03     53.2432E-03
            1524     2.41469E-03     57.9415E-03    -73.1122E+06    -215.719E+06    -63.6124E+06    -209.516E+03    -112.105E-03     223.892E-03    -111.787E-03     41.2380E-03    -112.153E-03     223.099E-03    -111.686E-03     40.2663E-03
            1525     1.60974E-03     57.9028E-03    -75.6250E+06    -221.627E+06    -71.2623E+06    -360.379E+03    -111.912E-03     223.696E-03    -111.784E-03     27.8375E-03    -111.905E-03     222.840E-03    -111.709E-03     27.1948E-03
            1526     804.852E-06     57.8792E-03    -77.7095E+06    -225.391E+06    -76.9094E+06    -220.103E+03    -111.854E-03     223.617E-03    -111.763E-03     15.1504E-03    -111.816E-03     222.728E-03    -111.708E-03     14.8054E-03
            1527     15.2979E-03     59.5949E-03    -5.14819E+06     121.948E+06     95.7726E+06    -18.7032E+03    -113.166E-03     224.880E-03    -111.714E-03     201.830E-03    -125.143E-03     236.993E-03    -111.404E-03     196.254E-03
            1528     14.4921E-03     59.2899E-03    -10.1685E+06     118.078E+06     97.2614E+06    -73.8306E+03    -118.241E-03     229.965E-03    -111.724E-03     284.854E-03    -136.062E-03     247.887E-03    -111.394E-03     274.702E-03
            1529     13.6870E-03     58.9495E-03    -16.5261E+06     107.717E+06     89.9064E+06    -15.3135E+03    -120.760E-03     232.481E-03    -111.720E-03     297.764E-03    -137.103E-03     248.886E-03    -111.403E-03     284.981E-03
            1530     12.8817E-03     58.6252E-03    -23.0548E+06     93.1923E+06     69.9209E+06     337.458E+03    -119.723E-03     231.415E-03    -111.692E-03     268.975E-03    -131.953E-03     243.691E-03    -111.444E-03     256.600E-03
            1531     12.0760E-03     58.3547E-03    -28.4641E+06     75.5379E+06     38.7687E+06     238.259E+03    -117.640E-03     229.260E-03    -111.620E-03     226.259E-03    -125.750E-03     237.424E-03    -111.494E-03     215.744E-03
            1532     11.2697E-03     58.1275E-03    -31.9618E+06     49.3046E+06     14.4833E+06    -320.824E+03    -116.451E-03     228.035E-03    -111.585E-03     193.102E-03    -121.912E-03     233.516E-03    -111.537E-03     184.298E-03
            1533     10.4650E-03     57.9292E-03    -34.8439E+06    -894.118E+03     3.42937E+06    -599.096E+03    -115.984E-03     227.621E-03    -111.637E-03     171.708E-03    -119.855E-03     231.355E-03    -111.568E-03     164.241E-03
            1534     9.65962E-03     57.7494E-03    -37.9382E+06    -55.2313E+06    -3.38070E+06    -591.780E+03    -115.706E-03     227.416E-03    -111.710E-03     156.770E-03    -118.530E-03     229.919E-03    -111.591E-03     150.401E-03
            1535     8.85434E-03     57.5836E-03    -40.5017E+06    -88.7556E+06    -6.65836E+06    -593.126E+03    -115.413E-03     227.178E-03    -111.765E-03     143.501E-03    -117.501E-03     228.826E-03    -111.611E-03     138.071E-03
            1536     8.04944E-03     57.4318E-03    -43.9355E+06    -117.441E+06    -8.84964E+06    -463.312E+03    -115.031E-03     226.845E-03    -111.814E-03     130.552E-03    -116.570E-03     227.837E-03    -111.625E-03     125.940E-03
            1537     7.24433E-03     57.2941E-03    -48.5177E+06    -131.446E+06    -13.8792E+06    -322.429E+03    -114.567E-03     226.394E-03    -111.826E-03     118.183E-03    -115.705E-03     226.933E-03    -111.635E-03     114.301E-03
            1538     6.43940E-03     57.1691E-03    -52.8114E+06    -148.112E+06    -19.2820E+06    -134.908E+03    -114.109E-03     225.947E-03    -111.838E-03     105.798E-03    -114.934E-03     226.114E-03    -111.643E-03     102.554E-03
            1539     5.63441E-03     57.0586E-03    -56.9532E+06    -172.087E+06    -24.6912E+06     325.243E+03    -113.638E-03     225.497E-03    -111.859E-03     93.1910E-03    -114.209E-03     225.326E-03    -111.650E-03     90.5135E-03
            1540     4.82951E-03     56.9614E-03    -61.3930E+06    -180.569E+06    -33.0241E+06     775.283E+03    -113.180E-03     225.023E-03    -111.843E-03     80.5326E-03    -113.569E-03     224.649E-03    -111.658E-03     78.3651E-03
            1541     4.02452E-03     56.8787E-03    -65.4036E+06    -190.115E+06    -42.5852E+06     577.287E+03    -112.775E-03     224.598E-03    -111.822E-03     67.6190E-03    -113.023E-03     224.061E-03    -111.665E-03     65.8954E-03
            1542     3.21959E-03     56.8104E-03    -69.1450E+06    -203.680E+06    -53.0727E+06    -30.1921E+03    -112.421E-03     224.222E-03    -111.801E-03     54.4882E-03    -112.552E-03     223.539E-03    -111.671E-03     53.1566E-03
            1543     2.41468E-03     56.7569E-03    -73.0230E+06    -215.635E+06    -63.6255E+06    -167.266E+03    -112.119E-03     223.901E-03    -111.781E-03     41.2118E-03    -112.166E-03     223.108E-03    -111.681E-03     40.2409E-03
            1544     1.60975E-03     56.7181E-03    -76.2433E+06    -221.967E+06    -71.4204E+06    -28.6551E+03    -111.906E-03     223.680E-03    -111.774E-03     27.8045E-03    -111.902E-03     222.824E-03    -111.699E-03     27.1661E-03
            1545     804.782E-06     56.6946E-03    -78.3166E+06    -225.555E+06    -76.6456E+06     172.906E+03    -111.962E-03     223.592E-03    -111.630E-03     15.1400E-03    -111.928E-03     222.702E-03    -111.572E-03     14.7984E-03
            1546     15.2952E-03     58.4013E-03    -5.20237E+06     121.569E+06     95.3764E+06    -353.103E+03    -112.799E-03     224.476E-03    -111.678E-03     201.317E-03    -124.696E-03     236.510E-03    -111.369E-03     195.800E-03
            1547     14.4941E-03     58.1075E-03    -10.8591E+06     117.214E+06     96.2916E+06    -229.536E+03    -117.578E-03     229.291E-03    -111.713E-03     284.264E-03    -135.275E-03     247.087E-03    -111.386E-03     274.300E-03
            1548     13.6871E-03     57.7648E-03    -16.5649E+06     107.624E+06     90.0841E+06     378.682E+03    -120.289E-03     232.042E-03    -111.753E-03     298.659E-03    -136.606E-03     248.421E-03    -111.435E-03     285.998E-03
            1549     12.8803E-03     57.4411E-03    -22.6151E+06     93.6173E+06     70.5330E+06     768.095E+03    -119.763E-03     231.511E-03    -111.748E-03     269.285E-03    -131.993E-03     243.788E-03    -111.498E-03     256.920E-03
            1550     12.0744E-03     57.1689E-03    -27.2589E+06     76.5878E+06     38.9995E+06     83.3602E+03    -118.020E-03     229.681E-03    -111.661E-03     225.952E-03    -126.143E-03     237.867E-03    -111.538E-03     215.379E-03
            1551     11.2705E-03     56.9427E-03    -31.1473E+06     49.8629E+06     13.9224E+06    -90.0358E+03    -116.637E-03     228.241E-03    -111.604E-03     192.903E-03    -122.100E-03     233.730E-03    -111.561E-03     184.081E-03
            1552     10.4645E-03     56.7443E-03    -35.0663E+06    -1.30383E+06     2.95224E+06    -69.9174E+03    -116.001E-03     227.653E-03    -111.653E-03     171.664E-03    -119.872E-03     231.387E-03    -111.585E-03     164.200E-03
            1553     9.65929E-03     56.5646E-03    -38.2934E+06    -54.5952E+06    -3.15001E+06    -511.332E+03    -115.812E-03     227.534E-03    -111.723E-03     156.501E-03    -118.638E-03     230.040E-03    -111.604E-03     150.125E-03
            1554     8.85449E-03     56.3984E-03    -41.8187E+06    -88.7642E+06    -7.17646E+06    -804.654E+03    -115.468E-03     227.236E-03    -111.768E-03     143.261E-03    -117.559E-03     228.885E-03    -111.615E-03     137.825E-03
            1555     8.04934E-03     56.2471E-03    -45.1814E+06    -118.085E+06    -9.30331E+06    -428.732E+03    -115.030E-03     226.844E-03    -111.814E-03     130.420E-03    -116.574E-03     227.835E-03    -111.624E-03     125.808E-03
            1556     7.24445E-03     56.1089E-03    -48.3724E+06    -131.417E+06    -13.9432E+06    -99.8893E+03    -114.583E-03     226.406E-03    -111.823E-03     118.060E-03    -115.720E-03     226.945E-03    -111.632E-03     114.179E-03
            1557     6.43941E-03     55.9844E-03    -52.1745E+06    -148.464E+06    -19.5513E+06    -140.931E+03    -114.093E-03     225.926E-03    -111.832E-03     105.653E-03    -114.913E-03     226.090E-03    -111.639E-03     102.410E-03
            1558     5.63446E-03     55.8735E-03    -56.4500E+06    -172.675E+06    -25.0543E+06     75.4908E+03    -113.637E-03     225.490E-03    -111.854E-03     93.0616E-03    -114.203E-03     225.316E-03    -111.647E-03     90.3806E-03
            1559     4.82946E-03     55.7768E-03    -60.4776E+06    -180.562E+06    -33.4822E+06     18.1534E+03    -113.178E-03     225.014E-03    -111.836E-03     80.4424E-03    -113.562E-03     224.639E-03    -111.654E-03     78.2641E-03
            1560     4.02455E-03     55.6938E-03    -64.3090E+06    -189.555E+06    -42.6432E+06    -283.892E+03    -112.774E-03     224.589E-03    -111.815E-03     67.5349E-03    -113.017E-03     224.054E-03    -111.660E-03     65.7999E-03
            1561     3.21965E-03     55.6257E-03    -68.3265E+06    -203.990E+06    -51.9493E+06     68.4319E+03    -112.432E-03     224.231E-03    -111.799E-03     54.3805E-03    -112.560E-03     223.543E-03    -111.664E-03     53.0484E-03
            1562     2.41473E-03     55.5721E-03    -72.2264E+06    -215.589E+06    -61.7819E+06     636.439E+03    -112.127E-03     223.903E-03    -111.776E-03     41.1235E-03    -112.173E-03     223.107E-03    -111.668E-03     40.1613E-03
            1563     1.60979E-03     55.5336E-03    -75.7232E+06    -221.520E+06    -70.8885E+06     492.869E+03    -111.926E-03     223.672E-03    -111.747E-03     27.8340E-03    -111.920E-03     222.817E-03    -111.670E-03     27.2032E-03
            1564     805.024E-06     55.5096E-03    -78.1203E+06    -225.368E+06    -76.7465E+06     36.1734E+03    -111.997E-03     223.511E-03    -111.514E-03     15.1649E-03    -111.962E-03     222.622E-03    -111.458E-03     14.8220E-03
            1565     15.3023E-03     57.2230E-03    -4.62221E+06     121.983E+06     95.6111E+06    -59.8095E+03    -112.276E-03     223.945E-03    -111.669E-03     203.379E-03    -124.211E-03     236.020E-03    -111.361E-03     197.944E-03
            1566     14.4905E-03     56.9203E-03    -11.0868E+06     117.100E+06     95.8172E+06    -145.098E+03    -116.777E-03     228.526E-03    -111.749E-03     285.658E-03    -134.576E-03     246.423E-03    -111.424E-03     275.766E-03
            1567     13.6854E-03     56.5816E-03    -17.5253E+06     106.868E+06     89.3026E+06    -118.858E+03    -120.710E-03     232.512E-03    -111.802E-03     298.339E-03    -137.096E-03     248.956E-03    -111.485E-03     285.587E-03
            1568     12.8799E-03     56.2555E-03    -22.6476E+06     93.6263E+06     70.4448E+06    -286.892E+03    -120.049E-03     231.820E-03    -111.771E-03     268.550E-03    -132.271E-03     244.089E-03    -111.522E-03     256.125E-03
            1569     12.0756E-03     55.9839E-03    -27.7021E+06     76.0268E+06     38.0156E+06     11.0523E+03    -117.908E-03     229.581E-03    -111.673E-03     225.633E-03    -126.017E-03     237.752E-03    -111.553E-03     215.067E-03
            1570     11.2692E-03     55.7574E-03    -32.1738E+06     49.3491E+06     13.0359E+06     355.732E+03    -116.673E-03     228.291E-03    -111.618E-03     192.739E-03    -122.143E-03     233.784E-03    -111.578E-03     183.908E-03
            1571     10.4645E-03     55.5597E-03    -35.2842E+06    -43.8475E+03     3.60614E+06     112.212E+03    -116.209E-03     227.869E-03    -111.660E-03     171.435E-03    -120.086E-03     231.610E-03    -111.591E-03     163.955E-03
            1572     9.65971E-03     55.3790E-03    -38.1834E+06    -53.6059E+06    -2.49850E+06    -269.482E+03    -115.874E-03     227.592E-03    -111.717E-03     156.239E-03    -118.700E-03     230.099E-03    -111.597E-03     149.862E-03
            1573     8.85453E-03     55.2139E-03    -41.0232E+06    -88.6979E+06    -6.86891E+06    -483.341E+03    -115.448E-03     227.206E-03    -111.758E-03     143.104E-03    -117.536E-03     228.853E-03    -111.604E-03     137.673E-03
            1574     8.04949E-03     55.0619E-03    -44.1816E+06    -118.757E+06    -9.21055E+06    -556.586E+03    -115.053E-03     226.855E-03    -111.802E-03     130.362E-03    -116.590E-03     227.840E-03    -111.612E-03     125.748E-03
            1575     7.24451E-03     54.9242E-03    -47.9321E+06    -131.757E+06    -13.7393E+06    -318.547E+03    -114.572E-03     226.381E-03    -111.809E-03     117.908E-03    -115.706E-03     226.917E-03    -111.617E-03     114.022E-03
            1576     6.43951E-03     54.7994E-03    -51.8223E+06    -148.378E+06    -19.4668E+06    -158.959E+03    -114.077E-03     225.894E-03    -111.817E-03     105.544E-03    -114.894E-03     226.056E-03    -111.624E-03     102.303E-03
            1577     5.63454E-03     54.6889E-03    -55.6810E+06    -172.879E+06    -25.1158E+06    -394.369E+03    -113.633E-03     225.468E-03    -111.835E-03     92.9591E-03    -114.195E-03     225.291E-03    -111.630E-03     90.2719E-03
            1578     4.82962E-03     54.5919E-03    -59.8490E+06    -180.412E+06    -33.0291E+06    -450.150E+03    -113.167E-03     224.985E-03    -111.818E-03     80.3417E-03    -113.549E-03     224.610E-03    -111.634E-03     78.1567E-03
            1579     4.02463E-03     54.5092E-03    -64.5245E+06    -189.801E+06    -42.6566E+06    -214.323E+03    -112.747E-03     224.543E-03    -111.796E-03     67.4524E-03    -112.990E-03     224.006E-03    -111.640E-03     65.7187E-03
            1580     3.21968E-03     54.4408E-03    -68.9940E+06    -204.851E+06    -52.9749E+06     50.8565E+03    -112.400E-03     224.178E-03    -111.778E-03     54.3005E-03    -112.529E-03     223.489E-03    -111.646E-03     52.9693E-03
            1581     2.41476E-03     54.3876E-03    -72.4430E+06    -215.676E+06    -61.8216E+06     422.333E+03    -112.101E-03     223.862E-03    -111.761E-03     41.0867E-03    -112.147E-03     223.065E-03    -111.653E-03     40.1225E-03
            1582     1.60986E-03     54.3488E-03    -75.1137E+06    -220.536E+06    -69.5389E+06     711.798E+03    -111.878E-03     223.627E-03    -111.750E-03     27.9394E-03    -111.872E-03     222.774E-03    -111.669E-03     27.3130E-03
            1583     804.847E-06     54.3251E-03    -77.2960E+06    -224.549E+06    -75.8627E+06     478.869E+03    -111.890E-03     223.538E-03    -111.648E-03     15.2817E-03    -111.852E-03     222.650E-03    -111.590E-03     14.9469E-03
            1584     15.2935E-03     56.0358E-03    -4.92288E+06     121.904E+06     95.6046E+06     146.911E+03    -112.331E-03     224.063E-03    -111.733E-03     202.617E-03    -124.253E-03     236.124E-03    -111.424E-03     197.167E-03
            1585     14.4916E-03     55.7387E-03    -10.4879E+06     117.901E+06     96.9082E+06     321.742E+03    -117.635E-03     229.423E-03    -111.788E-03     284.945E-03    -135.429E-03     247.318E-03    -111.460E-03     274.933E-03
            1586     13.6855E-03     55.3941E-03    -16.5198E+06     107.875E+06     90.0067E+06    -151.780E+03    -120.907E-03     232.707E-03    -111.800E-03     296.991E-03    -137.268E-03     249.131E-03    -111.482E-03     284.180E-03
            1587     12.8815E-03     55.0716E-03    -23.2578E+06     92.9529E+06     69.1786E+06    -354.756E+03    -119.832E-03     231.589E-03    -111.757E-03     268.220E-03    -132.031E-03     243.834E-03    -111.512E-03     255.824E-03
            1588     12.0742E-03     54.7991E-03    -29.1382E+06     74.7477E+06     37.0577E+06     178.724E+03    -117.850E-03     229.522E-03    -111.671E-03     226.111E-03    -125.964E-03     237.690E-03    -111.552E-03     215.558E-03
            1589     11.2698E-03     54.5723E-03    -32.5424E+06     49.6796E+06     13.8429E+06    -11.4992E+03    -116.812E-03     228.431E-03    -111.619E-03     192.445E-03    -122.287E-03     233.927E-03    -111.575E-03     183.590E-03
            1590     10.4647E-03     54.3739E-03    -35.0350E+06     729.566E+03     3.76178E+06    -261.896E+03    -116.225E-03     227.872E-03    -111.648E-03     171.062E-03    -120.097E-03     231.612E-03    -111.579E-03     163.577E-03
            1591     9.65965E-03     54.1942E-03    -37.6434E+06    -53.4665E+06    -2.57702E+06    -451.770E+03    -115.834E-03     227.537E-03    -111.702E-03     156.135E-03    -118.655E-03     230.042E-03    -111.583E-03     149.759E-03
            1592     8.85464E-03     54.0288E-03    -40.5830E+06    -88.4481E+06    -6.41418E+06    -475.133E+03    -115.491E-03     227.234E-03    -111.743E-03     143.041E-03    -117.577E-03     228.881E-03    -111.588E-03     137.608E-03
            1593     8.04969E-03     53.8770E-03    -44.0203E+06    -119.071E+06    -9.17603E+06    -394.312E+03    -115.072E-03     226.853E-03    -111.782E-03     130.283E-03    -116.606E-03     227.836E-03    -111.591E-03     125.671E-03
            1594     7.24473E-03     53.7393E-03    -47.5929E+06    -132.210E+06    -13.5749E+06    -346.988E+03    -114.567E-03     226.353E-03    -111.786E-03     117.794E-03    -115.698E-03     226.885E-03    -111.593E-03     113.909E-03
            1595     6.43968E-03     53.6147E-03    -51.3288E+06    -148.090E+06    -19.0992E+06    -343.053E+03    -114.066E-03     225.857E-03    -111.790E-03     105.407E-03    -114.881E-03     226.019E-03    -111.597E-03     102.164E-03
            1596     5.63472E-03     53.5040E-03    -55.5918E+06    -172.730E+06    -25.0726E+06    -530.515E+03    -113.592E-03     225.400E-03    -111.808E-03     92.8749E-03    -114.153E-03     225.222E-03    -111.602E-03     90.1889E-03
            1597     4.82972E-03     53.4072E-03    -60.3265E+06    -180.773E+06    -33.5397E+06    -336.866E+03    -113.127E-03     224.917E-03    -111.790E-03     80.3109E-03    -113.509E-03     224.541E-03    -111.608E-03     78.1303E-03
            1598     4.02478E-03     53.3244E-03    -64.7077E+06    -190.225E+06    -43.2353E+06    -10.5092E+03    -112.702E-03     224.473E-03    -111.771E-03     67.4518E-03    -112.944E-03     223.936E-03    -111.618E-03     65.7228E-03
            1599     3.21978E-03     53.2563E-03    -68.5458E+06    -204.906E+06    -53.4262E+06     111.903E+03    -112.363E-03     224.120E-03    -111.758E-03     54.3145E-03    -112.489E-03     223.430E-03    -111.628E-03     52.9859E-03
            1600     2.41482E-03     53.2028E-03    -72.1829E+06    -215.876E+06    -62.4855E+06    -6.26660E+03    -112.080E-03     223.825E-03    -111.745E-03     41.0500E-03    -112.124E-03     223.028E-03    -111.640E-03     40.0806E-03
            1601     1.60974E-03     53.1644E-03    -75.0174E+06    -220.412E+06    -69.4839E+06     39.9868E+03    -111.867E-03     223.604E-03    -111.738E-03     27.8830E-03    -111.861E-03     222.751E-03    -111.657E-03     27.2458E-03
            1602     804.800E-06     53.1402E-03    -76.4468E+06    -223.619E+06    -74.7449E+06     275.430E+03    -111.799E-03     223.516E-03    -111.717E-03     15.0928E-03    -111.760E-03     222.630E-03    -111.656E-03     14.7564E-03
            1603     15.2984E-03     54.8517E-03    -5.25571E+06     121.578E+06     95.2688E+06    -131.317E+03    -112.698E-03     224.438E-03    -111.740E-03     201.199E-03    -124.601E-03     236.478E-03    -111.432E-03     195.654E-03
            1604     14.4912E-03     54.5517E-03    -10.6544E+06     117.718E+06     96.8011E+06    -350.320E+03    -117.971E-03     229.740E-03    -111.769E-03     283.946E-03    -135.719E-03     247.588E-03    -111.440E-03     273.872E-03
            1605     13.6877E-03     54.2100E-03    -16.7047E+06     107.642E+06     89.9440E+06     254.527E+03    -120.592E-03     232.372E-03    -111.780E-03     297.485E-03    -136.911E-03     248.753E-03    -111.462E-03     284.763E-03
            1606     12.8796E-03     53.8875E-03    -22.9788E+06     93.2984E+06     69.9977E+06     837.761E+03    -119.845E-03     231.599E-03    -111.754E-03     268.515E-03    -132.045E-03     243.846E-03    -111.506E-03     256.143E-03
            1607     12.0754E-03     53.6140E-03    -27.8130E+06     76.2566E+06     39.0736E+06     253.908E+03    -118.141E-03     229.802E-03    -111.661E-03     225.930E-03    -126.264E-03     237.983E-03    -111.536E-03     215.343E-03
            1608     11.2699E-03     53.3866E-03    -31.3546E+06     50.0212E+06     14.6685E+06    -468.030E+03    -116.764E-03     228.358E-03    -111.594E-03     192.327E-03    -122.226E-03     233.844E-03    -111.548E-03     183.479E-03
            1609     10.4650E-03     53.1891E-03    -34.2631E+06     338.569E+03     3.90780E+06    -430.296E+03    -116.083E-03     227.708E-03    -111.626E-03     170.834E-03    -119.946E-03     231.440E-03    -111.557E-03     163.358E-03
            1610     9.65978E-03     53.0093E-03    -37.2571E+06    -53.3247E+06    -2.44974E+06    -337.924E+03    -115.804E-03     227.488E-03    -111.684E-03     156.039E-03    -118.621E-03     229.991E-03    -111.565E-03     149.670E-03
            1611     8.85488E-03     52.8437E-03    -40.4397E+06    -88.8918E+06    -6.24733E+06    -323.612E+03    -115.515E-03     227.240E-03    -111.725E-03     142.930E-03    -117.601E-03     228.884E-03    -111.568E-03     137.496E-03
            1612     8.04988E-03     52.6923E-03    -43.8238E+06    -119.086E+06    -8.91999E+06    -278.368E+03    -115.072E-03     226.831E-03    -111.759E-03     130.200E-03    -116.606E-03     227.813E-03    -111.567E-03     125.590E-03
            1613     7.24488E-03     52.5543E-03    -47.4137E+06    -132.179E+06    -13.8311E+06    -445.174E+03    -114.573E-03     226.330E-03    -111.757E-03     117.770E-03    -115.701E-03     226.861E-03    -111.566E-03     113.888E-03
            1614     6.43999E-03     52.4300E-03    -51.3425E+06    -148.165E+06    -19.1227E+06    -302.983E+03    -114.054E-03     225.814E-03    -111.760E-03     105.345E-03    -114.868E-03     225.976E-03    -111.566E-03     102.104E-03
            1615     5.63490E-03     52.3194E-03    -55.8432E+06    -172.716E+06    -25.2816E+06    -137.864E+03    -113.552E-03     225.328E-03    -111.776E-03     92.8352E-03    -114.113E-03     225.150E-03    -111.571E-03     90.1589E-03
            1616     4.82987E-03     52.2226E-03    -60.1885E+06    -181.332E+06    -34.2139E+06    -227.604E+03    -113.068E-03     224.827E-03    -111.760E-03     80.2574E-03    -113.447E-03     224.448E-03    -111.580E-03     78.0815E-03
            1617     4.02476E-03     52.1398E-03    -64.4675E+06    -190.333E+06    -43.4773E+06     55.1726E+03    -112.661E-03     224.407E-03    -111.746E-03     67.3976E-03    -112.901E-03     223.869E-03    -111.594E-03     65.6718E-03
            1618     3.21976E-03     52.0717E-03    -68.7821E+06    -204.605E+06    -52.8581E+06     90.6617E+03    -112.333E-03     224.072E-03    -111.739E-03     54.2406E-03    -112.462E-03     223.383E-03    -111.607E-03     52.9118E-03
            1619     2.41478E-03     52.0183E-03    -72.3040E+06    -215.589E+06    -61.7911E+06    -240.099E+03    -112.085E-03     223.806E-03    -111.721E-03     40.9848E-03    -112.131E-03     223.009E-03    -111.613E-03     40.0116E-03
            1620     1.60998E-03     51.9798E-03    -75.1998E+06    -220.617E+06    -69.5937E+06    -569.633E+03    -111.898E-03     223.581E-03    -111.683E-03     27.8441E-03    -111.893E-03     222.728E-03    -111.602E-03     27.1997E-03
            1621     805.120E-06     51.9556E-03    -77.4138E+06    -224.361E+06    -75.5446E+06    -577.362E+03    -111.735E-03     223.358E-03    -111.624E-03     15.1115E-03    -111.699E-03     222.472E-03    -111.564E-03     14.7643E-03
            1622     15.2961E-03     53.6663E-03    -4.72358E+06     122.109E+06      95.872E+06     274.308E+03    -112.846E-03     224.557E-03    -111.712E-03     202.138E-03    -124.762E-03     236.612E-03    -111.402E-03     196.618E-03
            1623     14.4931E-03     53.3658E-03    -10.5730E+06     117.503E+06     96.2575E+06     143.124E+03    -117.397E-03     229.152E-03    -111.755E-03     284.725E-03    -135.133E-03     246.988E-03    -111.429E-03     274.722E-03
            1624     13.6847E-03     53.0272E-03    -17.7093E+06     106.640E+06     88.9336E+06    -269.692E+03    -120.629E-03     232.413E-03    -111.784E-03     297.355E-03    -136.936E-03     248.778E-03    -111.468E-03     284.628E-03
            1625     12.8812E-03     52.7010E-03    -22.8273E+06     93.7335E+06     71.2039E+06    -109.490E+03    -120.255E-03     232.006E-03    -111.751E-03     268.711E-03    -132.491E-03     244.287E-03    -111.497E-03     256.266E-03
            1626     12.0757E-03     52.4295E-03    -27.1289E+06     77.0221E+06     40.0456E+06    -73.7542E+03    -118.292E-03     229.928E-03    -111.636E-03     225.993E-03    -126.429E-03     238.126E-03    -111.508E-03     215.380E-03
            1627     11.2705E-03     52.2014E-03    -31.0265E+06     50.3159E+06     14.6646E+06    -106.884E+03    -116.663E-03     228.226E-03    -111.562E-03     192.309E-03    -122.116E-03     233.704E-03    -111.517E-03     183.486E-03
            1628     10.4651E-03     52.0043E-03    -34.6109E+06     290.044E+03     3.73737E+06    -366.513E+03    -116.006E-03     227.605E-03    -111.599E-03     170.725E-03    -119.866E-03     231.332E-03    -111.531E-03     163.261E-03
            1629     9.66014E-03     51.8243E-03    -37.5746E+06    -53.3647E+06    -2.86153E+06    -334.124E+03    -115.781E-03     227.439E-03    -111.658E-03     155.970E-03    -118.598E-03     229.941E-03    -111.540E-03     149.603E-03
            1630     8.85503E-03     51.6587E-03    -40.4491E+06    -89.2403E+06    -6.65439E+06    -339.728E+03    -115.456E-03     227.156E-03    -111.699E-03     142.940E-03    -117.538E-03     228.796E-03    -111.545E-03     137.513E-03
            1631     8.05007E-03     51.5073E-03    -43.6640E+06    -119.037E+06    -8.68743E+06    -244.207E+03    -115.076E-03     226.812E-03    -111.736E-03     130.143E-03    -116.609E-03     227.792E-03    -111.544E-03     125.534E-03
            1632     7.24515E-03     51.3696E-03    -47.4703E+06    -132.213E+06    -14.0863E+06    -86.4547E+03    -114.537E-03     226.269E-03    -111.731E-03     117.722E-03    -115.664E-03     226.798E-03    -111.541E-03     113.849E-03
            1633     6.44000E-03     51.2452E-03    -51.6947E+06    -148.704E+06    -20.1378E+06    -31.2071E+03    -114.039E-03     225.771E-03    -111.732E-03     105.345E-03    -114.851E-03     225.930E-03    -111.542E-03     102.112E-03
            1634     5.63509E-03     51.1348E-03    -56.0439E+06    -172.377E+06    -25.0497E+06     90.2996E+03    -113.591E-03     225.338E-03    -111.747E-03     92.7550E-03    -114.153E-03     225.162E-03    -111.541E-03     90.0810E-03
            1635     4.83001E-03     51.0381E-03    -60.7183E+06    -181.241E+06    -33.2432E+06    -174.979E+03    -113.087E-03     224.811E-03    -111.724E-03     80.0807E-03    -113.470E-03     224.431E-03    -111.539E-03     77.9054E-03
            1636     4.02500E-03     50.9554E-03    -64.9501E+06    -190.647E+06    -43.1623E+06    -328.015E+03    -112.634E-03     224.332E-03    -111.698E-03     67.1742E-03    -112.876E-03     223.791E-03    -111.543E-03     65.4447E-03
            1637     3.21997E-03     50.8871E-03    -68.4220E+06    -204.333E+06    -52.6973E+06    -241.564E+03    -112.277E-03     223.961E-03    -111.683E-03     54.0421E-03    -112.404E-03     223.272E-03    -111.551E-03     52.7104E-03
            1638     2.41499E-03     50.8339E-03    -72.0972E+06    -215.233E+06    -61.3330E+06    -391.105E+03    -112.008E-03     223.678E-03    -111.670E-03     40.9259E-03    -112.054E-03     222.882E-03    -111.560E-03     39.9535E-03
            1639     1.60996E-03     50.7950E-03    -75.6345E+06    -220.908E+06    -69.9656E+06    -438.433E+03    -111.819E-03     223.463E-03    -111.644E-03     27.8678E-03    -111.815E-03     222.609E-03    -111.563E-03     27.2282E-03
            1640     804.930E-06     50.7716E-03    -78.1451E+06    -225.487E+06    -76.9679E+06    -246.272E+03    -111.659E-03     223.297E-03    -111.638E-03     15.1123E-03    -111.623E-03     222.408E-03    -111.582E-03     14.7703E-03
            1641     15.2992E-03     52.4820E-03    -5.20910E+06     121.440E+06     95.0992E+06    -31.2745E+03    -112.513E-03     224.214E-03    -111.701E-03     201.342E-03    -124.388E-03     236.226E-03    -111.394E-03     195.866E-03
            1642     14.4900E-03     52.1821E-03    -10.5853E+06     117.538E+06     96.3804E+06     711.299E+03    -117.317E-03     229.075E-03    -111.758E-03     284.634E-03    -135.039E-03     246.897E-03    -111.431E-03     274.685E-03
            1643     13.6873E-03     51.8407E-03    -16.0945E+06     108.243E+06     90.3757E+06     384.818E+03    -120.921E-03     232.702E-03    -111.780E-03     296.901E-03    -137.217E-03     249.062E-03    -111.462E-03     284.133E-03
            1644     12.8805E-03     51.5175E-03    -22.8358E+06     93.6331E+06     70.1459E+06    -732.624E+03    -120.332E-03     232.057E-03    -111.725E-03     268.899E-03    -132.598E-03     244.371E-03    -111.477E-03     256.415E-03
            1645     12.0755E-03     51.2424E-03    -28.3224E+06     75.8520E+06      38.501E+06    -695.473E+03    -118.199E-03     229.809E-03    -111.610E-03     225.873E-03    -126.333E-03     238.000E-03    -111.487E-03     215.262E-03
            1646     11.2708E-03     51.0175E-03    -32.1201E+06     50.2494E+06     14.2288E+06    -75.3911E+03    -116.644E-03     228.185E-03    -111.542E-03     192.281E-03    -122.100E-03     233.665E-03    -111.497E-03     183.462E-03
            1647     10.4655E-03     50.8189E-03    -35.0341E+06     761.788E+03     3.22919E+06    -248.825E+03    -116.029E-03     227.604E-03    -111.575E-03     170.993E-03    -119.891E-03     231.335E-03    -111.510E-03     163.533E-03
            1648     9.66045E-03     50.6396E-03    -37.9207E+06    -53.6197E+06    -3.29325E+06    -472.644E+03    -115.784E-03     227.418E-03    -111.634E-03     156.000E-03    -118.602E-03     229.920E-03    -111.518E-03     149.631E-03
            1649     8.85523E-03     50.4741E-03    -41.1418E+06    -88.9415E+06    -7.14196E+06    -344.978E+03    -115.460E-03     227.133E-03    -111.673E-03     142.953E-03    -117.543E-03     228.774E-03    -111.520E-03     137.531E-03
            1650     8.05025E-03     50.3222E-03    -44.6557E+06    -119.524E+06    -9.18197E+06    -324.062E+03    -115.036E-03     226.746E-03    -111.710E-03     130.036E-03    -116.570E-03     227.723E-03    -111.518E-03     125.432E-03
            1651     7.24524E-03     50.1850E-03    -48.3644E+06    -132.393E+06    -13.8120E+06    -60.1040E+03    -114.529E-03     226.236E-03    -111.707E-03     117.527E-03    -115.660E-03     226.765E-03    -111.514E-03     113.654E-03
            1652     6.44020E-03     50.0605E-03    -52.0917E+06    -148.761E+06    -20.1558E+06    -2.72109E+03    -114.049E-03     225.749E-03    -111.699E-03     105.157E-03    -114.862E-03     225.907E-03    -111.509E-03     101.927E-03
            1653     5.63520E-03     49.9500E-03    -56.2293E+06    -172.624E+06    -25.1113E+06     40.0992E+03    -113.624E-03     225.328E-03    -111.704E-03     92.5299E-03    -114.186E-03     225.150E-03    -111.497E-03     89.8542E-03
            1654     4.83039E-03     49.8535E-03    -60.7560E+06    -180.209E+06    -31.6264E+06    -17.1955E+03    -113.119E-03     224.791E-03    -111.672E-03     79.8847E-03    -113.506E-03     224.414E-03    -111.481E-03     77.7114E-03
            1655     4.02542E-03     49.7709E-03    -65.7731E+06    -191.056E+06    -42.7381E+06    -334.890E+03    -112.606E-03     224.236E-03    -111.630E-03     67.0883E-03    -112.852E-03     223.693E-03    -111.471E-03     65.3613E-03
            1656     3.22029E-03     49.7029E-03    -70.5680E+06    -204.166E+06    -56.0296E+06    -456.448E+03    -112.210E-03     223.800E-03    -111.590E-03     54.0386E-03    -112.342E-03     223.120E-03    -111.472E-03     52.7094E-03
            1657     2.41516E-03     49.6494E-03    -73.9343E+06    -215.220E+06    -65.2772E+06    -663.953E+03    -111.927E-03     223.498E-03    -111.571E-03     40.8437E-03    -111.976E-03     222.710E-03    -111.478E-03     39.8713E-03
            1658     1.61000E-03     49.6110E-03    -76.3639E+06    -222.067E+06    -71.6122E+06    -166.770E+03    -111.722E-03     223.280E-03    -111.558E-03     27.6700E-03    -111.717E-03     222.424E-03    -111.484E-03     27.0349E-03
            1659     805.028E-06     49.5868E-03    -78.0404E+06    -225.375E+06    -76.7846E+06     297.252E+03    -111.541E-03     223.144E-03    -111.602E-03     14.8285E-03    -111.505E-03     222.254E-03    -111.546E-03     14.4940E-03
            1660     15.2962E-03     51.3005E-03    -5.13427E+06     121.583E+06     94.9347E+06    -76.1819E+03    -112.885E-03     224.616E-03    -111.731E-03     202.272E-03    -124.858E-03     236.726E-03    -111.425E-03     196.702E-03
            1661     14.4933E-03     50.9955E-03    -10.8680E+06     117.609E+06     96.3751E+06    -352.939E+03    -117.987E-03     229.750E-03    -111.763E-03     285.257E-03    -135.806E-03     247.668E-03    -111.436E-03     275.187E-03
            1662     13.6855E-03     50.6573E-03    -16.3737E+06     108.100E+06     90.2988E+06     93.3183E+03    -121.034E-03     232.797E-03    -111.763E-03     297.012E-03    -137.354E-03     249.181E-03    -111.444E-03     284.221E-03
            1663     12.8815E-03     50.3306E-03    -22.1317E+06     94.2034E+06     70.4910E+06     326.333E+03    -120.326E-03     232.029E-03    -111.703E-03     268.953E-03    -132.604E-03     244.358E-03    -111.455E-03     256.467E-03
            1664     12.0766E-03     50.0591E-03    -27.8827E+06     76.0699E+06     38.3791E+06    -22.7614E+03    -118.035E-03     229.626E-03    -111.592E-03     225.866E-03    -126.157E-03     237.808E-03    -111.470E-03     215.288E-03
            1665     11.2704E-03     49.8315E-03    -32.0966E+06     50.2191E+06     13.8612E+06    -379.408E+03    -116.626E-03     228.155E-03    -111.529E-03     192.353E-03    -122.077E-03     233.630E-03    -111.486E-03     183.537E-03
            1666     10.4656E-03     49.6345E-03    -34.9165E+06     859.934E+03     3.48209E+06    -424.122E+03    -116.098E-03     227.661E-03    -111.562E-03     170.885E-03    -119.960E-03     231.391E-03    -111.496E-03     163.416E-03
            1667     9.66026E-03     49.4544E-03    -37.8706E+06    -54.0941E+06    -3.02947E+06    -310.048E+03    -115.842E-03     227.457E-03    -111.615E-03     155.916E-03    -118.658E-03     229.955E-03    -111.496E-03     149.547E-03
            1668     8.85564E-03     49.2892E-03    -40.9764E+06    -88.9021E+06    -6.71388E+06    -60.2696E+03    -115.518E-03     227.164E-03    -111.645E-03     142.784E-03    -117.599E-03     228.803E-03    -111.491E-03     137.364E-03
            1669     8.05050E-03     49.1377E-03    -44.6990E+06    -119.962E+06    -8.98634E+06     108.465E+03    -115.056E-03     226.731E-03    -111.674E-03     129.841E-03    -116.587E-03     227.703E-03    -111.481E-03     125.246E-03
            1670     7.24556E-03     49.0001E-03    -48.9696E+06    -132.531E+06    -13.4171E+06     302.499E+03    -114.572E-03     226.235E-03    -111.663E-03     117.239E-03    -115.703E-03     226.761E-03    -111.467E-03     113.372E-03
            1671     6.44066E-03     48.8760E-03    -54.0151E+06    -148.375E+06    -19.8933E+06     385.983E+03    -114.068E-03     225.712E-03    -111.643E-03     104.856E-03    -114.890E-03     225.872E-03    -111.449E-03     101.632E-03
            1672     5.63571E-03     48.7654E-03    -58.8163E+06    -171.907E+06    -27.6175E+06    -508.779E+03    -113.538E-03     225.165E-03    -111.628E-03     92.3432E-03    -114.107E-03     224.996E-03    -111.431E-03     89.6681E-03
            1673     4.83066E-03     48.6689E-03    -62.7465E+06    -180.390E+06    -35.9138E+06    -1.03145E+06    -113.022E-03     224.612E-03    -111.590E-03     79.7766E-03    -113.411E-03     224.242E-03    -111.417E-03     77.5959E-03
            1674     4.02554E-03     48.5868E-03    -66.4745E+06    -191.842E+06    -44.2695E+06    -207.391E+03    -112.582E-03     224.140E-03    -111.558E-03     67.0048E-03    -112.827E-03     223.596E-03    -111.404E-03     65.2810E-03
            1675     3.22048E-03     48.5187E-03    -70.3638E+06    -203.524E+06    -55.1327E+06    -95.3693E+03    -112.203E-03     223.716E-03    -111.513E-03     53.9549E-03    -112.336E-03     223.037E-03    -111.391E-03     52.6315E-03
            1676     2.41541E-03     48.4655E-03    -74.1700E+06    -215.528E+06    -65.5740E+06    -285.051E+03    -111.911E-03     223.376E-03    -111.464E-03     40.7698E-03    -111.960E-03     222.587E-03    -111.372E-03     39.8033E-03
            1677     1.61048E-03     48.4267E-03    -77.2272E+06    -222.867E+06    -72.3677E+06    -300.886E+03    -111.632E-03     223.056E-03    -111.425E-03     27.6027E-03    -111.629E-03     222.198E-03    -111.351E-03     26.9666E-03
            1678     805.218E-06     48.4031E-03    -78.7285E+06    -225.617E+06    -77.0228E+06    -347.035E+03    -111.413E-03     222.854E-03    -111.440E-03     14.9654E-03    -111.380E-03     221.965E-03    -111.384E-03     14.6237E-03
            1679     15.2958E-03     50.1100E-03    -5.07026E+06     121.887E+06     95.4847E+06     244.893E+03    -112.975E-03     224.723E-03    -111.748E-03     200.855E-03    -124.911E-03     236.796E-03    -111.440E-03     195.309E-03
            1680     14.4904E-03     49.8110E-03    -10.5189E+06     117.932E+06     96.6131E+06    -203.093E+03    -118.006E-03     229.773E-03    -111.767E-03     284.222E-03    -135.796E-03     247.664E-03    -111.439E-03     274.150E-03
            1681     13.6874E-03     49.4711E-03    -16.8768E+06     107.717E+06     89.7877E+06    -614.070E+03    -121.151E-03     232.910E-03    -111.759E-03     297.455E-03    -137.505E-03     249.326E-03    -111.442E-03     284.622E-03
            1682     12.8815E-03     49.1463E-03    -22.8948E+06     93.6763E+06     70.4859E+06    -121.503E+03    -120.373E-03     232.072E-03    -111.699E-03     269.081E-03    -132.653E-03     244.399E-03    -111.449E-03     256.594E-03
            1683     12.0755E-03     48.8735E-03    -27.5608E+06     76.4945E+06     39.1730E+06     378.249E+03    -118.078E-03     229.664E-03    -111.586E-03     225.880E-03    -126.192E-03     237.839E-03    -111.462E-03     215.311E-03
            1684     11.2712E-03     48.6470E-03    -31.4064E+06     51.3291E+06     14.7392E+06     153.340E+03    -116.694E-03     228.213E-03    -111.519E-03     192.369E-03    -122.143E-03     233.690E-03    -111.474E-03     183.558E-03
            1685     10.4656E-03     48.4491E-03    -35.3034E+06     845.384E+03     3.58637E+06    -349.626E+03    -116.189E-03     227.734E-03    -111.544E-03     170.753E-03    -120.051E-03     231.463E-03    -111.476E-03     163.280E-03
            1686     9.66107E-03     48.2698E-03    -38.6264E+06    -54.6461E+06    -3.50318E+06    -300.184E+03    -115.946E-03     227.530E-03    -111.584E-03     155.696E-03    -118.762E-03     230.025E-03    -111.466E-03     149.324E-03
            1687     8.85570E-03     48.1042E-03    -41.8284E+06    -89.4744E+06    -7.59185E+06     61.3761E+03    -115.587E-03     227.187E-03    -111.600E-03     142.506E-03    -117.667E-03     228.822E-03    -111.447E-03     137.088E-03
            1688     8.05102E-03     47.9529E-03    -45.2752E+06    -119.846E+06    -9.28485E+06     503.270E+03    -115.144E-03     226.759E-03    -111.616E-03     129.482E-03    -116.674E-03     227.730E-03    -111.423E-03     124.892E-03
            1689     7.24612E-03     47.8154E-03    -49.2328E+06    -132.880E+06    -14.0129E+06     800.611E+03    -114.584E-03     226.173E-03    -111.589E-03     116.958E-03    -115.712E-03     226.695E-03    -111.395E-03     113.103E-03
            1690     6.44115E-03     47.6913E-03    -52.8085E+06    -147.701E+06    -19.5824E+06     703.288E+03    -114.014E-03     225.576E-03    -111.562E-03     104.598E-03    -114.828E-03     225.735E-03    -111.369E-03     101.383E-03
            1691     5.63617E-03     47.5812E-03    -56.7894E+06    -169.861E+06    -26.3453E+06    -119.599E+03    -113.447E-03     224.994E-03    -111.547E-03     92.1221E-03    -114.010E-03     224.828E-03    -111.350E-03     89.4589E-03
            1692     4.83093E-03     47.4848E-03    -61.6463E+06    -180.968E+06    -36.2445E+06    -1.05615E+06    -112.935E-03     224.441E-03    -111.506E-03     79.5471E-03    -113.316E-03     224.066E-03    -111.336E-03     77.3709E-03
            1693     4.02589E-03     47.4024E-03    -65.8298E+06    -192.677E+06    -44.4811E+06    -1.28065E+06    -112.519E-03     223.992E-03    -111.473E-03     66.7569E-03    -112.758E-03     223.443E-03    -111.321E-03     65.0208E-03
            1694     3.22083E-03     47.3346E-03    -69.2575E+06    -204.413E+06    -52.3819E+06    -400.887E+03    -112.140E-03     223.576E-03    -111.437E-03     53.8191E-03    -112.270E-03     222.887E-03    -111.302E-03     52.4932E-03
            1695     2.41573E-03     47.2813E-03    -72.9738E+06    -215.759E+06    -61.7372E+06     569.339E+03    -111.800E-03     223.193E-03    -111.393E-03     40.7697E-03    -111.848E-03     222.395E-03    -111.283E-03     39.8176E-03
            1696     1.61043E-03     47.2430E-03    -76.5157E+06    -221.967E+06    -71.4188E+06     195.523E+03    -111.519E-03     222.870E-03    -111.351E-03     27.6406E-03    -111.515E-03     222.014E-03    -111.275E-03     27.0127E-03
            1697     805.172E-06     47.2195E-03    -78.9309E+06    -226.295E+06    -78.1887E+06    -321.638E+03    -111.415E-03     222.720E-03    -111.304E-03     15.1676E-03    -111.380E-03     221.829E-03    -111.253E-03     14.8249E-03
            1698     15.2986E-03     48.9268E-03    -5.12748E+06     121.821E+06     95.5178E+06    -254.522E+03    -112.828E-03     224.536E-03    -111.708E-03     200.636E-03    -124.696E-03     236.541E-03    -111.400E-03     195.143E-03
            1699     14.4929E-03     48.6265E-03    -10.4041E+06     117.850E+06     96.6969E+06     292.168E+03    -117.486E-03     229.231E-03    -111.745E-03     284.020E-03    -135.192E-03     247.038E-03    -111.418E-03     274.058E-03
            1700     13.6855E-03     48.2850E-03    -16.8175E+06     107.692E+06     89.6116E+06     238.793E+03    -121.034E-03     232.790E-03    -111.756E-03     297.444E-03    -137.367E-03     249.186E-03    -111.440E-03     284.641E-03
            1701     12.8810E-03     47.9609E-03    -23.0203E+06     93.5859E+06     70.1294E+06    -556.278E+03    -120.381E-03     232.078E-03    -111.697E-03     268.526E-03    -132.638E-03     244.383E-03    -111.449E-03     256.035E-03
            1702     12.0768E-03     47.6886E-03    -28.0849E+06     76.1094E+06     38.9441E+06    -365.415E+03    -118.180E-03     229.759E-03    -111.579E-03     225.678E-03    -126.292E-03     237.929E-03    -111.454E-03     215.089E-03
            1703     11.2707E-03     47.4621E-03    -31.8732E+06     51.1884E+06     14.3974E+06     280.604E+03    -116.855E-03     228.354E-03    -111.499E-03     192.300E-03    -122.306E-03     233.832E-03    -111.455E-03     183.477E-03
            1704     10.4661E-03     47.2639E-03    -35.1079E+06     1.47848E+06     4.10441E+06     393.782E+03    -116.340E-03     227.851E-03    -111.512E-03     170.469E-03    -120.196E-03     231.577E-03    -111.442E-03     163.003E-03
            1705     9.66095E-03     47.0847E-03    -38.5314E+06    -54.3749E+06    -2.87553E+06     88.0753E+03    -116.064E-03     227.600E-03    -111.536E-03     155.234E-03    -118.876E-03     230.091E-03    -111.415E-03     148.862E-03
            1706     8.85660E-03     46.9193E-03    -41.6148E+06    -89.7881E+06    -7.84898E+06     170.430E+03    -115.673E-03     227.205E-03    -111.531E-03     142.095E-03    -117.747E-03     228.835E-03    -111.380E-03     136.677E-03
            1707     8.05164E-03     46.7680E-03    -44.7638E+06    -120.316E+06    -9.45300E+06     628.071E+03    -115.148E-03     226.682E-03    -111.534E-03     129.144E-03    -116.670E-03     227.646E-03    -111.342E-03     124.561E-03
            1708     7.24685E-03     46.6309E-03    -47.8389E+06    -132.386E+06    -13.2513E+06     356.481E+03    -114.532E-03     226.033E-03    -111.501E-03     116.697E-03    -115.652E-03     226.552E-03    -111.306E-03     112.842E-03
            1709     6.44179E-03     46.5070E-03    -50.8312E+06    -147.323E+06    -18.9546E+06    -409.927E+03    -113.924E-03     225.394E-03    -111.470E-03     104.390E-03    -114.728E-03     225.549E-03    -111.277E-03     101.167E-03
            1710     5.63662E-03     46.3970E-03    -54.2374E+06    -170.023E+06    -23.4878E+06     243.653E+03    -113.411E-03     224.872E-03    -111.460E-03     91.8695E-03    -113.963E-03     224.696E-03    -111.253E-03     89.2141E-03
            1711     4.83165E-03     46.3007E-03    -59.0856E+06    -179.767E+06    -31.5414E+06     625.805E+03    -112.884E-03     224.301E-03    -111.418E-03     79.3247E-03    -113.259E-03     223.920E-03    -111.229E-03     77.1751E-03
            1712     4.02641E-03     46.2186E-03    -65.2792E+06    -192.297E+06    -43.6340E+06    -238.587E+03    -112.384E-03     223.750E-03    -111.367E-03     66.5997E-03    -112.621E-03     223.200E-03    -111.211E-03     64.8846E-03
            1713     3.22110E-03     46.1508E-03    -70.9688E+06    -205.791E+06    -54.8926E+06    -682.784E+03    -111.973E-03     223.302E-03    -111.329E-03     53.7098E-03    -112.105E-03     222.610E-03    -111.202E-03     52.3873E-03
            1714     2.41579E-03     46.0977E-03    -74.4523E+06    -216.373E+06    -63.1889E+06    -419.015E+03    -111.653E-03     222.960E-03    -111.306E-03     40.6245E-03    -111.705E-03     222.162E-03    -111.200E-03     39.6643E-03
            1715     1.61048E-03     46.0595E-03    -76.6662E+06    -221.514E+06     -70.601E+06     282.269E+03    -111.430E-03     222.715E-03    -111.285E-03     27.4665E-03    -111.429E-03     221.860E-03    -111.206E-03     26.8417E-03
            1716     805.282E-06     46.0357E-03    -79.0723E+06    -225.768E+06    -76.9287E+06     468.522E+03    -111.412E-03     222.589E-03    -111.177E-03     15.0953E-03    -111.380E-03     221.699E-03    -111.120E-03     14.7613E-03
            1717     15.2970E-03     47.7404E-03    -5.08640E+06     121.737E+06     95.1850E+06    -131.635E+03    -112.931E-03     224.627E-03    -111.696E-03     201.112E-03    -124.779E-03     236.613E-03    -111.389E-03     195.607E-03
            1718     14.4915E-03     47.4423E-03    -11.2261E+06     117.036E+06     95.8107E+06    -290.602E+03    -117.721E-03     229.447E-03    -111.726E-03     284.274E-03    -135.416E-03     247.240E-03    -111.401E-03     274.279E-03
            1719     13.6874E-03     47.1005E-03    -16.1944E+06     108.236E+06     90.3265E+06     80.7670E+03    -120.873E-03     232.614E-03    -111.741E-03     297.764E-03    -137.201E-03     249.008E-03    -111.423E-03     284.978E-03
            1720     12.8819E-03     46.7753E-03    -22.3169E+06     94.0786E+06     70.5611E+06     299.115E+03    -120.371E-03     232.060E-03    -111.688E-03     268.697E-03    -132.619E-03     244.357E-03    -111.440E-03     256.218E-03
            1721     12.0756E-03     46.5039E-03    -28.2085E+06     75.8315E+06     38.3295E+06    -140.262E+03    -118.509E-03     230.064E-03    -111.555E-03     225.355E-03    -126.629E-03     238.242E-03    -111.433E-03     214.727E-03
            1722     11.2717E-03     46.2763E-03    -32.1389E+06     50.3236E+06     13.3855E+06    -176.832E+03    -117.088E-03     228.536E-03    -111.449E-03     191.616E-03    -122.528E-03     234.002E-03    -111.408E-03     182.772E-03
            1723     10.4666E-03     46.0791E-03    -35.0352E+06     1.33003E+06     4.18800E+06     532.394E+03    -116.389E-03     227.835E-03    -111.447E-03     169.877E-03    -120.236E-03     231.551E-03    -111.377E-03     162.415E-03
            1724     9.66225E-03     45.8993E-03    -38.1002E+06    -53.6564E+06    -1.25530E+06     759.873E+03    -116.085E-03     227.549E-03    -111.465E-03     154.828E-03    -118.894E-03     230.037E-03    -111.338E-03     148.465E-03
            1725     8.85725E-03     45.7346E-03    -41.8493E+06    -89.8037E+06    -7.46274E+06     600.897E+03    -115.652E-03     227.098E-03    -111.447E-03     141.744E-03    -117.723E-03     228.724E-03    -111.293E-03     136.337E-03
            1726     8.05249E-03     45.5834E-03    -45.2271E+06    -120.014E+06    -10.0930E+06     14.5379E+03    -115.064E-03     226.502E-03    -111.439E-03     128.963E-03    -116.583E-03     227.464E-03    -111.249E-03     124.384E-03
            1727     7.24749E-03     45.4465E-03    -48.6260E+06    -131.784E+06    -13.3310E+06    -572.943E+03    -114.454E-03     225.859E-03    -111.406E-03     116.508E-03    -115.575E-03     226.379E-03    -111.211E-03     112.651E-03
            1728     6.44237E-03     45.3229E-03    -53.3879E+06    -147.595E+06    -19.5828E+06    -169.308E+03    -113.882E-03     225.251E-03    -111.369E-03     104.155E-03    -114.695E-03     225.407E-03    -111.175E-03     100.944E-03
            1729     5.63737E-03     45.2129E-03    -58.9923E+06    -170.487E+06    -26.9013E+06    -275.051E+03    -113.322E-03     224.662E-03    -111.340E-03     91.6888E-03    -113.890E-03     224.493E-03    -111.142E-03     89.0362E-03
            1730     4.83208E-03     45.1169E-03    -63.0580E+06    -179.838E+06    -34.6882E+06    -349.493E+03    -112.768E-03     224.059E-03    -111.292E-03     79.1760E-03    -113.156E-03     223.686E-03    -111.113E-03     77.0226E-03
            1731     4.02683E-03     45.0350E-03    -65.9524E+06    -192.035E+06    -43.9850E+06     290.178E+03    -112.276E-03     223.522E-03    -111.246E-03     66.4140E-03    -112.516E-03     222.973E-03    -111.091E-03     64.7123E-03
            1732     3.22151E-03     44.9673E-03    -69.4790E+06    -205.077E+06    -54.7384E+06     160.890E+03    -111.862E-03     223.065E-03    -111.203E-03     53.4736E-03    -111.987E-03     222.374E-03    -111.078E-03     52.1663E-03
            1733     2.41612E-03     44.9143E-03    -73.8119E+06    -216.807E+06    -64.4584E+06    -394.791E+03    -111.552E-03     222.721E-03    -111.169E-03     40.3997E-03    -111.597E-03     221.922E-03    -111.070E-03     39.4427E-03
            1734     1.61085E-03     44.8759E-03    -77.2731E+06    -222.428E+06    -72.1399E+06    -391.491E+03    -111.315E-03     222.452E-03    -111.137E-03     27.3246E-03    -111.312E-03     221.595E-03    -111.064E-03     26.6935E-03
            1735     805.341E-06     44.8525E-03    -78.7620E+06    -225.318E+06    -77.1056E+06    -186.329E+03    -111.280E-03     222.289E-03    -111.009E-03     15.0803E-03    -111.247E-03     221.401E-03    -110.954E-03     14.7398E-03
            1736     15.2976E-03     46.5555E-03    -4.84668E+06     122.031E+06     95.4041E+06     154.397E+03    -113.027E-03     224.749E-03    -111.723E-03     201.637E-03    -124.901E-03     236.763E-03    -111.416E-03     196.093E-03
            1737     14.4931E-03     46.2566E-03    -10.1142E+06     118.307E+06     96.9488E+06    -315.023E+03    -118.044E-03     229.788E-03    -111.744E-03     284.303E-03    -135.796E-03     247.642E-03    -111.416E-03     274.216E-03
            1738     13.6867E-03     45.9161E-03    -16.8485E+06     107.638E+06     89.7194E+06    -294.677E+03    -121.208E-03     232.944E-03    -111.736E-03     298.244E-03    -137.592E-03     249.390E-03    -111.419E-03     285.399E-03
            1739     12.8805E-03     45.5901E-03    -23.1835E+06     93.2141E+06     69.7460E+06     250.206E+03    -120.875E-03     232.533E-03    -111.657E-03     268.541E-03    -133.123E-03     244.826E-03    -111.410E-03     255.998E-03
            1740     12.0775E-03     45.3173E-03    -27.7026E+06     76.4089E+06     38.9430E+06     102.163E+03    -118.741E-03     230.237E-03    -111.495E-03     224.131E-03    -126.846E-03     238.401E-03    -111.371E-03     213.477E-03
            1741     11.2725E-03     45.0916E-03    -31.3591E+06     50.3106E+06     13.8880E+06    -40.4739E+03    -117.025E-03     228.397E-03    -111.371E-03     191.076E-03    -122.451E-03     233.849E-03    -111.329E-03     182.245E-03
            1742     10.4679E-03     44.8937E-03    -34.3789E+06     614.483E+03     3.48041E+06     146.943E+03    -116.360E-03     227.721E-03    -111.361E-03     169.959E-03    -120.200E-03     231.431E-03    -111.294E-03     162.499E-03
            1743     9.66277E-03     44.7146E-03    -37.3492E+06    -54.9903E+06    -180.198E+03     1.43659E+06    -116.069E-03     227.453E-03    -111.384E-03     154.747E-03    -118.870E-03     229.927E-03    -111.251E-03     148.401E-03
            1744     8.85818E-03     44.5497E-03    -40.9010E+06    -88.5266E+06    -4.85087E+06     1.96056E+06    -115.573E-03     226.939E-03    -111.365E-03     141.493E-03    -117.640E-03     228.560E-03    -111.202E-03     136.115E-03
            1745     8.05320E-03     44.3992E-03    -45.1516E+06    -117.394E+06    -9.74712E+06     218.985E+03    -115.019E-03     226.360E-03    -111.340E-03     128.719E-03    -116.538E-03     227.330E-03    -111.153E-03     124.153E-03
            1746     7.24814E-03     44.2623E-03    -49.5674E+06    -132.581E+06    -14.2293E+06    -452.459E+03    -114.434E-03     225.732E-03    -111.298E-03     116.194E-03    -115.553E-03     226.246E-03    -111.105E-03     112.347E-03
            1747     6.44320E-03     44.1388E-03    -53.3754E+06    -148.209E+06    -19.5841E+06     236.478E+03    -113.827E-03     225.081E-03    -111.253E-03     103.804E-03    -114.635E-03     225.230E-03    -111.059E-03     100.607E-03
            1748     5.63797E-03     44.0293E-03    -56.8471E+06    -169.236E+06    -26.0131E+06     38.0846E+03    -113.229E-03     224.445E-03    -111.216E-03     91.3908E-03    -113.787E-03     224.276E-03    -111.018E-03     88.7504E-03
            1749     4.83273E-03     43.9334E-03    -61.5395E+06    -179.989E+06    -34.6519E+06    -719.688E+03    -112.660E-03     223.821E-03    -111.161E-03     78.9159E-03    -113.038E-03     223.443E-03    -110.984E-03     76.7648E-03
            1750     4.02742E-03     43.8515E-03    -66.7079E+06    -193.171E+06    -44.2793E+06    -678.841E+03    -112.196E-03     223.305E-03    -111.110E-03     66.1977E-03    -112.435E-03     222.751E-03    -110.954E-03     64.4882E-03
            1751     3.22201E-03     43.7842E-03    -70.9910E+06    -204.931E+06    -54.6299E+06     155.949E+03    -111.794E-03     222.843E-03    -111.049E-03     53.2636E-03    -111.926E-03     222.154E-03    -110.922E-03     51.9602E-03
            1752     2.41664E-03     43.7311E-03    -74.2971E+06    -216.214E+06    -64.2803E+06     323.482E+03    -111.437E-03     222.425E-03    -110.988E-03     40.2017E-03    -111.486E-03     221.629E-03    -110.888E-03     39.2578E-03
            1753     1.61100E-03     43.6931E-03    -77.0096E+06    -222.600E+06    -72.7200E+06    -160.845E+03    -111.180E-03     222.100E-03    -110.920E-03     27.1291E-03    -111.174E-03     221.242E-03    -110.849E-03     26.5041E-03
            1754     805.615E-06     43.6694E-03    -79.1722E+06    -225.963E+06    -78.3273E+06    -505.286E+03    -111.007E-03     221.814E-03    -110.807E-03     14.8322E-03    -110.973E-03     220.926E-03    -110.756E-03     14.4910E-03
            1755     15.2957E-03     45.3685E-03    -5.13670E+06     122.184E+06     95.4110E+06     10.7357E+03    -112.845E-03     224.576E-03    -111.731E-03     201.125E-03    -124.704E-03     236.573E-03    -111.423E-03     195.602E-03
            1756     14.4907E-03     45.0700E-03    -10.4521E+06     118.001E+06     96.5820E+06    -249.132E+03    -118.072E-03     229.822E-03    -111.750E-03     283.494E-03    -135.809E-03     247.660E-03    -111.423E-03     273.353E-03
            1757     13.6863E-03     44.7313E-03    -17.2456E+06     107.366E+06     89.3705E+06    -201.851E+03    -122.001E-03     233.708E-03    -111.706E-03     296.842E-03    -138.387E-03     250.154E-03    -111.390E-03     283.862E-03
            1758     12.8836E-03     44.4032E-03    -22.9127E+06     93.6367E+06     70.3469E+06    -233.996E+03    -121.132E-03     232.716E-03    -111.584E-03     267.644E-03    -133.365E-03     244.996E-03    -111.335E-03     255.070E-03
            1759     12.0784E-03     44.1323E-03    -27.7005E+06     76.3733E+06     38.8165E+06    -188.050E+03    -118.389E-03     229.804E-03    -111.415E-03     224.200E-03    -126.472E-03     237.947E-03    -111.291E-03     213.598E-03
            1760     11.2735E-03     43.9065E-03    -31.9567E+06     50.3909E+06     13.2495E+06     144.831E+03    -116.968E-03     228.268E-03    -111.300E-03     191.458E-03    -122.398E-03     233.725E-03    -111.260E-03     182.641E-03
            1761     10.4682E-03     43.7090E-03    -35.5615E+06     266.755E+03     2.54008E+06     276.012E+03    -116.462E-03     227.746E-03    -111.284E-03     170.038E-03    -120.303E-03     231.454E-03    -111.220E-03     162.583E-03
            1762     9.66386E-03     43.5293E-03    -38.5888E+06    -57.1771E+06    -1.37170E+06     822.480E+03    -116.084E-03     227.381E-03    -111.298E-03     154.490E-03    -118.878E-03     229.840E-03    -111.166E-03     148.147E-03
            1763     8.85890E-03     43.3655E-03    -40.8147E+06    -87.7567E+06    -4.41959E+06     1.39400E+06    -115.580E-03     226.850E-03    -111.270E-03     141.122E-03    -117.642E-03     228.468E-03    -111.105E-03     135.743E-03
            1764     8.05395E-03     43.2147E-03    -43.5924E+06    -115.114E+06    -7.99656E+06     1.40591E+06    -115.031E-03     226.265E-03    -111.234E-03     128.294E-03    -116.543E-03     227.237E-03    -111.044E-03     123.749E-03
            1765     7.24926E-03     43.0783E-03    -47.7746E+06    -132.318E+06    -13.1748E+06     718.392E+03    -114.392E-03     225.571E-03    -111.179E-03     115.810E-03    -115.500E-03     226.077E-03    -110.983E-03     111.989E-03
            1766     6.44398E-03     42.9551E-03    -52.3323E+06    -148.211E+06    -19.3979E+06    -175.959E+03    -113.752E-03     224.873E-03    -111.121E-03     103.505E-03    -114.551E-03     225.016E-03    -110.927E-03     100.312E-03
            1767     5.63884E-03     42.8457E-03    -56.7887E+06    -168.946E+06    -25.5734E+06    -267.003E+03    -113.157E-03     224.232E-03    -111.075E-03     91.0479E-03    -113.713E-03     224.061E-03    -110.876E-03     88.4112E-03
            1768     4.83347E-03     42.7501E-03    -61.1013E+06    -179.155E+06    -34.0623E+06    -85.7585E+03    -112.584E-03     223.590E-03    -111.006E-03     78.5692E-03    -112.960E-03     223.212E-03    -110.828E-03     76.4337E-03
            1769     4.02797E-03     42.6685E-03    -65.7220E+06    -193.999E+06    -43.2171E+06    -192.740E+03    -112.110E-03     223.051E-03    -110.941E-03     65.8535E-03    -112.343E-03     222.488E-03    -110.781E-03     64.1574E-03
            1770     3.22262E-03     42.6010E-03    -70.3078E+06    -205.633E+06    -53.3610E+06    -61.5467E+03    -111.679E-03     222.540E-03    -110.861E-03     52.9076E-03    -111.807E-03     221.843E-03    -110.728E-03     51.6070E-03
            1771     2.41707E-03     42.5486E-03    -74.1930E+06    -215.696E+06    -63.5939E+06     152.062E+03    -111.297E-03     222.069E-03    -110.771E-03     39.9333E-03    -111.347E-03     221.273E-03    -110.669E-03     38.9904E-03
            1772     1.61164E-03     42.5103E-03    -77.2632E+06    -222.250E+06    -71.8559E+06     120.549E+03    -110.993E-03     221.665E-03    -110.673E-03     26.9749E-03    -110.990E-03     220.808E-03    -110.598E-03     26.3567E-03
            1773     805.944E-06     42.4872E-03    -79.5708E+06    -226.217E+06    -77.8999E+06     353.042E+03    -110.685E-03     221.275E-03    -110.590E-03     14.5189E-03    -110.653E-03     220.385E-03    -110.536E-03     14.1925E-03
            1774     15.2990E-03     44.1858E-03    -5.24643E+06     122.175E+06     95.3975E+06    -146.044E+03    -113.232E-03     224.919E-03    -111.687E-03     199.896E-03    -125.041E-03     236.867E-03    -111.380E-03     194.318E-03
            1775     14.4924E-03     43.8856E-03    -10.8329E+06     117.477E+06     96.2654E+06    -94.3041E+03    -118.359E-03     230.039E-03    -111.679E-03     282.380E-03    -136.004E-03     247.783E-03    -111.352E-03     272.221E-03
            1776     13.6891E-03     43.5429E-03    -16.6186E+06     107.878E+06     90.0131E+06    -76.1560E+03    -121.845E-03     233.472E-03    -111.627E-03     296.553E-03    -138.173E-03     249.864E-03    -111.310E-03     283.609E-03
            1777     12.8840E-03     43.2187E-03    -22.5231E+06     94.0661E+06     70.5811E+06    -127.427E+03    -120.672E-03     232.192E-03    -111.520E-03     268.148E-03    -132.901E-03     244.470E-03    -111.271E-03     255.651E-03
            1778     12.0786E-03     42.9474E-03    -28.4286E+06     75.6801E+06     38.0351E+06     139.997E+03    -118.412E-03     229.777E-03    -111.365E-03     224.761E-03    -126.487E-03     237.909E-03    -111.243E-03     214.189E-03
            1779     11.2734E-03     42.7213E-03    -32.4876E+06     50.3624E+06     13.1119E+06     319.395E+03    -117.234E-03     228.474E-03    -111.240E-03     191.108E-03    -122.664E-03     233.929E-03    -111.200E-03     182.272E-03
            1780     10.4694E-03     42.5236E-03    -35.2613E+06     178.838E+03     2.89228E+06     425.921E+03    -116.551E-03     227.755E-03    -111.204E-03     169.495E-03    -120.382E-03     231.453E-03    -111.138E-03     162.042E-03
            1781     9.66448E-03     42.3449E-03    -37.9098E+06    -57.9363E+06    -1.22637E+06     463.643E+03    -116.107E-03     227.310E-03    -111.202E-03     154.079E-03    -118.890E-03     229.755E-03    -111.069E-03     147.738E-03
            1782     8.85991E-03     42.1807E-03    -41.2659E+06    -88.0050E+06    -4.61421E+06     596.592E+03    -115.612E-03     226.771E-03    -111.160E-03     140.711E-03    -117.669E-03     228.383E-03    -110.995E-03     135.329E-03
            1783     8.05529E-03     42.0306E-03    -44.6931E+06    -114.757E+06    -8.10974E+06     881.297E+03    -114.997E-03     226.108E-03    -111.111E-03     127.957E-03    -116.509E-03     227.077E-03    -110.920E-03     123.417E-03
            1784     7.24999E-03     41.8945E-03    -47.9150E+06    -131.202E+06    -12.6838E+06     804.846E+03    -114.345E-03     225.389E-03    -111.044E-03     115.454E-03    -115.451E-03     225.895E-03    -110.847E-03     111.645E-03
            1785     6.44496E-03     41.7715E-03    -51.7440E+06    -147.199E+06    -18.6726E+06     397.372E+03    -113.730E-03     224.701E-03    -110.971E-03     103.054E-03    -114.524E-03     224.843E-03    -110.776E-03     99.8785E-03
            1786     5.63970E-03     41.6625E-03    -56.2693E+06    -169.064E+06    -25.1180E+06    -42.5878E+03    -113.133E-03     224.037E-03    -110.904E-03     90.5298E-03    -113.683E-03     223.860E-03    -110.702E-03     87.9038E-03
            1787     4.83435E-03     41.5672E-03    -61.0211E+06    -179.273E+06    -33.5061E+06    -81.9508E+03    -112.537E-03     223.345E-03    -110.808E-03     78.0360E-03    -112.910E-03     222.963E-03    -110.628E-03     75.9076E-03
            1788     4.02908E-03     41.4856E-03    -65.8230E+06    -193.953E+06    -43.0605E+06     73.5824E+03    -111.964E-03     222.681E-03    -110.717E-03     65.3769E-03    -112.196E-03     222.116E-03    -110.556E-03     63.6929E-03
            1789     3.22342E-03     41.4186E-03    -70.2607E+06    -205.863E+06    -53.3749E+06     35.6901E+03    -111.448E-03     222.073E-03    -110.624E-03     52.5689E-03    -111.575E-03     221.373E-03    -110.491E-03     51.2775E-03
            1790     2.41779E-03     41.3661E-03    -74.0639E+06    -215.677E+06    -63.2613E+06     76.7163E+03    -111.049E-03     221.583E-03    -110.534E-03     39.7346E-03    -111.097E-03     220.787E-03    -110.431E-03     38.7971E-03
            1791     1.61187E-03     41.3284E-03    -77.1799E+06    -222.130E+06    -71.7344E+06     152.251E+03    -110.703E-03     221.156E-03    -110.453E-03     26.8535E-03    -110.700E-03     220.299E-03    -110.377E-03     26.2390E-03
            1792     805.949E-06     41.3053E-03    -79.1670E+06    -225.838E+06    -77.5864E+06     253.075E+03    -110.446E-03     220.869E-03    -110.423E-03     14.3879E-03    -110.413E-03     219.980E-03    -110.369E-03     14.0617E-03
            1793     15.2970E-03     42.9971E-03    -5.36922E+06     121.828E+06     95.0544E+06    -324.469E+03    -113.951E-03     225.590E-03    -111.640E-03     200.539E-03    -125.797E-03     237.574E-03    -111.333E-03     194.839E-03
            1794     14.4956E-03     42.7007E-03    -10.7031E+06     117.757E+06     96.5725E+06    -63.9998E+03    -118.700E-03     230.307E-03    -111.607E-03     283.406E-03    -136.370E-03     248.077E-03    -111.280E-03     273.245E-03
            1795     13.6890E-03     42.3581E-03    -16.3653E+06     108.153E+06     90.4366E+06     207.288E+03    -121.334E-03     232.904E-03    -111.569E-03     297.581E-03    -137.627E-03     249.260E-03    -111.250E-03     284.761E-03
            1796     12.8834E-03     42.0337E-03    -23.2310E+06     93.3547E+06     69.8714E+06     460.293E+03    -120.622E-03     232.101E-03    -111.479E-03     267.793E-03    -132.815E-03     244.341E-03    -111.231E-03     255.327E-03
            1797     12.0789E-03     41.7618E-03    -28.5052E+06     75.7686E+06     38.4066E+06     443.406E+03    -118.793E-03     230.102E-03    -111.309E-03     224.106E-03    -126.865E-03     238.231E-03    -111.186E-03     213.496E-03
            1798     11.2754E-03     41.5356E-03    -32.0396E+06     50.7008E+06     13.8206E+06     167.684E+03    -117.323E-03     228.483E-03    -111.159E-03     190.568E-03    -122.742E-03     233.927E-03    -111.117E-03     181.727E-03
            1799     10.4703E-03     41.3391E-03    -35.1413E+06     51.0695E+03     2.96735E+06     140.569E+03    -116.580E-03     227.687E-03    -111.107E-03     169.160E-03    -120.404E-03     231.378E-03    -111.042E-03     161.707E-03
            1800     9.66580E-03     41.1600E-03    -38.2627E+06    -57.9983E+06    -1.27101E+06     343.271E+03    -116.163E-03     227.255E-03    -111.092E-03     153.722E-03    -118.938E-03     229.692E-03    -110.959E-03     147.388E-03
            1801     8.86110E-03     40.9964E-03    -41.1836E+06    -88.2028E+06    -4.60154E+06     448.538E+03    -115.610E-03     226.645E-03    -111.034E-03     140.243E-03    -117.657E-03     228.246E-03    -110.870E-03     134.872E-03
            1802     8.05593E-03     40.8467E-03    -44.2462E+06    -114.885E+06    -7.85819E+06     336.985E+03    -115.013E-03     225.982E-03    -110.969E-03     127.390E-03    -116.515E-03     226.942E-03    -110.778E-03     122.853E-03
            1803     7.25129E-03     40.7107E-03    -47.9301E+06    -130.754E+06    -12.1869E+06     373.085E+03    -114.375E-03     225.256E-03    -110.881E-03     114.805E-03    -115.475E-03     225.757E-03    -110.683E-03     110.998E-03
            1804     6.44613E-03     40.5882E-03    -51.9743E+06    -146.474E+06    -18.0940E+06     390.748E+03    -113.724E-03     224.505E-03    -110.781E-03     102.377E-03    -114.516E-03     224.645E-03    -110.584E-03     99.2099E-03
            1805     5.64100E-03     40.4795E-03    -56.3509E+06    -168.582E+06    -24.5155E+06     183.072E+03    -113.084E-03     223.770E-03    -110.685E-03     89.9021E-03    -113.632E-03     223.590E-03    -110.482E-03     87.2889E-03
            1806     4.83575E-03     40.3844E-03    -61.0794E+06    -179.415E+06    -33.0585E+06     127.506E+03    -112.392E-03     222.957E-03    -110.565E-03     77.5091E-03    -112.763E-03     222.570E-03    -110.382E-03     75.3949E-03
            1807     4.03005E-03     40.3035E-03    -65.6097E+06    -193.972E+06    -42.5654E+06     135.705E+03    -111.729E-03     222.188E-03    -110.459E-03     64.9865E-03    -111.958E-03     221.620E-03    -110.296E-03     63.3148E-03
            1808     3.22429E-03     40.2368E-03    -69.9911E+06    -205.816E+06    -53.2037E+06     101.920E+03    -111.180E-03     221.541E-03    -110.361E-03     52.2873E-03    -111.304E-03     220.840E-03    -110.227E-03     51.0063E-03
            1809     2.41824E-03     40.1845E-03    -73.8888E+06    -215.714E+06    -63.3979E+06     84.0184E+03    -110.746E-03     221.022E-03    -110.276E-03     39.4294E-03    -110.793E-03     220.224E-03    -110.173E-03     38.4990E-03
            1810     1.61229E-03     40.1470E-03    -76.9761E+06    -221.966E+06    -71.6906E+06     9.30933E+03    -110.396E-03     220.615E-03    -110.219E-03     26.5248E-03    -110.392E-03     219.758E-03    -110.144E-03     25.9116E-03
            1811     806.070E-06     40.1242E-03    -78.9344E+06    -225.531E+06    -77.4639E+06    -131.599E+03    -110.235E-03     220.434E-03    -110.199E-03     14.2824E-03    -110.201E-03     219.546E-03    -110.145E-03     13.9519E-03
            1812     15.2999E-03     41.8105E-03    -4.72144E+06     122.568E+06     95.8691E+06     192.376E+03    -113.848E-03     225.483E-03    -111.635E-03     201.072E-03    -125.705E-03     237.480E-03    -111.326E-03     195.390E-03
            1813     14.4931E-03     41.5137E-03    -10.9506E+06     117.779E+06     96.2860E+06    -219.565E+03    -118.692E-03     230.296E-03    -111.604E-03     283.824E-03    -136.459E-03     248.163E-03    -111.277E-03     273.598E-03
            1814     13.6896E-03     41.1737E-03    -17.8100E+06     106.651E+06     88.9331E+06    -381.800E+03    -121.968E-03     233.505E-03    -111.537E-03     296.644E-03    -138.286E-03     249.880E-03    -111.221E-03     283.712E-03
            1815     12.8851E-03     40.8483E-03    -23.3635E+06     93.0091E+06     70.2695E+06     269.983E+03    -120.961E-03     232.375E-03    -111.414E-03     267.519E-03    -133.126E-03     244.584E-03    -111.164E-03     255.026E-03
            1816     12.0810E-03     40.5760E-03    -27.9125E+06     76.3499E+06     39.2721E+06     390.872E+03    -118.771E-03     230.001E-03    -111.230E-03     224.141E-03    -126.837E-03     238.125E-03    -111.104E-03     213.532E-03
            1817     11.2755E-03     40.3507E-03    -31.7475E+06     50.6278E+06     13.8524E+06         123.430    -117.364E-03     228.435E-03    -111.071E-03     190.565E-03    -122.773E-03     233.871E-03    -111.029E-03     181.729E-03
            1818     10.4714E-03     40.1538E-03    -34.5618E+06    -29.3545E+03     3.60852E+06     301.991E+03    -116.739E-03     227.746E-03    -111.006E-03     168.750E-03    -120.551E-03     231.424E-03    -110.938E-03     161.299E-03
            1819     9.66685E-03     39.9755E-03    -37.4604E+06    -57.6148E+06    -494.961E+03     401.053E+03    -116.256E-03     227.225E-03    -110.969E-03     153.171E-03    -119.017E-03     229.650E-03    -110.834E-03     146.847E-03
            1820     8.86217E-03     39.8122E-03    -40.5761E+06    -87.9017E+06    -3.96435E+06     13.0498E+03    -115.740E-03     226.626E-03    -110.886E-03     139.599E-03    -117.775E-03     228.217E-03    -110.719E-03     134.229E-03
            1821     8.05781E-03     39.6627E-03    -43.9928E+06    -115.054E+06    -7.26246E+06     113.998E+03    -115.130E-03     225.919E-03    -110.789E-03     126.518E-03    -116.623E-03     226.869E-03    -110.595E-03     121.982E-03
            1822     7.25273E-03     39.5273E-03    -47.6904E+06    -130.792E+06    -11.6991E+06     255.515E+03    -114.385E-03     225.051E-03    -110.667E-03     113.964E-03    -115.477E-03     225.544E-03    -110.466E-03     110.167E-03
            1823     6.44777E-03     39.4051E-03    -51.6448E+06    -146.277E+06    -17.5575E+06     218.492E+03    -113.646E-03     224.184E-03    -110.538E-03     101.610E-03    -114.431E-03     224.317E-03    -110.339E-03     98.4547E-03
            1824     5.64254E-03     39.2968E-03    -56.0202E+06    -168.319E+06    -24.1693E+06     327.098E+03    -112.886E-03     223.307E-03    -110.421E-03     89.2522E-03    -113.427E-03     223.122E-03    -110.217E-03     86.6590E-03
            1825     4.83692E-03     39.2024E-03    -60.7642E+06    -179.241E+06    -32.7398E+06     279.050E+03    -112.127E-03     222.419E-03    -110.292E-03     76.9739E-03    -112.493E-03     222.028E-03    -110.108E-03     74.8785E-03
            1826     4.03122E-03     39.1219E-03    -65.5196E+06    -193.964E+06    -42.3386E+06     181.827E+03    -111.484E-03     221.662E-03    -110.178E-03     64.5122E-03    -111.711E-03     221.091E-03    -110.014E-03     62.8524E-03
            1827     3.22516E-03     39.0555E-03    -69.9505E+06    -205.668E+06    -53.2324E+06     149.618E+03    -110.929E-03     220.994E-03    -110.066E-03     51.8527E-03    -111.051E-03     220.292E-03    -109.932E-03     50.5808E-03
            1828     2.41916E-03     39.0036E-03    -73.6593E+06    -215.564E+06    -63.6000E+06     51.6213E+03    -110.440E-03     220.412E-03    -109.972E-03     39.0402E-03    -110.485E-03     219.614E-03    -109.871E-03     38.1157E-03
            1829     1.61273E-03     38.9664E-03    -76.4794E+06    -221.907E+06    -72.0248E+06     32.5495E+03    -110.083E-03     219.999E-03    -109.917E-03     26.3124E-03    -110.075E-03     219.142E-03    -109.844E-03     25.7057E-03
            1830     806.413E-06     38.9436E-03    -78.4476E+06    -225.387E+06    -77.2971E+06    -89.8610E+03    -109.945E-03     219.844E-03    -109.899E-03     14.3750E-03    -109.909E-03     218.955E-03    -109.845E-03     14.0488E-03
            1831     15.2977E-03     40.6295E-03    -4.83585E+06     122.381E+06     95.7560E+06     352.895E+03    -113.864E-03     225.513E-03    -111.649E-03     200.943E-03    -125.702E-03     237.491E-03    -111.341E-03     195.234E-03
            1832     14.4935E-03     40.3243E-03    -10.6103E+06     118.080E+06     96.6348E+06     423.061E+03    -119.182E-03     230.789E-03    -111.607E-03     283.750E-03    -136.934E-03     248.643E-03    -111.280E-03     273.456E-03
            1833     13.6904E-03     39.9878E-03    -16.6962E+06     107.226E+06     89.7451E+06     173.246E+03    -122.317E-03     233.829E-03    -111.512E-03     295.683E-03    -138.620E-03     250.193E-03    -111.194E-03     282.705E-03
            1834     12.8862E-03     39.6628E-03    -22.9673E+06     93.2916E+06     70.4546E+06    -98.7838E+03    -121.252E-03     232.615E-03    -111.363E-03     268.206E-03    -133.449E-03     244.858E-03    -111.113E-03     255.673E-03
            1835     12.0806E-03     39.3911E-03    -28.3318E+06     76.2653E+06     39.0762E+06    -219.845E+03    -119.089E-03     230.249E-03    -111.160E-03     224.448E-03    -127.147E-03     238.364E-03    -111.034E-03     213.817E-03
            1836     11.2770E-03     39.1651E-03    -31.5508E+06     50.6202E+06     14.8005E+06    -252.486E+03    -117.678E-03     228.655E-03    -110.978E-03     189.894E-03    -123.074E-03     234.077E-03    -110.932E-03     181.037E-03
            1837     10.4727E-03     38.9686E-03    -34.3133E+06    -778.923E+03     3.96064E+06    -187.245E+03    -116.878E-03     227.760E-03    -110.882E-03     167.921E-03    -120.672E-03     231.417E-03    -110.811E-03     160.466E-03
            1838     9.66831E-03     38.7911E-03    -36.8630E+06    -57.3495E+06    -327.470E+03     162.398E+03    -116.440E-03     227.252E-03    -110.812E-03     152.327E-03    -119.186E-03     229.664E-03    -110.677E-03     146.001E-03
            1839     8.86403E-03     38.6276E-03    -39.8579E+06    -87.2887E+06    -2.88301E+06     232.465E+03    -115.895E-03     226.592E-03    -110.697E-03     138.736E-03    -117.918E-03     228.172E-03    -110.527E-03     133.375E-03
            1840     8.05939E-03     38.4790E-03    -43.5957E+06    -115.246E+06    -6.72673E+06      93.631E+03    -115.198E-03     225.762E-03    -110.563E-03     125.678E-03    -116.680E-03     226.699E-03    -110.367E-03     121.153E-03
            1841     7.25487E-03     38.3442E-03    -47.4380E+06    -130.652E+06    -11.7741E+06     168.947E+03    -114.364E-03     224.768E-03    -110.404E-03     113.179E-03    -115.447E-03     225.253E-03    -110.205E-03     109.397E-03
            1842     6.44971E-03     38.2224E-03    -51.5338E+06    -146.341E+06    -17.8331E+06     216.338E+03    -113.469E-03     223.719E-03    -110.250E-03     100.884E-03    -114.245E-03     223.845E-03    -110.052E-03     97.7501E-03
            1843     5.64425E-03     38.1149E-03    -55.8926E+06    -168.338E+06    -24.5966E+06     349.234E+03    -112.632E-03     222.749E-03    -110.117E-03     88.5337E-03    -113.166E-03     222.558E-03    -109.915E-03     85.9622E-03
            1844     4.83848E-03     38.0209E-03    -60.4078E+06    -179.085E+06    -33.0281E+06     507.710E+03    -111.855E-03     221.832E-03    -109.977E-03     76.2699E-03    -112.215E-03     221.437E-03    -109.795E-03     74.1945E-03
            1845     4.03243E-03     37.9409E-03    -65.2248E+06    -193.658E+06    -41.9653E+06     467.289E+03    -111.193E-03     221.048E-03    -109.855E-03     63.9148E-03    -111.416E-03     220.474E-03    -109.689E-03     62.2713E-03
            1846     3.22637E-03     37.8750E-03    -69.7150E+06    -205.268E+06    -52.8801E+06     120.393E+03    -110.606E-03     220.340E-03    -109.734E-03     51.4051E-03    -110.726E-03     219.638E-03    -109.600E-03     50.1431E-03
            1847     2.41984E-03     37.8235E-03    -73.4637E+06    -215.593E+06    -63.9622E+06     22.6127E+03    -110.111E-03     219.743E-03    -109.633E-03     38.7107E-03    -110.153E-03     218.945E-03    -109.533E-03     37.7943E-03
            1848     1.61333E-03     37.7866E-03    -76.2320E+06    -221.793E+06    -71.8043E+06     205.969E+03    -109.757E-03     219.329E-03    -109.572E-03     26.1315E-03    -109.749E-03     218.471E-03    -109.499E-03     25.5335E-03
            1849     806.568E-06     37.7636E-03    -77.9824E+06    -225.099E+06    -76.8736E+06     248.156E+03    -109.590E-03     219.144E-03    -109.554E-03     14.3465E-03    -109.553E-03     218.255E-03    -109.499E-03     14.0304E-03
            1850     15.2975E-03     39.4388E-03    -5.19019E+06     121.815E+06     94.9615E+06     64.9515E+03    -114.295E-03     225.928E-03    -111.633E-03     199.918E-03    -126.102E-03     237.873E-03    -111.327E-03     194.138E-03
            1851     14.4950E-03     39.1396E-03    -10.7600E+06     117.756E+06     96.1920E+06     231.761E+03    -119.056E-03     230.636E-03    -111.581E-03     283.299E-03    -136.698E-03     248.380E-03    -111.255E-03     273.052E-03
            1852     13.6897E-03     38.7995E-03    -16.1687E+06     107.455E+06     90.4607E+06     588.365E+03    -122.229E-03     233.728E-03    -111.499E-03     295.959E-03    -138.474E-03     250.035E-03    -111.179E-03     283.013E-03
            1853     12.8853E-03     38.4779E-03    -22.3609E+06     93.9884E+06     71.3121E+06     399.940E+03    -121.893E-03     233.222E-03    -111.329E-03     267.041E-03    -134.093E-03     245.470E-03    -111.076E-03     254.418E-03
            1854     12.0822E-03     38.2042E-03    -27.5625E+06     77.2703E+06      39.993E+06    -191.838E+03    -119.638E-03     230.711E-03    -111.073E-03     223.426E-03    -127.673E-03     238.806E-03    -110.945E-03     212.753E-03
            1855     11.2785E-03     37.9795E-03    -31.8638E+06     50.4199E+06     14.7899E+06    -562.878E+03    -117.925E-03     228.773E-03    -110.848E-03     188.993E-03    -123.304E-03     234.175E-03    -110.801E-03     180.123E-03
            1856     10.4743E-03     37.7839E-03    -35.6161E+06    -1.04061E+06     3.72703E+06    -250.050E+03    -117.121E-03     227.839E-03    -110.717E-03     167.049E-03    -120.904E-03     231.481E-03    -110.645E-03     159.593E-03
            1857     9.67030E-03     37.6059E-03    -38.9019E+06    -56.4718E+06    -2.57243E+06    -634.153E+03    -116.629E-03     227.228E-03    -110.598E-03     151.386E-03    -119.366E-03     229.633E-03    -110.473E-03     145.061E-03
            1858     8.86617E-03     37.4438E-03    -41.4572E+06    -88.2945E+06    -5.88776E+06    -999.758E+03    -115.927E-03     226.374E-03    -110.447E-03     137.751E-03    -117.938E-03     227.941E-03    -110.288E-03     132.391E-03
            1859     8.06168E-03     37.2953E-03    -43.9026E+06    -116.247E+06    -7.44759E+06    -111.148E+03    -115.110E-03     225.405E-03    -110.296E-03     124.811E-03    -116.577E-03     226.326E-03    -110.101E-03     120.309E-03
            1860     7.25687E-03     37.1612E-03    -47.5403E+06    -130.277E+06    -12.1814E+06     274.494E+03    -114.234E-03     224.347E-03    -110.113E-03     112.364E-03    -115.308E-03     224.824E-03    -109.916E-03     108.604E-03
            1861     6.45169E-03     37.0406E-03    -51.7487E+06    -146.184E+06    -18.1227E+06     309.611E+03    -113.322E-03     223.257E-03    -109.935E-03     100.110E-03    -114.091E-03     223.376E-03    -109.739E-03     96.9976E-03
            1862     5.64612E-03     36.9335E-03    -56.0756E+06    -168.064E+06    -24.6594E+06     277.059E+03    -112.443E-03     222.220E-03    -109.777E-03     87.7273E-03    -112.971E-03     222.024E-03    -109.575E-03     85.1730E-03
            1863     4.84027E-03     36.8403E-03    -60.2600E+06    -179.389E+06    -33.6018E+06     160.296E+03    -111.596E-03     221.205E-03    -109.609E-03     75.5098E-03    -111.949E-03     220.805E-03    -109.430E-03     73.4459E-03
            1864     4.03408E-03     36.7607E-03    -63.9474E+06    -193.321E+06    -42.3400E+06     260.061E+03    -110.833E-03     220.304E-03    -109.471E-03     63.2450E-03    -111.046E-03     219.727E-03    -109.310E-03     61.6151E-03
            1865     3.22741E-03     36.6952E-03    -67.9786E+06    -205.251E+06    -51.9276E+06     484.435E+03    -110.206E-03     219.560E-03    -109.354E-03     50.8179E-03    -110.317E-03     218.852E-03    -109.217E-03     49.5726E-03
            1866     2.42080E-03     36.6442E-03    -72.2665E+06    -215.473E+06    -62.3286E+06     719.798E+03    -109.750E-03     219.002E-03    -109.252E-03     38.2470E-03    -109.788E-03     218.199E-03    -109.146E-03     37.3466E-03
            1867     1.61393E-03     36.6074E-03    -75.8532E+06    -221.094E+06    -70.7634E+06     483.118E+03    -109.416E-03     218.579E-03    -109.164E-03     25.8091E-03    -109.407E-03     217.722E-03    -109.087E-03     25.2192E-03
            1868     807.075E-06     36.5848E-03    -78.0476E+06    -224.558E+06    -76.2967E+06     344.378E+03    -109.252E-03     218.282E-03    -109.030E-03     14.1690E-03    -109.216E-03     217.395E-03    -108.973E-03     13.8571E-03
            1869     15.3007E-03     38.2519E-03    -4.77102E+06     122.674E+06     95.8635E+06    -40.8805E+03    -114.781E-03     226.405E-03    -111.624E-03     200.853E-03    -126.567E-03     238.332E-03    -111.316E-03     195.048E-03
            1870     14.4945E-03     37.9545E-03    -10.1893E+06     118.276E+06     96.9279E+06     641.597E+03    -119.291E-03     230.844E-03    -111.553E-03     282.732E-03    -136.828E-03     248.484E-03    -111.225E-03     272.476E-03
            1871     13.6897E-03     37.6136E-03    -17.2245E+06     106.311E+06     89.2572E+06     278.335E+03    -122.692E-03     234.134E-03    -111.442E-03     295.185E-03    -138.872E-03     250.372E-03    -111.125E-03     282.174E-03
            1872     12.8876E-03     37.2892E-03    -22.6067E+06     93.8642E+06     71.3528E+06    -277.685E+03    -122.252E-03     233.491E-03    -111.239E-03     265.657E-03    -134.412E-03     245.697E-03    -110.985E-03     252.976E-03
            1873     12.0842E-03     37.0193E-03    -27.1177E+06     77.7370E+06     40.4895E+06     55.8686E+03    -119.958E-03     230.902E-03    -110.944E-03     222.514E-03    -127.981E-03     238.988E-03    -110.815E-03     211.812E-03
            1874     11.2798E-03     36.7934E-03    -31.5042E+06     50.1016E+06     14.4592E+06     276.615E+03    -118.241E-03     228.920E-03    -110.678E-03     188.037E-03    -123.591E-03     234.294E-03    -110.633E-03     179.175E-03
            1875     10.4767E-03     36.5987E-03    -34.8272E+06    -453.807E+03     3.81898E+06     326.986E+03    -117.380E-03     227.886E-03    -110.506E-03     165.827E-03    -121.138E-03     231.508E-03    -110.436E-03     158.380E-03
            1876     9.67280E-03     36.4214E-03    -37.7141E+06    -54.7945E+06    -2.37864E+06    -486.043E+03    -116.675E-03     227.023E-03    -110.349E-03     150.413E-03    -119.390E-03     229.417E-03    -110.226E-03     144.109E-03
            1877     8.86865E-03     36.2599E-03    -41.1595E+06    -88.6782E+06    -6.59175E+06    -1.18487E+06    -115.900E-03     226.068E-03    -110.168E-03     136.823E-03    -117.892E-03     227.618E-03    -110.013E-03     131.484E-03
            1878     8.06414E-03     36.1124E-03    -45.0049E+06    -117.869E+06    -8.84610E+06    -754.103E+03    -115.012E-03     225.002E-03    -109.990E-03     123.831E-03    -116.467E-03     225.905E-03    -109.798E-03     119.344E-03
            1879     7.25911E-03     35.9791E-03    -48.3313E+06    -130.473E+06    -12.7434E+06    -129.251E+03    -114.048E-03     223.831E-03    -109.783E-03     111.289E-03    -115.112E-03     224.298E-03    -109.588E-03     107.550E-03
            1880     6.45388E-03     35.8589E-03    -51.9038E+06    -146.053E+06    -17.9617E+06     92.2437E+03    -113.138E-03     222.721E-03    -109.583E-03     99.0182E-03    -113.899E-03     222.831E-03    -109.385E-03     95.9244E-03
            1881     5.64837E-03     35.7529E-03    -56.1114E+06    -167.894E+06    -24.6338E+06     98.8821E+03    -112.215E-03     221.610E-03    -109.395E-03     86.7957E-03    -112.738E-03     221.409E-03    -109.193E-03     84.2588E-03
            1882     4.84226E-03     35.6603E-03    -60.6385E+06    -179.569E+06    -33.9028E+06    -20.4236E+03    -111.313E-03     220.512E-03    -109.199E-03     74.6978E-03    -111.662E-03     220.107E-03    -109.020E-03     72.6492E-03
            1883     4.03578E-03     35.5816E-03    -65.5009E+06    -193.430E+06    -44.4875E+06     168.760E+03    -110.494E-03     219.520E-03    -109.026E-03     62.4771E-03    -110.709E-03     218.945E-03    -108.873E-03     60.8614E-03
            1884     3.22905E-03     35.5166E-03    -69.7214E+06    -205.355E+06    -54.1943E+06     444.524E+03    -109.794E-03     218.681E-03    -108.887E-03     50.1586E-03    -109.908E-03     217.975E-03    -108.759E-03     48.9263E-03
            1885     2.42190E-03     35.4657E-03    -73.0019E+06    -215.301E+06    -61.4951E+06     475.950E+03    -109.280E-03     218.067E-03    -108.788E-03     37.7783E-03    -109.321E-03     217.263E-03    -108.677E-03     36.8846E-03
            1886     1.61477E-03     35.4293E-03    -75.7843E+06    -220.116E+06    -69.3772E+06     372.940E+03    -108.931E-03     217.630E-03    -108.699E-03     25.5457E-03    -108.925E-03     216.776E-03    -108.617E-03     24.9607E-03
            1887     807.435E-06     35.4068E-03    -77.9250E+06    -224.124E+06    -76.0804E+06    -120.082E+03    -108.853E-03     217.345E-03    -108.492E-03     14.1293E-03    -108.817E-03     216.460E-03    -108.435E-03     13.8114E-03
            1888     15.2960E-03     37.0623E-03    -5.34529E+06     122.134E+06     95.2600E+06    -324.229E+03    -115.121E-03     226.742E-03    -111.621E-03     199.920E-03    -126.836E-03     238.595E-03    -111.314E-03     194.014E-03
            1889     14.4952E-03     36.7673E-03    -10.7773E+06     117.762E+06     96.7316E+06     43.3702E+03    -120.255E-03     231.760E-03    -111.505E-03     280.896E-03    -137.715E-03     249.320E-03    -111.177E-03     270.489E-03
            1890     13.6934E-03     36.4269E-03    -16.0524E+06     107.451E+06     90.6715E+06     478.968E+03    -123.240E-03     234.583E-03    -111.343E-03     294.986E-03    -139.421E-03     250.826E-03    -111.022E-03     281.912E-03
            1891     12.8886E-03     36.1031E-03    -22.3011E+06     94.0452E+06     70.7986E+06     92.1290E+03    -122.470E-03     233.573E-03    -111.102E-03     265.508E-03    -134.603E-03     245.755E-03    -110.852E-03     252.818E-03
            1892     12.0851E-03     35.8318E-03    -28.1104E+06     76.6969E+06     38.5453E+06    -50.3903E+03    -120.335E-03     231.106E-03    -110.771E-03     221.157E-03    -128.328E-03     239.160E-03    -110.649E-03     210.425E-03
            1893     11.2831E-03     35.6080E-03    -32.0609E+06     50.0572E+06     13.5611E+06     488.823E+03    -118.511E-03     228.975E-03    -110.464E-03     186.847E-03    -123.829E-03     234.318E-03    -110.423E-03     177.995E-03
            1894     10.4792E-03     35.4131E-03    -35.1756E+06     375.010E+03     3.26825E+06     297.599E+03    -117.415E-03     227.673E-03    -110.258E-03     164.919E-03    -121.151E-03     231.276E-03    -110.191E-03     157.496E-03
            1895     9.67551E-03     35.2376E-03    -38.2188E+06    -53.3589E+06    -2.22499E+06    -409.976E+03    -116.696E-03     226.771E-03    -110.075E-03     149.526E-03    -119.398E-03     229.155E-03    -109.953E-03     143.244E-03
            1896     8.87124E-03     35.0762E-03    -41.3010E+06    -88.4877E+06    -6.19253E+06    -747.945E+03    -115.913E-03     225.778E-03    -109.865E-03     135.853E-03    -117.891E-03     227.313E-03    -109.707E-03     130.542E-03
            1897     8.06684E-03     34.9299E-03    -44.5083E+06    -118.389E+06    -8.57958E+06    -730.168E+03    -115.013E-03     224.661E-03    -109.647E-03     122.587E-03    -116.453E-03     225.547E-03    -109.454E-03     118.119E-03
            1898     7.26211E-03     34.7973E-03    -48.2510E+06    -130.732E+06    -13.1709E+06    -658.109E+03    -113.919E-03     223.317E-03    -109.398E-03     110.041E-03    -114.969E-03     223.770E-03    -109.205E-03     106.321E-03
            1899     6.45665E-03     34.6782E-03    -52.1919E+06    -146.810E+06    -19.2444E+06    -276.600E+03    -112.838E-03     222.003E-03    -109.166E-03     97.8600E-03    -113.587E-03     222.102E-03    -108.973E-03     94.7910E-03
            1900     5.65067E-03     34.5729E-03    -56.7028E+06    -168.032E+06    -25.1320E+06     282.720E+03    -111.894E-03     220.853E-03    -108.959E-03     85.7296E-03    -112.411E-03     220.645E-03    -108.759E-03     83.2189E-03
            1901     4.84444E-03     34.4813E-03    -61.8708E+06    -179.400E+06    -33.1182E+06     500.455E+03    -110.977E-03     219.721E-03    -108.743E-03     73.6820E-03    -111.329E-03     219.312E-03    -108.559E-03     71.6590E-03
            1902     4.03781E-03     34.4031E-03    -66.6053E+06    -193.144E+06    -43.6299E+06     267.442E+03    -110.110E-03     218.652E-03    -108.542E-03     61.6219E-03    -110.329E-03     218.075E-03    -108.383E-03     60.0233E-03
            1903     3.23071E-03     34.3390E-03    -70.4350E+06    -204.920E+06    -54.7482E+06    -262.314E+03    -109.348E-03     217.718E-03    -108.369E-03     49.5660E-03    -109.463E-03     217.014E-03    -108.244E-03     48.3399E-03
            1904     2.42332E-03     34.2886E-03    -73.5242E+06    -215.370E+06    -63.1510E+06    -739.441E+03    -108.758E-03     217.008E-03    -108.250E-03     37.4249E-03    -108.798E-03     216.206E-03    -108.147E-03     36.5297E-03
            1905     1.61553E-03     34.2524E-03    -75.9413E+06    -220.375E+06    -70.2479E+06    -616.046E+03    -108.384E-03     216.551E-03    -108.167E-03     25.2610E-03    -108.377E-03     215.696E-03    -108.089E-03     24.6718E-03
            1906     807.703E-06     34.2301E-03    -77.6025E+06    -224.239E+06    -76.2617E+06    -102.595E+03    -108.265E-03     216.294E-03    -108.029E-03     13.8840E-03    -108.227E-03     215.408E-03    -107.973E-03     13.5706E-03
            1907     15.3010E-03     35.8749E-03    -5.02513E+06     122.378E+06     95.4700E+06     108.611E+03    -115.753E-03     227.324E-03    -111.570E-03     198.791E-03    -127.434E-03     239.144E-03    -111.263E-03     192.795E-03
            1908     14.4971E-03     35.5786E-03    -10.9269E+06     117.581E+06     96.2877E+06    -785.244E+03    -120.349E-03     231.775E-03    -111.425E-03     280.511E-03    -137.810E-03     249.335E-03    -111.099E-03     270.015E-03
            1909     13.6926E-03     35.2403E-03    -17.0812E+06     106.470E+06     89.8764E+06    -761.921E+03    -123.929E-03     235.160E-03    -111.231E-03     294.399E-03    -140.105E-03     251.393E-03    -110.911E-03     281.201E-03
            1910     12.8908E-03     34.9154E-03    -22.5057E+06     93.7502E+06     70.9730E+06     390.469E+03    -123.034E-03     233.974E-03    -110.940E-03     264.449E-03    -135.123E-03     246.110E-03    -110.688E-03     251.711E-03
            1911     12.0891E-03     34.6453E-03    -27.9043E+06     76.7583E+06     38.7261E+06     1.03267E+06    -120.449E-03     231.017E-03    -110.568E-03     220.243E-03    -128.392E-03     239.021E-03    -110.445E-03     209.549E-03
            1912     11.2852E-03     34.4221E-03    -32.5093E+06     50.5483E+06     13.2692E+06     569.013E+03    -118.595E-03     228.829E-03    -110.234E-03     186.164E-03    -123.888E-03     234.147E-03    -110.193E-03     177.334E-03
            1913     10.4820E-03     34.2286E-03    -35.3381E+06     1.62472E+06     3.56006E+06    -141.318E+03    -117.563E-03     227.560E-03    -109.997E-03     164.050E-03    -121.277E-03     231.145E-03    -109.931E-03     156.640E-03
            1914     9.67815E-03     34.0532E-03    -37.9673E+06    -52.6713E+06    -1.84521E+06    -242.173E+03    -116.847E-03     226.622E-03    -109.775E-03     148.336E-03    -119.529E-03     228.988E-03    -109.653E-03     142.071E-03
            1915     8.87438E-03     33.8932E-03    -41.5433E+06    -88.3306E+06    -6.00371E+06    -303.579E+03    -115.994E-03     225.513E-03    -109.519E-03     134.531E-03    -117.956E-03     227.032E-03    -109.361E-03     129.245E-03
            1916     8.07004E-03     33.7474E-03    -45.5082E+06    -117.955E+06    -9.12330E+06    -797.572E+03    -114.934E-03     224.189E-03    -109.255E-03     121.255E-03    -116.361E-03     225.063E-03    -109.064E-03     116.814E-03
            1917     7.26521E-03     33.6163E-03    -49.2013E+06    -131.176E+06    -14.1941E+06    -976.863E+03    -113.752E-03     222.719E-03    -108.967E-03     108.770E-03    -114.791E-03     223.158E-03    -108.776E-03     105.074E-03
            1918     6.45961E-03     33.4984E-03    -53.2826E+06    -148.072E+06    -20.1336E+06    -347.606E+03    -112.590E-03     221.290E-03    -108.700E-03     96.6655E-03    -113.331E-03     221.374E-03    -108.508E-03     93.6226E-03
            1919     5.65359E-03     33.3939E-03    -57.5299E+06    -168.459E+06    -25.3965E+06     366.923E+03    -111.521E-03     219.985E-03    -108.464E-03     84.6033E-03    -112.033E-03     219.768E-03    -108.263E-03     82.1214E-03
            1920     4.84706E-03     33.3030E-03    -61.7449E+06    -178.989E+06    -32.4585E+06     381.947E+03    -110.530E-03     218.759E-03    -108.229E-03     72.6734E-03    -110.876E-03     218.345E-03    -108.042E-03     70.6741E-03
            1921     4.03999E-03     33.2260E-03    -66.1286E+06    -192.340E+06    -43.0990E+06    -23.5978E+03    -109.644E-03     217.651E-03    -108.006E-03     60.7767E-03    -109.858E-03     217.072E-03    -107.847E-03     59.1952E-03
            1922     3.23248E-03     33.1624E-03    -70.4014E+06    -203.991E+06    -54.7310E+06    -750.593E+03    -108.874E-03     216.682E-03    -107.808E-03     48.8231E-03    -108.987E-03     215.980E-03    -107.684E-03     47.6077E-03
            1923     2.42457E-03     33.1128E-03    -73.8998E+06    -215.722E+06    -65.0287E+06    -1.19566E+06    -108.262E-03     215.914E-03    -107.651E-03     36.8268E-03    -108.299E-03     215.111E-03    -107.557E-03     35.9386E-03
            1924     1.61658E-03     33.0767E-03    -76.6317E+06    -221.930E+06    -72.7360E+06    -726.694E+03    -107.829E-03     215.360E-03    -107.531E-03     24.8627E-03    -107.819E-03     214.501E-03    -107.461E-03     24.2809E-03
            1925     808.486E-06     33.0546E-03    -78.5153E+06    -224.813E+06    -77.0662E+06    -101.580E+03    -107.531E-03     214.994E-03    -107.463E-03     13.5809E-03    -107.496E-03     214.107E-03    -107.408E-03     13.2732E-03
            1926     15.3002E-03     34.6874E-03    -4.96598E+06     122.598E+06     95.9367E+06     256.192E+03    -116.520E-03     228.051E-03    -111.530E-03     198.777E-03    -128.195E-03     239.865E-03    -111.221E-03     192.681E-03
            1927     14.4965E-03     34.3915E-03    -10.3825E+06     118.032E+06     96.8283E+06     256.802E+03    -121.221E-03     232.558E-03    -111.337E-03     279.949E-03    -138.616E-03     250.054E-03    -111.009E-03     269.337E-03
            1928     13.6961E-03     34.0510E-03    -16.7844E+06     106.547E+06     89.5703E+06    -538.063E+03    -124.403E-03     235.493E-03    -111.090E-03     293.259E-03    -140.485E-03     251.634E-03    -110.772E-03     279.987E-03
            1929     12.8943E-03     33.7286E-03    -23.6922E+06     92.5627E+06     70.0331E+06    -399.926E+03    -123.274E-03     234.039E-03    -110.765E-03     264.217E-03    -135.330E-03     246.137E-03    -110.515E-03     251.464E-03
            1930     12.0902E-03     33.4589E-03    -28.7977E+06     76.2027E+06     39.5059E+06     807.449E+03    -120.744E-03     231.115E-03    -110.371E-03     219.946E-03    -128.660E-03     239.085E-03    -110.243E-03     209.256E-03
            1931     11.2879E-03     33.2363E-03    -32.1061E+06     52.4848E+06     14.9233E+06     976.394E+03    -118.915E-03     228.910E-03    -109.995E-03     184.933E-03    -124.176E-03     234.201E-03    -109.950E-03     176.113E-03
            1932     10.4848E-03     33.0435E-03    -35.6465E+06     2.95835E+06     3.13670E+06    -299.554E+03    -117.840E-03     227.541E-03    -109.701E-03     162.553E-03    -121.530E-03     231.105E-03    -109.638E-03     155.149E-03
            1933     9.68171E-03     32.8695E-03    -38.7806E+06    -53.7186E+06    -3.43177E+06    -617.099E+03    -117.017E-03     226.441E-03    -109.424E-03     146.875E-03    -119.677E-03     228.782E-03    -109.307E-03     140.620E-03
            1934     8.87792E-03     32.7101E-03    -41.3943E+06    -88.0073E+06    -6.45146E+06    -60.3420E+03    -115.984E-03     225.106E-03    -109.123E-03     133.079E-03    -117.923E-03     226.605E-03    -108.967E-03     127.824E-03
            1935     8.07361E-03     32.5660E-03    -44.8723E+06    -117.148E+06    -8.25792E+06     42.6030E+03    -114.762E-03     223.587E-03    -108.825E-03     119.800E-03    -116.169E-03     224.443E-03    -108.631E-03     115.405E-03
            1936     7.26847E-03     32.4358E-03    -49.9791E+06    -131.426E+06    -13.5664E+06     34.9855E+03    -113.525E-03     222.028E-03    -108.503E-03     107.369E-03    -114.553E-03     222.452E-03    -108.308E-03     103.718E-03
            1937     6.46300E-03     32.3193E-03    -55.3525E+06    -148.712E+06    -20.3139E+06     11.8924E+03    -112.345E-03     220.540E-03    -108.196E-03     95.3611E-03    -113.084E-03     220.614E-03    -108.001E-03     92.3504E-03
            1938     5.65673E-03     32.2160E-03    -59.8705E+06    -167.856E+06    -27.9331E+06    -588.004E+03    -111.148E-03     219.058E-03    -107.909E-03     83.4438E-03    -111.659E-03     218.841E-03    -107.719E-03     80.9804E-03
            1939     4.84968E-03     32.1262E-03    -63.3253E+06    -178.575E+06    -36.5568E+06    -1.51968E+06    -110.051E-03     217.688E-03    -107.637E-03     71.5935E-03    -110.393E-03     217.277E-03    -107.469E-03     69.5999E-03
            1940     4.04227E-03     32.0499E-03    -65.9719E+06    -193.108E+06    -44.8062E+06    -1.28630E+06    -109.144E-03     216.545E-03    -107.402E-03     59.7202E-03    -109.348E-03     215.960E-03    -107.250E-03     58.1451E-03
            1941     3.23449E-03     31.9873E-03    -69.2437E+06    -203.996E+06    -54.2587E+06    -342.288E+03    -108.353E-03     215.537E-03    -107.184E-03     47.9265E-03    -108.459E-03     214.829E-03    -107.059E-03     46.7328E-03
            1942     2.42639E-03     31.9381E-03    -73.7367E+06    -216.135E+06    -64.4366E+06     198.219E+03    -107.691E-03     214.688E-03    -106.997E-03     36.1747E-03    -107.726E-03     213.881E-03    -106.899E-03     35.3168E-03
            1943     1.61780E-03     31.9028E-03    -77.4853E+06    -222.175E+06    -73.0211E+06     73.6196E+03    -107.164E-03     214.014E-03    -106.850E-03     24.5354E-03    -107.156E-03     213.154E-03    -106.781E-03     23.9737E-03
            1944     808.835E-06     31.8809E-03    -79.6067E+06    -225.446E+06    -78.4659E+06    -212.152E+03    -106.857E-03     213.614E-03    -106.757E-03     13.3659E-03    -106.824E-03     212.727E-03    -106.707E-03     13.0638E-03
            1945     15.2989E-03     33.4950E-03    -4.97735E+06     122.287E+06     95.5305E+06    -202.739E+03    -117.103E-03     228.592E-03    -111.490E-03     197.467E-03    -128.690E-03     240.319E-03    -111.182E-03     191.228E-03
            1946     14.5010E-03     33.2022E-03    -10.4125E+06     117.912E+06     96.6559E+06     16.5462E+03    -122.002E-03     233.256E-03    -111.254E-03     279.451E-03    -139.330E-03     250.685E-03    -110.926E-03     268.715E-03
            1947     13.6978E-03     32.8636E-03    -16.5703E+06     106.648E+06     89.7066E+06     787.026E+03    -124.972E-03     235.941E-03    -110.969E-03     293.973E-03    -141.023E-03     252.052E-03    -110.651E-03     280.667E-03
            1948     12.8942E-03     32.5409E-03    -23.1666E+06     92.8685E+06     70.3333E+06     711.152E+03    -123.989E-03     234.589E-03    -110.599E-03     263.250E-03    -135.993E-03     246.636E-03    -110.349E-03     250.453E-03
            1949     12.0936E-03     32.2716E-03    -28.6223E+06     76.3562E+06     39.8857E+06     37.0106E+03    -121.352E-03     231.494E-03    -110.142E-03     217.892E-03    -129.216E-03     239.412E-03    -110.011E-03     207.161E-03
            1950     11.2913E-03     32.0504E-03    -32.0579E+06     52.8968E+06     14.9569E+06    -18.4893E+03    -119.212E-03     228.914E-03    -109.702E-03     183.098E-03    -124.430E-03     234.162E-03    -109.657E-03     174.276E-03
            1951     10.4887E-03     31.8586E-03    -34.6240E+06     3.78929E+06     3.77733E+06     474.099E+03    -117.992E-03     227.350E-03    -109.358E-03     161.045E-03    -121.646E-03     230.884E-03    -109.294E-03     153.671E-03
            1952     9.68546E-03     31.6856E-03    -38.0604E+06    -53.2476E+06    -2.70146E+06     101.458E+03    -117.047E-03     226.085E-03    -109.038E-03     145.428E-03    -119.679E-03     228.400E-03    -108.919E-03     139.212E-03
            1953     8.88180E-03     31.5279E-03    -41.5658E+06    -88.1865E+06    -6.50867E+06    -363.302E+03    -115.892E-03     224.586E-03    -108.694E-03     131.638E-03    -117.807E-03     226.059E-03    -108.538E-03     126.418E-03
            1954     8.07733E-03     31.3849E-03    -45.1533E+06    -118.010E+06    -7.81659E+06     629.375E+03    -114.638E-03     222.997E-03    -108.358E-03     118.289E-03    -116.027E-03     223.829E-03    -108.161E-03     113.937E-03
            1955     7.27239E-03     31.2565E-03    -49.1202E+06    -130.960E+06    -12.4560E+06     1.28095E+06    -113.324E-03     221.317E-03    -107.993E-03     105.800E-03    -114.334E-03     221.724E-03    -107.794E-03     102.200E-03
            1956     6.46639E-03     31.1408E-03    -52.9699E+06    -147.744E+06    -19.2535E+06     464.253E+03    -112.024E-03     219.665E-03    -107.641E-03     93.8063E-03    -112.740E-03     219.725E-03    -107.446E-03     90.8363E-03
            1957     5.65999E-03     31.0393E-03    -57.0394E+06    -166.141E+06    -26.4821E+06    -571.685E+03    -110.788E-03     218.104E-03    -107.315E-03     81.9573E-03    -111.280E-03     217.880E-03    -107.124E-03     79.5231E-03
            1958     4.85293E-03     30.9505E-03    -62.0297E+06    -177.555E+06    -36.5895E+06    -1.60938E+06    -109.610E-03     216.608E-03    -106.998E-03     70.3131E-03    -109.939E-03     216.193E-03    -106.834E-03     68.3462E-03
            1959     4.04519E-03     30.8753E-03    -67.4183E+06    -195.215E+06    -47.4252E+06    -1.78419E+06    -108.575E-03     215.300E-03    -106.725E-03     58.6468E-03    -108.774E-03     214.704E-03    -106.581E-03     57.0906E-03
            1960     3.23678E-03     30.8134E-03    -71.8529E+06    -206.014E+06    -56.2706E+06    -394.950E+03    -107.698E-03     214.187E-03    -106.489E-03     47.0763E-03    -107.807E-03     213.473E-03    -106.368E-03     45.9026E-03
            1961     2.42792E-03     30.7651E-03    -74.8897E+06    -215.914E+06    -63.7579E+06     574.842E+03    -107.001E-03     213.298E-03    -106.297E-03     35.4922E-03    -107.041E-03     212.491E-03    -106.194E-03     34.6545E-03
            1962     1.61879E-03     30.7304E-03    -77.5124E+06    -221.383E+06    -71.9628E+06     438.007E+03    -106.469E-03     212.604E-03    -106.135E-03     24.0022E-03    -106.463E-03     211.746E-03    -106.061E-03     23.4548E-03
            1963     809.524E-06     30.7088E-03    -79.6280E+06    -225.406E+06    -78.3779E+06     184.568E+03    -106.147E-03     212.153E-03    -106.006E-03     13.0778E-03    -106.114E-03     211.266E-03    -105.956E-03     12.7876E-03
            1964     15.3037E-03     32.3056E-03    -4.23529E+06     122.808E+06     96.0354E+06     390.132E+03    -117.815E-03     229.265E-03    -111.449E-03     197.607E-03    -129.289E-03     240.881E-03    -111.141E-03     191.304E-03
            1965     14.4982E-03     32.0121E-03    -10.3752E+06     117.826E+06     96.2960E+06     114.194E+03    -122.347E-03     233.532E-03    -111.185E-03     279.220E-03    -139.599E-03     250.886E-03    -110.859E-03     268.400E-03
            1966     13.6973E-03     31.6737E-03    -17.5434E+06     105.701E+06     88.8114E+06     240.937E+03    -126.104E-03     236.948E-03    -110.844E-03     291.890E-03    -142.084E-03     252.983E-03    -110.527E-03     278.421E-03
            1967     12.8991E-03     31.3517E-03    -22.8675E+06     93.2378E+06     71.3012E+06     689.048E+03    -124.850E-03     235.242E-03    -110.393E-03     261.064E-03    -136.772E-03     247.207E-03    -110.138E-03     248.196E-03
            1968     12.0972E-03     31.0847E-03    -27.5327E+06     77.2992E+06     40.6787E+06     253.677E+03    -121.700E-03     231.565E-03    -109.865E-03     216.401E-03    -129.520E-03     239.444E-03    -109.734E-03     205.660E-03
            1969     11.2953E-03     30.8645E-03    -31.8268E+06     52.7038E+06     14.6240E+06     51.6834E+03    -119.434E-03     228.809E-03    -109.374E-03     182.012E-03    -124.611E-03     234.017E-03    -109.331E-03     173.210E-03
            1970     10.4926E-03     30.6742E-03    -35.5486E+06     3.48289E+06     3.46765E+06     271.970E+03    -118.143E-03     227.130E-03    -108.987E-03     159.847E-03    -121.767E-03     230.631E-03    -108.923E-03     152.499E-03
            1971     9.68953E-03     30.5023E-03    -38.2910E+06    -51.9916E+06    -2.05371E+06     484.456E+03    -117.075E-03     225.697E-03    -108.623E-03     143.900E-03    -119.679E-03     227.987E-03    -108.502E-03     137.726E-03
            1972     8.88579E-03     30.3462E-03    -41.8343E+06    -87.9007E+06    -6.42086E+06     613.441E+03    -115.831E-03     224.062E-03    -108.231E-03     129.893E-03    -117.720E-03     225.509E-03    -108.075E-03     124.726E-03
            1973     8.08145E-03     30.2046E-03    -45.9379E+06    -119.101E+06    -9.28418E+06     436.102E+03    -114.514E-03     222.357E-03    -107.843E-03     116.618E-03    -115.880E-03     223.164E-03    -107.650E-03     112.306E-03
            1974     7.27637E-03     30.0776E-03    -49.1953E+06    -130.875E+06    -13.2223E+06     407.196E+03    -113.138E-03     220.567E-03    -107.428E-03     104.113E-03    -114.131E-03     220.958E-03    -107.233E-03     100.538E-03
            1975     6.47060E-03     29.9639E-03    -52.9267E+06    -146.350E+06    -18.9116E+06     428.734E+03    -111.711E-03     218.741E-03    -107.030E-03     92.1154E-03    -112.416E-03     218.793E-03    -106.836E-03     89.1801E-03
            1976     5.66379E-03     29.8634E-03    -57.7852E+06    -164.771E+06    -25.8520E+06    -150.462E+03    -110.331E-03     216.995E-03    -106.664E-03     80.4125E-03    -110.818E-03     216.767E-03    -106.470E-03     78.0188E-03
            1977     4.85624E-03     29.7762E-03    -62.6319E+06    -176.556E+06    -35.4667E+06    -597.927E+03    -109.070E-03     215.383E-03    -106.313E-03     68.9594E-03    -109.398E-03     214.964E-03    -106.143E-03     67.0360E-03
            1978     4.04796E-03     29.7022E-03    -67.3563E+06    -196.281E+06    -46.2977E+06    -549.604E+03    -107.971E-03     213.979E-03    -106.008E-03     57.5061E-03    -108.165E-03     213.372E-03    -105.858E-03     55.9935E-03
            1979     3.23918E-03     29.6414E-03    -71.6950E+06    -207.231E+06    -56.1049E+06    -559.691E+03    -107.022E-03     212.763E-03    -105.741E-03     46.0887E-03    -107.126E-03     212.039E-03    -105.617E-03     44.9360E-03
            1980     2.42989E-03     29.5938E-03    -75.1673E+06    -216.069E+06    -64.9137E+06    -546.659E+03    -106.263E-03     211.783E-03    -105.520E-03     34.6831E-03    -106.300E-03     210.975E-03    -105.422E-03     33.8480E-03
            1981     1.62025E-03     29.5596E-03    -77.6965E+06    -221.645E+06    -72.5164E+06    -68.9079E+03    -105.701E-03     211.047E-03    -105.346E-03     23.4578E-03    -105.694E-03     210.188E-03    -105.275E-03     22.9145E-03
            1982     810.222E-06     29.5385E-03    -79.2361E+06    -224.876E+06    -77.6744E+06     290.731E+03    -105.338E-03     210.568E-03    -105.230E-03     12.8228E-03    -105.305E-03     209.682E-03    -105.177E-03     12.5373E-03
            1983     15.2999E-03     31.1168E-03    -5.35299E+06     121.711E+06       94.75E+06     186.344E+03    -119.115E-03     230.564E-03    -111.449E-03     197.133E-03    -130.604E-03     242.192E-03    -111.144E-03     190.573E-03
            1984     14.5017E-03     30.8212E-03    -10.4901E+06     117.907E+06     96.3735E+06     555.063E+03    -124.318E-03     235.408E-03    -111.090E-03     277.771E-03    -141.548E-03     252.740E-03    -110.764E-03     266.623E-03
            1985     13.7031E-03     30.4835E-03    -16.2288E+06     106.880E+06     90.1860E+06     541.813E+03    -126.776E-03     237.430E-03    -110.654E-03     289.595E-03    -142.632E-03     253.346E-03    -110.335E-03     276.059E-03
            1986     12.9008E-03     30.1627E-03    -22.5675E+06     93.2393E+06     71.0000E+06     347.666E+03    -124.901E-03     235.056E-03    -110.155E-03     260.342E-03    -136.740E-03     246.940E-03    -109.902E-03     247.509E-03
            1987     12.1003E-03     29.8970E-03    -27.9322E+06     76.8024E+06     39.8228E+06     600.514E+03    -122.071E-03     231.664E-03    -109.593E-03     215.590E-03    -129.851E-03     239.502E-03    -109.465E-03     204.846E-03
            1988     11.2986E-03     29.6789E-03    -32.5008E+06     53.1616E+06     14.3275E+06     1.08579E+06    -119.947E-03     228.995E-03    -109.047E-03     180.628E-03    -125.090E-03     234.169E-03    -109.006E-03     171.832E-03
            1989     10.4965E-03     29.4894E-03    -36.0509E+06     4.62104E+06     3.08789E+06     375.574E+03    -118.422E-03     227.017E-03    -108.594E-03     158.136E-03    -122.011E-03     230.485E-03    -108.533E-03     150.813E-03
            1990     9.69384E-03     29.3196E-03    -39.3849E+06    -52.2888E+06    -3.35676E+06     121.168E+03    -117.170E-03     225.340E-03    -108.170E-03     142.095E-03    -119.742E-03     227.597E-03    -108.054E-03     135.954E-03
            1991     8.89042E-03     29.1648E-03    -42.1110E+06    -87.9420E+06    -7.07758E+06     693.335E+03    -115.829E-03     223.554E-03    -107.724E-03     128.027E-03    -117.691E-03     224.974E-03    -107.571E-03     122.900E-03
            1992     8.08602E-03     29.0253E-03    -45.1125E+06    -118.250E+06    -8.95489E+06     699.061E+03    -114.373E-03     221.657E-03    -107.284E-03     114.724E-03    -115.712E-03     222.442E-03    -107.092E-03     110.456E-03
            1993     7.28081E-03     28.8995E-03    -49.3806E+06    -130.759E+06    -13.1256E+06     109.825E+03    -112.846E-03     219.668E-03    -106.822E-03     102.286E-03    -113.820E-03     220.040E-03    -106.626E-03     98.7511E-03
            1994     6.47472E-03     28.7877E-03    -53.4629E+06    -146.109E+06    -18.6385E+06    -15.6473E+03    -111.353E-03     217.731E-03    -106.378E-03     90.3972E-03    -112.047E-03     217.770E-03    -106.182E-03     87.4941E-03
            1995     5.66779E-03     28.6891E-03    -57.2468E+06    -163.715E+06    -25.3160E+06     25.4531E+03    -109.879E-03     215.843E-03    -105.964E-03     78.8244E-03    -110.355E-03     215.608E-03    -105.770E-03     76.4691E-03
            1996     4.85983E-03     28.6033E-03    -61.6298E+06    -176.272E+06    -33.8968E+06    -386.373E+03    -108.506E-03     214.082E-03    -105.577E-03     67.4397E-03    -108.822E-03     213.653E-03    -105.401E-03     65.5512E-03
            1997     4.05124E-03     28.5306E-03    -66.0985E+06    -196.711E+06    -42.8856E+06    -407.418E+03    -107.338E-03     212.582E-03    -105.244E-03     56.1548E-03    -107.524E-03     211.959E-03    -105.078E-03     54.6707E-03
            1998     3.24188E-03     28.4709E-03    -70.4034E+06    -207.280E+06    -53.6379E+06    -120.616E+03    -106.309E-03     211.246E-03    -104.937E-03     44.9889E-03    -106.406E-03     210.512E-03    -104.802E-03     43.8647E-03
            1999     2.43194E-03     28.4243E-03    -74.7117E+06    -216.286E+06    -65.2085E+06    -110.205E+03    -105.462E-03     210.141E-03    -104.679E-03     33.8671E-03    -105.494E-03     209.330E-03    -104.584E-03     33.0551E-03
            2000     1.62146E-03     28.3908E-03    -77.9800E+06    -222.136E+06    -73.8135E+06    -337.488E+03    -104.840E-03     209.336E-03    -104.496E-03     22.8965E-03    -104.831E-03     208.476E-03    -104.430E-03     22.3614E-03
            2001     810.730E-06     28.3702E-03    -79.7093E+06    -224.878E+06    -78.3138E+06    -290.332E+03    -104.551E-03     208.877E-03    -104.327E-03     12.4840E-03    -104.518E-03     207.993E-03    -104.277E-03     12.1965E-03
            2002     15.3006E-03     29.9215E-03    -5.52503E+06     121.561E+06     94.4083E+06    -198.665E+03    -120.737E-03     232.141E-03    -111.404E-03     195.377E-03    -132.140E-03     243.682E-03    -111.100E-03     188.546E-03
            2003     14.5034E-03     29.6254E-03    -11.1292E+06     117.133E+06     95.5977E+06    -232.613E+03    -125.395E-03     236.353E-03    -110.959E-03     275.829E-03    -142.457E-03     253.515E-03    -110.634E-03     264.511E-03
            2004     13.7040E-03     29.2937E-03    -16.2675E+06     106.702E+06     90.2647E+06     412.649E+03    -126.983E-03     237.460E-03    -110.477E-03     288.904E-03    -142.723E-03     253.259E-03    -110.157E-03     275.390E-03
            2005     12.9045E-03     28.9744E-03    -22.1672E+06     93.3978E+06     71.5470E+06     1.13189E+06    -125.513E-03     235.454E-03    -109.941E-03     259.680E-03    -137.283E-03     247.269E-03    -109.687E-03     246.828E-03
            2006     12.1030E-03     28.7090E-03    -27.9096E+06     76.4996E+06     39.8033E+06     1.41101E+06    -122.785E-03     232.098E-03    -109.313E-03     213.612E-03    -130.489E-03     239.859E-03    -109.184E-03     202.858E-03
            2007     11.3027E-03     28.4919E-03    -31.5181E+06     53.7975E+06     14.8135E+06     1.18984E+06    -120.412E-03     229.105E-03    -108.692E-03     178.189E-03    -125.495E-03     234.223E-03    -108.651E-03     169.399E-03
            2008     10.5012E-03     28.3053E-03    -34.5235E+06     6.08393E+06     4.43993E+06     1.22648E+06    -118.688E-03     226.861E-03    -108.173E-03     155.979E-03    -122.232E-03     230.291E-03    -108.109E-03     148.689E-03
            2009     9.69856E-03     28.1367E-03    -38.0613E+06    -51.4636E+06    -2.01267E+06     874.301E+03    -117.251E-03     224.939E-03    -107.688E-03     140.003E-03    -119.785E-03     227.161E-03    -107.568E-03     133.908E-03
            2010     8.89511E-03     27.9843E-03    -41.5748E+06    -88.2623E+06    -6.59351E+06     361.893E+03    -115.778E-03     222.962E-03    -107.184E-03     126.064E-03    -117.607E-03     224.349E-03    -107.028E-03     120.977E-03
            2011     8.09093E-03     27.8462E-03    -44.8349E+06    -117.678E+06    -8.24195E+06     567.470E+03    -114.213E-03     220.902E-03    -106.689E-03     112.770E-03    -115.529E-03     221.665E-03    -106.494E-03     108.544E-03
            2012     7.28568E-03     27.7231E-03    -48.1316E+06    -129.768E+06    -12.0318E+06     368.340E+03    -112.531E-03     218.706E-03    -106.175E-03     100.363E-03    -113.481E-03     219.060E-03    -105.977E-03     96.8779E-03
            2013     6.47920E-03     27.6126E-03    -52.2612E+06    -146.209E+06    -18.0316E+06    -142.820E+03    -110.926E-03     216.611E-03    -105.685E-03     88.4879E-03    -111.599E-03     216.631E-03    -105.487E-03     85.6266E-03
            2014     5.67196E-03     27.5160E-03    -56.9369E+06    -163.579E+06    -24.8276E+06    -206.896E+03    -109.409E-03     214.633E-03    -105.224E-03     77.0089E-03    -109.873E-03     214.386E-03    -105.028E-03     74.6855E-03
            2015     4.86378E-03     27.4319E-03    -61.6439E+06    -175.820E+06    -33.6061E+06    -278.093E+03    -107.946E-03     212.733E-03    -104.787E-03     65.8522E-03    -108.256E-03     212.297E-03    -104.611E-03     63.9965E-03
            2016     4.05459E-03     27.3608E-03    -66.7140E+06    -197.130E+06    -42.7064E+06    -272.841E+03    -106.639E-03     211.053E-03    -104.414E-03     54.7903E-03    -106.822E-03     210.423E-03    -104.245E-03     53.3361E-03
            2017     3.24468E-03     27.3023E-03    -71.8050E+06    -207.716E+06    -53.1373E+06     97.3799E+03    -105.507E-03     209.587E-03    -104.080E-03     43.8677E-03    -105.608E-03     208.849E-03    -103.940E-03     42.7692E-03
            2018     2.43410E-03     27.2568E-03    -75.9166E+06    -215.804E+06    -64.5734E+06     227.029E+03    -104.633E-03     208.428E-03    -103.796E-03     32.9737E-03    -104.671E-03     207.618E-03    -103.695E-03     32.1842E-03
            2019     1.62308E-03     27.2241E-03    -78.9664E+06    -221.940E+06    -73.8094E+06    -175.832E+03    -103.993E-03     207.566E-03    -103.572E-03     22.2050E-03    -103.989E-03     206.707E-03    -103.505E-03     21.6838E-03
            2020     811.703E-06     27.2038E-03    -81.1011E+06    -225.733E+06    -79.7799E+06    -156.458E+03    -103.610E-03     206.969E-03    -103.359E-03     12.1124E-03    -103.581E-03     206.084E-03    -103.313E-03     11.8340E-03
            2021     15.3047E-03     28.7248E-03    -4.97781E+06     122.096E+06     95.2194E+06     50.6802E+03    -121.971E-03     233.277E-03    -111.306E-03     194.895E-03    -133.210E-03     244.655E-03    -111.000E-03     187.953E-03
            2022     14.5057E-03     28.4340E-03    -10.3855E+06     117.304E+06     96.0573E+06     312.820E+03    -125.006E-03     235.839E-03    -110.833E-03     274.164E-03    -141.785E-03     252.719E-03    -110.507E-03     262.946E-03
            2023     13.7061E-03     28.1022E-03    -17.1244E+06     105.498E+06     88.8809E+06     357.015E+03    -127.670E-03     237.995E-03    -110.325E-03     287.415E-03    -143.280E-03     253.661E-03    -110.009E-03     273.826E-03
            2024     12.9060E-03     27.7844E-03    -23.4226E+06     92.0751E+06     71.1229E+06     456.899E+03    -126.889E-03     236.598E-03    -109.709E-03     257.587E-03    -138.605E-03     248.351E-03    -109.453E-03     244.575E-03
            2025     12.1081E-03     27.5197E-03    -27.8504E+06     76.5801E+06     41.2342E+06     930.206E+03    -123.464E-03     232.450E-03    -108.986E-03     210.946E-03    -131.084E-03     240.123E-03    -108.851E-03     200.171E-03
            2026     11.3074E-03     27.3063E-03    -31.5468E+06     54.0288E+06     15.1703E+06     1.26127E+06    -120.579E-03     228.870E-03    -108.292E-03     175.889E-03    -125.594E-03     233.921E-03    -108.249E-03     167.143E-03
            2027     10.5058E-03     27.1202E-03    -34.8481E+06     6.70407E+06     4.89060E+06     1.17528E+06    -118.835E-03     226.552E-03    -107.717E-03     153.865E-03    -122.336E-03     229.939E-03    -107.652E-03     146.611E-03
            2028     9.70378E-03     26.9551E-03    -37.4590E+06    -50.3354E+06    -505.432E+03     1.05700E+06    -117.326E-03     224.502E-03    -107.176E-03     137.866E-03    -119.825E-03     226.690E-03    -107.051E-03     131.811E-03
            2029     8.90041E-03     26.8039E-03    -40.5112E+06    -87.5789E+06    -6.05874E+06     976.457E+03    -115.690E-03     222.299E-03    -106.609E-03     123.980E-03    -117.484E-03     223.656E-03    -106.453E-03     118.948E-03
            2030     8.09596E-03     26.6686E-03    -44.0293E+06    -117.033E+06    -8.75260E+06     326.075E+03    -113.988E-03     220.043E-03    -106.056E-03     110.680E-03    -115.273E-03     220.782E-03    -105.866E-03     106.503E-03
            2031     7.29053E-03     26.5470E-03    -47.7244E+06    -129.402E+06    -11.9637E+06     59.0014E+03    -112.252E-03     217.744E-03    -105.492E-03     98.2892E-03    -113.180E-03     218.078E-03    -105.295E-03     94.8460E-03
            2032     6.48414E-03     26.4392E-03    -51.8946E+06    -145.834E+06    -17.1570E+06     350.729E+03    -110.515E-03     215.467E-03    -104.952E-03     86.4874E-03    -111.171E-03     215.471E-03    -104.751E-03     83.6768E-03
            2033     5.67643E-03     26.3441E-03    -56.6736E+06    -163.246E+06    -23.7687E+06     74.0386E+03    -108.848E-03     213.294E-03    -104.445E-03     75.1261E-03    -109.300E-03     213.034E-03    -104.245E-03     72.8461E-03
            2034     4.86776E-03     26.2621E-03    -61.7274E+06    -175.920E+06    -32.6961E+06    -83.6508E+03    -107.295E-03     211.263E-03    -103.968E-03     64.1591E-03    -107.598E-03     210.817E-03    -103.787E-03     62.3387E-03
            2035     4.05818E-03     26.1927E-03    -66.7596E+06    -197.402E+06    -42.3186E+06     343.263E+03    -105.904E-03     209.460E-03    -103.556E-03     53.3448E-03    -106.081E-03     208.823E-03    -103.385E-03     51.9271E-03
            2036     3.24762E-03     26.1358E-03    -71.7311E+06    -207.649E+06    -53.0935E+06     380.275E+03    -104.688E-03     207.878E-03    -103.190E-03     42.7102E-03    -104.784E-03     207.137E-03    -103.051E-03     41.6394E-03
            2037     2.43635E-03     26.0913E-03    -76.1978E+06    -215.306E+06    -64.4909E+06     65.2373E+03    -103.762E-03     206.647E-03    -102.885E-03     32.1894E-03    -103.800E-03     205.837E-03    -102.785E-03     31.4164E-03
            2038     1.62464E-03     26.0594E-03    -79.7729E+06    -221.816E+06    -74.1497E+06    -51.3825E+03    -103.094E-03     205.735E-03    -102.641E-03     21.7128E-03    -103.092E-03     204.878E-03    -102.574E-03     21.2052E-03
            2039     812.463E-06     26.0400E-03    -82.1762E+06    -226.180E+06    -80.6741E+06     489.415E+03    -102.661E-03     205.079E-03    -102.418E-03     11.7816E-03    -102.635E-03     204.195E-03    -102.375E-03     11.5181E-03
            2040     15.3048E-03     27.5301E-03    -5.14872E+06     121.743E+06     94.7538E+06    -101.249E+03    -122.728E-03     233.983E-03    -111.255E-03     193.470E-03    -133.853E-03     245.247E-03    -110.950E-03     186.396E-03
            2041     14.5064E-03     27.2406E-03    -10.6881E+06     116.669E+06     95.5740E+06     596.517E+03    -125.995E-03     236.725E-03    -110.729E-03     273.203E-03    -142.659E-03     253.487E-03    -110.405E-03     261.837E-03
            2042     13.7076E-03     26.9110E-03    -16.3432E+06     106.006E+06     89.7027E+06     1.21851E+06    -129.217E-03     239.355E-03    -110.138E-03     285.604E-03    -144.712E-03     254.908E-03    -109.819E-03     271.834E-03
            2043     12.9115E-03     26.5909E-03    -22.6594E+06     92.5912E+06     71.2996E+06     607.007E+03    -127.649E-03     237.070E-03    -109.421E-03     254.982E-03    -139.252E-03     248.714E-03    -109.166E-03     241.913E-03
            2044     12.1122E-03     26.3321E-03    -28.6705E+06      75.545E+06     40.7597E+06     643.251E+03    -123.803E-03     232.432E-03    -108.629E-03     208.731E-03    -131.329E-03     240.007E-03    -108.493E-03     197.985E-03
            2045     11.3121E-03     26.1194E-03    -32.6872E+06     54.4321E+06     15.6093E+06     913.323E+03    -120.906E-03     228.783E-03    -107.877E-03     173.881E-03    -125.870E-03     233.778E-03    -107.830E-03     165.156E-03
            2046     10.5112E-03     25.9369E-03    -35.1372E+06     7.65741E+06     4.72188E+06     337.588E+03    -118.938E-03     226.175E-03    -107.237E-03     151.771E-03    -122.392E-03     229.518E-03    -107.174E-03     144.551E-03
            2047     9.70873E-03     25.7727E-03    -37.7489E+06    -50.8100E+06    -888.023E+03     466.621E+03    -117.376E-03     224.015E-03    -106.639E-03     135.756E-03    -119.836E-03     226.163E-03    -106.515E-03     129.739E-03
            2048     8.90575E-03     25.6250E-03    -40.5613E+06    -87.2553E+06    -6.16428E+06     1.05600E+06    -115.653E-03     221.664E-03    -106.011E-03     121.711E-03    -117.417E-03     222.991E-03    -105.856E-03     116.723E-03
            2049     8.10133E-03     25.4913E-03    -43.8527E+06    -115.204E+06    -9.72677E+06     698.936E+03    -113.789E-03     219.180E-03    -105.390E-03     108.467E-03    -115.048E-03     219.902E-03    -105.208E-03     104.344E-03
            2050     7.29587E-03     25.3724E-03    -47.4986E+06    -129.351E+06    -12.9858E+06    -142.079E+03    -111.902E-03     216.676E-03    -104.774E-03     96.0340E-03    -112.805E-03     216.990E-03    -104.583E-03     92.6366E-03
            2051     6.48899E-03     25.2665E-03    -51.1136E+06    -146.620E+06    -17.2236E+06     263.687E+03    -110.035E-03     214.225E-03    -104.190E-03     84.4147E-03    -110.669E-03     214.207E-03    -103.990E-03     81.6485E-03
            2052     5.68117E-03     25.1742E-03    -55.4578E+06    -162.098E+06    -23.2287E+06     586.855E+03    -108.237E-03     211.879E-03    -103.642E-03     73.2877E-03    -108.673E-03     211.610E-03    -103.443E-03     71.0566E-03
            2053     4.87192E-03     25.0939E-03    -60.5930E+06    -176.386E+06    -31.5934E+06     439.163E+03    -106.568E-03     209.706E-03    -103.138E-03     62.5302E-03    -106.857E-03     209.245E-03    -102.953E-03     60.7527E-03
            2054     4.06168E-03     25.0265E-03    -65.9333E+06    -197.683E+06    -41.2749E+06     995.583E+03    -105.124E-03     207.827E-03    -102.703E-03     51.9797E-03    -105.293E-03     207.179E-03    -102.527E-03     50.5997E-03
            2055     3.25054E-03     24.9712E-03    -71.1938E+06    -206.634E+06    -52.9198E+06     1.01366E+06    -103.873E-03     206.182E-03    -102.308E-03     41.6344E-03    -103.965E-03     205.440E-03    -102.170E-03     40.5952E-03
            2056     2.43859E-03     24.9280E-03    -75.9727E+06    -214.862E+06    -64.5495E+06     670.759E+03    -102.863E-03     204.853E-03    -101.991E-03     31.3824E-03    -102.898E-03     204.043E-03    -101.892E-03     30.6347E-03
            2057     1.62594E-03     24.8969E-03    -79.7304E+06    -221.582E+06    -74.6088E+06     535.563E+03    -102.148E-03     203.907E-03    -101.759E-03     21.1211E-03    -102.145E-03     203.051E-03    -101.695E-03     20.6331E-03
            2058     813.089E-06     24.8780E-03    -82.0140E+06    -225.482E+06    -80.7509E+06     372.227E+03    -101.800E-03     203.348E-03    -101.548E-03     11.4384E-03    -101.774E-03     202.466E-03    -101.506E-03     11.1788E-03
            2059     15.3043E-03     26.3327E-03    -4.91185E+06     121.768E+06     94.3282E+06     414.871E+03    -123.878E-03     235.130E-03    -111.252E-03     191.542E-03    -134.890E-03     246.283E-03    -110.950E-03     184.221E-03
            2060     14.5074E-03     26.0468E-03    -11.4933E+06     116.237E+06     94.5504E+06     223.556E+03    -128.203E-03     238.823E-03    -110.620E-03     270.690E-03    -144.738E-03     255.455E-03    -110.299E-03     258.962E-03
            2061     13.7129E-03     25.7146E-03    -16.7846E+06     105.296E+06     89.4863E+06     74.6288E+03    -130.404E-03     240.320E-03    -109.915E-03     283.980E-03    -145.774E-03     255.745E-03    -109.596E-03     270.053E-03
            2062     12.9147E-03     25.4011E-03    -22.2713E+06     92.1406E+06     72.3454E+06     1.22018E+06    -128.101E-03     237.232E-03    -109.131E-03     253.103E-03    -139.565E-03     248.734E-03    -108.870E-03     240.067E-03
            2063     12.1160E-03     25.1422E-03    -27.3959E+06     76.3305E+06     42.5721E+06     1.53573E+06    -124.232E-03     232.513E-03    -108.281E-03     206.449E-03    -131.653E-03     239.985E-03    -108.139E-03     195.749E-03
            2064     11.3171E-03     24.9331E-03    -30.8970E+06     55.6719E+06     17.0181E+06     369.675E+03    -121.268E-03     228.727E-03    -107.459E-03     171.395E-03    -126.163E-03     233.661E-03    -107.410E-03     162.685E-03
            2065     10.5160E-03     24.7532E-03    -34.3268E+06     7.73690E+06     4.61712E+06     596.814E+03    -119.166E-03     225.914E-03    -106.748E-03     149.490E-03    -122.570E-03     229.210E-03    -106.686E-03     142.306E-03
            2066     9.71432E-03     24.5914E-03    -38.5140E+06    -51.0661E+06    -1.50288E+06     1.15594E+06    -117.416E-03     223.502E-03    -106.086E-03     133.438E-03    -119.837E-03     225.610E-03    -105.964E-03     127.476E-03
            2067     8.91115E-03     24.4460E-03    -42.8352E+06    -87.5414E+06    -6.91321E+06     1.29169E+06    -115.566E-03     220.964E-03    -105.398E-03     119.270E-03    -117.307E-03     222.262E-03    -105.244E-03     114.331E-03
            2068     8.10694E-03     24.3152E-03    -46.4730E+06    -112.284E+06    -12.1615E+06     323.896E+03    -113.564E-03     218.270E-03    -104.706E-03     106.194E-03    -114.809E-03     218.987E-03    -104.536E-03     102.117E-03
            2069     7.30121E-03     24.1987E-03    -49.6810E+06    -129.268E+06    -16.6248E+06    -849.581E+03    -111.465E-03     215.501E-03    -104.036E-03     93.8852E-03    -112.352E-03     215.801E-03    -103.860E-03     90.5326E-03
            2070     6.49417E-03     24.0958E-03    -53.3228E+06    -148.182E+06    -21.2937E+06    -269.765E+03    -109.442E-03     212.857E-03    -103.415E-03     82.4354E-03    -110.062E-03     212.824E-03    -103.230E-03     79.7125E-03
            2071     5.68556E-03     24.0054E-03    -57.2010E+06    -161.567E+06    -26.5115E+06     98.2097E+03    -107.551E-03     210.390E-03    -102.839E-03     71.5327E-03    -107.979E-03     210.118E-03    -102.654E-03     69.3401E-03
            2072     4.87593E-03     23.9278E-03    -61.3909E+06    -177.404E+06    -33.1347E+06     673.390E+03    -105.847E-03     208.168E-03    -102.321E-03     60.9488E-03    -106.127E-03     207.697E-03    -102.141E-03     59.2102E-03
            2073     4.06504E-03     23.8621E-03    -66.1873E+06    -197.456E+06    -41.9532E+06     1.44013E+06    -104.354E-03     206.219E-03    -101.865E-03     50.5728E-03    -104.518E-03     205.568E-03    -101.692E-03     49.2276E-03
            2074     3.25324E-03     23.8084E-03    -71.1663E+06    -205.831E+06    -52.7793E+06     1.58196E+06    -103.069E-03     204.523E-03    -101.453E-03     40.4163E-03    -103.159E-03     203.782E-03    -101.316E-03     39.4064E-03
            2075     2.44066E-03     23.7667E-03    -75.7432E+06    -213.881E+06    -64.3052E+06     1.47191E+06    -102.021E-03     203.139E-03    -101.118E-03     30.4063E-03    -102.056E-03     202.332E-03    -101.020E-03     29.6847E-03
            2076     1.62751E-03     23.7365E-03    -79.2712E+06    -220.540E+06    -74.1476E+06     1.12385E+06    -101.248E-03     202.131E-03    -100.884E-03     20.4766E-03    -101.243E-03     201.278E-03    -100.820E-03     20.0075E-03
            2077     813.773E-06     23.7181E-03    -81.3052E+06    -224.306E+06    -80.0954E+06     424.126E+03    -100.910E-03     201.604E-03    -100.694E-03     11.1353E-03    -100.883E-03     200.725E-03    -100.651E-03     10.8824E-03
            2078     15.3026E-03     25.1300E-03    -4.74421E+06     121.680E+06     94.5492E+06     971.214E+03    -125.610E-03     236.832E-03    -111.222E-03     189.714E-03    -136.457E-03     247.820E-03    -110.919E-03     182.141E-03
            2079     14.5114E-03     24.8483E-03    -10.7764E+06     117.599E+06     95.2683E+06     838.764E+03    -129.612E-03     240.105E-03    -110.492E-03     268.134E-03    -145.931E-03     256.526E-03    -110.171E-03     256.169E-03
            2080     13.7141E-03     24.5208E-03    -18.0893E+06     105.220E+06     88.1247E+06     101.767E+03    -131.320E-03     241.018E-03    -109.698E-03     282.043E-03    -146.530E-03     256.281E-03    -109.383E-03     268.021E-03
            2081     12.9180E-03     24.2075E-03    -23.9658E+06      90.632E+06     72.1513E+06    -487.374E+03    -128.793E-03     237.638E-03    -108.845E-03     250.232E-03    -140.101E-03     248.974E-03    -108.581E-03     237.167E-03
            2082     12.1214E-03     23.9532E-03    -27.4341E+06     75.9789E+06     43.7942E+06    -215.824E+03    -124.616E-03     232.543E-03    -107.927E-03     203.669E-03    -131.939E-03     239.911E-03    -107.778E-03     192.968E-03
            2083     11.3215E-03     23.7465E-03    -31.5518E+06     55.3564E+06     15.6393E+06     1.12024E+06    -121.515E-03     228.546E-03    -107.031E-03     168.999E-03    -126.337E-03     233.407E-03    -106.987E-03     160.343E-03
            2084     10.5216E-03     23.5694E-03    -36.3701E+06     7.74941E+06     2.72602E+06     2.08207E+06    -119.428E-03     225.681E-03    -106.253E-03     147.037E-03    -122.789E-03     228.933E-03    -106.198E-03     139.905E-03
            2085     9.71973E-03     23.4106E-03    -40.6367E+06    -50.1312E+06    -3.12148E+06     2.29988E+06    -117.477E-03     223.002E-03    -105.525E-03     131.112E-03    -119.868E-03     225.080E-03    -105.409E-03     125.210E-03
            2086     8.91680E-03     23.2678E-03    -43.8990E+06    -86.3585E+06    -8.02391E+06     1.62394E+06    -115.416E-03     220.195E-03    -104.779E-03     116.968E-03    -117.127E-03     221.467E-03    -104.630E-03     112.087E-03
            2087     8.11234E-03     23.1400E-03    -47.1617E+06    -109.187E+06    -13.5654E+06     149.039E+03    -113.215E-03     217.248E-03    -104.033E-03     103.870E-03    -114.437E-03     217.955E-03    -103.874E-03     99.8478E-03
            2088     7.30639E-03     23.0265E-03    -51.1105E+06    -129.369E+06    -19.0375E+06    -710.685E+03    -110.995E-03     214.319E-03    -103.324E-03     91.7317E-03    -111.863E-03     214.602E-03    -103.158E-03     88.4359E-03
            2089     6.49881E-03     22.9262E-03    -55.0209E+06    -148.706E+06    -24.3821E+06    -672.168E+03    -108.885E-03     211.551E-03    -102.666E-03     80.3449E-03    -109.491E-03     211.504E-03    -102.493E-03     77.6660E-03
            2090     5.68998E-03     22.8387E-03    -58.8625E+06    -161.693E+06    -30.0812E+06    -622.276E+03    -106.897E-03     208.954E-03    -102.057E-03     69.5554E-03    -107.314E-03     208.676E-03    -101.888E-03     67.3986E-03
            2091     4.87962E-03     22.7630E-03    -62.8795E+06    -179.405E+06    -35.4487E+06     186.983E+03    -105.136E-03     206.659E-03    -101.523E-03     59.1144E-03    -105.408E-03     206.174E-03    -101.349E-03     57.4063E-03
            2092     4.06841E-03     22.6996E-03    -67.2145E+06    -197.429E+06    -43.5235E+06     1.29849E+06    -103.591E-03     204.636E-03    -101.046E-03     49.0203E-03    -103.751E-03     203.983E-03    -100.880E-03     47.7025E-03
            2093     3.25604E-03     22.6476E-03    -71.7126E+06    -205.400E+06    -53.7047E+06     1.63284E+06    -102.274E-03     202.893E-03    -100.619E-03     39.2113E-03    -102.361E-03     202.152E-03    -100.486E-03     38.2249E-03
            2094     2.44282E-03     22.6072E-03    -75.7109E+06    -212.631E+06    -63.6911E+06     1.56514E+06    -101.230E-03     201.498E-03    -100.269E-03     29.4224E-03    -101.264E-03     200.694E-03    -100.169E-03     28.7182E-03
            2095     1.62884E-03     22.5782E-03    -78.8846E+06    -219.133E+06    -73.2399E+06     1.15682E+06    -100.430E-03     200.434E-03    -100.004E-03     19.7802E-03    -100.426E-03     199.584E-03    -99.9377E-03     19.3218E-03
            2096     814.522E-06     22.5603E-03    -80.6299E+06    -222.687E+06    -79.2571E+06     320.755E+03    -99.9907E-03     199.802E-03    -99.8110E-03     10.8887E-03    -99.9634E-03     198.929E-03    -99.7674E-03     10.6408E-03
            2097     15.3081E-03     23.9305E-03    -4.80674E+06     120.673E+06     94.3108E+06     1.13232E+06    -127.350E-03     238.513E-03    -111.163E-03     188.734E-03    -138.018E-03     249.319E-03    -110.860E-03     180.931E-03
            2098     14.5104E-03     23.6487E-03    -10.1928E+06     117.267E+06     95.4491E+06     1.53052E+06    -130.701E-03     241.050E-03    -110.349E-03     265.119E-03    -146.712E-03     257.164E-03    -110.027E-03     253.005E-03
            2099     13.7181E-03     23.3241E-03    -15.9343E+06     107.881E+06     89.6937E+06     1.43098E+06    -132.211E-03     241.682E-03    -109.471E-03     278.228E-03    -147.159E-03     256.697E-03    -109.156E-03     264.172E-03
            2100     12.9231E-03     23.0147E-03    -22.2292E+06     93.3803E+06     69.8936E+06     163.071E+03    -129.189E-03     237.716E-03    -108.527E-03     247.321E-03    -140.315E-03     248.892E-03    -108.281E-03     234.299E-03
            2101     12.1248E-03     22.7636E-03    -29.2665E+06     73.5278E+06     36.7318E+06    -151.057E+03    -124.933E-03     232.472E-03    -107.539E-03     201.093E-03    -132.147E-03     239.738E-03    -107.420E-03     190.424E-03
            2102     11.3267E-03     22.5601E-03    -34.3367E+06     53.4334E+06     11.3130E+06     1.65283E+06    -121.845E-03     228.440E-03    -106.596E-03     166.495E-03    -126.597E-03     233.228E-03    -106.567E-03     157.886E-03
            2103     10.5262E-03     22.3854E-03    -37.3051E+06     8.20804E+06     1.64057E+06     2.71993E+06    -119.560E-03     225.326E-03    -105.766E-03     144.443E-03    -122.868E-03     228.526E-03    -105.715E-03     137.368E-03
            2104     9.72505E-03     22.2303E-03    -39.5860E+06    -48.5236E+06    -3.06673E+06     2.42941E+06    -117.500E-03     222.479E-03    -104.979E-03     128.550E-03    -119.845E-03     224.520E-03    -104.867E-03     122.698E-03
            2105     8.92208E-03     22.0902E-03    -42.3078E+06    -84.5073E+06    -7.43246E+06     1.67402E+06    -115.232E-03     219.412E-03    -104.180E-03     114.439E-03    -116.901E-03     220.653E-03    -104.034E-03     109.618E-03
            2106     8.11753E-03     21.9660E-03    -45.7899E+06    -107.170E+06    -12.6366E+06     977.426E+03    -112.853E-03     216.245E-03    -103.392E-03     101.289E-03    -114.042E-03     216.928E-03    -103.233E-03     97.3372E-03
            2107     7.31122E-03     21.8554E-03    -49.4122E+06    -128.437E+06    -18.4121E+06     5.05925E+03    -110.558E-03     213.202E-03    -102.644E-03     89.2283E-03    -111.395E-03     213.460E-03    -102.478E-03     85.9972E-03
            2108     6.50358E-03     21.7582E-03    -53.2253E+06    -148.983E+06    -24.6073E+06    -275.014E+03    -108.388E-03     210.332E-03    -101.944E-03     77.9505E-03    -108.964E-03     210.262E-03    -101.774E-03     75.3265E-03
            2109     5.69425E-03     21.6732E-03    -57.7250E+06    -161.795E+06    -31.6345E+06     235.210E+03    -106.334E-03     207.625E-03    -101.292E-03     67.3545E-03    -106.728E-03     207.333E-03    -101.132E-03     65.2539E-03
            2110     4.88370E-03     21.6002E-03    -62.7598E+06    -180.685E+06    -37.4142E+06     665.376E+03    -104.454E-03     205.181E-03    -100.727E-03     57.1309E-03    -104.711E-03     204.682E-03    -100.561E-03     55.4700E-03
            2111     4.07158E-03     21.5388E-03    -67.6674E+06    -197.819E+06    -44.4410E+06     1.08126E+06    -102.820E-03     203.053E-03    -100.233E-03     47.2593E-03    -102.973E-03     202.393E-03    -100.070E-03     45.9717E-03
            2112     3.25854E-03     21.4887E-03    -71.9556E+06    -204.743E+06    -53.8071E+06     1.09118E+06    -101.465E-03     201.260E-03    -99.7946E-03     37.7835E-03    -101.550E-03     200.519E-03    -99.6624E-03     36.8149E-03
            2113     2.44471E-03     21.4495E-03    -75.6239E+06    -211.790E+06    -63.5106E+06     799.355E+03    -100.421E-03     199.852E-03    -99.4312E-03     28.3310E-03    -100.454E-03     199.049E-03    -99.3320E-03     27.6356E-03
            2114     1.63038E-03     21.4218E-03    -78.2763E+06    -217.775E+06    -72.5594E+06     534.550E+03    -99.6384E-03     198.777E-03    -99.1391E-03     19.0256E-03    -99.6331E-03     197.932E-03    -99.0726E-03     18.5713E-03
            2115     815.366E-06     21.4045E-03    -80.0963E+06    -221.490E+06    -78.9009E+06     257.683E+03    -99.1267E-03     198.028E-03    -98.9013E-03     10.4776E-03    -99.0986E-03     197.160E-03    -98.8585E-03     10.2368E-03
            2116     15.3036E-03     22.7253E-03    -4.98959E+06     119.254E+06     93.4153E+06     662.926E+03    -129.153E-03     240.263E-03    -111.110E-03     186.707E-03    -139.663E-03     250.908E-03    -110.808E-03     178.607E-03
            2117     14.5163E-03     22.4482E-03    -9.11046E+06     116.905E+06     95.7412E+06     1.04349E+06    -132.022E-03     242.225E-03    -110.203E-03     262.700E-03    -147.776E-03     258.085E-03    -109.881E-03     250.420E-03
            2118     13.7218E-03     22.1272E-03    -14.0098E+06     108.119E+06     90.7781E+06     1.48050E+06    -132.878E-03     242.133E-03    -109.255E-03     275.938E-03    -147.584E-03     256.910E-03    -108.937E-03     261.891E-03
            2119     12.9256E-03     21.8217E-03    -20.4761E+06     94.0949E+06     71.2084E+06     2.93345E+06    -129.773E-03     238.023E-03    -108.250E-03     244.804E-03    -140.732E-03     249.036E-03    -108.000E-03     231.839E-03
            2120     12.1297E-03     21.5736E-03    -27.3136E+06     74.9090E+06     38.4067E+06     3.94454E+06    -125.497E-03     232.689E-03    -107.193E-03     198.029E-03    -132.580E-03     239.830E-03    -107.070E-03     187.448E-03
            2121     11.3312E-03     21.3733E-03    -32.7409E+06     53.9170E+06     12.0219E+06     2.76098E+06    -122.135E-03     228.311E-03    -106.176E-03     163.483E-03    -126.793E-03     233.010E-03    -106.147E-03     154.936E-03
            2122     10.5317E-03     21.2023E-03    -35.6053E+06     8.38049E+06     1.69813E+06     1.92366E+06    -119.640E-03     224.924E-03    -105.284E-03     141.639E-03    -122.874E-03     228.056E-03    -105.236E-03     134.613E-03
            2123     9.73019E-03     21.0498E-03    -37.8938E+06    -47.6616E+06    -2.63975E+06     2.09492E+06    -117.419E-03     221.864E-03    -104.445E-03     125.691E-03    -119.704E-03     223.854E-03    -104.335E-03     119.896E-03
            2124     8.92734E-03     20.9138E-03    -41.1386E+06    -83.3924E+06    -6.78934E+06     2.17292E+06    -115.037E-03     218.636E-03    -103.599E-03     111.546E-03    -116.659E-03     219.835E-03    -103.452E-03     106.797E-03
            2125     8.12258E-03     20.7926E-03    -44.5310E+06    -105.437E+06    -12.0249E+06     1.59668E+06    -112.593E-03     215.353E-03    -102.760E-03     98.4018E-03    -113.742E-03     216.005E-03    -102.603E-03     94.5220E-03
            2126     7.31632E-03     20.6855E-03    -48.4122E+06    -127.123E+06    -18.2425E+06     939.885E+03    -110.187E-03     212.149E-03    -101.962E-03     86.3357E-03    -110.991E-03     212.384E-03    -101.799E-03     83.1771E-03
            2127     6.50810E-03     20.5913E-03    -52.9274E+06    -149.446E+06    -25.1813E+06     927.662E+03    -107.907E-03     209.125E-03    -101.218E-03     75.2013E-03    -108.458E-03     209.030E-03    -101.050E-03     72.6506E-03
            2128     5.69856E-03     20.5092E-03    -57.1509E+06    -162.220E+06    -32.7395E+06     1.55471E+06    -105.783E-03     206.303E-03    -100.520E-03     64.7239E-03    -106.155E-03     205.991E-03    -100.365E-03     62.6909E-03
            2129     4.88733E-03     20.4388E-03    -61.4511E+06    -180.343E+06    -37.5582E+06     1.98299E+06    -103.844E-03     203.759E-03    -99.9144E-03     54.6895E-03    -104.081E-03     203.246E-03    -99.7516E-03     53.0896E-03
            2130     4.07507E-03     20.3798E-03    -66.1983E+06    -197.160E+06    -43.1913E+06     1.39658E+06    -102.136E-03     201.519E-03    -99.3834E-03     45.0596E-03    -102.276E-03     200.849E-03    -99.2174E-03     43.8129E-03
            2131     3.26150E-03     20.3315E-03    -70.8383E+06    -203.835E+06    -53.2036E+06     662.550E+03    -100.652E-03     199.558E-03    -98.9062E-03     35.8568E-03    -100.728E-03     198.813E-03    -98.7740E-03     34.9130E-03
            2132     2.44692E-03     20.2939E-03    -74.7092E+06    -211.237E+06    -64.4525E+06     378.352E+03    -99.4891E-03     198.014E-03    -98.5247E-03     26.8749E-03    -99.5136E-03     197.210E-03    -98.4323E-03     26.1986E-03
            2133     1.63159E-03     20.2671E-03    -77.7737E+06    -217.328E+06    -73.5142E+06     317.032E+03    -98.7276E-03     196.965E-03    -98.2378E-03     18.0540E-03    -98.7175E-03     196.121E-03    -98.1775E-03     17.6126E-03
            2134     815.973E-06     20.2509E-03    -79.5994E+06    -220.495E+06    -78.5881E+06     394.088E+03    -98.3536E-03     196.238E-03    -97.8845E-03     9.77368E-03    -98.3244E-03     195.373E-03    -97.8423E-03     9.54097E-03
            2135     15.3101E-03     21.5213E-03    -4.34558E+06     119.116E+06     93.8643E+06    -1.54319E+03    -130.875E-03     241.949E-03    -111.074E-03     184.331E-03    -141.167E-03     252.377E-03    -110.771E-03     176.001E-03
            2136     14.5147E-03     21.2444E-03    -9.58758E+06     116.701E+06     95.2042E+06     114.025E+03    -132.710E-03     242.802E-03    -110.092E-03     260.148E-03    -148.180E-03     258.377E-03    -109.771E-03     247.782E-03
            2137     13.7227E-03     20.9293E-03    -16.2585E+06     105.565E+06     88.8797E+06     1.17719E+06    -133.618E-03     242.702E-03    -109.084E-03     273.149E-03    -148.095E-03     257.239E-03    -108.769E-03     259.056E-03
            2138     12.9297E-03     20.6267E-03    -22.3837E+06     90.9706E+06     73.0070E+06     2.83234E+06    -130.777E-03     238.795E-03    -108.018E-03     241.852E-03    -141.584E-03     249.634E-03    -107.753E-03     228.838E-03
            2139     12.1337E-03     20.3830E-03    -26.7364E+06     75.1389E+06     44.9530E+06     4.57610E+06    -126.183E-03     233.072E-03    -106.888E-03     194.844E-03    -133.138E-03     240.068E-03    -106.734E-03     184.298E-03
            2140     11.3363E-03     20.1865E-03    -30.4938E+06     57.3929E+06     16.5819E+06     4.71789E+06    -122.425E-03     228.207E-03    -105.782E-03     160.460E-03    -126.985E-03     232.815E-03    -105.739E-03     151.998E-03
            2141     10.5364E-03     20.0191E-03    -35.0364E+06     10.4607E+06     1.44182E+06     3.09449E+06    -119.765E-03     224.576E-03    -104.810E-03     138.827E-03    -122.924E-03     227.643E-03    -104.767E-03     131.884E-03
            2142     9.73539E-03     19.8703E-03    -39.3165E+06    -47.5930E+06    -5.23433E+06     2.22874E+06    -117.473E-03     221.380E-03    -103.907E-03     122.614E-03    -119.699E-03     223.313E-03    -103.807E-03     116.890E-03
            2143     8.93233E-03     19.7378E-03    -42.4023E+06    -82.4063E+06    -8.71827E+06     2.00682E+06    -115.036E-03     218.033E-03    -102.997E-03     108.044E-03    -116.606E-03     219.186E-03    -102.859E-03     103.363E-03
            2144     8.12779E-03     19.6201E-03    -45.5210E+06    -104.646E+06    -13.2089E+06     1.83993E+06    -112.457E-03     214.549E-03    -102.092E-03     94.6194E-03    -113.563E-03     215.160E-03    -101.941E-03     90.8155E-03
            2145     7.32124E-03     19.5167E-03    -49.4014E+06    -126.263E+06    -18.5562E+06     2.08784E+06    -109.905E-03     211.134E-03    -101.230E-03     82.4763E-03    -110.676E-03     211.336E-03    -101.068E-03     79.4038E-03
            2146     6.51317E-03     19.4257E-03    -53.6353E+06    -149.098E+06    -24.3493E+06     2.15735E+06    -107.486E-03     207.911E-03    -100.425E-03     71.4082E-03    -108.011E-03     207.787E-03    -100.253E-03     68.9406E-03
            2147     5.70316E-03     19.3467E-03    -58.0142E+06    -162.768E+06    -32.6119E+06     2.50713E+06    -105.222E-03     204.884E-03    -99.6625E-03     61.1126E-03    -105.574E-03     204.547E-03    -99.5054E-03     59.1547E-03
            2148     4.89184E-03     19.2791E-03    -62.1768E+06    -178.754E+06    -39.0507E+06     2.35739E+06    -103.194E-03     202.179E-03    -98.9856E-03     51.3893E-03    -103.417E-03     201.661E-03    -98.8315E-03     49.8497E-03
            2149     4.07887E-03     19.2225E-03    -66.0273E+06    -195.403E+06    -44.9889E+06     1.33760E+06    -101.392E-03     199.783E-03    -98.3909E-03     42.2002E-03    -101.519E-03     199.112E-03    -98.2368E-03     41.0003E-03
            2150     3.26479E-03     19.1764E-03    -70.1214E+06    -203.566E+06    -53.9780E+06     1.07811E+06    -99.8034E-03     197.664E-03    -97.8610E-03     33.4142E-03    -99.8671E-03     196.913E-03    -97.7341E-03     32.5146E-03
            2151     2.44950E-03     19.1407E-03    -74.6154E+06    -210.526E+06    -64.6925E+06     1.29353E+06    -98.5047E-03     195.935E-03    -97.4306E-03     24.8901E-03    -98.5250E-03     195.131E-03    -97.3406E-03     24.2558E-03
            2152     1.63338E-03     19.1148E-03    -78.1109E+06    -216.495E+06    -73.9062E+06     810.558E+03    -97.6034E-03     194.722E-03    -97.1183E-03     16.6125E-03    -97.5935E-03     193.880E-03    -97.0607E-03     16.1989E-03
            2153     816.903E-06     19.0990E-03    -79.7475E+06    -219.546E+06    -79.0033E+06     217.872E+03    -97.1462E-03     193.989E-03    -96.8432E-03     8.92032E-03    -97.1179E-03     193.130E-03    -96.8043E-03     8.69519E-03
            2154     15.3050E-03     20.3111E-03    -5.08489E+06     118.974E+06     93.3638E+06    -279.237E+03    -132.074E-03     243.151E-03    -111.077E-03     181.611E-03    -142.151E-03     253.361E-03    -110.775E-03     173.108E-03
            2155     14.5186E-03     20.0434E-03    -10.8391E+06     115.495E+06     93.9690E+06     430.501E+03    -133.753E-03     243.778E-03    -110.025E-03     257.258E-03    -148.940E-03     259.063E-03    -109.706E-03     244.759E-03
            2156     13.7257E-03     19.7294E-03    -16.9764E+06     104.182E+06     88.2798E+06     1.59392E+06    -134.818E-03     243.757E-03    -108.939E-03     270.237E-03    -149.047E-03     258.040E-03    -108.624E-03     256.049E-03
            2157     12.9318E-03     19.4309E-03    -23.3096E+06     89.4667E+06     71.5581E+06     2.33280E+06    -131.672E-03     239.452E-03    -107.780E-03     238.056E-03    -142.257E-03     250.064E-03    -107.518E-03     225.026E-03
            2158     12.1375E-03     19.1909E-03    -28.6830E+06     72.9331E+06     42.7585E+06     2.95781E+06    -126.697E-03     233.265E-03    -106.568E-03     191.028E-03    -133.489E-03     240.090E-03    -106.418E-03     180.508E-03
            2159     11.3403E-03     19.0001E-03    -31.9978E+06     57.9734E+06     16.0517E+06     4.04386E+06    -122.909E-03     228.300E-03    -105.391E-03     156.952E-03    -127.364E-03     232.800E-03    -105.348E-03     148.529E-03
            2160     10.5412E-03     18.8358E-03    -34.5251E+06     12.8000E+06     3.12822E+06     4.83913E+06    -120.276E-03     224.616E-03    -104.340E-03     135.110E-03    -123.346E-03     227.600E-03    -104.293E-03     128.241E-03
            2161     9.74035E-03     18.6911E-03    -37.7711E+06    -45.0156E+06    -4.36352E+06     3.75560E+06    -117.968E-03     221.300E-03    -103.332E-03     118.172E-03    -120.107E-03     223.158E-03    -103.234E-03     112.530E-03
            2162     8.93826E-03     18.5618E-03    -41.7101E+06    -81.3967E+06    -8.96547E+06     2.70230E+06    -115.374E-03     217.682E-03    -102.309E-03     102.973E-03    -116.866E-03     218.764E-03    -102.175E-03     98.3767E-03
            2163     8.13398E-03     18.4487E-03    -45.8715E+06    -104.582E+06    -13.1221E+06     2.89505E+06    -112.535E-03     213.831E-03    -101.296E-03     89.1801E-03    -113.578E-03     214.378E-03    -101.143E-03     85.4758E-03
            2164     7.32773E-03     18.3487E-03    -49.9703E+06    -125.378E+06    -18.2905E+06     2.87312E+06    -109.746E-03     210.070E-03    -100.324E-03     76.9889E-03    -110.468E-03     210.223E-03    -100.161E-03     74.0183E-03
            2165     6.51940E-03     18.2616E-03    -54.1253E+06    -148.751E+06    -23.5082E+06     3.04261E+06    -107.097E-03     206.516E-03    -99.4184E-03     65.9900E-03    -107.584E-03     206.350E-03    -99.2418E-03     63.6236E-03
            2166     5.70930E-03     18.1859E-03    -58.1422E+06    -162.296E+06    -32.9530E+06     3.18065E+06    -104.599E-03     203.151E-03    -98.5522E-03     56.0127E-03    -104.919E-03     202.784E-03    -98.3973E-03     54.1498E-03
            2167     4.89723E-03     18.1213E-03    -61.8478E+06    -176.528E+06    -41.5704E+06     2.66269E+06    -102.358E-03     200.133E-03    -97.7752E-03     46.7501E-03    -102.555E-03     199.605E-03    -97.6374E-03     45.2934E-03
            2168     4.08383E-03     18.0674E-03    -66.1424E+06    -193.590E+06    -48.2954E+06     1.90624E+06    -100.405E-03     197.506E-03    -97.1002E-03     38.0761E-03    -100.514E-03     196.832E-03    -96.9650E-03     36.9501E-03
            2169     3.26888E-03     18.0236E-03    -70.8856E+06    -203.846E+06    -55.3369E+06     1.86934E+06    -98.7159E-03     195.221E-03    -96.5053E-03     29.8957E-03    -98.7708E-03     194.461E-03    -96.3836E-03     29.0577E-03
            2170     2.45293E-03     17.9898E-03    -74.8975E+06    -209.122E+06    -63.6184E+06     1.95755E+06    -97.3068E-03     193.302E-03    -95.9954E-03     22.1475E-03    -97.3264E-03     192.498E-03    -95.9016E-03     21.5603E-03
            2171     1.63598E-03     17.9654E-03    -78.1967E+06    -214.469E+06    -72.5178E+06     1.22587E+06    -96.1952E-03     191.797E-03    -95.6021E-03     14.7260E-03    -96.1880E-03     190.961E-03    -95.5403E-03     14.3459E-03
            2172     818.000E-06     17.9506E-03    -80.8928E+06    -218.765E+06    -79.2918E+06     457.619E+03    -95.4970E-03     190.867E-03    -95.3699E-03     7.74752E-03    -95.4742E-03     190.012E-03    -95.3318E-03     7.54206E-03
            2173     15.3087E-03     19.1022E-03    -5.41484E+06     119.020E+06     92.6428E+06     203.065E+03    -133.338E-03     244.447E-03    -111.110E-03     177.995E-03    -143.114E-03     254.359E-03    -110.811E-03     169.344E-03
            2174     14.5159E-03     18.8380E-03    -10.7698E+06     114.226E+06     93.3000E+06     747.576E+03    -135.285E-03     245.260E-03    -109.975E-03     253.371E-03    -150.087E-03     260.158E-03    -109.658E-03     240.700E-03
            2175     13.7264E-03     18.5270E-03    -16.6223E+06     102.713E+06     88.1201E+06     1.65797E+06    -136.154E-03     244.947E-03    -108.793E-03     266.496E-03    -150.050E-03     258.894E-03    -108.477E-03     252.234E-03
            2176     12.9362E-03     18.2338E-03    -22.4138E+06     88.8250E+06     72.6488E+06     2.83195E+06    -132.440E-03     239.987E-03    -107.546E-03     233.497E-03    -142.729E-03     250.300E-03    -107.279E-03     220.522E-03
            2177     12.1412E-03     17.9996E-03    -27.7766E+06     73.0787E+06     43.8008E+06     3.22426E+06    -127.472E-03     233.718E-03    -106.245E-03     186.497E-03    -134.055E-03     240.335E-03    -106.092E-03     176.027E-03
            2178     11.3448E-03     17.8121E-03    -32.0407E+06     56.4469E+06     15.2735E+06     3.26094E+06    -124.025E-03     228.976E-03    -104.951E-03     151.911E-03    -128.323E-03     233.317E-03    -104.910E-03     143.499E-03
            2179     10.5468E-03     17.6525E-03    -34.8477E+06     12.5303E+06     2.73039E+06     4.26616E+06    -121.529E-03     225.282E-03    -103.753E-03     129.236E-03    -124.468E-03     228.135E-03    -103.707E-03     122.390E-03
            2180     9.74751E-03     17.5109E-03    -37.3861E+06    -41.8531E+06    -3.42193E+06     4.78804E+06    -118.962E-03     221.538E-03    -102.576E-03     111.333E-03    -120.981E-03     223.286E-03    -102.478E-03     105.779E-03
            2181     8.94599E-03     17.3867E-03    -40.7147E+06    -80.1772E+06    -8.39939E+06     4.36903E+06    -115.988E-03     217.368E-03    -101.380E-03     95.4170E-03    -117.368E-03     218.344E-03    -101.247E-03     90.9488E-03
            2182     8.14244E-03     17.2775E-03    -44.2846E+06    -103.901E+06    -12.7873E+06     4.12827E+06    -112.807E-03     213.004E-03    -100.197E-03     81.3940E-03    -113.751E-03     213.459E-03    -100.046E-03     77.8283E-03
            2183     7.33651E-03     17.1823E-03    -48.2259E+06    -124.311E+06    -18.4421E+06     4.28307E+06    -109.664E-03     208.720E-03    -99.0562E-03     69.2520E-03    -110.303E-03     208.801E-03    -98.8982E-03     66.4289E-03
            2184     6.52835E-03     17.0990E-03    -52.6519E+06    -148.069E+06    -23.6402E+06     4.28156E+06    -106.650E-03     204.645E-03    -97.9941E-03     58.4716E-03    -107.072E-03     204.423E-03    -97.8213E-03     56.2467E-03
            2185     5.71788E-03     17.0275E-03    -56.8926E+06    -160.773E+06    -32.5477E+06     3.78751E+06    -103.794E-03     200.778E-03    -96.9843E-03     48.9154E-03    -104.067E-03     200.373E-03    -96.8314E-03     47.1750E-03
            2186     4.90543E-03     16.9662E-03    -60.8871E+06    -174.956E+06    -41.8567E+06     3.54299E+06    -101.211E-03     197.287E-03    -96.0757E-03     40.3278E-03    -101.375E-03     196.735E-03    -95.9430E-03     38.9857E-03
            2187     4.09094E-03     16.9153E-03    -65.0520E+06    -192.092E+06    -48.9907E+06     3.74223E+06    -98.9865E-03     194.275E-03    -95.2889E-03     32.4545E-03    -99.0702E-03     193.588E-03    -95.1610E-03     31.4398E-03
            2188     3.27507E-03     16.8741E-03    -69.5291E+06    -202.257E+06    -55.4290E+06     3.09653E+06    -97.0616E-03     191.668E-03    -94.6067E-03     25.2769E-03    -97.0991E-03     190.901E-03    -94.4897E-03     24.5241E-03
            2189     2.45766E-03     16.8424E-03    -73.9457E+06    -207.347E+06    -63.2293E+06     2.11704E+06    -95.4749E-03     189.506E-03    -94.0308E-03     18.6837E-03    -95.4860E-03     188.701E-03    -93.9391E-03     18.1502E-03
            2190     1.63912E-03     16.8198E-03    -77.6201E+06    -212.587E+06    -71.6136E+06     1.68601E+06    -94.2871E-03     187.863E-03    -93.5759E-03     12.3651E-03    -94.2780E-03     187.031E-03    -93.5132E-03     12.0254E-03
            2191     819.994E-06     16.8063E-03    -80.1994E+06    -216.728E+06    -78.7253E+06     814.108E+03    -93.5102E-03     186.734E-03    -93.2236E-03     6.55118E-03    -93.4869E-03     185.886E-03    -93.1867E-03     6.36903E-03
            2192     15.3038E-03     17.8894E-03    -5.12838E+06     118.487E+06     92.1640E+06     596.905E+03    -135.097E-03     246.244E-03    -111.147E-03     174.555E-03    -144.598E-03     255.881E-03    -110.851E-03     165.656E-03
            2193     14.5198E-03     17.6319E-03    -10.8802E+06     113.527E+06     92.7523E+06     1.32443E+06    -136.996E-03     246.905E-03    -109.909E-03     248.906E-03    -151.387E-03     261.392E-03    -109.594E-03     236.046E-03
            2194     13.7305E-03     17.3239E-03    -17.0977E+06     101.890E+06     87.5225E+06     1.87670E+06    -137.345E-03     245.969E-03    -108.624E-03     262.131E-03    -150.841E-03     259.512E-03    -108.309E-03     247.829E-03
            2195     12.9379E-03     17.0361E-03    -22.9902E+06     87.6281E+06     73.4629E+06     2.07072E+06    -133.845E-03     241.118E-03    -107.273E-03     228.065E-03    -143.793E-03     251.083E-03    -107.000E-03     215.058E-03
            2196     12.1456E-03     16.8061E-03    -27.5591E+06     72.6366E+06     46.1088E+06     2.76227E+06    -129.448E-03     235.268E-03    -105.819E-03     179.587E-03    -135.759E-03     241.605E-03    -105.654E-03     169.072E-03
            2197     11.3512E-03     16.6235E-03    -31.5739E+06     55.7804E+06     15.3798E+06     3.97115E+06    -126.162E-03     230.466E-03    -104.304E-03     143.784E-03    -130.226E-03     234.572E-03    -104.262E-03     135.379E-03
            2198     10.5555E-03     16.4671E-03    -35.4413E+06     13.0390E+06     206.961E+03     4.61615E+06    -123.424E-03     226.275E-03    -102.851E-03     119.887E-03    -126.160E-03     228.932E-03    -102.818E-03     113.107E-03
            2199     9.75784E-03     16.3310E-03    -38.6101E+06    -40.6064E+06    -5.80677E+06     4.53577E+06    -120.352E-03     221.775E-03    -101.423E-03     101.052E-03    -122.195E-03     223.355E-03    -101.337E-03     95.6179E-03
            2200     8.95796E-03     16.2114E-03    -40.9240E+06    -79.0126E+06    -9.87880E+06     4.66982E+06    -116.798E-03     216.781E-03    -99.9832E-03     84.5588E-03    -118.027E-03     217.614E-03    -99.8587E-03     80.2543E-03
            2201     8.15522E-03     16.1080E-03    -43.7686E+06    -102.871E+06    -14.2203E+06     4.82716E+06    -113.050E-03     211.613E-03    -98.5625E-03     70.5130E-03    -113.869E-03     211.952E-03    -98.4209E-03     67.1343E-03
            2202     7.34972E-03     16.0174E-03    -47.1231E+06    -123.938E+06    -19.7734E+06     5.45127E+06    -109.387E-03     206.587E-03    -97.1998E-03     58.7354E-03    -109.926E-03     206.576E-03    -97.0507E-03     56.1019E-03
            2203     6.54148E-03     15.9393E-03    -51.2421E+06    -146.371E+06    -23.8807E+06     6.06684E+06    -105.844E-03     201.779E-03    -95.9355E-03     48.6051E-03    -106.192E-03     201.495E-03    -95.7684E-03     46.5654E-03
            2204     5.73059E-03     15.8719E-03    -56.3124E+06    -158.429E+06    -30.3396E+06     5.47182E+06    -102.483E-03     197.240E-03    -94.7565E-03     40.0054E-03    -102.711E-03     196.794E-03    -94.5968E-03     38.4313E-03
            2205     4.91707E-03     15.8151E-03    -61.6173E+06    -174.009E+06    -40.5127E+06     5.24020E+06    -99.4644E-03     193.158E-03    -93.6935E-03     32.5997E-03    -99.6016E-03     192.576E-03    -93.5544E-03     31.4042E-03
            2206     4.10140E-03     15.7675E-03    -66.0776E+06    -189.790E+06    -51.1620E+06     4.96542E+06    -96.8347E-03     189.603E-03    -92.7687E-03     26.0338E-03    -96.9018E-03     188.910E-03    -92.6535E-03     25.1414E-03
            2207     3.28356E-03     15.7295E-03    -69.1898E+06    -199.112E+06    -57.5617E+06     3.80526E+06    -94.6348E-03     186.639E-03    -92.0038E-03     20.1213E-03    -94.6589E-03     185.877E-03    -91.9025E-03     19.4624E-03
            2208     2.46411E-03     15.7002E-03    -72.4575E+06    -205.509E+06    -63.6032E+06     3.02018E+06    -92.8921E-03     184.283E-03    -91.3908E-03     14.7516E-03    -92.8908E-03     183.479E-03    -91.3058E-03     14.2911E-03
            2209     1.64352E-03     15.6795E-03    -75.7762E+06    -210.246E+06    -71.2603E+06     2.28549E+06    -91.6281E-03     182.548E-03    -90.9203E-03     9.68337E-03    -91.6106E-03     181.722E-03    -90.8619E-03     9.39203E-03
            2210     821.909E-06     15.6671E-03    -77.8332E+06    -213.462E+06    -76.9385E+06     1.17874E+06    -90.8101E-03     181.424E-03    -90.6143E-03     5.04412E-03    -90.7814E-03     180.586E-03    -90.5766E-03     4.88875E-03
            2211     15.3068E-03     16.6753E-03    -5.14236E+06     117.612E+06     91.5944E+06     1.03752E+06    -136.858E-03     248.046E-03    -111.188E-03     171.680E-03    -146.102E-03     257.425E-03    -110.893E-03     162.519E-03
            2212     14.5189E-03     16.4208E-03    -11.1753E+06     112.518E+06     91.6515E+06     2.04779E+06    -138.868E-03     248.711E-03    -109.843E-03     245.177E-03    -152.897E-03     262.834E-03    -109.532E-03     232.026E-03
            2213     13.7310E-03     16.1204E-03    -16.7945E+06     102.244E+06     86.9399E+06     2.35156E+06    -139.952E-03     248.360E-03    -108.408E-03     256.987E-03    -153.042E-03     261.501E-03    -108.097E-03     242.409E-03
            2214     12.9436E-03     15.8351E-03    -22.8005E+06     87.9234E+06     70.0722E+06     1.79657E+06    -137.127E-03     243.945E-03    -106.819E-03     220.060E-03    -146.638E-03     253.486E-03    -106.563E-03     206.808E-03
            2215     12.1540E-03     15.6111E-03    -28.1674E+06     70.7348E+06     40.6531E+06     2.46448E+06    -132.972E-03     238.035E-03    -105.063E-03     169.363E-03    -138.898E-03     243.995E-03    -104.922E-03     158.712E-03
            2216     11.3631E-03     15.4319E-03    -32.1484E+06     54.4689E+06     13.2694E+06     4.30536E+06    -129.358E-03     232.585E-03    -103.227E-03     132.083E-03    -133.103E-03     236.372E-03    -103.193E-03     123.681E-03
            2217     10.5701E-03     15.2816E-03    -34.8751E+06     14.6444E+06    -739.235E+03     5.39420E+06    -125.813E-03     227.242E-03    -101.429E-03     106.907E-03    -128.273E-03     229.634E-03    -101.404E-03     100.253E-03
            2218     9.77479E-03     15.1505E-03    -37.7758E+06    -38.5309E+06    -8.06141E+06     5.38108E+06    -121.909E-03     221.569E-03    -99.6595E-03     87.3916E-03    -123.523E-03     222.936E-03    -99.5891E-03     82.1511E-03
            2219     8.97633E-03     15.0377E-03    -41.4800E+06    -77.9407E+06    -12.1946E+06     5.20952E+06    -117.555E-03     215.460E-03    -97.9053E-03     70.7536E-03    -118.608E-03     216.126E-03    -97.7931E-03     66.6685E-03
            2220     8.17447E-03     14.9402E-03    -45.2944E+06    -101.949E+06    -16.4277E+06     5.58426E+06    -113.008E-03     209.199E-03    -96.1912E-03     57.1453E-03    -113.698E-03     209.415E-03    -96.0599E-03     53.9960E-03
            2221     7.36909E-03     14.8560E-03    -49.3711E+06    -124.266E+06    -22.1366E+06     6.60038E+06    -108.544E-03     203.110E-03    -94.5665E-03     46.1757E-03    -108.990E-03     203.005E-03    -94.4254E-03     43.7700E-03
            2222     6.56029E-03     14.7834E-03    -53.5130E+06    -144.305E+06    -26.2197E+06     7.13885E+06    -104.270E-03     197.345E-03    -93.0742E-03     37.1814E-03    -104.558E-03     197.006E-03    -92.9185E-03     35.3512E-03
            2223     5.74804E-03     14.7218E-03    -57.3375E+06    -155.919E+06    -31.1625E+06     6.73152E+06    -100.315E-03     192.033E-03    -91.7176E-03     29.9773E-03    -100.502E-03     191.553E-03    -91.5642E-03     28.5910E-03
            2224     4.93281E-03     14.6694E-03    -61.4947E+06    -173.007E+06    -39.3716E+06     6.98839E+06    -96.8103E-03     187.335E-03    -90.5249E-03     24.0547E-03    -96.9172E-03     186.723E-03    -90.3817E-03     23.0246E-03
            2225     4.11474E-03     14.6264E-03    -65.7371E+06    -185.399E+06    -51.5777E+06     6.24111E+06    -93.8255E-03     183.314E-03    -89.4883E-03     19.0507E-03    -93.8760E-03     182.622E-03    -89.3821E-03     18.2913E-03
            2226     3.29447E-03     14.5914E-03    -69.2284E+06    -195.712E+06    -60.5942E+06     4.19587E+06    -91.4215E-03     180.069E-03    -88.6472E-03     14.6064E-03    -91.4339E-03     179.315E-03    -88.5660E-03     14.0439E-03
            2227     2.47252E-03     14.5649E-03    -71.6748E+06    -203.705E+06    -65.3295E+06     3.41968E+06    -89.5455E-03     177.550E-03    -88.0045E-03     10.5887E-03    -89.5338E-03     176.749E-03    -87.9319E-03     10.1990E-03
            2228     1.64901E-03     14.5460E-03    -73.7395E+06    -206.930E+06    -70.3357E+06     2.93395E+06    -88.1869E-03     175.731E-03    -87.5443E-03     6.90664E-03    -88.1626E-03     174.913E-03    -87.4890E-03     6.66670E-03
            2229     824.799E-06     14.5348E-03    -75.4201E+06    -209.646E+06    -74.5754E+06     1.61655E+06    -87.4189E-03     174.703E-03    -87.2840E-03     3.47694E-03    -87.3863E-03     173.875E-03    -87.2436E-03     3.35241E-03
            2230     15.3031E-03     15.4581E-03    -4.77409E+06     116.657E+06     91.4061E+06     1.70492E+06    -139.405E-03     250.642E-03    -111.237E-03     168.474E-03    -148.325E-03     259.694E-03    -110.942E-03     158.977E-03
            2231     14.5199E-03     15.2100E-03    -9.63647E+06     112.076E+06     91.8940E+06     2.44230E+06    -142.099E-03     251.822E-03    -109.723E-03     239.017E-03    -155.596E-03     265.417E-03    -109.412E-03     225.363E-03
            2232     13.7364E-03     14.9104E-03    -15.5474E+06     102.081E+06     86.2889E+06     2.41440E+06    -144.530E-03     252.549E-03    -108.019E-03     248.760E-03    -157.066E-03     265.142E-03    -107.713E-03     233.609E-03
            2233     12.9524E-03     14.6313E-03    -21.1876E+06     88.3365E+06     67.9692E+06     3.13389E+06    -142.460E-03     248.506E-03    -106.046E-03     209.116E-03    -151.412E-03     257.500E-03    -105.804E-03     195.469E-03
            2234     12.1680E-03     14.4109E-03    -26.7353E+06     70.3133E+06     37.7375E+06     4.01261E+06    -137.910E-03     241.757E-03    -103.848E-03     156.093E-03    -143.355E-03     247.249E-03    -103.722E-03     145.291E-03
            2235     11.3817E-03     14.2386E-03    -30.7684E+06     53.4806E+06     11.6944E+06     4.43775E+06    -133.233E-03     234.801E-03    -101.567E-03     117.356E-03    -136.594E-03     238.210E-03    -101.542E-03     108.977E-03
            2236     10.5924E-03     14.0945E-03    -33.6356E+06     14.7572E+06    -939.820E+03     5.96096E+06    -128.489E-03     227.832E-03    -99.3429E-03     91.5281E-03    -130.646E-03     229.927E-03    -99.3202E-03     85.0294E-03
            2237     9.79929E-03     13.9713E-03    -36.7576E+06    -35.8493E+06    -8.73350E+06     7.20133E+06    -123.403E-03     220.569E-03    -97.1659E-03     71.7715E-03    -124.783E-03     221.718E-03    -97.1043E-03     66.7731E-03
            2238     9.00218E-03     13.8656E-03    -40.4468E+06    -76.0379E+06    -13.2159E+06     7.34909E+06    -117.956E-03     213.001E-03    -95.0455E-03     55.4039E-03    -118.829E-03     213.501E-03    -94.9426E-03     51.5931E-03
            2239     8.20082E-03     13.7762E-03    -44.9295E+06    -100.738E+06    -16.4596E+06     7.72095E+06    -112.388E-03     205.401E-03    -93.0135E-03     42.6073E-03    -112.949E-03     205.494E-03    -92.8846E-03     39.7296E-03
            2240     7.39498E-03     13.6991E-03    -49.0857E+06    -123.339E+06    -22.2106E+06     8.09438E+06    -106.921E-03     198.035E-03    -91.1145E-03     32.8388E-03    -107.275E-03     197.843E-03    -90.9755E-03     30.6836E-03
            2241     6.58469E-03     13.6339E-03    -52.5867E+06    -141.689E+06    -27.6399E+06     7.78833E+06    -101.800E-03     191.196E-03    -89.3957E-03     25.3810E-03    -102.020E-03     190.806E-03    -89.2522E-03     23.7680E-03
            2242     5.77046E-03     13.5781E-03    -56.4259E+06    -153.802E+06    -33.0084E+06     7.29839E+06    -97.2269E-03     185.103E-03    -87.8757E-03     19.7762E-03    -97.3656E-03     184.590E-03    -87.7359E-03     18.5753E-03
            2243     4.95253E-03     13.5317E-03    -60.2040E+06    -171.861E+06    -38.6843E+06     7.64376E+06    -93.2722E-03     179.853E-03    -86.5807E-03     15.4177E-03    -93.3472E-03     179.215E-03    -86.4376E-03     14.5406E-03
            2244     4.13158E-03     13.4928E-03    -63.5222E+06    -180.784E+06    -49.1514E+06     7.39603E+06    -89.9786E-03     175.450E-03    -85.4712E-03     12.0506E-03    -90.0107E-03     174.756E-03    -85.3627E-03     11.4209E-03
            2245     3.30818E-03     13.4619E-03    -67.0620E+06    -191.569E+06    -59.7329E+06     6.06944E+06    -87.3975E-03     171.980E-03    -84.5821E-03     9.20779E-03    -87.3962E-03     171.232E-03    -84.5057E-03     8.75796E-03
            2246     2.48268E-03     13.4379E-03    -70.3675E+06    -200.687E+06    -66.3184E+06     4.30431E+06    -85.4542E-03     169.372E-03    -83.9173E-03     6.64089E-03    -85.4337E-03     168.580E-03    -83.8559E-03     6.32633E-03
            2247     1.65593E-03     13.4212E-03    -72.3291E+06    -203.400E+06    -69.7767E+06     3.04550E+06    -84.0852E-03     167.548E-03    -83.4631E-03     4.31357E-03    -84.0575E-03     166.743E-03    -83.4122E-03     4.11581E-03
            2248     828.004E-06     13.4109E-03    -73.5455E+06    -205.356E+06    -72.6974E+06     2.17472E+06    -83.3874E-03     166.549E-03    -83.1615E-03     2.25202E-03    -83.3539E-03     165.736E-03    -83.1205E-03     2.15779E-03
            2249     15.3041E-03     14.2368E-03    -4.80906E+06     114.591E+06     90.1760E+06     1.08059E+06    -143.579E-03     254.789E-03    -111.211E-03     162.923E-03    -152.110E-03     263.449E-03    -110.919E-03     152.835E-03
            2250     14.5243E-03     13.9936E-03    -8.80244E+06     111.281E+06     91.4226E+06     1.94870E+06    -147.667E-03     257.080E-03    -109.414E-03     231.826E-03    -160.551E-03     270.063E-03    -109.105E-03     217.355E-03
            2251     13.7447E-03     13.6966E-03    -13.6853E+06     102.031E+06     87.0708E+06     3.25531E+06    -151.395E-03     258.701E-03    -107.306E-03     239.315E-03    -163.253E-03     270.621E-03    -106.999E-03     223.390E-03
            2252     12.9680E-03     13.4197E-03    -19.7068E+06     87.5649E+06     70.4081E+06     4.42584E+06    -149.265E-03     254.094E-03    -104.829E-03     195.029E-03    -157.558E-03     262.425E-03    -104.575E-03     180.908E-03
            2253     12.1902E-03     13.2071E-03    -24.6218E+06     70.6659E+06     41.5416E+06     5.07657E+06    -143.361E-03     245.450E-03    -102.089E-03     139.881E-03    -148.279E-03     250.414E-03    -101.948E-03     128.957E-03
            2254     11.4083E-03     13.0425E-03    -28.8290E+06     53.2953E+06     12.5811E+06     6.01461E+06    -137.149E-03     236.429E-03    -99.2802E-03     100.960E-03    -140.117E-03     239.451E-03    -99.2528E-03     92.6751E-03
            2255     10.6222E-03     12.9075E-03    -32.8558E+06     15.1990E+06    -1.79146E+06     7.42330E+06    -131.049E-03     227.623E-03    -96.5732E-03     75.1552E-03    -132.921E-03     229.440E-03    -96.5566E-03     68.8480E-03
            2256     9.83136E-03     12.7933E-03    -35.8446E+06    -33.3936E+06    -9.56104E+06     8.29834E+06    -124.548E-03     218.510E-03    -93.9621E-03     55.6791E-03    -125.716E-03     219.462E-03    -93.9095E-03     50.9296E-03
            2257     9.03525E-03     12.6975E-03    -38.5756E+06    -74.3406E+06    -13.9278E+06     9.36199E+06    -117.717E-03     209.185E-03    -91.4686E-03     40.2451E-03    -118.430E-03     209.540E-03    -91.3745E-03     36.7188E-03
            2258     8.23357E-03     12.6170E-03    -41.5066E+06    -98.2884E+06    -15.2207E+06     9.71345E+06    -110.920E-03     200.056E-03    -89.1360E-03     28.8227E-03    -111.363E-03     200.048E-03    -89.0094E-03     26.2191E-03
            2259     7.42641E-03     12.5493E-03    -44.6628E+06    -121.078E+06    -20.1943E+06      9.4135E+06    -104.484E-03     191.481E-03    -86.9969E-03     20.6485E-03    -104.751E-03     191.218E-03    -86.8575E-03     18.7318E-03
            2260     6.61402E-03     12.4920E-03    -48.4470E+06    -138.856E+06    -26.3213E+06     9.25419E+06    -98.6090E-03     183.697E-03    -85.0879E-03     14.8747E-03    -98.7658E-03     183.265E-03    -84.9479E-03     13.4728E-03
            2261     5.79677E-03     12.4436E-03    -52.4986E+06    -151.329E+06    -31.9930E+06     8.86349E+06    -93.4644E-03     176.895E-03    -83.4303E-03     10.8261E-03    -93.5566E-03     176.356E-03    -83.2947E-03     9.80479E-03
            2262     4.97565E-03     12.4029E-03    -56.8717E+06    -169.806E+06    -37.5850E+06     8.71085E+06    -89.1189E-03     171.160E-03    -82.0416E-03     7.94181E-03    -89.1616E-03     170.506E-03    -81.9008E-03     7.20637E-03
            2263     4.15106E-03     12.3694E-03    -61.2758E+06    -177.536E+06    -46.0694E+06     8.48591E+06    -85.5247E-03     166.407E-03    -80.8826E-03     6.04388E-03    -85.5424E-03     165.709E-03    -80.7667E-03     5.52887E-03
            2264     3.32360E-03     12.3420E-03    -65.0628E+06    -187.084E+06    -54.3825E+06     7.95542E+06    -82.7570E-03     162.737E-03    -79.9799E-03     4.58022E-03    -82.7529E-03     161.994E-03    -79.8862E-03     4.23141E-03
            2265     2.49437E-03     12.3210E-03    -68.2543E+06    -195.208E+06    -62.9127E+06     6.18833E+06    -80.7876E-03     160.092E-03    -79.3045E-03     3.29276E-03    -80.7658E-03     159.316E-03    -79.2371E-03     3.05756E-03
            2266     1.66359E-03     12.3061E-03    -70.9935E+06    -199.094E+06    -68.9024E+06     3.83245E+06    -79.4898E-03     158.324E-03    -78.8338E-03     2.14962E-03    -79.4615E-03     157.534E-03    -78.7866E-03     1.99775E-03
            2267     832.135E-06     12.2970E-03    -72.7603E+06    -200.798E+06    -71.5971E+06     2.14352E+06    -78.8139E-03     157.267E-03    -78.4530E-03     1.15040E-03    -78.7843E-03     156.474E-03    -78.4143E-03     1.07360E-03
            2268     15.3059E-03     13.0106E-03    -3.99950E+06     114.189E+06     89.4500E+06     430.464E+03    -149.905E-03     260.962E-03    -111.056E-03     158.279E-03    -158.083E-03     269.272E-03    -110.769E-03     147.255E-03
            2269     14.5306E-03     12.7708E-03    -9.10252E+06     109.935E+06     89.4374E+06     931.828E+03    -155.695E-03     264.539E-03    -108.844E-03     224.863E-03    -168.030E-03     276.973E-03    -108.543E-03     209.105E-03
            2270     13.7605E-03     12.4733E-03    -14.1937E+06     99.1053E+06     85.5791E+06     2.61198E+06    -160.469E-03     266.653E-03    -106.184E-03     228.352E-03    -171.655E-03     277.894E-03    -105.879E-03     211.364E-03
            2271     12.9919E-03     12.2019E-03    -18.5700E+06     86.0641E+06     71.9439E+06     4.31623E+06    -156.733E-03     259.823E-03    -103.090E-03     179.497E-03    -164.353E-03     267.477E-03    -102.828E-03     164.888E-03
            2272     12.2194E-03     11.9992E-03    -23.2502E+06     69.8921E+06     43.9923E+06     6.06016E+06    -148.640E-03     248.404E-03    -99.7640E-03     122.834E-03    -153.036E-03     252.842E-03    -99.6117E-03     111.867E-03
            2273     11.4416E-03     11.8453E-03    -27.8598E+06     52.1192E+06     13.6021E+06     8.32514E+06    -140.623E-03     237.050E-03    -96.4274E-03     84.3974E-03    -143.233E-03     239.711E-03    -96.3946E-03     76.2688E-03
            2274     10.6584E-03     11.7207E-03    -32.1071E+06     17.6507E+06    -2.00154E+06     9.94307E+06    -132.839E-03     226.092E-03    -93.2524E-03     59.4036E-03    -134.466E-03     227.676E-03    -93.2414E-03     53.3396E-03
            2275     9.86910E-03     11.6184E-03    -36.4838E+06    -30.0271E+06    -10.7321E+06     10.2550E+06    -124.690E-03     214.943E-03    -90.2532E-03     41.1843E-03    -125.695E-03     215.746E-03    -90.2104E-03     36.7090E-03
            2276     9.07293E-03     11.5341E-03    -39.6604E+06    -71.4564E+06    -17.3313E+06     9.60296E+06    -116.423E-03     203.870E-03    -87.4473E-03     27.7555E-03    -117.027E-03     204.132E-03    -87.3728E-03     24.4876E-03
            2277     8.26989E-03     11.4649E-03    -41.0842E+06    -96.2283E+06    -18.1101E+06     9.11229E+06    -108.583E-03     193.471E-03    -84.8874E-03     18.2875E-03    -108.950E-03     193.404E-03    -84.7789E-03     15.9034E-03
            2278     7.46033E-03     11.4072E-03    -43.2100E+06    -119.797E+06    -19.4986E+06     10.3987E+06    -101.437E-03     184.028E-03    -82.5908E-03     11.7146E-03    -101.653E-03     183.722E-03    -82.4520E-03     10.0002E-03
            2279     6.64508E-03     11.3592E-03    -46.3327E+06    -135.357E+06    -24.0109E+06     10.6494E+06    -95.0344E-03     175.583E-03    -80.5484E-03     7.41147E-03    -95.1599E-03     175.133E-03    -80.4050E-03     6.18171E-03
            2280     5.82483E-03     11.3185E-03    -49.5359E+06    -148.827E+06    -30.8695E+06     10.0770E+06    -89.4707E-03     168.250E-03    -78.7790E-03     4.71206E-03    -89.5352E-03     167.699E-03    -78.6457E-03     3.83053E-03
            2281     5.00002E-03     11.2845E-03    -53.1555E+06    -167.278E+06    -35.1859E+06     10.5872E+06    -84.8184E-03     162.134E-03    -77.3157E-03     2.96377E-03    -84.8384E-03     161.473E-03    -77.1720E-03     2.35068E-03
            2282     4.17163E-03     11.2562E-03    -57.6740E+06    -174.115E+06    -39.9073E+06     10.3644E+06    -81.0006E-03     157.115E-03    -76.1147E-03     2.01523E-03    -81.0076E-03     156.414E-03    -75.9781E-03     1.59894E-03
            2283     3.34042E-03     11.2330E-03    -62.4777E+06    -182.264E+06    -48.5103E+06     9.23741E+06    -78.0303E-03     153.202E-03    -75.1715E-03     1.51990E-03    -78.0250E-03     152.467E-03    -75.0592E-03     1.24358E-03
            2284     2.50681E-03     11.2148E-03    -66.2974E+06    -188.768E+06    -58.3885E+06     7.42319E+06    -75.9432E-03     150.418E-03    -74.4744E-03     1.16483E-03    -75.9256E-03     149.662E-03    -74.3965E-03     986.693E-06
            2285     1.67198E-03     11.2017E-03    -68.9121E+06    -192.976E+06    -65.5835E+06     5.01318E+06    -74.6364E-03     148.636E-03    -74.0000E-03     848.049E-06    -74.6106E-03     147.869E-03    -73.9482E-03     738.866E-06
            2286     836.230E-06     11.1935E-03    -70.5496E+06    -195.551E+06    -69.8954E+06     2.43112E+06    -73.9912E-03     147.595E-03    -73.6033E-03     538.188E-06    -73.9604E-03     146.822E-03    -73.5670E-03     478.418E-06
            2287     15.3095E-03     11.7771E-03    -3.79579E+06     114.107E+06     88.8231E+06     551.991E+03    -159.224E-03     270.025E-03    -110.801E-03     154.643E-03    -167.128E-03     278.063E-03    -110.517E-03     142.288E-03
            2288     14.5434E-03     11.5371E-03    -9.12024E+06     109.171E+06     88.7128E+06     1.20967E+06    -166.837E-03     274.854E-03    -108.017E-03     218.831E-03    -178.718E-03     286.833E-03    -107.718E-03     201.357E-03
            2289     13.7818E-03     11.2393E-03    -14.7197E+06     96.7471E+06     84.1880E+06     1.17354E+06    -170.797E-03     275.467E-03    -104.669E-03     216.785E-03    -181.366E-03     286.085E-03    -104.367E-03     198.562E-03
            2290     13.0207E-03     10.9774E-03    -19.8124E+06     82.5200E+06     70.4995E+06     2.66295E+06    -164.010E-03     264.912E-03    -100.902E-03     162.506E-03    -170.970E-03     271.894E-03    -100.640E-03     147.477E-03
            2291     12.2542E-03     10.7878E-03    -24.4331E+06     66.9270E+06     44.5882E+06     6.20878E+06    -153.012E-03     250.026E-03    -97.0142E-03     105.794E-03    -156.920E-03     253.960E-03    -96.8528E-03     94.9126E-03
            2292     11.4802E-03     10.6475E-03    -28.1878E+06     49.8354E+06     14.2874E+06     9.72699E+06    -142.740E-03     235.964E-03    -93.2239E-03     69.6721E-03    -145.050E-03     238.314E-03    -93.1838E-03     61.7798E-03
            2293     10.6983E-03     10.5363E-03    -32.0431E+06     19.0501E+06    -3.69844E+06     12.9339E+06    -132.954E-03     222.643E-03    -89.6893E-03     47.0027E-03    -134.392E-03     224.049E-03    -89.6890E-03     41.2521E-03
            2294     9.90847E-03     10.4479E-03    -36.1713E+06    -24.9758E+06    -11.6011E+06     13.6195E+06    -123.217E-03     209.668E-03    -86.4515E-03     31.0435E-03    -124.109E-03     210.379E-03    -86.4209E-03     26.8902E-03
            2295     9.11034E-03     10.3775E-03    -40.3638E+06    -64.8981E+06    -18.7961E+06     11.0810E+06    -113.957E-03     197.445E-03    -83.4871E-03     20.1079E-03    -114.505E-03     197.675E-03    -83.4285E-03     17.0986E-03
            2296     8.30473E-03     10.3202E-03    -44.5805E+06    -94.4824E+06    -21.5941E+06     9.25561E+06    -105.542E-03     186.367E-03    -80.8255E-03     12.7183E-03    -105.887E-03     186.283E-03    -80.7318E-03     10.5263E-03
            2297     7.49261E-03     10.2737E-03    -47.4354E+06    -119.011E+06    -22.7475E+06     9.55743E+06    -98.0439E-03     176.504E-03    -78.4599E-03     7.80783E-03    -98.2579E-03     176.193E-03    -78.3322E-03     6.22829E-03
            2298     6.67440E-03     10.2352E-03    -48.7355E+06    -132.157E+06    -24.9774E+06     9.61827E+06    -91.4147E-03     167.782E-03    -76.3670E-03     4.82580E-03    -91.5461E-03     167.344E-03    -76.2296E-03     3.69127E-03
            2299     5.85070E-03     10.2030E-03    -50.9386E+06    -147.866E+06    -30.0846E+06     10.5245E+06    -85.7048E-03     160.265E-03    -74.5606E-03     3.13137E-03    -85.7750E-03     159.717E-03    -74.4227E-03     2.33553E-03
            2300     5.02265E-03     10.1758E-03    -54.2107E+06    -164.277E+06    -34.7189E+06     11.2834E+06    -80.9290E-03     153.976E-03    -73.0467E-03     2.16990E-03    -80.9578E-03     153.329E-03    -72.9035E-03     1.62530E-03
            2301     4.19083E-03     10.1531E-03    -57.1302E+06    -170.264E+06    -38.2856E+06     10.5954E+06    -77.0279E-03     148.826E-03    -71.7985E-03     1.69288E-03    -77.0398E-03     148.141E-03    -71.6602E-03     1.32227E-03
            2302     3.35584E-03     10.1343E-03    -60.0211E+06    -177.110E+06    -44.8680E+06     9.78166E+06    -73.9622E-03     144.765E-03    -70.8024E-03     1.42564E-03    -73.9574E-03     144.047E-03    -70.6829E-03     1.18642E-03
            2303     2.51869E-03     10.1192E-03    -63.0241E+06    -182.019E+06    -53.7562E+06     7.77715E+06    -71.6948E-03     141.744E-03    -70.0492E-03     1.22610E-03    -71.6772E-03     141.011E-03    -69.9627E-03     1.07457E-03
            2304     1.67982E-03     10.1078E-03    -65.4490E+06    -186.438E+06    -61.0656E+06     5.07777E+06    -70.2132E-03     139.754E-03    -69.5410E-03     901.809E-06    -70.1859E-03     139.009E-03    -69.4811E-03     807.894E-06
            2305     840.021E-06     10.1010E-03    -66.5228E+06    -188.986E+06    -65.2688E+06     2.88007E+06    -69.4607E-03     138.661E-03    -69.2003E-03     520.685E-06    -69.4258E-03     137.909E-03    -69.1562E-03     473.921E-06
            2306     15.3134E-03     10.5272E-03    -4.61676E+06     113.168E+06     87.8906E+06     514.804E+03    -171.544E-03     281.967E-03    -110.423E-03     151.672E-03    -179.237E-03     289.791E-03    -110.141E-03     137.593E-03
            2307     14.5580E-03     10.2897E-03    -8.88851E+06     108.715E+06     88.6441E+06     874.758E+03    -179.789E-03     286.723E-03    -106.934E-03     210.642E-03    -191.158E-03     298.191E-03    -106.636E-03     191.260E-03
            2308     13.8076E-03     9.99248E-03    -14.2984E+06     95.5840E+06     83.7663E+06     1.19982E+06    -180.678E-03     283.528E-03    -102.850E-03     203.578E-03    -190.547E-03     293.447E-03    -102.549E-03     184.378E-03
            2309     13.0554E-03     9.74696E-03    -20.4595E+06     79.1912E+06     69.5242E+06     2.79770E+06    -169.663E-03     268.133E-03    -98.4697E-03     145.734E-03    -175.940E-03     274.423E-03    -98.2072E-03     130.658E-03
            2310     12.2922E-03     9.57511E-03    -25.5617E+06     63.3474E+06     44.4637E+06     6.25370E+06    -155.262E-03     249.414E-03    -94.1516E-03     92.3547E-03    -158.753E-03     252.915E-03    -93.9841E-03     81.7885E-03
            2311     11.5185E-03     9.45139E-03    -30.5340E+06     44.8318E+06     12.1265E+06     11.4082E+06    -142.542E-03     232.628E-03    -90.0858E-03     60.1023E-03    -144.631E-03     234.736E-03    -90.0459E-03     52.6027E-03
            2312     10.7355E-03     9.35643E-03    -35.1096E+06     18.6248E+06    -9.90644E+06     15.7584E+06    -130.855E-03     217.248E-03    -86.3938E-03     40.4203E-03    -132.173E-03     218.541E-03    -86.4194E-03     35.0753E-03
            2313     9.94281E-03     9.28412E-03    -39.1794E+06    -18.8019E+06    -15.2839E+06     16.2377E+06    -120.032E-03     203.167E-03    -83.1344E-03     27.4310E-03    -120.880E-03     203.856E-03    -83.1268E-03     23.6206E-03
            2314     9.14180E-03     9.22772E-03    -42.8595E+06    -56.9763E+06    -17.7242E+06     13.8270E+06    -110.405E-03     190.633E-03    -80.2281E-03     19.0596E-03    -110.956E-03     190.883E-03    -80.1720E-03     16.3050E-03
            2315     8.33314E-03     9.18351E-03    -46.4212E+06    -90.0883E+06    -20.6988E+06     10.8058E+06    -101.858E-03     179.497E-03    -77.6390E-03     13.8506E-03    -102.217E-03     179.433E-03    -77.5446E-03     11.8339E-03
            2316     7.51747E-03     9.14788E-03    -49.5211E+06    -116.056E+06    -23.2103E+06     8.44619E+06    -94.4195E-03     169.775E-03    -75.3551E-03     10.7123E-03    -94.6547E-03     169.490E-03    -75.2310E-03     9.22287E-03
            2317     6.69597E-03     9.11928E-03    -52.5140E+06    -131.114E+06    -25.5777E+06     7.94282E+06    -88.0415E-03     161.391E-03    -73.3494E-03     8.87263E-03    -88.2027E-03     160.975E-03    -73.2110E-03     7.78270E-03
            2318     5.86951E-03     9.09525E-03    -54.9844E+06    -148.107E+06    -28.9592E+06     9.40214E+06    -82.6173E-03     154.232E-03    -71.6143E-03     7.70880E-03    -82.7189E-03     153.697E-03    -71.4646E-03     6.93785E-03
            2319     5.03858E-03     9.07519E-03    -56.5506E+06    -160.367E+06    -34.0342E+06     9.53981E+06    -78.0573E-03     148.178E-03    -70.1208E-03     6.86595E-03    -78.1125E-03     147.562E-03    -69.9765E-03     6.32287E-03
            2320     4.20402E-03     9.05797E-03    -57.9326E+06    -166.688E+06    -37.9138E+06     8.13223E+06    -74.3277E-03     143.193E-03    -68.8656E-03     6.05626E-03    -74.3549E-03     142.533E-03    -68.7294E-03     5.66780E-03
            2321     3.36681E-03     9.04364E-03    -58.8708E+06    -172.995E+06    -41.4032E+06     7.15994E+06    -71.3382E-03     139.173E-03    -67.8353E-03     5.11607E-03    -71.3420E-03     138.474E-03    -67.7061E-03     4.85024E-03
            2322     2.52717E-03     9.03191E-03    -59.8106E+06    -176.213E+06    -47.8318E+06     6.13913E+06    -68.9766E-03     135.982E-03    -67.0057E-03     4.09904E-03    -68.9617E-03     135.268E-03    -66.9026E-03     3.93027E-03
            2323     1.68576E-03     9.02300E-03    -61.3041E+06    -180.307E+06    -55.4181E+06     4.27758E+06    -67.2855E-03     133.680E-03    -66.3941E-03     2.90099E-03    -67.2551E-03     132.952E-03    -66.3208E-03     2.79939E-03
            2324     843.304E-06     9.01705E-03    -62.3513E+06    -183.001E+06    -60.4099E+06     1.95205E+06    -66.2944E-03     132.260E-03    -65.9660E-03     1.53907E-03    -66.2542E-03     131.526E-03    -65.9123E-03     1.48245E-03
            2325     15.3219E-03     9.25820E-03    -4.15151E+06     112.860E+06     87.4313E+06     554.522E+03    -185.208E-03     295.070E-03    -109.863E-03     148.097E-03    -192.642E-03     302.637E-03    -109.583E-03     132.282E-03
            2326     14.5797E-03     9.02712E-03    -8.65271E+06     107.959E+06     87.2743E+06     805.786E+03    -192.090E-03     297.743E-03    -105.653E-03     202.751E-03    -202.891E-03     308.646E-03    -105.360E-03     181.747E-03
            2327     13.8374E-03     8.73695E-03    -14.2616E+06     93.9029E+06     82.2123E+06     1.64410E+06    -188.160E-03     289.094E-03    -100.934E-03     190.677E-03    -197.240E-03     298.226E-03    -100.638E-03     171.132E-03
            2328     13.0873E-03     8.51187E-03    -19.8441E+06     76.6433E+06     69.8970E+06     4.58048E+06    -171.588E-03     267.748E-03    -96.1599E-03     132.077E-03    -177.183E-03     273.349E-03    -95.8927E-03     117.591E-03
            2329     12.3244E-03     8.36407E-03    -27.2167E+06     58.0864E+06     44.3580E+06     9.22267E+06    -154.225E-03     245.903E-03    -91.6778E-03     84.0341E-03    -157.391E-03     249.056E-03    -91.5007E-03     74.1040E-03
            2330     11.5494E-03     8.25884E-03    -34.5611E+06     38.2190E+06     12.0049E+06     14.7410E+06    -139.320E-03     226.941E-03    -87.6206E-03     56.7665E-03    -141.266E-03     228.869E-03    -87.5659E-03     49.8605E-03
            2331     10.7627E-03     8.18378E-03    -40.1391E+06     18.5834E+06    -9.97102E+06     18.6799E+06    -126.289E-03     210.352E-03    -84.0631E-03     41.2456E-03    -127.569E-03     211.588E-03    -84.0817E-03     36.3964E-03
            2332     9.96594E-03     8.12722E-03    -44.0025E+06    -11.1457E+06    -14.1988E+06     17.4635E+06    -115.108E-03     196.139E-03    -81.0312E-03     32.0836E-03    -115.985E-03     196.864E-03    -81.0222E-03     28.6176E-03
            2333     9.16051E-03     8.08545E-03    -45.6624E+06    -48.8936E+06    -13.4832E+06     12.8078E+06    -105.651E-03     184.067E-03    -78.4161E-03     26.6134E-03    -106.252E-03     184.374E-03    -78.3464E-03     24.0624E-03
            2334     8.34757E-03     8.05346E-03    -46.0165E+06    -85.0700E+06    -14.5496E+06     9.51595E+06    -97.6669E-03     173.796E-03    -76.1290E-03     23.4555E-03    -98.0692E-03     173.777E-03    -76.0117E-03     21.5542E-03
            2335     7.52840E-03     8.02892E-03    -47.3528E+06    -111.815E+06    -16.3057E+06     7.56178E+06    -90.9502E-03     165.078E-03    -74.1281E-03     21.4538E-03    -91.2201E-03     164.832E-03    -73.9789E-03     20.0261E-03
            2336     6.70390E-03     8.00882E-03    -49.3412E+06    -130.838E+06    -18.8788E+06     6.51122E+06    -85.3706E-03     157.746E-03    -72.3755E-03     19.9783E-03    -85.5518E-03     157.343E-03    -72.2087E-03     18.9044E-03
            2337     5.87509E-03     7.99267E-03    -51.3538E+06    -147.991E+06    -22.1961E+06     6.82983E+06    -80.7469E-03     151.588E-03    -70.8414E-03     18.5280E-03    -80.8609E-03     151.060E-03    -70.6633E-03     17.7339E-03
            2338     5.04275E-03     7.97879E-03    -53.2638E+06    -156.495E+06    -25.4661E+06     6.12257E+06    -76.8396E-03     146.332E-03    -69.4923E-03     16.9284E-03    -76.9114E-03     145.733E-03    -69.3155E-03     16.3400E-03
            2339     4.20743E-03     7.96695E-03    -54.9738E+06    -163.398E+06    -29.9625E+06     4.36506E+06    -73.5456E-03     141.862E-03    -68.3167E-03     14.9907E-03    -73.5845E-03     141.213E-03    -68.1499E-03     14.5489E-03
            2340     3.36935E-03     7.95681E-03    -56.7589E+06    -170.013E+06    -37.1070E+06     2.81903E+06    -70.8099E-03     138.110E-03    -67.3005E-03     12.6471E-03    -70.8200E-03     137.423E-03    -67.1572E-03     12.3206E-03
            2341     2.52925E-03     7.94872E-03    -57.9996E+06    -173.515E+06    -43.5738E+06     1.93530E+06    -68.5629E-03     135.017E-03    -66.4545E-03     9.97853E-03    -68.5524E-03     134.311E-03    -66.3367E-03     9.75200E-03
            2342     1.68737E-03     7.94237E-03    -58.4211E+06    -176.288E+06    -49.8631E+06     1.44979E+06    -66.7987E-03     132.596E-03    -65.7978E-03     7.05182E-03    -66.7692E-03     131.878E-03    -65.7068E-03     6.91264E-03
            2343     844.010E-06     7.93836E-03    -59.5361E+06    -179.675E+06    -56.4476E+06     587.809E+03    -65.7190E-03     130.997E-03    -65.2779E-03     3.89567E-03    -65.6756E-03     130.270E-03    -65.2133E-03     3.82146E-03
            2344     15.3350E-03     7.98383E-03    -4.38183E+06     111.315E+06     84.7741E+06     977.132E+03    -199.078E-03     308.349E-03    -109.271E-03     149.416E-03    -206.332E-03     315.737E-03    -109.002E-03     132.014E-03
            2345     14.5968E-03     7.74300E-03    -9.32633E+06     106.631E+06     84.4334E+06     1.16876E+06    -202.224E-03     306.657E-03    -104.434E-03     198.554E-03    -212.505E-03     317.044E-03    -104.153E-03     176.503E-03
            2346     13.8629E-03     7.47494E-03    -14.3550E+06     92.4847E+06     79.6573E+06     3.03596E+06    -190.862E-03     290.167E-03    -99.3053E-03     177.749E-03    -199.086E-03     298.448E-03    -99.0203E-03     158.742E-03
            2347     13.1128E-03     7.27999E-03    -22.1200E+06     71.2507E+06     65.5186E+06     7.70850E+06    -168.399E-03     262.858E-03    -94.4595E-03     123.735E-03    -173.370E-03     267.822E-03    -94.2031E-03     110.479E-03
            2348     12.3462E-03     7.15577E-03    -30.7901E+06     50.8039E+06     43.9515E+06     13.4695E+06    -148.531E-03     238.737E-03    -90.2058E-03     83.3091E-03    -151.442E-03     241.598E-03    -90.0151E-03     74.4169E-03
            2349     11.5654E-03     7.07485E-03    -37.4419E+06     33.8354E+06     21.1986E+06     18.3502E+06    -132.404E-03     218.964E-03    -86.5600E-03     62.6792E-03    -134.275E-03     220.766E-03    -86.4487E-03     56.5957E-03
            2350     10.7722E-03     7.01826E-03    -42.4713E+06     20.3409E+06     3.25019E+06     19.8622E+06    -119.270E-03     202.752E-03    -83.4826E-03     52.3935E-03    -120.574E-03     203.973E-03    -83.4342E-03     48.1102E-03
            2351     9.96933E-03     6.97822E-03    -44.7183E+06    -187.889E+03    -2.52281E+06     15.7890E+06    -108.677E-03     189.622E-03    -80.9448E-03     46.7068E-03    -109.620E-03     190.415E-03    -80.8923E-03     43.5803E-03
            2352     9.15826E-03     6.94956E-03    -45.4812E+06    -40.1077E+06    -3.40666E+06     8.57596E+06    -100.248E-03     179.099E-03    -78.8517E-03     43.4189E-03    -100.919E-03     179.479E-03    -78.7446E-03     41.0347E-03
            2353     8.34101E-03     6.92861E-03    -45.5761E+06    -82.5645E+06    -5.35580E+06     4.59771E+06    -93.6810E-03     170.753E-03    -77.0722E-03     41.1544E-03    -94.1433E-03     170.778E-03    -76.9132E-03     39.3089E-03
            2354     7.51889E-03     6.91285E-03    -44.8812E+06    -108.953E+06    -6.71137E+06     3.26462E+06    -88.4296E-03     163.949E-03    -75.5198E-03     39.0999E-03    -88.7450E-03     163.739E-03    -75.3302E-03     37.6716E-03
            2355     6.69276E-03     6.90048E-03    -45.1391E+06    -131.792E+06    -9.21171E+06     3.38139E+06    -84.1687E-03     158.326E-03    -74.1574E-03     36.8377E-03    -84.3734E-03     157.930E-03    -73.9469E-03     35.7414E-03
            2356     5.86340E-03     6.89021E-03    -46.9692E+06    -146.716E+06    -11.3442E+06     3.76076E+06    -80.6587E-03     153.608E-03    -72.9497E-03     34.1089E-03    -80.7920E-03     153.087E-03    -72.7256E-03     33.2754E-03
            2357     5.03139E-03     6.88168E-03    -49.2426E+06    -152.971E+06    -14.4860E+06     1.88920E+06    -77.6799E-03     149.541E-03    -71.8614E-03     30.9371E-03    -77.7694E-03     148.954E-03    -71.6407E-03     30.2871E-03
            2358     4.19692E-03     6.87435E-03    -51.5666E+06    -161.291E+06    -21.1494E+06    -22.8516E+03    -75.0863E-03     145.973E-03    -70.8870E-03     27.1984E-03    -75.1351E-03     145.327E-03    -70.6841E-03     26.6931E-03
            2359     3.36051E-03     6.86822E-03    -53.8483E+06    -167.843E+06    -31.5688E+06    -1.39165E+06    -72.8533E-03     142.878E-03    -70.0246E-03     22.8702E-03    -72.8669E-03     142.195E-03    -69.8610E-03     22.4862E-03
            2360     2.52224E-03     6.86325E-03    -55.7855E+06    -173.258E+06    -41.2821E+06    -2.66695E+06    -70.9973E-03     140.305E-03    -69.3077E-03     17.9970E-03    -70.9835E-03     139.596E-03    -69.1820E-03     17.7106E-03
            2361     1.68244E-03     6.85972E-03    -57.4308E+06    -176.928E+06    -48.2026E+06    -2.57655E+06    -69.5439E-03     138.310E-03    -68.7662E-03     12.6494E-03    -69.5133E-03     137.585E-03    -68.6674E-03     12.4590E-03
            2362     841.566E-06     6.85741E-03    -58.7372E+06    -180.559E+06    -54.6812E+06    -1.32126E+06    -68.6965E-03     137.025E-03    -68.3289E-03     7.06640E-03    -68.6518E-03     136.289E-03    -68.2553E-03     6.96859E-03
            2363     15.3370E-03     6.68798E-03    -3.83315E+06     110.909E+06     82.9250E+06     1.66801E+06    -212.102E-03     321.011E-03    -108.910E-03     147.355E-03    -219.082E-03     328.137E-03    -108.651E-03     128.967E-03
            2364     14.6144E-03     6.44510E-03     -8.5826E+06     105.800E+06     81.8428E+06     2.14540E+06    -205.273E-03     308.948E-03    -103.675E-03     196.054E-03    -214.930E-03     318.721E-03    -103.407E-03     174.329E-03
            2365     13.8785E-03     6.21427E-03    -16.3052E+06     86.2316E+06     72.6154E+06     6.38154E+06    -185.907E-03     284.489E-03    -98.5816E-03     172.095E-03    -193.211E-03     291.844E-03    -98.3199E-03     154.912E-03
            2366     13.1213E-03     6.05358E-03    -24.7148E+06     63.2154E+06     58.2004E+06     12.4978E+06    -159.763E-03     253.896E-03    -94.1335E-03     126.553E-03    -164.168E-03     258.279E-03    -93.8983E-03     115.164E-03
            2367     12.3454E-03     5.95807E-03    -31.3218E+06     45.6635E+06     43.7310E+06     17.2357E+06    -138.224E-03     228.755E-03    -90.5309E-03     94.5423E-03    -140.888E-03     231.350E-03    -90.3330E-03     87.0999E-03
            2368     11.5549E-03     5.89971E-03    -36.9834E+06     33.1963E+06     30.7125E+06     19.1511E+06    -122.577E-03     210.240E-03    -87.6627E-03     80.0893E-03    -124.393E-03     211.959E-03    -87.5036E-03     74.9555E-03
            2369     10.7538E-03     5.86090E-03    -38.9444E+06     26.5766E+06     22.0957E+06     16.5243E+06    -110.995E-03     196.367E-03    -85.3720E-03     73.2551E-03    -112.322E-03     197.591E-03    -85.2436E-03     69.5262E-03
            2370     9.94435E-03     5.83493E-03    -38.4840E+06     11.3508E+06     17.6250E+06     9.99633E+06    -102.198E-03     185.756E-03    -83.5575E-03     69.1670E-03    -103.185E-03     186.598E-03    -83.4300E-03     66.3339E-03
            2371     9.12877E-03     5.81723E-03    -38.7374E+06    -34.2315E+06     12.4215E+06     3.95215E+06    -95.8406E-03     177.969E-03    -82.1288E-03     66.2222E-03    -96.5459E-03     178.381E-03    -81.9609E-03     63.9931E-03
            2372     8.30877E-03     5.80438E-03    -40.5923E+06    -80.2588E+06     7.60197E+06     39.8816E+03    -91.2570E-03     172.210E-03    -80.9535E-03     63.2680E-03    -91.7491E-03     172.252E-03    -80.7403E-03     61.4853E-03
            2373     7.48553E-03     5.79520E-03    -43.4067E+06    -109.346E+06     5.05654E+06    -1.70193E+06    -87.8420E-03     167.782E-03    -79.9405E-03     59.8657E-03    -88.1938E-03     167.577E-03    -79.6937E-03     58.4362E-03
            2374     6.65992E-03     5.78797E-03    -45.7406E+06    -133.878E+06     1.34065E+06    -1.38466E+06    -85.1691E-03     164.208E-03    -79.0390E-03     55.8362E-03    -85.4102E-03     163.806E-03    -78.7718E-03     54.7079E-03
            2375     5.83225E-03     5.78242E-03    -46.6329E+06    -144.376E+06    -337.255E+03    -2.49042E+06    -82.9076E-03     161.133E-03    -78.2256E-03     51.2122E-03    -83.0737E-03     160.620E-03    -77.9503E-03     50.3143E-03
            2376     5.00268E-03     5.77754E-03    -47.3304E+06    -151.616E+06    -5.53073E+06    -4.11964E+06    -80.9859E-03     158.466E-03    -77.4797E-03     45.8256E-03    -81.0912E-03     157.878E-03    -77.2189E-03     45.1069E-03
            2377     4.17170E-03     5.77386E-03    -49.1736E+06    -160.694E+06    -16.0097E+06    -5.07940E+06    -79.3065E-03     156.107E-03    -76.8001E-03     39.7296E-03    -79.3587E-03     155.456E-03    -76.5758E-03     39.1640E-03
            2378     3.33910E-03     5.77064E-03    -51.4320E+06    -168.099E+06    -28.2304E+06    -5.92226E+06    -77.8325E-03     154.042E-03    -76.2095E-03     32.9968E-03    -77.8432E-03     153.351E-03    -76.0323E-03     32.5579E-03
            2379     2.50531E-03     5.76835E-03    -53.8856E+06    -175.286E+06    -40.0080E+06    -5.71431E+06    -76.6435E-03     152.378E-03    -75.7349E-03     25.5969E-03    -76.6224E-03     151.655E-03    -75.6026E-03     25.2730E-03
            2380     1.67063E-03     5.76654E-03    -56.8977E+06    -181.217E+06    -49.3826E+06    -4.71386E+06    -75.7947E-03     151.183E-03    -75.3884E-03     17.7040E-03    -75.7560E-03     150.437E-03    -75.2900E-03     17.4862E-03
            2381     835.422E-06     5.76549E-03      -59.25E+06    -186.112E+06    -56.8763E+06    -2.83893E+06    -75.3204E-03     150.433E-03    -75.1126E-03     9.79832E-03    -75.2690E-03     149.672E-03    -75.0412E-03     9.68037E-03
            2382     15.3479E-03     5.37798E-03    -2.48086E+06     109.837E+06     79.6859E+06     1.76134E+06    -215.530E-03     324.967E-03    -109.437E-03     160.863E-03    -222.594E-03     332.191E-03    -109.195E-03     142.540E-03
            2383     14.6134E-03     5.15282E-03    -10.0078E+06     100.513E+06     74.3987E+06     5.72771E+06    -200.866E-03     305.199E-03    -104.332E-03     213.665E-03    -210.160E-03     314.609E-03    -104.092E-03     193.678E-03
            2384     13.8649E-03     4.95883E-03    -17.7545E+06     77.0643E+06     64.0216E+06     11.9060E+06    -175.892E-03     275.646E-03    -99.7538E-03     180.379E-03    -182.212E-03     282.005E-03    -99.5197E-03     166.006E-03
            2385     13.0974E-03     4.83727E-03    -23.4132E+06     57.8769E+06     55.5232E+06     17.0852E+06    -147.208E-03     243.305E-03    -96.0969E-03     138.564E-03    -150.962E-03     247.033E-03    -95.8692E-03     129.472E-03
            2386     12.3104E-03     4.77249E-03    -29.1826E+06     45.1666E+06     48.1658E+06     18.4734E+06    -126.100E-03     219.531E-03    -93.4318E-03     114.344E-03    -128.485E-03     221.842E-03    -93.2141E-03     108.404E-03
            2387     11.5104E-03     4.73266E-03    -31.6732E+06     39.1849E+06     43.2410E+06     15.0224E+06    -112.865E-03     204.377E-03    -91.5119E-03     103.656E-03    -114.573E-03     205.991E-03    -91.3066E-03     99.3734E-03
            2388     10.7025E-03     4.70809E-03    -30.7388E+06     37.6348E+06     40.6239E+06     7.66641E+06    -104.060E-03     194.156E-03    -90.0960E-03     97.3204E-03    -105.332E-03     195.338E-03    -89.9029E-03     94.0479E-03
            2389     9.88885E-03     4.69284E-03    -29.3226E+06     16.4751E+06     37.2069E+06     1.77864E+06    -98.1519E-03     187.210E-03    -89.0579E-03     92.7249E-03    -99.0961E-03     188.002E-03    -88.8532E-03     90.1503E-03
            2390     9.07137E-03     4.68202E-03    -30.1441E+06    -34.3296E+06     30.2380E+06    -369.269E+03    -94.4073E-03     182.698E-03    -88.2903E-03     88.1044E-03    -95.0734E-03     183.047E-03    -88.0456E-03     86.0587E-03
            2391     8.25150E-03     4.67486E-03    -33.8908E+06    -78.9968E+06     24.0645E+06    -1.88690E+06    -91.9381E-03     179.617E-03    -87.6789E-03     82.9691E-03    -92.4065E-03     179.613E-03    -87.3949E-03     81.3227E-03
            2392     7.42997E-03     4.66912E-03    -38.8691E+06    -109.868E+06     19.8808E+06    -4.31015E+06    -90.2485E-03     177.408E-03    -87.1600E-03     77.2030E-03    -90.5864E-03     177.158E-03    -86.8449E-03     75.8503E-03
            2393     6.60734E-03     4.66538E-03    -42.0380E+06    -132.523E+06     14.6986E+06    -8.50490E+06    -88.9998E-03     175.687E-03    -86.6874E-03     70.8140E-03    -89.2354E-03     175.256E-03    -86.3608E-03     69.6689E-03
            2394     5.78366E-03     4.66226E-03    -42.8066E+06    -143.967E+06     8.14766E+06    -11.5229E+06    -87.9533E-03     174.194E-03    -86.2405E-03     63.9442E-03    -88.1076E-03     173.656E-03    -85.9289E-03     62.9803E-03
            2395     4.95920E-03     4.66002E-03    -43.5426E+06    -154.300E+06    -3.63131E+06    -11.5188E+06    -87.0720E-03     172.888E-03    -85.8156E-03     56.3223E-03    -87.1542E-03     172.272E-03    -85.5469E-03     55.5394E-03
            2396     4.13381E-03     4.65827E-03    -44.9965E+06    -163.567E+06    -17.2206E+06    -10.1583E+06    -86.3225E-03     171.753E-03    -85.4308E-03     48.0533E-03    -86.3469E-03     171.080E-03    -85.2145E-03     47.4380E-03
            2397     3.30791E-03     4.65713E-03    -47.8546E+06    -172.094E+06    -29.6886E+06    -8.29752E+06    -85.6850E-03     170.790E-03    -85.1048E-03     39.2349E-03    -85.6704E-03     170.073E-03    -84.9343E-03     38.7693E-03
            2398     2.48142E-03     4.65612E-03    -51.9113E+06    -180.182E+06    -41.1994E+06    -6.28256E+06    -85.1798E-03     170.019E-03    -84.8391E-03     29.9600E-03    -85.1412E-03     169.268E-03    -84.7085E-03     29.6262E-03
            2399     1.65455E-03     4.65542E-03    -55.9793E+06    -186.949E+06    -50.7065E+06    -3.93057E+06    -84.8083E-03     169.441E-03    -84.6331E-03     20.3915E-03    -84.7560E-03     168.665E-03    -84.5344E-03     20.1791E-03
            2400     827.420E-06     4.65484E-03    -59.3640E+06    -192.323E+06    -58.3122E+06    -1.97141E+06    -84.4831E-03     169.027E-03    -84.5443E-03     11.1227E-03    -84.4224E-03     168.236E-03    -84.4709E-03     11.0118E-03
            2401     15.2987E-03     4.06082E-03    -119.038E+03     105.015E+06     72.3432E+06     4.79797E+06    -206.871E-03     318.737E-03    -111.866E-03     195.595E-03    -214.260E-03     326.293E-03    -111.656E-03     178.292E-03
            2402     14.5629E-03     3.85497E-03    -13.4409E+06     87.6602E+06     62.1345E+06     9.88548E+06    -194.453E-03     301.781E-03    -107.328E-03     228.104E-03    -202.900E-03     310.326E-03    -107.125E-03     210.510E-03
            2403     13.8129E-03     3.70887E-03    -18.2707E+06     69.2965E+06     58.4362E+06     15.3554E+06    -162.898E-03     266.377E-03    -103.480E-03     183.616E-03    -167.846E-03     271.356E-03    -103.261E-03     172.437E-03
            2404     13.0349E-03     3.63413E-03    -21.2254E+06     57.5447E+06     58.0919E+06     17.4754E+06    -133.909E-03     234.706E-03    -100.797E-03     151.291E-03    -136.880E-03     237.648E-03    -100.559E-03     144.415E-03
            2405     12.2382E-03     3.59321E-03    -22.4759E+06     52.0947E+06     60.5970E+06     13.1654E+06    -117.053E-03     216.163E-03    -99.1100E-03     133.803E-03    -119.052E-03     218.096E-03    -98.8500E-03     129.064E-03
            2406     11.4332E-03     3.56804E-03    -21.1925E+06     50.4976E+06     59.9723E+06     5.53368E+06    -107.579E-03     205.595E-03    -98.0162E-03     123.100E-03    -109.010E-03     206.958E-03    -97.7588E-03     119.547E-03
            2407     10.6222E-03     3.55355E-03    -21.3725E+06     46.5792E+06     54.6003E+06    -889.782E+03    -102.117E-03     199.398E-03    -97.2814E-03     114.430E-03    -103.180E-03     200.391E-03    -97.0449E-03     111.651E-03
            2408     9.80834E-03     3.54375E-03    -24.5139E+06     13.3998E+06     47.3054E+06    -3.46691E+06    -99.1612E-03     195.973E-03    -96.8120E-03     106.722E-03    -99.9444E-03     196.577E-03    -96.5594E-03     104.519E-03
            2409     8.99314E-03     3.53703E-03    -28.6125E+06    -38.1406E+06     38.8197E+06    -3.78909E+06    -97.5881E-03     194.086E-03    -96.4977E-03     98.9656E-03    -98.1428E-03     194.287E-03    -96.2068E-03     97.2016E-03
            2410     8.17713E-03     3.53218E-03    -31.0637E+06    -78.0531E+06     31.1385E+06    -6.32958E+06    -96.7108E-03     192.957E-03    -96.2458E-03     91.0643E-03    -97.0944E-03     192.857E-03    -95.9319E-03     89.6059E-03
            2411     7.36057E-03     3.52851E-03    -30.5422E+06    -107.518E+06     25.8603E+06    -11.2818E+06    -96.1779E-03     192.213E-03    -96.0351E-03     82.9235E-03    -96.4262E-03     191.890E-03    -95.7056E-03     81.6652E-03
            2412     6.54355E-03     3.52603E-03    -30.4811E+06    -129.991E+06     20.0150E+06    -15.7409E+06    -95.8382E-03     191.683E-03    -95.8448E-03     74.5145E-03    -95.9851E-03     191.196E-03    -95.5120E-03     73.4092E-03
            2413     5.72631E-03     3.52431E-03    -33.3191E+06    -147.682E+06     6.06084E+06    -17.3409E+06    -95.5919E-03     191.228E-03    -95.6357E-03     65.9965E-03    -95.6619E-03     190.631E-03    -95.3430E-03     65.0480E-03
            2414     4.90869E-03     3.52310E-03    -37.0986E+06    -161.093E+06    -11.6985E+06    -15.4231E+06    -95.4002E-03     190.825E-03    -95.4244E-03     57.1784E-03    -95.4106E-03     190.158E-03    -95.1955E-03     56.4014E-03
            2415     4.09102E-03     3.52236E-03    -41.0899E+06    -171.447E+06    -25.0152E+06    -11.5691E+06    -95.2603E-03     190.510E-03    -95.2494E-03     48.0806E-03    -95.2318E-03     189.791E-03    -95.0663E-03     47.4774E-03
            2416     3.27309E-03     3.52188E-03    -45.3501E+06    -179.294E+06    -34.8152E+06    -7.31772E+06    -95.1430E-03     190.246E-03    -95.1028E-03     38.8068E-03    -95.0921E-03     189.490E-03    -94.9511E-03     38.3662E-03
            2417     2.45509E-03     3.52163E-03    -49.8550E+06    -186.226E+06    -43.6873E+06    -3.85698E+06    -95.0312E-03     190.003E-03    -94.9719E-03     29.4491E-03    -94.9671E-03     189.219E-03    -94.8480E-03     29.1496E-03
            2418     1.63692E-03     3.52139E-03    -53.9501E+06    -191.777E+06    -50.8937E+06    -1.52801E+06    -94.9046E-03     189.767E-03    -94.8620E-03     19.9839E-03    -94.8339E-03     188.963E-03    -94.7601E-03     19.8009E-03
            2419     818.509E-06     3.52147E-03    -56.4475E+06    -195.366E+06    -55.9339E+06    -299.021E+03    -94.6863E-03     189.576E-03    -94.8900E-03     10.8299E-03    -94.6096E-03     188.762E-03    -94.8046E-03     10.7392E-03
            2420     15.2279E-03     2.73129E-03    -1.95811E+06     97.7152E+06     69.3569E+06     8.87583E+06    -200.664E-03     317.060E-03    -116.396E-03     226.086E-03    -207.581E-03     324.118E-03    -116.188E-03     210.667E-03
            2421     14.4926E-03     2.55325E-03    -9.50434E+06     78.8957E+06     63.7855E+06     15.4359E+06    -182.891E-03     295.440E-03    -112.549E-03     217.636E-03    -188.994E-03     301.628E-03    -112.331E-03     204.131E-03
            2422     13.7280E-03     2.47913E-03    -13.8744E+06     69.2334E+06     64.8426E+06     14.6900E+06    -149.286E-03     258.871E-03    -109.585E-03     177.099E-03    -152.521E-03     262.129E-03    -109.341E-03     169.250E-03
            2423     12.9366E-03     2.43525E-03    -14.0832E+06     64.3995E+06     69.7274E+06     9.06471E+06    -127.857E-03     235.610E-03    -107.754E-03     153.708E-03    -129.871E-03     237.602E-03    -107.478E-03     148.692E-03
            2424     12.1389E-03     2.41084E-03    -11.6580E+06     62.0157E+06     71.4910E+06     2.55679E+06    -116.993E-03     223.626E-03    -106.633E-03     134.813E-03    -118.341E-03     224.943E-03    -106.348E-03     131.233E-03
            2425     11.3345E-03     2.39646E-03    -12.3921E+06     57.4317E+06     58.3390E+06    -1.76956E+06    -110.838E-03     216.704E-03    -105.866E-03     120.328E-03    -111.780E-03     217.632E-03    -105.640E-03     117.654E-03
            2426     10.5279E-03     2.38642E-03    -16.6300E+06     47.2695E+06     40.3517E+06    -2.32693E+06    -107.546E-03     212.896E-03    -105.350E-03     108.188E-03    -108.239E-03     213.575E-03    -105.192E-03     106.133E-03
            2427     9.72008E-03     2.37991E-03    -22.1702E+06     9.78727E+06     24.9527E+06    -3.49704E+06    -105.976E-03     211.011E-03    -105.036E-03     97.6446E-03    -106.472E-03     211.386E-03    -104.893E-03     96.0147E-03
            2428     8.91131E-03     2.37480E-03    -24.9599E+06    -38.9725E+06     15.1168E+06    -7.84618E+06    -105.184E-03     210.027E-03    -104.843E-03     88.0441E-03    -105.512E-03     210.079E-03    -104.675E-03     86.6750E-03
            2429     8.10209E-03     2.37116E-03    -24.2343E+06    -74.1007E+06     6.66007E+06    -13.8057E+06    -104.699E-03     209.385E-03    -104.686E-03     79.0884E-03    -104.894E-03     209.206E-03    -104.510E-03     77.8808E-03
            2430     7.29251E-03     2.36840E-03    -23.6525E+06    -106.689E+06    -1.38481E+06    -18.6269E+06    -104.391E-03     208.957E-03    -104.567E-03     70.6091E-03    -104.477E-03     208.579E-03    -104.385E-03     69.5257E-03
            2431     6.48268E-03     2.36657E-03    -24.8897E+06    -133.413E+06    -5.25158E+06    -18.9697E+06    -104.207E-03     208.702E-03    -104.494E-03     62.3999E-03    -104.221E-03     208.163E-03    -104.291E-03     61.4592E-03
            2432     5.67259E-03     2.36541E-03    -28.3975E+06    -155.036E+06    -12.3607E+06    -16.5000E+06    -104.132E-03     208.555E-03    -104.424E-03     54.4303E-03    -104.096E-03     207.899E-03    -104.219E-03     53.6447E-03
            2433     4.86246E-03     2.36470E-03    -33.9222E+06    -171.189E+06    -22.9032E+06    -12.2751E+06    -104.096E-03     208.442E-03    -104.347E-03     46.6076E-03    -104.030E-03     207.709E-03    -104.164E-03     45.9820E-03
            2434     4.05213E-03     2.36422E-03    -39.8489E+06    -180.521E+06    -33.3723E+06    -7.55291E+06    -104.080E-03     208.354E-03    -104.274E-03     38.8673E-03    -104.001E-03     207.584E-03    -104.122E-03     38.3955E-03
            2435     3.24182E-03     2.36411E-03    -44.8991E+06    -186.749E+06    -40.1790E+06    -3.83715E+06    -104.091E-03     208.314E-03    -104.223E-03     31.2058E-03    -104.007E-03     207.519E-03    -104.089E-03     30.8647E-03
            2436     2.43137E-03     2.36403E-03    -48.4471E+06    -190.869E+06    -44.8028E+06    -1.11247E+06    -104.090E-03     208.277E-03    -104.187E-03     23.5557E-03    -104.003E-03     207.465E-03    -104.064E-03     23.3268E-03
            2437     1.62086E-03     2.36414E-03    -50.4836E+06    -193.712E+06    -48.5105E+06     96.6363E+03    -104.078E-03     208.248E-03    -104.170E-03     15.9524E-03    -103.987E-03     207.425E-03    -104.059E-03     15.8116E-03
            2438     810.407E-06     2.36427E-03    -51.6163E+06    -195.789E+06    -51.5032E+06     182.984E+03    -104.011E-03     208.305E-03    -104.294E-03     8.74678E-03    -103.913E-03     207.475E-03    -104.193E-03     8.67403E-03
            2439     15.1394E-03     1.38002E-03    -6.50751E+06     92.7838E+06     76.9278E+06     8.56640E+06    -224.609E-03     347.730E-03    -123.121E-03     242.560E-03    -230.009E-03     353.198E-03    -122.861E-03     228.524E-03
            2440     14.3892E-03     1.28606E-03    -1.30829E+06     84.6458E+06     82.3275E+06     12.4497E+06    -181.936E-03     300.897E-03    -118.961E-03     173.209E-03    -184.881E-03     303.909E-03    -118.670E-03     165.210E-03
            2441     13.6118E-03     1.24934E-03    -765.924E+03     80.1731E+06     86.2306E+06     7.37828E+06    -150.261E-03     266.525E-03    -116.264E-03     128.037E-03    -151.700E-03     267.997E-03    -115.948E-03     123.821E-03
            2442     12.8317E-03     1.22523E-03    -1.39004E+06     73.9096E+06     82.3093E+06    -32.8678E+03    -134.243E-03     248.804E-03    -114.561E-03     105.086E-03    -135.152E-03     249.728E-03    -114.255E-03     102.273E-03
            2443     12.0421E-03     1.21324E-03    -4.33674E+06     65.3253E+06     64.2024E+06     -2.8691E+06    -125.248E-03     238.619E-03    -113.371E-03     88.5198E-03    -125.852E-03     239.250E-03    -113.139E-03     86.5186E-03
            2444     11.2488E-03     1.20592E-03    -8.47509E+06     56.4277E+06     37.3223E+06    -2.00463E+06    -120.096E-03     232.580E-03    -112.484E-03     76.8161E-03    -120.526E-03     233.068E-03    -112.367E-03     75.3387E-03
            2445     10.4512E-03     1.20105E-03    -12.1795E+06     42.8125E+06     8.17697E+06    -48.5019E+03    -116.890E-03     228.698E-03    -111.808E-03     67.2082E-03    -117.192E-03     229.081E-03    -111.811E-03     66.1132E-03
            2446     9.65089E-03     1.19668E-03    -14.0910E+06     12.0393E+06    -19.3420E+06    -1.67860E+06    -114.823E-03     226.131E-03    -111.308E-03     58.9928E-03    -114.998E-03     226.351E-03    -111.401E-03     58.1147E-03
            2447     8.84956E-03     1.19371E-03    -14.8449E+06    -32.8445E+06    -33.8748E+06    -8.79682E+06    -113.405E-03     224.400E-03    -110.995E-03     52.0514E-03    -113.464E-03     224.385E-03    -111.095E-03     51.2482E-03
            2448     8.04694E-03     1.19133E-03    -16.8840E+06    -72.8902E+06    -39.7002E+06    -13.3887E+06    -112.351E-03     223.153E-03    -110.802E-03     46.0224E-03    -112.331E-03     222.927E-03    -110.870E-03     45.2848E-03
            2449     7.24344E-03     1.18987E-03    -21.4546E+06    -109.003E+06    -43.5279E+06    -13.8755E+06    -111.604E-03     222.288E-03    -110.684E-03     40.5544E-03    -111.533E-03     221.878E-03    -110.712E-03     39.9078E-03
            2450     6.43924E-03     1.18873E-03    -27.5915E+06    -140.065E+06    -42.1404E+06    -13.3430E+06    -111.098E-03     221.736E-03    -110.638E-03     35.5219E-03    -111.003E-03     221.166E-03    -110.606E-03     34.9593E-03
            2451     5.63473E-03     1.18806E-03    -33.0934E+06    -164.259E+06    -38.3336E+06    -10.3273E+06    -110.791E-03     221.424E-03    -110.633E-03     30.7573E-03    -110.686E-03     220.727E-03    -110.538E-03     30.2987E-03
            2452     4.82992E-03     1.18764E-03    -37.7311E+06    -180.751E+06    -36.2901E+06    -5.98592E+06    -110.613E-03     221.247E-03    -110.634E-03     26.1954E-03    -110.504E-03     220.465E-03    -110.499E-03     25.8500E-03
            2453     4.02500E-03     1.18754E-03    -41.6648E+06    -187.191E+06    -38.6471E+06    -2.36952E+06    -110.517E-03     221.137E-03    -110.620E-03     21.7516E-03    -110.409E-03     220.326E-03    -110.481E-03     21.5038E-03
            2454     3.21991E-03     1.18741E-03    -44.6163E+06    -190.446E+06    -41.6615E+06    -512.818E+03    -110.493E-03     221.105E-03    -110.611E-03     17.4006E-03    -110.387E-03     220.283E-03    -110.479E-03     17.2235E-03
            2455     2.41494E-03     1.18744E-03    -46.2944E+06    -192.616E+06    -44.0083E+06    -175.711E+03    -110.512E-03     221.126E-03    -110.614E-03     13.0468E-03    -110.405E-03     220.296E-03    -110.488E-03     12.9170E-03
            2456     1.60990E-03     1.18762E-03    -47.1831E+06    -194.122E+06    -45.8631E+06    -19.7767E+03    -110.557E-03     221.181E-03    -110.624E-03     8.76239E-03    -110.448E-03     220.346E-03    -110.503E-03     8.67639E-03
            2457     804.843E-06     1.18750E-03    -47.8136E+06    -195.369E+06    -47.5348E+06     248.950E+03    -110.561E-03     221.246E-03    -110.685E-03     4.68844E-03    -110.447E-03     220.408E-03    -110.570E-03     4.64677E-03


