********************************************************************************
Field Output Report, written Wed May 29 00:35:21 2024

Source 1
---------

   ODB: G:/Abaqus_calc_2019/1740/Vel_5/odb/zeides_2a_24_red_250_cal_0_vel_5_fric_0100.odb
   Step: Step-1
   Frame: Increment  12872428: Step Time =    1.651

Loc 1 : Nodal values from source 1

Output sorted by column "Nodal Label".

Field Output reported at nodes for region: DIE_2A_24_D0_36-1.Region_1
   Computation algorithm: EXTRAPOLATE_COMPUTE_AVERAGE
   Averaged at nodes
   Averaging regions: ODB_REGIONS

      Node Label     COORD.COOR1     COORD.COOR2
                          @Loc 1          @Loc 1
-------------------------------------------------
               1     21.1989E-03     123.651E-03


Field Output reported at nodes for region: DIE_2A_24_D0_36-1.Region_2
   Computation algorithm: EXTRAPOLATE_COMPUTE_AVERAGE
   Averaged at nodes
   Averaging regions: ODB_REGIONS

      Node Label     COORD.COOR1     COORD.COOR2
                          @Loc 1          @Loc 1
-------------------------------------------------
               1     21.1989E-03     123.651E-03


Field Output reported at nodes for part: WIRE-1
   Computation algorithm: EXTRAPOLATE_COMPUTE_AVERAGE
   Averaged at nodes
   Averaging regions: ODB_REGIONS

      Node Label     COORD.COOR1     COORD.COOR2           S.S11           S.S22           S.S33           S.S12         PE.PE11         PE.PE22         PE.PE33         PE.PE12         LE.LE11         LE.LE22         LE.LE33         LE.LE12
                          @Loc 1          @Loc 1          @Loc 1          @Loc 1          @Loc 1          @Loc 1          @Loc 1          @Loc 1          @Loc 1          @Loc 1          @Loc 1          @Loc 1          @Loc 1          @Loc 1
-------------------------------------------------------------------------------------------------------------------------------------------------------------------------------------------------------------------------------------------------
               1    -54.8954E-09     57.4106E-03    -15.0291E+06    -103.326E+06    -15.2222E+06    -245.670E+03    -26.0153E-03     51.9832E-03    -25.9679E-03     3.13602E-03    -25.9183E-03     51.5112E-03    -25.8724E-03     3.13129E-03
               2     17.5419E-03     58.7005E-03    -2.63346E+06     157.110E+06     89.6665E+06     466.066E+03    -29.4851E-03     55.4919E-03    -26.0068E-03     163.031E-03    -33.1976E-03     59.4928E-03    -25.7825E-03     166.835E-03
               3     17.2018E-03     116.822E-03     11.4697E+06    -18.3340E+06    -13.9540E+06     16.9567E+06     19.3541E-03     18.7012E-03    -38.0553E-03     1.50334E-03     19.4168E-03     18.5716E-03    -38.1151E-03     1.72201E-03
               4    -1.10390E-06     115.065E-03     19.8431E+06     7.93600E+06     19.3763E+06     1.35372E+06    -27.8041E-03     56.0515E-03    -28.2473E-03    -57.7639E-06    -27.7455E-03     56.0337E-03    -28.1907E-03    -40.8965E-06
               5    -9.33514E-09    -1.60288E-15    -13.0681E+06     -91.468E+06    -12.9702E+06    -46.2686E+03    -18.6396E-03     37.2895E-03    -18.6499E-03     138.896E-06    -18.5525E-03     36.8708E-03    -18.5631E-03     138.664E-06
               6     17.4551E-03    -1.60288E-15     7.76766E+06     111.727E+06     84.3853E+06     138.043E+03    -67.9392E-03     96.9088E-03    -28.9696E-03     70.3132E-03    -68.4734E-03     97.6331E-03    -28.7209E-03     69.6153E-03
               7     876.978E-06     57.4137E-03    -14.8824E+06    -102.968E+06    -14.7104E+06    -245.658E+03    -25.9903E-03     51.9643E-03    -25.9740E-03     5.32778E-03    -25.8940E-03     51.4928E-03    -25.8767E-03     5.32188E-03
               8     1.75403E-03     57.4208E-03    -14.4283E+06    -102.315E+06    -13.6365E+06    -159.906E+03    -25.9823E-03     51.9600E-03    -25.9777E-03     9.90733E-03    -25.8867E-03     51.4895E-03    -25.8766E-03     9.90001E-03
               9     2.63109E-03     57.4325E-03    -13.6779E+06    -101.481E+06    -11.8737E+06     90.3577E+03    -26.0415E-03     52.0236E-03    -25.9821E-03     14.7273E-03    -25.9464E-03     51.5542E-03    -25.8745E-03     14.7203E-03
              10     3.50800E-03     57.4489E-03    -12.7328E+06    -100.318E+06    -9.52947E+06     116.330E+03    -26.1077E-03     52.1044E-03    -25.9968E-03     19.6457E-03    -26.0138E-03     51.6369E-03    -25.8805E-03     19.6357E-03
              11     4.38501E-03     57.4700E-03    -11.6075E+06    -98.9889E+06    -7.10133E+06    -25.2033E+03    -26.1632E-03     52.1746E-03    -26.0114E-03     24.6420E-03    -26.0704E-03     51.7098E-03    -25.8865E-03     24.6261E-03
              12     5.26197E-03     57.4959E-03    -10.4440E+06    -97.1535E+06    -4.75405E+06     53.1579E+03    -26.2301E-03     52.2524E-03    -26.0223E-03     29.6936E-03    -26.1393E-03     51.7934E-03    -25.8901E-03     29.6740E-03
              13     6.13896E-03     57.5265E-03    -9.22131E+06    -95.6198E+06    -2.22650E+06     150.014E+03    -26.3040E-03     52.3366E-03    -26.0326E-03     34.7545E-03    -26.2156E-03     51.8824E-03    -25.8917E-03     34.7302E-03
              14     7.01603E-03     57.5620E-03    -7.84759E+06    -91.6104E+06    -709.589E+03     276.573E+03    -26.3922E-03     52.4248E-03    -26.0326E-03     39.7771E-03    -26.3086E-03     51.9902E-03    -25.8919E-03     39.7470E-03
              15     7.89295E-03     57.6020E-03    -6.51123E+06    -87.1966E+06    -875.391E+03     238.152E+03    -26.5064E-03     52.5300E-03    -26.0236E-03     44.8032E-03    -26.4275E-03     52.1210E-03    -25.8921E-03     44.7633E-03
              16     8.76998E-03     57.6472E-03    -5.43587E+06    -84.2370E+06    -1.03232E+06     333.539E+03    -26.6268E-03     52.6445E-03    -26.0177E-03     49.8268E-03    -26.5540E-03     52.2563E-03    -25.8928E-03     49.7768E-03
              17     9.64694E-03     57.6967E-03    -5.65537E+06    -76.7415E+06    -1.82849E+06    -312.174E+03    -26.7474E-03     52.7511E-03    -26.0037E-03     54.9738E-03    -26.6961E-03     52.4127E-03    -25.8934E-03     54.9016E-03
              18     10.5239E-03     57.7517E-03    -7.70238E+06    -71.0461E+06    -4.52953E+06    -1.44426E+06    -26.8992E-03     52.8857E-03    -25.9865E-03     60.1734E-03    -26.8780E-03     52.5981E-03    -25.8950E-03     60.0697E-03
              19     11.4009E-03     57.8112E-03    -10.2873E+06    -62.6388E+06    -11.2362E+06    -1.09646E+06    -27.0678E-03     53.0152E-03    -25.9473E-03     66.0117E-03    -27.0853E-03     52.8063E-03    -25.8978E-03     65.8922E-03
              20     12.2777E-03     57.8773E-03    -11.2331E+06    -41.6978E+06    -14.7256E+06     208.905E+03    -27.1743E-03     53.0741E-03    -25.8998E-03     73.7911E-03    -27.2601E-03     53.0148E-03    -25.8967E-03     73.6643E-03
              21     13.1551E-03     57.9515E-03    -9.70638E+06    -11.2983E+06    -10.9004E+06     705.311E+03    -27.3338E-03     53.2002E-03    -25.8664E-03     81.5484E-03    -27.5302E-03     53.3536E-03    -25.8904E-03     81.3958E-03
              22     14.0319E-03     58.0322E-03    -8.59952E+06     28.7341E+06    -13.4413E+06    -181.320E+03    -27.8984E-03     53.6849E-03    -25.7865E-03     97.3197E-03    -28.2914E-03     54.1884E-03    -25.8829E-03     97.1257E-03
              23     14.9097E-03     58.1369E-03    -8.72678E+06     75.3050E+06    -9.12356E+06    -643.494E+03    -29.4186E-03     55.1437E-03    -25.7251E-03     135.747E-03    -30.5016E-03     56.4895E-03    -25.8673E-03     135.574E-03
              24     15.7864E-03     58.2907E-03    -7.42825E+06     122.336E+06     30.6504E+06     217.385E+03    -33.8296E-03     59.6486E-03    -25.8189E-03     210.264E-03    -37.4719E-03     63.6098E-03    -25.8323E-03     210.884E-03
              25     16.6666E-03     58.5411E-03    -4.40694E+06     151.212E+06     75.3901E+06     669.765E+03    -33.3178E-03     59.2777E-03    -25.9599E-03     210.946E-03    -37.9948E-03     64.2572E-03    -25.7958E-03     213.535E-03
              26     17.5417E-03     59.7006E-03    -1.52732E+06     158.310E+06     90.0793E+06     77.1942E+03    -28.1646E-03     54.2085E-03    -26.0439E-03     164.093E-03    -31.9025E-03     58.2418E-03    -25.8209E-03     167.970E-03
              27     17.5419E-03     60.6955E-03    -1.95339E+06     158.108E+06     90.5417E+06    -509.770E+03    -27.9887E-03     54.0509E-03    -26.0622E-03     164.404E-03    -31.7525E-03     58.1065E-03    -25.8359E-03     168.321E-03
              28     17.5409E-03     61.6932E-03    -2.58800E+06     157.347E+06     89.6855E+06     140.318E+03    -29.0953E-03     55.1251E-03    -26.0299E-03     163.775E-03    -32.8388E-03     59.1579E-03    -25.8058E-03     167.608E-03
              29     17.5427E-03     62.6946E-03    -2.77737E+06     157.257E+06     89.4951E+06     191.081E+03    -29.4936E-03     55.5051E-03    -26.0115E-03     165.243E-03    -33.2744E-03     59.5747E-03    -25.7880E-03     169.065E-03
              30     17.5408E-03     63.6929E-03    -1.98946E+06     158.213E+06     90.6873E+06     472.667E+03    -29.1152E-03     55.1288E-03    -26.0137E-03     166.005E-03    -32.9150E-03     59.2203E-03    -25.7868E-03     169.880E-03
              31     17.5437E-03     64.6914E-03    -1.41229E+06     158.697E+06     91.1349E+06    -495.878E+03    -28.3021E-03     54.3280E-03    -26.0259E-03     166.056E-03    -32.0884E-03     58.4084E-03    -25.7983E-03     169.950E-03
              32     17.5405E-03     65.6887E-03    -1.84156E+06     158.120E+06     91.2385E+06    -258.818E+03    -28.2523E-03     54.3168E-03    -26.0645E-03     163.893E-03    -31.9854E-03     58.3401E-03    -25.8349E-03     167.742E-03
              33     17.5413E-03     66.6833E-03    -1.47994E+06     158.067E+06     90.3915E+06     465.515E+03    -28.0356E-03     54.0930E-03    -26.0574E-03     161.942E-03    -31.6718E-03     58.0231E-03    -25.8325E-03     165.721E-03
              34     17.5433E-03     67.6799E-03    -3.76233E+06     155.965E+06     88.7938E+06    -1.30680E+06    -30.3450E-03     56.3253E-03    -25.9803E-03     160.405E-03    -33.9787E-03     60.2419E-03    -25.7570E-03     164.064E-03
              35     17.5394E-03     68.6848E-03    -3.57948E+06     156.322E+06     89.9708E+06     737.905E+03    -31.1884E-03     57.1821E-03    -25.9937E-03     159.771E-03    -34.8327E-03     61.1078E-03    -25.7653E-03     163.435E-03
              36     17.5430E-03     69.6860E-03    -1.31175E+06     158.808E+06     90.4879E+06     998.518E+03    -27.9085E-03     53.9777E-03    -26.0691E-03     163.949E-03    -31.6341E-03     58.0001E-03    -25.8451E-03     167.857E-03
              37     17.5405E-03     70.6797E-03    -850.912E+03     159.265E+06     90.2110E+06    -521.833E+03    -26.6702E-03     52.7429E-03    -26.0727E-03     164.700E-03    -30.3959E-03     56.7694E-03    -25.8514E-03     168.646E-03
              38     17.5438E-03     71.6763E-03    -1.92204E+06     158.108E+06     90.2197E+06    -49.5573E+03    -28.6750E-03     54.7077E-03    -26.0327E-03     162.384E-03    -32.3598E-03     58.6854E-03    -25.8081E-03     166.197E-03
              39     17.5389E-03     72.6746E-03    -1.79157E+06     157.908E+06     88.7640E+06     165.837E+03    -29.5013E-03     55.5004E-03    -25.9992E-03     160.372E-03    -33.1365E-03     59.4326E-03    -25.7817E-03     164.089E-03
              40     17.5455E-03     73.6744E-03    -2.83093E+06     156.855E+06     87.4024E+06    -692.279E+03    -29.6354E-03     55.6240E-03    -25.9887E-03     160.734E-03    -33.2824E-03     59.5646E-03    -25.7750E-03     164.453E-03
              41     17.5374E-03     74.6741E-03    -2.54664E+06     157.174E+06     88.5120E+06     342.942E+03    -29.9084E-03     55.9219E-03    -26.0135E-03     161.152E-03    -33.5723E-03     59.8784E-03    -25.7952E-03     164.878E-03
              42     17.5452E-03     75.6752E-03    -1.57674E+06     158.095E+06     88.7451E+06     211.467E+03    -28.5483E-03     54.5954E-03    -26.0471E-03     162.807E-03    -32.2457E-03     58.5915E-03    -25.8303E-03     166.607E-03
              43     17.5379E-03     76.6702E-03    -2.52238E+06     157.436E+06     88.9477E+06    -987.456E+03    -28.9875E-03     55.0245E-03    -26.0370E-03     163.826E-03    -32.7215E-03     59.0507E-03    -25.8169E-03     167.638E-03
              44     17.5449E-03     77.6723E-03    -2.46431E+06     157.305E+06     88.1767E+06     488.631E+03    -29.0405E-03     55.0799E-03    -26.0394E-03     162.680E-03    -32.7325E-03     59.0660E-03    -25.8231E-03     166.472E-03
              45     17.5376E-03     78.6687E-03    -2.81084E+06     156.907E+06     88.4436E+06    -521.934E+03    -26.9758E-03     53.0908E-03    -26.1150E-03     162.428E-03    -30.6524E-03     57.0581E-03    -25.8963E-03     166.270E-03
              46     17.5438E-03     79.6633E-03    -3.64750E+06     155.948E+06     88.6258E+06    -368.565E+03    -27.1841E-03     53.2549E-03    -26.0708E-03     160.715E-03    -30.7841E-03     57.1392E-03    -25.8485E-03     164.513E-03
              47     17.5414E-03     80.6529E-03    -2.44414E+06     156.622E+06     87.9074E+06     1.09757E+06    -30.7913E-03     56.7381E-03    -25.9468E-03     154.871E-03    -34.2575E-03     60.4977E-03    -25.7308E-03     158.445E-03
              48     17.5411E-03     81.6699E-03    -381.027E+03     158.735E+06     89.0526E+06     99.5536E+03    -29.9329E-03     55.9391E-03    -26.0062E-03     158.548E-03    -33.5127E-03     59.8234E-03    -25.7905E-03     162.192E-03
              49     17.5419E-03     82.6610E-03    -1.97790E+06     157.615E+06     88.1640E+06    -345.527E+03    -27.5412E-03     53.6095E-03    -26.0682E-03     163.809E-03    -31.2607E-03     57.6258E-03    -25.8531E-03     167.695E-03
              50     17.5411E-03     83.6567E-03    -1.69623E+06     157.078E+06     86.1905E+06     206.594E+03    -28.0643E-03     54.0731E-03    -26.0087E-03     159.513E-03    -31.6520E-03     57.9623E-03    -25.8031E-03     163.297E-03
              51     17.5440E-03     84.6564E-03    -2.75033E+06     155.915E+06     84.8853E+06    -921.295E+03    -29.2407E-03     55.2083E-03    -25.9675E-03     160.472E-03    -32.8809E-03     59.1460E-03    -25.7652E-03     164.208E-03
              52     17.5395E-03     85.6583E-03    -3.00409E+06     155.489E+06     85.5382E+06    -35.3957E+03    -29.7240E-03     55.7132E-03    -25.9892E-03     162.510E-03    -33.4313E-03     59.7138E-03    -25.7826E-03     166.264E-03
              53     17.5437E-03     86.6578E-03    -1.72355E+06     156.122E+06     85.0977E+06     480.543E+03    -27.9198E-03     53.9219E-03    -26.0021E-03     164.125E-03    -31.6268E-03     57.9304E-03    -25.8004E-03     167.968E-03
              54     17.5420E-03     87.6498E-03    -1.63274E+06     155.279E+06     83.2312E+06    -241.502E+03    -27.6851E-03     53.6384E-03    -25.9533E-03     162.021E-03    -31.3220E-03     57.5795E-03    -25.7599E-03     165.830E-03
              55     17.5442E-03     88.6506E-03    -2.11581E+06     153.012E+06     81.6618E+06    -1.40727E+06    -28.4909E-03     54.3944E-03    -25.9035E-03     160.496E-03    -32.0868E-03     58.2892E-03    -25.7140E-03     164.215E-03
              56     17.5431E-03     89.6460E-03    -2.57597E+06     150.483E+06     81.5695E+06    -849.450E+03    -29.6296E-03     55.4988E-03    -25.8692E-03     159.777E-03    -33.2240E-03     59.3817E-03    -25.6758E-03     163.461E-03
              57     17.5437E-03     90.6479E-03    -2.84265E+06     150.719E+06     80.5116E+06     661.449E+03    -29.7889E-03     55.6394E-03    -25.8505E-03     159.667E-03    -33.3843E-03     59.5262E-03    -25.6623E-03     163.365E-03
              58     17.5442E-03     91.6478E-03    -2.88622E+06     150.642E+06     77.9137E+06    -506.451E+03    -28.8103E-03     54.6340E-03    -25.8237E-03     163.457E-03    -32.5034E-03     58.6257E-03    -25.6484E-03     167.252E-03
              59     17.5456E-03     92.6462E-03    -2.37880E+06     148.583E+06     76.0248E+06    -941.113E+03    -28.9487E-03     54.7091E-03    -25.7604E-03     165.336E-03    -32.6843E-03     58.7432E-03    -25.5923E-03     169.148E-03
              60     17.5462E-03     93.6454E-03    -1.01491E+06     146.366E+06     74.3934E+06    -903.573E+03    -28.4756E-03     54.1833E-03    -25.7077E-03     164.560E-03    -32.1834E-03     58.1913E-03    -25.5465E-03     168.390E-03
              61     17.5476E-03     94.6405E-03    -1.34254E+06     144.228E+06     70.2950E+06    -530.472E+03    -27.7841E-03     53.4111E-03    -25.6270E-03     164.075E-03    -31.4548E-03     57.3852E-03    -25.4827E-03     167.943E-03
              62     17.5497E-03     95.6368E-03    -1.08720E+06     143.053E+06     68.0576E+06     129.250E+03    -29.5202E-03     55.0096E-03    -25.4894E-03     163.092E-03    -33.1554E-03     58.9514E-03    -25.3550E-03     166.857E-03
              63     17.5496E-03     96.6381E-03    -3.18573E+06     141.629E+06     62.1515E+06    -888.153E+03    -30.6975E-03     56.0474E-03    -25.3499E-03     160.603E-03    -34.2853E-03     59.9464E-03    -25.2399E-03     164.241E-03
              64     17.5532E-03     97.6348E-03    -2.16076E+06     137.968E+06     62.3675E+06    -1.98142E+06    -31.3239E-03     56.5626E-03    -25.2387E-03     160.725E-03    -34.9099E-03     60.4499E-03    -25.1238E-03     164.351E-03
              65     17.5530E-03     98.6390E-03    -744.345E+03     136.340E+06     62.6704E+06     174.319E+03    -32.9096E-03     58.0158E-03    -25.1062E-03     161.548E-03    -36.5214E-03     61.9273E-03    -24.9894E-03     165.157E-03
              66     17.5563E-03     99.6423E-03    -3.89760E+06     135.307E+06     56.6324E+06    -396.435E+03    -33.0625E-03     58.0411E-03    -24.9786E-03     162.918E-03    -36.7282E-03     62.0091E-03    -24.8860E-03     166.541E-03
              67     17.5568E-03     100.642E-03    -514.470E+03     131.271E+06     50.9508E+06    -2.42232E+06    -33.9252E-03     58.7386E-03    -24.8135E-03     163.952E-03    -37.5913E-03     62.7212E-03    -24.7483E-03     167.535E-03
              68     17.5606E-03     101.647E-03    -1.18043E+06     124.382E+06     48.5989E+06    -3.52478E+06    -37.0544E-03     61.7197E-03    -24.6653E-03     162.597E-03    -40.7010E-03     65.6628E-03    -24.6009E-03     165.967E-03
              69     17.5571E-03     102.655E-03    -1.47732E+06     115.360E+06     45.1433E+06    -4.52626E+06    -39.3782E-03     63.9355E-03    -24.5573E-03     161.463E-03    -43.0031E-03     67.8337E-03    -24.4968E-03     164.669E-03
              70     17.5633E-03     103.660E-03    -104.421E+03     106.050E+06     40.4040E+06    -3.02885E+06    -42.1764E-03     66.5778E-03    -24.4014E-03     162.869E-03    -45.7925E-03     70.4533E-03    -24.3530E-03     165.940E-03
              71     17.5596E-03     104.679E-03    -4.36883E+06     96.6475E+06     35.4052E+06    -4.16927E+06    -45.0316E-03     69.3073E-03    -24.2758E-03     165.957E-03    -48.6991E-03     73.2006E-03    -24.2325E-03     168.785E-03
              72     17.5645E-03     105.693E-03     222.449E+03     80.9473E+06     29.4665E+06    -9.02313E+06    -46.7649E-03     70.9047E-03    -24.1398E-03     167.879E-03    -50.4119E-03     74.7542E-03    -24.1102E-03     170.488E-03
              73     17.5641E-03     106.698E-03    -5.22027E+06     52.4836E+06     30.2423E+06    -14.5311E+06    -53.0619E-03     77.0280E-03    -23.9661E-03     164.353E-03    -56.6073E-03     80.6548E-03    -23.8834E-03     166.482E-03
              74     17.5644E-03     107.737E-03    -116.681E+03     26.1316E+06      34.383E+06    -8.68999E+06    -57.9660E-03     81.8416E-03    -23.8756E-03     165.572E-03    -61.5258E-03     85.3953E-03    -23.7414E-03     167.397E-03
              75     17.5657E-03     108.758E-03      -2.874E+03     9.26794E+06     21.5460E+06    -4.72924E+06    -61.1624E-03     84.8864E-03    -23.7240E-03     175.336E-03    -64.9592E-03     88.6545E-03    -23.6297E-03     177.002E-03
              76     17.5662E-03     109.796E-03    -3.07785E+06    -10.5094E+06     19.0953E+06    -10.5965E+06    -68.9225E-03     92.4061E-03    -23.4836E-03     186.482E-03    -72.9401E-03     96.3231E-03    -23.3684E-03     187.552E-03
              77     17.5703E-03     110.844E-03    -3.82064E+06    -45.6783E+06     34.5625E+06    -19.0080E+06    -74.2442E-03     97.5495E-03    -23.3053E-03     200.891E-03    -78.4924E-03     101.524E-03    -23.0607E-03     201.344E-03
              78     17.5760E-03     111.889E-03     108.758E+03    -95.1863E+06     38.6291E+06    -21.6406E+06    -76.1259E-03     99.3138E-03    -23.1879E-03     215.492E-03    -80.5722E-03     103.314E-03    -22.8569E-03     215.409E-03
              79     17.5739E-03     112.941E-03     21.1737E+06    -101.347E+06     16.0982E+06     10.7935E+06    -75.4900E-03     98.6526E-03    -23.1626E-03     236.893E-03    -80.0210E-03     102.859E-03    -22.9659E-03     236.666E-03
              80     17.5704E-03     113.992E-03    -3.96902E+06    -43.6293E+06     -8.9163E+06     32.5558E+06    -55.0730E-03     78.8491E-03    -23.7762E-03     254.212E-03    -58.6971E-03     82.3386E-03    -23.7517E-03     254.483E-03
              81     17.5649E-03     114.969E-03    -19.9671E+06    -3.28840E+06    -2.32417E+06     3.83818E+06    -10.4962E-03     36.7992E-03    -26.3029E-03     212.866E-03    -11.9661E-03     38.2069E-03    -26.2808E-03     213.142E-03
              82     17.4748E-03     115.874E-03     1.17623E+06    -9.37290E+06    -5.88068E+06    -1.00439E+06     17.3520E-03     15.7834E-03    -33.1354E-03     85.0850E-03     17.2478E-03     15.8430E-03    -33.1529E-03     85.1393E-03
              83     16.3470E-03     116.582E-03    -2.55917E+06     26.4872E+06     25.4772E+06    -1.34852E+06     13.2914E-03     25.5533E-03    -38.8447E-03     16.6037E-03     13.1837E-03     25.6340E-03    -38.7520E-03     16.5855E-03
              84     15.4566E-03     116.374E-03    -19.1867E+06    -10.0529E+06     37.9227E+06    -2.57570E+06    -11.2066E-03     50.9035E-03    -39.6969E-03     24.6677E-03    -11.3507E-03     50.8248E-03    -39.4649E-03     24.6139E-03
              85     14.6125E-03     116.149E-03    -17.2599E+06    -3.21825E+06     26.9752E+06    -2.23241E+06    -31.7374E-03     70.9616E-03    -39.2242E-03     8.13827E-03    -31.8789E-03     70.9171E-03    -39.0596E-03     8.07200E-03
              86     13.7788E-03     115.958E-03    -13.1105E+06     1.87238E+06     20.0351E+06    -8.82882E+06    -35.7036E-03     73.9204E-03    -38.2168E-03    -6.29990E-03    -35.8195E-03     73.9017E-03    -38.1004E-03    -6.45235E-03
              87     12.9359E-03     115.811E-03    -15.6124E+06    -10.4582E+06     19.6432E+06    -1.29184E+06    -39.7224E-03     76.9693E-03    -37.2469E-03    -13.3070E-03    -39.8251E-03     76.8981E-03    -37.1109E-03    -13.3675E-03
              88     12.0924E-03     115.683E-03    -16.5980E+06     8.42280E+06     29.5882E+06    -6.17382E+06    -42.9775E-03     79.1509E-03    -36.1735E-03    -15.1567E-03    -43.1239E-03     79.1633E-03    -36.0137E-03    -15.2818E-03
              89     11.2472E-03     115.577E-03    -12.0590E+06    -7.18775E+06     31.8091E+06    -8.23181E+06    -43.5859E-03     78.6012E-03    -35.0154E-03    -13.8193E-03    -43.6885E-03     78.5278E-03    -34.8284E-03    -13.9664E-03
              90     10.3985E-03     115.483E-03    -5.98059E+06     979.279E+03     39.6346E+06    -7.13005E+06    -42.0335E-03     75.9160E-03    -33.8825E-03    -11.4807E-03    -42.1276E-03     75.8653E-03    -33.6770E-03    -11.6059E-03
              91     9.54507E-03     115.406E-03    -1.15205E+06    -3.75256E+06     38.7051E+06    -5.61935E+06    -39.8985E-03     72.7367E-03    -32.8383E-03    -9.21450E-03    -39.9591E-03     72.6584E-03    -32.6376E-03    -9.31302E-03
              92     8.68777E-03     115.338E-03     2.45165E+06     451.941E+03     38.9130E+06    -4.49316E+06    -37.9128E-03     69.8194E-03    -31.9067E-03    -7.38875E-03    -37.9608E-03     69.7579E-03    -31.7163E-03    -7.46703E-03
              93     7.82681E-03     115.282E-03     5.27269E+06    -2.14976E+06     34.6773E+06    -3.56201E+06    -36.0146E-03     67.0835E-03    -31.0688E-03    -6.01345E-03    -36.0381E-03     67.0118E-03    -30.9000E-03    -6.07543E-03
              94     6.96353E-03     115.233E-03     7.90088E+06     875.792E+03     30.8465E+06    -3.37114E+06    -34.1701E-03     64.5020E-03    -30.3319E-03    -4.87163E-03    -34.1789E-03     64.4476E-03    -30.1904E-03    -4.92777E-03
              95     6.09744E-03     115.194E-03     10.2007E+06    -2.28585E+06     24.2826E+06    -2.41973E+06    -32.5858E-03     62.2833E-03    -29.6974E-03    -3.94003E-03    -32.5686E-03     62.2198E-03    -29.5875E-03    -3.98129E-03
              96     5.22938E-03     115.159E-03     11.9548E+06     589.333E+03     19.9506E+06    -1.32146E+06    -31.2419E-03     60.4066E-03    -29.1647E-03    -3.23538E-03    -31.2136E-03     60.3615E-03    -29.0831E-03    -3.26034E-03
              97     4.36005E-03     115.131E-03     13.2907E+06    -435.423E+03     18.0963E+06    -1.44800E+06    -30.1387E-03     58.8813E-03    -28.7427E-03    -2.60772E-03    -30.0994E-03     58.8320E-03    -28.6708E-03    -2.63261E-03
              98     3.48913E-03     115.108E-03     15.2517E+06    -47.6332E+03     15.3608E+06    -1.36778E+06    -29.2508E-03     57.6543E-03    -28.4035E-03    -2.11638E-03    -29.1981E-03     57.6082E-03    -28.3487E-03    -2.13882E-03
              99     2.61750E-03     115.091E-03     18.3094E+06     193.893E+03     14.4046E+06    -1.66558E+06    -28.5442E-03     56.7167E-03    -28.1725E-03    -1.76491E-03    -28.4751E-03     56.6688E-03    -28.1273E-03    -1.78996E-03
             100     1.74478E-03     115.078E-03     21.3503E+06    -1.07120E+06     22.5089E+06    -2.17241E+06    -28.1355E-03     56.2322E-03    -28.0967E-03    -1.53821E-03    -28.0612E-03     56.1619E-03    -28.0135E-03    -1.56865E-03
             101     872.129E-06     115.071E-03     21.2590E+06    -372.608E+03     23.4011E+06    -459.863E+03    -27.9213E-03     56.0947E-03    -28.1735E-03    -772.264E-06    -27.8496E-03     56.0271E-03    -28.0867E-03    -779.410E-06
             102     725.462E-09     114.064E-03     21.4708E+06     1.87294E+06     22.3517E+06    -1.42476E+06    -25.1635E-03     50.3268E-03    -25.1633E-03     504.423E-06    -25.0917E-03     50.2725E-03    -25.0854E-03     485.356E-06
             103    -319.957E-09     113.072E-03     17.3993E+06    -6.27416E+06     16.8424E+06    -2.52888E+06    -20.6270E-03     41.1046E-03    -20.4776E-03     969.249E-06    -20.5551E-03     41.0240E-03    -20.4095E-03     935.852E-06
             104     173.804E-09     112.089E-03     3.64209E+06    -12.3165E+06     3.25763E+06    -1.22111E+06    -17.5369E-03     35.2900E-03    -17.7531E-03     1.12686E-03    -17.5052E-03     35.2190E-03    -17.7242E-03     1.11045E-03
             105    -413.855E-09     111.108E-03    -12.3214E+06    -16.4343E+06    -11.8020E+06    -1.28694E+06    -15.6882E-03     31.4808E-03    -15.7926E-03     1.74027E-03    -15.7085E-03     31.4343E-03    -15.8099E-03     1.72320E-03
             106     473.851E-09     110.132E-03    -32.5871E+06    -23.6963E+06    -31.8288E+06    -3.05127E+06    -14.6276E-03     29.1820E-03    -14.5544E-03     2.26075E-03    -14.7096E-03     29.1576E-03    -14.6319E-03     2.22099E-03
             107    -398.026E-09     109.155E-03    -53.2808E+06    -33.9070E+06    -53.7845E+06    -2.96574E+06    -14.0814E-03     28.1059E-03    -14.0245E-03     2.54335E-03    -14.2203E-03     28.0923E-03    -14.1670E-03     2.50481E-03
             108     414.095E-09     108.181E-03    -74.2732E+06    -41.1931E+06    -74.2336E+06    -2.00479E+06    -14.0265E-03     28.0459E-03    -14.0194E-03     2.83646E-03    -14.2302E-03     28.0559E-03    -14.2231E-03     2.81044E-03
             109    -421.254E-09     107.205E-03    -80.4975E+06    -45.6231E+06    -81.3829E+06    -333.741E+03    -14.4283E-03     28.8156E-03    -14.3872E-03     3.08372E-03    -14.6463E-03     28.8229E-03    -14.6113E-03     3.07933E-03
             110     486.324E-09     106.229E-03    -57.1765E+06    -39.9166E+06    -58.7916E+06     4.13618E+06    -15.1440E-03     30.2136E-03    -15.0696E-03     3.28227E-03    -15.2864E-03     30.1828E-03    -15.2228E-03     3.33562E-03
             111    -443.521E-09     105.250E-03    -25.9026E+06    -19.5273E+06    -26.7180E+06     8.29858E+06    -16.0005E-03     32.0401E-03    -16.0397E-03     3.36001E-03    -16.0626E-03     32.0194E-03    -16.1074E-03     3.46709E-03
             112     316.328E-09     104.271E-03    -9.79053E+06     2.95006E+06    -6.89813E+06     5.22326E+06    -17.1830E-03     34.3174E-03    -17.1344E-03     3.32389E-03    -17.2259E-03     34.3569E-03    -17.1590E-03     3.39138E-03
             113    -75.7167E-09     103.288E-03     2.95277E+06     9.70299E+06     3.90008E+06    -1.11402E+06    -18.5411E-03     36.9536E-03    -18.4125E-03     3.42619E-03    -18.5457E-03     36.9927E-03    -18.4114E-03     3.41181E-03
             114     68.0431E-09     102.302E-03     10.1868E+06     6.08517E+06     9.43805E+06    -1.41653E+06    -19.7225E-03     39.5244E-03    -19.8019E-03     3.49010E-03    -19.6938E-03     39.5269E-03    -19.7783E-03     3.47165E-03
             115    -214.407E-09     101.315E-03     12.6692E+06     707.211E+03     13.4094E+06    -1.66647E+06    -20.9105E-03     41.8979E-03    -20.9874E-03     3.51356E-03    -20.8674E-03     41.8641E-03    -20.9397E-03     3.49173E-03
             116     227.983E-09     100.325E-03     15.4652E+06    -5.59260E+06     14.8270E+06    -1.93705E+06    -22.0557E-03     44.0098E-03    -21.9541E-03     3.49000E-03    -21.9915E-03     43.9385E-03    -21.8943E-03     3.46452E-03
             117    -75.5635E-09     99.3331E-03     15.6113E+06    -10.2094E+06     15.4232E+06    -923.146E+03    -22.9082E-03     45.7806E-03    -22.8724E-03     3.39692E-03    -22.8375E-03     45.6851E-03    -22.8031E-03     3.38440E-03
             118    -21.2875E-09     98.3395E-03     14.7843E+06    -13.8358E+06     15.3313E+06    -1.47629E+06    -23.6200E-03     47.2904E-03    -23.6704E-03     3.34211E-03    -23.5480E-03     47.1782E-03    -23.5951E-03     3.32218E-03
             119     30.3297E-09     97.3446E-03     10.8830E+06    -21.9803E+06     11.2653E+06    -3.10961E+06    -24.2632E-03     48.4848E-03    -24.2217E-03     3.34361E-03    -24.1930E-03     48.3434E-03    -24.1493E-03     3.30235E-03
             120     32.4318E-09     96.3490E-03     7.84795E+06    -31.2633E+06     7.00863E+06    -2.19720E+06    -24.7435E-03     49.4255E-03    -24.6820E-03     3.28097E-03    -24.6688E-03     49.2482E-03    -24.6130E-03     3.25135E-03
             121    -2.00948E-09     95.3525E-03     4.80273E+06    -37.5419E+06     5.08955E+06    -1.64833E+06    -25.1326E-03     50.2158E-03    -25.0832E-03     3.21522E-03    -25.0613E-03     50.0144E-03    -25.0103E-03     3.19257E-03
             122     56.4420E-09     94.3549E-03     2.48836E+06     -43.441E+06     2.05542E+06    -1.85405E+06    -25.4156E-03     50.7839E-03    -25.3682E-03     3.24668E-03    -25.3430E-03     50.5607E-03    -25.2986E-03     3.22137E-03
             123    -37.7342E-09     93.3576E-03    -1.92153E+06    -49.3589E+06    -1.55972E+06    -1.85178E+06    -25.6101E-03     51.1747E-03    -25.5647E-03     3.13957E-03    -25.5456E-03     50.9336E-03    -25.4981E-03     3.11427E-03
             124     97.8497E-09     92.3595E-03    -4.53839E+06    -55.3182E+06    -4.81943E+06    -1.52820E+06    -25.7804E-03     51.4485E-03    -25.6680E-03     3.04781E-03    -25.7157E-03     51.1861E-03    -25.6053E-03     3.02671E-03
             125     31.4134E-09     91.3613E-03    -6.59014E+06    -59.7490E+06    -6.49347E+06    -900.751E+03    -25.8362E-03     51.6388E-03    -25.8026E-03     3.08477E-03    -25.7729E-03     51.3597E-03    -25.7389E-03     3.07168E-03
             126    -105.402E-09     90.3630E-03    -10.3059E+06    -64.0560E+06    -10.1212E+06    -1.78077E+06    -25.8688E-03     51.7917E-03    -25.9228E-03     3.04129E-03    -25.8126E-03     51.5017E-03    -25.8656E-03     3.01677E-03
             127     82.1299E-09     89.3645E-03    -12.2625E+06    -69.6947E+06    -12.6578E+06    -1.66935E+06    -25.9464E-03     51.9040E-03    -25.9576E-03     3.09600E-03    -25.8880E-03     51.5923E-03    -25.9021E-03     3.07291E-03
             128    -87.8375E-09     88.3659E-03    -12.7801E+06    -74.0080E+06    -12.8474E+06    -748.748E+03    -26.0042E-03     52.0066E-03    -26.0023E-03     3.27079E-03    -25.9419E-03     51.6743E-03    -25.9407E-03     3.25952E-03
             129     90.7087E-09     87.3671E-03    -13.6197E+06    -77.5617E+06    -13.3401E+06    -1.13131E+06    -26.0402E-03     52.0598E-03    -26.0196E-03     3.31819E-03    -25.9762E-03     51.7118E-03    -25.9541E-03     3.30191E-03
             130    -59.8218E-09     86.3688E-03    -15.1080E+06    -82.2552E+06    -15.0062E+06    -1.73130E+06    -26.0505E-03     52.0843E-03    -26.0339E-03     3.25087E-03    -25.9847E-03     51.7174E-03    -25.9677E-03     3.22675E-03
             131     53.9465E-09     85.3701E-03    -17.5804E+06    -87.7377E+06    -17.7728E+06    -1.50433E+06    -26.0690E-03     52.1726E-03    -26.1035E-03     3.18164E-03    -26.0037E-03     51.7858E-03    -26.0397E-03     3.16057E-03
             132    -115.823E-09     84.3714E-03    -17.9556E+06    -91.1597E+06    -18.4089E+06    -402.233E+03    -26.0946E-03     52.2195E-03    -26.1249E-03     3.18397E-03    -26.0253E-03     51.8171E-03    -26.0587E-03     3.17729E-03
             133     114.308E-09     83.3726E-03    -16.9174E+06    -92.0089E+06    -16.8679E+06    -60.6950E+03    -26.1056E-03     52.1683E-03    -26.0626E-03     3.17582E-03    -26.0321E-03     51.7579E-03    -25.9890E-03     3.17346E-03
             134    -41.9092E-09     82.3742E-03    -17.1804E+06    -93.0991E+06    -17.1567E+06    -448.522E+03    -26.0401E-03     52.1180E-03    -26.0778E-03     3.19186E-03    -25.9659E-03     51.7029E-03    -26.0037E-03     3.18435E-03
             135    -101.406E-09     81.3754E-03    -16.9513E+06     -94.626E+06    -16.7302E+06    -689.498E+03    -26.0411E-03     52.1958E-03    -26.1547E-03     3.18463E-03    -25.9641E-03     51.7722E-03    -26.0766E-03     3.17409E-03
             136     42.8139E-09     80.3768E-03    -17.1825E+06    -97.1168E+06    -17.3785E+06    -754.471E+03    -26.1389E-03     52.2431E-03    -26.1042E-03     3.15868E-03    -26.0585E-03     51.8083E-03    -26.0253E-03     3.14738E-03
             137     69.4317E-09     79.3780E-03    -18.1052E+06    -99.3677E+06    -18.1924E+06    -330.776E+03    -26.1171E-03     52.1595E-03    -26.0424E-03     3.17368E-03    -26.0369E-03     51.7160E-03    -25.9630E-03     3.16778E-03
             138    -56.6897E-09     78.3797E-03    -17.5469E+06    -100.029E+06    -17.6511E+06     34.5865E+03    -26.0461E-03     52.1513E-03    -26.1052E-03     3.20510E-03    -25.9629E-03     51.7029E-03    -26.0229E-03     3.20391E-03
             139    -66.0449E-09     77.3807E-03    -16.9485E+06    -99.7003E+06    -17.0218E+06     46.9009E+03    -26.0645E-03     52.1728E-03    -26.1083E-03     3.16705E-03    -25.9797E-03     51.7243E-03    -26.0243E-03     3.16601E-03
             140     105.966E-09     76.3824E-03    -16.6973E+06    -99.8012E+06    -16.7106E+06    -153.645E+03    -26.0736E-03     52.1235E-03    -26.0499E-03     3.21792E-03    -25.9878E-03     51.6737E-03    -25.9646E-03     3.21426E-03
             141    -109.814E-09     75.3836E-03    -17.4462E+06    -100.440E+06    -17.3817E+06    -184.770E+03    -26.0703E-03     52.1031E-03    -26.0328E-03     3.24775E-03    -25.9864E-03     51.6521E-03    -25.9487E-03     3.24371E-03
             142     174.781E-09     74.3853E-03    -17.5438E+06    -100.832E+06    -17.5910E+06     75.6788E+03    -26.0991E-03     52.0528E-03    -25.9536E-03     3.18618E-03    -26.0148E-03     51.6003E-03    -25.8700E-03     3.18551E-03
             143     9.61522E-09     73.3867E-03    -16.8316E+06    -100.744E+06    -16.5244E+06    -6.03858E+03    -26.0268E-03     51.9552E-03    -25.9284E-03     3.12198E-03    -25.9406E-03     51.5006E-03    -25.8406E-03     3.12034E-03
             144    -23.0905E-09     72.3888E-03    -16.4562E+06    -101.227E+06    -16.6181E+06    -443.087E+03    -25.9622E-03     51.9578E-03    -25.9955E-03     2.99091E-03    -25.8733E-03     51.5003E-03    -25.9080E-03     2.98374E-03
             145    -28.3230E-09     71.3900E-03    -15.5954E+06    -102.038E+06    -15.8294E+06    -35.0358E+03    -26.0067E-03     52.0557E-03    -26.0490E-03     2.98862E-03    -25.9135E-03     51.5918E-03    -25.9575E-03     2.98672E-03
             146    -1.64586E-09     70.3917E-03    -15.4112E+06    -101.963E+06    -15.2282E+06    -143.467E+03    -26.0220E-03     52.0945E-03    -26.0724E-03     3.01412E-03    -25.9289E-03     51.6298E-03    -25.9784E-03     3.01074E-03
             147    -59.4294E-09     69.3930E-03    -15.5600E+06    -102.316E+06    -15.7030E+06    -285.652E+03    -26.0560E-03     52.0932E-03    -26.0373E-03     3.07526E-03    -25.9623E-03     51.6277E-03    -25.9449E-03     3.07003E-03
             148     146.776E-09     68.3945E-03    -15.4587E+06    -103.374E+06    -15.3433E+06    -220.319E+03    -26.0846E-03     52.0829E-03    -25.9982E-03     3.20370E-03    -25.9895E-03     51.6114E-03    -25.9027E-03     3.19924E-03
             149    -86.6025E-09     67.3959E-03    -15.7790E+06    -103.855E+06    -15.8803E+06     14.1467E+03    -26.0613E-03     52.0524E-03    -25.9912E-03     3.25411E-03    -25.9662E-03     51.5798E-03    -25.8971E-03     3.25266E-03
             150     142.817E-09     66.3976E-03    -15.7327E+06    -103.464E+06    -15.6379E+06     157.777E+03    -26.0590E-03     52.0906E-03    -26.0316E-03     3.23938E-03    -25.9647E-03     51.6195E-03    -25.9370E-03     3.23976E-03
             151    -155.318E-09     65.3989E-03    -14.9358E+06    -102.845E+06    -15.0839E+06     294.913E+03    -26.0652E-03     52.1566E-03    -26.0914E-03     3.20391E-03    -25.9686E-03     51.6867E-03    -25.9961E-03     3.20610E-03
             152     114.916E-09     64.4004E-03    -14.6867E+06    -102.477E+06    -14.3432E+06    -89.5052E+03    -26.0926E-03     52.1835E-03    -26.0908E-03     3.16809E-03    -25.9964E-03     51.7139E-03    -25.9926E-03     3.16539E-03
             153    -72.5433E-09     63.4018E-03    -15.3352E+06    -103.052E+06    -15.5643E+06    -320.201E+03    -26.1192E-03     52.1668E-03    -26.0476E-03     3.11617E-03    -26.0236E-03     51.6971E-03    -25.9538E-03     3.11045E-03
             154     148.162E-09     62.4033E-03    -15.2582E+06    -102.824E+06    -15.4651E+06     215.470E+03    -26.0829E-03     52.1593E-03    -26.0765E-03     3.11348E-03    -25.9874E-03     51.6905E-03    -25.9826E-03     3.11459E-03
             155    -219.901E-09     61.4046E-03    -14.1681E+06    -101.890E+06    -14.1495E+06     456.559E+03    -26.0649E-03     52.1849E-03    -26.1199E-03     3.18986E-03    -25.9672E-03     51.7172E-03    -26.0224E-03     3.19421E-03
             156     190.169E-09     60.4059E-03    -14.9393E+06    -101.169E+06    -14.6002E+06     169.938E+03    -26.0962E-03     52.1491E-03    -26.0529E-03     3.18969E-03    -26.0028E-03     51.6868E-03    -25.9575E-03     3.19042E-03
             157    -85.7688E-09     59.4076E-03    -15.0251E+06    -101.395E+06    -15.0034E+06    -341.605E+03    -26.0328E-03     52.0210E-03    -25.9882E-03     3.09425E-03    -25.9389E-03     51.5583E-03    -25.8944E-03     3.08822E-03
             158     55.0639E-09     58.4092E-03    -14.3931E+06    -102.476E+06    -14.3834E+06    -418.789E+03    -25.9848E-03     51.9842E-03    -25.9994E-03     3.12897E-03    -25.8870E-03     51.5143E-03    -25.9019E-03     3.12195E-03
             159     130.747E-09     56.4124E-03    -15.4753E+06    -103.411E+06    -15.4700E+06     154.643E+03    -26.0113E-03     51.9117E-03    -25.9003E-03     3.14062E-03    -25.9160E-03     51.4402E-03    -25.8053E-03     3.14102E-03
             160    -16.8916E-09     55.4139E-03    -15.2075E+06    -102.986E+06    -15.1103E+06    -30.4409E+03    -25.9639E-03     51.8707E-03    -25.9068E-03     3.17171E-03    -25.8685E-03     51.4005E-03    -25.8109E-03     3.16967E-03
             161    -675.191E-12     54.4159E-03    -14.6238E+06    -102.672E+06    -14.9353E+06     268.737E+03    -25.9334E-03     51.8830E-03    -25.9496E-03     3.14062E-03    -25.8358E-03     51.4133E-03    -25.8542E-03     3.14249E-03
             162    -18.6498E-09     53.4173E-03    -14.4759E+06    -102.107E+06    -14.1557E+06     132.303E+03    -25.9574E-03     51.9165E-03    -25.9591E-03     3.19577E-03    -25.8609E-03     51.4483E-03    -25.8609E-03     3.19594E-03
             163     33.3442E-09     52.4190E-03    -14.3707E+06    -101.900E+06    -14.5078E+06    -82.5218E+03    -26.0143E-03     51.9093E-03    -25.8951E-03     3.22893E-03    -25.9171E-03     51.4425E-03    -25.7990E-03     3.22631E-03
             164     154.279E-09     51.4206E-03    -14.9053E+06    -102.080E+06    -14.6591E+06    -17.0844E+03    -25.9649E-03     51.8746E-03    -25.9097E-03     3.27001E-03    -25.8699E-03     51.4078E-03    -25.8134E-03     3.26819E-03
             165    -247.723E-09     50.4226E-03    -13.9018E+06    -101.675E+06    -14.3062E+06     377.898E+03    -25.9047E-03     51.8781E-03    -25.9735E-03     3.12119E-03    -25.8057E-03     51.4114E-03    -25.8774E-03     3.12457E-03
             166     210.861E-09     49.4241E-03    -13.5891E+06    -100.758E+06    -13.0627E+06     275.551E+03    -26.0057E-03     51.9004E-03    -25.8947E-03     3.07188E-03    -25.9083E-03     51.4360E-03    -25.7942E-03     3.07394E-03
             167     21.8626E-09     48.4258E-03    -13.7668E+06    -101.213E+06    -13.8708E+06    -303.289E+03    -26.0154E-03     51.8813E-03    -25.8658E-03     3.22088E-03    -25.9171E-03     51.4161E-03    -25.7685E-03     3.21539E-03
             168     1.31097E-09     47.4274E-03    -14.7031E+06    -102.203E+06    -14.6361E+06    -220.294E+03    -25.8874E-03     51.8242E-03    -25.9368E-03     3.21861E-03    -25.7912E-03     51.3565E-03    -25.8405E-03     3.21415E-03
             169    -115.753E-09     46.4294E-03    -15.5659E+06    -103.113E+06    -15.6744E+06    -369.843E+03    -25.8346E-03     51.7312E-03    -25.8966E-03     3.14812E-03    -25.7399E-03     51.2618E-03    -25.8029E-03     3.14173E-03
             170     115.040E-09     45.4311E-03    -15.6416E+06    -103.385E+06    -15.8404E+06     166.080E+03    -25.8835E-03     51.6666E-03    -25.7832E-03     3.13356E-03    -25.7885E-03     51.1961E-03    -25.6898E-03     3.13413E-03
             171     54.3202E-09     44.4333E-03    -15.3455E+06    -102.911E+06    -14.9929E+06     64.9621E+03    -25.8164E-03     51.6278E-03    -25.8114E-03     3.10084E-03    -25.7219E-03     51.1580E-03    -25.7149E-03     3.10009E-03
             172    -215.823E-09     43.4352E-03    -15.1696E+06    -103.068E+06    -15.3355E+06    -172.171E+03    -25.7631E-03     51.6084E-03    -25.8452E-03     3.04947E-03    -25.6670E-03     51.1381E-03    -25.7505E-03     3.04575E-03
             173     226.614E-09     42.4371E-03    -15.2005E+06    -102.849E+06    -15.3116E+06     37.8103E+03    -25.7821E-03     51.5732E-03    -25.7910E-03     3.02000E-03    -25.6865E-03     51.1040E-03    -25.6964E-03     3.01901E-03
             174    -259.000E-09     41.4394E-03    -14.3393E+06    -102.021E+06    -14.5121E+06     356.417E+03    -25.7172E-03     51.5116E-03    -25.7944E-03     2.95104E-03    -25.6196E-03     51.0442E-03    -25.6982E-03     2.95412E-03
             175     149.470E-09     40.4412E-03    -15.2740E+06    -101.731E+06    -14.8252E+06    -151.669E+03    -25.7392E-03     51.4767E-03    -25.7374E-03     3.05665E-03    -25.6463E-03     51.0125E-03    -25.6419E-03     3.05323E-03
             176    -36.4802E-09     39.4432E-03    -15.8038E+06    -102.527E+06    -16.1090E+06    -307.079E+03    -25.7296E-03     51.3672E-03    -25.6377E-03     3.14846E-03    -25.6363E-03     50.9017E-03    -25.5466E-03     3.14301E-03
             177     76.2838E-09     38.4458E-03    -15.5548E+06    -102.848E+06    -15.4861E+06      320.75E+03    -25.6241E-03     51.2135E-03    -25.5895E-03     3.09238E-03    -25.5299E-03     50.7451E-03    -25.4952E-03     3.09504E-03
             178    -59.6032E-09     37.4479E-03    -14.4644E+06    -101.869E+06    -14.6781E+06     378.305E+03    -25.5034E-03     51.0216E-03    -25.5182E-03     3.00227E-03    -25.4065E-03     50.5554E-03    -25.4229E-03     3.00576E-03
             179     9.85889E-09     36.4511E-03    -13.8156E+06    -100.996E+06    -13.4306E+06     26.1329E+03    -25.4125E-03     50.8121E-03    -25.3996E-03     2.85522E-03    -25.3153E-03     50.3474E-03    -25.3003E-03     2.85411E-03
             180     62.5179E-09     35.4537E-03    -14.7251E+06    -101.656E+06    -14.7175E+06    -538.272E+03    -25.2914E-03     50.5281E-03    -25.2367E-03     2.82213E-03    -25.1959E-03     50.0633E-03    -25.1416E-03     2.81370E-03
             181    -43.1079E-09     34.4570E-03    -15.1898E+06    -101.911E+06    -15.6524E+06     294.683E+03    -25.1001E-03     50.1694E-03    -25.0693E-03     2.91801E-03    -25.0053E-03     49.7054E-03    -24.9778E-03     2.92038E-03
             182     68.0986E-09     33.4604E-03    -13.9253E+06    -100.360E+06    -13.7321E+06     534.752E+03    -24.9373E-03     49.8491E-03    -24.9118E-03     2.96249E-03    -24.8411E-03     49.3882E-03    -24.8148E-03     2.96798E-03
             183    -50.8812E-09     32.4644E-03    -14.0055E+06    -98.8618E+06    -14.0594E+06     408.444E+03    -24.7268E-03     49.4576E-03    -24.7308E-03     2.91800E-03    -24.6327E-03     49.0048E-03    -24.6374E-03     2.92190E-03
             184     21.5013E-09     31.4687E-03    -13.7214E+06    -98.1293E+06    -13.2517E+06    -88.0604E+03    -24.5456E-03     49.0847E-03    -24.5391E-03     2.87430E-03    -24.4524E-03     48.6340E-03    -24.4432E-03     2.87181E-03
             185     20.2458E-09     30.4734E-03    -12.6271E+06    -98.9464E+06    -12.8937E+06    -550.309E+03    -24.3560E-03     48.6819E-03    -24.3259E-03     2.82284E-03    -24.2566E-03     48.2250E-03    -24.2286E-03     2.81439E-03
             186    -16.4324E-09     29.4784E-03    -13.8278E+06    -99.7618E+06    -13.9161E+06     274.782E+03    -24.0552E-03     48.1066E-03    -24.0514E-03     2.75482E-03    -23.9592E-03     47.6489E-03    -23.9563E-03     2.75708E-03
             187     14.3934E-09     28.4843E-03    -13.5234E+06    -99.2167E+06    -13.4128E+06     184.941E+03    -23.7411E-03     47.4789E-03    -23.7378E-03     2.69213E-03    -23.6451E-03     47.0227E-03    -23.6414E-03     2.69328E-03
             188    -9.04417E-09     27.4907E-03    -13.2804E+06    -98.5377E+06    -13.4309E+06     116.475E+03    -23.4322E-03     46.8562E-03    -23.4241E-03     2.60150E-03    -23.3359E-03     46.4031E-03    -23.3291E-03     2.60180E-03
             189     12.6798E-09     26.4979E-03    -13.9202E+06    -98.3873E+06    -13.6941E+06     12.3233E+03    -23.0970E-03     46.1939E-03    -23.0968E-03     2.50956E-03    -23.0038E-03     45.7428E-03    -23.0025E-03     2.50855E-03
             190    -16.8684E-09     25.5053E-03    -14.5158E+06    -98.1003E+06    -14.8500E+06     356.432E+03    -22.6952E-03     45.3868E-03    -22.6916E-03     2.41903E-03    -22.6037E-03     44.9397E-03    -22.6026E-03     2.42255E-03
             191     20.3133E-09     24.5142E-03    -14.3292E+06    -96.1289E+06    -14.2215E+06     691.169E+03    -22.2574E-03     44.4919E-03    -22.2345E-03     2.32021E-03    -22.1687E-03     44.0535E-03    -22.1454E-03     2.32815E-03
             192     14.8497E-09     23.5236E-03    -13.6864E+06    -94.6791E+06    -13.6004E+06     282.080E+03    -21.8103E-03     43.5871E-03    -21.7769E-03     2.24179E-03    -21.7214E-03     43.1542E-03    -21.6878E-03     2.24450E-03
             193     6.95308E-09     22.5341E-03    -14.4862E+06    -93.7855E+06    -14.5661E+06     265.677E+03    -21.3476E-03     42.6193E-03    -21.2718E-03     2.14573E-03    -21.2626E-03     42.1934E-03    -21.1876E-03     2.14828E-03
             194     101.313E-09     21.5454E-03    -14.5380E+06    -92.6030E+06    -14.5135E+06     431.865E+03    -20.8430E-03     41.5888E-03    -20.7458E-03     2.04163E-03    -20.7600E-03     41.1687E-03    -20.6630E-03     2.04639E-03
             195    -40.4042E-09     20.5580E-03    -13.8030E+06    -91.1604E+06    -13.7850E+06     642.983E+03    -20.2962E-03     40.5735E-03    -20.2774E-03     1.91001E-03    -20.2127E-03     40.1586E-03    -20.1941E-03     1.91756E-03
             196     10.7020E-09     19.5714E-03    -13.5865E+06    -89.4469E+06    -13.7152E+06     513.039E+03    -19.7682E-03     39.5453E-03    -19.7772E-03     1.72607E-03    -19.6862E-03     39.1385E-03    -19.6964E-03     1.73196E-03
             197    -125.296E-12     18.5858E-03    -12.7544E+06    -87.6465E+06    -12.7417E+06     434.818E+03    -19.2586E-03     38.4730E-03    -19.2144E-03     1.59077E-03    -19.1765E-03     38.0726E-03    -19.1326E-03     1.59570E-03
             198     66.1509E-09     17.6015E-03    -12.0287E+06    -86.1109E+06    -12.0052E+06     345.024E+03    -18.7299E-03     37.3840E-03    -18.6541E-03     1.43649E-03    -18.6475E-03     36.9891E-03    -18.5718E-03     1.44032E-03
             199     568.204E-12     16.6179E-03    -11.0851E+06    -84.2722E+06    -11.2413E+06     676.646E+03    -18.1166E-03     36.1355E-03    -18.0189E-03     1.22551E-03    -18.0332E-03     35.7473E-03    -17.9368E-03     1.23370E-03
             200     102.660E-09     15.6361E-03    -9.27225E+06    -81.6248E+06    -9.19097E+06     866.585E+03    -17.4686E-03     34.8416E-03    -17.3730E-03     1.06642E-03    -17.3830E-03     34.4611E-03    -17.2871E-03     1.07714E-03
             201    -36.6154E-09     14.6553E-03    -6.88062E+06    -78.7081E+06    -7.06489E+06     907.162E+03    -16.8506E-03     33.5843E-03    -16.7337E-03     856.511E-06    -16.7604E-03     33.2119E-03    -16.6449E-03     867.834E-06
             202     174.881E-09     13.6755E-03    -4.65968E+06    -75.3693E+06    -4.65794E+06     1.10580E+06    -16.0836E-03     32.0210E-03    -15.9374E-03     653.919E-06    -15.9906E-03     31.6585E-03    -15.8446E-03     667.876E-06
             203    -54.3986E-09     12.6979E-03    -2.26949E+06    -72.6815E+06    -1.89048E+06     538.887E+03    -15.1628E-03     30.1990E-03    -15.0362E-03     439.696E-06    -15.0657E-03     29.8425E-03    -14.9370E-03     446.342E-06
             204     162.438E-09     11.7218E-03    -3.44952E+06    -72.1609E+06    -3.39330E+06    -198.056E+03    -14.1949E-03     28.2731E-03    -14.0782E-03     290.921E-06    -14.1023E-03     27.9231E-03    -13.9855E-03     288.054E-06
             205    -62.8986E-09     10.7476E-03    -8.09582E+06    -72.6853E+06    -8.24020E+06    -141.729E+03    -13.2351E-03     26.3480E-03    -13.1128E-03     285.260E-06    -13.1580E-03     26.0091E-03    -13.0369E-03     283.124E-06
             206     178.736E-09     9.77548E-03    -11.7219E+06    -73.2141E+06    -11.3426E+06    -207.373E+03    -12.5130E-03     24.9205E-03    -12.4075E-03     347.333E-06    -12.4487E-03     24.5888E-03    -12.3410E-03     344.327E-06
             207    -102.989E-09     8.80411E-03    -13.3505E+06    -74.3687E+06    -13.3143E+06    -411.959E+03    -12.2592E-03     24.4616E-03    -12.2023E-03     554.912E-06    -12.1985E-03     24.1293E-03    -12.1417E-03     549.268E-06
             208     128.194E-09     7.83269E-03     -13.221E+06    -75.8594E+06    -13.0109E+06    -319.149E+03    -12.5834E-03     25.1222E-03    -12.5388E-03     838.868E-06    -12.5203E-03     24.7818E-03    -12.4747E-03     834.474E-06
             209    -72.4620E-09     6.86001E-03    -11.7237E+06    -77.8167E+06    -11.2837E+06    -571.395E+03    -13.3582E-03     26.6898E-03    -13.3316E-03     1.03892E-03    -13.2874E-03     26.3349E-03    -13.2582E-03     1.03133E-03
             210     68.5355E-09     5.88559E-03    -9.34835E+06    -80.1371E+06    -9.40831E+06    -910.926E+03    -14.3848E-03     28.7703E-03    -14.3856E-03     1.08523E-03    -14.3015E-03     28.3977E-03    -14.3029E-03     1.07329E-03
             211    -67.1910E-09     4.90887E-03    -8.51820E+06    -82.4461E+06    -8.67137E+06    -810.535E+03    -15.4858E-03     30.9829E-03    -15.4971E-03     1.03089E-03    -15.3960E-03     30.5964E-03    -15.4086E-03     1.02023E-03
             212     43.5683E-09     3.93018E-03    -9.17726E+06    -84.6078E+06    -9.22173E+06    -567.037E+03    -16.5202E-03     33.0620E-03    -16.5418E-03     895.810E-06    -16.4298E-03     32.6665E-03    -16.4519E-03     888.269E-06
             213    -59.1871E-09     2.94942E-03    -10.1281E+06    -87.0462E+06    -10.3625E+06    -653.661E+03    -17.4060E-03     34.8490E-03    -17.4429E-03     721.924E-06    -17.3150E-03     34.4443E-03    -17.3539E-03     713.254E-06
             214     6.12108E-09     1.96725E-03    -11.1460E+06    -89.1396E+06    -11.3795E+06    -686.289E+03    -18.0970E-03     36.2184E-03    -18.1214E-03     491.118E-06    -18.0063E-03     35.8063E-03    -18.0329E-03     482.098E-06
             215    -73.2479E-12     983.810E-06    -12.3283E+06    -90.6755E+06    -12.2705E+06    -324.809E+03    -18.5185E-03     37.0383E-03    -18.5198E-03     250.948E-06    -18.4299E-03     36.6215E-03    -18.4318E-03     246.901E-06
             216     883.404E-06    -1.60288E-15    -12.7614E+06    -91.4262E+06    -12.9542E+06    -432.311E+03    -18.7009E-03     37.3669E-03    -18.6660E-03     217.731E-06    -18.6128E-03     36.9474E-03    -18.5797E-03     212.306E-06
             217     1.76669E-03    -1.60288E-15    -11.9717E+06     -91.132E+06    -12.7397E+06    -626.068E+03    -18.8564E-03     37.5723E-03    -18.7159E-03     416.474E-06    -18.7655E-03     37.1524E-03    -18.6301E-03     408.299E-06
             218     2.64977E-03    -1.60288E-15    -11.2741E+06    -90.9092E+06    -12.5338E+06    -508.873E+03    -19.0883E-03     37.8849E-03    -18.7966E-03     637.537E-06    -18.9946E-03     37.4648E-03    -18.7112E-03     630.796E-06
             219     3.53268E-03    -1.60288E-15    -10.6414E+06    -91.1079E+06    -12.9803E+06    -762.671E+03    -19.4496E-03     38.3565E-03    -18.9069E-03     893.878E-06    -19.3518E-03     37.9351E-03    -18.8243E-03     883.815E-06
             220     4.41513E-03    -1.60288E-15    -9.59160E+06    -91.4714E+06    -14.1641E+06    -1.19628E+06    -19.9884E-03     39.0446E-03    -19.0561E-03     1.21025E-03    -19.8832E-03     38.6216E-03    -18.9804E-03     1.19455E-03
             221     5.29704E-03    -1.60288E-15    -8.35297E+06    -92.1892E+06    -16.4787E+06    -1.39714E+06    -20.6838E-03     39.9329E-03    -19.2491E-03     1.55164E-03    -20.5679E-03     39.5080E-03    -19.1857E-03     1.53328E-03
             222     6.17823E-03    -1.60288E-15    -6.77480E+06    -93.2643E+06    -20.6077E+06    -2.14111E+06    -21.5223E-03     41.0043E-03    -19.4821E-03     1.95602E-03    -21.3910E-03     40.5777E-03    -19.4400E-03     1.92796E-03
             223     7.05866E-03    -1.60288E-15    -4.42546E+06    -93.9350E+06    -25.8585E+06    -3.00954E+06    -22.5483E-03     42.3064E-03    -19.7581E-03     2.44109E-03    -22.3967E-03     41.8806E-03    -19.7447E-03     2.40170E-03
             224     7.93804E-03    -1.60288E-15    -1.31994E+06    -93.4493E+06    -31.5834E+06    -3.76460E+06    -23.8038E-03     43.8890E-03    -20.0851E-03     3.05810E-03    -23.6291E-03     43.4694E-03    -20.1056E-03     3.00883E-03
             225     8.81612E-03    -1.60288E-15     2.52180E+06    -86.2384E+06    -38.2475E+06    -4.58699E+06    -25.2290E-03     45.6852E-03    -20.4562E-03     3.87784E-03    -25.0359E-03     45.3058E-03    -20.5260E-03     3.81782E-03
             226     9.69274E-03    -1.60288E-15     5.92018E+06    -71.2262E+06    -43.3185E+06    -4.16667E+06    -26.7125E-03     47.5916E-03    -20.8791E-03     4.67214E-03    -26.5168E-03     47.2897E-03    -21.0010E-03     4.61694E-03
             227     10.5684E-03    -1.60288E-15     7.62571E+06    -52.3243E+06    -43.7634E+06    -2.67264E+06    -28.3721E-03     49.7460E-03    -21.3739E-03     5.56630E-03    -28.1946E-03     49.5369E-03    -21.5279E-03     5.52952E-03
             228     11.4420E-03    -1.60288E-15     8.40766E+06    -26.9750E+06    -38.6853E+06    -2.01664E+06    -30.3364E-03     52.2846E-03    -21.9481E-03     7.31624E-03    -30.1993E-03     52.1937E-03    -22.1146E-03     7.28762E-03
             229     12.3128E-03    -1.60288E-15     8.31947E+06     6.02825E+06    -25.1234E+06    -1.38221E+06    -32.3936E-03     55.0116E-03    -22.6181E-03     9.46233E-03    -32.3245E-03     55.0664E-03    -22.7645E-03     9.43974E-03
             230     13.1830E-03    -1.60288E-15     5.76586E+06     34.7104E+06    -10.0872E+06     2.12677E+06    -34.9495E-03     58.3254E-03    -23.3759E-03     11.6026E-03    -34.9569E-03     58.5059E-03    -23.4850E-03     11.6211E-03
             231     14.0498E-03    -1.60288E-15     2.68943E+06     51.9767E+06     5.02000E+06     3.00528E+06    -39.2077E-03     63.4831E-03    -24.2753E-03     16.5582E-03    -39.2779E-03     63.7328E-03    -24.3295E-03     16.5859E-03
             232     14.9082E-03    -1.60288E-15     3.81279E+06     68.7713E+06     32.3175E+06     602.177E+03    -44.3592E-03     69.7691E-03    -25.4098E-03     26.4448E-03    -44.4887E-03     70.0613E-03    -25.3535E-03     26.4419E-03
             233     15.7588E-03    -1.60288E-15     4.47690E+06     81.1750E+06     59.8270E+06     2.72342E+06    -47.8508E-03     74.5396E-03    -26.6889E-03     40.6967E-03    -48.0416E-03     74.8580E-03    -26.5139E-03     40.6973E-03
             234     16.6075E-03    -1.60288E-15     5.40685E+06     97.6224E+06     76.9798E+06     2.83488E+06    -58.4192E-03     86.5724E-03    -28.1531E-03     59.5751E-03    -58.7971E-03     87.0962E-03    -27.9176E-03     59.2322E-03
             235     17.4917E-03     1.06690E-03    -343.908E+03     111.671E+06     75.7217E+06     4.88685E+06    -72.1195E-03     100.003E-03    -27.8840E-03     82.3279E-03    -72.8815E-03     100.950E-03    -27.6668E-03     81.5561E-03
             236     17.5212E-03     2.13959E-03    -6.40817E+06     119.000E+06     67.3343E+06     7.14467E+06    -78.6356E-03     104.829E-03    -26.1931E-03     100.951E-03    -79.8111E-03     106.215E-03    -26.0197E-03     99.9570E-03
             237     17.5290E-03     3.20560E-03    -2.81318E+06     128.290E+06     76.3089E+06     2.52253E+06    -83.9006E-03     109.328E-03    -25.4277E-03     113.865E-03    -85.4863E-03     111.144E-03    -25.2281E-03     112.620E-03
             238     17.5304E-03     4.27831E-03    -1.89162E+06     132.141E+06     85.7753E+06     667.283E+03    -85.5253E-03     110.811E-03    -25.2852E-03     126.201E-03    -87.5052E-03     113.008E-03    -25.0452E-03     124.947E-03
             239     17.5305E-03     5.33579E-03    -2.07016E+06     134.088E+06     86.8367E+06     873.649E+03    -81.8053E-03     107.167E-03    -25.3621E-03     132.564E-03    -84.0111E-03     109.590E-03    -25.1193E-03     131.577E-03
             240     17.5303E-03     6.38265E-03    -1.58555E+06     136.566E+06     87.5434E+06     1.96121E+06    -77.2605E-03     102.704E-03    -25.4439E-03     131.144E-03    -79.5347E-03     105.203E-03    -25.2019E-03     130.519E-03
             241     17.5322E-03     7.42714E-03    -247.876E+03     141.849E+06     87.9972E+06     1.32177E+06    -71.8392E-03     97.3051E-03    -25.4660E-03     128.833E-03    -74.1198E-03     99.8329E-03    -25.2313E-03     128.566E-03
             242     17.5354E-03     8.46690E-03    -2.96073E+06     142.124E+06     86.2860E+06     296.678E+03    -67.4206E-03     92.9364E-03    -25.5157E-03     128.527E-03    -69.7814E-03     95.5414E-03    -25.2861E-03     128.588E-03
             243     17.5306E-03     9.50757E-03    -4.03970E+06     143.012E+06     84.8501E+06     1.63779E+06    -62.8084E-03     88.4266E-03    -25.6182E-03     134.639E-03    -65.3424E-03     91.2090E-03    -25.3955E-03     135.066E-03
             244     17.5378E-03     10.5417E-03    -1.98202E+06     144.938E+06     85.9192E+06    -578.476E+03    -57.4717E-03     83.1816E-03    -25.7099E-03     143.329E-03    -60.1969E-03     86.1658E-03    -25.4876E-03     144.113E-03
             245     17.5317E-03     11.5685E-03    -2.66495E+06     144.488E+06     86.8233E+06    -23.8534E+03    -53.5657E-03     79.3726E-03    -25.8069E-03     145.174E-03    -56.3829E-03     82.4415E-03    -25.5784E-03     146.318E-03
             246     17.5372E-03     12.5877E-03    -1.20047E+06     147.056E+06     86.8529E+06     996.059E+03    -49.2685E-03     75.1349E-03    -25.8664E-03     144.789E-03    -52.0876E-03     78.2196E-03    -25.6436E-03     146.271E-03
             247     17.5352E-03     13.6030E-03    -1.68385E+06     147.349E+06     86.1953E+06    -258.315E+03    -47.7582E-03     73.6364E-03    -25.8782E-03     143.249E-03    -50.5859E-03     76.7316E-03    -25.6585E-03     144.901E-03
             248     17.5351E-03     14.6252E-03    -2.65816E+06     147.394E+06     85.9673E+06     1.09454E+06    -46.1135E-03     72.0335E-03    -25.9200E-03     143.297E-03    -48.9835E-03     75.1680E-03    -25.7000E-03     145.151E-03
             249     17.5372E-03     15.6359E-03    -1.99246E+06     149.034E+06     87.5096E+06     206.523E+03    -43.4073E-03     69.3624E-03    -25.9550E-03     143.392E-03    -46.3078E-03     72.5308E-03    -25.7307E-03     145.464E-03
             250     17.5356E-03     16.6497E-03    -2.59452E+06     148.929E+06     87.6175E+06     165.583E+03    -42.1251E-03     68.0824E-03    -25.9572E-03     141.224E-03    -44.9989E-03     71.2215E-03    -25.7313E-03     143.430E-03
             251     17.5386E-03     17.6605E-03    -2.78166E+06     149.225E+06     86.7139E+06     166.201E+03    -40.3743E-03     66.3294E-03    -25.9552E-03     141.678E-03    -43.2656E-03     69.4892E-03    -25.7339E-03     144.029E-03
             252     17.5371E-03     18.6725E-03    -1.67453E+06     150.985E+06     88.7675E+06     66.1949E+03    -39.4192E-03     65.3781E-03    -25.9589E-03     143.247E-03    -42.3662E-03     68.5978E-03    -25.7316E-03     145.724E-03
             253     17.5391E-03     19.6820E-03    -1.33342E+06     151.887E+06     89.2245E+06     973.973E+03    -38.3058E-03     64.2686E-03    -25.9628E-03     144.674E-03    -41.3031E-03     67.5417E-03    -25.7350E-03     147.288E-03
             254     17.5384E-03     20.6910E-03    -1.89688E+06     151.948E+06     87.7241E+06     395.290E+03    -37.1016E-03     63.0724E-03    -25.9708E-03     145.216E-03    -40.1506E-03     66.3997E-03    -25.7498E-03     147.948E-03
             255     17.5388E-03     21.6968E-03    -2.63962E+06     151.763E+06     87.0108E+06     433.536E+03    -36.1958E-03     62.1799E-03    -25.9841E-03     144.271E-03    -39.2575E-03     65.5186E-03    -25.7653E-03     147.099E-03
             256     17.5390E-03     22.7021E-03    -2.99884E+06     152.141E+06     87.4522E+06     433.763E+03    -35.7857E-03     61.7602E-03    -25.9745E-03     144.953E-03    -38.9041E-03     65.1545E-03    -25.7535E-03     147.875E-03
             257     17.5397E-03     23.7114E-03    -2.90781E+06     153.070E+06     88.7550E+06     633.296E+03    -35.7675E-03     61.7251E-03    -25.9576E-03     149.369E-03    -39.0263E-03     65.2598E-03    -25.7316E-03     152.413E-03
             258     17.5401E-03     24.7217E-03    -2.66547E+06     154.186E+06     89.7133E+06     809.707E+03    -34.1005E-03     60.0939E-03    -25.9934E-03     155.824E-03    -37.5455E-03     63.8169E-03    -25.7645E-03     159.092E-03
             259     17.5400E-03     25.7263E-03    -2.16774E+06     155.573E+06     90.2282E+06     387.538E+03    -32.1568E-03     58.1949E-03    -26.0381E-03     162.029E-03    -35.7956E-03     62.1166E-03    -25.8094E-03     165.537E-03
             260     17.5407E-03     26.7272E-03    -1.37768E+06     156.732E+06     90.9973E+06     746.698E+03    -31.0752E-03     57.1206E-03    -26.0454E-03     164.128E-03    -34.7755E-03     61.1085E-03    -25.8157E-03     167.736E-03
             261     17.5410E-03     27.7284E-03    -522.921E+03     157.707E+06     91.2844E+06     205.732E+03    -30.3776E-03     56.4106E-03    -26.0330E-03     164.374E-03    -34.0840E-03     60.4103E-03    -25.8045E-03     168.017E-03
             262     17.5418E-03     28.7256E-03    -933.633E+03     157.495E+06     91.3631E+06    -506.813E+03    -30.2125E-03     56.2252E-03    -26.0127E-03     160.964E-03    -33.8796E-03     60.1831E-03    -25.7829E-03     164.584E-03
             263     17.5413E-03     29.7231E-03    -4.01917E+06     154.908E+06     89.5347E+06     -764.77E+03    -33.5491E-03     59.5094E-03    -25.9603E-03     161.966E-03    -37.2811E-03     63.5178E-03    -25.7314E-03     165.486E-03
             264     17.5392E-03     30.7385E-03    -4.05828E+06     154.682E+06     89.3848E+06     451.980E+03    -33.6552E-03     59.6417E-03    -25.9865E-03     166.878E-03    -37.4399E-03     63.7029E-03    -25.7580E-03     170.379E-03
             265     17.5424E-03     31.7384E-03    -1.24617E+06     157.167E+06     90.3108E+06     275.321E+03    -28.3576E-03     54.4446E-03    -26.0870E-03     165.649E-03    -32.0556E-03     58.4351E-03    -25.8615E-03     169.394E-03
             266     17.5402E-03     32.7174E-03    -927.637E+03     157.091E+06     85.3593E+06    -249.371E+03    -28.8776E-03     54.8857E-03    -26.0082E-03     158.851E-03    -32.3944E-03     58.7100E-03    -25.8078E-03     162.544E-03
             267     17.5436E-03     33.7311E-03    -12.9396E+06     145.158E+06     76.8118E+06    -4.97621E+06    -34.0815E-03     60.1728E-03    -26.0913E-03     150.387E-03    -37.6140E-03     63.9514E-03    -25.8990E-03     153.767E-03
             268     17.5224E-03     34.7342E-03    -8.04303E+06     148.906E+06     84.9441E+06     4.07575E+06    -30.4842E-03     56.8371E-03    -26.3529E-03     154.330E-03    -34.0932E-03     60.6984E-03    -26.1325E-03     158.074E-03
             269     17.5521E-03     35.7205E-03     7.44300E+06     163.538E+06     93.0273E+06     6.13340E+06    -24.1516E-03     50.3105E-03    -26.1589E-03     165.950E-03    -27.7343E-03     54.2297E-03    -25.9417E-03     169.951E-03
             270     17.5398E-03     36.7359E-03     1.11869E+06     159.955E+06     89.3034E+06    -4.68380E+06    -28.0070E-03     53.9594E-03    -25.9525E-03     174.092E-03    -31.9314E-03     58.1975E-03    -25.7395E-03     177.946E-03
             271     17.5425E-03     37.7375E-03    -2.03804E+06     158.089E+06     91.5882E+06    -1.18062E+06    -27.7688E-03     53.8331E-03    -26.0643E-03     173.187E-03    -31.7533E-03     58.1076E-03    -25.8326E-03     177.202E-03
             272     17.5432E-03     38.7035E-03    -2.20680E+06     156.942E+06     90.4426E+06     384.291E+03    -28.3905E-03     54.4022E-03    -26.0117E-03     157.566E-03    -31.9205E-03     58.2205E-03    -25.7839E-03     161.379E-03
             273     17.5398E-03     39.7197E-03    -2.60212E+06     155.977E+06     90.7295E+06     593.805E+03    -32.6763E-03     58.6209E-03    -25.9446E-03     153.653E-03    -36.1074E-03     62.3338E-03    -25.7133E-03     157.107E-03
             274     17.5428E-03     40.7263E-03    -1.70252E+06     157.153E+06     91.6195E+06     439.229E+03    -30.0062E-03     56.0212E-03    -26.0150E-03     160.996E-03    -33.6066E-03     59.9079E-03    -25.7823E-03     164.624E-03
             275     17.5408E-03     41.7145E-03    -2.33691E+06     156.863E+06     90.1196E+06     9.61505E+03    -29.4584E-03     55.4825E-03    -26.0241E-03     158.629E-03    -33.0405E-03     59.3519E-03    -25.7976E-03     162.358E-03
             276     17.5413E-03     42.7205E-03    -2.62543E+06     156.433E+06     89.2711E+06    -516.803E+03    -30.2798E-03     56.2776E-03    -25.9978E-03     158.881E-03    -33.8602E-03     60.1452E-03    -25.7744E-03     162.538E-03
             277     17.5425E-03     43.7212E-03    -3.11795E+06     156.401E+06     89.6636E+06     647.828E+03    -30.2744E-03     56.2921E-03    -26.0176E-03     162.248E-03    -33.9713E-03     60.2731E-03    -25.7915E-03     166.029E-03
             278     17.5388E-03     44.7212E-03     86.3601E+03     159.550E+06     91.3170E+06     1.49225E+06    -28.1762E-03     54.2345E-03    -26.0583E-03     163.403E-03    -31.8851E-03     58.2454E-03    -25.8332E-03     167.306E-03
             279     17.5460E-03     45.7173E-03    -1.37839E+06     158.213E+06     89.4010E+06    -1.49406E+06    -27.6678E-03     53.6954E-03    -26.0276E-03     165.830E-03    -31.4528E-03     57.7783E-03    -25.8080E-03     169.758E-03
             280     17.5382E-03     46.7144E-03    -3.07868E+06     156.401E+06      89.303E+06    -537.173E+03    -30.6168E-03     56.5974E-03    -25.9806E-03     164.861E-03    -34.3897E-03     60.6562E-03    -25.7564E-03     168.630E-03
             281     17.5449E-03     47.7209E-03    -1.99420E+06     157.269E+06     90.7847E+06     882.890E+03    -29.3292E-03     55.3725E-03    -26.0433E-03     163.482E-03    -33.0395E-03     59.3712E-03    -25.8145E-03     167.271E-03
             282     17.5375E-03     48.7092E-03    -790.308E+03     158.425E+06     90.5411E+06    -60.3907E+03    -26.9407E-03     53.0114E-03    -26.0707E-03     161.638E-03    -30.5838E-03     56.9516E-03    -25.8466E-03     165.526E-03
             283     17.5474E-03     49.7064E-03    -2.34032E+06     156.678E+06     88.6252E+06    -1.29704E+06    -29.3733E-03     55.3541E-03    -25.9808E-03     159.834E-03    -32.9774E-03     59.2493E-03    -25.7614E-03     163.560E-03
             284     17.5363E-03     50.7113E-03    -2.75692E+06     156.190E+06     89.2563E+06     476.060E+03    -31.0426E-03     57.0289E-03    -25.9863E-03     161.037E-03    -34.6939E-03     60.9669E-03    -25.7625E-03     164.685E-03
             285     17.5457E-03     51.7143E-03    -1.18713E+06     157.714E+06     89.7844E+06     518.929E+03    -27.5052E-03     53.5652E-03    -26.0600E-03     162.946E-03    -31.1707E-03     57.5271E-03    -25.8381E-03     166.775E-03
             286     17.5393E-03     52.6979E-03    -3.68199E+06     155.569E+06     88.8523E+06    -997.435E+03    -28.5771E-03     54.6067E-03    -26.0296E-03     158.663E-03    -32.1781E-03     58.4899E-03    -25.8056E-03     162.452E-03
             287     17.5425E-03     53.7065E-03    -2.93990E+06     156.221E+06     90.5507E+06     776.948E+03    -30.5816E-03     56.5812E-03    -25.9996E-03     157.634E-03    -34.1456E-03     60.4269E-03    -25.7691E-03     161.293E-03
             288     17.5414E-03     54.7067E-03    -2.54332E+06     157.028E+06     89.7777E+06    -41.5058E+03    -29.3005E-03     55.3072E-03    -26.0068E-03     164.031E-03    -33.0224E-03     59.3173E-03    -25.7819E-03     167.837E-03
             289     17.5425E-03     55.7068E-03    -2.47872E+06     157.280E+06     89.8273E+06     124.878E+03    -28.8734E-03     54.9011E-03    -26.0277E-03     164.744E-03    -32.6372E-03     58.9540E-03    -25.8030E-03     168.610E-03
             290     17.5407E-03     56.7031E-03    -2.34265E+06     157.531E+06     90.9826E+06     22.5465E+03    -28.4739E-03     54.5337E-03    -26.0598E-03     163.692E-03    -32.2164E-03     58.5632E-03    -25.8299E-03     167.570E-03
             291     17.5419E-03     57.6995E-03    -2.69946E+06     157.169E+06     90.8694E+06    -46.3051E+03    -29.1217E-03     55.1566E-03    -26.0350E-03     162.932E-03    -32.8377E-03     59.1575E-03    -25.8046E-03     166.765E-03
             292     876.980E-06     58.4121E-03    -14.4014E+06    -102.478E+06    -14.3413E+06    -355.876E+03    -25.9974E-03     51.9935E-03    -25.9961E-03     5.31481E-03    -25.9000E-03     51.5233E-03    -25.8984E-03     5.30744E-03
             293     1.75402E-03     58.4191E-03    -14.2909E+06    -102.364E+06    -13.8919E+06    -251.198E+03    -26.0397E-03     52.0384E-03    -25.9987E-03     9.89589E-03    -25.9430E-03     51.5679E-03    -25.8990E-03     9.88734E-03
             294     2.63091E-03     58.4310E-03    -13.7474E+06    -101.555E+06    -12.3738E+06    -300.267E+03    -26.0790E-03     52.0905E-03    -26.0116E-03     14.7330E-03    -25.9834E-03     51.6216E-03    -25.9063E-03     14.7210E-03
             295     3.50794E-03     58.4473E-03    -12.6934E+06    -100.182E+06    -10.0133E+06    -332.563E+03    -26.1112E-03     52.1346E-03    -26.0234E-03     19.6691E-03    -26.0167E-03     51.6684E-03    -25.9098E-03     19.6533E-03
             296     4.38489E-03     58.4685E-03    -11.6184E+06    -98.9949E+06    -7.33716E+06    -251.110E+03    -26.1643E-03     52.1981E-03    -26.0339E-03     24.6687E-03    -26.0712E-03     51.7336E-03    -25.9102E-03     24.6499E-03
             297     5.26190E-03     58.4943E-03    -10.5457E+06    -97.2853E+06    -4.81457E+06    -183.615E+03    -26.2290E-03     52.2710E-03    -26.0420E-03     29.7043E-03    -26.1385E-03     51.8116E-03    -25.9097E-03     29.6815E-03
             298     6.13889E-03     58.5250E-03    -9.19555E+06    -95.4579E+06    -2.07158E+06    -318.466E+03    -26.3086E-03     52.3587E-03    -26.0501E-03     34.7358E-03    -26.2205E-03     51.9051E-03    -25.9087E-03     34.7053E-03
             299     7.01585E-03     58.5603E-03    -7.64085E+06    -91.8458E+06    -439.937E+03    -395.664E+03    -26.4064E-03     52.4564E-03    -26.0501E-03     39.7410E-03    -26.3218E-03     52.0200E-03    -25.9080E-03     39.7020E-03
             300     7.89288E-03     58.6007E-03    -6.53149E+06    -87.2648E+06    -640.428E+03    -119.110E+03    -26.5207E-03     52.5616E-03    -26.0409E-03     44.7579E-03    -26.4422E-03     52.1520E-03    -25.9081E-03     44.7132E-03
             301     8.76983E-03     58.6455E-03    -5.86849E+06    -84.4111E+06    -487.954E+03    -46.5932E+03    -26.6530E-03     52.6910E-03    -26.0379E-03     49.7675E-03    -26.5831E-03     52.3019E-03    -25.9095E-03     49.7123E-03
             302     9.64683E-03     58.6954E-03    -5.58128E+06    -76.9551E+06    -766.422E+03     957.186E+03    -26.7961E-03     52.8241E-03    -26.0281E-03     54.9032E-03    -26.7458E-03     52.4831E-03    -25.9122E-03     54.8470E-03
             303     10.5237E-03     58.7501E-03    -6.96474E+06    -70.5441E+06    -1.87830E+06     2.03800E+06    -26.9085E-03     52.9264E-03    -26.0179E-03     60.1034E-03    -26.8883E-03     52.6365E-03    -25.9149E-03     60.0444E-03
             304     11.4006E-03     58.8099E-03    -8.84599E+06    -62.0349E+06    -9.25607E+06     995.197E+03    -27.0254E-03     52.9967E-03    -25.9713E-03     66.0586E-03    -27.0393E-03     52.7858E-03    -25.9148E-03     65.9664E-03
             305     12.2778E-03     58.8756E-03    -8.95774E+06    -41.6624E+06    -14.7543E+06    -826.630E+03    -27.1935E-03     53.1041E-03    -25.9107E-03     73.7774E-03    -27.2680E-03     53.0417E-03    -25.9110E-03     73.6370E-03
             306     13.1547E-03     58.9499E-03    -7.98622E+06    -11.6621E+06    -12.0481E+06    -1.26451E+06    -27.4032E-03     53.2772E-03    -25.8739E-03     81.7921E-03    -27.5889E-03     53.4281E-03    -25.9057E-03     81.6138E-03
             307     14.0318E-03     59.0312E-03    -7.74482E+06     29.1722E+06    -11.8064E+06    -230.914E+03    -27.9045E-03     53.7134E-03    -25.8089E-03     97.3293E-03    -28.2959E-03     54.2152E-03    -25.8990E-03     97.1350E-03
             308     14.9086E-03     59.1347E-03    -8.43814E+06     75.4896E+06    -6.76935E+06     619.507E+03    -29.6237E-03     55.3820E-03    -25.7584E-03     135.277E-03    -30.7092E-03     56.7252E-03    -25.8894E-03     135.116E-03
             309     15.7871E-03     59.2892E-03    -8.44387E+06     121.124E+06     28.8347E+06     213.794E+03    -34.2272E-03     60.0839E-03    -25.8567E-03     208.698E-03    -37.8578E-03     64.0309E-03    -25.8759E-03     209.298E-03
             310     16.6625E-03     59.5379E-03    -4.76474E+06     150.831E+06     74.2001E+06    -148.730E+03    -32.8295E-03     58.8331E-03    -26.0036E-03     210.056E-03    -37.5074E-03     63.8144E-03    -25.8444E-03     212.656E-03
             311     877.043E-06     59.4104E-03    -14.8199E+06    -101.970E+06    -14.5447E+06    -312.633E+03    -26.0536E-03     52.0631E-03    -26.0095E-03     5.30039E-03    -25.9587E-03     51.5963E-03    -25.9129E-03     5.29358E-03
             312     1.75388E-03     59.4177E-03    -14.3328E+06    -102.205E+06    -13.5353E+06    -359.656E+03    -26.0754E-03     52.1123E-03    -26.0369E-03     9.91000E-03    -25.9797E-03     51.6421E-03    -25.9356E-03     9.90008E-03
             313     2.63087E-03     59.4294E-03    -13.8024E+06    -101.191E+06    -12.2382E+06    -534.453E+03    -26.0845E-03     52.1286E-03    -26.0441E-03     14.7597E-03    -25.9900E-03     51.6614E-03    -25.9386E-03     14.7446E-03
             314     3.50782E-03     59.4458E-03    -13.2463E+06    -100.120E+06    -10.4121E+06    -603.994E+03    -26.1161E-03     52.1638E-03    -26.0477E-03     19.6936E-03    -26.0238E-03     51.6993E-03    -25.9354E-03     19.6743E-03
             315     4.38482E-03     59.4669E-03    -12.3733E+06    -99.1400E+06    -7.51760E+06    -407.067E+03    -26.1721E-03     52.2285E-03    -26.0564E-03     24.6794E-03    -26.0823E-03     51.7647E-03    -25.9323E-03     24.6586E-03
             316     5.26176E-03     59.4928E-03    -11.2973E+06    -97.1728E+06    -4.90620E+06    -354.498E+03    -26.2413E-03     52.3044E-03    -26.0631E-03     29.6947E-03    -26.1545E-03     51.8468E-03    -25.9304E-03     29.6696E-03
             317     6.13876E-03     59.5234E-03    -10.1976E+06    -94.9987E+06    -2.55344E+06    -622.856E+03    -26.3283E-03     52.3974E-03    -26.0691E-03     34.7359E-03    -26.2452E-03     51.9483E-03    -25.9293E-03     34.7014E-03
             318     7.01571E-03     59.5590E-03    -9.43784E+06    -92.1765E+06    -964.695E+03    -537.288E+03    -26.4223E-03     52.4939E-03    -26.0716E-03     39.7403E-03    -26.3455E-03     52.0592E-03    -25.9291E-03     39.6994E-03
             319     7.89266E-03     59.5991E-03    -8.74311E+06    -87.4834E+06    -1.30279E+06    -274.734E+03    -26.5303E-03     52.5926E-03    -26.0623E-03     44.7603E-03    -26.4616E-03     52.1860E-03    -25.9293E-03     44.7135E-03
             320     8.76962E-03     59.6442E-03    -7.99792E+06    -84.3844E+06    -1.49149E+06    -178.284E+03    -26.6700E-03     52.7272E-03    -26.0572E-03     49.7910E-03    -26.6092E-03     52.3428E-03    -25.9307E-03     49.7341E-03
             321     9.64648E-03     59.6939E-03    -7.16240E+06    -79.2451E+06    -2.98003E+06     762.516E+03    -26.7923E-03     52.8352E-03    -26.0430E-03     54.9702E-03    -26.7433E-03     52.4882E-03    -25.9326E-03     54.9116E-03
             322     10.5235E-03     59.7489E-03    -5.10406E+06    -71.5700E+06    -1.92838E+06     2.31270E+06    -26.8747E-03     52.9077E-03    -26.0331E-03     60.1417E-03    -26.8435E-03     52.6100E-03    -25.9315E-03     60.0864E-03
             323     11.4006E-03     59.8081E-03    -3.68441E+06    -59.7442E+06    -6.10206E+06     1.96643E+06    -26.9995E-03     52.9877E-03    -25.9881E-03     66.0447E-03    -26.9955E-03     52.7761E-03    -25.9267E-03     65.9652E-03
             324     12.2776E-03     59.8744E-03    -5.10130E+06    -39.4524E+06    -13.1489E+06    -44.6975E+03    -27.2607E-03     53.1817E-03    -25.9210E-03     73.8381E-03    -27.3217E-03     53.1227E-03    -25.9222E-03     73.7074E-03
             325     13.1546E-03     59.9484E-03    -7.82465E+06    -12.4721E+06    -12.9653E+06    -746.666E+03    -27.4016E-03     53.2838E-03    -25.8823E-03     81.8104E-03    -27.5842E-03     53.4320E-03    -25.9177E-03     81.6388E-03
             326     14.0317E-03     60.0298E-03    -9.72892E+06     27.8071E+06    -13.7701E+06     408.533E+03    -27.8987E-03     53.7136E-03    -25.8148E-03     97.4111E-03    -28.2954E-03     54.2143E-03    -25.9099E-03     97.2250E-03
             327     14.9091E-03     60.1334E-03    -10.0047E+06     75.0954E+06    -8.85917E+06     711.472E+03    -29.8389E-03     55.6047E-03    -25.7658E-03     135.920E-03    -30.9373E-03     56.9598E-03    -25.9045E-03     135.757E-03
             328     15.7840E-03     60.2885E-03    -7.99588E+06     121.380E+06     28.2951E+06     17.8598E+03    -34.4592E-03     60.3333E-03    -25.8742E-03     210.266E-03    -38.1218E-03     64.3164E-03    -25.8971E-03     210.866E-03
             329     16.6624E-03     60.5360E-03    -4.11918E+06     151.612E+06     74.9703E+06    -307.028E+03    -32.8281E-03     58.8523E-03    -26.0242E-03     211.254E-03    -37.5428E-03     63.8732E-03    -25.8632E-03     213.883E-03
             330     876.838E-06     60.4091E-03    -14.7166E+06    -101.565E+06    -13.9448E+06    -77.5816E+03    -26.0843E-03     52.1488E-03    -26.0644E-03     5.35148E-03    -25.9904E-03     51.6830E-03    -25.9656E-03     5.34780E-03
             331     1.75386E-03     60.4162E-03    -14.2507E+06    -101.771E+06    -12.9441E+06    -391.934E+03    -26.0719E-03     52.1442E-03    -26.0723E-03     9.92018E-03    -25.9772E-03     51.6752E-03    -25.9688E-03     9.90986E-03
             332     2.63081E-03     60.4279E-03    -13.7530E+06    -100.979E+06    -11.6100E+06    -392.120E+03    -26.0966E-03     52.1661E-03    -26.0695E-03     14.7752E-03    -26.0031E-03     51.6989E-03    -25.9612E-03     14.7620E-03
             333     3.50777E-03     60.4443E-03    -13.2977E+06    -100.063E+06    -9.86807E+06    -294.181E+03    -26.1398E-03     52.2117E-03    -26.0719E-03     19.6930E-03    -26.0486E-03     51.7467E-03    -25.9569E-03     19.6776E-03
             334     4.38470E-03     60.4654E-03    -12.7366E+06    -99.1809E+06    -7.42381E+06    -310.048E+03    -26.1857E-03     52.2645E-03    -26.0788E-03     24.6919E-03    -26.0978E-03     51.8008E-03    -25.9536E-03     24.6723E-03
             335     5.26168E-03     60.4913E-03    -11.8747E+06    -97.0262E+06    -5.52037E+06    -318.952E+03    -26.2540E-03     52.3348E-03    -26.0809E-03     29.7248E-03    -26.1694E-03     51.8797E-03    -25.9506E-03     29.7002E-03
             336     6.13859E-03     60.5220E-03    -11.3328E+06    -94.8634E+06    -3.91148E+06    -182.062E+03    -26.3353E-03     52.4182E-03    -26.0828E-03     34.7841E-03    -26.2561E-03     51.9733E-03    -25.9484E-03     34.7553E-03
             337     7.01556E-03     60.5575E-03    -10.9909E+06    -92.5682E+06    -2.24862E+06     105.176E+03    -26.4285E-03     52.5144E-03    -26.0859E-03     39.8007E-03    -26.3570E-03     52.0819E-03    -25.9470E-03     39.7681E-03
             338     7.89251E-03     60.5977E-03    -10.6338E+06    -87.1224E+06    -3.41845E+06    -89.8736E+03    -26.5320E-03     52.6028E-03    -26.0707E-03     44.8669E-03    -26.4702E-03     52.2038E-03    -25.9461E-03     44.8227E-03
             339     8.76944E-03     60.6427E-03    -10.0794E+06    -84.4588E+06    -4.54516E+06    -409.109E+03    -26.6383E-03     52.6974E-03    -26.0591E-03     49.9529E-03    -26.5834E-03     52.3201E-03    -25.9447E-03     49.8933E-03
             340     9.64645E-03     60.6926E-03    -9.08283E+06    -80.3917E+06    -6.56970E+06    -296.850E+03    -26.7506E-03     52.7895E-03    -26.0389E-03     55.1366E-03    -26.7043E-03     52.4446E-03    -25.9420E-03     55.0647E-03
             341     10.5235E-03     60.7472E-03    -7.88502E+06    -72.8020E+06    -7.00232E+06    -71.9260E+03    -26.8668E-03     52.8868E-03    -26.0200E-03     60.2957E-03    -26.8404E-03     52.5942E-03    -25.9380E-03     60.2099E-03
             342     11.4004E-03     60.8069E-03    -6.54957E+06    -59.5547E+06    -9.02125E+06     766.492E+03    -27.0336E-03     53.0182E-03    -25.9846E-03     66.1474E-03    -27.0400E-03     52.8161E-03    -25.9339E-03     66.0522E-03
             343     12.2775E-03     60.8726E-03    -6.45084E+06    -38.2643E+06    -12.8281E+06     1.46855E+06    -27.2427E-03     53.1733E-03    -25.9306E-03     73.9612E-03    -27.3128E-03     53.1219E-03    -25.9299E-03     73.8501E-03
             344     13.1544E-03     60.9475E-03    -7.61289E+06    -12.3185E+06    -12.1666E+06     1.22202E+06    -27.3753E-03     53.2669E-03    -25.8916E-03     81.8159E-03    -27.5587E-03     53.4148E-03    -25.9235E-03     81.6694E-03
             345     14.0316E-03     61.0276E-03    -7.89096E+06     26.8476E+06    -15.5440E+06     636.648E+03    -27.8870E-03     53.6951E-03    -25.8081E-03     97.6981E-03    -28.2714E-03     54.1919E-03    -25.9133E-03     97.5148E-03
             346     14.9083E-03     61.1329E-03    -7.68202E+06     75.2549E+06    -9.75187E+06     147.326E+03    -29.5535E-03     55.3040E-03    -25.7505E-03     136.306E-03    -30.6379E-03     56.6565E-03    -25.8972E-03     136.141E-03
             347     15.7879E-03     61.2867E-03    -6.96781E+06     122.817E+06     30.8757E+06    -211.222E+03    -33.8746E-03     59.7269E-03    -25.8523E-03     210.077E-03    -37.5234E-03     63.6974E-03    -25.8659E-03     210.700E-03
             348     16.6654E-03     61.5358E-03    -4.35172E+06     151.521E+06     75.7355E+06    -119.121E+03    -33.0522E-03     59.0427E-03    -25.9905E-03     210.731E-03    -37.7460E-03     64.0393E-03    -25.8252E-03     213.336E-03
             349     876.963E-06     61.4076E-03    -14.1128E+06    -101.643E+06    -13.4241E+06     407.462E+03    -26.0697E-03     52.1735E-03    -26.1038E-03     5.36040E-03    -25.9733E-03     51.7057E-03    -26.0031E-03     5.36296E-03
             350     1.75382E-03     61.4148E-03    -14.0769E+06    -101.465E+06    -12.5023E+06     201.763E+03    -26.0918E-03     52.1779E-03    -26.0860E-03     9.93010E-03    -25.9974E-03     51.7095E-03    -25.9810E-03     9.92745E-03
             351     2.63077E-03     61.4265E-03    -13.8042E+06    -100.813E+06    -11.1259E+06    -71.0522E+03    -26.1182E-03     52.2053E-03    -26.0871E-03     14.7923E-03    -26.0258E-03     51.7384E-03    -25.9766E-03     14.7832E-03
             352     3.50767E-03     61.4429E-03    -13.0764E+06    -100.121E+06    -9.96195E+06    -91.9126E+03    -26.1533E-03     52.2405E-03    -26.0873E-03     19.7147E-03    -26.0608E-03     51.7751E-03    -25.9729E-03     19.7019E-03
             353     4.38463E-03     61.4639E-03    -12.3120E+06    -99.1210E+06    -8.05426E+06     6.30501E+03    -26.2008E-03     52.2908E-03    -26.0901E-03     24.7319E-03    -26.1099E-03     51.8278E-03    -25.9688E-03     24.7165E-03
             354     5.26156E-03     61.4899E-03    -11.7767E+06    -97.0852E+06    -5.55167E+06     72.5228E+03    -26.2568E-03     52.3513E-03    -26.0944E-03     29.7770E-03    -26.1717E-03     51.8957E-03    -25.9643E-03     29.7575E-03
             355     6.13857E-03     61.5205E-03    -11.0713E+06    -95.2644E+06    -4.12813E+06     378.670E+03    -26.3317E-03     52.4251E-03    -26.0934E-03     34.8356E-03    -26.2503E-03     51.9781E-03    -25.9598E-03     34.8141E-03
             356     7.01551E-03     61.5561E-03    -10.1187E+06    -92.5755E+06    -3.13912E+06     421.410E+03    -26.4177E-03     52.5064E-03    -26.0886E-03     39.8906E-03    -26.3406E-03     52.0737E-03    -25.9554E-03     39.8623E-03
             357     7.89248E-03     61.5962E-03    -9.37092E+06    -86.8416E+06    -3.90831E+06     360.044E+03    -26.5052E-03     52.5757E-03    -26.0705E-03     44.9715E-03    -26.4367E-03     52.1770E-03    -25.9506E-03     44.9332E-03
             358     8.76948E-03     61.6413E-03    -9.26218E+06    -83.7320E+06    -4.51988E+06    -161.642E+03    -26.6083E-03     52.6657E-03    -26.0574E-03     50.0458E-03    -26.5504E-03     52.2908E-03    -25.9452E-03     49.9896E-03
             359     9.64652E-03     61.6909E-03     -9.2041E+06    -80.3834E+06    -6.60969E+06    -842.559E+03    -26.7460E-03     52.7833E-03    -26.0373E-03     55.1974E-03    -26.7002E-03     52.4387E-03    -25.9405E-03     55.1185E-03
             360     10.5234E-03     61.7459E-03    -9.32815E+06    -73.4090E+06    -8.38263E+06    -493.049E+03    -26.8967E-03     52.9124E-03    -26.0157E-03     60.3283E-03    -26.8747E-03     52.6210E-03    -25.9376E-03     60.2369E-03
             361     11.4006E-03     61.8052E-03    -9.60919E+06    -60.1844E+06    -11.0528E+06    -364.246E+03    -27.0459E-03     53.0276E-03    -25.9816E-03     66.2308E-03    -27.0639E-03     52.8298E-03    -25.9357E-03     66.1210E-03
             362     12.2773E-03     61.8716E-03    -8.51237E+06    -39.3476E+06    -14.3530E+06     172.846E+03    -27.1849E-03     53.1131E-03    -25.9282E-03     74.0365E-03    -27.2614E-03     53.0613E-03    -25.9306E-03     73.9091E-03
             363     13.1547E-03     61.9454E-03    -6.97822E+06    -12.2557E+06    -12.2719E+06     1.08970E+06    -27.3259E-03     53.2128E-03    -25.8869E-03     81.9585E-03    -27.5057E-03     53.3599E-03    -25.9204E-03     81.8110E-03
             364     14.0316E-03     62.0269E-03    -7.50503E+06     27.6173E+06    -14.8730E+06     727.635E+03    -27.8509E-03     53.6546E-03    -25.8037E-03     97.8023E-03    -28.2356E-03     54.1538E-03    -25.9072E-03     97.6207E-03
             365     14.9095E-03     62.1305E-03    -8.35485E+06     75.8294E+06    -8.61316E+06    -32.5667E+03    -29.3578E-03     55.1023E-03    -25.7445E-03     136.012E-03    -30.4403E-03     56.4493E-03    -25.8854E-03     135.849E-03
             366     15.7851E-03     62.2852E-03    -7.18724E+06     123.100E+06     31.8645E+06     65.5471E+03    -33.6599E-03     59.4962E-03    -25.8363E-03     209.530E-03    -37.2839E-03     63.4392E-03    -25.8450E-03     210.160E-03
             367     16.6635E-03     62.5317E-03    -4.49883E+06     151.343E+06     75.4420E+06     307.183E+03    -33.1987E-03     59.1667E-03    -25.9680E-03     211.181E-03    -37.8911E-03     64.1616E-03    -25.8037E-03     213.786E-03
             368     876.866E-06     62.4062E-03    -14.8493E+06    -102.349E+06    -14.4440E+06     395.798E+03    -26.0877E-03     52.1684E-03    -26.0807E-03     5.32867E-03    -25.9925E-03     51.6996E-03    -25.9830E-03     5.33102E-03
             369     1.75387E-03     62.4134E-03    -14.0017E+06    -101.508E+06    -12.7209E+06     541.266E+03    -26.1088E-03     52.1965E-03    -26.0878E-03     9.93831E-03    -26.0135E-03     51.7282E-03    -25.9839E-03     9.94007E-03
             370     2.63071E-03     62.4251E-03    -13.4636E+06    -100.616E+06    -11.3572E+06     389.758E+03    -26.1309E-03     52.2230E-03    -26.0921E-03     14.7994E-03    -26.0368E-03     51.7569E-03    -25.9834E-03     14.7963E-03
             371     3.50769E-03     62.4414E-03    -13.2358E+06    -100.074E+06    -10.2836E+06     146.373E+03    -26.1586E-03     52.2517E-03    -26.0931E-03     19.7369E-03    -26.0665E-03     51.7872E-03    -25.9802E-03     19.7272E-03
             372     4.38461E-03     62.4625E-03    -12.7404E+06    -99.3214E+06    -8.30600E+06     183.123E+03    -26.2013E-03     52.2976E-03    -26.0963E-03     24.7512E-03    -26.1119E-03     51.8345E-03    -25.9753E-03     24.7381E-03
             373     5.26158E-03     62.4884E-03    -11.8854E+06    -97.3111E+06    -5.93686E+06     437.466E+03    -26.2485E-03     52.3464E-03    -26.0979E-03     29.8103E-03    -26.1630E-03     51.8905E-03    -25.9692E-03     29.7956E-03
             374     6.13850E-03     62.5191E-03    -10.9455E+06    -95.4326E+06    -4.67144E+06     387.147E+03    -26.3108E-03     52.4034E-03    -26.0926E-03     34.8888E-03    -26.2277E-03     51.9562E-03    -25.9617E-03     34.8676E-03
             375     7.01552E-03     62.5545E-03    -9.96617E+06    -92.3723E+06    -4.38839E+06     204.361E+03    -26.3848E-03     52.4646E-03    -26.0798E-03     39.9599E-03    -26.3053E-03     52.0346E-03    -25.9534E-03     39.9289E-03
             376     7.89253E-03     62.5948E-03    -9.20316E+06    -87.2266E+06    -4.50911E+06     370.380E+03    -26.4842E-03     52.5468E-03    -26.0626E-03     45.0220E-03    -26.4134E-03     52.1467E-03    -25.9453E-03     44.9841E-03
             377     8.76959E-03     62.6397E-03    -8.86278E+06    -82.9706E+06    -3.63799E+06     525.913E+03    -26.6239E-03     52.6788E-03    -26.0548E-03     50.0554E-03    -26.5664E-03     52.3058E-03    -25.9399E-03     50.0080E-03
             378     9.64650E-03     62.6896E-03    -9.08564E+06    -79.2633E+06    -5.65450E+06    -402.394E+03    -26.7658E-03     52.8031E-03    -26.0372E-03     55.1677E-03    -26.7226E-03     52.4626E-03    -25.9374E-03     55.0943E-03
             379     10.5236E-03     62.7442E-03    -8.49056E+06    -74.0735E+06    -8.97036E+06    -998.999E+03    -26.9029E-03     52.9135E-03    -26.0106E-03     60.3875E-03    -26.8749E-03     52.6184E-03    -25.9358E-03     60.2896E-03
             380     11.4003E-03     62.8041E-03    -7.83059E+06    -60.3734E+06    -11.2867E+06    -339.664E+03    -27.0199E-03     52.9949E-03    -25.9750E-03     66.2731E-03    -27.0283E-03     52.7939E-03    -25.9325E-03     66.1638E-03
             381     12.2777E-03     62.8696E-03    -8.99319E+06    -39.7685E+06    -14.9933E+06    -355.163E+03    -27.1817E-03     53.1036E-03    -25.9219E-03     74.0062E-03    -27.2589E-03     53.0512E-03    -25.9262E-03     73.8720E-03
             382     13.1545E-03     62.9443E-03    -10.3128E+06    -13.4708E+06    -14.3204E+06     75.8758E+03    -27.3397E-03     53.2198E-03    -25.8801E-03     81.8676E-03    -27.5313E-03     53.3685E-03    -25.9172E-03     81.7070E-03
             383     14.0321E-03     63.0248E-03    -9.93884E+06     28.7309E+06    -14.6553E+06     390.706E+03    -27.8265E-03     53.6313E-03    -25.8048E-03     97.5471E-03    -28.2251E-03     54.1391E-03    -25.9053E-03     97.3615E-03
             384     14.9084E-03     63.1296E-03    -9.27424E+06     76.4285E+06    -9.60144E+06    -406.923E+03    -29.2836E-03     55.0212E-03    -25.7376E-03     135.375E-03    -30.3642E-03     56.3681E-03    -25.8830E-03     135.208E-03
             385     15.7883E-03     63.2825E-03    -7.81926E+06     121.641E+06     29.2135E+06    -140.456E+03    -33.7416E-03     59.5676E-03    -25.8260E-03     208.981E-03    -37.3421E-03     63.4874E-03    -25.8450E-03     209.589E-03
             386     16.6660E-03     63.5317E-03     -4.1124E+06     151.613E+06     75.3886E+06     442.434E+03    -33.1523E-03     59.1199E-03    -25.9677E-03     211.508E-03    -37.8380E-03     64.1107E-03    -25.8046E-03     214.120E-03
             387     876.968E-06     63.4048E-03    -15.0608E+06    -102.798E+06    -15.0542E+06    -121.422E+03    -26.1100E-03     52.1766E-03    -26.0667E-03     5.33058E-03    -26.0143E-03     51.7067E-03    -25.9710E-03     5.32630E-03
             388     1.75378E-03     63.4119E-03    -14.5469E+06    -101.867E+06    -14.0680E+06     176.918E+03    -26.1023E-03     52.1874E-03    -26.0850E-03     9.94734E-03    -26.0074E-03     51.7200E-03    -25.9866E-03     9.94442E-03
             389     2.63078E-03     63.4237E-03    -13.8962E+06    -100.819E+06    -12.3526E+06     492.240E+03    -26.1233E-03     52.2107E-03    -26.0874E-03     14.8070E-03    -26.0297E-03     51.7456E-03    -25.9828E-03     14.8052E-03
             390     3.50764E-03     63.4400E-03    -13.2964E+06    -100.039E+06    -10.0769E+06     642.585E+03    -26.1603E-03     52.2531E-03    -26.0929E-03     19.7510E-03    -26.0689E-03     51.7886E-03    -25.9789E-03     19.7477E-03
             391     4.38460E-03     63.4611E-03    -12.6974E+06    -99.3114E+06    -7.94529E+06     385.948E+03    -26.1885E-03     52.2846E-03    -26.0961E-03     24.7693E-03    -26.0995E-03     51.8210E-03    -25.9734E-03     24.7588E-03
             392     5.26154E-03     63.4869E-03    -11.8211E+06    -97.7479E+06    -6.29268E+06     417.714E+03    -26.2237E-03     52.3154E-03    -26.0918E-03     29.8490E-03    -26.1367E-03     51.8577E-03    -25.9644E-03     29.8341E-03
             393     6.13861E-03     63.5176E-03    -10.9410E+06    -95.0834E+06    -4.92960E+06     401.737E+03    -26.2960E-03     52.3795E-03    -26.0835E-03     34.9383E-03    -26.2130E-03     51.9345E-03    -25.9544E-03     34.9173E-03
             394     7.01559E-03     63.5530E-03    -10.1980E+06    -92.2096E+06    -3.88791E+06     48.4644E+03    -26.3861E-03     52.4613E-03    -26.0752E-03     39.9441E-03    -26.3087E-03     52.0317E-03    -25.9462E-03     39.9111E-03
             395     7.89266E-03     63.5932E-03    -9.10975E+06    -87.4615E+06    -3.65559E+06    -72.2903E+03    -26.5004E-03     52.5622E-03    -26.0618E-03     45.0055E-03    -26.4301E-03     52.1596E-03    -25.9400E-03     44.9617E-03
             396     8.76955E-03     63.6384E-03    -7.61632E+06    -83.3017E+06    -3.48619E+06     163.951E+03    -26.6325E-03     52.6830E-03    -26.0505E-03     50.0590E-03    -26.5685E-03     52.3064E-03    -25.9361E-03     50.0069E-03
             397     9.64656E-03     63.6881E-03    -6.80427E+06    -78.0730E+06    -4.27898E+06     306.047E+03    -26.7497E-03     52.7844E-03    -26.0347E-03     55.2000E-03    -26.6987E-03     52.4445E-03    -25.9330E-03     55.1359E-03
             398     10.5234E-03     63.7429E-03    -8.23012E+06    -73.6962E+06    -8.00041E+06    -361.930E+03    -26.8621E-03     52.8698E-03    -26.0077E-03     60.4524E-03    -26.8346E-03     52.5748E-03    -25.9290E-03     60.3629E-03
             399     11.4008E-03     63.8024E-03    -10.2592E+06    -61.9097E+06    -12.6393E+06     179.456E+03    -27.0012E-03     52.9667E-03    -25.9655E-03     66.3139E-03    -27.0174E-03     52.7634E-03    -25.9241E-03     66.2115E-03
             400     12.2774E-03     63.8684E-03    -11.3825E+06    -38.8505E+06    -13.9723E+06     774.870E+03    -27.1787E-03     53.0999E-03    -25.9212E-03     74.0524E-03    -27.2707E-03     53.0541E-03    -25.9182E-03     73.9329E-03
             401     13.1547E-03     63.9426E-03    -10.7579E+06    -12.6479E+06    -14.5257E+06    -1.07629E+06    -27.3890E-03     53.2618E-03    -25.8728E-03     82.1278E-03    -27.5841E-03     53.4159E-03    -25.9115E-03     81.9523E-03
             402     14.0312E-03     64.0237E-03    -8.85979E+06     28.1730E+06    -17.0640E+06    -1.71706E+06    -27.8080E-03     53.5947E-03    -25.7868E-03     97.7751E-03    -28.1955E-03     54.1004E-03    -25.9001E-03     97.5635E-03
             403     14.9095E-03     64.1276E-03    -7.97785E+06     76.3431E+06    -10.6588E+06    -235.997E+03    -29.4699E-03     55.1995E-03    -25.7296E-03     135.383E-03    -30.5439E-03     56.5471E-03    -25.8820E-03     135.213E-03
             404     15.7849E-03     64.2802E-03    -7.59542E+06     121.203E+06     27.8031E+06     551.023E+03    -34.1143E-03     59.9489E-03    -25.8345E-03     208.669E-03    -37.7161E-03     63.8734E-03    -25.8603E-03     209.270E-03
             405     16.6623E-03     64.5287E-03    -4.41596E+06     151.248E+06     74.7801E+06     29.0752E+03    -32.8505E-03     58.8350E-03    -25.9845E-03     211.211E-03    -37.5324E-03     63.8212E-03    -25.8235E-03     213.822E-03
             406     876.847E-06     64.4034E-03    -14.7946E+06    -102.722E+06    -14.6208E+06    -101.918E+03    -26.0905E-03     52.1780E-03    -26.0876E-03     5.33806E-03    -25.9942E-03     51.7075E-03    -25.9903E-03     5.33405E-03
             407     1.75387E-03     64.4105E-03    -14.8061E+06    -102.223E+06    -14.2927E+06     41.8161E+03    -26.0898E-03     52.1718E-03    -26.0821E-03     9.94009E-03    -25.9952E-03     51.7033E-03    -25.9838E-03     9.93542E-03
             408     2.63073E-03     64.4222E-03    -14.3790E+06    -101.253E+06    -12.7927E+06     239.855E+03    -26.1045E-03     52.1841E-03    -26.0796E-03     14.8290E-03    -26.0119E-03     51.7181E-03    -25.9759E-03     14.8240E-03
             409     3.50774E-03     64.4386E-03    -13.3240E+06    -100.301E+06    -10.6052E+06     449.420E+03    -26.1352E-03     52.2152E-03    -26.0799E-03     19.7862E-03    -26.0428E-03     51.7501E-03    -25.9682E-03     19.7806E-03
             410     4.38465E-03     64.4596E-03    -12.3302E+06    -99.2269E+06    -7.95032E+06     625.679E+03    -26.1771E-03     52.2598E-03    -26.0827E-03     24.7913E-03    -26.0863E-03     51.7960E-03    -25.9607E-03     24.7840E-03
             411     5.26170E-03     64.4854E-03    -11.5302E+06    -97.8139E+06    -5.46549E+06     413.527E+03    -26.2330E-03     52.3174E-03    -26.0845E-03     29.8314E-03    -26.1456E-03     51.8578E-03    -25.9533E-03     29.8164E-03
             412     6.13866E-03     64.5161E-03    -10.3392E+06    -94.9321E+06    -3.76724E+06     221.224E+03    -26.3112E-03     52.3917E-03    -26.0804E-03     34.9001E-03    -26.2271E-03     51.9448E-03    -25.9466E-03     34.8766E-03
             413     7.01565E-03     64.5516E-03    -9.19213E+06    -91.9091E+06    -2.35098E+06     119.560E+03    -26.4122E-03     52.4889E-03    -26.0766E-03     39.9009E-03    -26.3326E-03     52.0571E-03    -25.9418E-03     39.8686E-03
             414     7.89253E-03     64.5917E-03    -8.58560E+06    -87.1648E+06    -2.69727E+06    -327.457E+03    -26.4993E-03     52.5621E-03    -26.0629E-03     45.0152E-03    -26.4282E-03     52.1589E-03    -25.9375E-03     44.9680E-03
             415     8.76961E-03     64.6369E-03    -7.97056E+06    -83.3481E+06    -3.32382E+06    -758.873E+03    -26.5927E-03     52.6404E-03    -26.0477E-03     50.1134E-03    -26.5306E-03     52.2637E-03    -25.9319E-03     50.0495E-03
             416     9.64662E-03     64.6866E-03    -7.28338E+06    -79.3336E+06    -3.56563E+06     240.112E+03    -26.7080E-03     52.7413E-03    -26.0333E-03     55.2050E-03    -26.6587E-03     52.3948E-03    -25.9256E-03     55.1401E-03
             417     10.5238E-03     64.7414E-03    -7.23353E+06    -73.3692E+06    -4.32079E+06     1.75200E+06    -26.8249E-03     52.8392E-03    -26.0142E-03     60.3848E-03    -26.7984E-03     52.5390E-03    -25.9190E-03     60.3226E-03
             418     11.4005E-03     64.8009E-03    -7.41191E+06    -61.7887E+06    -10.4991E+06     844.641E+03    -26.9660E-03     52.9256E-03    -25.9595E-03     66.3530E-03    -26.9713E-03     52.7156E-03    -25.9117E-03     66.2594E-03
             419     12.2780E-03     64.8669E-03    -6.12645E+06    -38.6243E+06    -13.6255E+06    -84.7879E+03    -27.1336E-03     53.0327E-03    -25.8991E-03     74.1900E-03    -27.2001E-03     52.9798E-03    -25.9023E-03     74.0597E-03
             420     13.1548E-03     64.9410E-03    -6.22664E+06    -9.99681E+06    -13.4861E+06    -848.630E+03    -27.2827E-03     53.1284E-03    -25.8457E-03     82.4353E-03    -27.4599E-03     53.2871E-03    -25.8896E-03     82.2639E-03
             421     14.0325E-03     65.0225E-03    -8.61426E+06     28.0106E+06    -17.2610E+06    -1.91542E+06    -27.8073E-03     53.5678E-03    -25.7605E-03     97.9529E-03    -28.1930E-03     54.0724E-03    -25.8749E-03     97.7389E-03
             422     14.9091E-03     65.1253E-03    -9.37276E+06     73.6651E+06    -12.4317E+06    -327.182E+03    -29.7288E-03     55.4374E-03    -25.7086E-03     136.011E-03    -30.8123E-03     56.7852E-03    -25.8640E-03     135.836E-03
             423     15.7873E-03     65.2809E-03    -7.43498E+06     121.166E+06     27.4643E+06     351.145E+03    -34.6011E-03     60.4362E-03    -25.8351E-03     209.137E-03    -38.2478E-03     64.4070E-03    -25.8627E-03     209.731E-03
             424     16.6650E-03     65.5264E-03    -3.77317E+06     152.164E+06     76.4773E+06    -372.092E+03    -33.1341E-03     59.1512E-03    -26.0171E-03     209.890E-03    -37.8270E-03     64.1491E-03    -25.8499E-03     212.470E-03
             425     876.967E-06     65.4020E-03    -14.9157E+06    -102.780E+06    -14.6114E+06     260.744E+03    -26.0728E-03     52.1572E-03    -26.0844E-03     5.34290E-03    -25.9771E-03     51.6866E-03    -25.9868E-03     5.34353E-03
             426     1.75380E-03     65.4090E-03    -14.6980E+06    -102.398E+06    -13.6253E+06     209.584E+03    -26.0777E-03     52.1526E-03    -26.0749E-03     9.92109E-03    -25.9833E-03     51.6821E-03    -25.9732E-03     9.91859E-03
             427     2.63083E-03     65.4208E-03    -14.2117E+06    -101.456E+06    -12.3374E+06     190.994E+03    -26.0827E-03     52.1521E-03    -26.0694E-03     14.8209E-03    -25.9897E-03     51.6843E-03    -25.9634E-03     14.8153E-03
             428     3.50775E-03     65.4371E-03    -13.6765E+06    -100.493E+06    -10.6485E+06     147.310E+03    -26.1140E-03     52.1798E-03    -26.0658E-03     19.7666E-03    -26.0230E-03     51.7143E-03    -25.9535E-03     19.7571E-03
             429     4.38481E-03     65.4582E-03    -12.6189E+06    -99.6335E+06    -8.34264E+06     373.359E+03    -26.1853E-03     52.2539E-03    -26.0686E-03     24.7560E-03    -26.0948E-03     51.7891E-03    -25.9475E-03     24.7453E-03
             430     5.26167E-03     65.4840E-03    -11.3357E+06    -97.4522E+06    -5.68971E+06     403.239E+03    -26.2645E-03     52.3394E-03    -26.0749E-03     29.7827E-03    -26.1764E-03     51.8816E-03    -25.9456E-03     29.7675E-03
             431     6.13864E-03     65.5146E-03    -10.4785E+06    -94.9023E+06    -3.45754E+06     127.726E+03    -26.3192E-03     52.3979E-03    -26.0787E-03     34.8798E-03    -26.2363E-03     51.9509E-03    -25.9432E-03     34.8551E-03
             432     7.01561E-03     65.5501E-03    -9.67889E+06    -91.8090E+06    -2.42245E+06     82.4990E+03    -26.3869E-03     52.4600E-03    -26.0731E-03     39.9491E-03    -26.3097E-03     52.0295E-03    -25.9380E-03     39.9164E-03
             433     7.89268E-03     65.5903E-03    -9.05765E+06    -86.6528E+06    -2.92437E+06     1.01167E+03    -26.4713E-03     52.5268E-03    -26.0555E-03     45.0339E-03    -26.4029E-03     52.1272E-03    -25.9314E-03     44.9911E-03
             434     8.76969E-03     65.6353E-03    -9.27626E+06    -82.9204E+06    -3.65656E+06    -295.156E+03    -26.5561E-03     52.5951E-03    -26.0390E-03     50.1281E-03    -26.5006E-03     52.2229E-03    -25.9236E-03     50.0703E-03
             435     9.64672E-03     65.6852E-03    -9.10026E+06    -80.6687E+06    -6.12503E+06    -391.000E+03    -26.6678E-03     52.6822E-03    -26.0144E-03     55.2512E-03    -26.6218E-03     52.3353E-03    -25.9149E-03     55.1784E-03
             436     10.5236E-03     65.7397E-03    -6.43605E+06    -74.1225E+06    -7.85498E+06    -309.697E+03    -26.7857E-03     52.7687E-03    -25.9830E-03     60.4954E-03    -26.7488E-03     52.4686E-03    -25.9055E-03     60.4070E-03
             437     11.4011E-03     65.7995E-03    -3.15916E+06    -59.7648E+06    -11.2828E+06    -773.900E+03    -26.9283E-03     52.8581E-03    -25.9298E-03     66.4295E-03    -26.9140E-03     52.6531E-03    -25.8950E-03     66.3153E-03
             438     12.2779E-03     65.8651E-03    -2.95264E+06    -39.6091E+06    -15.0322E+06    -897.031E+03    -27.1072E-03     52.9769E-03    -25.8697E-03     74.1291E-03    -27.1544E-03     52.9166E-03    -25.8831E-03     73.9884E-03
             439     13.1554E-03     65.9396E-03    -4.14642E+06    -9.67658E+06    -12.5120E+06     444.634E+03    -27.2089E-03     53.0344E-03    -25.8255E-03     82.1103E-03    -27.3773E-03     53.1900E-03    -25.8680E-03     81.9558E-03
             440     14.0326E-03     66.0203E-03    -6.18196E+06     28.7403E+06    -14.1051E+06     1.11984E+06    -27.8056E-03     53.5548E-03    -25.7491E-03     97.7398E-03    -28.1859E-03     54.0560E-03    -25.8524E-03     97.5641E-03
             441     14.9099E-03     66.1250E-03    -8.60936E+06     73.4160E+06    -9.72827E+06    -139.462E+03    -29.8051E-03     55.5076E-03    -25.7025E-03     136.015E-03    -30.8927E-03     56.8535E-03    -25.8451E-03     135.841E-03
             442     15.7862E-03     66.2782E-03    -8.80443E+06     121.534E+06     29.9469E+06    -1.22429E+06    -34.7709E-03     60.6089E-03    -25.8379E-03     209.550E-03    -38.4762E-03     64.6274E-03    -25.8517E-03     210.128E-03
             443     16.6609E-03     66.5275E-03    -4.95072E+06     151.200E+06     75.8873E+06    -477.595E+03    -33.1776E-03     59.1906E-03    -26.0130E-03     209.396E-03    -37.8717E-03     64.1838E-03    -25.8456E-03     211.939E-03
             444     876.892E-06     66.4005E-03    -15.4588E+06    -103.226E+06    -15.0936E+06     257.737E+03    -26.0650E-03     52.1070E-03    -26.0419E-03     5.37029E-03    -25.9707E-03     51.6356E-03    -25.9453E-03     5.37086E-03
             445     1.75391E-03     66.4077E-03    -14.8576E+06    -102.463E+06    -13.5809E+06     294.518E+03    -26.0728E-03     52.1283E-03    -26.0555E-03     9.91435E-03    -25.9792E-03     51.6576E-03    -25.9533E-03     9.91294E-03
             446     2.63080E-03     66.4192E-03    -14.1537E+06    -101.524E+06    -11.8588E+06     237.502E+03    -26.0859E-03     52.1445E-03    -26.0586E-03     14.7862E-03    -25.9932E-03     51.6755E-03    -25.9502E-03     14.7811E-03
             447     3.50785E-03     66.4356E-03    -13.3992E+06    -100.580E+06    -10.2479E+06     298.717E+03    -26.1317E-03     52.1919E-03    -26.0602E-03     19.7273E-03    -26.0397E-03     51.7250E-03    -25.9462E-03     19.7196E-03
             448     4.38471E-03     66.4566E-03    -12.7509E+06    -99.8162E+06    -8.39099E+06     160.540E+03    -26.1897E-03     52.2552E-03    -26.0654E-03     24.7339E-03    -26.0996E-03     51.7897E-03    -25.9441E-03     24.7204E-03
             449     5.26174E-03     66.4826E-03    -11.9346E+06    -97.5441E+06    -6.44852E+06     262.946E+03    -26.2445E-03     52.3128E-03    -26.0683E-03     29.7943E-03    -26.1582E-03     51.8566E-03    -25.9418E-03     29.7773E-03
             450     6.13867E-03     66.5131E-03    -10.9710E+06     -94.669E+06    -4.09921E+06     320.965E+03    -26.3032E-03     52.3735E-03    -26.0703E-03     34.8823E-03    -26.2222E-03     51.9293E-03    -25.9376E-03     34.8601E-03
             451     7.01572E-03     66.5486E-03    -9.93408E+06    -91.6185E+06    -2.57477E+06    -60.5972E+03    -26.3558E-03     52.4206E-03    -26.0648E-03     39.9459E-03    -26.2799E-03     51.9917E-03    -25.9304E-03     39.9115E-03
             452     7.89272E-03     66.5887E-03    -8.69993E+06    -86.6096E+06    -3.19203E+06    -151.718E+03    -26.4391E-03     52.4824E-03    -26.0433E-03     45.0420E-03    -26.3687E-03     52.0829E-03    -25.9211E-03     44.9974E-03
             453     8.76975E-03     66.6338E-03    -7.51161E+06    -82.9162E+06    -3.92281E+06     120.964E+03    -26.5394E-03     52.5622E-03    -26.0228E-03     50.1227E-03    -26.4747E-03     52.1878E-03    -25.9112E-03     50.0704E-03
             454     9.64688E-03     66.6834E-03    -6.92026E+06    -79.5756E+06    -5.73784E+06    -715.677E+03    -26.6346E-03     52.6320E-03    -25.9974E-03     55.2488E-03    -26.5798E-03     52.2867E-03    -25.9006E-03     55.1720E-03
             455     10.5242E-03     66.7382E-03    -7.02548E+06    -72.9386E+06    -9.10307E+06    -2.76345E+06    -26.7749E-03     52.7357E-03    -25.9608E-03     60.4737E-03    -26.7408E-03     52.4441E-03    -25.8903E-03     60.3538E-03
             456     11.4010E-03     66.7977E-03    -7.67650E+06    -60.7667E+06    -12.8091E+06    -2.45924E+06    -26.9172E-03     52.8337E-03    -25.9164E-03     66.2835E-03    -26.9218E-03     52.6324E-03    -25.8812E-03     66.1475E-03
             457     12.2784E-03     66.8638E-03    -8.12183E+06    -39.9170E+06    -15.2105E+06    -1.06041E+06    -27.1159E-03     52.9818E-03    -25.8659E-03     73.9630E-03    -27.1881E-03     52.9276E-03    -25.8723E-03     73.8202E-03
             458     13.1552E-03     66.9376E-03    -8.12430E+06    -11.9595E+06    -12.9046E+06    -11.9514E+03    -27.2580E-03     53.0843E-03    -25.8263E-03     81.8547E-03    -27.4426E-03     53.2350E-03    -25.8617E-03     81.6939E-03
             459     14.0325E-03     67.0191E-03    -7.59385E+06     27.9205E+06    -11.2317E+06     1.74371E+06    -27.7153E-03     53.4762E-03    -25.7609E-03     97.7176E-03    -28.1052E-03     53.9708E-03    -25.8465E-03     97.5507E-03
             460     14.9097E-03     67.1229E-03    -7.66693E+06     75.7297E+06    -6.93290E+06     1.30248E+06    -29.2923E-03     54.9799E-03    -25.6876E-03     136.668E-03    -30.3736E-03     56.3229E-03    -25.8209E-03     136.524E-03
             461     15.7869E-03     67.2788E-03    -7.06108E+06     122.786E+06     31.0923E+06     281.316E+03    -33.9381E-03     59.7054E-03    -25.7673E-03     212.552E-03    -37.6386E-03     63.7265E-03    -25.7796E-03     213.194E-03
             462     16.6663E-03     67.5266E-03    -4.76458E+06     151.396E+06     76.3691E+06    -397.435E+03    -33.9053E-03     59.8304E-03    -25.9252E-03     211.163E-03    -38.6041E-03     64.8283E-03    -25.7559E-03     213.695E-03
             463     877.033E-06     67.3991E-03    -15.5200E+06    -103.530E+06    -15.3324E+06     13.4707E+03    -26.0571E-03     52.0690E-03    -26.0119E-03     5.36685E-03    -25.9623E-03     51.5965E-03    -25.9159E-03     5.36428E-03
             464     1.75391E-03     67.4061E-03    -14.9448E+06    -102.623E+06    -14.2541E+06     97.8540E+03    -26.0679E-03     52.1042E-03    -26.0362E-03     9.88896E-03    -25.9736E-03     51.6338E-03    -25.9370E-03     9.88499E-03
             465     2.63090E-03     67.4178E-03    -14.2560E+06    -101.584E+06    -12.3255E+06     206.439E+03    -26.1074E-03     52.1553E-03    -26.0480E-03     14.7752E-03    -26.0144E-03     51.6869E-03    -25.9416E-03     14.7696E-03
             466     3.50774E-03     67.4341E-03    -13.4764E+06    -100.816E+06    -10.3534E+06     274.836E+03    -26.1434E-03     52.2016E-03    -26.0582E-03     19.7351E-03    -26.0513E-03     51.7339E-03    -25.9443E-03     19.7271E-03
             467     4.38477E-03     67.4553E-03    -12.6266E+06    -99.6974E+06    -8.04710E+06     354.443E+03    -26.1682E-03     52.2328E-03    -26.0646E-03     24.7429E-03    -26.0781E-03     51.7673E-03    -25.9420E-03     24.7319E-03
             468     5.26171E-03     67.4809E-03    -11.8592E+06    -97.8680E+06    -6.16462E+06     342.901E+03    -26.2105E-03     52.2741E-03    -26.0636E-03     29.8096E-03    -26.1237E-03     51.8157E-03    -25.9354E-03     29.7937E-03
             469     6.13877E-03     67.5117E-03    -10.9158E+06    -94.3451E+06    -5.04199E+06     205.074E+03    -26.2768E-03     52.3318E-03    -26.0549E-03     34.8943E-03    -26.1946E-03     51.8905E-03    -25.9275E-03     34.8707E-03
             470     7.01571E-03     67.5469E-03    -9.92601E+06    -91.0833E+06    -3.37739E+06    -217.809E+03    -26.3457E-03     52.3944E-03    -26.0487E-03     39.9398E-03    -26.2694E-03     51.9693E-03    -25.9191E-03     39.9034E-03
             471     7.89284E-03     67.5872E-03    -9.30055E+06    -86.7116E+06    -3.57774E+06    -471.203E+03    -26.4225E-03     52.4535E-03    -26.0310E-03     45.0396E-03    -26.3542E-03     52.0548E-03    -25.9097E-03     44.9909E-03
             472     8.76997E-03     67.6321E-03    -8.70818E+06    -83.0785E+06    -3.93571E+06    -488.783E+03    -26.5399E-03     52.5540E-03    -26.0141E-03     50.0451E-03    -26.4809E-03     52.1806E-03    -25.9007E-03     49.9848E-03
             473     9.64700E-03     67.6819E-03    -7.93937E+06    -77.8443E+06    -3.33447E+06    -1.03786E+06    -26.6746E-03     52.6762E-03    -26.0016E-03     55.0508E-03    -26.6310E-03     52.3378E-03    -25.8939E-03     54.9694E-03
             474     10.5239E-03     67.7365E-03    -8.51989E+06    -71.4467E+06    -5.63241E+06    -1.48833E+06    -26.8012E-03     52.7776E-03    -25.9764E-03     60.2144E-03    -26.7819E-03     52.4908E-03    -25.8886E-03     60.1104E-03
             475     11.4012E-03     67.7964E-03    -9.93501E+06    -61.6316E+06    -11.1752E+06    -1.85314E+06    -26.9527E-03     52.8843E-03    -25.9316E-03     65.9932E-03    -26.9698E-03     52.6798E-03    -25.8837E-03     65.8645E-03
             476     12.2781E-03     67.8616E-03    -10.4117E+06    -40.4103E+06    -14.9685E+06    -1.74748E+06    -27.1529E-03     53.0305E-03    -25.8776E-03     73.7195E-03    -27.2363E-03     52.9769E-03    -25.8788E-03     73.5674E-03
             477     13.1553E-03     67.9367E-03    -10.1009E+06    -13.6326E+06    -13.4188E+06    -799.601E+03    -27.2977E-03     53.1368E-03    -25.8391E-03     81.5042E-03    -27.4891E-03     53.2828E-03    -25.8718E-03     81.3324E-03
             478     14.0326E-03     68.0165E-03    -9.40155E+06     26.4063E+06    -14.8183E+06    -32.9398E+03    -27.6987E-03     53.4582E-03    -25.7595E-03     97.2449E-03    -28.0897E-03     53.9525E-03    -25.8582E-03     97.0548E-03
             479     14.9102E-03     68.1221E-03    -7.97820E+06     76.3414E+06    -9.05598E+06     478.367E+03    -28.8130E-03     54.4914E-03    -25.6783E-03     134.733E-03    -29.8782E-03     55.8255E-03    -25.8227E-03     134.585E-03
             480     15.7907E-03     68.2736E-03    -5.84350E+06     123.615E+06     31.0039E+06     390.578E+03    -33.3643E-03     59.1144E-03    -25.7501E-03     208.837E-03    -36.9789E-03     63.0572E-03    -25.7659E-03     209.460E-03
             481     16.6691E-03     68.5270E-03    -4.19804E+06     151.564E+06     75.8537E+06     410.851E+03    -34.1794E-03     60.0953E-03    -25.9159E-03     208.847E-03    -38.8133E-03     65.0324E-03    -25.7503E-03     211.352E-03
             482     876.893E-06     68.3975E-03    -15.2468E+06    -103.274E+06    -15.0454E+06    -247.827E+03    -26.0589E-03     52.0756E-03    -26.0167E-03     5.34036E-03    -25.9635E-03     51.6036E-03    -25.9200E-03     5.33441E-03
             483     1.75394E-03     68.4047E-03    -14.8969E+06    -102.843E+06    -14.5959E+06    -150.563E+03    -26.0610E-03     52.0963E-03    -26.0354E-03     9.88993E-03    -25.9655E-03     51.6253E-03    -25.9376E-03     9.88273E-03
             484     2.63085E-03     68.4162E-03    -14.4465E+06    -101.815E+06    -12.8930E+06     72.4680E+03    -26.1000E-03     52.1433E-03    -26.0433E-03     14.7822E-03    -26.0068E-03     51.6748E-03    -25.9392E-03     14.7750E-03
             485     3.50784E-03     68.4327E-03    -13.6108E+06    -100.816E+06    -10.4272E+06     116.060E+03    -26.1217E-03     52.1745E-03    -26.0528E-03     19.7365E-03    -26.0302E-03     51.7070E-03    -25.9390E-03     19.7265E-03
             486     4.38477E-03     68.4536E-03    -12.4401E+06    -99.8706E+06    -8.33857E+06     111.170E+03    -26.1508E-03     52.2055E-03    -26.0548E-03     24.7453E-03    -26.0590E-03     51.7393E-03    -25.9336E-03     24.7312E-03
             487     5.26183E-03     68.4796E-03    -10.9869E+06    -97.8226E+06    -5.56103E+06     129.031E+03    -26.1999E-03     52.2555E-03    -26.0556E-03     29.8080E-03    -26.1097E-03     51.7951E-03    -25.9256E-03     29.7893E-03
             488     6.13881E-03     68.5100E-03    -9.79173E+06    -94.2746E+06    -3.63036E+06     71.1256E+03    -26.2646E-03     52.3144E-03    -26.0498E-03     34.8687E-03    -26.1789E-03     51.8698E-03    -25.9171E-03     34.8434E-03
             489     7.01594E-03     68.5456E-03    -9.03745E+06    -90.5125E+06    -1.96655E+06    -58.0384E+03    -26.3579E-03     52.4021E-03    -26.0442E-03     39.8695E-03    -26.2800E-03     51.9765E-03    -25.9097E-03     39.8350E-03
             490     7.89290E-03     68.5854E-03    -8.49287E+06    -86.7989E+06    -1.84611E+06    -154.370E+03    -26.4674E-03     52.5008E-03    -26.0334E-03     44.9050E-03    -26.3976E-03     52.0981E-03    -25.9045E-03     44.8601E-03
             491     8.76989E-03     68.6307E-03    -8.38768E+06    -82.8638E+06    -2.79047E+06    -159.950E+03    -26.5862E-03     52.6053E-03    -26.0191E-03     49.9297E-03    -26.5276E-03     52.2309E-03    -25.9008E-03     49.8734E-03
             492     9.64688E-03     68.6803E-03    -8.97360E+06    -76.9178E+06    -3.97683E+06    -488.406E+03    -26.7277E-03     52.7314E-03    -26.0036E-03     55.0003E-03    -26.6898E-03     52.4000E-03    -25.8990E-03     54.9258E-03
             493     10.5239E-03     68.7352E-03    -8.64971E+06    -70.8744E+06    -6.99472E+06    -1.14678E+06    -26.8571E-03     52.8356E-03    -25.9785E-03     60.1621E-03    -26.8374E-03     52.5538E-03    -25.8981E-03     60.0623E-03
             494     11.4008E-03     68.7944E-03    -7.84024E+06    -61.1389E+06    -12.1316E+06    -1.37437E+06    -27.0377E-03     52.9747E-03    -25.9369E-03     66.0030E-03    -27.0438E-03     52.7710E-03    -25.8976E-03     65.8802E-03
             495     12.2778E-03     68.8607E-03    -8.85698E+06    -41.1179E+06    -16.4433E+06    -999.454E+03    -27.2523E-03     53.1400E-03    -25.8877E-03     73.6437E-03    -27.3248E-03     53.0828E-03    -25.8974E-03     73.5008E-03
             496     13.1549E-03     68.9343E-03    -9.90234E+06    -13.4956E+06    -15.3991E+06    -1.41321E+06    -27.4536E-03     53.3079E-03    -25.8544E-03     81.3861E-03    -27.6416E-03     53.4576E-03    -25.8974E-03     81.2052E-03
             497     14.0317E-03     69.0159E-03    -9.55808E+06     25.6612E+06    -18.4772E+06    -1.62901E+06    -27.8808E-03     53.6589E-03    -25.7780E-03     96.6387E-03    -28.2644E-03     54.1532E-03    -25.8937E-03     96.4272E-03
             498     14.9090E-03     69.1188E-03    -8.63147E+06     75.0921E+06    -10.8326E+06    -829.295E+03    -29.6297E-03     55.3674E-03    -25.7377E-03     133.564E-03    -30.6999E-03     56.7049E-03    -25.8882E-03     133.382E-03
             499     15.7839E-03     69.2716E-03    -7.86806E+06     122.529E+06     31.2096E+06     88.0519E+03    -34.5545E-03     60.4324E-03    -25.8779E-03     207.979E-03    -38.1846E-03     64.3790E-03    -25.8881E-03     208.551E-03
             500     16.6592E-03     69.5226E-03    -4.47205E+06     151.551E+06     75.6192E+06     831.158E+03    -32.9775E-03     59.0098E-03    -26.0322E-03     210.639E-03    -37.6551E-03     63.9902E-03    -25.8674E-03     213.239E-03
             501     876.982E-06     69.3960E-03    -15.4752E+06    -102.744E+06    -15.1801E+06    -325.083E+03    -26.0496E-03     52.0908E-03    -26.0412E-03     5.29113E-03    -25.9559E-03     51.6220E-03    -25.9457E-03     5.28422E-03
             502     1.75390E-03     69.4030E-03    -15.0482E+06    -102.834E+06    -14.2647E+06    -355.563E+03    -26.0572E-03     52.1011E-03    -26.0439E-03     9.91663E-03    -25.9630E-03     51.6298E-03    -25.9443E-03     9.90680E-03
             503     2.63086E-03     69.4149E-03    -14.2561E+06    -102.006E+06    -12.8233E+06    -244.676E+03    -26.0691E-03     52.1119E-03    -26.0428E-03     14.7756E-03    -25.9748E-03     51.6421E-03    -25.9384E-03     14.7643E-03
             504     3.50784E-03     69.4310E-03    -13.3974E+06    -100.877E+06    -10.6100E+06    -70.7717E+03    -26.0913E-03     52.1341E-03    -26.0428E-03     19.7288E-03    -25.9984E-03     51.6663E-03    -25.9301E-03     19.7164E-03
             505     4.38486E-03     69.4522E-03    -12.6229E+06    -99.7925E+06    -8.26187E+06    -102.253E+03    -26.1479E-03     52.1924E-03    -26.0445E-03     24.7327E-03    -26.0573E-03     51.7268E-03    -25.9228E-03     24.7159E-03
             506     5.26183E-03     69.4778E-03    -11.7169E+06    -97.6731E+06    -5.62536E+06    -320.498E+03    -26.2086E-03     52.2566E-03    -26.0480E-03     29.7738E-03    -26.1222E-03     51.7982E-03    -25.9175E-03     29.7493E-03
             507     6.13888E-03     69.5086E-03    -10.3076E+06    -94.3176E+06    -3.36236E+06    -333.141E+03    -26.2858E-03     52.3335E-03    -26.0477E-03     34.8084E-03    -26.2030E-03     51.8891E-03    -25.9128E-03     34.7777E-03
             508     7.01581E-03     69.5438E-03    -9.07281E+06    -90.8205E+06    -2.18687E+06     107.074E+03    -26.3849E-03     52.4282E-03    -26.0433E-03     39.8127E-03    -26.3065E-03     52.0015E-03    -25.9094E-03     39.7803E-03
             509     7.89283E-03     69.5842E-03    -8.41663E+06    -86.3556E+06    -2.56252E+06     110.718E+03    -26.5057E-03     52.5381E-03    -26.0324E-03     44.8774E-03    -26.4351E-03     52.1385E-03    -25.9078E-03     44.8357E-03
             510     8.76982E-03     69.6289E-03    -7.57156E+06    -83.0037E+06    -3.53064E+06    -126.993E+03    -26.6226E-03     52.6436E-03    -26.0209E-03     49.9368E-03    -26.5588E-03     52.2684E-03    -25.9073E-03     49.8808E-03
             511     9.64682E-03     69.6791E-03    -6.31616E+06    -76.2957E+06    -3.75137E+06    -158.502E+03    -26.7480E-03     52.7557E-03    -26.0077E-03     55.0512E-03    -26.6979E-03     52.4232E-03    -25.9066E-03     54.9811E-03
             512     10.5238E-03     69.7334E-03    -6.36121E+06    -69.7642E+06    -5.17918E+06    -907.610E+03    -26.9182E-03     52.9103E-03    -25.9921E-03     60.1699E-03    -26.8914E-03     52.6282E-03    -25.9076E-03     60.0730E-03
             513     11.4007E-03     69.7933E-03    -7.75691E+06    -61.5925E+06    -11.0861E+06    -1.02422E+06    -27.0808E-03     53.0359E-03    -25.9551E-03     66.0704E-03    -27.0873E-03     52.8283E-03    -25.9099E-03     65.9521E-03
             514     12.2778E-03     69.8588E-03    -8.01515E+06    -41.2592E+06    -15.1421E+06    -674.811E+03    -27.3185E-03     53.2266E-03    -25.9081E-03     73.8331E-03    -27.3887E-03     53.1658E-03    -25.9124E-03     73.6940E-03
             515     13.1545E-03     69.9336E-03    -8.22531E+06    -12.3476E+06    -13.5922E+06    -992.135E+03    -27.5191E-03     53.3956E-03    -25.8765E-03     81.8331E-03    -27.7030E-03     53.5459E-03    -25.9146E-03     81.6577E-03
             516     14.0313E-03     70.0141E-03    -9.19811E+06     25.8484E+06    -17.6985E+06    -1.82696E+06    -27.9876E-03     53.7884E-03    -25.8008E-03     97.3008E-03    -28.3711E-03     54.2823E-03    -25.9134E-03     97.0862E-03
             517     14.9082E-03     70.1178E-03    -10.3783E+06     72.9338E+06    -12.0061E+06    -1.39859E+06    -30.2087E-03     55.9783E-03    -25.7696E-03     136.041E-03    -31.3044E-03     57.3309E-03    -25.9203E-03     135.843E-03
             518     15.7853E-03     70.2727E-03    -9.31560E+06     121.499E+06     30.5987E+06     381.807E+03    -34.9155E-03     60.8400E-03    -25.9246E-03     210.468E-03    -38.5912E-03     64.8253E-03    -25.9342E-03     211.055E-03
             519     16.6645E-03     70.5213E-03    -4.14718E+06     152.108E+06     76.2412E+06     269.823E+03    -32.2529E-03     58.3148E-03    -26.0619E-03     211.347E-03    -36.9514E-03     63.3175E-03    -25.8953E-03     213.988E-03
             520     876.918E-06     70.3944E-03    -15.2392E+06    -102.352E+06    -14.7628E+06    -188.175E+03    -26.0333E-03     52.0926E-03    -26.0593E-03     5.27149E-03    -25.9396E-03     51.6248E-03    -25.9626E-03     5.26638E-03
             521     1.75388E-03     70.4017E-03    -15.0032E+06    -102.450E+06    -14.3843E+06    -374.501E+03    -26.0436E-03     52.0838E-03    -26.0402E-03     9.93245E-03    -25.9496E-03     51.6146E-03    -25.9419E-03     9.92239E-03
             522     2.63087E-03     70.4132E-03    -14.6620E+06    -101.958E+06    -13.2815E+06    -516.775E+03    -26.0511E-03     52.0853E-03    -26.0342E-03     14.7690E-03    -25.9582E-03     51.6170E-03    -25.9316E-03     14.7542E-03
             523     3.50790E-03     70.4296E-03    -13.9109E+06    -101.139E+06    -11.0198E+06    -324.788E+03    -26.0852E-03     52.1191E-03    -26.0339E-03     19.7158E-03    -25.9939E-03     51.6513E-03    -25.9222E-03     19.7001E-03
             524     4.38489E-03     70.4505E-03    -12.9407E+06    -99.7435E+06    -8.26243E+06    -49.4648E+03    -26.1498E-03     52.1883E-03    -26.0384E-03     24.7138E-03    -26.0609E-03     51.7233E-03    -25.9164E-03     24.6977E-03
             525     5.26187E-03     70.4765E-03    -12.0476E+06    -97.2076E+06    -5.93434E+06    -233.722E+03    -26.2273E-03     52.2701E-03    -26.0428E-03     29.7528E-03    -26.1427E-03     51.8149E-03    -25.9141E-03     29.7294E-03
             526     6.13882E-03     70.5069E-03    -11.3141E+06    -94.1894E+06    -4.77516E+06    -631.674E+03    -26.3094E-03     52.3518E-03    -26.0424E-03     34.8286E-03    -26.2298E-03     51.9115E-03    -25.9133E-03     34.7941E-03
             527     7.01584E-03     70.5425E-03    -10.1165E+06    -91.5762E+06    -3.70450E+06    -416.017E+03    -26.4048E-03     52.4465E-03    -26.0417E-03     39.8469E-03    -26.3283E-03     52.0197E-03    -25.9128E-03     39.8077E-03
             528     7.89284E-03     70.5824E-03    -8.74552E+06    -86.0687E+06    -2.99764E+06    -61.8400E+03    -26.5141E-03     52.5491E-03    -26.0350E-03     44.9243E-03    -26.4449E-03     52.1520E-03    -25.9125E-03     44.8805E-03
             529     8.76976E-03     70.6278E-03    -7.97401E+06    -82.4176E+06    -3.01006E+06    -592.178E+03    -26.6367E-03     52.6655E-03    -26.0289E-03     49.9345E-03    -26.5764E-03     52.2931E-03    -25.9128E-03     49.8725E-03
             530     9.64677E-03     70.6771E-03    -7.21225E+06    -76.0881E+06    -3.99193E+06    -1.24074E+06    -26.7627E-03     52.7768E-03    -26.0142E-03     55.1065E-03    -26.7170E-03     52.4471E-03    -25.9133E-03     55.0224E-03
             531     10.5237E-03     70.7325E-03    -5.92181E+06    -69.5410E+06    -3.30606E+06    -767.573E+03    -26.9005E-03     52.9070E-03    -26.0066E-03     60.2725E-03    -26.8744E-03     52.6227E-03    -25.9137E-03     60.1775E-03
             532     11.4006E-03     70.7914E-03    -5.09491E+06    -61.8629E+06    -8.78822E+06    -418.445E+03    -27.0617E-03     53.0284E-03    -25.9666E-03     66.1865E-03    -27.0579E-03     52.8123E-03    -25.9135E-03     66.0760E-03
             533     12.2775E-03     70.8579E-03    -5.75648E+06    -40.8569E+06    -14.1637E+06    -766.216E+03    -27.2402E-03     53.1479E-03    -25.9077E-03     74.2115E-03    -27.3011E-03     53.0844E-03    -25.9109E-03     74.0719E-03
             534     13.1547E-03     70.9319E-03    -6.39901E+06    -12.4034E+06    -12.2418E+06    -580.620E+03    -27.3492E-03     53.2187E-03    -25.8695E-03     82.2163E-03    -27.5255E-03     53.3638E-03    -25.9035E-03     82.0476E-03
             535     14.0321E-03     71.0130E-03    -7.88285E+06     26.5948E+06    -14.9681E+06    -179.709E+03    -27.8713E-03     53.6617E-03    -25.7904E-03     97.7724E-03    -28.2548E-03     54.1550E-03    -25.8924E-03     97.5794E-03
             536     14.9094E-03     71.1163E-03    -9.62814E+06     72.3277E+06    -13.5371E+06    -495.575E+03    -29.7187E-03     55.4395E-03    -25.7208E-03     137.301E-03    -30.8095E-03     56.7921E-03    -25.8794E-03     137.125E-03
             537     15.7856E-03     71.2730E-03    -7.48760E+06     120.815E+06     27.3511E+06    -668.937E+03    -34.2710E-03     60.1021E-03    -25.8311E-03     211.484E-03    -37.9331E-03     64.0871E-03    -25.8587E-03     212.087E-03
             538     16.6611E-03     71.5176E-03    -3.53181E+06     152.632E+06     76.9946E+06    -236.845E+03    -33.0791E-03     59.0745E-03    -25.9954E-03     210.305E-03    -37.7551E-03     64.0565E-03    -25.8266E-03     212.888E-03
             539     876.956E-06     71.3931E-03    -15.5912E+06     -102.09E+06    -15.5397E+06    -124.167E+03    -26.0112E-03     52.0458E-03    -26.0346E-03     5.26898E-03    -25.9185E-03     51.5810E-03    -25.9417E-03     5.26472E-03
             540     1.75396E-03     71.4000E-03    -15.4821E+06    -102.094E+06    -14.8212E+06    -198.247E+03    -26.0283E-03     52.0471E-03    -26.0188E-03     9.93914E-03    -25.9366E-03     51.5810E-03    -25.9224E-03     9.93136E-03
             541     2.63092E-03     71.4118E-03    -15.2330E+06    -101.647E+06    -13.1077E+06    -345.125E+03    -26.0616E-03     52.0838E-03    -26.0222E-03     14.7672E-03    -25.9723E-03     51.6176E-03    -25.9183E-03     14.7547E-03
             542     3.50789E-03     71.4279E-03    -14.6293E+06    -101.193E+06    -11.4010E+06    -498.710E+03    -26.1046E-03     52.1325E-03    -26.0278E-03     19.7062E-03    -26.0163E-03     51.6660E-03    -25.9169E-03     19.6883E-03
             543     4.38487E-03     71.4491E-03    -13.4896E+06    -99.8898E+06    -9.48023E+06    -428.350E+03    -26.1577E-03     52.1902E-03    -26.0325E-03     24.7180E-03    -26.0695E-03     51.7270E-03    -25.9155E-03     24.6970E-03
             544     5.26187E-03     71.4748E-03    -12.1616E+06    -96.9001E+06    -6.49517E+06    -317.333E+03    -26.2362E-03     52.2768E-03    -26.0405E-03     29.7565E-03    -26.1519E-03     51.8241E-03    -25.9149E-03     29.7320E-03
             545     6.13886E-03     71.5056E-03    -11.0396E+06    -93.7552E+06    -3.99164E+06    -459.217E+03    -26.3278E-03     52.3758E-03    -26.0480E-03     34.8028E-03    -26.2486E-03     51.9362E-03    -25.9160E-03     34.7705E-03
             546     7.01581E-03     71.5408E-03    -10.0560E+06    -91.5190E+06    -3.04442E+06    -957.276E+03    -26.4205E-03     52.4700E-03    -26.0495E-03     39.8231E-03    -26.3448E-03     52.0425E-03    -25.9174E-03     39.7769E-03
             547     7.89272E-03     71.5812E-03    -8.66524E+06    -86.4111E+06    -3.29074E+06    -974.863E+03    -26.5132E-03     52.5521E-03    -26.0390E-03     44.9295E-03    -26.4427E-03     52.1537E-03    -25.9176E-03     44.8740E-03
             548     8.76978E-03     71.6260E-03    -7.14477E+06    -81.4073E+06    -2.39577E+06    -973.993E+03    -26.6233E-03     52.6562E-03    -26.0329E-03     49.9885E-03    -26.5613E-03     52.2868E-03    -25.9165E-03     49.9217E-03
             549     9.64663E-03     71.6761E-03    -6.25848E+06    -75.2195E+06    -4.55498E+06    -1.82744E+06    -26.7384E-03     52.7482E-03    -26.0098E-03     55.2161E-03    -26.6884E-03     52.4222E-03    -25.9145E-03     55.1246E-03
             550     10.5238E-03     71.7305E-03    -5.93258E+06    -70.9041E+06    -6.22954E+06    -1.63267E+06    -26.8438E-03     52.8348E-03    -25.9909E-03     60.4343E-03    -26.8115E-03     52.5477E-03    -25.9106E-03     60.3286E-03
             551     11.4008E-03     71.7905E-03    -6.01391E+06    -61.9106E+06    -10.2788E+06    -711.546E+03    -26.9969E-03     52.9495E-03    -25.9526E-03     66.3085E-03    -26.9955E-03     52.7368E-03    -25.9055E-03     66.1945E-03
             552     12.2780E-03     71.8558E-03    -6.24847E+06    -40.4553E+06    -14.3363E+06    -641.170E+03    -27.1241E-03     53.0174E-03    -25.8932E-03     74.1698E-03    -27.1875E-03     52.9565E-03    -25.8972E-03     74.0323E-03
             553     13.1553E-03     71.9307E-03    -7.04636E+06    -13.1333E+06    -12.8651E+06    -297.741E+03    -27.2319E-03     53.0802E-03    -25.8482E-03     82.0539E-03    -27.4094E-03     53.2233E-03    -25.8833E-03     81.8895E-03
             554     14.0323E-03     72.0109E-03    -7.42443E+06     26.0329E+06    -14.3944E+06     566.407E+03    -27.6980E-03     53.4639E-03    -25.7659E-03     97.5908E-03    -28.0789E-03     53.9527E-03    -25.8649E-03     97.4086E-03
             555     14.9094E-03     72.1155E-03    -6.63600E+06     73.5042E+06    -10.9436E+06     387.866E+03    -29.2196E-03     54.9031E-03    -25.6835E-03     136.709E-03    -30.2937E-03     56.2463E-03    -25.8352E-03     136.553E-03
             556     15.7890E-03     72.2697E-03    -6.90730E+06     121.477E+06     29.1955E+06    -851.380E+03    -33.9932E-03     59.7724E-03    -25.7792E-03     210.387E-03    -37.6426E-03     63.7437E-03    -25.7993E-03     210.992E-03
             557     16.6694E-03     72.5201E-03    -4.70654E+06     151.524E+06     76.5975E+06    -658.389E+03    -33.5679E-03     59.5204E-03    -25.9525E-03     208.701E-03    -38.2177E-03     64.4692E-03    -25.7824E-03     211.228E-03
             558     877.006E-06     72.3913E-03    -16.2688E+06    -101.847E+06    -15.9671E+06    -270.985E+03    -25.9935E-03     51.9887E-03    -25.9952E-03     5.25967E-03    -25.9039E-03     51.5266E-03    -25.9038E-03     5.25352E-03
             559     1.75398E-03     72.3986E-03    -15.8102E+06    -102.075E+06    -14.5117E+06    -85.7280E+03    -26.0407E-03     52.0434E-03    -26.0027E-03     9.90571E-03    -25.9511E-03     51.5774E-03    -25.9044E-03     9.89939E-03
             560     2.63096E-03     72.4101E-03    -15.1402E+06    -101.314E+06    -12.6402E+06    -103.346E+03    -26.0788E-03     52.0969E-03    -26.0181E-03     14.7337E-03    -25.9902E-03     51.6316E-03    -25.9124E-03     14.7242E-03
             561     3.50791E-03     72.4265E-03    -14.4403E+06    -100.798E+06    -11.0355E+06    -380.214E+03    -26.1270E-03     52.1568E-03    -26.0297E-03     19.6694E-03    -26.0388E-03     51.6915E-03    -25.9178E-03     19.6529E-03
             562     4.38489E-03     72.4474E-03    -13.7505E+06    -99.7547E+06    -9.45067E+06    -709.215E+03    -26.1823E-03     52.2209E-03    -26.0386E-03     24.6843E-03    -26.0957E-03     51.7588E-03    -25.9213E-03     24.6596E-03
             563     5.26183E-03     72.4734E-03    -12.7390E+06    -96.9701E+06    -6.96039E+06    -696.645E+03    -26.2471E-03     52.2945E-03    -26.0474E-03     29.7286E-03    -26.1648E-03     51.8430E-03    -25.9232E-03     29.6992E-03
             564     6.13878E-03     72.5039E-03    -11.5333E+06    -93.5468E+06    -4.70390E+06    -529.734E+03    -26.3222E-03     52.3749E-03    -26.0527E-03     34.7798E-03    -26.2447E-03     51.9381E-03    -25.9239E-03     34.7465E-03
             565     7.01570E-03     72.5395E-03    -10.5073E+06    -90.3002E+06    -4.32877E+06    -1.14261E+06    -26.3970E-03     52.4443E-03    -26.0473E-03     39.8417E-03    -26.3233E-03     52.0253E-03    -25.9228E-03     39.7931E-03
             566     7.89277E-03     72.5794E-03    -9.45323E+06    -86.2385E+06    -5.62681E+06    -2.07797E+06    -26.4787E-03     52.5085E-03    -26.0298E-03     45.0075E-03    -26.4090E-03     52.1154E-03    -25.9192E-03     44.9379E-03
             567     8.76968E-03     72.6248E-03     -8.0554E+06    -81.0698E+06    -5.64557E+06    -2.29464E+06    -26.5830E-03     52.5980E-03    -26.0150E-03     50.1092E-03    -26.5212E-03     52.2362E-03    -25.9140E-03     50.0256E-03
             568     9.64689E-03     72.6742E-03    -7.12066E+06    -74.4355E+06    -5.83698E+06    -2.17091E+06    -26.7044E-03     52.7024E-03    -25.9979E-03     55.2336E-03    -26.6580E-03     52.3834E-03    -25.9089E-03     55.1377E-03
             569     10.5238E-03     72.7294E-03    -6.88623E+06    -71.8683E+06    -5.86141E+06    -1.87624E+06    -26.8187E-03     52.8070E-03    -25.9883E-03     60.3516E-03    -26.7903E-03     52.5161E-03    -25.9035E-03     60.2426E-03
             570     11.4009E-03     72.7884E-03    -6.40042E+06    -62.4618E+06    -10.0594E+06    -1.28197E+06    -26.9386E-03     52.8843E-03    -25.9457E-03     66.2168E-03    -26.9385E-03     52.6689E-03    -25.8962E-03     66.0956E-03
             571     12.2779E-03     72.8548E-03    -6.34919E+06    -40.3923E+06    -14.3457E+06    -869.450E+03    -27.0765E-03     52.9577E-03    -25.8812E-03     73.9864E-03    -27.1403E-03     52.8971E-03    -25.8851E-03     73.8462E-03
             572     13.1551E-03     72.9283E-03    -6.50794E+06    -14.2423E+06    -13.9371E+06    -206.989E+03    -27.1555E-03     52.9839E-03    -25.8284E-03     82.0416E-03    -27.3264E-03     53.1216E-03    -25.8680E-03     81.8794E-03
             573     14.0324E-03     73.0101E-03    -6.53965E+06     25.6427E+06    -15.5338E+06     302.386E+03    -27.5779E-03     53.3167E-03    -25.7388E-03     97.5523E-03    -27.9507E-03     53.8023E-03    -25.8441E-03     97.3688E-03
             574     14.9105E-03     73.1123E-03    -7.91892E+06     74.4144E+06    -9.89536E+06     267.011E+03    -29.3432E-03     55.0141E-03    -25.6710E-03     136.115E-03    -30.4229E-03     56.3586E-03    -25.8169E-03     135.956E-03
             575     15.7865E-03     73.2685E-03    -7.57006E+06     122.159E+06     30.6554E+06     361.569E+03    -34.1987E-03     59.9762E-03    -25.7775E-03     210.788E-03    -37.8485E-03     63.9437E-03    -25.7904E-03     211.400E-03
             576     16.6596E-03     73.5163E-03    -4.44687E+06     151.569E+06     75.9421E+06    -165.148E+03    -33.6681E-03     59.6108E-03    -25.9428E-03     209.723E-03    -38.3173E-03     64.5620E-03    -25.7764E-03     212.256E-03
             577     877.025E-06     73.3899E-03    -16.5297E+06    -101.578E+06    -15.6894E+06    -101.017E+03    -26.0380E-03     52.0051E-03    -25.9672E-03     5.29758E-03    -25.9505E-03     51.5444E-03    -25.8743E-03     5.29356E-03
             578     1.75397E-03     73.3969E-03    -15.7993E+06    -102.090E+06    -14.4357E+06    -138.322E+03    -26.0562E-03     52.0694E-03    -26.0132E-03     9.86413E-03    -25.9666E-03     51.6032E-03    -25.9144E-03     9.85710E-03
             579     2.63089E-03     73.4087E-03    -14.9696E+06    -101.232E+06    -12.6315E+06    -101.393E+03    -26.0867E-03     52.1153E-03    -26.0286E-03     14.7158E-03    -25.9974E-03     51.6501E-03    -25.9233E-03     14.7063E-03
             580     3.50787E-03     73.4249E-03    -14.0926E+06    -100.294E+06    -10.4761E+06    -257.467E+03    -26.1467E-03     52.1893E-03    -26.0426E-03     19.6498E-03    -26.0583E-03     51.7252E-03    -25.9291E-03     19.6349E-03
             581     4.38477E-03     73.4461E-03    -13.2344E+06    -99.3087E+06    -8.84749E+06    -569.283E+03    -26.2014E-03     52.2545E-03    -26.0531E-03     24.6564E-03    -26.1137E-03     51.7929E-03    -25.9342E-03     24.6334E-03
             582     5.26172E-03     73.4718E-03    -12.4382E+06    -96.8481E+06    -7.59628E+06    -831.949E+03    -26.2313E-03     52.2859E-03    -26.0546E-03     29.7486E-03    -26.1468E-03     51.8355E-03    -25.9342E-03     29.7175E-03
             583     6.13869E-03     73.5026E-03    -11.3284E+06    -93.3527E+06    -6.48836E+06    -1.05068E+06    -26.2782E-03     52.3262E-03    -26.0479E-03     34.8621E-03    -26.1974E-03     51.8926E-03    -25.9286E-03     34.8223E-03
             584     7.01578E-03     73.5378E-03    -10.0439E+06    -88.9926E+06    -5.21004E+06    -1.52124E+06    -26.3588E-03     52.3976E-03    -26.0388E-03     39.9164E-03    -26.2835E-03     51.9858E-03    -25.9212E-03     39.8631E-03
             585     7.89274E-03     73.5781E-03    -9.40732E+06    -85.1351E+06    -5.06379E+06    -2.32794E+06    -26.4580E-03     52.4841E-03    -26.0261E-03     45.0265E-03    -26.3905E-03     52.0956E-03    -25.9144E-03     44.9538E-03
             586     8.76994E-03     73.6229E-03    -9.66945E+06    -81.0591E+06    -6.60992E+06    -2.59106E+06    -26.5747E-03     52.5819E-03    -26.0071E-03     50.0977E-03    -26.5196E-03     52.2238E-03    -25.9086E-03     50.0103E-03
             587     9.64677E-03     73.6730E-03    -9.98433E+06    -74.3967E+06    -7.61981E+06    -2.31731E+06    -26.6858E-03     52.6737E-03    -25.9879E-03     55.1882E-03    -26.6511E-03     52.3616E-03    -25.9037E-03     55.0905E-03
             588     10.5239E-03     73.7274E-03    -9.20261E+06    -71.3106E+06    -6.84223E+06    -2.81788E+06    -26.7971E-03     52.7777E-03    -25.9806E-03     60.3399E-03    -26.7797E-03     52.4943E-03    -25.8981E-03     60.2188E-03
             589     11.4009E-03     73.7873E-03    -7.81991E+06    -63.3485E+06    -11.8815E+06    -2.92859E+06    -26.9342E-03     52.8688E-03    -25.9346E-03     66.1818E-03    -26.9372E-03     52.6536E-03    -25.8908E-03     66.0395E-03
             590     12.2783E-03     73.8526E-03    -7.12248E+06    -41.7501E+06    -15.5713E+06    -1.25373E+06    -27.0701E-03     52.9434E-03    -25.8733E-03     73.8002E-03    -27.1340E-03     52.8789E-03    -25.8803E-03     73.6551E-03
             591     13.1555E-03     73.9272E-03    -8.08970E+06    -15.0513E+06    -14.4460E+06    -21.9360E+03    -27.1614E-03     52.9873E-03    -25.8259E-03     81.5699E-03    -27.3381E-03     53.1238E-03    -25.8646E-03     81.4096E-03
             592     14.0332E-03     74.0072E-03    -9.67809E+06     25.8148E+06    -16.7783E+06     188.966E+03    -27.7575E-03     53.4991E-03    -25.7416E-03     96.8496E-03    -28.1445E-03     53.9920E-03    -25.8489E-03     96.6624E-03
             593     14.9098E-03     74.1119E-03    -9.91087E+06     74.4965E+06    -12.6150E+06     217.386E+03    -29.4944E-03     55.1725E-03    -25.6780E-03     135.173E-03    -30.5779E-03     56.5218E-03    -25.8347E-03     135.008E-03
             594     15.7882E-03     74.2661E-03    -7.20619E+06     121.487E+06     27.8159E+06    -175.464E+03    -34.0550E-03     59.8404E-03    -25.7854E-03     209.952E-03    -37.6937E-03     63.8039E-03    -25.8121E-03     210.555E-03
             595     16.6715E-03     74.5178E-03    -3.66768E+06     152.079E+06     75.5727E+06    -28.9254E+03    -33.6769E-03     59.6357E-03    -25.9588E-03     209.684E-03    -38.3292E-03     64.5956E-03    -25.7961E-03     212.215E-03
             596     876.938E-06     74.3882E-03    -17.2075E+06    -101.365E+06    -16.6732E+06     21.7663E+03    -26.0715E-03     52.0660E-03    -25.9944E-03     5.32623E-03    -25.9864E-03     51.6087E-03    -25.9059E-03     5.32375E-03
             597     1.75387E-03     74.3955E-03    -16.4457E+06    -101.796E+06    -14.9835E+06    -260.912E+03    -26.0565E-03     52.0950E-03    -26.0385E-03     9.86879E-03    -25.9698E-03     51.6320E-03    -25.9420E-03     9.86017E-03
             598     2.63089E-03     74.4070E-03    -15.4200E+06    -101.267E+06    -13.0757E+06    -363.810E+03    -26.0936E-03     52.1403E-03    -26.0467E-03     14.7362E-03    -26.0058E-03     51.6762E-03    -25.9428E-03     14.7233E-03
             599     3.50778E-03     74.4236E-03    -14.2808E+06    -99.8561E+06    -11.1520E+06    -450.465E+03    -26.1399E-03     52.1938E-03    -26.0539E-03     19.6899E-03    -26.0521E-03     51.7332E-03    -25.9441E-03     19.6725E-03
             600     4.38474E-03     74.4445E-03    -13.2045E+06    -98.8478E+06    -9.67958E+06    -720.565E+03    -26.1777E-03     52.2348E-03    -26.0572E-03     24.6979E-03    -26.0893E-03     51.7768E-03    -25.9431E-03     24.6731E-03
             601     5.26171E-03     74.4704E-03    -12.1605E+06    -96.2973E+06    -8.15312E+06    -1.06217E+06    -26.2048E-03     52.2584E-03    -26.0536E-03     29.7656E-03    -26.1189E-03     51.8111E-03    -25.9371E-03     29.7316E-03
             602     6.13882E-03     74.5008E-03    -10.8959E+06    -92.3599E+06    -6.38746E+06    -1.89196E+06    -26.2559E-03     52.3011E-03    -26.0452E-03     34.8580E-03    -26.1745E-03     51.8716E-03    -25.9274E-03     34.8074E-03
             603     7.01580E-03     74.5365E-03    -9.58249E+06    -88.6868E+06    -4.60740E+06    -2.14101E+06    -26.3556E-03     52.3936E-03    -26.0379E-03     39.8789E-03    -26.2793E-03     51.9817E-03    -25.9185E-03     39.8176E-03
             604     7.89291E-03     74.5763E-03    -8.81204E+06    -84.1928E+06    -3.35549E+06    -1.97203E+06    -26.4774E-03     52.5084E-03    -26.0310E-03     44.9329E-03    -26.4108E-03     52.1214E-03    -25.9129E-03     44.8645E-03
             605     8.76972E-03     74.6217E-03    -8.11825E+06    -80.7987E+06    -4.12659E+06    -2.27375E+06    -26.5812E-03     52.5983E-03    -26.0171E-03     50.0009E-03    -26.5223E-03     52.2357E-03    -25.9088E-03     49.9175E-03
             606     9.64694E-03     74.6712E-03    -7.61559E+06    -74.6087E+06    -6.86364E+06    -2.07306E+06    -26.6890E-03     52.6777E-03    -25.9887E-03     55.1077E-03    -26.6433E-03     52.3600E-03    -25.9038E-03     55.0131E-03
             607     10.5240E-03     74.7262E-03    -8.67463E+06    -69.8683E+06    -6.73040E+06    -2.25132E+06    -26.8072E-03     52.7860E-03    -25.9788E-03     60.1630E-03    -26.7895E-03     52.5089E-03    -25.8985E-03     60.0490E-03
             608     11.4011E-03     74.7853E-03    -10.4313E+06    -62.9266E+06    -12.1803E+06    -3.26184E+06    -26.9699E-03     52.9093E-03    -25.9394E-03     65.9616E-03    -26.9862E-03     52.7005E-03    -25.8940E-03     65.8145E-03
             609     12.2778E-03     74.8514E-03    -11.0664E+06    -44.6431E+06    -17.3518E+06    -2.42646E+06    -27.1616E-03     53.0450E-03    -25.8834E-03     73.4932E-03    -27.2386E-03     52.9745E-03    -25.8893E-03     73.3321E-03
             610     13.1551E-03     74.9249E-03    -10.2308E+06    -16.0892E+06    -14.4205E+06    -143.875E+03    -27.3602E-03     53.2105E-03    -25.8503E-03     81.2598E-03    -27.5471E-03     53.3458E-03    -25.8842E-03     81.0959E-03
             611     14.0316E-03     75.0064E-03    -9.20550E+06     26.4344E+06    -17.2981E+06    -132.141E+03    -27.9081E-03     53.6753E-03    -25.7672E-03     97.0006E-03    -28.2937E-03     54.1722E-03    -25.8787E-03     96.8076E-03
             612     14.9088E-03     75.1099E-03    -7.53129E+06     74.9881E+06    -13.3584E+06    -893.139E+03    -29.6683E-03     55.3755E-03    -25.7072E-03     135.233E-03    -30.7426E-03     56.7280E-03    -25.8718E-03     135.050E-03
             613     15.7857E-03     75.2636E-03    -7.04719E+06     121.109E+06     26.1069E+06    -557.596E+03    -34.4486E-03     60.2775E-03    -25.8288E-03     209.640E-03    -38.1085E-03     64.2663E-03    -25.8637E-03     210.234E-03
             614     16.6566E-03     75.5131E-03    -4.79264E+06     150.897E+06     73.2752E+06    -113.733E+03    -33.2239E-03     59.2234E-03    -25.9994E-03     210.384E-03    -37.9171E-03     64.2226E-03    -25.8449E-03     212.953E-03
             615     876.912E-06     75.3869E-03    -17.0456E+06    -101.120E+06    -16.6830E+06    -245.106E+03    -26.0655E-03     52.1096E-03    -26.0441E-03     5.37097E-03    -25.9798E-03     51.6533E-03    -25.9562E-03     5.36503E-03
             616     1.75391E-03     75.3938E-03    -16.3484E+06    -101.393E+06    -15.1234E+06    -329.861E+03    -26.0751E-03     52.1333E-03    -26.0582E-03     9.89434E-03    -25.9882E-03     51.6723E-03    -25.9631E-03     9.88485E-03
             617     2.63076E-03     75.4057E-03    -15.6496E+06    -100.906E+06    -13.4373E+06    -605.189E+03    -26.0947E-03     52.1572E-03    -26.0625E-03     14.7539E-03    -26.0081E-03     51.6958E-03    -25.9607E-03     14.7380E-03
             618     3.50776E-03     75.4219E-03    -14.6530E+06    -99.3502E+06    -12.0315E+06    -946.975E+03    -26.1088E-03     52.1683E-03    -26.0595E-03     19.7051E-03    -26.0223E-03     51.7119E-03    -25.9543E-03     19.6813E-03
             619     4.38476E-03     75.4431E-03    -13.4243E+06    -98.2192E+06    -10.2662E+06    -1.30612E+06    -26.1560E-03     52.2125E-03    -26.0565E-03     24.6857E-03    -26.0688E-03     51.7588E-03    -25.9460E-03     24.6533E-03
             620     5.26178E-03     75.4687E-03    -11.9663E+06    -95.5110E+06    -8.11484E+06    -1.80482E+06    -26.2237E-03     52.2781E-03    -26.0545E-03     29.6970E-03    -26.1380E-03     51.8345E-03    -25.9392E-03     29.6532E-03
             621     6.13869E-03     75.4995E-03    -10.7783E+06    -90.9722E+06    -5.67954E+06    -2.42025E+06    -26.2865E-03     52.3388E-03    -26.0523E-03     34.7595E-03    -26.2076E-03     51.9152E-03    -25.9331E-03     34.7018E-03
             622     7.01578E-03     75.5347E-03    -9.80151E+06    -88.7879E+06    -4.24797E+06    -2.68474E+06    -26.3686E-03     52.4172E-03    -26.0485E-03     39.7922E-03    -26.2938E-03     52.0047E-03    -25.9268E-03     39.7237E-03
             623     7.89266E-03     75.5751E-03    -8.39010E+06    -83.9115E+06    -3.92747E+06    -2.49444E+06    -26.4731E-03     52.5083E-03    -26.0352E-03     44.8934E-03    -26.4039E-03     52.1228E-03    -25.9210E-03     44.8183E-03
             624     8.76984E-03     75.6199E-03    -7.51001E+06    -80.2295E+06    -4.00265E+06    -2.48986E+06    -26.5889E-03     52.6122E-03    -26.0233E-03     49.9143E-03    -26.5280E-03     52.2515E-03    -25.9161E-03     49.8280E-03
             625     9.64675E-03     75.6699E-03    -7.32911E+06    -75.4045E+06    -6.97089E+06    -2.07899E+06    -26.7179E-03     52.7151E-03    -25.9972E-03     55.0148E-03    -26.6695E-03     52.3932E-03    -25.9121E-03     54.9199E-03
             626     10.5237E-03     75.7245E-03    -6.68729E+06    -69.1810E+06    -5.76470E+06    -1.42221E+06    -26.8492E-03     52.8392E-03    -25.9901E-03     60.0692E-03    -26.8239E-03     52.5614E-03    -25.9089E-03     59.9656E-03
             627     11.4006E-03     75.7840E-03    -7.00719E+06    -61.7969E+06    -10.1323E+06    -1.48607E+06    -26.9879E-03     52.9423E-03    -25.9543E-03     65.9096E-03    -26.9916E-03     52.7311E-03    -25.9052E-03     65.7855E-03
             628     12.2779E-03     75.8497E-03    -8.75981E+06    -45.5198E+06    -19.7020E+06    -1.90894E+06    -27.2567E-03     53.1393E-03    -25.8826E-03     73.6993E-03    -27.3175E-03     53.0646E-03    -25.9024E-03     73.5448E-03
             629     13.1546E-03     75.9238E-03    -8.89097E+06    -17.2017E+06    -19.5709E+06    -2.40975E+06    -27.4147E-03     53.2542E-03    -25.8395E-03     81.7063E-03    -27.5857E-03     53.3893E-03    -25.8995E-03     81.5135E-03
             630     14.0321E-03     76.0047E-03    -6.95484E+06     26.8552E+06    -21.4521E+06    -2.12266E+06    -27.9758E-03     53.7341E-03    -25.7584E-03     97.5334E-03    -28.3458E-03     54.2371E-03    -25.8945E-03     97.3145E-03
             631     14.9096E-03     76.1084E-03    -7.57256E+06     73.9262E+06    -16.7331E+06    -1.22934E+06    -29.7861E-03     55.4959E-03    -25.7099E-03     135.687E-03    -30.8561E-03     56.8500E-03    -25.8897E-03     135.500E-03
             632     15.7858E-03     76.2639E-03    -7.69008E+06     120.596E+06     25.7432E+06     335.052E+03    -34.2275E-03     60.0645E-03    -25.8371E-03     211.078E-03    -37.8948E-03     64.0578E-03    -25.8721E-03     211.696E-03
             633     16.6695E-03     76.5141E-03    -4.26778E+06     151.583E+06     74.4877E+06     314.130E+03    -33.2206E-03     59.2161E-03    -25.9955E-03     212.139E-03    -37.9352E-03     64.2376E-03    -25.8367E-03     214.738E-03
             634     876.963E-06     76.3853E-03    -16.6692E+06    -100.605E+06    -16.3768E+06    -284.574E+03    -26.0812E-03     52.1411E-03    -26.0599E-03     5.35872E-03    -25.9949E-03     51.6865E-03    -25.9717E-03     5.35227E-03
             635     1.75379E-03     76.3926E-03    -16.3153E+06    -101.040E+06    -15.4633E+06    -488.442E+03    -26.0852E-03     52.1554E-03    -26.0702E-03     9.89585E-03    -25.9982E-03     51.6967E-03    -25.9773E-03     9.88432E-03
             636     2.63080E-03     76.4041E-03    -15.5482E+06    -100.193E+06    -13.4903E+06    -729.592E+03    -26.0875E-03     52.1589E-03    -26.0714E-03     14.7541E-03    -26.0013E-03     51.7010E-03    -25.9710E-03     14.7366E-03
             637     3.50773E-03     76.4205E-03    -14.7791E+06    -98.5115E+06    -12.1227E+06    -1.27461E+06    -26.1167E-03     52.1824E-03    -26.0657E-03     19.6787E-03    -26.0319E-03     51.7306E-03    -25.9621E-03     19.6506E-03
             638     4.38474E-03     76.4414E-03    -13.7752E+06    -97.1394E+06    -10.5662E+06    -2.02788E+06    -26.1749E-03     52.2382E-03    -26.0633E-03     24.6436E-03    -26.0906E-03     51.7909E-03    -25.9553E-03     24.6018E-03
             639     5.26164E-03     76.4674E-03    -12.6113E+06    -94.5945E+06    -8.88646E+06    -2.61372E+06    -26.2461E-03     52.3082E-03    -26.0621E-03     29.6527E-03    -26.1639E-03     51.8712E-03    -25.9511E-03     29.5984E-03
             640     6.13868E-03     76.4978E-03    -11.4393E+06    -90.0768E+06    -7.33081E+06    -2.88258E+06    -26.3141E-03     52.3720E-03    -26.0580E-03     34.7315E-03    -26.2374E-03     51.9563E-03    -25.9474E-03     34.6678E-03
             641     7.01554E-03     76.5334E-03    -10.1321E+06    -88.0154E+06    -5.21989E+06    -3.37916E+06    -26.3814E-03     52.4398E-03    -26.0584E-03     39.7750E-03    -26.3079E-03     52.0331E-03    -25.9422E-03     39.6974E-03
             642     7.89273E-03     76.5733E-03    -8.81211E+06    -83.7772E+06    -5.16980E+06    -3.69690E+06    -26.4652E-03     52.5088E-03    -26.0436E-03     44.8752E-03    -26.3965E-03     52.1264E-03    -25.9352E-03     44.7846E-03
             643     8.76960E-03     76.6187E-03    -7.67863E+06    -80.7816E+06    -5.16949E+06    -2.74014E+06    -26.5876E-03     52.6184E-03    -26.0308E-03     49.8885E-03    -26.5250E-03     52.2568E-03    -25.9284E-03     49.7989E-03
             644     9.64663E-03     76.6681E-03    -7.12438E+06    -75.3228E+06    -7.65392E+06    -2.33047E+06    -26.7179E-03     52.7223E-03    -26.0043E-03     55.0604E-03    -26.6676E-03     52.4014E-03    -25.9231E-03     54.9624E-03
             645     10.5237E-03     76.7232E-03    -6.70153E+06    -69.6011E+06    -7.75149E+06    -2.38475E+06    -26.8362E-03     52.8261E-03    -25.9898E-03     60.2058E-03    -26.8074E-03     52.5488E-03    -25.9179E-03     60.0902E-03
             646     11.4008E-03     76.7823E-03    -6.02199E+06    -62.4163E+06    -9.31206E+06    -1.17639E+06    -26.9880E-03     52.9532E-03    -25.9652E-03     65.9569E-03    -26.9870E-03     52.7363E-03    -25.9126E-03     65.8368E-03
             647     12.2777E-03     76.8482E-03    -5.78431E+06    -44.0923E+06    -17.4436E+06    -1.31100E+06    -27.1961E-03     53.0876E-03    -25.8914E-03     73.8705E-03    -27.2472E-03     53.0122E-03    -25.9063E-03     73.7242E-03
             648     13.1549E-03     76.9225E-03    -6.39721E+06    -15.3790E+06    -18.6394E+06    -3.42056E+06    -27.3970E-03     53.2350E-03    -25.8381E-03     81.6952E-03    -27.5593E-03     53.3741E-03    -25.8997E-03     81.4895E-03
             649     14.0320E-03     77.0026E-03    -7.76968E+06     25.0467E+06    -22.0003E+06    -3.45442E+06    -28.0343E-03     53.7944E-03    -25.7601E-03     97.8230E-03    -28.4069E-03     54.2921E-03    -25.8951E-03     97.5861E-03
             650     14.9077E-03     77.1086E-03    -9.00289E+06     71.7745E+06    -16.9987E+06    -959.780E+03    -29.6774E-03     55.3902E-03    -25.7128E-03     135.777E-03    -30.7504E-03     56.7354E-03    -25.8888E-03     135.597E-03
             651     15.7869E-03     77.2597E-03    -8.12038E+06     120.887E+06     27.6044E+06    -182.854E+03    -34.0809E-03     59.9244E-03    -25.8435E-03     209.469E-03    -37.7151E-03     63.8788E-03    -25.8690E-03     210.062E-03
             652     16.6602E-03     77.5106E-03    -4.68260E+06     151.184E+06     74.8181E+06    -152.863E+03    -33.2183E-03     59.2185E-03    -26.0002E-03     210.355E-03    -37.8787E-03     64.1820E-03    -25.8386E-03     212.907E-03
             653     876.856E-06     77.3840E-03    -16.8940E+06    -100.119E+06    -16.5712E+06    -93.5400E+03    -26.0671E-03     52.1613E-03    -26.0942E-03     5.33802E-03    -25.9823E-03     51.7097E-03    -26.0074E-03     5.33405E-03
             654     1.75386E-03     77.3910E-03    -16.6386E+06    -100.278E+06    -15.6608E+06    -548.117E+03    -26.0775E-03     52.1542E-03    -26.0768E-03     9.89184E-03    -25.9929E-03     51.7001E-03    -25.9855E-03     9.87951E-03
             655     2.63075E-03     77.4027E-03    -15.9294E+06    -99.4245E+06    -14.1785E+06    -1.11074E+06    -26.1044E-03     52.1787E-03    -26.0743E-03     14.7341E-03    -26.0203E-03     51.7262E-03    -25.9779E-03     14.7115E-03
             656     3.50773E-03     77.4190E-03    -14.7662E+06    -97.3527E+06    -12.4266E+06    -1.65233E+06    -26.1501E-03     52.2244E-03    -26.0743E-03     19.6622E-03    -26.0665E-03     51.7789E-03    -25.9739E-03     19.6292E-03
             657     4.38458E-03     77.4401E-03    -13.8305E+06    -95.7297E+06    -10.7602E+06    -2.40637E+06    -26.1962E-03     52.2721E-03    -26.0758E-03     24.6421E-03    -26.1140E-03     51.8321E-03    -25.9708E-03     24.5953E-03
             658     5.26161E-03     77.4658E-03    -13.0819E+06    -93.5769E+06    -9.68354E+06    -3.03555E+06    -26.2453E-03     52.3177E-03    -26.0725E-03     29.6790E-03    -26.1658E-03     51.8877E-03    -25.9662E-03     29.6193E-03
             659     6.13848E-03     77.4965E-03    -12.2200E+06    -89.1424E+06    -9.34771E+06    -3.56118E+06    -26.3101E-03     52.3707E-03    -26.0606E-03     34.7715E-03    -26.2358E-03     51.9637E-03    -25.9603E-03     34.6990E-03
             660     7.01559E-03     77.5317E-03    -11.3584E+06    -86.8082E+06    -7.76972E+06    -4.07826E+06    -26.3959E-03     52.4538E-03    -26.0579E-03     39.8154E-03    -26.3266E-03     52.0585E-03    -25.9544E-03     39.7288E-03
             661     7.89238E-03     77.5720E-03    -10.8212E+06    -83.5157E+06    -7.10958E+06    -4.20712E+06    -26.4693E-03     52.5182E-03    -26.0489E-03     44.9108E-03    -26.4082E-03     52.1428E-03    -25.9476E-03     44.8136E-03
             662     8.76956E-03     77.6169E-03    -9.55608E+06    -81.0781E+06    -7.38176E+06    -4.41375E+06    -26.5610E-03     52.5946E-03    -26.0336E-03     49.9838E-03    -26.5041E-03     52.2374E-03    -25.9391E-03     49.8729E-03
             663     9.64660E-03     77.6668E-03    -7.26649E+06    -75.5314E+06    -8.34765E+06    -3.85122E+06    -26.7035E-03     52.7128E-03    -26.0093E-03     55.1052E-03    -26.6525E-03     52.3921E-03    -25.9310E-03     54.9877E-03
             664     10.5236E-03     77.7214E-03    -6.50738E+06    -70.5512E+06    -7.68150E+06    -2.40201E+06    -26.8351E-03     52.8329E-03    -25.9978E-03     60.1407E-03    -26.8040E-03     52.5506E-03    -25.9245E-03     60.0248E-03
             665     11.4006E-03     77.7810E-03    -6.70345E+06    -62.9118E+06    -9.93652E+06    -2.05819E+06    -26.9919E-03     52.9620E-03    -25.9701E-03     65.9026E-03    -26.9929E-03     52.7447E-03    -25.9189E-03     65.7708E-03
             666     12.2777E-03     77.8466E-03    -5.76431E+06    -42.2572E+06    -16.4903E+06    -3.05942E+06    -27.1533E-03     53.0519E-03    -25.8986E-03     73.6926E-03    -27.2080E-03     52.9839E-03    -25.9114E-03     73.5238E-03
             667     13.1550E-03     77.9207E-03    -5.13761E+06    -14.2491E+06    -15.6127E+06    -3.22990E+06    -27.4545E-03     53.3096E-03    -25.8551E-03     81.7954E-03    -27.6175E-03     53.4490E-03    -25.9051E-03     81.5912E-03
             668     14.0314E-03     78.0020E-03    -6.55698E+06     23.1324E+06    -16.5709E+06    -2.00863E+06    -27.9305E-03     53.7229E-03    -25.7924E-03     97.4910E-03    -28.3011E-03     54.2004E-03    -25.8993E-03     97.2733E-03
             669     14.9107E-03     78.1058E-03    -7.86529E+06     70.2417E+06    -14.4754E+06    -628.971E+03    -30.0391E-03     55.7766E-03    -25.7375E-03     135.602E-03    -31.1119E-03     57.1128E-03    -25.9004E-03     135.415E-03
             670     15.7852E-03     78.2606E-03    -7.54366E+06     120.869E+06     26.4692E+06     44.3926E+03    -35.1666E-03     61.0600E-03    -25.8933E-03     208.053E-03    -38.8200E-03     65.0388E-03    -25.9253E-03     208.608E-03
             671     16.6657E-03     78.5092E-03    -4.98532E+06     151.085E+06     74.8544E+06    -243.967E+03    -32.6992E-03     58.7823E-03    -26.0831E-03     208.405E-03    -37.3697E-03     63.7543E-03    -25.9206E-03     210.959E-03
             672     876.929E-06     78.3825E-03    -17.3159E+06    -99.8042E+06    -16.9579E+06    -104.449E+03    -26.0639E-03     52.1550E-03    -26.0911E-03     5.35363E-03    -25.9811E-03     51.7061E-03    -26.0061E-03     5.34949E-03
             673     1.75381E-03     78.3897E-03    -16.7683E+06    -99.2645E+06    -15.9301E+06    -578.345E+03    -26.1003E-03     52.1784E-03    -26.0780E-03     9.87813E-03    -26.0175E-03     51.7299E-03    -25.9894E-03     9.86535E-03
             674     2.63076E-03     78.4012E-03    -16.1580E+06    -98.1268E+06    -14.5735E+06    -1.39803E+06    -26.1300E-03     52.2126E-03    -26.0826E-03     14.7204E-03    -26.0484E-03     51.7675E-03    -25.9897E-03     14.6941E-03
             675     3.50760E-03     78.4177E-03    -15.3843E+06    -96.0190E+06    -13.1619E+06    -2.28580E+06    -26.1509E-03     52.2340E-03    -26.0831E-03     19.6776E-03    -26.0713E-03     51.7970E-03    -25.9873E-03     19.6365E-03
             676     4.38462E-03     78.4386E-03    -14.2542E+06    -94.4266E+06    -11.7257E+06    -2.84912E+06    -26.1889E-03     52.2694E-03    -26.0805E-03     24.6786E-03    -26.1093E-03     51.8379E-03    -25.9815E-03     24.6262E-03
             677     5.26148E-03     78.4644E-03    -13.2537E+06    -92.3722E+06    -10.3423E+06    -3.39090E+06    -26.2444E-03     52.3205E-03    -26.0762E-03     29.7198E-03    -26.1665E-03     51.8977E-03    -25.9747E-03     29.6555E-03
             678     6.13858E-03     78.4949E-03    -12.4831E+06    -87.8285E+06    -9.64878E+06    -4.02401E+06    -26.3122E-03     52.3773E-03    -26.0651E-03     34.8020E-03    -26.2407E-03     51.9776E-03    -25.9679E-03     34.7236E-03
             679     7.01541E-03     78.5304E-03    -11.7554E+06    -85.8489E+06    -8.21641E+06    -4.45400E+06    -26.3963E-03     52.4582E-03    -26.0619E-03     39.8390E-03    -26.3297E-03     52.0689E-03    -25.9615E-03     39.7476E-03
             680     7.89257E-03     78.5704E-03    -10.5824E+06    -82.7223E+06    -7.08520E+06    -4.83013E+06    -26.4891E-03     52.5441E-03    -26.0550E-03     44.9030E-03    -26.4281E-03     52.1724E-03    -25.9552E-03     44.7976E-03
             681     8.76949E-03     78.6155E-03    -9.35781E+06    -79.4656E+06    -6.94255E+06    -5.87859E+06    -26.5953E-03     52.6381E-03    -26.0428E-03     49.9378E-03    -26.5405E-03     52.2881E-03    -25.9488E-03     49.8076E-03
             682     9.64650E-03     78.6652E-03    -8.59194E+06    -77.0317E+06    -9.04025E+06    -5.69594E+06    -26.7047E-03     52.7255E-03    -26.0208E-03     55.0437E-03    -26.6571E-03     52.4002E-03    -25.9419E-03     54.9022E-03
             683     10.5235E-03     78.7201E-03    -7.67826E+06    -73.2715E+06    -9.07461E+06    -2.83843E+06    -26.8519E-03     52.8594E-03    -26.0075E-03     60.1227E-03    -26.8208E-03     52.5673E-03    -25.9355E-03     60.0010E-03
             684     11.4006E-03     78.7793E-03    -7.19112E+06    -60.7370E+06    -10.9585E+06    -2.53311E+06    -27.0021E-03     52.9761E-03    -25.9740E-03     65.8401E-03    -27.0071E-03     52.7718E-03    -25.9303E-03     65.7021E-03
             685     12.2776E-03     78.8452E-03    -7.13866E+06    -40.1592E+06    -16.9483E+06    -4.94334E+06    -27.2074E-03     53.1163E-03    -25.9089E-03     73.5684E-03    -27.2716E-03     53.0617E-03    -25.9251E-03     73.3748E-03
             686     13.1544E-03     78.9190E-03    -7.00944E+06    -16.6810E+06    -16.2080E+06    -4.09851E+06    -27.4083E-03     53.2803E-03    -25.8720E-03     81.9159E-03    -27.5761E-03     53.4110E-03    -25.9187E-03     81.7009E-03
             687     14.0320E-03     79.0010E-03    -7.06128E+06     20.9240E+06    -15.9555E+06    -931.954E+03    -28.0170E-03     53.8308E-03    -25.8138E-03     97.2364E-03    -28.3877E-03     54.2969E-03    -25.9137E-03     97.0309E-03
             688     14.9072E-03     79.1034E-03    -7.58279E+06     69.5563E+06    -14.3702E+06    -127.620E+03    -29.7891E-03     55.5338E-03    -25.7447E-03     136.927E-03    -30.8636E-03     56.8699E-03    -25.9064E-03     136.752E-03
             689     15.7844E-03     79.2626E-03    -6.60673E+06     121.221E+06     25.1654E+06    -146.367E+03    -34.8558E-03     60.7143E-03    -25.8585E-03     212.756E-03    -38.5740E-03     64.7662E-03    -25.8989E-03     213.341E-03
             690     16.6553E-03     79.5052E-03    -4.43287E+06     151.505E+06     74.6492E+06     46.1918E+03    -32.9460E-03     58.9789E-03    -26.0329E-03     210.512E-03    -37.6418E-03     63.9803E-03    -25.8729E-03     213.071E-03
             691     876.923E-06     79.3812E-03    -17.5744E+06    -99.0552E+06    -17.4599E+06    -576.659E+03    -26.1130E-03     52.1779E-03    -26.0649E-03     5.31627E-03    -26.0318E-03     51.7338E-03    -25.9831E-03     5.30605E-03
             692     1.75382E-03     79.3882E-03    -16.6420E+06    -98.2098E+06    -16.2430E+06    -1.04794E+06    -26.1140E-03     52.2028E-03    -26.0888E-03     9.86762E-03    -26.0317E-03     51.7598E-03    -26.0034E-03     9.84878E-03
             693     2.63065E-03     79.4000E-03    -15.8464E+06    -96.6062E+06    -14.5440E+06    -1.64160E+06    -26.1248E-03     52.2162E-03    -26.0914E-03     14.7395E-03    -26.0438E-03     51.7782E-03    -26.0011E-03     14.7100E-03
             694     3.50765E-03     79.4161E-03    -15.1791E+06    -94.2699E+06    -13.1144E+06    -2.53654E+06    -26.1438E-03     52.2314E-03    -26.0876E-03     19.6881E-03    -26.0658E-03     51.8029E-03    -25.9944E-03     19.6437E-03
             695     4.38453E-03     79.4372E-03    -14.4890E+06    -93.0325E+06    -11.9731E+06    -3.49576E+06    -26.1888E-03     52.2717E-03    -26.0829E-03     24.6836E-03    -26.1120E-03     51.8479E-03    -25.9868E-03     24.6228E-03
             696     5.26159E-03     79.4629E-03    -13.1401E+06    -90.8610E+06    -9.98753E+06    -4.26127E+06    -26.2615E-03     52.3432E-03    -26.0817E-03     29.7041E-03    -26.1858E-03     51.9273E-03    -25.9809E-03     29.6284E-03
             697     6.13840E-03     79.4935E-03    -11.8391E+06    -87.0642E+06    -8.46955E+06    -4.42068E+06    -26.3286E-03     52.4055E-03    -26.0769E-03     34.7571E-03    -26.2567E-03     52.0070E-03    -25.9758E-03     34.6734E-03
             698     7.01550E-03     79.5289E-03    -11.0799E+06    -84.5013E+06    -6.89924E+06    -4.67920E+06    -26.4069E-03     52.4813E-03    -26.0744E-03     39.7814E-03    -26.3409E-03     52.0959E-03    -25.9703E-03     39.6869E-03
             699     7.89235E-03     79.5690E-03    -10.2887E+06    -81.1850E+06    -6.74000E+06    -5.74116E+06    -26.5253E-03     52.5900E-03    -26.0647E-03     44.8493E-03    -26.4656E-03     52.2251E-03    -25.9658E-03     44.7319E-03
             700     8.76932E-03     79.6141E-03    -9.75358E+06    -77.9775E+06    -6.78646E+06    -6.21901E+06    -26.6336E-03     52.6894E-03    -26.0558E-03     49.8845E-03    -26.5833E-03     52.3473E-03    -25.9625E-03     49.7497E-03
             701     9.64627E-03     79.6637E-03    -9.78853E+06    -77.6832E+06    -8.74558E+06    -5.99899E+06    -26.7219E-03     52.7626E-03    -26.0407E-03     54.9604E-03    -26.6799E-03     52.4355E-03    -25.9576E-03     54.8147E-03
             702     10.5234E-03     79.7184E-03    -8.34918E+06    -75.6630E+06    -10.8491E+06    -5.40537E+06    -26.8404E-03     52.8584E-03    -26.0180E-03     60.1516E-03    -26.8066E-03     52.5578E-03    -25.9504E-03     59.9968E-03
             703     11.4003E-03     79.7781E-03    -5.49040E+06    -59.6709E+06    -11.2528E+06    -4.26361E+06    -27.0030E-03     52.9844E-03    -25.9814E-03     65.8981E-03    -27.0005E-03     52.7833E-03    -25.9432E-03     65.7379E-03
             704     12.2773E-03     79.8434E-03    -6.12512E+06    -38.7919E+06    -14.6216E+06    -3.54006E+06    -27.1867E-03     53.1145E-03    -25.9278E-03     73.7130E-03    -27.2512E-03     53.0620E-03    -25.9358E-03     73.5376E-03
             705     13.1544E-03     79.9180E-03    -9.31382E+06    -18.3872E+06    -17.3613E+06    -3.42803E+06    -27.3204E-03     53.1986E-03    -25.8782E-03     82.1632E-03    -27.4952E-03     53.3254E-03    -25.9248E-03     81.9577E-03
             706     14.0313E-03     79.9987E-03    -9.56582E+06     18.4473E+06    -20.2302E+06    -2.73973E+06    -27.7877E-03     53.5817E-03    -25.7940E-03     98.1891E-03    -28.1602E-03     54.0444E-03    -25.9080E-03     97.9637E-03
             707     14.9094E-03     80.1042E-03    -8.11838E+06     68.7583E+06    -16.6509E+06    -969.463E+03    -28.9267E-03     54.6238E-03    -25.6970E-03     136.999E-03    -29.9851E-03     55.9456E-03    -25.8682E-03     136.832E-03
             708     15.7901E-03     80.2565E-03    -6.36068E+06     120.854E+06     24.7607E+06    -358.511E+03    -33.1016E-03     58.8462E-03    -25.7447E-03     213.335E-03    -36.7527E-03     62.8317E-03    -25.7869E-03     213.980E-03
             709     16.6744E-03     80.5150E-03    -3.72142E+06     151.579E+06     74.0837E+06     131.721E+03    -33.6780E-03     59.5671E-03    -25.8892E-03     208.970E-03    -38.2547E-03     64.4541E-03    -25.7331E-03     211.456E-03
             710     876.837E-06     80.3797E-03    -17.1089E+06    -97.3593E+06    -17.0652E+06    -1.09185E+06    -26.1154E-03     52.2218E-03    -26.1064E-03     5.30616E-03    -26.0350E-03     51.7850E-03    -26.0257E-03     5.28931E-03
             711     1.75373E-03     80.3869E-03    -16.7664E+06    -96.8888E+06    -16.6678E+06    -1.69357E+06    -26.0940E-03     52.1936E-03    -26.0996E-03     9.88016E-03    -26.0136E-03     51.7581E-03    -26.0181E-03     9.85299E-03
             712     2.63074E-03     80.3985E-03    -16.0772E+06    -95.1988E+06    -15.4195E+06    -2.19415E+06    -26.1163E-03     52.2063E-03    -26.0900E-03     14.7524E-03    -26.0373E-03     51.7769E-03    -26.0057E-03     14.7158E-03
             713     3.50760E-03     80.4148E-03    -15.1076E+06    -92.3633E+06    -13.3526E+06    -2.94232E+06    -26.1617E-03     52.2499E-03    -26.0882E-03     19.6677E-03    -26.0857E-03     51.8311E-03    -25.9991E-03     19.6180E-03
             714     4.38458E-03     80.4357E-03    -14.0036E+06    -91.0773E+06    -11.1288E+06    -3.96734E+06    -26.2152E-03     52.3074E-03    -26.0922E-03     24.6432E-03    -26.1401E-03     51.8915E-03    -25.9955E-03     24.5762E-03
             715     5.26138E-03     80.4616E-03    -13.1521E+06    -89.0811E+06    -9.45452E+06    -4.98388E+06    -26.2670E-03     52.3593E-03    -26.0924E-03     29.6925E-03    -26.1947E-03     51.9515E-03    -25.9914E-03     29.6075E-03
             716     6.13844E-03     80.4921E-03    -12.0056E+06    -86.6107E+06    -8.59413E+06    -5.29205E+06    -26.3358E-03     52.4220E-03    -26.0862E-03     34.7523E-03    -26.2652E-03     52.0262E-03    -25.9861E-03     34.6573E-03
             717     7.01527E-03     80.5275E-03    -10.8857E+06    -83.7011E+06    -7.52519E+06    -4.88675E+06    -26.4299E-03     52.5106E-03    -26.0807E-03     39.8172E-03    -26.3632E-03     52.1299E-03    -25.9811E-03     39.7200E-03
             718     7.89229E-03     80.5676E-03    -11.0043E+06    -78.9275E+06    -7.39469E+06    -5.36727E+06    -26.5249E-03     52.5952E-03    -26.0703E-03     44.9142E-03    -26.4711E-03     52.2436E-03    -25.9769E-03     44.8018E-03
             719     8.76923E-03     80.6126E-03    -11.1142E+06    -77.0312E+06    -8.41266E+06    -6.39931E+06    -26.6229E-03     52.6811E-03    -26.0581E-03     49.9616E-03    -26.5784E-03     52.3480E-03    -25.9724E-03     49.8247E-03
             720     9.64621E-03     80.6623E-03    -9.78798E+06    -76.9482E+06    -10.1899E+06    -6.92028E+06    -26.7247E-03     52.7657E-03    -26.0410E-03     55.0714E-03    -26.6817E-03     52.4443E-03    -25.9662E-03     54.9139E-03
             721     10.5231E-03     80.7169E-03    -8.45960E+06    -74.8539E+06    -13.5914E+06    -7.95798E+06    -26.8138E-03     52.8235E-03    -26.0097E-03     60.3802E-03    -26.7776E-03     52.5309E-03    -25.9568E-03     60.1929E-03
             722     11.4004E-03     80.7764E-03    -7.90596E+06    -62.1724E+06    -17.3750E+06    -6.83323E+06    -26.9505E-03     52.9106E-03    -25.9601E-03     66.2433E-03    -26.9474E-03     52.7091E-03    -25.9453E-03     66.0508E-03
             723     12.2774E-03     80.8422E-03    -6.86431E+06    -40.6399E+06    -16.3866E+06    -3.20490E+06    -27.1598E-03     53.0811E-03    -25.9213E-03     73.8220E-03    -27.2228E-03     53.0230E-03    -25.9343E-03     73.6511E-03
             724     13.1547E-03     80.9159E-03    -5.92560E+06    -16.9847E+06    -15.9808E+06    -2.46082E+06    -27.2835E-03     53.1577E-03    -25.8742E-03     82.0223E-03    -27.4458E-03     53.2850E-03    -25.9209E-03     81.8292E-03
             725     14.0321E-03     80.9978E-03    -7.56601E+06     17.5498E+06    -22.6745E+06    -3.18376E+06    -27.5202E-03     53.2880E-03    -25.7677E-03     97.4209E-03    -27.8737E-03     53.7427E-03    -25.8956E-03     97.1930E-03
             726     14.9101E-03     81.1003E-03    -8.98669E+06     66.7804E+06    -19.7918E+06    -2.06643E+06    -29.2175E-03     54.8968E-03    -25.6792E-03     134.800E-03    -30.2679E-03     56.2097E-03    -25.8620E-03     134.610E-03
             727     15.7854E-03     81.2548E-03    -8.18199E+06     119.093E+06     23.0759E+06    -415.575E+03    -33.6190E-03     59.3976E-03    -25.7786E-03     208.024E-03    -37.2317E-03     63.3371E-03    -25.8241E-03     208.641E-03
             728     16.6617E-03     81.5020E-03    -4.07386E+06     151.391E+06     73.7874E+06     197.918E+03    -33.2403E-03     59.1922E-03    -25.9519E-03     207.014E-03    -37.8356E-03     64.0968E-03    -25.7966E-03     209.526E-03
             729     876.867E-06     81.3785E-03    -16.9287E+06    -95.2391E+06    -16.6609E+06    -1.09707E+06    -26.0720E-03     52.1976E-03    -26.1256E-03     5.33228E-03    -25.9943E-03     51.7705E-03    -26.0463E-03     5.31533E-03
             730     1.75381E-03     81.3854E-03    -16.9443E+06    -95.1505E+06    -16.7880E+06    -1.84796E+06    -26.1132E-03     52.2063E-03    -26.0931E-03     9.88570E-03    -26.0360E-03     51.7799E-03    -26.0145E-03     9.85652E-03
             731     2.63065E-03     81.3972E-03    -16.7311E+06    -93.4574E+06    -16.0135E+06    -2.67908E+06    -26.1367E-03     52.2282E-03    -26.0915E-03     14.7338E-03    -26.0625E-03     51.8094E-03    -26.0118E-03     14.6910E-03
             732     3.50760E-03     81.4134E-03    -16.0490E+06    -90.4089E+06    -14.3813E+06    -3.57930E+06    -26.1687E-03     52.2600E-03    -26.0914E-03     19.6647E-03    -26.0987E-03     51.8539E-03    -26.0089E-03     19.6068E-03
             733     4.38440E-03     81.4345E-03    -15.1390E+06    -88.9749E+06    -12.0484E+06    -4.49835E+06    -26.2122E-03     52.3080E-03    -26.0958E-03     24.6710E-03    -26.1445E-03     51.9056E-03    -26.0051E-03     24.5971E-03
             734     5.26144E-03     81.4601E-03    -13.9976E+06    -87.0485E+06    -10.2161E+06    -5.42016E+06    -26.2600E-03     52.3551E-03    -26.0951E-03     29.7249E-03    -26.1938E-03     51.9598E-03    -25.9997E-03     29.6343E-03
             735     6.13831E-03     81.4907E-03    -12.8402E+06    -85.4227E+06    -9.45293E+06    -6.24465E+06    -26.3350E-03     52.4236E-03    -26.0886E-03     34.7999E-03    -26.2691E-03     52.0362E-03    -25.9934E-03     34.6927E-03
             736     7.01533E-03     81.5260E-03    -11.0549E+06    -83.6271E+06    -8.76137E+06    -6.29304E+06    -26.4224E-03     52.5030E-03    -26.0806E-03     39.8835E-03    -26.3548E-03     52.1246E-03    -25.9871E-03     39.7683E-03
             737     7.89224E-03     81.5662E-03    -8.70767E+06    -77.7059E+06    -7.27644E+06    -5.70936E+06    -26.5008E-03     52.5694E-03    -26.0687E-03     44.9854E-03    -26.4373E-03     52.2204E-03    -25.9798E-03     44.8687E-03
             738     8.76923E-03     81.6112E-03    -7.76826E+06    -75.1649E+06    -6.47220E+06    -6.16577E+06    -26.5866E-03     52.6452E-03    -26.0586E-03     50.0360E-03    -26.5307E-03     52.3137E-03    -25.9707E-03     49.9023E-03
             739     9.64624E-03     81.6608E-03    -8.12375E+06    -74.8904E+06    -9.09905E+06    -7.82928E+06    -26.6896E-03     52.7250E-03    -26.0354E-03     55.1642E-03    -26.6428E-03     52.4099E-03    -25.9605E-03     54.9952E-03
             740     10.5235E-03     81.7153E-03    -8.29074E+06    -73.1419E+06    -12.6562E+06    -8.82259E+06    -26.8079E-03     52.8124E-03    -26.0045E-03     60.3920E-03    -26.7747E-03     52.5269E-03    -25.9497E-03     60.1935E-03
             741     11.4004E-03     81.7749E-03    -8.16291E+06    -64.6678E+06    -18.7940E+06    -8.07364E+06    -26.9381E-03     52.8878E-03    -25.9497E-03     66.2489E-03    -26.9305E-03     52.6762E-03    -25.9381E-03     66.0406E-03
             742     12.2777E-03     81.8405E-03    -7.12563E+06    -43.6984E+06    -19.4117E+06    -6.06315E+06    -27.1830E-03     53.0870E-03    -25.9040E-03     73.9457E-03    -27.2387E-03     53.0186E-03    -25.9274E-03     73.7379E-03
             743     13.1543E-03     81.9148E-03    -6.19277E+06    -17.4105E+06    -15.7246E+06    -3.60874E+06    -27.3595E-03     53.2327E-03    -25.8732E-03     81.8697E-03    -27.5228E-03     53.3578E-03    -25.9176E-03     81.6614E-03
             744     14.0316E-03     81.9953E-03    -6.28626E+06     17.5081E+06    -19.1547E+06    -1.83401E+06    -27.7559E-03     53.5468E-03    -25.7909E-03     97.0101E-03    -28.1092E-03     53.9955E-03    -25.9030E-03     96.7971E-03
             745     14.9084E-03     82.0991E-03    -6.81975E+06     65.2132E+06    -20.7572E+06    -1.46983E+06    -29.6419E-03     55.3393E-03    -25.6974E-03     135.836E-03    -30.6868E-03     56.6517E-03    -25.8859E-03     135.649E-03
             746     15.7863E-03     82.2542E-03    -6.99418E+06     118.241E+06     20.5145E+06    -672.672E+03    -35.0159E-03     60.8415E-03    -25.8256E-03     211.147E-03    -38.6867E-03     64.8478E-03    -25.8844E-03     211.725E-03
             747     16.6620E-03     82.5035E-03    -4.32978E+06     151.559E+06     74.2170E+06    -6.16146E+03    -33.2188E-03     59.2482E-03    -26.0294E-03     211.546E-03    -37.9452E-03     64.2821E-03    -25.8718E-03     214.145E-03
             748     876.969E-06     82.3770E-03    -17.1602E+06    -93.2477E+06    -16.9926E+06    -858.473E+03    -26.0847E-03     52.1629E-03    -26.0782E-03     5.33423E-03    -26.0106E-03     51.7467E-03    -26.0031E-03     5.32034E-03
             749     1.75377E-03     82.3842E-03    -16.9017E+06    -92.9479E+06    -16.5912E+06    -1.90265E+06    -26.1461E-03     52.2335E-03    -26.0874E-03     9.87417E-03    -26.0722E-03     51.8177E-03    -26.0110E-03     9.84429E-03
             750     2.63065E-03     82.3957E-03    -16.3234E+06    -91.3591E+06    -15.1992E+06    -2.97948E+06    -26.1539E-03     52.2541E-03    -26.1003E-03     14.7313E-03    -26.0819E-03     51.8440E-03    -26.0201E-03     14.6846E-03
             751     3.50749E-03     82.4121E-03    -15.7198E+06    -88.3758E+06    -13.7863E+06    -3.85885E+06    -26.1509E-03     52.2491E-03    -26.0982E-03     19.6918E-03    -26.0831E-03     51.8517E-03    -26.0162E-03     19.6303E-03
             752     4.38454E-03     82.4330E-03    -14.9618E+06    -86.6187E+06    -12.0631E+06    -4.93878E+06    -26.1941E-03     52.2887E-03    -26.0946E-03     24.7118E-03    -26.1289E-03     51.8978E-03    -26.0076E-03     24.6323E-03
             753     5.26136E-03     82.4588E-03    -13.7509E+06    -84.7087E+06    -10.2503E+06    -6.25342E+06    -26.2666E-03     52.3591E-03    -26.0924E-03     29.7557E-03    -26.2025E-03     51.9751E-03    -26.0009E-03     29.6543E-03
             754     6.13835E-03     82.4893E-03    -12.2111E+06    -83.6132E+06    -8.66792E+06    -7.18468E+06    -26.3316E-03     52.4220E-03    -26.0905E-03     34.8304E-03    -26.2662E-03     52.0416E-03    -25.9949E-03     34.7111E-03
             755     7.01525E-03     82.5247E-03    -10.9002E+06    -82.5322E+06    -8.18033E+06    -7.90493E+06    -26.3905E-03     52.4715E-03    -26.0810E-03     39.9176E-03    -26.3246E-03     52.0976E-03    -25.9864E-03     39.7817E-03
             756     7.89230E-03     82.5647E-03    -9.46978E+06    -77.7378E+06    -8.62057E+06    -7.89420E+06    -26.4567E-03     52.5151E-03    -26.0584E-03     45.0433E-03    -26.3950E-03     52.1689E-03    -25.9751E-03     44.8986E-03
             757     8.76936E-03     82.6098E-03    -7.43379E+06    -73.9904E+06    -5.75522E+06    -7.15318E+06    -26.5540E-03     52.6060E-03    -26.0521E-03     50.0322E-03    -26.4992E-03     52.2789E-03    -25.9628E-03     49.8858E-03
             758     9.64650E-03     82.6592E-03    -5.85012E+06    -71.7978E+06    -5.46995E+06    -7.97343E+06    -26.6855E-03     52.7224E-03    -26.0369E-03     55.0750E-03    -26.6372E-03     52.4143E-03    -25.9517E-03     54.9040E-03
             759     10.5233E-03     82.7140E-03    -5.28808E+06    -72.0326E+06    -9.94851E+06    -9.19010E+06    -26.8224E-03     52.8265E-03    -26.0042E-03     60.2955E-03    -26.7798E-03     52.5383E-03    -25.9418E-03     60.0920E-03
             760     11.4005E-03     82.7732E-03    -5.43110E+06    -65.5699E+06    -16.9198E+06    -8.71011E+06    -26.9603E-03     52.9102E-03    -25.9499E-03     66.2026E-03    -26.9405E-03     52.6875E-03    -25.9316E-03     65.9857E-03
             761     12.2775E-03     82.8391E-03    -6.79495E+06    -46.1668E+06    -19.3116E+06    -6.77063E+06    -27.1290E-03     53.0288E-03    -25.8998E-03     74.0682E-03    -27.1794E-03     52.9472E-03    -25.9195E-03     73.8517E-03
             762     13.1550E-03     82.9133E-03    -7.96630E+06    -19.5150E+06    -16.4865E+06    -4.39471E+06    -27.3239E-03     53.1881E-03    -25.8642E-03     82.0936E-03    -27.4916E-03     53.3060E-03    -25.9068E-03     81.8758E-03
             763     14.0317E-03     82.9941E-03    -7.39715E+06     16.4114E+06    -20.1522E+06    -3.14759E+06    -27.8917E-03     53.6728E-03    -25.7812E-03     97.4981E-03    -28.2499E-03     54.1215E-03    -25.8950E-03     97.2669E-03
             764     14.9095E-03     83.0972E-03    -7.60363E+06     64.5978E+06    -20.0117E+06    -1.68516E+06    -29.6890E-03     55.3892E-03    -25.7001E-03     136.136E-03    -30.7367E-03     56.6972E-03    -25.8828E-03     135.944E-03
             765     15.7868E-03     83.2526E-03    -8.18370E+06     117.935E+06     20.9745E+06    -677.693E+03    -34.3323E-03     60.1419E-03    -25.8096E-03     211.180E-03    -37.9899E-03     64.1283E-03    -25.8639E-03     211.773E-03
             766     16.6651E-03     83.5044E-03    -4.83112E+06     150.443E+06     71.9472E+06    -360.992E+03    -32.8560E-03     58.8319E-03    -25.9759E-03     209.508E-03    -37.5008E-03     63.7849E-03    -25.8273E-03     212.064E-03
             767     876.860E-06     83.3757E-03    -17.0223E+06    -91.5158E+06    -17.0221E+06    -613.749E+03    -26.1129E-03     52.1885E-03    -26.0756E-03     5.34455E-03    -26.0406E-03     51.7807E-03    -26.0033E-03     5.33388E-03
             768     1.75378E-03     83.3828E-03    -17.0106E+06    -90.2106E+06    -16.5342E+06    -2.01481E+06    -26.1234E-03     52.2157E-03    -26.0923E-03     9.89741E-03    -26.0541E-03     51.8137E-03    -26.0195E-03     9.86608E-03
             769     2.63061E-03     83.3945E-03    -16.5968E+06    -89.1024E+06    -15.3948E+06    -3.29857E+06    -26.1315E-03     52.2269E-03    -26.0954E-03     14.7442E-03    -26.0639E-03     51.8287E-03    -26.0191E-03     14.6933E-03
             770     3.50759E-03     83.4107E-03    -15.6285E+06    -85.9800E+06    -14.1478E+06    -4.42512E+06    -26.1504E-03     52.2399E-03    -26.0895E-03     19.7100E-03    -26.0851E-03     51.8549E-03    -26.0129E-03     19.6412E-03
             771     4.38443E-03     83.4317E-03    -14.1754E+06    -83.9318E+06    -11.8256E+06    -5.76325E+06    -26.1913E-03     52.2794E-03    -26.0881E-03     24.7279E-03    -26.1264E-03     51.9005E-03    -26.0050E-03     24.6378E-03
             772     5.26145E-03     83.4574E-03    -13.0920E+06    -82.3344E+06    -9.97915E+06    -6.76483E+06    -26.2400E-03     52.3250E-03    -26.0850E-03     29.7881E-03    -26.1764E-03     51.9516E-03    -25.9965E-03     29.6802E-03
             773     6.13832E-03     83.4880E-03    -12.5522E+06    -81.3232E+06    -8.84093E+06    -7.81274E+06    -26.2978E-03     52.3767E-03    -26.0789E-03     34.8909E-03    -26.2372E-03     52.0085E-03    -25.9870E-03     34.7636E-03
             774     7.01538E-03     83.5232E-03    -11.8614E+06    -80.7217E+06    -8.60641E+06    -8.61534E+06    -26.3604E-03     52.4277E-03    -26.0673E-03     39.9727E-03    -26.3012E-03     52.0648E-03    -25.9761E-03     39.8277E-03
             775     7.89238E-03     83.5633E-03    -11.2762E+06    -76.8698E+06    -10.2638E+06    -9.05339E+06    -26.4230E-03     52.4626E-03    -26.0396E-03     45.0847E-03    -26.3692E-03     52.1257E-03    -25.9631E-03     44.9252E-03
             776     8.76942E-03     83.6082E-03    -9.98061E+06    -73.0845E+06    -10.7951E+06    -9.75601E+06    -26.5293E-03     52.5453E-03    -26.0160E-03     50.1776E-03    -26.4811E-03     52.2336E-03    -25.9496E-03     49.9979E-03
             777     9.64630E-03     83.6579E-03    -8.45895E+06    -70.6776E+06    -10.4792E+06    -9.27503E+06    -26.6668E-03     52.6672E-03    -26.0004E-03     55.2461E-03    -26.6258E-03     52.3756E-03    -25.9380E-03     55.0586E-03
             778     10.5236E-03     83.7122E-03    -8.88052E+06    -70.3633E+06    -12.0748E+06    -8.99161E+06    -26.7942E-03     52.7767E-03    -25.9825E-03     60.4336E-03    -26.7688E-03     52.5050E-03    -25.9280E-03     60.2331E-03
             779     11.4006E-03     83.7718E-03    -9.53057E+06    -65.3307E+06    -18.4001E+06    -9.73020E+06    -26.9323E-03     52.8665E-03    -25.9342E-03     66.3542E-03    -26.9313E-03     52.6531E-03    -25.9176E-03     66.1245E-03
             780     12.2778E-03     83.8373E-03    -7.76346E+06    -48.8586E+06    -21.6872E+06    -8.46510E+06    -27.0794E-03     52.9572E-03    -25.8778E-03     74.2078E-03    -27.1270E-03     52.8667E-03    -25.9042E-03     73.9700E-03
             781     13.1548E-03     83.9117E-03    -5.50089E+06    -21.9413E+06    -17.8708E+06    -5.60602E+06    -27.2363E-03     53.0736E-03    -25.8373E-03     82.2417E-03    -27.3856E-03     53.1773E-03    -25.8869E-03     82.0093E-03
             782     14.0325E-03     83.9924E-03    -6.08324E+06     15.3724E+06    -20.6471E+06    -3.36137E+06    -27.9156E-03     53.6719E-03    -25.7563E-03     97.5690E-03    -28.2645E-03     54.1137E-03    -25.8730E-03     97.3348E-03
             783     14.9088E-03     84.0961E-03    -8.68274E+06     63.0835E+06    -22.3193E+06    -1.30099E+06    -29.7672E-03     55.4407E-03    -25.6735E-03     136.467E-03    -30.8164E-03     56.7477E-03    -25.8640E-03     136.280E-03
             784     15.7852E-03     84.2513E-03    -7.80450E+06     117.158E+06     18.3331E+06    -187.921E+03    -33.8903E-03     59.6570E-03    -25.7667E-03     211.886E-03    -37.5441E-03     63.6458E-03    -25.8336E-03     212.516E-03
             785     16.6634E-03     84.5000E-03    -4.14262E+06     150.540E+06     70.2866E+06    -619.156E+03    -32.9969E-03     58.9225E-03    -25.9256E-03     210.365E-03    -37.6625E-03     63.9040E-03    -25.7864E-03     212.931E-03
             786     876.886E-06     84.3744E-03    -17.5912E+06    -89.5457E+06    -17.9131E+06    -1.07707E+06    -26.0862E-03     52.1944E-03    -26.1081E-03     5.37363E-03    -26.0183E-03     51.7986E-03    -26.0423E-03     5.35701E-03
             787     1.75373E-03     84.3816E-03    -17.0017E+06    -87.4687E+06    -16.5752E+06    -2.21303E+06    -26.0819E-03     52.1691E-03    -26.0872E-03     9.92269E-03    -26.0164E-03     51.7808E-03    -26.0186E-03     9.88882E-03
             788     2.63073E-03     84.3931E-03    -16.4050E+06    -86.2907E+06    -15.2176E+06    -3.57281E+06    -26.1087E-03     52.1891E-03    -26.0804E-03     14.7507E-03    -26.0445E-03     51.8045E-03    -26.0076E-03     14.6963E-03
             789     3.50756E-03     84.4094E-03    -15.6477E+06    -82.9638E+06    -14.6571E+06    -5.24671E+06    -26.1456E-03     52.2167E-03    -26.0711E-03     19.7382E-03    -26.0841E-03     51.8476E-03    -26.0014E-03     19.6588E-03
             790     4.38453E-03     84.4303E-03    -14.9201E+06    -81.1848E+06    -12.6331E+06    -6.55895E+06    -26.1693E-03     52.2397E-03    -26.0704E-03     24.7748E-03    -26.1108E-03     51.8768E-03    -25.9943E-03     24.6746E-03
             791     5.26143E-03     84.4560E-03    -13.8705E+06    -80.3215E+06    -10.4784E+06    -7.33573E+06    -26.1963E-03     52.2636E-03    -26.0673E-03     29.8251E-03    -26.1388E-03     51.9021E-03    -25.9832E-03     29.7100E-03
             792     6.13856E-03     84.4865E-03    -12.4689E+06    -78.4938E+06    -8.80060E+06    -8.26438E+06    -26.2568E-03     52.3148E-03    -26.0580E-03     34.9090E-03    -26.1999E-03     51.9605E-03    -25.9701E-03     34.7760E-03
             793     7.01549E-03     84.5218E-03    -11.1495E+06    -78.8048E+06    -8.99097E+06    -9.38948E+06    -26.3339E-03     52.3766E-03    -26.0427E-03     39.9587E-03    -26.2734E-03     52.0228E-03    -25.9572E-03     39.8038E-03
             794     7.89255E-03     84.5617E-03    -9.82978E+06    -75.2722E+06    -9.90633E+06    -9.89479E+06    -26.4010E-03     52.4181E-03    -26.0172E-03     45.1114E-03    -26.3427E-03     52.0865E-03    -25.9433E-03     44.9412E-03
             795     8.76965E-03     84.6067E-03    -9.66974E+06    -70.8599E+06    -10.9940E+06    -10.5861E+06    -26.4994E-03     52.4902E-03    -25.9907E-03     50.2411E-03    -26.4526E-03     52.1893E-03    -25.9289E-03     50.0509E-03
             796     9.64696E-03     84.6563E-03    -9.74262E+06    -71.3712E+06    -12.4174E+06    -10.5016E+06    -26.6363E-03     52.6085E-03    -25.9721E-03     55.2534E-03    -26.5978E-03     52.3180E-03    -25.9166E-03     55.0503E-03
             797     10.5237E-03     84.7108E-03    -8.54349E+06    -69.7427E+06    -10.9681E+06    -9.18758E+06    -26.7490E-03     52.7131E-03    -25.9641E-03     60.4039E-03    -26.7244E-03     52.4424E-03    -25.9054E-03     60.2011E-03
             798     11.4010E-03     84.7701E-03    -8.31195E+06    -62.6861E+06    -16.2815E+06    -9.92586E+06    -26.8973E-03     52.8126E-03    -25.9153E-03     66.3867E-03    -26.8970E-03     52.6075E-03    -25.8938E-03     66.1546E-03
             799     12.2780E-03     84.8357E-03    -9.33168E+06    -50.0074E+06    -25.3836E+06    -11.1254E+06    -27.1131E-03     52.9542E-03    -25.8411E-03     74.1687E-03    -27.1616E-03     52.8657E-03    -25.8820E-03     73.8965E-03
             800     13.1556E-03     84.9098E-03    -9.02487E+06    -26.2908E+06    -22.9878E+06    -8.47107E+06    -27.2674E-03     53.0723E-03    -25.8050E-03     82.2163E-03    -27.4206E-03     53.1668E-03    -25.8687E-03     81.9467E-03
             801     14.0322E-03     84.9911E-03    -7.62956E+06     12.1783E+06    -22.2561E+06    -3.74357E+06    -27.8496E-03     53.5866E-03    -25.7370E-03     97.8218E-03    -28.2000E-03     54.0177E-03    -25.8549E-03     97.5831E-03
             802     14.9100E-03     85.0948E-03    -6.77307E+06     61.7710E+06    -25.0384E+06    -1.14027E+06    -29.5949E-03     55.2301E-03    -25.6352E-03     136.153E-03    -30.6290E-03     56.5320E-03    -25.8401E-03     135.971E-03
             803     15.7890E-03     85.2493E-03    -5.58430E+06     116.811E+06     15.3735E+06    -965.851E+03    -33.9340E-03     59.6638E-03    -25.7298E-03     209.638E-03    -37.5375E-03     63.6175E-03    -25.8142E-03     210.240E-03
             804     16.6682E-03     85.4986E-03    -3.84041E+06     150.349E+06     69.8304E+06    -605.501E+03    -33.3943E-03     59.3205E-03    -25.9263E-03     209.636E-03    -38.0563E-03     64.3002E-03    -25.7896E-03     212.186E-03
             805     876.833E-06     85.3731E-03    -17.5184E+06    -86.3937E+06    -17.9063E+06    -2.01475E+06    -26.0640E-03     52.1488E-03    -26.0848E-03     5.37069E-03    -26.0003E-03     51.7686E-03    -26.0236E-03     5.34189E-03
             806     1.75385E-03     85.3801E-03    -16.8405E+06    -84.7573E+06    -17.0486E+06    -3.10876E+06    -26.0697E-03     52.1337E-03    -26.0640E-03     9.92706E-03    -26.0066E-03     51.7595E-03    -26.0020E-03     9.88165E-03
             807     2.63068E-03     85.3918E-03    -15.5828E+06    -83.0743E+06    -15.0207E+06    -4.37739E+06    -26.0928E-03     52.1534E-03    -26.0606E-03     14.7667E-03    -26.0294E-03     51.7833E-03    -25.9927E-03     14.7020E-03
             808     3.50768E-03     85.4080E-03    -14.6859E+06    -79.8294E+06    -13.1204E+06    -5.62353E+06    -26.1087E-03     52.1644E-03    -26.0557E-03     19.7414E-03    -26.0491E-03     51.8073E-03    -25.9842E-03     19.6572E-03
             809     4.38460E-03     85.4289E-03    -14.0172E+06    -78.4046E+06    -10.8724E+06    -6.77470E+06    -26.1339E-03     52.1872E-03    -26.0533E-03     24.7662E-03    -26.0775E-03     51.8342E-03    -25.9736E-03     24.6633E-03
             810     5.26166E-03     85.4546E-03    -13.0542E+06    -77.7520E+06    -9.53568E+06    -8.07694E+06    -26.1814E-03     52.2273E-03    -26.0459E-03     29.8175E-03    -26.1249E-03     51.8761E-03    -25.9619E-03     29.6929E-03
             811     6.13855E-03     85.4850E-03    -11.7214E+06    -75.7613E+06    -8.54228E+06    -9.34512E+06    -26.2284E-03     52.2616E-03    -26.0332E-03     34.9163E-03    -26.1721E-03     51.9195E-03    -25.9490E-03     34.7694E-03
             812     7.01567E-03     85.5203E-03    -10.3702E+06    -76.2714E+06    -7.99059E+06    -10.4093E+06    -26.3013E-03     52.3221E-03    -26.0208E-03     39.9454E-03    -26.2420E-03     51.9784E-03    -25.9351E-03     39.7774E-03
             813     7.89275E-03     85.5601E-03    -9.20963E+06    -73.5905E+06    -8.02330E+06    -11.2579E+06    -26.3993E-03     52.4012E-03    -26.0019E-03     45.0667E-03    -26.3431E-03     52.0743E-03    -25.9220E-03     44.8788E-03
             814     8.76986E-03     85.6051E-03    -7.77370E+06    -69.6644E+06    -7.81189E+06    -10.8967E+06    -26.4915E-03     52.4742E-03    -25.9826E-03     50.1490E-03    -26.4416E-03     52.1720E-03    -25.9094E-03     49.9547E-03
             815     9.64668E-03     85.6547E-03    -7.32396E+06    -70.5776E+06    -10.0176E+06    -10.7011E+06    -26.5950E-03     52.5542E-03    -25.9593E-03     55.2083E-03    -26.5489E-03     52.2607E-03    -25.8964E-03     55.0028E-03
             816     10.5241E-03     85.7091E-03    -7.03550E+06    -69.6852E+06    -11.1661E+06    -11.0643E+06    -26.7427E-03     52.6825E-03    -25.9398E-03     60.3782E-03    -26.7103E-03     52.4101E-03    -25.8844E-03     60.1511E-03
             817     11.4012E-03     85.7684E-03    -6.47093E+06    -61.5864E+06    -13.1358E+06    -9.78086E+06    -26.9384E-03     52.8470E-03    -25.9085E-03     66.1898E-03    -26.9353E-03     52.6403E-03    -25.8755E-03     65.9592E-03
             818     12.2784E-03     85.8341E-03    -8.35521E+06    -48.2363E+06    -20.1752E+06    -9.53805E+06    -27.1881E-03     53.0392E-03    -25.8511E-03     73.8531E-03    -27.2423E-03     52.9509E-03    -25.8699E-03     73.6004E-03
             819     13.1550E-03     85.9081E-03    -10.8506E+06    -29.0289E+06    -23.9057E+06    -9.93501E+06    -27.3789E-03     53.1820E-03    -25.8031E-03     81.8709E-03    -27.5369E-03     53.2677E-03    -25.8648E-03     81.5809E-03
             820     14.0329E-03     85.9892E-03    -10.4685E+06     6.58374E+06    -26.2878E+06    -6.99819E+06    -27.9486E-03     53.6821E-03    -25.7335E-03     97.3276E-03    -28.2986E-03     54.0946E-03    -25.8593E-03     97.0463E-03
             821     14.9098E-03     86.0932E-03    -8.37964E+06     59.7773E+06    -25.0897E+06    -3.93472E+06    -29.7226E-03     55.3770E-03    -25.6544E-03     135.049E-03    -30.7581E-03     56.6677E-03    -25.8544E-03     134.826E-03
             822     15.7850E-03     86.2474E-03    -6.87644E+06     116.057E+06     14.2617E+06    -1.88313E+06    -34.4610E-03     60.2229E-03    -25.7619E-03     209.054E-03    -38.0632E-03     64.1713E-03    -25.8489E-03     209.612E-03
             823     16.6597E-03     86.4950E-03    -4.03749E+06     149.277E+06     67.3018E+06     10.7489E+03    -32.9343E-03     58.8833E-03    -25.9491E-03     210.642E-03    -37.5923E-03     63.8618E-03    -25.8232E-03     213.214E-03
             824     876.984E-06     86.3717E-03    -15.2357E+06    -82.1884E+06    -15.7053E+06    -2.36093E+06    -26.0657E-03     52.1040E-03    -26.0383E-03     5.36874E-03    -25.9999E-03     51.7384E-03    -25.9756E-03     5.33540E-03
             825     1.75378E-03     86.3788E-03    -15.4381E+06    -81.2556E+06    -15.8487E+06    -3.83718E+06    -26.0674E-03     52.1104E-03    -26.0431E-03     9.90292E-03    -26.0041E-03     51.7499E-03    -25.9821E-03     9.84811E-03
             826     2.63080E-03     86.3904E-03    -15.2208E+06    -79.7709E+06    -14.6870E+06    -5.23771E+06    -26.0572E-03     52.0964E-03    -26.0392E-03     14.7738E-03    -25.9973E-03     51.7418E-03    -25.9749E-03     14.6980E-03
             827     3.50770E-03     86.4066E-03    -14.3408E+06    -77.1049E+06    -12.6948E+06    -6.15601E+06    -26.0690E-03     52.1003E-03    -26.0313E-03     19.7336E-03    -26.0122E-03     51.7557E-03    -25.9622E-03     19.6426E-03
             828     4.38475E-03     86.4275E-03    -13.1948E+06    -75.4796E+06    -10.1529E+06    -7.12374E+06    -26.1003E-03     52.1271E-03    -26.0268E-03     24.7548E-03    -26.0451E-03     51.7866E-03    -25.9490E-03     24.6473E-03
             829     5.26168E-03     86.4531E-03    -12.3489E+06    -74.7148E+06    -8.66826E+06    -8.33191E+06    -26.1447E-03     52.1634E-03    -26.0187E-03     29.8209E-03    -26.0903E-03     51.8250E-03    -25.9358E-03     29.6931E-03
             830     6.13881E-03     86.4835E-03    -12.0339E+06    -72.6405E+06    -8.57647E+06    -9.75406E+06    -26.1990E-03     52.2013E-03    -26.0023E-03     34.9284E-03    -26.1487E-03     51.8753E-03    -25.9224E-03     34.7764E-03
             831     7.01585E-03     86.5186E-03    -11.5348E+06    -73.4114E+06    -8.62631E+06    -11.2469E+06    -26.2931E-03     52.2835E-03    -25.9904E-03     39.9652E-03    -26.2428E-03     51.9566E-03    -25.9103E-03     39.7865E-03
             832     7.89287E-03     86.5586E-03    -10.6371E+06    -71.4034E+06     -8.9438E+06    -12.2614E+06    -26.3810E-03     52.3547E-03    -25.9737E-03     45.1053E-03    -26.3338E-03     52.0422E-03    -25.8995E-03     44.9046E-03
             833     8.76985E-03     86.6035E-03    -9.89214E+06    -69.3616E+06    -9.75936E+06    -12.3860E+06    -26.4459E-03     52.3988E-03    -25.9529E-03     50.2393E-03    -26.4040E-03     52.1039E-03    -25.8868E-03     50.0261E-03
             834     9.64734E-03     86.6530E-03    -8.64414E+06    -69.5353E+06    -10.9167E+06    -11.6833E+06    -26.5834E-03     52.5158E-03    -25.9324E-03     55.2911E-03    -26.5440E-03     52.2306E-03    -25.8737E-03     55.0731E-03
             835     10.5242E-03     86.7074E-03    -8.50432E+06    -68.5886E+06    -12.1624E+06    -11.3326E+06    -26.7950E-03     52.7115E-03    -25.9165E-03     60.4293E-03    -26.7701E-03     52.4482E-03    -25.8655E-03     60.1987E-03
             836     11.4012E-03     86.7669E-03     -8.8084E+06    -62.5910E+06    -15.6301E+06    -10.9886E+06    -26.9886E-03     52.8765E-03    -25.8879E-03     66.2784E-03    -26.9921E-03     52.6719E-03    -25.8625E-03     66.0320E-03
             837     12.2780E-03     86.8325E-03    -6.82708E+06    -46.9997E+06    -18.3168E+06    -10.0691E+06    -27.2347E-03     53.0821E-03    -25.8474E-03     74.1003E-03    -27.2859E-03     52.9954E-03    -25.8610E-03     73.8407E-03
             838     13.1555E-03     86.9067E-03    -5.24563E+06    -28.5894E+06    -20.8123E+06    -9.69044E+06    -27.5340E-03     53.3405E-03    -25.8065E-03     82.1823E-03    -27.6695E-03     53.4163E-03    -25.8615E-03     81.8948E-03
             839     14.0316E-03     86.9876E-03    -5.99462E+06     2.83747E+06    -27.0430E+06    -8.39733E+06    -28.1469E-03     53.8802E-03    -25.7334E-03     98.0928E-03    -28.4694E-03     54.2699E-03    -25.8640E-03     97.7921E-03
             840     14.9083E-03     87.0922E-03    -7.57449E+06     56.1404E+06    -27.2680E+06    -5.03392E+06    -29.7898E-03     55.4449E-03    -25.6551E-03     136.265E-03    -30.8136E-03     56.7202E-03    -25.8618E-03     136.031E-03
             841     15.7875E-03     87.2457E-03    -7.56316E+06     114.185E+06     10.5863E+06    -2.12356E+06    -34.2127E-03     59.9540E-03    -25.7412E-03     210.886E-03    -37.8330E-03     63.9220E-03    -25.8429E-03     211.468E-03
             842     16.6673E-03     87.4969E-03    -4.21934E+06     148.156E+06     64.2716E+06    -732.984E+03    -32.5780E-03     58.4843E-03    -25.9064E-03     210.859E-03    -37.2210E-03     63.4520E-03    -25.7937E-03     213.432E-03
             843     876.894E-06     87.3704E-03    -13.5838E+06    -77.6488E+06    -13.3727E+06    -2.15818E+06    -26.0392E-03     52.0628E-03    -26.0236E-03     5.38557E-03    -25.9751E-03     51.7141E-03    -25.9582E-03     5.35489E-03
             844     1.75389E-03     87.3774E-03    -13.5302E+06    -77.2558E+06    -13.2273E+06    -3.85275E+06    -26.0349E-03     52.0593E-03    -26.0243E-03     9.88708E-03    -25.9718E-03     51.7122E-03    -25.9588E-03     9.83205E-03
             845     2.63079E-03     87.3889E-03    -13.5328E+06    -76.2655E+06    -12.7901E+06    -5.27320E+06    -26.0333E-03     52.0490E-03    -26.0157E-03     14.7606E-03    -25.9727E-03     51.7067E-03    -25.9495E-03     14.6843E-03
             846     3.50786E-03     87.4051E-03    -13.3081E+06    -74.1827E+06    -12.0064E+06    -6.62059E+06    -26.0347E-03     52.0375E-03    -26.0028E-03     19.7139E-03    -25.9780E-03     51.7050E-03    -25.9360E-03     19.6170E-03
             847     4.38482E-03     87.4260E-03    -12.8033E+06    -72.8565E+06    -10.5407E+06    -7.45844E+06    -26.0530E-03     52.0446E-03    -25.9916E-03     24.7568E-03    -25.9991E-03     51.7172E-03    -25.9201E-03     24.6452E-03
             848     5.26195E-03     87.4515E-03    -12.0197E+06    -71.4339E+06    -8.85479E+06    -8.61081E+06    -26.1038E-03     52.0852E-03    -25.9814E-03     29.8240E-03    -26.0523E-03     51.7631E-03    -25.9046E-03     29.6926E-03
             849     6.13897E-03     87.4819E-03    -11.0475E+06    -69.8748E+06    -7.71376E+06    -9.68658E+06    -26.1781E-03     52.1484E-03    -25.9703E-03     34.9119E-03    -26.1281E-03     51.8335E-03    -25.8915E-03     34.7608E-03
             850     7.01601E-03     87.5171E-03    -10.8233E+06    -69.7631E+06    -7.97024E+06    -11.0745E+06    -26.2544E-03     52.2112E-03    -25.9567E-03     40.0114E-03    -26.2068E-03     51.9005E-03    -25.8797E-03     39.8351E-03
             851     7.89310E-03     87.5570E-03    -11.0698E+06    -68.9738E+06    -9.29721E+06    -12.5900E+06    -26.3250E-03     52.2619E-03    -25.9369E-03     45.1661E-03    -26.2829E-03     51.9626E-03    -25.8673E-03     44.9615E-03
             852     8.77043E-03     87.6018E-03    -10.9469E+06    -68.2489E+06    -10.5027E+06    -12.9137E+06    -26.4283E-03     52.3452E-03    -25.9169E-03     50.2575E-03    -26.3922E-03     52.0584E-03    -25.8546E-03     50.0377E-03
             853     9.64724E-03     87.6513E-03    -10.5295E+06    -68.4650E+06    -12.4813E+06    -13.2891E+06    -26.5855E-03     52.4818E-03    -25.8963E-03     55.4170E-03    -26.5548E-03     52.2069E-03    -25.8441E-03     55.1785E-03
             854     10.5244E-03     87.7060E-03    -8.72836E+06    -68.5044E+06    -13.7684E+06    -12.6513E+06    -26.7623E-03     52.6425E-03    -25.8802E-03     60.7324E-03    -26.7362E-03     52.3822E-03    -25.8371E-03     60.4854E-03
             855     11.4016E-03     87.7653E-03    -6.68744E+06    -60.9879E+06    -18.1945E+06    -12.7778E+06    -26.9494E-03     52.7887E-03    -25.8393E-03     66.6719E-03    -26.9407E-03     52.5925E-03    -25.8321E-03     66.4032E-03
             856     12.2788E-03     87.8309E-03    -5.28972E+06    -46.7901E+06    -22.0371E+06    -13.7623E+06    -27.1983E-03     52.9916E-03    -25.7933E-03     74.6718E-03    -27.2364E-03     52.9087E-03    -25.8280E-03     74.3656E-03
             857     13.1554E-03     87.9053E-03    -3.49374E+06    -29.7596E+06    -22.9378E+06    -12.0474E+06    -27.4683E-03     53.2265E-03    -25.7582E-03     82.9831E-03    -27.5901E-03     53.2968E-03    -25.8247E-03     82.6665E-03
             858     14.0332E-03     87.9864E-03    -3.21316E+06    -831.246E+03    -27.6837E+06    -7.91200E+06    -27.9361E-03     53.6211E-03    -25.6851E-03     98.9091E-03    -28.2391E-03     53.9901E-03    -25.8176E-03     98.6171E-03
             859     14.9108E-03     88.0907E-03    -5.77103E+06     52.3595E+06    -28.0977E+06    -3.28327E+06    -29.5046E-03     55.0957E-03    -25.5911E-03     137.299E-03    -30.5142E-03     56.3522E-03    -25.7992E-03     137.094E-03
             860     15.7864E-03     88.2443E-03    -7.12725E+06     113.687E+06     9.25948E+06    -1.80712E+06    -34.0930E-03     59.7542E-03    -25.6613E-03     211.381E-03    -37.7381E-03     63.7508E-03    -25.7695E-03     211.983E-03
             861     16.6632E-03     88.4917E-03    -4.33565E+06     146.874E+06     62.7954E+06    -1.91046E+06    -32.9749E-03     58.8155E-03    -25.8405E-03     209.943E-03    -37.6246E-03     63.7890E-03    -25.7332E-03     212.476E-03
             862     876.961E-06     88.3689E-03    -12.9052E+06    -73.4541E+06    -12.5090E+06    -1.70764E+06    -25.9892E-03     51.9859E-03    -25.9966E-03     5.37577E-03    -25.9291E-03     51.6559E-03    -25.9340E-03     5.35098E-03
             863     1.75393E-03     88.3759E-03    -12.8211E+06    -73.0285E+06    -12.0611E+06    -3.72154E+06    -25.9906E-03     51.9774E-03    -25.9868E-03     9.89239E-03    -25.9317E-03     51.6488E-03    -25.9227E-03     9.83909E-03
             864     2.63095E-03     88.3874E-03    -12.2876E+06    -72.6958E+06    -11.6779E+06    -5.38104E+06    -26.0067E-03     51.9854E-03    -25.9788E-03     14.7517E-03    -25.9467E-03     51.6576E-03    -25.9139E-03     14.6741E-03
             865     3.50788E-03     88.4036E-03    -11.8763E+06    -70.8340E+06    -11.0828E+06    -6.66070E+06    -26.0033E-03     51.9701E-03    -25.9668E-03     19.6995E-03    -25.9457E-03     51.6510E-03    -25.9022E-03     19.6021E-03
             866     4.38503E-03     88.4243E-03    -11.3150E+06    -70.2674E+06    -9.81060E+06    -7.82001E+06    -26.0193E-03     51.9749E-03    -25.9556E-03     24.7329E-03    -25.9628E-03     51.6572E-03    -25.8863E-03     24.6166E-03
             867     5.26207E-03     88.4499E-03    -10.4305E+06    -67.9155E+06    -8.15867E+06    -9.08134E+06    -26.0667E-03     52.0098E-03    -25.9431E-03     29.8346E-03    -26.0132E-03     51.7018E-03    -25.8703E-03     29.6973E-03
             868     6.13916E-03     88.4803E-03    -9.48500E+06    -67.5613E+06    -6.54459E+06    -10.2510E+06    -26.1254E-03     52.0597E-03    -25.9343E-03     34.9480E-03    -26.0727E-03     51.7524E-03    -25.8553E-03     34.7899E-03
             869     7.01633E-03     88.5154E-03    -8.47024E+06    -66.5629E+06    -5.71107E+06    -10.9248E+06    -26.1890E-03     52.1095E-03    -25.9205E-03     40.0458E-03    -26.1374E-03     51.8081E-03    -25.8402E-03     39.8717E-03
             870     7.89354E-03     88.5553E-03    -8.13811E+06    -66.0711E+06    -6.30105E+06    -11.9757E+06    -26.2880E-03     52.1899E-03    -25.9019E-03     45.1725E-03    -26.2397E-03     51.8965E-03    -25.8258E-03     44.9759E-03
             871     8.77046E-03     88.6001E-03    -8.14661E+06    -66.5060E+06    -8.55040E+06    -13.0453E+06    -26.3970E-03     52.2754E-03    -25.8784E-03     50.3696E-03    -26.3522E-03     51.9903E-03    -25.8129E-03     50.1484E-03
             872     9.64789E-03     88.6496E-03    -7.72290E+06    -65.8293E+06    -10.4646E+06    -14.0505E+06    -26.5010E-03     52.3552E-03    -25.8542E-03     55.6647E-03    -26.4628E-03     52.0863E-03    -25.7999E-03     55.4171E-03
             873     10.5251E-03     88.7041E-03    -6.62005E+06    -67.3991E+06    -13.7951E+06    -15.7048E+06    -26.6552E-03     52.4808E-03    -25.8256E-03     61.0538E-03    -26.6198E-03     52.2226E-03    -25.7872E-03     60.7683E-03
             874     11.4022E-03     88.7637E-03    -4.16995E+06    -59.2467E+06    -18.0658E+06    -16.1840E+06    -26.8709E-03     52.6500E-03    -25.7791E-03     67.0176E-03    -26.8520E-03     52.4584E-03    -25.7775E-03     66.7058E-03
             875     12.2792E-03     88.8292E-03    -3.18179E+06    -46.3628E+06    -20.8035E+06    -15.2882E+06    -27.0734E-03     52.8099E-03    -25.7365E-03     74.9145E-03    -27.1030E-03     52.7239E-03    -25.7687E-03     74.5896E-03
             876     13.1570E-03     88.9036E-03     -5.1205E+06    -32.3889E+06    -23.8452E+06    -13.3194E+06    -27.2982E-03     52.9920E-03    -25.6938E-03     83.3010E-03    -27.4226E-03     53.0524E-03    -25.7586E-03     82.9697E-03
             877     14.0337E-03     88.9847E-03    -6.48113E+06    -6.39764E+06    -29.0025E+06    -8.88730E+06    -27.7526E-03     53.3714E-03    -25.6188E-03     98.5937E-03    -28.0608E-03     53.7180E-03    -25.7451E-03     98.2916E-03
             878     14.9111E-03     89.0883E-03    -5.56597E+06     47.7028E+06    -31.8820E+06    -3.85111E+06    -29.1623E-03     54.6585E-03    -25.4962E-03     136.835E-03    -30.1530E-03     55.8912E-03    -25.7167E-03     136.628E-03
             879     15.7911E-03     89.2430E-03    -3.85532E+06     113.901E+06     7.57359E+06    -1.49208E+06    -34.1851E-03     59.7452E-03    -25.5601E-03     212.012E-03    -37.8134E-03     63.7421E-03    -25.6817E-03     212.609E-03
             880     16.6685E-03     89.4932E-03    -2.85098E+06     146.944E+06     63.8701E+06    -1.06477E+06    -33.8689E-03     59.6507E-03    -25.7818E-03     210.141E-03    -38.5188E-03     64.6269E-03    -25.6713E-03     212.649E-03
             881     877.000E-06     89.3674E-03    -12.0519E+06    -69.6480E+06    -12.5298E+06    -2.03535E+06    -25.9407E-03     51.8889E-03    -25.9483E-03     5.29079E-03    -25.8817E-03     51.5768E-03    -25.8924E-03     5.26184E-03
             882     1.75403E-03     89.3744E-03    -11.9406E+06    -68.6244E+06    -11.7821E+06    -3.55138E+06    -25.9390E-03     51.8742E-03    -25.9353E-03     9.89619E-03    -25.8825E-03     51.5659E-03    -25.8773E-03     9.84515E-03
             883     2.63100E-03     89.3859E-03     -11.731E+06    -68.5566E+06    -10.9553E+06    -5.76646E+06    -25.9529E-03     51.8817E-03    -25.9288E-03     14.7549E-03    -25.8971E-03     51.5727E-03    -25.8672E-03     14.6724E-03
             884     3.50815E-03     89.4020E-03    -10.8291E+06    -67.5344E+06    -10.8917E+06    -7.34452E+06    -25.9737E-03     51.8898E-03    -25.9161E-03     19.7073E-03    -25.9158E-03     51.5853E-03    -25.8570E-03     19.6010E-03
             885     4.38513E-03     89.4227E-03    -9.77852E+06    -67.0541E+06    -9.17756E+06    -8.57238E+06    -25.9922E-03     51.9019E-03    -25.9098E-03     24.7526E-03    -25.9335E-03     51.5971E-03    -25.8442E-03     24.6267E-03
             886     5.26229E-03     89.4483E-03    -9.01267E+06    -65.0536E+06    -7.00358E+06    -9.47759E+06    -26.0011E-03     51.9008E-03    -25.8997E-03     29.8875E-03    -25.9463E-03     51.6034E-03    -25.8274E-03     29.7454E-03
             887     6.13949E-03     89.4786E-03    -8.35578E+06    -64.2027E+06    -5.67192E+06    -10.7386E+06    -26.0463E-03     51.9311E-03    -25.8849E-03     34.9981E-03    -25.9939E-03     51.6376E-03    -25.8080E-03     34.8340E-03
             888     7.01665E-03     89.5136E-03    -7.19737E+06    -64.4732E+06    -5.01855E+06    -11.9609E+06    -26.1237E-03     51.9921E-03    -25.8683E-03     40.1285E-03    -26.0697E-03     51.6982E-03    -25.7895E-03     39.9414E-03
             889     7.89378E-03     89.5536E-03    -5.64738E+06    -63.4339E+06    -4.44331E+06    -12.3489E+06    -26.1954E-03     52.0447E-03    -25.8493E-03     45.3190E-03    -26.1410E-03     51.7579E-03    -25.7713E-03     45.1182E-03
             890     8.77124E-03     89.5982E-03    -4.25094E+06    -63.2257E+06    -5.50705E+06    -13.8355E+06    -26.2811E-03     52.1036E-03    -25.8225E-03     50.5710E-03    -26.2257E-03     51.8247E-03    -25.7522E-03     50.3403E-03
             891     9.64835E-03     89.6478E-03    -2.95288E+06    -63.4232E+06    -7.53482E+06    -15.2059E+06    -26.4033E-03     52.1952E-03    -25.7919E-03     55.8806E-03    -26.3488E-03     51.9269E-03    -25.7333E-03     55.6189E-03
             892     10.5257E-03     89.7022E-03    -2.90382E+06    -63.6865E+06    -10.6833E+06    -16.4171E+06    -26.5715E-03     52.3317E-03    -25.7602E-03     61.2865E-03    -26.5272E-03     52.0819E-03    -25.7170E-03     60.9925E-03
             893     11.4030E-03     89.7618E-03    -4.86729E+06    -58.1239E+06    -17.7364E+06    -17.6648E+06    -26.7821E-03     52.4899E-03    -25.7079E-03     67.3081E-03    -26.7685E-03     52.3042E-03    -25.7052E-03     66.9782E-03
             894     12.2805E-03     89.8275E-03    -6.61575E+06    -47.8059E+06    -20.9316E+06    -15.8958E+06    -27.0527E-03     52.7249E-03    -25.6722E-03     74.9456E-03    -27.0972E-03     52.6369E-03    -25.6980E-03     74.6132E-03
             895     13.1574E-03     89.9013E-03    -7.14118E+06    -34.2468E+06    -22.0838E+06    -12.9164E+06    -27.2636E-03     52.9050E-03    -25.6414E-03     83.1514E-03    -27.3978E-03     52.9563E-03    -25.6918E-03     82.8258E-03
             896     14.0352E-03     89.9834E-03    -7.27691E+06    -10.3272E+06    -28.6555E+06    -10.6945E+06    -27.8038E-03     53.3700E-03    -25.5662E-03     98.2631E-03    -28.1092E-03     53.6960E-03    -25.6840E-03     97.9381E-03
             897     14.9127E-03     90.0856E-03    -6.65477E+06     43.2451E+06    -35.4506E+06    -7.18530E+06    -29.5959E-03     55.0417E-03    -25.4458E-03     135.637E-03    -30.5815E-03     56.2600E-03    -25.6761E-03     135.377E-03
             898     15.7891E-03     90.2399E-03    -5.26349E+06     110.533E+06     2.02149E+06    -3.07025E+06    -34.2541E-03     59.7763E-03    -25.5222E-03     210.196E-03    -37.8421E-03     63.7322E-03    -25.6647E-03     210.761E-03
             899     16.6667E-03     90.4917E-03    -3.66241E+06     145.758E+06     61.0584E+06    -317.454E+03    -33.6962E-03     59.4550E-03    -25.7589E-03     209.171E-03    -38.3081E-03     64.3943E-03    -25.6596E-03     211.684E-03
             900     877.017E-06     90.3658E-03    -10.2717E+06    -65.1760E+06    -10.4860E+06    -2.61422E+06    -25.8782E-03     51.7827E-03    -25.9045E-03     5.27177E-03    -25.8198E-03     51.4873E-03    -25.8475E-03     5.23534E-03
             901     1.75409E-03     90.3728E-03    -9.87784E+06    -64.5338E+06    -10.7074E+06    -4.09046E+06    -25.8803E-03     51.7570E-03    -25.8767E-03     9.90102E-03    -25.8210E-03     51.4646E-03    -25.8223E-03     9.84306E-03
             902     2.63125E-03     90.3843E-03    -9.45482E+06    -63.6997E+06    -9.54633E+06    -5.98416E+06    -25.8920E-03     51.7600E-03    -25.8679E-03     14.7645E-03    -25.8340E-03     51.4700E-03    -25.8096E-03     14.6792E-03
             903     3.50824E-03     90.4003E-03    -9.18291E+06    -63.6285E+06    -9.15813E+06    -8.18466E+06    -25.9158E-03     51.7741E-03    -25.8583E-03     19.7393E-03    -25.8579E-03     51.4843E-03    -25.7985E-03     19.6224E-03
             904     4.38545E-03     90.4210E-03    -8.43792E+06    -63.6691E+06    -8.11213E+06    -9.59098E+06    -25.9260E-03     51.7751E-03    -25.8490E-03     24.8038E-03    -25.8670E-03     51.4836E-03    -25.7851E-03     24.6650E-03
             905     5.26259E-03     90.4464E-03    -7.03723E+06    -62.4196E+06    -6.42669E+06    -10.5023E+06    -25.9343E-03     51.7693E-03    -25.8350E-03     29.9461E-03    -25.8742E-03     51.4813E-03    -25.7664E-03     29.7910E-03
             906     6.13983E-03     90.4768E-03    -5.80530E+06    -61.0886E+06    -4.24590E+06    -11.1162E+06    -25.9551E-03     51.7745E-03    -25.8194E-03     35.1001E-03    -25.8964E-03     51.4907E-03    -25.7436E-03     34.9315E-03
             907     7.01710E-03     90.5118E-03    -5.47206E+06    -61.2696E+06    -3.03473E+06    -12.4134E+06    -25.9929E-03     51.7931E-03    -25.8002E-03     40.2870E-03    -25.9376E-03     51.5097E-03    -25.7186E-03     40.0948E-03
             908     7.89454E-03     90.5516E-03    -4.39953E+06      -60.75E+06    -3.96074E+06    -14.2771E+06    -26.0547E-03     51.8220E-03    -25.7673E-03     45.5315E-03    -25.9985E-03     51.5460E-03    -25.6926E-03     45.3066E-03
             909     8.77178E-03     90.5962E-03    -2.74877E+06    -59.8651E+06    -4.22305E+06    -15.3076E+06    -26.1623E-03     51.8997E-03    -25.7374E-03     50.7827E-03    -26.1060E-03     51.6333E-03    -25.6677E-03     50.5338E-03
             910     9.64938E-03     90.6457E-03    -2.71022E+06    -61.5436E+06    -6.12997E+06    -15.7720E+06    -26.3202E-03     52.0296E-03    -25.7094E-03     56.0748E-03    -26.2690E-03     51.7681E-03    -25.6469E-03     55.8064E-03
             911     10.5267E-03     90.7002E-03    -3.59917E+06    -60.7639E+06    -8.49024E+06    -16.0125E+06    -26.5200E-03     52.2031E-03    -25.6831E-03     61.4594E-03    -26.4864E-03     51.9656E-03    -25.6323E-03     61.1712E-03
             912     11.4041E-03     90.7598E-03    -4.49317E+06    -56.0694E+06    -12.5982E+06    -16.3675E+06    -26.7663E-03     52.4159E-03    -25.6496E-03     67.3582E-03    -26.7611E-03     52.2323E-03    -25.6248E-03     67.0453E-03
             913     12.2812E-03     90.8254E-03    -5.65180E+06    -49.7049E+06    -17.2373E+06    -15.5912E+06    -27.1361E-03     52.7558E-03    -25.6196E-03     75.0678E-03    -27.1786E-03     52.6517E-03    -25.6255E-03     74.7390E-03
             914     13.1583E-03     90.9000E-03    -6.17754E+06    -35.4037E+06    -20.0354E+06    -14.0114E+06    -27.3697E-03     52.9602E-03    -25.5905E-03     83.0352E-03    -27.5002E-03     53.0012E-03    -25.6304E-03     82.6951E-03
             915     14.0355E-03     90.9806E-03    -6.06719E+06    -12.3617E+06    -25.4479E+06    -12.0467E+06    -28.0401E-03     53.5763E-03    -25.5362E-03     98.3204E-03    -28.3415E-03     53.8861E-03    -25.6367E-03     97.9758E-03
             916     14.9121E-03     91.0849E-03    -6.70469E+06     38.9881E+06    -34.4368E+06    -8.76118E+06    -30.2522E-03     55.6894E-03    -25.4372E-03     136.238E-03    -31.2451E-03     56.8968E-03    -25.6562E-03     135.948E-03
             917     15.7884E-03     91.2388E-03    -7.56795E+06     105.951E+06    -2.65961E+06    -4.24214E+06    -34.7182E-03     60.2364E-03    -25.5182E-03     210.945E-03    -38.3244E-03     64.1996E-03    -25.6742E-03     211.497E-03
             918     16.6663E-03     91.4886E-03    -5.34602E+06     143.109E+06     56.0627E+06    -1.03979E+06    -33.2252E-03     58.9684E-03    -25.7432E-03     211.520E-03    -37.8943E-03     63.9639E-03    -25.6627E-03     214.090E-03
             919     877.140E-06     91.3642E-03    -6.60807E+06    -59.9289E+06    -6.32452E+06    -2.40904E+06    -25.8324E-03     51.6435E-03    -25.8111E-03     5.29050E-03    -25.7694E-03     51.3630E-03    -25.7462E-03     5.25677E-03
             920     1.75423E-03     91.3711E-03    -6.62661E+06    -59.9756E+06    -7.11926E+06    -4.81774E+06    -25.8239E-03     51.6344E-03    -25.8104E-03     9.90187E-03    -25.7602E-03     51.3548E-03    -25.7495E-03     9.83458E-03
             921     2.63133E-03     91.3825E-03    -6.22004E+06    -59.0732E+06    -6.75253E+06    -6.60502E+06    -25.8133E-03     51.6119E-03    -25.7986E-03     14.7988E-03    -25.7499E-03     51.3363E-03    -25.7377E-03     14.7057E-03
             922     3.50860E-03     91.3986E-03    -5.55661E+06    -58.8068E+06    -5.20631E+06    -8.57067E+06    -25.8184E-03     51.6069E-03    -25.7885E-03     19.7879E-03    -25.7550E-03     51.3302E-03    -25.7212E-03     19.6663E-03
             923     4.38575E-03     91.4191E-03    -4.99590E+06    -60.1289E+06    -4.59734E+06    -10.3591E+06    -25.8308E-03     51.6047E-03    -25.7740E-03     24.8617E-03    -25.7647E-03     51.3209E-03    -25.7025E-03     24.7133E-03
             924     5.26304E-03     91.4446E-03    -4.23713E+06    -58.8983E+06    -4.65270E+06    -11.8652E+06    -25.8219E-03     51.5694E-03    -25.7474E-03     30.0534E-03    -25.7555E-03     51.2923E-03    -25.6791E-03     29.8812E-03
             925     6.14036E-03     91.4747E-03    -3.05746E+06    -59.5751E+06    -2.77150E+06    -12.1560E+06    -25.8169E-03     51.5435E-03    -25.7265E-03     35.2785E-03    -25.7487E-03     51.2610E-03    -25.6496E-03     35.0971E-03
             926     7.01785E-03     91.5097E-03    -2.07170E+06    -57.5889E+06    -632.934E+03    -12.2756E+06    -25.8486E-03     51.5490E-03    -25.7004E-03     40.4813E-03    -25.7850E-03     51.2754E-03    -25.6171E-03     40.2915E-03
             927     7.89528E-03     91.5494E-03    -2.44825E+06    -56.1821E+06    -1.13043E+06    -14.5695E+06    -25.9354E-03     51.6015E-03    -25.6661E-03     45.7126E-03    -25.8799E-03     51.3412E-03    -25.5867E-03     45.4847E-03
             928     8.77293E-03     91.5940E-03    -2.92234E+06    -57.7549E+06    -2.71273E+06    -16.2203E+06    -26.0660E-03     51.7019E-03    -25.6359E-03     50.9895E-03    -26.0155E-03     51.4439E-03    -25.5614E-03     50.7296E-03
             929     9.65023E-03     91.6435E-03    -2.45193E+06    -60.1888E+06    -4.14902E+06    -15.7939E+06    -26.2480E-03     51.8605E-03    -25.6126E-03     56.2936E-03    -26.2001E-03     51.6023E-03    -25.5425E-03     56.0257E-03
             930     10.5276E-03     91.6981E-03    -2.61149E+06    -59.0863E+06    -7.44843E+06    -15.4291E+06    -26.4888E-03     52.0726E-03    -25.5838E-03     61.7967E-03    -26.4539E-03     51.8403E-03    -25.5316E-03     61.5170E-03
             931     11.4049E-03     91.7578E-03    -3.64149E+06    -54.0041E+06    -11.0055E+06    -15.7511E+06    -26.7778E-03     52.3364E-03    -25.5586E-03     67.8122E-03    -26.7735E-03     52.1594E-03    -25.5300E-03     67.5080E-03
             932     12.2822E-03     91.8236E-03    -3.71100E+06    -49.5265E+06    -15.8120E+06    -16.1638E+06    -27.1646E-03     52.7000E-03    -25.5354E-03     75.6953E-03    -27.1994E-03     52.5917E-03    -25.5373E-03     75.3601E-03
             933     13.1593E-03     91.8982E-03    -3.03883E+06    -36.1895E+06    -19.7728E+06    -15.1970E+06    -27.5582E-03     53.0690E-03    -25.5108E-03     83.5363E-03    -27.6721E-03     53.1010E-03    -25.5528E-03     83.1807E-03
             934     14.0363E-03     91.9789E-03    -3.46464E+06    -15.0626E+06    -24.7772E+06    -12.5065E+06    -28.3563E-03     53.8359E-03    -25.4796E-03     99.1976E-03    -28.6454E-03     54.1310E-03    -25.5766E-03     98.8446E-03
             935     14.9133E-03     92.0839E-03    -4.87315E+06     34.0867E+06    -34.4477E+06    -8.56905E+06    -30.2722E-03     55.6628E-03    -25.3906E-03     137.397E-03    -31.2501E-03     56.8444E-03    -25.6052E-03     137.113E-03
             936     15.7904E-03     92.2381E-03    -5.80025E+06     102.310E+06    -3.50421E+06     -4.3152E+06    -34.5539E-03     60.0156E-03    -25.4617E-03     211.005E-03    -38.1299E-03     63.9443E-03    -25.6191E-03     211.563E-03
             937     16.6678E-03     92.4864E-03    -4.15113E+06     141.210E+06     53.8512E+06    -1.67514E+06    -33.2500E-03     58.9259E-03    -25.6759E-03     212.138E-03    -37.9198E-03     63.9261E-03    -25.6053E-03     214.712E-03
             938     877.169E-06     92.3623E-03    -4.24665E+06    -54.4975E+06    -4.14640E+06    -2.60704E+06    -25.7505E-03     51.4445E-03    -25.6940E-03     5.28445E-03    -25.6866E-03     51.1846E-03    -25.6296E-03     5.24826E-03
             939     1.75439E-03     92.3693E-03    -3.60598E+06    -54.4641E+06    -3.02569E+06    -5.05437E+06    -25.7232E-03     51.4416E-03    -25.7184E-03     9.94083E-03    -25.6582E-03     51.1793E-03    -25.6493E-03     9.87062E-03
             940     2.63164E-03     92.3806E-03    -3.10216E+06    -54.4905E+06    -2.76085E+06    -7.25010E+06    -25.7054E-03     51.4106E-03    -25.7052E-03     14.8524E-03    -25.6387E-03     51.1475E-03    -25.6355E-03     14.7512E-03
             941     3.50889E-03     92.3965E-03    -2.79925E+06    -54.1549E+06    -2.75428E+06    -8.91536E+06    -25.6824E-03     51.3647E-03    -25.6823E-03     19.8750E-03    -25.6156E-03     51.1036E-03    -25.6134E-03     19.7493E-03
             942     4.38626E-03     92.4172E-03    -2.39445E+06    -55.7117E+06    -1.98888E+06    -10.8133E+06    -25.6744E-03     51.3349E-03    -25.6605E-03     24.9795E-03    -25.6055E-03     51.0655E-03    -25.5862E-03     24.8256E-03
             943     5.26365E-03     92.4424E-03    -2.07046E+06    -55.0291E+06    -2.26597E+06    -12.4640E+06    -25.6463E-03     51.2717E-03    -25.6254E-03     30.1848E-03    -25.5780E-03     51.0073E-03    -25.5539E-03     30.0054E-03
             944     6.14124E-03     92.4725E-03    -1.92461E+06    -58.0633E+06    -2.38065E+06    -13.0234E+06    -25.6448E-03     51.2365E-03    -25.5917E-03     35.4448E-03    -25.5735E-03     50.9592E-03    -25.5167E-03     35.2529E-03
             945     7.01878E-03     92.5073E-03    -1.38023E+06    -55.1565E+06    -2.26730E+06    -13.0466E+06    -25.6956E-03     51.2458E-03    -25.5501E-03     40.7546E-03    -25.6294E-03     50.9855E-03    -25.4795E-03     40.5558E-03
             946     7.89643E-03     92.5471E-03    -796.229E+03    -51.6111E+06     51.0309E+03    -13.8027E+06    -25.7984E-03     51.3220E-03    -25.5236E-03     46.0455E-03    -25.7427E-03     51.0802E-03    -25.4474E-03     45.8285E-03
             947     8.77384E-03     92.5916E-03    -1.51551E+06    -55.0259E+06    -1.82468E+06    -15.3292E+06    -25.9388E-03     51.4335E-03    -25.4946E-03     51.4130E-03    -25.8862E-03     51.1854E-03    -25.4218E-03     51.1658E-03
             948     9.65155E-03     92.6412E-03    -2.80816E+06    -59.1884E+06    -6.42681E+06    -15.9271E+06    -26.1219E-03     51.5823E-03    -25.4603E-03     56.9150E-03    -26.0735E-03     51.3324E-03    -25.4026E-03     56.6469E-03
             949     10.5291E-03     92.6957E-03    -3.11844E+06    -57.7273E+06    -9.57082E+06    -15.6418E+06    -26.3902E-03     51.8227E-03    -25.4325E-03     62.6072E-03    -26.3561E-03     51.6003E-03    -25.3922E-03     62.3266E-03
             950     11.4065E-03     92.7558E-03    -2.76680E+06    -51.7579E+06    -11.5595E+06    -16.0026E+06    -26.7336E-03     52.1484E-03    -25.4148E-03     68.6928E-03    -26.7269E-03     51.9817E-03    -25.3936E-03     68.3869E-03
             951     12.2838E-03     92.8215E-03    -3.22619E+06    -47.6121E+06    -16.7308E+06    -16.9470E+06    -27.1813E-03     52.5785E-03    -25.3972E-03     76.5882E-03    -27.2147E-03     52.4799E-03    -25.4071E-03     76.2443E-03
             952     13.1609E-03     92.8966E-03    -4.31868E+06    -37.4714E+06    -22.7139E+06    -16.3491E+06    -27.7356E-03     53.1175E-03    -25.3820E-03     84.6062E-03    -27.8501E-03     53.1496E-03    -25.4349E-03     84.2360E-03
             953     14.0376E-03     92.9775E-03    -5.04822E+06    -18.3058E+06    -26.3293E+06    -13.2999E+06    -28.6348E-03     54.0146E-03    -25.3798E-03     100.083E-03    -28.9280E-03     54.3013E-03    -25.4776E-03     99.7184E-03
             954     14.9141E-03     93.0826E-03    -5.44203E+06     29.0828E+06    -35.0112E+06    -9.25273E+06    -30.4606E-03     55.7750E-03    -25.3145E-03     137.789E-03    -31.4318E-03     56.9317E-03    -25.5238E-03     137.496E-03
             955     15.7909E-03     93.2366E-03    -5.06134E+06     98.0492E+06    -5.53707E+06    -4.72488E+06    -34.7897E-03     60.1829E-03    -25.3932E-03     210.084E-03    -38.3350E-03     64.0743E-03    -25.5557E-03     210.623E-03
             956     16.6691E-03     93.4841E-03    -2.80249E+06     139.807E+06     51.4183E+06    -1.61097E+06    -33.1855E-03     58.8002E-03    -25.6147E-03     210.725E-03    -37.8215E-03     63.7734E-03    -25.5562E-03     213.295E-03
             957     877.323E-06     93.3603E-03    -1.59459E+06    -48.7861E+06    -1.37877E+06    -3.01851E+06    -25.5929E-03     51.1643E-03    -25.5714E-03     5.34467E-03    -25.5281E-03     50.9251E-03    -25.5052E-03     5.30323E-03
             958     1.75464E-03     93.3672E-03    -1.20055E+06    -48.8046E+06    -767.060E+03    -5.21584E+06    -25.5604E-03     51.1324E-03    -25.5720E-03     9.99863E-03    -25.4949E-03     50.8916E-03    -25.5034E-03     9.92653E-03
             959     2.63200E-03     93.3785E-03    -965.235E+03    -49.3686E+06    -668.412E+03    -7.42837E+06    -25.5397E-03     51.0921E-03    -25.5524E-03     14.9497E-03    -25.4728E-03     50.8485E-03    -25.4828E-03     14.8465E-03
             960     3.50945E-03     93.3943E-03    -613.862E+03    -49.7916E+06    -1.15309E+06    -9.33663E+06    -25.5051E-03     51.0280E-03    -25.5229E-03     20.0058E-03    -25.4359E-03     50.7832E-03    -25.4556E-03     19.8750E-03
             961     4.38696E-03     93.4148E-03    -430.780E+03    -50.9382E+06    -803.307E+03    -11.0283E+06    -25.4578E-03     50.9484E-03    -25.4906E-03     25.1393E-03    -25.3876E-03     50.6982E-03    -25.4201E-03     24.9833E-03
             962     5.26460E-03     93.4400E-03    -780.267E+03    -51.6655E+06    -1.41951E+06    -12.2163E+06    -25.4398E-03     50.8883E-03    -25.4485E-03     30.3615E-03    -25.3710E-03     50.6374E-03    -25.3795E-03     30.1860E-03
             963     6.14224E-03     93.4698E-03    -1.05519E+06    -55.1465E+06    -1.74076E+06    -13.2315E+06    -25.4476E-03     50.8582E-03    -25.4106E-03     35.6792E-03    -25.3770E-03     50.5931E-03    -25.3378E-03     35.4855E-03
             964     7.02005E-03     93.5046E-03    -416.750E+03    -52.6603E+06    -3.82287E+06    -14.4369E+06    -25.4744E-03     50.8283E-03    -25.3539E-03     41.1387E-03    -25.4044E-03     50.5810E-03    -25.2961E-03     40.9233E-03
             965     7.89781E-03     93.5444E-03     550.366E+03    -49.4948E+06    -2.20296E+06    -14.4885E+06    -25.5643E-03     50.8816E-03    -25.3173E-03     46.6012E-03    -25.5012E-03     50.6511E-03    -25.2574E-03     46.3771E-03
             966     8.77576E-03     93.5890E-03     445.872E+03    -52.7308E+06     117.541E+03    -13.7825E+06    -25.7220E-03     51.0245E-03    -25.3025E-03     52.0259E-03    -25.6652E-03     50.7817E-03    -25.2261E-03     51.8005E-03
             967     9.65346E-03     93.6384E-03    -699.173E+03    -56.2618E+06    -3.50021E+06    -14.8447E+06    -25.9448E-03     51.2146E-03    -25.2698E-03     57.6468E-03    -25.8937E-03     50.9714E-03    -25.2047E-03     57.3945E-03
             968     10.5312E-03     93.6932E-03    -1.19577E+06    -55.9817E+06    -8.12040E+06    -16.4701E+06    -26.2626E-03     51.5006E-03    -25.2380E-03     63.4844E-03    -26.2229E-03     51.2814E-03    -25.1957E-03     63.1950E-03
             969     11.4087E-03     93.7533E-03    -1.79683E+06    -50.4900E+06    -9.99884E+06    -16.1254E+06    -26.6853E-03     51.9139E-03    -25.2286E-03     69.6605E-03    -26.6775E-03     51.7495E-03    -25.2028E-03     69.3547E-03
             970     12.2860E-03     93.8196E-03    -3.07745E+06    -44.5611E+06    -12.4995E+06    -16.5448E+06    -27.2209E-03     52.4549E-03    -25.2340E-03     77.5047E-03    -27.2640E-03     52.3652E-03    -25.2274E-03     77.1668E-03
             971     13.1631E-03     93.8945E-03    -4.06963E+06    -38.6105E+06    -19.2617E+06    -16.4758E+06    -27.8251E-03     53.0597E-03    -25.2346E-03     85.7794E-03    -27.9422E-03     53.0811E-03    -25.2690E-03     85.4082E-03
             972     14.0397E-03     93.9768E-03     -4.1914E+06    -20.2213E+06    -25.2843E+06    -14.8743E+06    -28.8511E-03     54.0878E-03    -25.2367E-03     101.483E-03    -29.1411E-03     54.3644E-03    -25.3277E-03     101.097E-03
             973     14.9160E-03     94.0813E-03    -3.49602E+06     24.5420E+06    -35.5849E+06    -11.1283E+06    -31.0934E-03     56.2873E-03    -25.1939E-03     139.057E-03    -32.0610E-03     57.4328E-03    -25.4023E-03     138.731E-03
             974     15.7923E-03     94.2360E-03    -3.99692E+06     92.0892E+06    -10.2808E+06    -5.09032E+06    -35.4971E-03     60.7917E-03    -25.2946E-03     210.772E-03    -39.0463E-03     64.6834E-03    -25.4737E-03     211.286E-03
             975     16.6674E-03     94.4828E-03    -3.10205E+06     137.661E+06     46.2776E+06    -1.38950E+06    -33.0795E-03     58.6093E-03    -25.5298E-03     210.524E-03    -37.7047E-03     63.5780E-03    -25.4935E-03     213.101E-03
             976     877.473E-06     94.3581E-03     2.24018E+06    -42.8014E+06     2.17842E+06    -2.95181E+06    -25.3910E-03     50.7638E-03    -25.3728E-03     5.39968E-03    -25.3209E-03     50.5438E-03    -25.3031E-03     5.35922E-03
             977     1.75498E-03     94.3647E-03     2.10812E+06    -43.1222E+06     1.79141E+06    -5.32827E+06    -25.3454E-03     50.7094E-03    -25.3641E-03     10.0408E-03    -25.2752E-03     50.4885E-03    -25.2956E-03     9.96751E-03
             978     2.63261E-03     94.3760E-03     2.15979E+06    -43.9711E+06     1.07377E+06    -7.65593E+06    -25.3030E-03     50.6364E-03    -25.3335E-03     15.0535E-03    -25.2308E-03     50.4127E-03    -25.2675E-03     14.9478E-03
             979     3.51021E-03     94.3918E-03     1.87120E+06    -45.2820E+06     354.786E+03    -9.52632E+06    -25.2561E-03     50.5528E-03    -25.2966E-03     20.1357E-03    -25.1831E-03     50.3247E-03    -25.2319E-03     20.0031E-03
             980     4.38795E-03     94.4121E-03     1.55846E+06    -46.5226E+06     143.972E+03    -11.1020E+06    -25.2055E-03     50.4615E-03    -25.2560E-03     25.3345E-03    -25.1331E-03     50.2290E-03    -25.1900E-03     25.1783E-03
             981     5.26581E-03     94.4370E-03     1.64995E+06    -48.6992E+06     90.4493E+03    -12.1161E+06    -25.1830E-03     50.3958E-03    -25.2129E-03     30.6314E-03    -25.1083E-03     50.1539E-03    -25.1442E-03     30.4582E-03
             982     6.14374E-03     94.4669E-03     2.24877E+06    -50.6152E+06     999.353E+03    -13.8129E+06    -25.1813E-03     50.3536E-03    -25.1723E-03     36.0463E-03    -25.1044E-03     50.1021E-03    -25.0972E-03     35.8464E-03
             983     7.02170E-03     94.5015E-03     2.64522E+06    -49.7516E+06     195.160E+03    -15.3847E+06    -25.1873E-03     50.3059E-03    -25.1186E-03     41.6114E-03    -25.1117E-03     50.0625E-03    -25.0493E-03     41.3852E-03
             984     7.89990E-03     94.5412E-03     2.46134E+06    -48.7805E+06     144.353E+03    -14.9826E+06    -25.2582E-03     50.3293E-03    -25.0711E-03     47.2079E-03    -25.1894E-03     50.0957E-03    -25.0032E-03     46.9793E-03
             985     8.77791E-03     94.5858E-03     3.21869E+06    -51.8006E+06     2.57589E+06    -14.1369E+06    -25.4582E-03     50.5080E-03    -25.0499E-03     52.7115E-03    -25.3918E-03     50.2617E-03    -24.9665E-03     52.4835E-03
             986     9.65599E-03     94.6354E-03     3.97043E+06    -53.1364E+06     1.74784E+06    -13.9600E+06    -25.7506E-03     50.7757E-03    -25.0251E-03     58.4264E-03    -25.6876E-03     50.5331E-03    -24.9450E-03     58.1877E-03
             987     10.5338E-03     94.6902E-03     2.23524E+06    -52.7862E+06    -3.11070E+06    -15.1882E+06    -26.1165E-03     51.1148E-03    -24.9983E-03     64.4150E-03    -26.0709E-03     50.8987E-03    -24.9405E-03     64.1442E-03
             988     11.4116E-03     94.7507E-03     653.662E+03    -50.2241E+06    -8.08028E+06    -15.8213E+06    -26.6149E-03     51.6019E-03    -24.9870E-03     70.8140E-03    -26.5975E-03     51.4319E-03    -24.9555E-03     70.5141E-03
             989     12.2888E-03     94.8174E-03    -26.7975E+03    -41.5664E+06    -9.56713E+06    -15.7244E+06    -27.2411E-03     52.2457E-03    -25.0046E-03     78.7757E-03    -27.2775E-03     52.1622E-03    -24.9922E-03     78.4500E-03
             990     13.1657E-03     94.8928E-03    -1.09565E+06    -37.9624E+06    -17.2980E+06    -16.5997E+06    -27.9241E-03     52.9434E-03    -25.0193E-03     87.1200E-03    -28.0309E-03     52.9617E-03    -25.0492E-03     86.7482E-03
             991     14.0428E-03     94.9752E-03    -1.70705E+06    -20.4627E+06    -25.1187E+06    -16.3790E+06    -29.0999E-03     54.1342E-03    -25.0343E-03     102.840E-03    -29.3790E-03     54.4074E-03    -25.1277E-03     102.435E-03
             992     14.9191E-03     95.0812E-03    -3.33614E+06     18.2260E+06    -33.8934E+06    -12.2440E+06    -31.3547E-03     56.3873E-03    -25.0326E-03     140.490E-03    -32.3243E-03     57.5081E-03    -25.2237E-03     140.149E-03
             993     15.7938E-03     95.2367E-03    -3.92828E+06     84.3239E+06    -13.7749E+06    -5.33156E+06    -35.4485E-03     60.5669E-03    -25.1185E-03     212.354E-03    -39.0068E-03     64.4506E-03    -25.3039E-03     212.884E-03
             994     16.6726E-03     95.4813E-03    -2.09396E+06     136.447E+06     41.4767E+06    -847.650E+03    -33.8206E-03     59.1774E-03    -25.3567E-03     210.793E-03    -38.4348E-03     64.1482E-03    -25.3442E-03     213.340E-03
             995     877.725E-06     95.3552E-03     4.88286E+06    -36.8154E+06     4.57063E+06    -2.92644E+06    -25.1046E-03     50.1887E-03    -25.0842E-03     5.43772E-03    -25.0333E-03     49.9913E-03    -25.0150E-03     5.39771E-03
             996     1.75550E-03     95.3620E-03     4.71733E+06    -36.9404E+06     3.33870E+06    -5.62970E+06    -25.0595E-03     50.1306E-03    -25.0711E-03     10.1327E-03    -24.9875E-03     49.9345E-03    -25.0077E-03     10.0559E-03
             997     2.63327E-03     95.3730E-03     4.23673E+06    -38.8442E+06     2.54055E+06    -7.82834E+06    -24.9939E-03     50.0330E-03    -25.0392E-03     15.1609E-03    -24.9208E-03     49.8298E-03    -24.9763E-03     15.0535E-03
             998     3.51128E-03     95.3887E-03     3.99828E+06    -40.4614E+06     2.31282E+06    -9.66720E+06    -24.9267E-03     49.9245E-03    -24.9978E-03     20.3076E-03    -24.8528E-03     49.7144E-03    -24.9333E-03     20.1739E-03
             999     4.38931E-03     95.4087E-03     4.19619E+06    -42.2088E+06     2.68128E+06    -11.4910E+06    -24.8862E-03     49.8400E-03    -24.9538E-03     25.5738E-03    -24.8103E-03     49.6213E-03    -24.8853E-03     25.4135E-03
            1000     5.26740E-03     95.4337E-03     4.77334E+06    -45.3018E+06     3.13989E+06    -12.9217E+06    -24.8449E-03     49.7535E-03    -24.9086E-03     30.9667E-03    -24.7638E-03     49.5194E-03    -24.8341E-03     30.7843E-03
            1001     6.14565E-03     95.4632E-03     5.04059E+06    -45.9800E+06     3.85783E+06    -14.2981E+06    -24.8161E-03     49.6745E-03    -24.8584E-03     36.4813E-03    -24.7358E-03     49.4377E-03    -24.7797E-03     36.2766E-03
            1002     7.02404E-03     95.4979E-03     4.35643E+06    -47.4627E+06     4.27457E+06    -14.8367E+06    -24.8314E-03     49.6404E-03    -24.8090E-03     42.1195E-03    -24.7560E-03     49.3995E-03    -24.7251E-03     41.9022E-03
            1003     7.90236E-03     95.5373E-03     3.68995E+06    -47.3862E+06     1.56099E+06    -14.8889E+06    -24.9159E-03     49.6618E-03    -24.7459E-03     47.9050E-03    -24.8445E-03     49.4307E-03    -24.6747E-03     47.6798E-03
            1004     8.78089E-03     95.5821E-03     3.16951E+06    -50.6734E+06     487.191E+03    -14.8791E+06    -25.1294E-03     49.8359E-03    -24.7065E-03     53.6514E-03    -25.0611E-03     49.5975E-03    -24.6352E-03     53.4165E-03
            1005     9.65909E-03     95.6317E-03     3.12020E+06    -51.7677E+06    -378.076E+03    -14.5552E+06    -25.4822E-03     50.1649E-03    -24.6827E-03     59.5416E-03    -25.4215E-03     49.9326E-03    -24.6141E-03     59.2978E-03
            1006     10.5372E-03     95.6870E-03     4.07285E+06    -50.0085E+06    -1.89718E+06    -14.4844E+06    -25.9306E-03     50.6029E-03    -24.6722E-03     65.6586E-03    -25.8809E-03     50.3955E-03    -24.6151E-03     65.3994E-03
            1007     11.4150E-03     95.7476E-03     3.81736E+06    -48.3656E+06    -5.99488E+06    -15.4365E+06    -26.5047E-03     51.1790E-03    -24.6743E-03     72.2787E-03    -26.4764E-03     51.0099E-03    -24.6397E-03     71.9864E-03
            1008     12.2926E-03     95.8151E-03     3.08489E+06    -40.4773E+06    -9.16378E+06    -15.6987E+06    -27.2552E-03     51.9541E-03    -24.6988E-03     80.3182E-03    -27.2780E-03     51.8707E-03    -24.6904E-03     79.9948E-03
            1009     13.1698E-03     95.8908E-03     1.73647E+06    -35.4628E+06    -13.9470E+06    -15.5626E+06    -28.1971E-03     52.9484E-03    -24.7513E-03     88.5662E-03    -28.2999E-03     52.9719E-03    -24.7721E-03     88.2074E-03
            1010     14.0459E-03     95.9742E-03    -1.48528E+06    -20.7752E+06    -22.4194E+06    -15.4409E+06    -29.4370E-03     54.2395E-03    -24.8026E-03     104.395E-03    -29.7218E-03     54.5104E-03    -24.8824E-03     104.001E-03
            1011     14.9214E-03     96.0810E-03    -4.09624E+06     11.2110E+06    -31.1802E+06    -11.7935E+06    -31.2727E-03     56.1030E-03    -24.8303E-03     141.453E-03    -32.2359E-03     57.1818E-03    -24.9965E-03     141.125E-03
            1012     15.7997E-03     96.2353E-03    -5.26120E+06     78.2993E+06    -12.8360E+06    -6.15224E+06    -35.7736E-03     60.6995E-03    -24.9260E-03     211.854E-03    -39.3439E-03     64.5664E-03    -25.0961E-03     212.371E-03
            1013     16.6757E-03     96.4810E-03    -4.38947E+06     133.862E+06     37.1463E+06    -2.19839E+06    -34.9299E-03     60.1191E-03    -25.1891E-03     208.915E-03    -39.5406E-03     65.0817E-03    -25.1911E-03     211.378E-03
            1014     878.071E-06     96.3518E-03     7.62341E+06    -30.2762E+06     6.61886E+06    -3.50397E+06    -24.7255E-03     49.4148E-03    -24.6893E-03     5.52116E-03    -24.6530E-03     49.2431E-03    -24.6233E-03     5.47389E-03
            1015     1.75616E-03     96.3584E-03     7.10264E+06    -30.7979E+06     5.66378E+06    -5.85985E+06    -24.6761E-03     49.3609E-03    -24.6848E-03     10.2364E-03    -24.6044E-03     49.1887E-03    -24.6222E-03     10.1569E-03
            1016     2.63436E-03     96.3694E-03     6.88469E+06    -33.4371E+06     5.13438E+06    -8.20137E+06    -24.6126E-03     49.2682E-03    -24.6556E-03     15.2988E-03    -24.5378E-03     49.0843E-03    -24.5915E-03     15.1871E-03
            1017     3.51260E-03     96.3848E-03     7.30271E+06    -35.3536E+06     5.48161E+06    -10.4588E+06    -24.5382E-03     49.1539E-03    -24.6157E-03     20.5245E-03    -24.4597E-03     48.9599E-03    -24.5476E-03     20.3813E-03
            1018     4.39097E-03     96.4049E-03     7.58044E+06    -38.0426E+06     6.13992E+06    -11.9322E+06    -24.4603E-03     49.0292E-03    -24.5689E-03     25.8674E-03    -24.3784E-03     48.8213E-03    -24.4940E-03     25.7025E-03
            1019     5.26950E-03     96.4295E-03     7.10933E+06    -41.3209E+06     5.19316E+06    -13.1618E+06    -24.4024E-03     48.9122E-03    -24.5099E-03     31.3630E-03    -24.3180E-03     48.6914E-03    -24.4343E-03     31.1790E-03
            1020     6.14814E-03     96.4590E-03     5.95492E+06    -43.1033E+06     3.72033E+06    -13.6092E+06    -24.3667E-03     48.8112E-03    -24.4445E-03     36.9959E-03    -24.2853E-03     48.5871E-03    -24.3720E-03     36.8020E-03
            1021     7.02685E-03     96.4933E-03     5.05368E+06    -44.8143E+06     2.92093E+06    -14.0758E+06    -24.3892E-03     48.7726E-03    -24.3834E-03     42.7794E-03    -24.3116E-03     48.5454E-03    -24.3111E-03     42.5742E-03
            1022     7.90573E-03     96.5329E-03     4.11884E+06    -45.7546E+06     354.645E+03    -14.3032E+06    -24.4925E-03     48.8112E-03    -24.3188E-03     48.7414E-03    -24.4187E-03     48.5887E-03    -24.2566E-03     48.5264E-03
            1023     8.78445E-03     96.5775E-03     2.99234E+06    -48.7842E+06     55.9577E+03    -14.2973E+06    -24.7145E-03     48.9959E-03    -24.2813E-03     54.7515E-03    -24.6482E-03     48.7667E-03    -24.2146E-03     54.5272E-03
            1024     9.66323E-03     96.6276E-03     2.74897E+06    -49.4662E+06    -2.22961E+06    -15.5269E+06    -25.1278E-03     49.3782E-03    -24.2505E-03     60.9399E-03    -25.0684E-03     49.1595E-03    -24.1939E-03     60.6871E-03
            1025     10.5416E-03     96.6830E-03     2.75610E+06    -49.1514E+06    -3.84948E+06    -15.7932E+06    -25.7045E-03     49.9546E-03    -24.2501E-03     67.2388E-03    -25.6586E-03     49.7552E-03    -24.2021E-03     66.9660E-03
            1026     11.4197E-03     96.7443E-03     2.90589E+06    -45.7048E+06    -5.19150E+06    -15.5999E+06    -26.4191E-03     50.6978E-03    -24.2787E-03     73.9557E-03    -26.3997E-03     50.5415E-03    -24.2426E-03     73.6641E-03
            1027     12.2972E-03     96.8122E-03     2.26299E+06    -39.7571E+06    -9.28856E+06    -15.8525E+06    -27.3755E-03     51.7020E-03    -24.3265E-03     82.1075E-03    -27.4033E-03     51.6237E-03    -24.3186E-03     81.7838E-03
            1028     13.1739E-03     96.8890E-03     1.06704E+06    -35.1861E+06    -11.0535E+06    -14.5692E+06    -28.4857E-03     52.9136E-03    -24.4279E-03     90.5219E-03    -28.5978E-03     52.9367E-03    -24.4337E-03     90.1763E-03
            1029     14.0501E-03     96.9734E-03     85.7919E+03    -19.8008E+06    -16.4747E+06    -13.7969E+06    -29.7070E-03     54.2309E-03    -24.5239E-03     106.034E-03    -29.9968E-03     54.4984E-03    -24.5777E-03     105.661E-03
            1030     14.9268E-03     97.0800E-03    -1.55820E+06     5.33977E+06    -28.5348E+06    -11.3418E+06    -32.0321E-03     56.6192E-03    -24.5871E-03     142.147E-03    -32.9820E-03     57.6653E-03    -24.7353E-03     141.815E-03
            1031     15.8010E-03     97.2345E-03    -2.72341E+06     73.0806E+06    -10.9012E+06    -5.07459E+06    -36.9611E-03     61.7027E-03    -24.7416E-03     212.709E-03    -40.5445E-03     65.5674E-03    -24.8981E-03     213.213E-03
            1032     16.6746E-03     97.4831E-03    -2.54024E+06     132.284E+06     38.5309E+06    -1.87233E+06    -35.7799E-03     60.8362E-03    -25.0562E-03     209.758E-03    -40.4132E-03     65.8184E-03    -25.0517E-03     212.210E-03
            1033     878.513E-06     97.3475E-03     10.9231E+06    -22.8804E+06     10.7026E+06    -4.02626E+06    -24.2342E-03     48.4554E-03    -24.2213E-03     5.57200E-03    -24.1618E-03     48.3101E-03    -24.1504E-03     5.51821E-03
            1034     1.75701E-03     97.3541E-03     10.8620E+06    -24.9461E+06     9.76463E+06    -6.09883E+06    -24.1862E-03     48.3930E-03    -24.2068E-03     10.3242E-03    -24.1102E-03     48.2386E-03    -24.1376E-03     10.2421E-03
            1035     2.63561E-03     97.3649E-03     10.4038E+06    -27.4956E+06     8.49603E+06    -8.47124E+06    -24.1299E-03     48.3014E-03    -24.1715E-03     15.4619E-03    -24.0509E-03     48.1371E-03    -24.1043E-03     15.3474E-03
            1036     3.51427E-03     97.3803E-03     9.26346E+06    -30.2260E+06     6.73319E+06    -10.5636E+06    -24.0284E-03     48.1500E-03    -24.1216E-03     20.7693E-03    -23.9492E-03     47.9768E-03    -24.0575E-03     20.6258E-03
            1037     4.39315E-03     97.3999E-03     8.16476E+06    -34.1141E+06     5.27811E+06    -11.9889E+06    -23.9184E-03     47.9790E-03    -24.0605E-03     26.2351E-03    -23.8378E-03     47.7909E-03    -23.9965E-03     26.0708E-03
            1038     5.27214E-03     97.4245E-03     7.27747E+06    -37.9291E+06     3.48568E+06    -12.6281E+06    -23.8460E-03     47.8355E-03    -23.9895E-03     31.8446E-03    -23.7629E-03     47.6334E-03    -23.9276E-03     31.6692E-03
            1039     6.15127E-03     97.4537E-03     6.35211E+06    -41.0095E+06     1.42997E+06    -12.8931E+06    -23.8197E-03     47.7347E-03    -23.9150E-03     37.6161E-03    -23.7355E-03     47.5233E-03    -23.8576E-03     37.4337E-03
            1040     7.03054E-03     97.4881E-03     4.99049E+06    -41.8650E+06     482.475E+03    -13.2642E+06    -23.8524E-03     47.6998E-03    -23.8474E-03     43.5816E-03    -23.7751E-03     47.4902E-03    -23.7915E-03     43.3894E-03
            1041     7.90976E-03     97.5274E-03     3.60426E+06    -44.4671E+06     255.979E+03    -13.4252E+06    -23.9733E-03     47.7682E-03    -23.7948E-03     49.7030E-03    -23.9030E-03     47.5520E-03    -23.7343E-03     49.5022E-03
            1042     8.78912E-03     97.5722E-03     3.53856E+06    -45.4156E+06     545.604E+03    -14.5723E+06    -24.2377E-03     47.9936E-03    -23.7558E-03     56.0048E-03    -24.1731E-03     47.7786E-03    -23.6924E-03     55.7804E-03
            1043     9.66818E-03     97.6224E-03     3.01702E+06    -47.4550E+06    -815.340E+03    -15.2090E+06    -24.7312E-03     48.4677E-03    -23.7365E-03     62.4375E-03    -24.6741E-03     48.2552E-03    -23.6761E-03     62.1925E-03
            1044     10.5470E-03     97.6786E-03     835.595E+03    -48.2615E+06    -2.83960E+06    -14.6982E+06    -25.4531E-03     49.2045E-03    -23.7514E-03     68.9375E-03    -25.4183E-03     49.0095E-03    -23.6968E-03     68.6825E-03
            1045     11.4251E-03     97.7403E-03    -771.363E+03    -41.9720E+06    -4.72473E+06    -16.4321E+06    -26.3750E-03     50.1745E-03    -23.7995E-03     75.8730E-03    -26.3792E-03     50.0407E-03    -23.7611E-03     75.5735E-03
            1046     12.3027E-03     97.8093E-03    -531.435E+03    -40.2997E+06    -9.16117E+06    -16.4889E+06    -27.5425E-03     51.4274E-03    -23.8849E-03     84.2589E-03    -27.5837E-03     51.3503E-03    -23.8715E-03     83.9290E-03
            1047     13.1795E-03     97.8871E-03    -664.338E+03    -35.6193E+06    -12.0462E+06    -14.7236E+06    -28.8572E-03     52.8783E-03    -24.0210E-03     92.6646E-03    -28.9771E-03     52.9043E-03    -24.0287E-03     92.3177E-03
            1048     14.0556E-03     97.9724E-03    -1.01530E+06    -18.2560E+06    -13.3396E+06    -14.5454E+06    -30.4738E-03     54.6638E-03    -24.1900E-03     107.231E-03    -30.7805E-03     54.9409E-03    -24.2287E-03     106.843E-03
            1049     14.9302E-03     98.0796E-03    -2.01500E+06    -353.014E+03    -25.4035E+06    -11.4211E+06    -33.2075E-03     57.5437E-03    -24.3363E-03     143.193E-03    -34.1685E-03     58.5701E-03    -24.4598E-03     142.841E-03
            1050     15.8047E-03     98.2371E-03    -2.58170E+06     65.8898E+06    -10.6685E+06    -5.14764E+06    -37.6547E-03     62.1965E-03    -24.5418E-03     213.134E-03    -41.2249E-03     66.0223E-03    -24.6869E-03     213.618E-03
            1051     16.6827E-03     98.4826E-03    -1.30588E+06     131.237E+06     38.7976E+06     -884.36E+03    -36.6150E-03     61.5116E-03    -24.8966E-03     209.775E-03    -41.2471E-03     66.4924E-03    -24.8910E-03     212.212E-03
            1052     878.934E-06     98.3423E-03     14.1471E+06    -15.7976E+06     14.7538E+06    -2.99768E+06    -23.6140E-03     47.2643E-03    -23.6504E-03     5.63355E-03    -23.5416E-03     47.1438E-03    -23.5742E-03     5.59335E-03
            1053     1.75808E-03     98.3487E-03     13.3239E+06    -18.7110E+06     13.3337E+06    -5.92143E+06    -23.5797E-03     47.1922E-03    -23.6124E-03     10.4792E-03    -23.5056E-03     47.0602E-03    -23.5379E-03     10.4000E-03
            1054     2.63715E-03     98.3595E-03     12.3773E+06    -22.1623E+06     10.4716E+06    -7.97717E+06    -23.4933E-03     47.0580E-03    -23.5647E-03     15.6682E-03    -23.4150E-03     46.9146E-03    -23.4981E-03     15.5609E-03
            1055     3.51646E-03     98.3744E-03     10.6837E+06    -25.4369E+06     6.75692E+06    -9.49379E+06    -23.3760E-03     46.8726E-03    -23.4966E-03     21.0588E-03    -23.2965E-03     46.7211E-03    -23.4415E-03     20.9303E-03
            1056     4.39585E-03     98.3941E-03     8.63109E+06    -29.8104E+06     3.53340E+06    -11.2502E+06    -23.2694E-03     46.6906E-03    -23.4212E-03     26.6436E-03    -23.1899E-03     46.5256E-03    -23.3728E-03     26.4904E-03
            1057     5.27545E-03     98.4182E-03     6.91341E+06    -35.3706E+06     1.30545E+06    -12.2064E+06    -23.1903E-03     46.5366E-03    -23.3463E-03     32.3929E-03    -23.1091E-03     46.3506E-03    -23.2985E-03     32.2249E-03
            1058     6.15518E-03     98.4474E-03     5.58304E+06    -38.4625E+06    -99.2531E+03    -12.5518E+06    -23.1663E-03     46.4375E-03    -23.2713E-03     38.3172E-03    -23.0868E-03     46.2416E-03    -23.2241E-03     38.1416E-03
            1059     7.03496E-03     98.4814E-03     4.38233E+06    -40.3624E+06    -196.963E+03    -12.2789E+06    -23.2099E-03     46.4162E-03    -23.2063E-03     44.4547E-03    -23.1360E-03     46.2151E-03    -23.1551E-03     44.2782E-03
            1060     7.91487E-03     98.5210E-03     3.00890E+06    -42.1454E+06     448.688E+03    -12.3813E+06    -23.3747E-03     46.5315E-03    -23.1568E-03     50.8043E-03    -23.3098E-03     46.3264E-03    -23.0979E-03     50.6203E-03
            1061     8.79460E-03     98.5656E-03     347.254E+03    -42.0876E+06     322.733E+03    -13.3363E+06    -23.7265E-03     46.8509E-03    -23.1244E-03     57.3577E-03    -23.6810E-03     46.6562E-03    -23.0622E-03     57.1528E-03
            1062     9.67424E-03     98.6165E-03    -2.23347E+06    -46.3552E+06    -336.141E+03    -13.7200E+06    -24.3260E-03     47.4546E-03    -23.1287E-03     64.0522E-03    -24.2960E-03     47.2532E-03    -23.0599E-03     63.8303E-03
            1063     10.5532E-03     98.6730E-03    -1.58811E+06    -45.3470E+06    -2.18199E+06    -15.1742E+06    -25.1991E-03     48.3578E-03    -23.1586E-03     70.8835E-03    -25.1802E-03     48.1786E-03    -23.1015E-03     70.6262E-03
            1064     11.4318E-03     98.7361E-03    -483.817E+03    -38.9989E+06    -2.28324E+06    -16.0126E+06    -26.3497E-03     49.5915E-03    -23.2417E-03     78.0678E-03    -26.3595E-03     49.4678E-03    -23.1959E-03     77.7768E-03
            1065     12.3092E-03     98.8058E-03    -2.52074E+06    -40.6325E+06    -5.54144E+06    -15.8339E+06    -27.7855E-03     51.1689E-03    -23.3834E-03     86.5286E-03    -27.8419E-03     51.0882E-03    -23.3485E-03     86.2085E-03
            1066     13.1857E-03     98.8852E-03    -4.38948E+06    -35.8294E+06    -11.1293E+06    -14.7721E+06    -29.5119E-03     53.0788E-03    -23.5668E-03     95.0921E-03    -29.6542E-03     53.1106E-03    -23.5642E-03     94.7426E-03
            1067     14.0605E-03     98.9722E-03    -5.68631E+06    -16.0160E+06    -8.67150E+06    -14.5430E+06    -31.6596E-03     55.4922E-03    -23.8326E-03     109.539E-03    -32.0100E-03     55.7908E-03    -23.8445E-03     109.141E-03
            1068     14.9344E-03     99.0809E-03    -5.60461E+06    -4.86374E+06    -21.3709E+06    -13.2259E+06    -34.5486E-03     58.6246E-03    -24.0760E-03     144.583E-03    -35.5456E-03     59.6464E-03    -24.1677E-03     144.188E-03
            1069     15.8084E-03     99.2378E-03    -5.20222E+06     57.1812E+06    -13.5442E+06    -6.78107E+06    -38.9681E-03     63.3107E-03    -24.3425E-03     212.327E-03    -42.5388E-03     67.1052E-03    -24.4856E-03     212.738E-03
            1070     16.6793E-03     99.4832E-03    -4.93953E+06     128.378E+06     33.5760E+06    -1.61662E+06    -37.3821E-03     62.1321E-03    -24.7500E-03     209.290E-03    -42.0386E-03     67.1294E-03    -24.7611E-03     211.688E-03
            1071     879.759E-06     99.3356E-03     15.6683E+06    -10.3693E+06     15.5833E+06    -2.10117E+06    -22.8907E-03     45.7664E-03    -22.8757E-03     5.73965E-03    -22.8198E-03     45.6696E-03    -22.8055E-03     5.71141E-03
            1072     1.75929E-03     99.3421E-03     14.7733E+06    -12.5032E+06     14.8177E+06    -4.62132E+06    -22.8206E-03     45.6818E-03    -22.8612E-03     10.6493E-03    -22.7502E-03     45.5766E-03    -22.7905E-03     10.5874E-03
            1073     2.63918E-03     99.3525E-03     13.2611E+06    -17.2067E+06     11.3842E+06    -7.12796E+06    -22.7150E-03     45.5225E-03    -22.8075E-03     15.9020E-03    -22.6407E-03     45.4012E-03    -22.7449E-03     15.8066E-03
            1074     3.51908E-03     99.3674E-03     11.7250E+06    -21.4514E+06     6.53270E+06    -8.64143E+06    -22.6050E-03     45.3345E-03    -22.7295E-03     21.3918E-03    -22.5256E-03     45.2016E-03    -22.6828E-03     21.2755E-03
            1075     4.39923E-03     99.3866E-03     9.13196E+06    -25.9329E+06     2.75617E+06    -9.46093E+06    -22.5034E-03     45.1532E-03    -22.6498E-03     27.0792E-03    -22.4255E-03     45.0077E-03    -22.6117E-03     26.9508E-03
            1076     5.27946E-03     99.4107E-03     5.64912E+06    -32.4858E+06     516.231E+03    -10.4619E+06    -22.4326E-03     45.0112E-03    -22.5786E-03     32.9668E-03    -22.3603E-03     44.8421E-03    -22.5371E-03     32.8234E-03
            1077     6.15983E-03     99.4395E-03     2.25171E+06    -36.2796E+06    -2.04673E+06    -10.9404E+06    -22.4026E-03     44.9051E-03    -22.5025E-03     39.0673E-03    -22.3395E-03     44.7271E-03    -22.4634E-03     38.9150E-03
            1078     7.04033E-03     99.4737E-03    -610.482E+03    -39.0973E+06    -3.13645E+06    -10.9852E+06    -22.4721E-03     44.9103E-03    -22.4381E-03     45.3930E-03    -22.4199E-03     44.7261E-03    -22.3963E-03     45.2362E-03
            1079     7.92084E-03     99.5129E-03    -2.90204E+06    -40.4196E+06    -1.82917E+06    -10.6724E+06    -22.7243E-03     45.1243E-03    -22.4001E-03     51.9743E-03    -22.6871E-03     44.9386E-03    -22.3464E-03     51.8157E-03
            1080     8.80121E-03     99.5583E-03    -4.90173E+06    -40.2740E+06     294.216E+03    -10.1901E+06    -23.1902E-03     45.5833E-03    -22.3931E-03     58.7607E-03    -23.1722E-03     45.4040E-03    -22.3261E-03     58.6001E-03
            1081     9.68108E-03     99.6092E-03    -5.95387E+06    -42.3250E+06     1.04822E+06    -12.5072E+06    -23.9170E-03     46.3382E-03    -22.4212E-03     65.8141E-03    -23.9121E-03     46.1588E-03    -22.3459E-03     65.6116E-03
            1082     10.5606E-03     99.6669E-03    -6.23386E+06    -40.1006E+06    -1.95630E+06    -16.7422E+06    -24.9714E-03     47.4462E-03    -22.4748E-03     73.0432E-03    -24.9824E-03     47.2984E-03    -22.4174E-03     72.7692E-03
            1083     11.4390E-03     99.7308E-03    -5.98248E+06    -40.4857E+06    -2.73924E+06    -16.5633E+06    -26.3805E-03     48.9866E-03    -22.6060E-03     80.4656E-03    -26.4144E-03     48.8635E-03    -22.5523E-03     80.1702E-03
            1084     12.3167E-03     99.8026E-03    -6.06911E+06    -40.1284E+06    -2.84549E+06    -13.4908E+06    -28.1396E-03     50.9510E-03    -22.8115E-03     89.0518E-03    -28.2194E-03     50.8751E-03    -22.7587E-03     88.7624E-03
            1085     13.1926E-03     99.8831E-03    -7.26762E+06    -34.2713E+06    -10.0906E+06    -14.2771E+06    -30.2243E-03     53.2756E-03    -23.0513E-03     98.1284E-03    -30.3888E-03     53.3220E-03    -23.0416E-03     97.7826E-03
            1086     14.0672E-03     99.9732E-03    -5.91736E+06    -13.6449E+06    -5.03466E+06    -15.7075E+06    -32.7159E-03     56.1191E-03    -23.4032E-03     112.842E-03    -33.0864E-03     56.4348E-03    -23.4000E-03     112.421E-03
            1087     14.9398E-03     100.083E-03    -5.56689E+06    -8.80022E+06    -18.4302E+06    -13.1708E+06    -36.1690E-03     59.9147E-03    -23.7457E-03     147.281E-03    -37.1945E-03     60.9428E-03    -23.8170E-03     146.861E-03
            1088     15.8103E-03     100.241E-03    -6.73302E+06     48.7703E+06    -17.6568E+06    -7.74461E+06    -40.6930E-03     64.7806E-03    -24.0876E-03     214.313E-03    -44.3069E-03     68.5949E-03    -24.2368E-03     214.658E-03
            1089     16.6852E-03     100.486E-03    -3.40988E+06     125.706E+06     29.0821E+06    -3.43644E+06    -38.5302E-03     63.0909E-03    -24.5607E-03     210.635E-03    -43.2152E-03     68.1257E-03    -24.5926E-03     212.968E-03
            1090     880.331E-06     100.328E-03     14.9998E+06    -5.64569E+06     13.6109E+06    -2.62070E+06    -21.9941E-03     43.9518E-03    -21.9577E-03     5.81410E-03    -21.9306E-03     43.8824E-03    -21.9032E-03     5.77946E-03
            1091     1.76102E-03     100.334E-03     14.1313E+06    -7.88170E+06     11.8028E+06    -3.85460E+06    -21.8902E-03     43.8289E-03    -21.9387E-03     10.7643E-03    -21.8253E-03     43.7520E-03    -21.8888E-03     10.7130E-03
            1092     2.64154E-03     100.344E-03     12.4462E+06    -11.8864E+06     9.87796E+06    -5.90548E+06    -21.8051E-03     43.6919E-03    -21.8868E-03     16.1262E-03    -21.7403E-03     43.6004E-03    -21.8383E-03     16.0476E-03
            1093     3.52232E-03     100.359E-03     9.89394E+06    -18.3760E+06     5.37325E+06    -7.53665E+06    -21.7143E-03     43.5333E-03    -21.8190E-03     21.6964E-03    -21.6466E-03     43.4198E-03    -21.7798E-03     21.5957E-03
            1094     4.40317E-03     100.378E-03     6.66334E+06    -24.3938E+06     649.741E+03    -6.95661E+06    -21.6155E-03     43.3578E-03    -21.7423E-03     27.4842E-03    -21.5488E-03     43.2262E-03    -21.7133E-03     27.3898E-03
            1095     5.28422E-03     100.401E-03     1.91960E+06    -30.2171E+06    -1.95549E+06    -6.20624E+06    -21.5481E-03     43.2219E-03    -21.6737E-03     33.5102E-03    -21.4937E-03     43.0726E-03    -21.6425E-03     33.4238E-03
            1096     6.16534E-03     100.430E-03    -3.73761E+06    -34.2935E+06    -4.40695E+06    -6.62923E+06    -21.5553E-03     43.1632E-03    -21.6080E-03     39.7753E-03    -21.5209E-03     43.0065E-03    -21.5748E-03     39.6811E-03
            1097     7.04660E-03     100.464E-03    -8.55883E+06    -37.0326E+06    -5.04794E+06    -7.54023E+06    -21.7158E-03     43.2774E-03    -21.5617E-03     46.3033E-03    -21.7026E-03     43.1170E-03    -21.5208E-03     46.1938E-03
            1098     7.92767E-03     100.504E-03    -11.2417E+06    -38.8796E+06    -4.37062E+06    -8.63040E+06    -22.0524E-03     43.5940E-03    -21.5416E-03     53.1131E-03    -22.0543E-03     43.4306E-03    -21.4908E-03     52.9842E-03
            1099     8.80850E-03     100.549E-03    -11.3352E+06    -39.0856E+06    -3.07111E+06    -9.32795E+06    -22.6007E-03     44.1515E-03    -21.5508E-03     60.2291E-03    -22.6103E-03     43.9910E-03    -21.4931E-03     60.0832E-03
            1100     9.68905E-03     100.601E-03    -11.3097E+06    -36.2743E+06    -1.05088E+06    -11.3297E+06    -23.4917E-03     45.0960E-03    -21.6043E-03     67.7068E-03    -23.5177E-03     44.9561E-03    -21.5406E-03     67.5234E-03
            1101     10.5687E-03     100.660E-03    -13.8676E+06    -35.2984E+06    -2.10400E+06    -14.0768E+06    -24.7804E-03     46.4917E-03    -21.7112E-03     75.3150E-03    -24.8351E-03     46.3779E-03    -21.6505E-03     75.0789E-03
            1102     11.4475E-03     100.725E-03    -16.9708E+06    -40.2387E+06    -4.68993E+06    -15.9146E+06    -26.4514E-03     48.3468E-03    -21.8954E-03     83.1497E-03    -26.5373E-03     48.2433E-03    -21.8359E-03     82.8652E-03
            1103     12.3246E-03     100.798E-03    -14.2452E+06    -39.7317E+06    -6.03127E+06    -17.4453E+06    -28.5042E-03     50.6553E-03    -22.1511E-03     92.1962E-03    -28.6221E-03     50.5991E-03    -22.1030E-03     91.8566E-03
            1104     13.2004E-03     100.882E-03    -7.18814E+06    -31.9457E+06    -9.84795E+06    -17.4168E+06    -30.9561E-03     53.4202E-03    -22.4641E-03     101.637E-03    -31.1285E-03     53.4823E-03    -22.4566E-03     101.248E-03
            1105     14.0741E-03     100.974E-03    -5.12423E+06    -13.2858E+06    -4.65893E+06    -16.7003E+06    -33.6826E-03     56.5788E-03    -22.8962E-03     116.255E-03    -34.0601E-03     56.9046E-03    -22.8928E-03     115.813E-03
            1106     14.9464E-03     101.087E-03    -5.84872E+06    -15.0266E+06    -18.6297E+06    -12.8745E+06    -37.3599E-03     60.6871E-03    -23.3272E-03     150.393E-03    -38.3994E-03     61.7066E-03    -23.3900E-03     149.959E-03
            1107     15.8180E-03     101.247E-03    -4.70165E+06     45.1798E+06    -18.5187E+06    -8.53421E+06    -42.2016E-03     65.9495E-03    -23.7479E-03     215.350E-03    -45.8277E-03     69.7731E-03    -23.8992E-03     215.631E-03
            1108     16.6877E-03     101.490E-03    -2.55802E+06     122.250E+06     26.3590E+06    -5.67508E+06    -40.9115E-03     65.2443E-03    -24.3328E-03     209.463E-03    -45.5919E-03     70.2733E-03    -24.3746E-03     211.626E-03
            1109     881.450E-06     101.317E-03     12.4110E+06    -538.397E+03     12.0960E+06    -2.56311E+06    -20.8963E-03     41.8465E-03    -20.9502E-03     5.84647E-03    -20.8509E-03     41.8085E-03    -20.9069E-03     5.81286E-03
            1110     1.76272E-03     101.323E-03     11.2644E+06    -4.41168E+06     8.26481E+06    -3.99700E+06    -20.8389E-03     41.7213E-03    -20.8824E-03     10.8401E-03    -20.7883E-03     41.6710E-03    -20.8510E-03     10.7875E-03
            1111     2.64439E-03     101.334E-03     8.67040E+06    -8.69155E+06     3.99624E+06    -4.16223E+06    -20.7559E-03     41.5770E-03    -20.8211E-03     16.2811E-03    -20.7059E-03     41.5153E-03    -20.8011E-03     16.2258E-03
            1112     3.52594E-03     101.348E-03     4.22554E+06    -15.9673E+06     711.190E+03    -4.26264E+06    -20.6909E-03     41.4586E-03    -20.7677E-03     21.9364E-03    -20.6481E-03     41.3720E-03    -20.7472E-03     21.8792E-03
            1113     4.40772E-03     101.367E-03    -415.557E+03    -24.8588E+06    -3.27206E+06    -3.79899E+06    -20.6224E-03     41.3331E-03    -20.7107E-03     27.8123E-03    -20.5845E-03     41.2149E-03    -20.6904E-03     27.7601E-03
            1114     5.28961E-03     101.390E-03    -4.05296E+06    -30.5835E+06    -5.70743E+06    -1.88316E+06    -20.5887E-03     41.2415E-03    -20.6528E-03     33.9445E-03    -20.5577E-03     41.1039E-03    -20.6311E-03     33.9159E-03
            1115     6.17163E-03     101.419E-03    -7.82363E+06    -32.7915E+06    -4.46327E+06    -1.04312E+06    -20.6925E-03     41.3087E-03    -20.6162E-03     40.3662E-03    -20.6799E-03     41.1648E-03    -20.5797E-03     40.3463E-03
            1116     7.05346E-03     101.453E-03    -12.0213E+06    -34.6186E+06    -3.46216E+06    -2.20111E+06    -20.9478E-03     41.5472E-03    -20.5994E-03     47.1238E-03    -20.9568E-03     41.4006E-03    -20.5491E-03     47.0858E-03
            1117     7.93517E-03     101.493E-03    -16.0771E+06    -35.3057E+06    -4.46436E+06    -4.77455E+06    -21.3485E-03     41.9463E-03    -20.5979E-03     54.2052E-03    -21.3784E-03     41.8068E-03    -20.5457E-03     54.1290E-03
            1118     8.81670E-03     101.539E-03    -18.7229E+06    -35.6971E+06    -5.18055E+06    -8.40070E+06    -22.0085E-03     42.6391E-03    -20.6306E-03     61.6895E-03    -22.0555E-03     42.5079E-03    -20.5776E-03     61.5590E-03
            1119     9.69762E-03     101.591E-03    -19.0440E+06    -32.9371E+06    -3.97788E+06    -10.3346E+06    -23.0712E-03     43.7875E-03    -20.7163E-03     69.6261E-03    -23.1350E-03     43.6783E-03    -20.6608E-03     69.4591E-03
            1120     10.5778E-03     101.652E-03    -18.5421E+06    -32.1997E+06    -1.52053E+06    -10.9567E+06    -24.5910E-03     45.4717E-03    -20.8808E-03     77.6749E-03    -24.6732E-03     45.3782E-03    -20.8148E-03     77.4823E-03
            1121     11.4563E-03     101.719E-03    -16.5894E+06    -33.6196E+06    -1.49237E+06    -15.4412E+06    -26.5094E-03     47.6274E-03    -21.1180E-03     86.0214E-03    -26.6073E-03     47.5514E-03    -21.0527E-03     85.7455E-03
            1122     12.3338E-03     101.794E-03    -14.2470E+06    -34.6901E+06    -5.16690E+06    -21.7955E+06    -28.9007E-03     50.3281E-03    -21.4274E-03     95.6442E-03    -29.0289E-03     50.2977E-03    -21.3823E-03     95.2489E-03
            1123     13.2091E-03     101.880E-03    -14.0141E+06    -34.9000E+06    -11.1933E+06    -21.4564E+06    -31.7602E-03     53.5877E-03    -21.8275E-03     105.541E-03    -31.9661E-03     53.6525E-03    -21.8125E-03     105.097E-03
            1124     14.0821E-03     101.976E-03    -13.2166E+06    -13.3307E+06    -3.72325E+06    -17.3300E+06    -34.9024E-03     57.2634E-03    -22.3610E-03     119.686E-03    -35.3351E-03     57.6129E-03    -22.3411E-03     119.224E-03
            1125     14.9536E-03     102.090E-03    -9.51224E+06    -18.6722E+06    -16.2277E+06    -16.9201E+06    -38.8419E-03     61.7428E-03    -22.9009E-03     152.379E-03    -39.9172E-03     62.7653E-03    -22.9412E-03     151.865E-03
            1126     15.8226E-03     102.253E-03    -5.17800E+06     39.3630E+06    -12.0500E+06    -12.6658E+06    -44.3922E-03     67.8557E-03    -23.4635E-03     215.272E-03    -48.0522E-03     71.6722E-03    -23.5734E-03     215.404E-03
            1127     16.6926E-03     102.496E-03    -2.50043E+06     118.213E+06     30.4402E+06    -6.09473E+06    -43.5072E-03     67.6863E-03    -24.1791E-03     208.220E-03    -48.2058E-03     72.7074E-03    -24.1947E-03     210.227E-03
            1128     882.303E-06     102.305E-03     9.34413E+06      4.0741E+06     8.36796E+06    -2.10668E+06    -19.7179E-03     39.4858E-03    -19.7678E-03     5.86188E-03    -19.6891E-03     39.4807E-03    -19.7455E-03     5.83441E-03
            1129     1.76491E-03     102.311E-03     6.51287E+06    -2.10651E+06     4.33356E+06    -2.44820E+06    -19.6895E-03     39.4010E-03    -19.7115E-03     10.8928E-03    -19.6603E-03     39.3748E-03    -19.6962E-03     10.8607E-03
            1130     2.64730E-03     102.321E-03     2.01378E+06    -9.07576E+06    -1.37388E+06    -1.12955E+06    -19.6255E-03     39.2880E-03    -19.6625E-03     16.3638E-03    -19.6005E-03     39.2418E-03    -19.6591E-03     16.3484E-03
            1131     3.53007E-03     102.335E-03    -3.17020E+06    -16.0177E+06    -5.31798E+06     781.519E+03    -19.5675E-03     39.1844E-03    -19.6169E-03     22.0586E-03    -19.5527E-03     39.1168E-03    -19.6157E-03     22.0675E-03
            1132     4.41270E-03     102.354E-03    -9.20632E+06    -25.4819E+06    -7.78903E+06     1.74135E+06    -19.5729E-03     39.1579E-03    -19.5850E-03     27.9901E-03    -19.5712E-03     39.0555E-03    -19.5736E-03     28.0107E-03
            1133     5.29549E-03     102.377E-03    -14.2589E+06    -31.9649E+06    -9.21136E+06     2.00383E+06    -19.6465E-03     39.2077E-03    -19.5612E-03     34.2268E-03    -19.6590E-03     39.0827E-03    -19.5402E-03     34.2498E-03
            1134     6.17820E-03     102.406E-03    -16.3084E+06    -32.5830E+06    -9.19966E+06     2.20729E+06    -19.7929E-03     39.3359E-03    -19.5430E-03     40.7992E-03    -19.8155E-03     39.2116E-03    -19.5181E-03     40.8232E-03
            1135     7.06089E-03     102.440E-03    -17.2912E+06    -33.0478E+06    -7.24408E+06     1.95478E+06    -20.0904E-03     39.6400E-03    -19.5495E-03     47.7824E-03    -20.1217E-03     39.5135E-03    -19.5128E-03     47.8003E-03
            1136     7.94337E-03     102.480E-03    -18.3825E+06    -30.4725E+06    -3.08729E+06    -590.144E+03    -20.6253E-03     40.2174E-03    -19.5921E-03     55.1625E-03    -20.6747E-03     40.1022E-03    -19.5367E-03     55.1430E-03
            1137     8.82537E-03     102.527E-03    -18.9404E+06    -29.3604E+06    -490.152E+03    -5.67958E+06    -21.4780E-03     41.1506E-03    -19.6726E-03     63.0100E-03    -21.5408E-03     41.0434E-03    -19.6051E-03     62.9175E-03
            1138     9.70673E-03     102.581E-03    -19.2895E+06    -31.4565E+06    -1.09913E+06    -8.83053E+06    -22.6875E-03     42.4871E-03    -19.7995E-03     71.4333E-03    -22.7575E-03     42.3800E-03    -19.7314E-03     71.2890E-03
            1139     10.5870E-03     102.642E-03    -17.9589E+06    -28.3000E+06     148.817E+03    -11.0997E+06    -24.3329E-03     44.3305E-03    -19.9976E-03     80.1412E-03    -24.4188E-03     44.2518E-03    -19.9298E-03     79.9503E-03
            1140     11.4662E-03     102.712E-03    -15.9383E+06    -23.6841E+06     1.48560E+06    -16.7991E+06    -26.5521E-03     46.8359E-03    -20.2838E-03     89.0540E-03    -26.6652E-03     46.8041E-03    -20.2189E-03     88.7631E-03
            1141     12.3433E-03     102.789E-03    -16.5355E+06    -30.0553E+06    -2.72213E+06    -20.5130E+06    -29.3855E-03     50.0562E-03    -20.6707E-03     99.0655E-03    -29.5380E-03     50.0513E-03    -20.6167E-03     98.6861E-03
            1142     13.2182E-03     102.879E-03    -18.8336E+06    -37.1601E+06    -10.3821E+06    -19.8238E+06    -32.6314E-03     53.7920E-03    -21.1607E-03     109.255E-03    -32.8656E-03     53.8578E-03    -21.1314E-03     108.827E-03
            1143     14.0906E-03     102.977E-03    -15.8897E+06    -9.66672E+06    -1.80661E+06    -22.4291E+06    -36.3778E-03     58.1676E-03    -21.7898E-03     123.797E-03    -36.8467E-03     58.5513E-03    -21.7618E-03     123.255E-03
            1144     14.9594E-03     103.097E-03    -8.64343E+06    -20.8994E+06    -14.9018E+06    -23.7644E+06    -41.2189E-03     63.6814E-03    -22.4625E-03     155.437E-03    -42.3238E-03     64.7249E-03    -22.4942E-03     154.788E-03
            1145     15.8276E-03     103.259E-03    -4.45752E+06     29.2240E+06    -11.3220E+06    -16.5955E+06    -46.5505E-03     69.7203E-03    -23.1698E-03     217.615E-03    -50.2287E-03     73.5193E-03    -23.2623E-03     217.608E-03
            1146     16.6916E-03     103.508E-03    -1.70399E+06     111.511E+06     29.2685E+06    -7.15212E+06    -45.6437E-03     69.6281E-03    -23.9845E-03     210.412E-03    -50.3468E-03     74.6363E-03    -23.9974E-03     212.275E-03
            1147     883.597E-06     103.290E-03     1.19097E+06     5.93610E+06     1.20587E+06    -304.400E+03    -18.5007E-03     36.9359E-03    -18.4352E-03     5.82335E-03    -18.5050E-03     36.9623E-03    -18.4395E-03     5.81936E-03
            1148     1.76701E-03     103.296E-03    -2.85312E+06    -3.26400E+06    -2.53322E+06     1.61476E+06    -18.4670E-03     36.9260E-03    -18.4590E-03     10.8624E-03    -18.4729E-03     36.9174E-03    -18.4628E-03     10.8831E-03
            1149     2.65071E-03     103.306E-03    -7.86667E+06    -12.3074E+06    -5.66536E+06     4.30886E+06    -18.4603E-03     36.9121E-03    -18.4518E-03     16.3028E-03    -18.4737E-03     36.8702E-03    -18.4509E-03     16.3581E-03
            1150     3.53417E-03     103.320E-03    -13.2719E+06    -18.9736E+06    -10.1910E+06     6.65472E+06    -18.4471E-03     36.8766E-03    -18.4295E-03     21.9964E-03    -18.4713E-03     36.8158E-03    -18.4337E-03     22.0819E-03
            1151     4.41799E-03     103.339E-03    -17.6254E+06    -27.1217E+06    -11.6615E+06     8.00259E+06    -18.5331E-03     36.9587E-03    -18.4256E-03     28.0008E-03    -18.5652E-03     36.8657E-03    -18.4190E-03     28.1032E-03
            1152     5.30147E-03     103.362E-03    -20.8624E+06    -31.2707E+06    -10.7096E+06     6.93851E+06    -18.6971E-03     37.1364E-03    -18.4393E-03     34.3536E-03    -18.7411E-03     37.0263E-03    -18.4173E-03     34.4415E-03
            1153     6.18496E-03     103.391E-03    -22.8855E+06    -31.7981E+06    -11.5171E+06     4.35005E+06    -18.8979E-03     37.3473E-03    -18.4495E-03     41.0805E-03    -18.9507E-03     37.2394E-03    -18.4278E-03     41.1336E-03
            1154     7.06845E-03     103.426E-03    -21.6677E+06    -31.9058E+06    -8.87574E+06     2.24501E+06    -19.2609E-03     37.7473E-03    -18.4864E-03     48.2643E-03    -19.3126E-03     37.6345E-03    -18.4531E-03     48.2879E-03
            1155     7.95164E-03     103.466E-03    -17.7874E+06    -25.9564E+06    -1.32281E+06    -517.062E+03    -19.8921E-03     38.4564E-03    -18.5643E-03     55.9504E-03    -19.9466E-03     38.3594E-03    -18.5075E-03     55.9343E-03
            1156     8.83426E-03     103.514E-03    -15.8068E+06    -24.4904E+06     2.82125E+06    -3.16831E+06    -20.8834E-03     39.5650E-03    -18.6816E-03     64.2453E-03    -20.9411E-03     39.4715E-03    -18.6091E-03     64.1881E-03
            1157     9.71602E-03     103.569E-03    -16.0795E+06    -27.5488E+06     2.68357E+06    -6.42417E+06    -22.2587E-03     41.1094E-03    -18.8507E-03     73.2046E-03    -22.3223E-03     41.0103E-03    -18.7740E-03     73.0946E-03
            1158     10.5969E-03     103.632E-03    -15.7973E+06    -21.9921E+06     3.63361E+06    -11.4350E+06    -24.0908E-03     43.1806E-03    -19.0898E-03     82.5785E-03    -24.1787E-03     43.1238E-03    -19.0169E-03     82.3867E-03
            1159     11.4762E-03     103.704E-03    -15.9756E+06    -16.7401E+06     5.50237E+06    -15.0642E+06    -26.6383E-03     46.0741E-03    -19.4358E-03     92.1781E-03    -26.7671E-03     46.0709E-03    -19.3608E-03     91.9119E-03
            1160     12.3531E-03     103.785E-03    -17.0611E+06    -27.0338E+06     2.47895E+06    -17.3313E+06    -29.8838E-03     49.7891E-03    -19.9053E-03     102.737E-03    -30.0532E-03     49.7949E-03    -19.8290E-03     102.398E-03
            1161     13.2274E-03     103.877E-03    -14.0265E+06    -33.4024E+06    -3.70571E+06    -21.2180E+06    -33.4853E-03     53.9615E-03    -20.4762E-03     113.601E-03    -33.7166E-03     54.0354E-03    -20.4260E-03     113.151E-03
            1162     14.0989E-03     103.980E-03    -9.76703E+06    -1.60425E+06     3.47676E+06    -26.3209E+06    -37.7003E-03     58.8824E-03    -21.1821E-03     129.174E-03    -38.1724E-03     59.3044E-03    -21.1482E-03     128.569E-03
            1163     14.9680E-03     104.104E-03    -9.74344E+06    -22.9366E+06    -13.8035E+06    -28.4891E+06    -43.6767E-03     65.6578E-03    -21.9811E-03     160.902E-03    -44.8201E-03     66.7257E-03    -22.0027E-03     160.143E-03
            1164     15.8312E-03     104.271E-03    -7.03668E+06     16.3302E+06    -14.9579E+06    -21.0689E+06    -49.1241E-03     71.9600E-03    -22.8358E-03     218.154E-03    -52.8043E-03     75.7166E-03    -22.9241E-03     217.970E-03
            1165     16.7031E-03     104.514E-03    -4.03291E+06     100.846E+06     23.0800E+06    -9.15762E+06    -47.9976E-03     71.7806E-03    -23.7830E-03     210.014E-03    -52.7026E-03     76.7626E-03    -23.8080E-03     211.655E-03
            1166     884.596E-06     104.273E-03    -11.9154E+06    -35.1622E+03    -6.98360E+06     6.47824E+06    -17.2062E-03     34.3767E-03    -17.1705E-03     5.68151E-03    -17.2554E-03     34.4041E-03    -17.1881E-03     5.76518E-03
            1167     1.76936E-03     104.279E-03    -16.5661E+06    -8.86987E+06    -8.79100E+06     9.09584E+06    -17.2515E-03     34.4741E-03    -17.2226E-03     10.6800E-03    -17.3087E-03     34.4664E-03    -17.2297E-03     10.7975E-03
            1168     2.65381E-03     104.289E-03    -20.2935E+06    -17.1629E+06    -11.5904E+06     10.6739E+06    -17.2961E-03     34.5417E-03    -17.2456E-03     16.0826E-03    -17.3559E-03     34.5020E-03    -17.2492E-03     16.2204E-03
            1169     3.53856E-03     104.303E-03    -21.6279E+06    -22.7547E+06    -12.3736E+06     11.3962E+06    -17.3928E-03     34.6600E-03    -17.2672E-03     21.8185E-03    -17.4500E-03     34.5955E-03    -17.2647E-03     21.9656E-03
            1170     4.42289E-03     104.321E-03    -21.6352E+06    -29.5823E+06    -11.9040E+06     11.4344E+06    -17.5516E-03     34.8518E-03    -17.3001E-03     27.9151E-03    -17.5997E-03     34.7525E-03    -17.2854E-03     28.0625E-03
            1171     5.30745E-03     104.345E-03    -21.0109E+06    -29.8344E+06    -10.3533E+06     10.0028E+06    -17.7287E-03     35.0626E-03    -17.3340E-03     34.2999E-03    -17.7757E-03     34.9591E-03    -17.3120E-03     34.4282E-03
            1172     6.19184E-03     104.374E-03    -20.4764E+06    -29.1787E+06    -7.43753E+06     6.90415E+06    -18.0424E-03     35.4268E-03    -17.3844E-03     41.1729E-03    -18.0925E-03     35.3221E-03    -17.3496E-03     41.2601E-03
            1173     7.07586E-03     104.409E-03    -20.1535E+06    -28.0586E+06    -4.53337E+06     2.11022E+06    -18.5103E-03     35.9658E-03    -17.4556E-03     48.6044E-03    -18.5657E-03     35.8632E-03    -17.4084E-03     48.6277E-03
            1174     7.95966E-03     104.450E-03    -19.5624E+06    -22.9942E+06    -2.46833E+06    -1.38430E+06    -19.1417E-03     36.6858E-03    -17.5441E-03     56.6090E-03    -19.2067E-03     36.6069E-03    -17.4948E-03     56.5837E-03
            1175     8.84307E-03     104.499E-03    -17.9314E+06    -22.6881E+06     123.983E+03    -2.49659E+06    -20.1708E-03     37.8528E-03    -17.6821E-03     65.3570E-03    -20.2363E-03     37.7738E-03    -17.6226E-03     65.3115E-03
            1176     9.72560E-03     104.555E-03    -15.0549E+06    -20.6809E+06     5.17057E+06    -6.10831E+06    -21.7579E-03     39.6531E-03    -17.8952E-03     74.8860E-03    -21.8283E-03     39.5816E-03    -17.8175E-03     74.7832E-03
            1177     10.6067E-03     104.620E-03    -12.0829E+06    -15.6260E+06     9.42912E+06    -11.2630E+06    -23.9231E-03     42.1153E-03    -18.1922E-03     84.9057E-03    -24.0088E-03     42.0753E-03    -18.1049E-03     84.7190E-03
            1178     11.4860E-03     104.695E-03    -10.0081E+06    -14.7078E+06     11.0597E+06    -12.8332E+06    -26.6607E-03     45.2541E-03    -18.5934E-03     95.3743E-03    -26.7697E-03     45.2433E-03    -18.5023E-03     95.1398E-03
            1179     12.3631E-03     104.779E-03     -7.7128E+06    -20.0988E+06     10.6109E+06    -16.0269E+06    -30.1227E-03     49.2412E-03    -19.1185E-03     106.950E-03    -30.2676E-03     49.2568E-03    -19.0251E-03     106.630E-03
            1180     13.2373E-03     104.876E-03    -6.98434E+06    -25.3104E+06     4.13106E+06    -22.9241E+06    -34.2937E-03     54.0520E-03    -19.7583E-03     118.536E-03    -34.5184E-03     54.1504E-03    -19.6908E-03     118.060E-03
            1181     14.1088E-03     104.983E-03    -9.11553E+06     3.34681E+06     8.09313E+06    -25.3108E+06    -39.1192E-03     59.6747E-03    -20.5555E-03     134.444E-03    -39.6167E-03     60.1288E-03    -20.5067E-03     133.836E-03
            1182     14.9757E-03     105.113E-03    -12.4539E+06    -20.0703E+06    -9.04711E+06    -25.7369E+06    -45.2095E-03     66.6716E-03    -21.4621E-03     166.625E-03    -46.3850E-03     67.7583E-03    -21.4602E-03     165.872E-03
            1183     15.8398E-03     105.285E-03    -15.5202E+06     7.37400E+06    -13.2265E+06    -25.7958E+06    -52.5591E-03     75.0263E-03    -22.4672E-03     222.589E-03    -56.3558E-03     78.8328E-03    -22.5215E-03     222.157E-03
            1184     16.6939E-03     105.525E-03    -8.12107E+06     84.4616E+06     19.3332E+06    -16.6919E+06    -51.5922E-03     75.1705E-03    -23.5783E-03     212.367E-03    -56.3927E-03     80.1860E-03    -23.5923E-03     213.665E-03
            1185     885.851E-06     105.253E-03    -25.8576E+06    -17.8395E+06    -22.5093E+06     12.4129E+06    -16.0349E-03     32.0895E-03    -16.0546E-03     5.52857E-03    -16.1056E-03     32.0707E-03    -16.1038E-03     5.68880E-03
            1186     1.77127E-03     105.259E-03    -25.9716E+06    -18.6935E+06    -16.1555E+06     16.9982E+06    -16.1059E-03     32.2014E-03    -16.0955E-03     10.3310E-03    -16.1852E-03     32.1690E-03    -16.1115E-03     10.5505E-03
            1187     2.65697E-03     105.269E-03    -26.3085E+06    -21.2865E+06    -12.9720E+06     16.3393E+06    -16.2154E-03     32.3583E-03    -16.1429E-03     15.7655E-03    -16.2973E-03     32.3087E-03    -16.1387E-03     15.9766E-03
            1188     3.54230E-03     105.283E-03    -25.9225E+06    -25.6592E+06    -12.2178E+06      14.145E+06    -16.4016E-03     32.5927E-03    -16.1911E-03     21.5589E-03    -16.4762E-03     32.5195E-03    -16.1774E-03     21.7416E-03
            1189     4.42780E-03     105.302E-03    -23.5949E+06    -30.2941E+06    -11.9121E+06     11.7387E+06    -16.6018E-03     32.8449E-03    -16.2431E-03     27.6520E-03    -16.6586E-03     32.7448E-03    -16.2245E-03     27.8036E-03
            1190     5.31296E-03     105.326E-03    -19.8956E+06    -29.2125E+06    -9.31681E+06     9.26856E+06    -16.8350E-03     33.1347E-03    -16.2997E-03     34.0895E-03    -16.8787E-03     33.0310E-03    -16.2751E-03     34.2089E-03
            1191     6.19814E-03     105.355E-03    -16.4588E+06    -27.1019E+06    -5.30312E+06     7.24565E+06    -17.1988E-03     33.5709E-03    -16.3721E-03     41.0771E-03    -17.2346E-03     33.4673E-03    -16.3354E-03     41.1695E-03
            1192     7.08303E-03     105.391E-03    -14.9645E+06    -22.7100E+06    -1.57617E+06     3.97960E+06    -17.7000E-03     34.1622E-03    -16.4622E-03     48.6850E-03    -17.7410E-03     34.0739E-03    -16.4154E-03     48.7337E-03
            1193     7.96752E-03     105.433E-03    -14.7951E+06    -20.3652E+06     852.796E+03     298.349E+03    -18.4368E-03     35.0169E-03    -16.5801E-03     57.0304E-03    -18.4858E-03     34.9385E-03    -16.5249E-03     57.0287E-03
            1194     8.85147E-03     105.482E-03    -13.4099E+06    -19.9120E+06     4.09287E+06    -3.07334E+06    -19.5687E-03     36.3177E-03    -16.7490E-03     66.2258E-03    -19.6202E-03     36.2390E-03    -16.6802E-03     66.1751E-03
            1195     9.73458E-03     105.540E-03    -10.5709E+06    -13.9645E+06     9.66631E+06    -7.23782E+06    -21.2447E-03     38.2332E-03    -16.9886E-03     76.3794E-03    -21.3071E-03     38.1806E-03    -16.9046E-03     76.2652E-03
            1196     10.6161E-03     105.607E-03    -9.52196E+06    -11.6029E+06     12.2462E+06    -10.0434E+06    -23.5353E-03     40.8498E-03    -17.3145E-03     87.2243E-03    -23.6158E-03     40.8199E-03    -17.2227E-03     87.0573E-03
            1197     11.4957E-03     105.685E-03    -9.04256E+06    -11.4745E+06     13.3834E+06    -12.8691E+06    -26.4099E-03     44.1589E-03    -17.7489E-03     98.7144E-03    -26.5197E-03     44.1571E-03    -17.6523E-03     98.4840E-03
            1198     12.3733E-03     105.773E-03    -6.94876E+06    -12.2155E+06     13.1142E+06    -17.5643E+06    -30.1353E-03     48.4408E-03    -18.3055E-03     111.428E-03    -30.2900E-03     48.4896E-03    -18.2121E-03     111.092E-03
            1199     13.2479E-03     105.874E-03    -6.70102E+06    -18.8339E+06     7.20295E+06    -20.2718E+06    -35.0680E-03     54.0783E-03    -19.0103E-03     124.108E-03    -35.3097E-03     54.2089E-03    -18.9373E-03     123.663E-03
            1200     14.1171E-03     105.987E-03    -8.38095E+06     6.08779E+06     11.8036E+06    -21.3612E+06    -40.5174E-03     60.4222E-03    -19.9047E-03     140.527E-03    -41.0349E-03     60.8977E-03    -19.8424E-03     139.955E-03
            1201     14.9838E-03     106.121E-03    -8.25896E+06    -16.1385E+06    -1.63628E+06    -23.0825E+06    -46.7824E-03     67.7031E-03    -20.9208E-03     172.049E-03    -47.9542E-03     68.7937E-03    -20.8936E-03     171.296E-03
            1202     15.8481E-03     106.298E-03    -4.53952E+06     9.08207E+06    -4.46493E+06    -25.2725E+06    -54.3923E-03     76.4075E-03    -22.0152E-03     228.598E-03    -58.1700E-03     80.2147E-03    -22.0441E-03     228.049E-03
            1203     16.7118E-03     106.553E-03    -3.52831E+06     68.9410E+06     22.5153E+06    -20.6133E+06    -55.7300E-03     79.0089E-03    -23.2789E-03     214.219E-03    -60.4745E-03     83.9210E-03    -23.2611E-03     215.162E-03
            1204     886.263E-06     106.231E-03    -52.1763E+06    -37.8346E+06    -53.6167E+06     7.76945E+06    -15.1138E-03     30.2025E-03    -15.0888E-03     5.34518E-03    -15.2419E-03     30.1671E-03    -15.2263E-03     5.44542E-03
            1205     1.77305E-03     106.237E-03    -41.1545E+06    -31.0904E+06    -38.8537E+06     13.5189E+06    -15.1072E-03     30.2385E-03    -15.1313E-03     9.94616E-03    -15.2115E-03     30.1990E-03    -15.2208E-03     10.1206E-03
            1206     2.65941E-03     106.247E-03    -30.6524E+06    -25.8848E+06    -22.1157E+06     15.5181E+06    -15.2307E-03     30.4198E-03    -15.1891E-03     15.3133E-03    -15.3144E-03     30.3668E-03    -15.2177E-03     15.5137E-03
            1207     3.54585E-03     106.262E-03    -23.6778E+06    -27.1992E+06    -13.3644E+06     14.1460E+06    -15.4499E-03     30.6995E-03    -15.2496E-03     21.1214E-03    -15.5094E-03     30.6171E-03    -15.2427E-03     21.3042E-03
            1208     4.43184E-03     106.281E-03    -19.8594E+06    -28.9643E+06    -10.5146E+06     10.7372E+06    -15.7108E-03     31.0183E-03    -15.3076E-03     27.2405E-03    -15.7527E-03     30.9174E-03    -15.2894E-03     27.3793E-03
            1209     5.31804E-03     106.305E-03    -17.0812E+06    -28.3165E+06    -7.45793E+06     7.49019E+06    -16.0354E-03     31.4167E-03    -15.3813E-03     33.7506E-03    -16.0690E-03     31.3107E-03    -15.3528E-03     33.8473E-03
            1210     6.20376E-03     106.335E-03    -13.8240E+06    -26.0228E+06    -4.45576E+06     5.27013E+06    -16.4058E-03     31.8715E-03    -15.4657E-03     40.7479E-03    -16.4310E-03     31.7681E-03    -15.4302E-03     40.8154E-03
            1211     7.08945E-03     106.371E-03    -10.1225E+06    -19.9504E+06    -57.7034E+03     3.63400E+06    -16.8950E-03     32.4604E-03    -15.5654E-03     48.4367E-03    -16.9175E-03     32.3762E-03    -15.5221E-03     48.4819E-03
            1212     7.97476E-03     106.413E-03    -7.65322E+06    -17.3087E+06     5.69562E+06     1.63814E+06    -17.7510E-03     33.4605E-03    -15.7095E-03     57.0809E-03    -17.7749E-03     33.3793E-03    -15.6448E-03     57.0979E-03
            1213     8.85924E-03     106.464E-03    -7.03277E+06    -14.7838E+06     10.5700E+06    -2.15733E+06    -19.0269E-03     34.9341E-03    -15.9072E-03     66.7656E-03    -19.0622E-03     34.8613E-03    -15.8227E-03     66.7287E-03
            1214     9.74262E-03     106.523E-03    -7.30572E+06    -8.66163E+06     13.4495E+06    -6.46118E+06    -20.6622E-03     36.8221E-03    -16.1599E-03     77.5532E-03    -20.7194E-03     36.7836E-03    -16.0695E-03     77.4524E-03
            1215     10.6250E-03     106.593E-03    -5.79601E+06    -8.98224E+06     15.0144E+06    -9.09152E+06    -22.8676E-03     39.3623E-03    -16.4947E-03     89.2152E-03    -22.9338E-03     39.3325E-03    -16.3982E-03     89.0657E-03
            1216     11.5056E-03     106.673E-03    -3.53024E+06    -5.32791E+06     18.4093E+06    -12.0928E+06    -25.9009E-03     42.8403E-03    -16.9394E-03     101.736E-03    -25.9951E-03     42.8498E-03    -16.8345E-03     101.521E-03
            1217     12.3834E-03     106.765E-03    -3.72862E+06    -5.75844E+06     18.9588E+06    -16.1247E+06    -30.1273E-03     47.6534E-03    -17.5261E-03     115.845E-03    -30.2807E-03     47.7184E-03    -17.4175E-03     115.532E-03
            1218     13.2576E-03     106.871E-03    -3.64718E+06    -16.2544E+06     12.8524E+06    -18.3871E+06    -35.5113E-03     53.7910E-03    -18.2797E-03     130.128E-03    -35.7496E-03     53.9218E-03    -18.1866E-03     129.709E-03
            1219     14.1280E-03     106.992E-03    -1.74418E+06     10.2501E+06     17.5807E+06    -19.4584E+06    -41.4885E-03     60.7171E-03    -19.2286E-03     146.923E-03    -41.9919E-03     61.2002E-03    -19.1530E-03     146.367E-03
            1220     14.9939E-03     107.130E-03     2.01825E+06    -10.0960E+06     7.59673E+06    -24.0382E+06    -49.1479E-03     69.5038E-03    -20.3559E-03     178.522E-03    -50.3031E-03     70.6092E-03    -20.3062E-03     177.701E-03
            1221     15.8530E-03     107.315E-03     4.57767E+06     10.4810E+06     2.41354E+06    -27.2617E+06    -57.4968E-03     79.0957E-03    -21.5989E-03     231.490E-03    -61.2177E-03     82.8639E-03    -21.6086E-03     230.714E-03
            1222     16.7118E-03     107.565E-03     2.22364E+06     54.1128E+06     25.2986E+06    -17.5351E+06    -59.6153E-03     82.6752E-03    -23.0599E-03     214.254E-03    -64.3177E-03     87.5053E-03    -23.0151E-03     214.891E-03
            1223     887.127E-06     107.208E-03    -77.4992E+06    -44.8423E+06    -77.7806E+06    -831.597E+03    -14.4055E-03     28.8039E-03    -14.3984E-03     5.16445E-03    -14.6150E-03     28.8052E-03    -14.6099E-03     5.15360E-03
            1224     1.77390E-03     107.214E-03    -68.0070E+06    -39.2965E+06    -67.3698E+06     334.623E+03    -14.3942E-03     28.8108E-03    -14.4165E-03     9.65547E-03    -14.5796E-03     28.8106E-03    -14.5978E-03     9.65963E-03
            1225     2.66121E-03     107.224E-03    -53.8606E+06    -31.1388E+06    -53.3174E+06     3.32631E+06    -14.4369E-03     28.8720E-03    -14.4351E-03     14.7097E-03    -14.5838E-03     28.8717E-03    -14.5784E-03     14.7525E-03
            1226     3.54827E-03     107.239E-03    -38.9079E+06    -28.5521E+06    -37.7723E+06     4.58402E+06    -14.5656E-03     29.0431E-03    -14.4775E-03     20.2232E-03    -14.6640E-03     29.0115E-03    -14.5685E-03     20.2824E-03
            1227     4.43552E-03     107.258E-03    -26.2394E+06    -28.5195E+06    -22.3862E+06     4.57906E+06    -14.8387E-03     29.3872E-03    -14.5485E-03     26.2764E-03    -14.8961E-03     29.3150E-03    -14.5810E-03     26.3356E-03
            1228     5.32203E-03     107.283E-03    -17.4942E+06    -27.0989E+06    -11.7752E+06     3.56200E+06    -15.2100E-03     29.8391E-03    -14.6291E-03     32.8489E-03    -15.2411E-03     29.7460E-03    -14.6233E-03     32.8949E-03
            1229     6.20861E-03     107.313E-03    -11.8882E+06    -24.9254E+06    -5.65339E+06     2.07462E+06    -15.6440E-03     30.3611E-03    -14.7171E-03     39.9314E-03    -15.6593E-03     30.2620E-03    -14.6919E-03     39.9579E-03
            1230     7.09476E-03     107.349E-03    -8.52851E+06    -19.7263E+06     442.715E+03     1.56366E+06    -16.2374E-03     31.0679E-03    -14.8304E-03     47.7824E-03    -16.2528E-03     30.9816E-03    -14.7873E-03     47.8014E-03
            1231     7.98064E-03     107.392E-03    -5.75229E+06    -15.3565E+06     7.24726E+06     932.038E+03    -17.1339E-03     32.1216E-03    -14.9877E-03     56.6608E-03    -17.1528E-03     32.0445E-03    -14.9208E-03     56.6697E-03
            1232     8.86572E-03     107.444E-03    -3.18556E+06    -10.3085E+06     13.2920E+06    -1.09861E+06    -18.3625E-03     33.5548E-03    -15.1923E-03     66.6743E-03    -18.3877E-03     33.4935E-03    -15.1062E-03     66.6532E-03
            1233     9.74990E-03     107.505E-03    -2.33005E+06    -4.34787E+06     17.7968E+06    -3.70579E+06    -19.9786E-03     35.4316E-03    -15.4530E-03     77.9633E-03    -20.0210E-03     35.3987E-03    -15.3543E-03     77.9015E-03
            1234     10.6328E-03     107.577E-03    -2.36739E+06    -3.16041E+06     20.4231E+06    -8.81107E+06    -22.1476E-03     37.9372E-03    -15.7896E-03     90.3782E-03    -22.2089E-03     37.9196E-03    -15.6795E-03     90.2375E-03
            1235     11.5140E-03     107.660E-03    -221.496E+03    -1.39912E+06     23.3102E+06    -12.7148E+06    -25.2567E-03     41.4859E-03    -16.2292E-03     104.043E-03    -25.3410E-03     41.4969E-03    -16.1103E-03     103.829E-03
            1236     12.3928E-03     107.756E-03     2.77488E+06    -1.35266E+06     25.9066E+06    -13.6859E+06    -29.7716E-03     46.5927E-03    -16.8211E-03     119.867E-03    -29.9014E-03     46.6527E-03    -16.6936E-03     119.595E-03
            1237     13.2673E-03     107.869E-03     3.56929E+06    -11.6078E+06     21.1874E+06    -16.9319E+06    -35.5543E-03     53.1481E-03    -17.5938E-03     135.708E-03    -35.7673E-03     53.2716E-03    -17.4763E-03     135.315E-03
            1238     14.1375E-03     107.994E-03     3.90086E+06     12.5260E+06     23.3386E+06    -18.7776E+06    -42.2821E-03     60.8563E-03    -18.5742E-03     153.377E-03    -42.7631E-03     61.3287E-03    -18.4814E-03     152.826E-03
            1239     15.0021E-03     108.142E-03     3.74027E+06     1.81861E+06     15.3600E+06    -25.0699E+06    -51.5276E-03     71.3223E-03    -19.7947E-03     186.021E-03    -52.6988E-03     72.4699E-03    -19.7260E-03     185.133E-03
            1240     15.8627E-03     108.334E-03     1.34357E+06     8.70965E+06     38.3779E+03    -28.3670E+06    -61.9676E-03     83.1522E-03    -21.1846E-03     238.340E-03    -65.6658E-03     86.8870E-03    -21.1990E-03     237.276E-03
            1241     16.7118E-03     108.593E-03    -239.819E+03     33.8813E+06     10.8416E+06    -14.8855E+06    -63.9580E-03     86.7715E-03    -22.8135E-03     221.878E-03    -68.7321E-03     91.6343E-03    -22.8081E-03     222.219E-03
            1242     887.206E-06     108.183E-03    -73.6202E+06    -40.1932E+06    -72.0518E+06    -3.70243E+06    -14.0449E-03     28.0794E-03    -14.0345E-03     4.91247E-03    -14.2501E-03     28.0900E-03    -14.2297E-03     4.86445E-03
            1243     1.77481E-03     108.189E-03    -71.3927E+06    -37.2218E+06    -67.8118E+06    -6.92867E+06    -14.0887E-03     28.1504E-03    -14.0616E-03     9.27355E-03    -14.2934E-03     28.1662E-03    -14.2432E-03     9.18373E-03
            1244     2.66187E-03     108.199E-03    -66.3145E+06    -31.7872E+06    -63.9045E+06    -8.54178E+06    -14.1074E-03     28.1800E-03    -14.0727E-03     13.9922E-03    -14.3003E-03     28.2100E-03    -14.2499E-03     13.8814E-03
            1245     3.54943E-03     108.214E-03    -58.2437E+06    -28.4588E+06    -55.7154E+06    -8.41621E+06    -14.1148E-03     28.2052E-03    -14.0903E-03     19.0633E-03    -14.2841E-03     28.2283E-03    -14.2432E-03     18.9541E-03
            1246     4.43675E-03     108.234E-03    -47.3304E+06    -28.6147E+06    -45.1317E+06    -8.14030E+06    -14.1955E-03     28.3103E-03    -14.1148E-03     24.6993E-03    -14.3254E-03     28.3014E-03    -14.2303E-03     24.5937E-03
            1247     5.32452E-03     108.259E-03    -34.5857E+06     -26.621E+06    -36.0279E+06    -7.37638E+06    -14.4186E-03     28.5535E-03    -14.1350E-03     30.9996E-03    -14.5008E-03     28.5230E-03    -14.2264E-03     30.9040E-03
            1248     6.21171E-03     108.289E-03    -22.3317E+06    -24.4409E+06    -21.1928E+06    -6.63113E+06    -14.8708E-03     29.0822E-03    -14.2115E-03     38.0798E-03    -14.9165E-03     29.0234E-03    -14.2496E-03     37.9937E-03
            1249     7.09865E-03     108.326E-03    -10.8099E+06    -21.3659E+06    -4.11244E+06    -4.94066E+06    -15.6157E-03     29.9602E-03    -14.3446E-03     46.1698E-03    -15.6334E-03     29.8756E-03    -14.3185E-03     46.1049E-03
            1250     7.98470E-03     108.370E-03    -2.26239E+06    -15.8620E+06     7.12293E+06    -2.59835E+06    -16.5698E-03     31.0724E-03    -14.5026E-03     55.2928E-03    -16.5699E-03     30.9875E-03    -14.4407E-03     55.2569E-03
            1251     8.87030E-03     108.423E-03     1.35335E+06    -9.21036E+06     14.7739E+06    -1.10207E+06    -17.7139E-03     32.4139E-03    -14.7001E-03     65.5025E-03    -17.7188E-03     32.3481E-03    -14.6148E-03     65.4832E-03
            1252     9.75517E-03     108.486E-03     3.10199E+06    -661.834E+03     21.5773E+06    -2.29638E+06    -19.2520E-03     34.2019E-03    -14.9500E-03     77.1391E-03    -19.2754E-03     34.1715E-03    -14.8456E-03     77.0988E-03
            1253     10.6388E-03     108.560E-03     5.16663E+06     5.64055E+06     27.6779E+06    -7.33140E+06    -21.4231E-03     36.6974E-03    -15.2744E-03     90.2128E-03    -21.4652E-03     36.6977E-03    -15.1516E-03     90.0967E-03
            1254     11.5207E-03     108.645E-03     5.68970E+06     1.24805E+06     29.4213E+06    -11.7910E+06    -24.5450E-03     40.2451E-03    -15.7001E-03     105.132E-03    -24.6044E-03     40.2439E-03    -15.5630E-03     104.937E-03
            1255     12.3999E-03     108.746E-03     6.73438E+06     1.83220E+06     30.1643E+06    -14.0311E+06    -28.9851E-03     45.2443E-03    -16.2592E-03     122.686E-03    -29.0921E-03     45.2945E-03    -16.1208E-03     122.421E-03
            1256     13.2761E-03     108.864E-03     8.55657E+06    -7.45679E+06     26.8464E+06    -14.9682E+06    -35.0883E-03     52.1003E-03    -17.0120E-03     140.491E-03    -35.2721E-03     52.2106E-03    -16.8794E-03     140.137E-03
            1257     14.1464E-03     108.998E-03     6.66950E+06     14.1893E+06     27.8997E+06    -14.8074E+06    -42.7956E-03     60.7962E-03    -18.0006E-03     159.895E-03    -43.2515E-03     61.2461E-03    -17.8914E-03     159.399E-03
            1258     15.0119E-03     109.152E-03     871.122E+03     17.4119E+06     23.9468E+06    -19.8827E+06    -53.0153E-03     72.2910E-03    -19.2757E-03     195.034E-03    -54.1998E-03     73.4721E-03    -19.1825E-03     194.182E-03
            1259     15.8659E-03     109.358E-03    -6.13843E+06     9.03002E+06     5.37248E+06    -24.7997E+06    -63.8088E-03     84.5437E-03    -20.7348E-03     247.852E-03    -67.3736E-03     88.1041E-03    -20.7122E-03     246.696E-03
            1260     16.7237E-03     109.617E-03    -6.28225E+06     12.3194E+06     8.01782E+06    -17.4820E+06    -68.7499E-03     91.2281E-03    -22.4783E-03     231.541E-03    -73.4843E-03     95.9626E-03    -22.4469E-03     231.478E-03
            1261     887.610E-06     109.159E-03    -52.7465E+06    -32.5988E+06    -52.6712E+06    -4.16501E+06    -14.1024E-03     28.1528E-03    -14.0504E-03     4.52918E-03    -14.2423E-03     28.1431E-03    -14.1900E-03     4.47502E-03
            1262     1.77467E-03     109.164E-03    -51.4866E+06    -29.3261E+06    -48.4031E+06    -7.42532E+06    -14.1712E-03     28.2761E-03    -14.1049E-03     8.61599E-03    -14.3160E-03     28.2744E-03    -14.2298E-03     8.51942E-03
            1263     2.66219E-03     109.175E-03    -50.2819E+06    -26.4154E+06    -43.2855E+06    -10.8185E+06    -14.2578E-03     28.4160E-03    -14.1581E-03     12.9733E-03    -14.4084E-03     28.4198E-03    -14.2634E-03     12.8326E-03
            1264     3.54920E-03     109.189E-03    -48.6236E+06    -24.9349E+06    -40.6082E+06    -13.0958E+06    -14.2877E-03     28.4801E-03    -14.1924E-03     17.6496E-03    -14.4361E-03     28.4851E-03    -14.2888E-03     17.4791E-03
            1265     4.43667E-03     109.209E-03    -46.3860E+06    -24.7280E+06    -40.8180E+06    -15.4294E+06    -14.2612E-03     28.4547E-03    -14.1935E-03     22.7414E-03    -14.3985E-03     28.4580E-03    -14.2945E-03     22.5407E-03
            1266     5.32397E-03     109.233E-03    -42.4915E+06    -24.4675E+06    -40.3639E+06    -17.6939E+06    -14.2831E-03     28.4629E-03    -14.1798E-03     28.3849E-03    -14.4021E-03     28.4613E-03    -14.2846E-03     28.1549E-03
            1267     6.21177E-03     109.264E-03    -35.4066E+06    -23.8249E+06    -30.6508E+06    -17.7508E+06    -14.5239E-03     28.7363E-03    -14.2123E-03     34.9436E-03    -14.6227E-03     28.7136E-03    -14.2797E-03     34.7129E-03
            1268     7.09901E-03     109.302E-03    -25.7283E+06    -22.5455E+06    -17.4504E+06    -16.6888E+06    -15.0692E-03     29.3570E-03    -14.2878E-03     42.7741E-03    -15.1407E-03     29.3078E-03    -14.3051E-03     42.5569E-03
            1269     7.98597E-03     109.347E-03    -13.0550E+06    -19.4503E+06    -4.83394E+06    -13.3179E+06    -15.9052E-03     30.3045E-03    -14.3993E-03     51.8822E-03    -15.9366E-03     30.2346E-03    -14.3764E-03     51.7080E-03
            1270     8.87201E-03     109.401E-03     1.34735E+06    -12.0867E+06     10.9173E+06    -8.50588E+06    -17.0656E-03     31.6380E-03    -14.5724E-03     62.3513E-03    -17.0599E-03     31.5625E-03    -14.5022E-03     62.2376E-03
            1271     9.75714E-03     109.465E-03     12.3073E+06     247.873E+03     24.8823E+06    -5.51155E+06    -18.6021E-03     33.3998E-03    -14.7977E-03     74.3014E-03    -18.5832E-03     33.3533E-03    -14.6915E-03     74.2226E-03
            1272     10.6415E-03     109.540E-03     15.4901E+06     10.4717E+06     33.8361E+06    -4.95905E+06    -20.6389E-03     35.7264E-03    -15.0875E-03     87.8445E-03    -20.6398E-03     35.7215E-03    -14.9560E-03     87.7646E-03
            1273     11.5239E-03     109.630E-03     13.8615E+06     6.02588E+06     35.7924E+06    -7.29395E+06    -23.5756E-03     39.0441E-03    -15.4685E-03     103.869E-03    -23.5996E-03     39.0350E-03    -15.3184E-03     103.742E-03
            1274     12.4045E-03     109.733E-03     10.5228E+06     6.25951E+06     35.6412E+06    -10.8049E+06    -27.9320E-03     43.9057E-03    -15.9737E-03     123.246E-03    -28.0155E-03     43.9456E-03    -15.8198E-03     123.039E-03
            1275     13.2810E-03     109.858E-03     8.37804E+06    -5.03819E+06     31.3405E+06    -13.8193E+06    -34.0915E-03     50.7634E-03    -16.6718E-03     143.233E-03    -34.2555E-03     50.8487E-03    -16.5200E-03     142.917E-03
            1276     14.1534E-03     109.999E-03     8.87906E+06     11.4455E+06     31.3908E+06    -10.7453E+06    -42.2329E-03     59.8413E-03    -17.6085E-03     165.392E-03    -42.6321E-03     60.2225E-03    -17.4810E-03     164.972E-03
            1277     15.0169E-03     110.165E-03     1.83926E+06     27.8318E+06     32.8589E+06    -6.26407E+06    -52.5565E-03     71.4017E-03    -18.8453E-03     202.708E-03    -53.6742E-03     72.5304E-03    -18.7240E-03     202.048E-03
            1278     15.8804E-03     110.377E-03    -7.09002E+06     24.0654E+06     20.8347E+06    -16.2564E+06    -64.9567E-03     85.2730E-03    -20.3163E-03     255.274E-03    -68.2614E-03     88.5791E-03    -20.2367E-03     254.091E-03
            1279     16.7294E-03     110.647E-03    -6.24151E+06    -2.96118E+06     23.5688E+06    -22.7918E+06    -72.9237E-03     95.1149E-03    -22.1911E-03     242.069E-03    -77.5391E-03     99.6316E-03    -22.0599E-03     241.542E-03
            1280     886.839E-06     110.134E-03    -32.1861E+06    -24.1288E+06    -31.6503E+06    -4.68071E+06    -14.6314E-03     29.2117E-03    -14.5803E-03     4.01648E-03    -14.7113E-03     29.1840E-03    -14.6569E-03     3.95542E-03
            1281     1.77417E-03     110.140E-03    -31.7522E+06    -22.2647E+06    -30.0772E+06    -7.03853E+06    -14.6924E-03     29.3181E-03    -14.6256E-03     7.67232E-03    -14.7754E-03     29.2965E-03    -14.6977E-03     7.58028E-03
            1282     2.66082E-03     110.150E-03    -31.1714E+06    -19.3834E+06    -25.8082E+06    -9.40264E+06    -14.8357E-03     29.5193E-03    -14.6836E-03     11.5367E-03    -14.9263E-03     29.5053E-03    -14.7394E-03     11.4135E-03
            1283     3.54781E-03     110.165E-03    -29.8817E+06    -18.6455E+06    -21.3113E+06    -12.5425E+06    -14.9921E-03     29.7501E-03    -14.7581E-03     15.5898E-03    -15.0841E-03     29.7316E-03    -14.7942E-03     15.4254E-03
            1284     4.43435E-03     110.184E-03    -28.0976E+06    -18.2000E+06    -18.0131E+06    -15.5710E+06    -15.1009E-03     29.9261E-03    -14.8252E-03     19.9750E-03    -15.1898E-03     29.9027E-03    -14.8481E-03     19.7708E-03
            1285     5.32119E-03     110.209E-03    -27.4650E+06    -18.3896E+06    -15.3318E+06    -18.6824E+06    -15.1720E-03     30.0537E-03    -14.8817E-03     24.8548E-03    -15.2616E-03     30.0249E-03    -14.8919E-03     24.6100E-03
            1286     6.20769E-03     110.240E-03    -27.5982E+06    -20.9714E+06    -15.3368E+06    -21.0868E+06    -15.2458E-03     30.1640E-03    -14.9182E-03     30.5522E-03    -15.3327E-03     30.1229E-03    -14.9245E-03     30.2761E-03
            1287     7.09464E-03     110.278E-03    -26.4692E+06    -20.0374E+06    -14.4923E+06    -22.2680E+06    -15.3818E-03     30.3269E-03    -14.9451E-03     37.3834E-03    -15.4659E-03     30.2878E-03    -14.9501E-03     37.0920E-03
            1288     7.98143E-03     110.323E-03    -22.2778E+06    -19.6679E+06    -9.52826E+06    -23.9872E+06    -15.7475E-03     30.7418E-03    -14.9942E-03     45.6793E-03    -15.8187E-03     30.6916E-03    -14.9811E-03     45.3657E-03
            1289     8.86805E-03     110.378E-03    -12.6336E+06    -15.6198E+06    -264.468E+03    -23.0671E+06    -16.5380E-03     31.6170E-03    -15.0790E-03     55.8112E-03    -16.5809E-03     31.5603E-03    -15.0393E-03     55.5092E-03
            1290     9.75392E-03     110.443E-03     289.313E+03    -5.53702E+06     13.2462E+06    -16.7109E+06    -17.8224E-03     33.0448E-03    -15.2224E-03     67.8147E-03    -17.8365E-03     33.0020E-03    -15.1486E-03     67.5931E-03
            1291     10.6382E-03     110.521E-03     10.5395E+06     5.82265E+06     27.8640E+06    -7.41460E+06    -19.6005E-03     35.0420E-03    -15.4415E-03     81.7955E-03    -19.6055E-03     35.0243E-03    -15.3259E-03     81.6894E-03
            1292     11.5219E-03     110.611E-03     14.2903E+06     10.7961E+06     36.8421E+06    -4.33563E+06    -22.3640E-03     38.1087E-03    -15.7447E-03     98.7947E-03    -22.3824E-03     38.1094E-03    -15.5968E-03     98.7169E-03
            1293     12.4030E-03     110.720E-03     13.3977E+06     7.96723E+06     39.5899E+06    -4.63549E+06    -26.6019E-03     42.7758E-03    -16.1740E-03     119.462E-03    -26.6559E-03     42.7911E-03    -16.0070E-03     119.353E-03
            1294     13.2814E-03     110.848E-03      9.6823E+06     3.76159E+06     39.5276E+06    -8.51794E+06    -32.4310E-03     49.2167E-03    -16.7858E-03     141.689E-03    -32.5704E-03     49.2896E-03    -16.6076E-03     141.471E-03
            1295     14.1540E-03     110.998E-03     9.01757E+06     4.78233E+06     37.4221E+06    -11.5985E+06    -40.1764E-03     57.7905E-03    -17.6141E-03     166.728E-03    -40.4964E-03     58.0516E-03    -17.4470E-03     166.346E-03
            1296     15.0240E-03     111.172E-03     14.6690E+06     16.9963E+06     45.5657E+06     3.07843E+06    -51.2996E-03     70.0586E-03    -18.7590E-03     204.966E-03    -52.1962E-03     70.9366E-03    -18.5771E-03     204.472E-03
            1297     15.8812E-03     111.394E-03     11.5184E+06     58.6682E+06     48.9344E+06     1.20407E+06    -65.4062E-03     85.5823E-03    -20.1761E-03     259.090E-03    -68.2495E-03     88.5343E-03    -20.0332E-03     258.047E-03
            1298     16.7340E-03     111.680E-03     2.43251E+06    -823.308E+03     40.8889E+06    -17.1746E+06    -74.4597E-03     96.5124E-03    -22.0527E-03     252.239E-03    -78.8519E-03     100.794E-03    -21.8506E-03     251.433E-03
            1299     886.284E-06     111.111E-03    -12.9667E+06    -16.1233E+06    -11.2549E+06    -3.16332E+06    -15.7358E-03     31.5146E-03    -15.7788E-03     3.27773E-03    -15.7608E-03     31.4695E-03    -15.7929E-03     3.23598E-03
            1300     1.77201E-03     111.117E-03    -13.0089E+06    -15.7474E+06    -11.1408E+06    -6.53353E+06    -15.8757E-03     31.6616E-03    -15.7858E-03     6.42581E-03    -15.9020E-03     31.6179E-03    -15.7998E-03     6.33961E-03
            1301     2.65825E-03     111.128E-03    -12.1183E+06    -13.6279E+06    -9.29028E+06    -8.67665E+06    -16.1018E-03     31.9582E-03    -15.8564E-03     9.59560E-03    -16.1296E-03     31.9214E-03    -15.8655E-03     9.48075E-03
            1302     3.54377E-03     111.143E-03    -11.6804E+06    -12.0275E+06    -3.47942E+06    -10.8557E+06    -16.3973E-03     32.3775E-03    -15.9802E-03     12.8087E-03    -16.4340E-03     32.3399E-03    -15.9632E-03     12.6646E-03
            1303     4.42932E-03     111.163E-03    -11.6545E+06    -11.7384E+06     1.17828E+06    -13.7081E+06    -16.6981E-03     32.8195E-03    -16.1215E-03     16.2710E-03    -16.7422E-03     32.7770E-03    -16.0817E-03     16.0888E-03
            1304     5.31436E-03     111.187E-03    -11.2362E+06    -12.4117E+06     3.37845E+06    -15.9024E+06    -16.9492E-03     33.2058E-03    -16.2566E-03     20.1897E-03    -16.9941E-03     33.1565E-03    -16.2054E-03     19.9780E-03
            1305     6.19951E-03     111.218E-03    -11.1198E+06    -15.2279E+06     3.30753E+06    -18.2368E+06    -17.0994E-03     33.4736E-03    -16.3742E-03     24.7838E-03    -17.1401E-03     33.4108E-03    -16.3194E-03     24.5409E-03
            1306     7.08438E-03     111.255E-03    -11.4739E+06    -15.4201E+06     2.37619E+06    -20.8672E+06    -17.1077E-03     33.5690E-03    -16.4613E-03     30.3389E-03    -17.1492E-03     33.5077E-03    -16.4104E-03     30.0615E-03
            1307     7.96965E-03     111.301E-03    -13.0185E+06    -13.5150E+06     3.03477E+06    -23.7050E+06    -17.0972E-03     33.6256E-03    -16.5284E-03     37.1359E-03    -17.1507E-03     33.5757E-03    -16.4748E-03     36.8217E-03
            1308     8.85507E-03     111.355E-03    -16.0760E+06    -14.0331E+06     1.92371E+06    -26.8476E+06    -17.2014E-03     33.7756E-03    -16.5742E-03     45.7226E-03    -17.2684E-03     33.7297E-03    -16.5209E-03     45.3681E-03
            1309     9.74045E-03     111.422E-03    -15.9833E+06    -11.6898E+06     3.05891E+06    -25.4857E+06    -17.5955E-03     34.2146E-03    -16.6192E-03     56.5537E-03    -17.6674E-03     34.1792E-03    -16.5638E-03     56.2173E-03
            1310     10.6261E-03     111.499E-03    -7.49169E+06    -3.98234E+06     14.8556E+06    -18.9988E+06    -18.7299E-03     35.4546E-03    -16.7246E-03     69.9606E-03    -18.7892E-03     35.4298E-03    -16.6337E-03     69.7071E-03
            1311     11.5099E-03     111.593E-03     4.97692E+06     6.47920E+06     31.9491E+06    -9.63817E+06    -21.0146E-03     37.9360E-03    -16.9214E-03     87.2323E-03    -21.0566E-03     37.9261E-03    -16.7783E-03     87.0946E-03
            1312     12.3919E-03     111.703E-03     12.8001E+06     6.54959E+06     42.7463E+06    -3.89721E+06    -24.7999E-03     42.0358E-03    -17.2359E-03     108.997E-03    -24.8355E-03     42.0164E-03    -17.0502E-03     108.917E-03
            1313     13.2705E-03     111.837E-03     15.3706E+06     10.0495E+06     48.9925E+06    -2.90971E+06    -30.2034E-03     47.9139E-03    -17.7105E-03     132.628E-03    -30.2881E-03     47.9471E-03    -17.5024E-03     132.518E-03
            1314     14.1472E-03     111.992E-03     13.1702E+06     9.91930E+06     49.9699E+06    -7.64584E+06    -37.7558E-03     56.1656E-03    -18.4098E-03     158.516E-03    -37.9821E-03     56.3296E-03    -18.1935E-03     158.244E-03
            1315     15.0152E-03     112.175E-03     20.5810E+06    -4.74139E+06     53.2717E+06    -8.52706E+06    -49.4306E-03     68.8716E-03    -19.4410E-03     198.763E-03    -50.0519E-03     69.3957E-03    -19.1977E-03     198.198E-03
            1316     15.8784E-03     112.412E-03     40.7852E+06     65.0291E+06     61.9989E+06     8.06835E+06    -61.7728E-03     82.4228E-03    -20.6500E-03     253.787E-03    -63.7742E-03     84.6210E-03    -20.4934E-03     252.977E-03
            1317     16.7338E-03     112.703E-03     36.1472E+06     19.1202E+06     40.5294E+06     15.3240E+06    -71.2027E-03     93.4073E-03    -22.2046E-03     259.822E-03    -75.0058E-03     97.2927E-03    -22.0821E-03     259.255E-03
            1318     884.306E-06     112.091E-03     3.90635E+06    -10.4488E+06     4.09043E+06    -2.17363E+06    -17.6760E-03     35.4050E-03    -17.7291E-03     2.43743E-03    -17.6472E-03     35.3414E-03    -17.6991E-03     2.40804E-03
            1319     1.76905E-03     112.098E-03     3.41474E+06    -8.68568E+06     6.09207E+06    -4.99585E+06    -17.9927E-03     35.7657E-03    -17.7730E-03     4.84102E-03    -17.9723E-03     35.7085E-03    -17.7349E-03     4.77380E-03
            1320     2.65285E-03     112.108E-03     2.91152E+06    -8.96344E+06     8.01464E+06    -7.58734E+06    -18.3362E-03     36.2580E-03    -17.9218E-03     7.00992E-03    -18.3209E-03     36.1974E-03    -17.8730E-03     6.90777E-03
            1321     3.53681E-03     112.124E-03     3.45588E+06    -7.03562E+06     11.6873E+06      -8.888E+06    -18.7157E-03     36.8167E-03    -18.1010E-03     9.26648E-03    -18.7061E-03     36.7599E-03    -18.0374E-03     9.14591E-03
            1322     4.41999E-03     112.144E-03     4.15780E+06    -5.89964E+06     16.4673E+06    -10.8181E+06    -19.1821E-03     37.4917E-03    -18.3096E-03     11.7358E-03    -19.1781E-03     37.4331E-03    -18.2247E-03     11.5885E-03
            1323     5.30295E-03     112.169E-03     4.29017E+06    -7.59230E+06     17.8464E+06    -13.1159E+06    -19.6332E-03     38.1579E-03    -18.5246E-03     14.5471E-03    -19.6287E-03     38.0891E-03    -18.4306E-03     14.3681E-03
            1324     6.18534E-03     112.200E-03     3.42237E+06    -10.4464E+06     17.3974E+06    -14.3618E+06    -19.9762E-03     38.7121E-03    -18.7359E-03     17.8657E-03    -19.9720E-03     38.6317E-03    -18.6388E-03     17.6688E-03
            1325     7.06768E-03     112.238E-03     1.31346E+06    -9.23874E+06     16.4287E+06    -16.6938E+06    -20.1825E-03     39.1103E-03    -18.9279E-03     21.9415E-03    -20.1901E-03     39.0411E-03    -18.8342E-03     21.7129E-03
            1326     7.94980E-03     112.282E-03    -479.890E+03    -8.35468E+06     14.7489E+06    -19.0409E+06    -20.2093E-03     39.3003E-03    -19.0910E-03     26.9926E-03    -20.2257E-03     39.2414E-03    -19.0044E-03     26.7324E-03
            1327     8.83192E-03     112.337E-03    -2.86176E+06    -8.47811E+06     14.5844E+06    -20.3208E+06    -20.0465E-03     39.2739E-03    -19.2274E-03     33.2922E-03    -20.0753E-03     39.2189E-03    -19.1380E-03     33.0150E-03
            1328     9.71490E-03     112.401E-03    -7.31227E+06    -11.1645E+06     13.3656E+06    -22.0302E+06    -19.8758E-03     39.2037E-03    -19.3279E-03     41.2734E-03    -19.9221E-03     39.1442E-03    -19.2343E-03     40.9744E-03
            1329     10.5979E-03     112.480E-03    -12.0896E+06    -7.74000E+06     14.7133E+06    -22.2149E+06    -20.0246E-03     39.4385E-03    -19.4139E-03     51.7825E-03    -20.1025E-03     39.4019E-03    -19.3116E-03     51.4816E-03
            1330     11.4812E-03     112.572E-03    -11.2316E+06    -2.77996E+06     23.6991E+06    -18.8048E+06    -20.8954E-03     40.4370E-03    -19.5416E-03     66.4372E-03    -20.9905E-03     40.4124E-03    -19.4028E-03     66.1807E-03
            1331     12.3638E-03     112.686E-03    -2.08944E+06     1.39461E+06     39.6923E+06    -12.2725E+06    -23.1473E-03     42.9027E-03    -19.7554E-03     86.7410E-03    -23.2306E-03     42.8677E-03    -19.5560E-03     86.5652E-03
            1332     13.2441E-03     112.822E-03     10.7572E+06     8.74767E+06     54.2449E+06    -8.59807E+06    -27.5735E-03     47.6624E-03    -20.0889E-03     110.568E-03    -27.6452E-03     47.6461E-03    -19.8460E-03     110.418E-03
            1333     14.1183E-03     112.983E-03     17.5392E+06     10.1805E+06     56.9166E+06    -1.68611E+06    -35.0272E-03     55.6471E-03    -20.6200E-03     137.661E-03    -35.1453E-03     55.6990E-03    -20.3756E-03     137.530E-03
            1334     14.9890E-03     113.174E-03     10.5868E+06     5.47511E+06     51.0659E+06    -10.4438E+06    -45.4785E-03     66.9251E-03    -21.4465E-03     178.864E-03    -45.8912E-03     67.2475E-03    -21.2145E-03     178.414E-03
            1335     15.8499E-03     113.418E-03     3.07731E+06     29.3437E+06     41.1837E+06    -11.7637E+06    -53.9914E-03     76.4059E-03    -22.4144E-03     229.892E-03    -55.2274E-03     77.6380E-03    -22.2555E-03     229.123E-03
            1336     16.7167E-03     113.708E-03    -831.841E+03     8.01004E+06     13.2213E+06     17.5744E+06    -55.8630E-03     79.1928E-03    -23.3299E-03     254.452E-03    -58.5867E-03     81.9077E-03    -23.2742E-03     254.219E-03
            1337     882.248E-06     113.076E-03     16.7765E+06    -5.87238E+06     16.0471E+06    -2.61659E+06    -20.8691E-03     41.4759E-03    -20.6067E-03     1.67456E-03    -20.8002E-03     41.3989E-03    -20.5423E-03     1.63908E-03
            1338     1.76354E-03     113.082E-03     16.2036E+06    -4.36561E+06     18.4272E+06    -2.98027E+06    -21.2853E-03     42.1507E-03    -20.8654E-03     2.80339E-03    -21.2254E-03     42.0782E-03    -20.7904E-03     2.76141E-03
            1339     2.64491E-03     113.095E-03     15.9882E+06    -3.49288E+06     22.6903E+06    -5.15050E+06    -21.6626E-03     42.7728E-03    -21.1102E-03     3.80309E-03    -21.6114E-03     42.6989E-03    -21.0148E-03     3.73125E-03
            1340     3.52547E-03     113.110E-03     15.6275E+06    -4.33673E+06     22.8135E+06    -6.78331E+06    -22.1180E-03     43.4560E-03    -21.3380E-03     5.03964E-03    -22.0678E-03     43.3784E-03    -21.2403E-03     4.94473E-03
            1341     4.40593E-03     113.131E-03     14.5279E+06    -1.25929E+06     22.5295E+06    -7.62402E+06    -22.6684E-03     44.2489E-03    -21.5805E-03     6.44855E-03    -22.6281E-03     44.1890E-03    -21.4871E-03     6.34064E-03
            1342     5.28549E-03     113.156E-03     12.1153E+06    -3.92399E+06     23.5122E+06    -8.70489E+06    -23.3253E-03     45.1963E-03    -21.8709E-03     8.04669E-03    -23.2951E-03     45.1255E-03    -21.7653E-03     7.92236E-03
            1343     6.16460E-03     113.188E-03     9.65360E+06    -6.70045E+06     23.7854E+06    -10.0659E+06    -23.9951E-03     46.1831E-03    -22.1879E-03     9.96425E-03    -23.9742E-03     46.1020E-03    -22.0733E-03     9.81965E-03
            1344     7.04294E-03     113.226E-03     7.92110E+06    -4.24703E+06     23.6639E+06    -11.7553E+06    -24.5762E-03     47.0882E-03    -22.5120E-03     12.3621E-03    -24.5681E-03     47.0226E-03    -22.3990E-03     12.1929E-03
            1345     7.92069E-03     113.271E-03     4.57796E+06    -4.07733E+06     22.2706E+06    -13.5335E+06    -25.0240E-03     47.8632E-03    -22.8393E-03     15.2872E-03    -25.0319E-03     47.8060E-03    -22.7286E-03     15.0924E-03
            1346     8.79844E-03     113.324E-03     483.027E+03    -5.71340E+06     21.5899E+06    -14.1843E+06    -25.3538E-03     48.5231E-03    -23.1693E-03     18.8215E-03    -25.3802E-03     48.4653E-03    -23.0537E-03     18.6155E-03
            1347     9.67524E-03     113.389E-03    -2.46357E+06    -6.35668E+06     24.2359E+06    -14.9985E+06    -25.5416E-03     49.0459E-03    -23.5043E-03     23.2602E-03    -25.5872E-03     48.9863E-03    -23.3703E-03     23.0410E-03
            1348     10.5521E-03     113.465E-03    -4.47877E+06    -6.66055E+06     25.5921E+06    -16.0994E+06    -25.5478E-03     49.3658E-03    -23.8180E-03     29.2545E-03    -25.6068E-03     49.3065E-03    -23.6739E-03     29.0190E-03
            1349     11.4292E-03     113.558E-03    -7.56263E+06    -3.80069E+06     28.5846E+06    -16.5168E+06    -25.5558E-03     49.6821E-03    -24.1263E-03     37.8930E-03    -25.6405E-03     49.6382E-03    -23.9669E-03     37.6512E-03
            1350     12.3064E-03     113.668E-03    -8.88171E+06    -2.27228E+06     34.3985E+06    -17.9418E+06    -25.6860E-03     50.1322E-03    -24.4463E-03     51.0926E-03    -25.7894E-03     50.0905E-03    -24.2581E-03     50.8336E-03
            1351     13.1836E-03     113.806E-03    -8.86766E+06     3.34208E+06     42.9261E+06    -14.7890E+06    -26.5798E-03     51.3677E-03    -24.7879E-03     69.8691E-03    -26.7076E-03     51.3465E-03    -24.5652E-03     69.6501E-03
            1352     14.0602E-03     113.970E-03    -7.80014E+06    -2.08038E+06     39.1593E+06    -5.89429E+06    -30.5608E-03     55.7377E-03    -25.1769E-03     96.4238E-03    -30.6927E-03     55.7194E-03    -24.9668E-03     96.2953E-03
            1353     14.9275E-03     114.169E-03    -6.30572E+06     22.5886E+06     44.4694E+06    -2.02844E+06    -38.4640E-03     64.2450E-03    -25.7810E-03     136.033E-03    -38.7442E-03     64.4533E-03    -25.5822E-03     135.848E-03
            1354     15.7948E-03     114.413E-03    -20.9551E+06     16.1397E+06     41.1610E+06    -178.924E+03    -42.4906E-03     69.0134E-03    -26.5227E-03     179.372E-03    -43.1435E-03     69.5301E-03    -26.3100E-03     179.053E-03
            1355     16.6578E-03     114.697E-03    -27.3737E+06    -16.6125E+06     10.0376E+06     3.45549E+06    -26.1450E-03     52.7306E-03    -26.5856E-03     205.902E-03    -27.3043E-03     53.7129E-03    -26.4716E-03     205.863E-03
            1356     878.214E-06     114.067E-03     21.4089E+06    -1.95020E+06     23.0073E+06    -1.53546E+06    -25.3731E-03     50.6228E-03    -25.2497E-03     273.536E-06    -25.2974E-03     50.5480E-03    -25.1629E-03     252.196E-06
            1357     1.75586E-03     114.076E-03     21.4738E+06    -2.29953E+06     22.8162E+06    -2.27712E+06    -25.6920E-03     51.1051E-03    -25.4131E-03     54.2463E-06    -25.6155E-03     51.0283E-03    -25.3268E-03     21.7458E-06
            1358     2.63296E-03     114.087E-03     20.6246E+06    -33.0322E+03     21.5948E+06    -2.63979E+06    -26.0730E-03     51.6652E-03    -25.5922E-03     141.641E-06    -26.0023E-03     51.6028E-03    -25.5141E-03     102.929E-06
            1359     3.50992E-03     114.104E-03     18.1744E+06    -1.83562E+06     21.1328E+06    -3.42870E+06    -26.6804E-03     52.5113E-03    -25.8309E-03     323.826E-06    -26.6188E-03     52.4441E-03    -25.7489E-03     273.256E-06
            1360     4.38592E-03     114.125E-03     15.1716E+06     188.629E+03     20.2427E+06    -3.55149E+06    -27.4093E-03     53.5350E-03    -26.1256E-03     508.189E-06    -27.3646E-03     53.4836E-03    -26.0467E-03     454.236E-06
            1361     5.26150E-03     114.153E-03     12.3964E+06    -1.12621E+06     21.5116E+06    -3.65058E+06    -28.3391E-03     54.8388E-03    -26.4997E-03     680.176E-06    -28.3085E-03     54.7831E-03    -26.4085E-03     622.784E-06
            1362     6.13574E-03     114.184E-03     9.82547E+06    -3.32125E+06     24.3741E+06    -5.12798E+06    -29.4503E-03     56.4033E-03    -26.9529E-03     909.021E-06    -29.4338E-03     56.3361E-03    -26.8405E-03     829.953E-06
            1363     7.00890E-03     114.224E-03     6.78198E+06    -1.03856E+06     26.5587E+06    -6.62099E+06    -30.6347E-03     58.0998E-03    -27.4651E-03     1.21236E-03    -30.6404E-03     58.0452E-03    -27.3406E-03     1.11112E-03
            1364     7.88103E-03     114.269E-03     3.95714E+06    -1.69629E+06     29.5726E+06    -6.71555E+06    -31.9420E-03     59.9932E-03    -28.0513E-03     1.49546E-03    -31.9659E-03     59.9350E-03    -27.9067E-03     1.38950E-03
            1365     8.75109E-03     114.324E-03     1.43899E+06    -2.58838E+06     32.3160E+06    -7.78873E+06    -33.2810E-03     61.9831E-03    -28.7021E-03     1.80257E-03    -33.3212E-03     61.9200E-03    -28.5388E-03     1.67846E-03
            1366     9.62013E-03     114.388E-03    -1.23052E+06    -3.63286E+06     33.8898E+06    -8.86875E+06    -34.5485E-03     63.9579E-03    -29.4095E-03     2.23273E-03    -34.6040E-03     63.8909E-03    -29.2330E-03     2.08960E-03
            1367     10.4874E-03     114.465E-03    -3.90333E+06    -2.64428E+06     35.5055E+06    -10.5479E+06    -35.7813E-03     65.9585E-03    -30.1772E-03     2.87893E-03    -35.8557E-03     65.8975E-03    -29.9902E-03     2.70823E-03
            1368     11.3526E-03     114.555E-03    -6.00369E+06    -4.53289E+06     33.8394E+06    -9.95060E+06    -36.5896E-03     67.5798E-03    -30.9902E-03     4.24330E-03    -36.6715E-03     67.5143E-03    -30.8057E-03     4.07459E-03
            1369     12.2160E-03     114.665E-03    -10.4469E+06     3.59184E+06     31.7404E+06    -11.5303E+06    -35.8853E-03     67.6839E-03    -31.7986E-03     7.70580E-03    -36.0004E-03     67.6680E-03    -31.6299E-03     7.51460E-03
            1370     13.0796E-03     114.795E-03    -19.2444E+06    -5.93046E+06     24.8000E+06    -8.18495E+06    -33.3930E-03     65.9325E-03    -32.5396E-03     15.5373E-03    -33.5299E-03     65.8912E-03    -32.3790E-03     15.3934E-03
            1371     13.9453E-03     114.955E-03    -22.7544E+06    -2.51145E+06     21.6646E+06    -9.30518E+06    -31.7397E-03     64.9410E-03    -33.2012E-03     31.4642E-03    -31.8983E-03     64.9270E-03    -33.0563E-03     31.3102E-03
            1372     14.8155E-03     115.152E-03    -19.4107E+06     8.87652E+06     33.1833E+06    -3.61105E+06    -32.8723E-03     66.8357E-03    -33.9634E-03     57.7176E-03    -33.0716E-03     66.8827E-03    -33.7822E-03     57.6091E-03
            1373     15.6730E-03     115.400E-03    -4.82436E+06     6.96985E+06     47.4201E+06     12.2059E+06    -23.3285E-03     57.8235E-03    -34.4950E-03     85.0155E-03    -23.5326E-03     57.8935E-03    -34.2610E-03     85.0736E-03
            1374     16.5511E-03     115.658E-03     4.56175E+06     4.79953E+06     24.3975E+06     6.02741E+06     2.38327E-03     31.4746E-03    -33.8579E-03     90.8737E-03     2.22781E-03     31.5798E-03    -33.7494E-03     90.9308E-03
            1375     16.6634E-03     57.5432E-03    -4.52073E+06     151.246E+06     75.8150E+06     308.868E+03    -33.4199E-03     59.4031E-03    -25.9833E-03     211.457E-03    -38.1342E-03     64.4185E-03    -25.8169E-03     214.052E-03
            1376     15.7872E-03     57.2926E-03    -7.31586E+06     122.331E+06     30.1985E+06     356.648E+03    -34.3389E-03     60.1633E-03    -25.8244E-03     211.023E-03    -38.0212E-03     64.1664E-03    -25.8402E-03     211.633E-03
            1377     14.9089E-03     57.1386E-03    -8.71239E+06     75.2912E+06    -9.44980E+06     161.122E+03    -29.6907E-03     55.4018E-03    -25.7111E-03     135.885E-03    -30.7788E-03     56.7537E-03    -25.8549E-03     135.716E-03
            1378     14.0326E-03     57.0334E-03    -9.87946E+06     27.8606E+06    -13.3606E+06     866.898E+03    -27.8147E-03     53.5862E-03    -25.7715E-03     97.2784E-03    -28.2124E-03     54.0865E-03    -25.8644E-03     97.0986E-03
            1379     13.1551E-03     56.9535E-03    -9.95085E+06    -11.4302E+06    -11.4645E+06     1.35687E+06    -27.2779E-03     53.1267E-03    -25.8488E-03     81.6034E-03    -27.4744E-03     53.2806E-03    -25.8751E-03     81.4596E-03
            1380     12.2781E-03     56.8786E-03    -8.30997E+06    -39.4770E+06    -14.8929E+06     92.3592E+03    -27.2262E-03     53.1020E-03    -25.8758E-03     73.8820E-03    -27.3006E-03     53.0499E-03    -25.8809E-03     73.7535E-03
            1381     11.4012E-03     56.8128E-03    -6.99763E+06    -60.6763E+06    -12.4748E+06    -2.41548E+06    -27.0278E-03     52.9454E-03    -25.9176E-03     66.1560E-03    -27.0296E-03     52.7431E-03    -25.8818E-03     66.0201E-03
            1382     10.5241E-03     56.7530E-03    -6.78438E+06    -72.6966E+06    -8.12435E+06    -2.90042E+06    -26.8687E-03     52.8255E-03    -25.9567E-03     60.3186E-03    -26.8352E-03     52.5333E-03    -25.8821E-03     60.1965E-03
            1383     9.64708E-03     56.6984E-03    -7.25061E+06    -78.9148E+06    -4.73227E+06    -1.06600E+06    -26.7263E-03     52.7101E-03    -25.9838E-03     55.0628E-03    -26.6755E-03     52.3672E-03    -25.8825E-03     54.9812E-03
            1384     8.77004E-03     56.6485E-03    -7.66531E+06    -84.3461E+06    -2.26520E+06     263.849E+03    -26.6051E-03     52.6099E-03    -26.0047E-03     49.8706E-03    -26.5415E-03     52.2262E-03    -25.8826E-03     49.8199E-03
            1385     7.89309E-03     56.6037E-03    -8.06263E+06    -87.0546E+06    -1.31169E+06     425.465E+03    -26.4945E-03     52.5078E-03    -26.0133E-03     44.8303E-03    -26.4229E-03     52.1023E-03    -25.8819E-03     44.7929E-03
            1386     7.01598E-03     56.5634E-03    -8.62382E+06    -91.5428E+06    -845.907E+03     279.761E+03    -26.4130E-03     52.4330E-03    -26.0200E-03     39.7576E-03    -26.3332E-03     52.0001E-03    -25.8790E-03     39.7274E-03
            1387     6.13908E-03     56.5281E-03    -9.41519E+06    -95.5472E+06    -1.61123E+06     336.884E+03    -26.3186E-03     52.3366E-03    -26.0180E-03     34.6922E-03    -26.2321E-03     51.8822E-03    -25.8739E-03     34.6701E-03
            1388     5.26211E-03     56.4974E-03    -10.6719E+06    -96.9604E+06    -4.10341E+06     308.809E+03    -26.2184E-03     52.2226E-03    -26.0043E-03     29.6592E-03    -26.1299E-03     51.7640E-03    -25.8687E-03     29.6428E-03
            1389     4.38511E-03     56.4716E-03    -11.9863E+06    -99.0044E+06    -7.00004E+06     286.373E+03    -26.1484E-03     52.1374E-03    -25.9890E-03     24.6346E-03    -26.0576E-03     51.6729E-03    -25.8630E-03     24.6229E-03
            1390     3.50816E-03     56.4504E-03    -13.0187E+06    -100.261E+06    -9.54135E+06     185.936E+03    -26.0666E-03     52.0413E-03    -25.9747E-03     19.6600E-03    -25.9742E-03     51.5745E-03    -25.8581E-03     19.6509E-03
            1391     2.63108E-03     56.4342E-03    -13.7305E+06    -101.296E+06    -11.5124E+06     134.090E+03    -25.9994E-03     51.9672E-03    -25.9677E-03     14.7520E-03    -25.9055E-03     51.4982E-03    -25.8585E-03     14.7456E-03
            1392     1.75401E-03     56.4225E-03    -14.3808E+06    -102.237E+06    -13.3147E+06     129.974E+03    -25.9804E-03     51.9443E-03    -25.9639E-03     9.91842E-03    -25.8851E-03     51.4737E-03    -25.8614E-03     9.91488E-03
            1393     877.042E-06     56.4153E-03    -15.1108E+06    -103.065E+06    -14.8085E+06     109.792E+03    -25.9950E-03     51.9262E-03    -25.9311E-03     5.33127E-03    -25.8996E-03     51.4547E-03    -25.8338E-03     5.32995E-03
            1394     16.6636E-03     56.5430E-03    -4.57310E+06     151.390E+06     76.6158E+06    -242.934E+03    -33.3572E-03     59.3685E-03    -26.0113E-03     210.701E-03    -38.0805E-03     64.3908E-03    -25.8411E-03     213.294E-03
            1395     15.7858E-03     56.2944E-03    -7.25884E+06     121.200E+06     28.3625E+06     22.0780E+03    -34.7071E-03     60.5336E-03    -25.8265E-03     210.096E-03    -38.3767E-03     64.5255E-03    -25.8499E-03     210.683E-03
            1396     14.9103E-03     56.1389E-03    -7.83910E+06     74.3978E+06    -8.61287E+06     1.34386E+06    -29.7388E-03     55.4494E-03    -25.7106E-03     135.887E-03    -30.8205E-03     56.7923E-03    -25.8502E-03     135.733E-03
            1397     14.0324E-03     56.0362E-03    -7.60105E+06     28.3330E+06    -9.75762E+06     1.38422E+06    -27.8315E-03     53.6107E-03    -25.7792E-03     97.4432E-03    -28.2235E-03     54.1047E-03    -25.8581E-03     97.2705E-03
            1398     13.1552E-03     55.9544E-03    -5.91174E+06    -10.3152E+06    -10.4600E+06    -177.900E+03    -27.3660E-03     53.2034E-03    -25.8375E-03     81.9102E-03    -27.5454E-03     53.3556E-03    -25.8662E-03     81.7464E-03
            1399     12.2783E-03     55.8805E-03    -3.64932E+06    -38.0581E+06    -13.4447E+06    -1.15330E+06    -27.2211E-03     53.0847E-03    -25.8636E-03     73.9303E-03    -27.2761E-03     53.0306E-03    -25.8704E-03     73.7859E-03
            1400     11.4010E-03     55.8142E-03    -3.80568E+06    -59.9388E+06    -9.86133E+06    -689.067E+03    -26.9899E-03     52.9065E-03    -25.9166E-03     66.2203E-03    -26.9803E-03     52.6992E-03    -25.8735E-03     66.1072E-03
            1401     10.5241E-03     55.7548E-03    -6.60955E+06    -72.8526E+06    -6.38775E+06    -799.984E+03    -26.8658E-03     52.8244E-03    -25.9585E-03     60.2846E-03    -26.8336E-03     52.5286E-03    -25.8753E-03     60.1897E-03
            1402     9.64708E-03     55.6998E-03    -8.09856E+06    -80.5055E+06    -4.78076E+06    -1.29644E+06    -26.7512E-03     52.7295E-03    -25.9784E-03     55.0269E-03    -26.7023E-03     52.3800E-03    -25.8738E-03     54.9422E-03
            1403     8.77013E-03     55.6502E-03    -7.69863E+06    -85.3595E+06    -2.04952E+06    -488.735E+03    -26.6095E-03     52.6056E-03    -25.9961E-03     49.7978E-03    -26.5450E-03     52.2166E-03    -25.8714E-03     49.7373E-03
            1404     7.89304E-03     55.6052E-03    -7.69952E+06    -86.9670E+06    -444.895E+03     170.269E+03    -26.4978E-03     52.5017E-03    -26.0039E-03     44.7780E-03    -26.4257E-03     52.0948E-03    -25.8688E-03     44.7373E-03
            1405     7.01623E-03     55.5650E-03    -8.65456E+06    -91.5459E+06    -239.631E+03     284.753E+03    -26.4122E-03     52.4203E-03    -26.0081E-03     39.7298E-03    -26.3334E-03     51.9865E-03    -25.8640E-03     39.6996E-03
            1406     6.13924E-03     55.5296E-03    -10.0121E+06    -95.4905E+06    -1.86552E+06     275.531E+03    -26.3088E-03     52.3096E-03    -26.0009E-03     34.6972E-03    -26.2250E-03     51.8567E-03    -25.8572E-03     34.6744E-03
            1407     5.26222E-03     55.4991E-03    -11.0421E+06    -96.9768E+06    -4.15137E+06     353.283E+03    -26.2010E-03     52.1881E-03    -25.9871E-03     29.6897E-03    -26.1143E-03     51.7299E-03    -25.8512E-03     29.6740E-03
            1408     4.38520E-03     55.4731E-03    -11.9016E+06    -98.7622E+06    -7.00161E+06     307.664E+03    -26.1048E-03     52.0786E-03    -25.9739E-03     24.6693E-03    -26.0139E-03     51.6152E-03    -25.8484E-03     24.6579E-03
            1409     3.50814E-03     55.4522E-03    -12.7279E+06    -100.108E+06    -9.59164E+06     194.115E+03    -26.0358E-03     52.0008E-03    -25.9651E-03     19.6788E-03    -25.9421E-03     51.5344E-03    -25.8494E-03     19.6699E-03
            1410     2.63106E-03     55.4359E-03    -13.6249E+06    -101.326E+06    -11.5963E+06     217.244E+03    -26.0068E-03     51.9657E-03    -25.9590E-03     14.7560E-03    -25.9121E-03     51.4966E-03    -25.8503E-03     14.7507E-03
            1411     1.75411E-03     55.4241E-03    -14.4539E+06    -102.114E+06    -13.0952E+06     283.465E+03    -25.9813E-03     51.9314E-03    -25.9501E-03     9.90500E-03    -25.8869E-03     51.4612E-03    -25.8465E-03     9.90342E-03
            1412     877.038E-06     55.4171E-03    -15.0046E+06    -102.693E+06    -14.4113E+06     167.720E+03    -25.9630E-03     51.8887E-03    -25.9257E-03     5.34116E-03    -25.8682E-03     51.4184E-03    -25.8271E-03     5.34055E-03
            1413     16.6634E-03     55.5438E-03    -4.37191E+06     151.539E+06     77.0941E+06     89.2493E+03    -33.2681E-03     59.2568E-03    -25.9887E-03     210.957E-03    -37.9706E-03     64.2582E-03    -25.8166E-03     213.556E-03
            1414     15.7878E-03     55.2954E-03    -7.92626E+06     121.230E+06     30.0282E+06     315.171E+03    -34.2607E-03     60.0862E-03    -25.8255E-03     209.870E-03    -37.9017E-03     64.0423E-03    -25.8396E-03     210.473E-03
            1415     14.9088E-03     55.1409E-03    -8.84486E+06     73.4921E+06    -10.5986E+06    -44.4786E+03    -29.6219E-03     55.3306E-03    -25.7088E-03     136.017E-03    -30.7021E-03     56.6711E-03    -25.8555E-03     135.849E-03
            1416     14.0322E-03     55.0370E-03    -6.62580E+06     28.8182E+06    -12.7407E+06    -508.813E+03    -28.0050E-03     53.7713E-03    -25.7663E-03     97.4454E-03    -28.3889E-03     54.2710E-03    -25.8622E-03     97.2471E-03
            1417     13.1555E-03     54.9561E-03    -5.55841E+06    -8.87766E+06    -10.9875E+06    -840.032E+03    -27.4581E-03     53.2861E-03    -25.8280E-03     81.8328E-03    -27.6370E-03     53.4457E-03    -25.8620E-03     81.6601E-03
            1418     12.2782E-03     54.8818E-03    -6.75899E+06    -38.6246E+06    -13.6948E+06     -806.86E+03    -27.1868E-03     53.0473E-03    -25.8605E-03     73.8507E-03    -27.2559E-03     52.9950E-03    -25.8632E-03     73.7111E-03
            1419     11.4014E-03     54.8159E-03    -7.09603E+06    -60.9649E+06    -10.3878E+06     152.360E+03    -27.0041E-03     52.9160E-03    -25.9119E-03     66.1573E-03    -27.0088E-03     52.7092E-03    -25.8652E-03     66.0550E-03
            1420     10.5242E-03     54.7562E-03    -5.71806E+06    -71.5496E+06    -4.48272E+06     139.300E+03    -26.8822E-03     52.8361E-03    -25.9539E-03     60.2369E-03    -26.8502E-03     52.5427E-03    -25.8643E-03     60.1541E-03
            1421     9.64730E-03     54.7014E-03    -5.72100E+06    -80.3378E+06    -2.66425E+06    -722.557E+03    -26.7672E-03     52.7392E-03    -25.9720E-03     54.9259E-03    -26.7098E-03     52.3840E-03    -25.8605E-03     54.8484E-03
            1422     8.77029E-03     54.6517E-03    -7.09311E+06    -86.6035E+06    -2.29108E+06    -737.673E+03    -26.6161E-03     52.5967E-03    -25.9806E-03     49.7656E-03    -26.5463E-03     52.2009E-03    -25.8562E-03     49.7018E-03
            1423     7.89339E-03     54.6068E-03    -7.94985E+06    -87.3583E+06    -1.26343E+06    -47.0408E+03    -26.4689E-03     52.4544E-03    -25.9855E-03     44.8231E-03    -26.3963E-03     52.0471E-03    -25.8536E-03     44.7798E-03
            1424     7.01622E-03     54.5665E-03    -8.66650E+06    -91.6255E+06    -926.103E+03     347.017E+03    -26.3657E-03     52.3584E-03    -25.9927E-03     39.7891E-03    -26.2858E-03     51.9251E-03    -25.8519E-03     39.7601E-03
            1425     6.13921E-03     54.5312E-03    -9.55196E+06    -95.3086E+06    -2.14323E+06     368.789E+03    -26.2865E-03     52.2764E-03    -25.9899E-03     34.7260E-03    -26.2002E-03     51.8241E-03    -25.8486E-03     34.7045E-03
            1426     5.26225E-03     54.5006E-03    -10.6459E+06    -96.9732E+06    -4.52021E+06     204.930E+03    -26.1869E-03     52.1650E-03    -25.9781E-03     29.7045E-03    -26.0977E-03     51.7068E-03    -25.8447E-03     29.6870E-03
            1427     4.38521E-03     54.4749E-03    -11.6653E+06    -98.6472E+06    -7.00600E+06     257.521E+03    -26.0923E-03     52.0608E-03    -25.9685E-03     24.6672E-03    -26.0004E-03     51.5976E-03    -25.8436E-03     24.6552E-03
            1428     3.50811E-03     54.4539E-03    -12.6862E+06    -100.108E+06    -9.38588E+06     394.062E+03    -26.0443E-03     52.0045E-03    -25.9602E-03     19.6646E-03    -25.9507E-03     51.5377E-03    -25.8436E-03     19.6583E-03
            1429     2.63117E-03     54.4375E-03    -13.5658E+06    -101.164E+06    -11.4716E+06     381.982E+03    -26.0052E-03     51.9556E-03    -25.9504E-03     14.7410E-03    -25.9106E-03     51.4870E-03    -25.8414E-03     14.7378E-03
            1430     1.75406E-03     54.4259E-03    -14.1466E+06    -101.860E+06    -13.1996E+06     239.010E+03    -25.9610E-03     51.9034E-03    -25.9425E-03     9.91823E-03    -25.8652E-03     51.4342E-03    -25.8402E-03     9.91611E-03
            1431     877.056E-06     54.4187E-03    -14.4936E+06    -102.365E+06    -14.3385E+06     187.159E+03    -25.9398E-03     51.8850E-03    -25.9453E-03     5.34020E-03    -25.8430E-03     51.4155E-03    -25.8475E-03     5.33988E-03
            1432     16.6660E-03     54.5467E-03    -4.85725E+06     150.795E+06     76.0147E+06     468.657E+03    -33.2713E-03     59.2374E-03    -25.9660E-03     211.486E-03    -37.9591E-03     64.2228E-03    -25.7976E-03     214.082E-03
            1433     15.7857E-03     54.2968E-03    -8.09588E+06     121.828E+06     31.1238E+06     668.596E+03    -34.0851E-03     59.9050E-03    -25.8199E-03     210.282E-03    -37.7367E-03     63.8701E-03    -25.8292E-03     210.909E-03
            1434     14.9098E-03     54.1426E-03    -9.48045E+06     75.1115E+06    -9.19734E+06    -486.499E+03    -29.6634E-03     55.3710E-03    -25.7076E-03     135.544E-03    -30.7512E-03     56.7184E-03    -25.8487E-03     135.368E-03
            1435     14.0324E-03     54.0381E-03    -10.7268E+06     28.8289E+06    -15.2247E+06    -1.44743E+06    -27.9392E-03     53.6903E-03    -25.7511E-03     97.1631E-03    -28.3385E-03     54.1980E-03    -25.8535E-03     96.9533E-03
            1436     13.1554E-03     53.9577E-03    -11.0816E+06    -9.49578E+06    -14.5698E+06    -884.641E+03    -27.4026E-03     53.2143E-03    -25.8117E-03     81.5767E-03    -27.6027E-03     53.3835E-03    -25.8547E-03     81.4037E-03
            1437     12.2785E-03     53.8833E-03    -10.4177E+06    -39.2451E+06    -15.8956E+06    -54.2479E+03    -27.2071E-03     53.0545E-03    -25.8473E-03     73.8032E-03    -27.2906E-03     53.0077E-03    -25.8548E-03     73.6732E-03
            1438     11.4013E-03     53.8176E-03    -9.35778E+06    -60.2367E+06    -13.9654E+06    -1.14993E+06    -27.0141E-03     52.8993E-03    -25.8852E-03     66.1712E-03    -27.0259E-03     52.7045E-03    -25.8541E-03     66.0521E-03
            1439     10.5244E-03     53.7576E-03    -7.92774E+06    -71.9189E+06    -9.07761E+06    -1.75643E+06    -26.8682E-03     52.7907E-03    -25.9225E-03     60.3463E-03    -26.8399E-03     52.5053E-03    -25.8521E-03     60.2394E-03
            1440     9.64738E-03     53.7030E-03    -7.01818E+06    -80.7875E+06    -4.62286E+06    -352.303E+03    -26.7410E-03     52.6943E-03    -25.9533E-03     54.9903E-03    -26.6865E-03     52.3415E-03    -25.8490E-03     54.9179E-03
            1441     8.77041E-03     53.6533E-03    -7.41948E+06    -86.6134E+06    -3.37405E+06     31.0551E+03    -26.6031E-03     52.5681E-03    -25.9650E-03     49.8109E-03    -26.5333E-03     52.1743E-03    -25.8455E-03     49.7573E-03
            1442     7.89327E-03     53.6085E-03    -8.38044E+06    -87.9482E+06    -2.46067E+06    -130.327E+03    -26.4449E-03     52.4162E-03    -25.9714E-03     44.8469E-03    -26.3718E-03     52.0083E-03    -25.8440E-03     44.8027E-03
            1443     7.01632E-03     53.5682E-03    -8.96508E+06    -91.6888E+06    -2.60378E+06     82.8074E+03    -26.3349E-03     52.3126E-03    -25.9777E-03     39.8217E-03    -26.2539E-03     51.8818E-03    -25.8447E-03     39.7894E-03
            1444     6.13930E-03     53.5328E-03    -9.61353E+06    -95.3417E+06    -2.59610E+06     209.942E+03    -26.2551E-03     52.2393E-03    -25.9842E-03     34.7314E-03    -26.1684E-03     51.7876E-03    -25.8450E-03     34.7080E-03
            1445     5.26222E-03     53.5023E-03    -10.6132E+06    -96.8323E+06    -4.19377E+06     376.215E+03    -26.1764E-03     52.1551E-03    -25.9787E-03     29.6761E-03    -26.0878E-03     51.6972E-03    -25.8438E-03     29.6607E-03
            1446     4.38518E-03     53.4766E-03    -11.9491E+06    -98.8987E+06    -7.23833E+06     525.902E+03    -26.1149E-03     52.0803E-03    -25.9654E-03     24.6402E-03    -26.0237E-03     51.6166E-03    -25.8408E-03     24.6316E-03
            1447     3.50825E-03     53.4555E-03    -13.0644E+06    -99.7888E+06    -9.87893E+06     547.969E+03    -26.0400E-03     51.9921E-03    -25.9521E-03     19.6661E-03    -25.9481E-03     51.5282E-03    -25.8378E-03     19.6618E-03
            1448     2.63110E-03     53.4392E-03    -13.7034E+06    -100.839E+06    -12.0174E+06     283.765E+03    -25.9786E-03     51.9239E-03    -25.9453E-03     14.7615E-03    -25.8844E-03     51.4579E-03    -25.8393E-03     14.7571E-03
            1449     1.75410E-03     53.4275E-03    -13.9987E+06    -101.718E+06    -13.3302E+06     198.195E+03    -25.9530E-03     51.9000E-03    -25.9469E-03     9.93692E-03    -25.8566E-03     51.4314E-03    -25.8458E-03     9.93431E-03
            1450     877.005E-06     53.4205E-03    -14.2969E+06    -102.047E+06    -13.9906E+06     207.562E+03    -25.9502E-03     51.9043E-03    -25.9542E-03     5.37223E-03    -25.8534E-03     51.4356E-03    -25.8554E-03     5.37222E-03
            1451     16.6632E-03     53.5492E-03    -4.57521E+06     150.860E+06     76.4204E+06     211.031E+03    -33.6630E-03     59.6009E-03    -25.9380E-03     208.313E-03    -38.2902E-03     64.5259E-03    -25.7680E-03     210.832E-03
            1452     15.7879E-03     53.2981E-03    -7.23433E+06     122.182E+06     30.5760E+06     137.083E+03    -33.6952E-03     59.4734E-03    -25.7782E-03     210.285E-03    -37.3592E-03     63.4568E-03    -25.7920E-03     210.911E-03
            1453     14.9098E-03     53.1440E-03    -8.63924E+06     75.4649E+06    -7.51868E+06     988.927E+03    -29.4965E-03     55.1873E-03    -25.6909E-03     135.668E-03    -30.5800E-03     56.5299E-03    -25.8253E-03     135.511E-03
            1454     14.0328E-03     53.0399E-03    -9.36379E+06     29.9542E+06    -11.5563E+06     401.260E+03    -27.8427E-03     53.5925E-03    -25.7498E-03     97.2850E-03    -28.2418E-03     54.0982E-03    -25.8374E-03     97.0994E-03
            1455     13.1556E-03     52.9591E-03    -10.0536E+06    -9.97787E+06    -12.8155E+06    -720.788E+03    -27.3368E-03     53.1450E-03    -25.8082E-03     81.5335E-03    -27.5331E-03     53.3074E-03    -25.8433E-03     81.3630E-03
            1456     12.2784E-03     52.8850E-03    -9.09362E+06    -39.3415E+06    -15.1125E+06    -1.15226E+06    -27.2189E-03     53.0582E-03    -25.8393E-03     73.7600E-03    -27.2969E-03     53.0080E-03    -25.8446E-03     73.6155E-03
            1457     11.4017E-03     52.8190E-03    -7.72893E+06    -58.6943E+06    -13.2337E+06     -1.6162E+06    -27.0020E-03     52.8755E-03    -25.8736E-03     66.1516E-03    -27.0089E-03     52.6850E-03    -25.8434E-03     66.0266E-03
            1458     10.5244E-03     52.7594E-03    -8.21451E+06    -72.9879E+06    -9.87763E+06    -1.72344E+06    -26.8322E-03     52.7434E-03    -25.9112E-03     60.3579E-03    -26.8025E-03     52.4541E-03    -25.8429E-03     60.2516E-03
            1459     9.64742E-03     52.7045E-03    -8.91826E+06    -82.5576E+06    -5.89299E+06    -879.971E+03    -26.7012E-03     52.6466E-03    -25.9454E-03     55.0043E-03    -26.6517E-03     52.2894E-03    -25.8423E-03     54.9254E-03
            1460     8.77039E-03     52.6549E-03    -8.86933E+06    -86.3317E+06    -4.11599E+06     7.45944E+03    -26.5876E-03     52.5452E-03    -25.9576E-03     49.8059E-03    -26.5244E-03     52.1560E-03    -25.8402E-03     49.7520E-03
            1461     7.89349E-03     52.6100E-03    -9.22652E+06    -88.1137E+06    -3.41369E+06     33.5464E+03    -26.4457E-03     52.4080E-03    -25.9623E-03     44.7950E-03    -26.3752E-03     52.0019E-03    -25.8382E-03     44.7528E-03
            1462     7.01634E-03     52.5699E-03    -10.1637E+06    -91.6019E+06    -3.48707E+06    -109.224E+03    -26.2949E-03     52.2654E-03    -25.9705E-03     39.8459E-03    -26.2187E-03     51.8381E-03    -25.8404E-03     39.8112E-03
            1463     6.13924E-03     52.5344E-03    -10.8653E+06    -95.3732E+06    -3.58765E+06    -289.326E+03    -26.2243E-03     52.2050E-03    -25.9806E-03     34.8059E-03    -26.1424E-03     51.7563E-03    -25.8445E-03     34.7762E-03
            1464     5.26222E-03     52.5040E-03    -11.3801E+06    -97.5400E+06    -4.71736E+06     160.442E+03    -26.1835E-03     52.1625E-03    -25.9789E-03     29.6883E-03    -26.0969E-03     51.7028E-03    -25.8446E-03     29.6702E-03
            1465     4.38525E-03     52.4781E-03    -12.0363E+06    -98.7773E+06    -7.41685E+06     714.087E+03    -26.1073E-03     52.0726E-03    -25.9653E-03     24.6469E-03    -26.0164E-03     51.6098E-03    -25.8417E-03     24.6408E-03
            1466     3.50814E-03     52.4573E-03    -12.8222E+06    -99.3920E+06    -10.1375E+06     577.540E+03    -26.0327E-03     51.9857E-03    -25.9530E-03     19.6763E-03    -25.9397E-03     51.5238E-03    -25.8410E-03     19.6724E-03
            1467     2.63113E-03     52.4409E-03    -13.5201E+06    -100.413E+06    -11.9603E+06     349.153E+03    -25.9839E-03     51.9331E-03    -25.9492E-03     14.7670E-03    -25.8894E-03     51.4689E-03    -25.8438E-03     14.7635E-03
            1468     1.75403E-03     52.4293E-03    -14.2064E+06    -101.581E+06    -12.9832E+06     77.3916E+03    -25.9586E-03     51.9108E-03    -25.9522E-03     9.93093E-03    -25.8639E-03     51.4427E-03    -25.8492E-03     9.92679E-03
            1469     877.033E-06     52.4221E-03    -14.4398E+06    -101.896E+06    -13.9712E+06    -66.9957E+03    -25.9838E-03     51.9084E-03    -25.9245E-03     5.38183E-03    -25.8880E-03     51.4405E-03    -25.8257E-03     5.37829E-03
            1470     16.6700E-03     52.5543E-03    -4.29100E+06     151.357E+06     76.9082E+06    -201.466E+03    -33.6264E-03     59.6113E-03    -25.9849E-03     210.845E-03    -38.3206E-03     64.6047E-03    -25.8136E-03     213.404E-03
            1471     15.7878E-03     52.3011E-03    -6.81708E+06     121.519E+06     29.2381E+06     548.678E+03    -34.9251E-03     60.7278E-03    -25.8027E-03     213.355E-03    -38.6344E-03     64.7593E-03    -25.8228E-03     213.953E-03
            1472     14.9100E-03     52.1456E-03    -6.78976E+06     74.7624E+06    -11.7220E+06     560.039E+03    -29.8305E-03     55.4985E-03    -25.6681E-03     136.495E-03    -30.8979E-03     56.8412E-03    -25.8252E-03     136.331E-03
            1473     14.0328E-03     52.0412E-03    -4.53263E+06     30.3031E+06    -13.0370E+06     1.31771E+06    -27.9240E-03     53.6496E-03    -25.7255E-03     97.1750E-03    -28.2960E-03     54.1508E-03    -25.8281E-03     97.0017E-03
            1474     13.1557E-03     51.9609E-03    -5.19186E+06    -8.90278E+06    -10.3455E+06     1.44054E+06    -27.3431E-03     53.1437E-03    -25.8006E-03     81.5936E-03    -27.5203E-03     53.3009E-03    -25.8319E-03     81.4513E-03
            1475     12.2788E-03     51.8863E-03    -7.52085E+06    -37.5708E+06    -13.8435E+06    -376.615E+03    -27.1922E-03     53.0225E-03    -25.8302E-03     73.7362E-03    -27.2665E-03     52.9769E-03    -25.8341E-03     73.6021E-03
            1476     11.4015E-03     51.8208E-03    -8.61611E+06    -58.7561E+06    -13.7026E+06    -1.60792E+06    -26.9803E-03     52.8434E-03    -25.8631E-03     66.1317E-03    -26.9909E-03     52.6545E-03    -25.8339E-03     66.0068E-03
            1477     10.5246E-03     51.7608E-03    -8.25149E+06    -73.7511E+06    -9.25549E+06    -1.03144E+06    -26.8031E-03     52.7102E-03    -25.9071E-03     60.3165E-03    -26.7734E-03     52.4162E-03    -25.8345E-03     60.2192E-03
            1478     9.64752E-03     51.7063E-03    -8.75418E+06    -83.5847E+06    -6.11357E+06    -351.144E+03    -26.6578E-03     52.5977E-03    -25.9399E-03     55.0441E-03    -26.6056E-03     52.2354E-03    -25.8366E-03     54.9722E-03
            1479     8.77046E-03     51.6564E-03    -9.84431E+06    -86.4614E+06    -4.93846E+06    -241.383E+03    -26.5566E-03     52.5093E-03    -25.9527E-03     49.8760E-03    -26.4968E-03     52.1219E-03    -25.8377E-03     49.8192E-03
            1480     7.89338E-03     51.6117E-03    -10.4084E+06    -88.2378E+06    -4.18827E+06    -86.6271E+03    -26.4344E-03     52.3940E-03    -25.9596E-03     44.8124E-03    -26.3686E-03     51.9901E-03    -25.8375E-03     44.7688E-03
            1481     7.01637E-03     51.5716E-03    -11.0064E+06    -91.3164E+06    -3.94466E+06    -118.438E+03    -26.2957E-03     52.2640E-03    -25.9682E-03     39.8354E-03    -26.2235E-03     51.8399E-03    -25.8396E-03     39.8006E-03
            1482     6.13923E-03     51.5362E-03    -11.9612E+06    -95.0789E+06    -5.45293E+06    -537.533E+03    -26.2074E-03     52.1797E-03    -25.9723E-03     34.8385E-03    -26.1286E-03     51.7368E-03    -25.8444E-03     34.8058E-03
            1483     5.26223E-03     51.5055E-03    -12.6964E+06    -98.4869E+06    -6.80308E+06    -565.855E+03    -26.1568E-03     52.1317E-03    -25.9750E-03     29.7118E-03    -26.0723E-03     51.6723E-03    -25.8478E-03     29.6844E-03
            1484     4.38515E-03     51.4799E-03    -12.8307E+06    -99.0093E+06    -7.90536E+06    -37.9292E+03    -26.0927E-03     52.0645E-03    -25.9718E-03     24.6595E-03    -26.0048E-03     51.6025E-03    -25.8492E-03     24.6437E-03
            1485     3.50814E-03     51.4588E-03    -12.8772E+06    -99.2585E+06    -9.48131E+06     356.440E+03    -26.0445E-03     52.0095E-03    -25.9650E-03     19.6765E-03    -25.9529E-03     51.5474E-03    -25.8498E-03     19.6697E-03
            1486     2.63110E-03     51.4427E-03    -13.3616E+06    -100.034E+06    -11.1947E+06     385.505E+03    -26.0071E-03     51.9645E-03    -25.9574E-03     14.7543E-03    -25.9135E-03     51.5008E-03    -25.8489E-03     14.7512E-03
            1487     1.75410E-03     51.4309E-03    -13.8911E+06    -101.193E+06    -13.1658E+06     142.455E+03    -25.9763E-03     51.9237E-03    -25.9474E-03     9.93581E-03    -25.8803E-03     51.4574E-03    -25.8464E-03     9.93248E-03
            1488     877.039E-06     51.4238E-03    -14.5263E+06    -101.987E+06    -14.4178E+06    -39.1761E+03    -25.9656E-03     51.8915E-03    -25.9259E-03     5.41065E-03    -25.8694E-03     51.4240E-03    -25.8291E-03     5.40744E-03
            1489     16.6532E-03     51.5465E-03    -5.09152E+06     150.269E+06     74.9300E+06    -178.661E+03    -33.2619E-03     59.2720E-03    -26.0100E-03     208.729E-03    -37.9371E-03     64.2453E-03    -25.8459E-03     211.274E-03
            1490     15.7847E-03     51.3012E-03    -7.64946E+06     120.612E+06     27.9550E+06    -1.25949E+06    -35.1064E-03     60.9150E-03    -25.8086E-03     208.042E-03    -38.7624E-03     64.8904E-03    -25.8326E-03     208.591E-03
            1491     14.9098E-03     51.1459E-03    -7.66717E+06     74.7585E+06    -12.0690E+06    -639.182E+03    -29.7213E-03     55.3757E-03    -25.6544E-03     135.112E-03    -30.7927E-03     56.7203E-03    -25.8120E-03     134.934E-03
            1492     14.0331E-03     51.0435E-03    -8.82489E+06     28.7372E+06    -15.6032E+06     863.516E+03    -27.8048E-03     53.5146E-03    -25.7098E-03     96.9604E-03    -28.1924E-03     54.0181E-03    -25.8167E-03     96.7823E-03
            1493     13.1559E-03     50.9619E-03    -7.98379E+06    -8.61516E+06    -10.2873E+06     2.02236E+06    -27.3016E-03     53.0980E-03    -25.7964E-03     81.6836E-03    -27.4938E-03     53.2611E-03    -25.8237E-03     81.5488E-03
            1494     12.2787E-03     50.8884E-03    -7.41029E+06    -34.7720E+06    -11.4002E+06     1.52147E+06    -27.1495E-03     52.9815E-03    -25.8320E-03     73.7740E-03    -27.2310E-03     52.9462E-03    -25.8278E-03     73.6644E-03
            1495     11.4018E-03     50.8220E-03    -8.32667E+06    -57.8543E+06    -12.6031E+06    -424.019E+03    -26.9538E-03     52.8164E-03    -25.8626E-03     66.1842E-03    -26.9659E-03     52.6301E-03    -25.8296E-03     66.0747E-03
            1496     10.5247E-03     50.7628E-03    -9.68690E+06    -75.1133E+06    -10.5885E+06    -653.944E+03    -26.7766E-03     52.6786E-03    -25.9021E-03     60.3860E-03    -26.7500E-03     52.3818E-03    -25.8320E-03     60.2938E-03
            1497     9.64747E-03     50.7078E-03    -9.96591E+06    -83.5632E+06    -7.84978E+06    -199.675E+03    -26.6420E-03     52.5741E-03    -25.9322E-03     55.1561E-03    -26.5932E-03     52.2161E-03    -25.8358E-03     55.0865E-03
            1498     8.77043E-03     50.6583E-03    -9.59471E+06    -86.3887E+06    -5.01199E+06    -420.475E+03    -26.5295E-03     52.4828E-03    -25.9533E-03     49.9393E-03    -26.4683E-03     52.0954E-03    -25.8392E-03     49.8804E-03
            1499     7.89337E-03     50.6132E-03    -9.72388E+06    -88.5528E+06    -3.13801E+06    -439.808E+03    -26.4459E-03     52.4129E-03    -25.9670E-03     44.8073E-03    -26.3777E-03     52.0049E-03    -25.8402E-03     44.7590E-03
            1500     7.01632E-03     50.5733E-03    -10.2587E+06    -91.3728E+06    -3.39776E+06    -173.237E+03    -26.3440E-03     52.3133E-03    -25.9693E-03     39.7569E-03    -26.2688E-03     51.8872E-03    -25.8390E-03     39.7212E-03
            1501     6.13933E-03     50.5378E-03    -11.2246E+06    -94.5401E+06    -5.29673E+06    -250.400E+03    -26.2030E-03     52.1709E-03    -25.9679E-03     34.8021E-03    -26.1216E-03     51.7294E-03    -25.8410E-03     34.7730E-03
            1502     5.26215E-03     50.5073E-03    -12.3793E+06    -98.5684E+06    -7.12914E+06    -760.437E+03    -26.1169E-03     52.0903E-03    -25.9734E-03     29.7014E-03    -26.0303E-03     51.6304E-03    -25.8481E-03     29.6716E-03
            1503     4.38514E-03     50.4815E-03    -13.2577E+06    -99.7458E+06    -8.52345E+06    -832.635E+03    -26.0822E-03     52.0580E-03    -25.9758E-03     24.6362E-03    -25.9945E-03     51.5938E-03    -25.8545E-03     24.6101E-03
            1504     3.50810E-03     50.4606E-03    -13.7811E+06    -99.6366E+06    -9.76876E+06    -377.147E+03    -26.0439E-03     52.0168E-03    -25.9729E-03     19.6838E-03    -25.9560E-03     51.5545E-03    -25.8573E-03     19.6676E-03
            1505     2.63108E-03     50.4442E-03    -13.9178E+06    -99.9887E+06    -11.9369E+06    -23.3937E+03    -26.0137E-03     51.9761E-03    -25.9623E-03     14.7621E-03    -25.9220E-03     51.5145E-03    -25.8568E-03     14.7538E-03
            1506     1.75405E-03     50.4327E-03    -14.0069E+06    -101.051E+06    -13.7259E+06     220.182E+03    -25.9902E-03     51.9406E-03    -25.9504E-03     9.95323E-03    -25.8942E-03     51.4760E-03    -25.8522E-03     9.95088E-03
            1507     877.057E-06     50.4254E-03    -13.9775E+06    -101.701E+06    -14.1569E+06     374.263E+03    -25.9412E-03     51.9011E-03    -25.9599E-03     5.35780E-03    -25.8430E-03     51.4339E-03    -25.8630E-03     5.35996E-03
            1508     16.6754E-03     50.5530E-03    -3.14210E+06     152.043E+06     77.0475E+06    -32.2882E+03    -33.9229E-03     59.8436E-03    -25.9208E-03     208.520E-03    -38.5662E-03     64.7921E-03    -25.7514E-03     211.027E-03
            1509     15.7914E-03     50.3033E-03    -6.25575E+06     120.674E+06     26.8241E+06    -343.664E+03    -33.7277E-03     59.4552E-03    -25.7275E-03     209.231E-03    -37.3606E-03     63.4160E-03    -25.7593E-03     209.851E-03
            1510     14.9111E-03     50.1490E-03    -9.43125E+06     73.2295E+06    -11.7683E+06     341.230E+03    -29.2934E-03     54.9343E-03    -25.6408E-03     135.988E-03    -30.3763E-03     56.2777E-03    -25.7922E-03     135.830E-03
            1511     14.0330E-03     50.0443E-03    -9.62788E+06     28.5995E+06    -11.0029E+06     784.178E+03    -27.6468E-03     53.3802E-03    -25.7334E-03     97.5834E-03    -28.0456E-03     53.8782E-03    -25.8159E-03     97.4054E-03
            1512     13.1559E-03     49.9642E-03    -8.64912E+06    -9.09954E+06    -9.42337E+06     379.152E+03    -27.3220E-03     53.1289E-03    -25.8069E-03     82.0381E-03    -27.5183E-03     53.2895E-03    -25.8283E-03     81.8819E-03
            1513     12.2788E-03     49.8894E-03    -6.46351E+06    -33.8189E+06    -10.1949E+06     424.752E+03    -27.1808E-03     53.0197E-03    -25.8389E-03     73.9647E-03    -27.2607E-03     52.9862E-03    -25.8315E-03     73.8410E-03
            1514     11.4016E-03     49.8241E-03    -5.48075E+06    -57.6741E+06    -8.43393E+06     1.58070E+06    -26.9710E-03     52.8528E-03    -25.8818E-03     66.1399E-03    -26.9752E-03     52.6572E-03    -25.8324E-03     66.0561E-03
            1515     10.5244E-03     49.7642E-03    -7.15762E+06    -74.5848E+06    -6.45125E+06     1.52253E+06    -26.7881E-03     52.7087E-03    -25.9206E-03     60.2996E-03    -26.7558E-03     52.4049E-03    -25.8343E-03     60.2353E-03
            1516     9.64753E-03     49.7097E-03    -8.81333E+06    -82.4923E+06    -6.36569E+06    -187.431E+03    -26.6470E-03     52.5853E-03    -25.9383E-03     55.1387E-03    -26.5962E-03     52.2288E-03    -25.8378E-03     55.0692E-03
            1517     8.77037E-03     49.6598E-03    -9.22722E+06    -86.3428E+06    -4.84597E+06    -1.09192E+06    -26.5427E-03     52.4977E-03    -25.9550E-03     49.9590E-03    -26.4800E-03     52.1098E-03    -25.8406E-03     49.8915E-03
            1518     7.89335E-03     49.6150E-03    -9.13605E+06    -88.9917E+06    -3.13032E+06    -953.995E+03    -26.4661E-03     52.4329E-03    -25.9668E-03     44.8196E-03    -26.3943E-03     52.0218E-03    -25.8402E-03     44.7647E-03
            1519     7.01640E-03     49.5748E-03    -9.54950E+06    -92.1163E+06    -2.12959E+06    -324.538E+03    -26.3580E-03     52.3319E-03    -25.9739E-03     39.7049E-03    -26.2800E-03     51.8992E-03    -25.8372E-03     39.6671E-03
            1520     6.13931E-03     49.5397E-03    -10.5896E+06    -94.2763E+06    -3.70539E+06     184.777E+03    -26.2157E-03     52.1864E-03    -25.9706E-03     34.7378E-03    -26.1338E-03     51.7429E-03    -25.8371E-03     34.7143E-03
            1521     5.26227E-03     49.5089E-03    -11.9291E+06    -97.7160E+06    -6.61077E+06    -357.195E+03    -26.1085E-03     52.0778E-03    -25.9693E-03     29.7065E-03    -26.0215E-03     51.6208E-03    -25.8433E-03     29.6819E-03
            1522     4.38515E-03     49.4833E-03    -13.0146E+06    -100.099E+06    -8.79564E+06    -1.02047E+06    -26.0664E-03     52.0381E-03    -25.9717E-03     24.6494E-03    -25.9765E-03     51.5721E-03    -25.8516E-03     24.6209E-03
            1523     3.50808E-03     49.4622E-03    -13.6165E+06    -100.333E+06    -10.4382E+06    -949.395E+03    -26.0404E-03     52.0099E-03    -25.9696E-03     19.6497E-03    -25.9496E-03     51.5449E-03    -25.8565E-03     19.6261E-03
            1524     2.63105E-03     49.4460E-03    -14.0820E+06    -100.512E+06    -12.2872E+06    -494.361E+03    -26.0092E-03     51.9716E-03    -25.9624E-03     14.7189E-03    -25.9170E-03     51.5082E-03    -25.8576E-03     14.7045E-03
            1525     1.75404E-03     49.4342E-03    -14.1269E+06    -101.289E+06    -13.7935E+06    -82.8462E+03    -25.9865E-03     51.9404E-03    -25.9539E-03     9.89660E-03    -25.8907E-03     51.4749E-03    -25.8555E-03     9.89035E-03
            1526     877.014E-06     49.4272E-03    -13.7882E+06    -101.338E+06    -13.6839E+06     160.399E+03    -25.9898E-03     51.9122E-03    -25.9224E-03     5.30015E-03    -25.8919E-03     51.4459E-03    -25.8239E-03     5.29955E-03
            1527     16.6593E-03     49.5533E-03    -4.34713E+06     150.977E+06     75.8087E+06    -511.703E+03    -33.3442E-03     59.2870E-03    -25.9428E-03     211.171E-03    -38.0142E-03     64.2576E-03    -25.7764E-03     213.720E-03
            1528     15.7842E-03     49.3042E-03    -8.03980E+06     120.610E+06     29.0052E+06     767.449E+03    -34.2513E-03     60.0420E-03    -25.7906E-03     212.722E-03    -37.9457E-03     64.0516E-03    -25.8088E-03     213.345E-03
            1529     14.9097E-03     49.1502E-03    -8.43710E+06     73.6330E+06    -10.3810E+06     198.627E+03    -29.7766E-03     55.4586E-03    -25.6820E-03     136.525E-03    -30.8608E-03     56.8042E-03    -25.8284E-03     136.357E-03
            1530     14.0326E-03     49.0468E-03    -5.98759E+06     28.1750E+06    -12.2503E+06    -298.488E+03    -27.8977E-03     53.6383E-03    -25.7406E-03     97.8418E-03    -28.2759E-03     54.1308E-03    -25.8340E-03     97.6481E-03
            1531     13.1554E-03     48.9649E-03    -5.00542E+06    -8.61352E+06    -8.77146E+06     288.656E+03    -27.3858E-03     53.2007E-03    -25.8148E-03     81.9512E-03    -27.5650E-03     53.3569E-03    -25.8389E-03     81.7939E-03
            1532     12.2785E-03     48.8915E-03    -6.80066E+06    -34.8724E+06    -9.82719E+06     861.046E+03    -27.2206E-03     53.0715E-03    -25.8508E-03     73.8620E-03    -27.3012E-03     53.0326E-03    -25.8395E-03     73.7436E-03
            1533     11.4016E-03     48.8251E-03    -8.09282E+06    -58.6341E+06    -8.17481E+06     1.74232E+06    -26.9998E-03     52.8934E-03    -25.8935E-03     66.0625E-03    -27.0160E-03     52.6964E-03    -25.8376E-03     65.9806E-03
            1534     10.5248E-03     48.7663E-03    -6.98302E+06    -73.2823E+06    -5.39961E+06     1.80889E+06    -26.8203E-03     52.7464E-03    -25.9261E-03     60.2645E-03    -26.7906E-03     52.4475E-03    -25.8367E-03     60.2037E-03
            1535     9.64739E-03     48.7111E-03    -6.65478E+06    -80.4542E+06    -5.23623E+06     842.955E+03    -26.6817E-03     52.6193E-03    -25.9376E-03     55.1063E-03    -26.6247E-03     52.2682E-03    -25.8374E-03     55.0500E-03
            1536     8.77045E-03     48.6617E-03    -7.72181E+06    -85.4569E+06    -4.43106E+06    -839.715E+03    -26.5684E-03     52.5191E-03    -25.9507E-03     49.9308E-03    -26.5000E-03     52.1328E-03    -25.8378E-03     49.8665E-03
            1537     7.89340E-03     48.6163E-03    -8.55462E+06    -89.7134E+06    -3.49080E+06    -1.40918E+06    -26.4536E-03     52.4155E-03    -25.9619E-03     44.8082E-03    -26.3772E-03     52.0004E-03    -25.8369E-03     44.7475E-03
            1538     7.01633E-03     48.5766E-03    -9.16538E+06    -93.4582E+06    -1.74202E+06    -406.768E+03    -26.3481E-03     52.3235E-03    -25.9754E-03     39.6791E-03    -26.2668E-03     51.8829E-03    -25.8353E-03     39.6403E-03
            1539     6.13935E-03     48.5411E-03    -10.1574E+06    -94.3343E+06    -1.81343E+06     339.327E+03    -26.2351E-03     52.2117E-03    -25.9766E-03     34.6719E-03    -26.1537E-03     51.7647E-03    -25.8342E-03     34.6503E-03
            1540     5.26225E-03     48.5108E-03    -11.2893E+06    -96.5738E+06    -5.18238E+06     4.21954E+03    -26.1301E-03     52.0968E-03    -25.9667E-03     29.6759E-03    -26.0437E-03     51.6425E-03    -25.8362E-03     29.6560E-03
            1541     4.38517E-03     48.4848E-03    -12.3920E+06    -99.8229E+06    -8.97994E+06    -830.824E+03    -26.0757E-03     52.0338E-03    -25.9581E-03     24.6414E-03    -25.9828E-03     51.5686E-03    -25.8403E-03     24.6155E-03
            1542     3.50817E-03     48.4639E-03    -13.2978E+06    -100.984E+06    -11.0945E+06    -1.03441E+06    -26.0350E-03     51.9879E-03    -25.9530E-03     19.6092E-03    -25.9407E-03     51.5201E-03    -25.8427E-03     19.5845E-03
            1543     2.63112E-03     48.4475E-03    -13.8429E+06    -101.256E+06    -12.0994E+06    -721.327E+03    -25.9960E-03     51.9457E-03    -25.9497E-03     14.6969E-03    -25.9018E-03     51.4780E-03    -25.8433E-03     14.6795E-03
            1544     1.75410E-03     48.4360E-03    -14.0661E+06    -101.678E+06    -13.6459E+06    -418.512E+03    -25.9685E-03     51.9109E-03    -25.9423E-03     9.86887E-03    -25.8720E-03     51.4431E-03    -25.8427E-03     9.85827E-03
            1545     877.047E-06     48.4288E-03    -13.9207E+06    -101.570E+06    -14.0523E+06    -295.301E+03    -25.9858E-03     51.8884E-03    -25.9025E-03     5.34654E-03    -25.8877E-03     51.4216E-03    -25.8053E-03     5.34000E-03
            1546     16.6665E-03     48.5574E-03    -5.23537E+06     150.366E+06     75.6915E+06    -312.691E+03    -33.0156E-03     59.0516E-03    -26.0360E-03     210.190E-03    -37.6995E-03     64.0311E-03    -25.8679E-03     212.764E-03
            1547     15.7880E-03     48.3048E-03    -8.96614E+06     120.001E+06     29.0971E+06    -902.661E+03    -35.2761E-03     61.1320E-03    -25.8559E-03     209.717E-03    -38.9532E-03     65.1189E-03    -25.8714E-03     210.264E-03
            1548     14.9092E-03     48.1517E-03    -7.67943E+06     74.3375E+06    -9.01317E+06    -834.087E+03    -30.0208E-03     55.7242E-03    -25.7034E-03     134.615E-03    -31.0921E-03     57.0582E-03    -25.8451E-03     134.426E-03
            1549     14.0327E-03     48.0474E-03    -7.68153E+06     27.7445E+06    -13.4331E+06    -723.626E+03    -27.9712E-03     53.7114E-03    -25.7402E-03     96.9886E-03    -28.3543E-03     54.2047E-03    -25.8364E-03     96.7882E-03
            1550     13.1559E-03     47.9673E-03    -8.10937E+06    -10.1422E+06    -11.8471E+06     190.207E+03    -27.3390E-03     53.1448E-03    -25.8058E-03     81.8350E-03    -27.5266E-03     53.3020E-03    -25.8386E-03     81.6769E-03
            1551     12.2786E-03     47.8923E-03    -7.23295E+06    -36.0507E+06    -10.7151E+06     2.17572E+06    -27.1860E-03     53.0366E-03    -25.8506E-03     73.7145E-03    -27.2656E-03     52.9936E-03    -25.8414E-03     73.6133E-03
            1552     11.4015E-03     47.8273E-03    -7.18595E+06    -57.9010E+06    -7.03780E+06     2.09641E+06    -26.9931E-03     52.8934E-03    -25.9003E-03     65.9866E-03    -27.0075E-03     52.6971E-03    -25.8411E-03     65.9093E-03
            1553     10.5243E-03     47.7673E-03    -8.37167E+06    -72.9019E+06    -6.15922E+06     1.26350E+06    -26.8714E-03     52.7965E-03    -25.9251E-03     60.1847E-03    -26.8482E-03     52.5026E-03    -25.8380E-03     60.1166E-03
            1554     9.64761E-03     47.7131E-03    -8.25658E+06    -78.5730E+06    -7.04052E+06     398.752E+03    -26.7228E-03     52.6473E-03    -25.9245E-03     55.0340E-03    -26.6740E-03     52.3106E-03    -25.8338E-03     54.9718E-03
            1555     8.77046E-03     47.6629E-03    -7.36098E+06    -84.1687E+06    -4.34011E+06    -759.029E+03    -26.5645E-03     52.5070E-03    -25.9425E-03     49.9069E-03    -26.4963E-03     52.1265E-03    -25.8315E-03     49.8436E-03
            1556     7.89346E-03     47.6184E-03    -7.95973E+06    -90.5601E+06    -2.69549E+06    -813.559E+03    -26.4312E-03     52.3921E-03    -25.9609E-03     44.7676E-03    -26.3518E-03     51.9708E-03    -25.8315E-03     44.7147E-03
            1557     7.01639E-03     47.5780E-03    -9.18193E+06    -94.1770E+06    -2.04240E+06    -599.605E+03    -26.3297E-03     52.3014E-03    -25.9717E-03     39.6908E-03    -26.2469E-03     51.8576E-03    -25.8320E-03     39.6497E-03
            1558     6.13935E-03     47.5430E-03    -9.63787E+06    -94.9806E+06    -1.56477E+06    -190.685E+03    -26.2619E-03     52.2357E-03    -25.9738E-03     34.6405E-03    -26.1774E-03     51.7843E-03    -25.8299E-03     34.6119E-03
            1559     5.26232E-03     47.5123E-03    -10.3920E+06    -96.0257E+06    -4.09229E+06     258.350E+03    -26.1762E-03     52.1353E-03    -25.9591E-03     29.5995E-03    -26.0877E-03     51.6808E-03    -25.8253E-03     29.5827E-03
            1560     4.38533E-03     47.4867E-03    -11.8663E+06    -99.1219E+06    -8.25183E+06    -34.5717E+03    -26.0799E-03     52.0220E-03    -25.9421E-03     24.5994E-03    -25.9864E-03     51.5585E-03    -25.8224E-03     24.5837E-03
            1561     3.50820E-03     47.4655E-03    -13.2957E+06    -101.182E+06    -11.6550E+06    -557.225E+03    -26.0191E-03     51.9491E-03    -25.9300E-03     19.6056E-03    -25.9237E-03     51.4811E-03    -25.8223E-03     19.5871E-03
            1562     2.63118E-03     47.4494E-03    -14.2237E+06    -101.805E+06    -13.1424E+06    -649.027E+03    -25.9804E-03     51.9043E-03    -25.9239E-03     14.6830E-03    -25.8858E-03     51.4359E-03    -25.8214E-03     14.6666E-03
            1563     1.75408E-03     47.4376E-03    -14.6146E+06    -102.048E+06    -14.0850E+06    -594.792E+03    -25.9468E-03     51.8644E-03    -25.9176E-03     9.83998E-03    -25.8519E-03     51.3962E-03    -25.8188E-03     9.82715E-03
            1564     877.054E-06     47.4306E-03    -14.6899E+06    -102.317E+06    -14.5710E+06    -430.458E+03    -25.9104E-03     51.8361E-03    -25.9257E-03     5.32491E-03    -25.8143E-03     51.3674E-03    -25.8289E-03     5.31665E-03
            1565     16.6580E-03     47.5515E-03    -3.44636E+06     151.954E+06     77.4567E+06     241.371E+03    -33.6891E-03     59.6717E-03    -25.9826E-03     208.707E-03    -38.3408E-03     64.6260E-03    -25.8107E-03     211.242E-03
            1566     15.7851E-03     47.3061E-03    -6.46951E+06     121.130E+06     28.5247E+06    -968.023E+03    -34.3222E-03     60.1047E-03    -25.7826E-03     207.359E-03    -37.9197E-03     64.0264E-03    -25.8062E-03     207.922E-03
            1567     14.9107E-03     47.1518E-03    -8.75569E+06     73.3190E+06    -11.4811E+06    -839.833E+03    -29.4203E-03     55.0834E-03    -25.6631E-03     134.615E-03    -30.4832E-03     56.4088E-03    -25.8142E-03     134.437E-03
            1568     14.0331E-03     47.0503E-03    -9.67127E+06     27.4918E+06    -13.9102E+06    -20.6888E+03    -27.8099E-03     53.5414E-03    -25.7315E-03     97.0419E-03    -28.2023E-03     54.0373E-03    -25.8268E-03     96.8519E-03
            1569     13.1554E-03     46.9680E-03    -9.55604E+06    -11.4347E+06    -12.2626E+06         68.0313    -27.2888E-03     53.0930E-03    -25.8042E-03     81.9534E-03    -27.4813E-03     53.2465E-03    -25.8351E-03     81.7930E-03
            1570     12.2787E-03     46.8946E-03    -8.66004E+06    -37.7646E+06    -12.1633E+06     649.133E+03    -27.1457E-03     52.9931E-03    -25.8474E-03     73.8172E-03    -27.2275E-03     52.9454E-03    -25.8409E-03     73.6967E-03
            1571     11.4014E-03     46.8283E-03    -7.43606E+06    -57.7745E+06    -6.40617E+06     2.25232E+06    -27.0321E-03     52.9351E-03    -25.9029E-03     65.9640E-03    -27.0490E-03     52.7390E-03    -25.8404E-03     65.8884E-03
            1572     10.5248E-03     46.7693E-03    -7.00609E+06    -71.2180E+06    -3.49022E+06     1.85050E+06    -26.8931E-03     52.8236E-03    -25.9305E-03     60.0594E-03    -26.8694E-03     52.5323E-03    -25.8345E-03     59.9986E-03
            1573     9.64751E-03     46.7143E-03    -7.57681E+06    -76.9675E+06    -6.28931E+06     2.74764E+03    -26.7202E-03     52.6403E-03    -25.9201E-03     54.9954E-03    -26.6713E-03     52.3095E-03    -25.8290E-03     54.9281E-03
            1574     8.77061E-03     46.6649E-03    -8.69246E+06    -83.8828E+06    -5.42212E+06    -638.481E+03    -26.5565E-03     52.4900E-03    -25.9335E-03     49.9034E-03    -26.4938E-03     52.1143E-03    -25.8263E-03     49.8418E-03
            1575     7.89347E-03     46.6197E-03    -9.38502E+06    -90.9727E+06     -4.2798E+06    -597.932E+03    -26.4337E-03     52.3833E-03    -25.9496E-03     44.7546E-03    -26.3585E-03     51.9643E-03    -25.8255E-03     44.7046E-03
            1576     7.01642E-03     46.5800E-03    -9.74283E+06    -94.0208E+06    -3.72869E+06    -731.388E+03    -26.3430E-03     52.2987E-03    -25.9557E-03     39.6578E-03    -26.2608E-03     51.8590E-03    -25.8239E-03     39.6150E-03
            1577     6.13934E-03     46.5444E-03    -10.5802E+06    -95.8302E+06    -4.04454E+06    -753.366E+03    -26.2718E-03     52.2247E-03    -25.9529E-03     34.5952E-03    -26.1871E-03     51.7740E-03    -25.8188E-03     34.5594E-03
            1578     5.26245E-03     46.5141E-03    -11.2891E+06    -96.6849E+06    -4.75770E+06     72.0918E+03    -26.1831E-03     52.1263E-03    -25.9433E-03     29.5264E-03    -26.0971E-03     51.6709E-03    -25.8105E-03     29.5071E-03
            1579     4.38533E-03     46.4883E-03    -12.1401E+06    -98.4909E+06    -7.06080E+06     546.765E+03    -26.0817E-03     52.0098E-03    -25.9281E-03     24.5472E-03    -25.9923E-03     51.5481E-03    -25.8029E-03     24.5390E-03
            1580     3.50833E-03     46.4674E-03    -13.1937E+06    -100.774E+06    -11.0210E+06     184.142E+03    -26.0119E-03     51.9200E-03    -25.9080E-03     19.5643E-03    -25.9175E-03     51.4529E-03    -25.7979E-03     19.5554E-03
            1581     2.63123E-03     46.4510E-03    -14.1133E+06    -101.844E+06    -13.2090E+06    -240.467E+03    -25.9666E-03     51.8609E-03    -25.8943E-03     14.6408E-03    -25.8712E-03     51.3922E-03    -25.7922E-03     14.6296E-03
            1582     1.75422E-03     46.4395E-03    -14.8667E+06    -102.412E+06    -14.4592E+06    -396.798E+03    -25.9259E-03     51.8071E-03    -25.8812E-03     9.79311E-03    -25.8312E-03     51.3380E-03    -25.7834E-03     9.78282E-03
            1583     877.102E-06     46.4323E-03    -15.3822E+06    -103.016E+06    -15.2960E+06    -354.668E+03    -25.8689E-03     51.7547E-03    -25.8858E-03     5.26385E-03    -25.7742E-03     51.2846E-03    -25.7906E-03     5.25657E-03
            1584     16.6741E-03     46.5583E-03    -3.44377E+06     151.843E+06     76.2863E+06    -251.221E+03    -33.7081E-03     59.6311E-03    -25.9230E-03     211.078E-03    -38.3957E-03     64.6242E-03    -25.7567E-03     213.638E-03
            1585     15.7916E-03     46.3094E-03    -6.07810E+06     122.219E+06     29.4681E+06     915.092E+03    -33.5933E-03     59.3569E-03    -25.7636E-03     210.518E-03    -37.2130E-03     63.3030E-03    -25.7846E-03     211.143E-03
            1586     14.9096E-03     46.1548E-03    -10.2314E+06     73.5038E+06    -11.1760E+06     604.711E+03    -29.3711E-03     55.0499E-03    -25.6788E-03     136.578E-03    -30.4572E-03     56.3929E-03    -25.8264E-03     136.421E-03
            1587     14.0325E-03     46.0506E-03    -10.8001E+06     27.1461E+06    -15.1041E+06    -570.043E+03    -27.9387E-03     53.6814E-03    -25.7427E-03     97.5142E-03    -28.3359E-03     54.1804E-03    -25.8419E-03     97.3155E-03
            1588     13.1561E-03     45.9706E-03    -9.52300E+06    -11.3906E+06    -12.9132E+06    -330.378E+03    -27.4065E-03     53.2162E-03    -25.8097E-03     82.1073E-03    -27.5983E-03     53.3711E-03    -25.8439E-03     81.9419E-03
            1589     12.2783E-03     45.8956E-03    -9.29633E+06    -39.1417E+06    -13.7007E+06     153.913E+03    -27.2384E-03     53.0835E-03    -25.8451E-03     73.9754E-03    -27.3194E-03     53.0323E-03    -25.8434E-03     73.8482E-03
            1590     11.4017E-03     45.8301E-03    -8.41370E+06    -58.7823E+06    -8.88834E+06     638.263E+03    -27.0766E-03     52.9677E-03    -25.8911E-03     65.9985E-03    -27.0932E-03     52.7715E-03    -25.8381E-03     65.9020E-03
            1591     10.5244E-03     45.7705E-03    -7.13889E+06    -69.9977E+06    -3.86904E+06     1.04632E+06    -26.8859E-03     52.8089E-03    -25.9231E-03     60.0547E-03    -26.8639E-03     52.5244E-03    -25.8306E-03     59.9837E-03
            1592     9.64768E-03     45.7162E-03    -6.95206E+06    -75.7220E+06    -5.69369E+06     875.515E+03    -26.7261E-03     52.6420E-03    -25.9159E-03     54.9143E-03    -26.6768E-03     52.3157E-03    -25.8245E-03     54.8582E-03
            1593     8.77050E-03     45.6663E-03    -7.63520E+06    -83.5485E+06    -5.32821E+06     202.333E+03    -26.5972E-03     52.5218E-03    -25.9246E-03     49.7862E-03    -26.5299E-03     52.1462E-03    -25.8190E-03     49.7353E-03
            1594     7.89355E-03     45.6217E-03    -8.62118E+06    -90.7326E+06    -4.15828E+06    -370.675E+03    -26.4850E-03     52.4206E-03    -25.9356E-03     44.6134E-03    -26.4066E-03     52.0015E-03    -25.8123E-03     44.5661E-03
            1595     7.01653E-03     45.5814E-03    -9.65870E+06    -93.8425E+06    -3.96129E+06    -734.289E+03    -26.3599E-03     52.2948E-03    -25.9350E-03     39.5330E-03    -26.2772E-03     51.8563E-03    -25.8047E-03     39.4900E-03
            1596     6.13963E-03     45.5463E-03    -10.5296E+06    -96.2670E+06    -3.85874E+06    -710.581E+03    -26.2417E-03     52.1751E-03    -25.9334E-03     34.5252E-03    -26.1564E-03     51.7219E-03    -25.7978E-03     34.4899E-03
            1597     5.26243E-03     45.5157E-03    -11.5642E+06    -97.7638E+06    -5.46572E+06    -310.805E+03    -26.1631E-03     52.0844E-03    -25.9213E-03     29.4628E-03    -26.0760E-03     51.6250E-03    -25.7901E-03     29.4386E-03
            1598     4.38551E-03     45.4901E-03    -12.3403E+06    -98.6869E+06    -7.08881E+06     418.746E+03    -26.0899E-03     51.9945E-03    -25.9046E-03     24.4472E-03    -26.0011E-03     51.5322E-03    -25.7791E-03     24.4372E-03
            1599     3.50840E-03     45.4691E-03    -13.1917E+06    -100.016E+06    -9.84881E+06     532.375E+03    -26.0055E-03     51.8875E-03    -25.8821E-03     19.5021E-03    -25.9138E-03     51.4226E-03    -25.7672E-03     19.4976E-03
            1600     2.63137E-03     45.4529E-03    -13.9914E+06    -101.610E+06    -12.4596E+06     135.636E+03    -25.9388E-03     51.8006E-03    -25.8619E-03     14.5975E-03    -25.8443E-03     51.3319E-03    -25.7565E-03     14.5912E-03
            1601     1.75421E-03     45.4412E-03    -14.6844E+06    -102.566E+06    -14.2082E+06     128.784E+03    -25.8856E-03     51.7321E-03    -25.8465E-03     9.76263E-03    -25.7901E-03     51.2616E-03    -25.7475E-03     9.75913E-03
            1602     877.155E-06     45.4343E-03    -15.3614E+06    -103.158E+06    -15.3363E+06     168.122E+03    -25.8739E-03     51.6857E-03    -25.8118E-03     5.24694E-03    -25.7788E-03     51.2149E-03    -25.7166E-03     5.24641E-03
            1603     16.6565E-03     45.5551E-03    -4.24914E+06     151.157E+06     74.9298E+06    -25.9833E+03    -32.5688E-03     58.5760E-03    -26.0072E-03     212.777E-03    -37.2864E-03     63.5978E-03    -25.8455E-03     215.415E-03
            1604     15.7819E-03     45.3104E-03    -9.03699E+06     120.249E+06     28.5122E+06     1.23039E+06    -34.6790E-03     60.5473E-03    -25.8683E-03     211.608E-03    -38.3411E-03     64.5212E-03    -25.8870E-03     212.210E-03
            1605     14.9092E-03     45.1554E-03    -8.59802E+06     74.9090E+06    -9.02867E+06     658.767E+03    -30.2775E-03     56.0153E-03    -25.7378E-03     136.168E-03    -31.3704E-03     57.3697E-03    -25.8791E-03     135.995E-03
            1606     14.0324E-03     45.0524E-03    -7.39915E+06     28.1301E+06    -13.7395E+06    -57.0938E+03    -28.1597E-03     53.9231E-03    -25.7634E-03     97.0380E-03    -28.5416E-03     54.4185E-03    -25.8622E-03     96.8443E-03
            1607     13.1547E-03     44.9715E-03    -8.19501E+06    -12.2224E+06    -12.9565E+06    -206.687E+03    -27.6014E-03     53.4172E-03    -25.8159E-03     81.6921E-03    -27.7859E-03     53.5668E-03    -25.8510E-03     81.5267E-03
            1608     12.2788E-03     44.8973E-03    -7.31716E+06    -38.8682E+06    -13.0359E+06    -260.762E+03    -27.3540E-03     53.1954E-03    -25.8414E-03     73.7113E-03    -27.4265E-03     53.1417E-03    -25.8396E-03     73.5780E-03
            1609     11.4014E-03     44.8315E-03    -6.39991E+06    -59.6521E+06    -8.42486E+06    -253.613E+03    -27.0784E-03     52.9618E-03    -25.8834E-03     65.8259E-03    -27.0843E-03     52.7577E-03    -25.8298E-03     65.7179E-03
            1610     10.5248E-03     44.7722E-03    -6.79396E+06    -70.9725E+06    -3.24374E+06     953.167E+03    -26.9055E-03     52.8225E-03    -25.9170E-03     59.8060E-03    -26.8814E-03     52.5318E-03    -25.8205E-03     59.7335E-03
            1611     9.64760E-03     44.7177E-03    -7.77335E+06    -74.6290E+06    -4.02197E+06     1.29953E+06    -26.7520E-03     52.6618E-03    -25.9098E-03     54.6829E-03    -26.7108E-03     52.3398E-03    -25.8105E-03     54.6321E-03
            1612     8.77079E-03     44.6680E-03    -8.37923E+06    -82.8406E+06    -4.65408E+06     564.640E+03    -26.6323E-03     52.5405E-03    -25.9082E-03     49.5946E-03    -26.5707E-03     52.1686E-03    -25.7992E-03     49.5481E-03
            1613     7.89381E-03     44.6231E-03    -9.00071E+06    -90.1540E+06    -3.34880E+06     69.9429E+03    -26.4894E-03     52.4036E-03    -25.9143E-03     44.4773E-03    -26.4149E-03     51.9869E-03    -25.7872E-03     44.4355E-03
            1614     7.01685E-03     44.5832E-03    -9.88627E+06    -93.4115E+06    -3.72833E+06    -534.390E+03    -26.3328E-03     52.2413E-03    -25.9085E-03     39.4605E-03    -26.2522E-03     51.8048E-03    -25.7774E-03     39.4202E-03
            1615     6.13963E-03     44.5479E-03    -10.8765E+06    -96.6780E+06    -4.62048E+06    -740.613E+03    -26.2197E-03     52.1223E-03    -25.9026E-03     34.4784E-03    -26.1344E-03     51.6686E-03    -25.7698E-03     34.4428E-03
            1616     5.26271E-03     44.5175E-03    -11.6706E+06    -98.4863E+06    -6.20192E+06    -346.998E+03    -26.1377E-03     52.0277E-03    -25.8900E-03     29.4114E-03    -26.0490E-03     51.5659E-03    -25.7613E-03     29.3867E-03
            1617     4.38558E-03     44.4918E-03    -12.6068E+06    -99.3207E+06    -7.90226E+06     148.341E+03    -26.0603E-03     51.9333E-03    -25.8730E-03     24.4049E-03    -25.9708E-03     51.4693E-03    -25.7502E-03     24.3914E-03
            1618     3.50857E-03     44.4710E-03    -13.4042E+06    -99.6529E+06    -9.43398E+06     486.596E+03    -25.9813E-03     51.8354E-03    -25.8540E-03     19.4731E-03    -25.8919E-03     51.3720E-03    -25.7373E-03     19.4680E-03
            1619     2.63144E-03     44.4547E-03    -14.3795E+06    -101.259E+06    -12.1111E+06     484.813E+03    -25.8998E-03     51.7336E-03    -25.8337E-03     14.5775E-03    -25.8083E-03     51.2666E-03    -25.7266E-03     14.5758E-03
            1620     1.75434E-03     44.4432E-03    -15.1618E+06    -102.447E+06    -14.1115E+06     289.618E+03    -25.8470E-03     51.6679E-03    -25.8209E-03     9.76443E-03    -25.7542E-03     51.1985E-03    -25.7209E-03     9.76308E-03
            1621     877.114E-06     44.4361E-03    -15.3324E+06    -102.799E+06    -14.9479E+06     176.127E+03    -25.8240E-03     51.6376E-03    -25.8136E-03     5.24882E-03    -25.7299E-03     51.1680E-03    -25.7170E-03     5.24842E-03
            1622     16.6667E-03     44.5621E-03    -4.90110E+06     150.526E+06     75.2943E+06     462.430E+03    -32.8612E-03     58.8809E-03    -26.0197E-03     209.190E-03    -37.5008E-03     63.8191E-03    -25.8544E-03     211.776E-03
            1623     15.7873E-03     44.3096E-03    -8.22643E+06     119.814E+06     27.8141E+06    -582.825E+03    -34.3681E-03     60.2225E-03    -25.8545E-03     207.659E-03    -37.9632E-03     64.1331E-03    -25.8772E-03     208.216E-03
            1624     14.9090E-03     44.1560E-03    -7.73386E+06     74.9476E+06    -10.2099E+06    -270.657E+03    -29.9887E-03     55.7114E-03    -25.7228E-03     134.168E-03    -31.0605E-03     57.0515E-03    -25.8713E-03     133.987E-03
            1625     14.0322E-03     44.0538E-03    -8.04657E+06     28.4152E+06    -14.2815E+06     105.534E+03    -28.3177E-03     54.0686E-03    -25.7509E-03     96.2554E-03    -28.7044E-03     54.5690E-03    -25.8518E-03     96.0614E-03
            1626     13.1563E-03     43.9725E-03    -6.91180E+06    -11.9230E+06    -11.8021E+06    -141.291E+03    -27.6275E-03     53.4275E-03    -25.8000E-03     81.0346E-03    -27.8071E-03     53.5745E-03    -25.8317E-03     80.8694E-03
            1627     12.2786E-03     43.8990E-03    -6.72829E+06    -38.8189E+06    -12.4797E+06    -381.307E+03    -27.3043E-03     53.1266E-03    -25.8223E-03     73.3656E-03    -27.3744E-03     53.0712E-03    -25.8186E-03     73.2310E-03
            1628     11.4020E-03     43.8328E-03    -7.67681E+06    -60.6235E+06    -8.45715E+06     399.980E+03    -27.0904E-03     52.9548E-03    -25.8644E-03     65.6137E-03    -27.1011E-03     52.7476E-03    -25.8076E-03     65.5141E-03
            1629     10.5248E-03     43.7738E-03    -8.00765E+06    -71.6065E+06    -4.17262E+06     762.818E+03    -26.9127E-03     52.8021E-03    -25.8893E-03     59.6075E-03    -26.8924E-03     52.5112E-03    -25.7948E-03     59.5325E-03
            1630     9.64809E-03     43.7192E-03    -7.45846E+06    -74.6530E+06    -2.66752E+06     1.14100E+06    -26.7591E-03     52.6458E-03    -25.8868E-03     54.5069E-03    -26.7183E-03     52.3213E-03    -25.7810E-03     54.4538E-03
            1631     8.77103E-03     43.6697E-03    -7.94666E+06    -81.5802E+06    -2.17881E+06     1.07113E+06    -26.5840E-03     52.4713E-03    -25.8874E-03     49.4638E-03    -26.5256E-03     52.1015E-03    -25.7684E-03     49.4239E-03
            1632     7.89404E-03     43.6248E-03    -8.68960E+06    -89.3451E+06    -3.09279E+06    -152.321E+03    -26.4392E-03     52.3240E-03    -25.8848E-03     44.4428E-03    -26.3646E-03     51.9104E-03    -25.7581E-03     44.3984E-03
            1633     7.01690E-03     43.5850E-03    -9.26347E+06    -93.5920E+06    -3.30725E+06    -170.103E+03    -26.3277E-03     52.2082E-03    -25.8805E-03     39.3899E-03    -26.2444E-03     51.7693E-03    -25.7479E-03     39.3543E-03
            1634     6.14000E-03     43.5497E-03    -10.5828E+06    -96.3788E+06    -5.39296E+06    -188.533E+03    -26.2099E-03     52.0754E-03    -25.8655E-03     34.4079E-03    -26.1225E-03     51.6239E-03    -25.7373E-03     34.3794E-03
            1635     5.26282E-03     43.5193E-03    -12.0697E+06    -99.2438E+06     -6.6819E+06    -288.351E+03    -26.0888E-03     51.9454E-03    -25.8566E-03     29.3742E-03    -26.0003E-03     51.4811E-03    -25.7286E-03     29.3504E-03
            1636     4.38574E-03     43.4937E-03    -12.9230E+06    -99.4111E+06    -8.00673E+06    -39.2020E+03    -26.0011E-03     51.8456E-03    -25.8446E-03     24.4028E-03    -25.9129E-03     51.3818E-03    -25.7217E-03     24.3871E-03
            1637     3.50860E-03     43.4728E-03    -13.6269E+06    -100.078E+06    -9.72686E+06     156.643E+03    -25.9308E-03     51.7623E-03    -25.8315E-03     19.4529E-03    -25.8414E-03     51.2975E-03    -25.7153E-03     19.4437E-03
            1638     2.63148E-03     43.4567E-03    -14.1680E+06    -100.899E+06    -11.4979E+06     505.002E+03    -25.8685E-03     51.6885E-03    -25.8200E-03     14.5751E-03    -25.7772E-03     51.2221E-03    -25.7107E-03     14.5738E-03
            1639     1.75428E-03     43.4451E-03    -14.6905E+06    -101.962E+06    -13.7113E+06     254.856E+03    -25.8317E-03     51.6408E-03    -25.8091E-03     9.78300E-03    -25.7378E-03     51.1725E-03    -25.7085E-03     9.78124E-03
            1640     877.215E-06     43.4381E-03    -15.1023E+06    -102.651E+06    -14.9024E+06    -127.978E+03    -25.7900E-03     51.6154E-03    -25.8254E-03     5.23518E-03    -25.6950E-03     51.1461E-03    -25.7292E-03     5.23091E-03
            1641     16.6633E-03     43.5608E-03    -3.68920E+06     151.695E+06     76.3308E+06     467.004E+03    -33.8587E-03     59.8151E-03    -25.9564E-03     210.398E-03    -38.5298E-03     64.7902E-03    -25.7893E-03     212.960E-03
            1642     15.7878E-03     43.3131E-03    -7.10900E+06     121.127E+06     28.7823E+06     236.826E+03    -34.1076E-03     59.8888E-03    -25.7812E-03     210.659E-03    -37.7460E-03     63.8485E-03    -25.8026E-03     211.266E-03
            1643     14.9097E-03     43.1579E-03    -9.21975E+06     74.8230E+06    -10.4934E+06    -92.5563E+03    -29.7584E-03     55.4289E-03    -25.6705E-03     135.086E-03    -30.8360E-03     56.7698E-03    -25.8181E-03     134.915E-03
            1644     14.0333E-03     43.0538E-03    -8.31483E+06     28.2448E+06    -14.6414E+06    -392.159E+03    -28.1698E-03     53.8762E-03    -25.7064E-03     95.6196E-03    -28.5532E-03     54.3729E-03    -25.8085E-03     95.4210E-03
            1645     13.1559E-03     42.9746E-03    -8.11646E+06    -11.6596E+06    -12.3158E+06    -464.006E+03    -27.4816E-03     53.2425E-03    -25.7608E-03     80.7139E-03    -27.6649E-03     53.3912E-03    -25.7937E-03     80.5463E-03
            1646     12.2793E-03     42.9001E-03    -7.95125E+06    -39.6953E+06    -13.4497E+06     198.852E+03    -27.2584E-03     53.0439E-03    -25.7855E-03     73.2090E-03    -27.3317E-03     52.9871E-03    -25.7837E-03     73.0823E-03
            1647     11.4022E-03     42.8346E-03    -7.77682E+06    -61.5349E+06    -8.81311E+06     1.27742E+06    -27.0490E-03     52.8782E-03    -25.8293E-03     65.4371E-03    -27.0580E-03     52.6668E-03    -25.7729E-03     65.3492E-03
            1648     10.5255E-03     42.7752E-03    -8.46103E+06    -70.0600E+06    -3.65978E+06     608.960E+03    -26.8695E-03     52.7252E-03    -25.8557E-03     59.5454E-03    -26.8542E-03     52.4418E-03    -25.7602E-03     59.4688E-03
            1649     9.64836E-03     42.7209E-03    -8.31112E+06    -75.5036E+06    -5.14938E+06    -434.183E+03    -26.7060E-03     52.5491E-03    -25.8431E-03     54.5070E-03    -26.6644E-03     52.2250E-03    -25.7474E-03     54.4340E-03
            1650     8.77139E-03     42.6714E-03    -6.67436E+06    -81.5141E+06    -2.65964E+06     344.231E+03    -26.5415E-03     52.3925E-03    -25.8511E-03     49.4346E-03    -26.4760E-03     52.0217E-03    -25.7365E-03     49.3855E-03
            1651     7.89420E-03     42.6266E-03    -7.10199E+06    -88.5055E+06    -1.78016E+06     893.163E+03    -26.4059E-03     52.2629E-03    -25.8570E-03     44.3591E-03    -26.3264E-03     51.8492E-03    -25.7273E-03     44.3283E-03
            1652     7.01727E-03     42.5867E-03    -9.31141E+06    -93.8309E+06    -2.80301E+06     490.939E+03    -26.2943E-03     52.1474E-03    -25.8531E-03     39.3614E-03    -26.2115E-03     51.7066E-03    -25.7176E-03     39.3344E-03
            1653     6.14010E-03     42.5516E-03    -10.8613E+06    -96.0590E+06    -4.45814E+06     551.069E+03    -26.1695E-03     52.0099E-03    -25.8404E-03     34.3808E-03    -26.0853E-03     51.5590E-03    -25.7076E-03     34.3620E-03
            1654     5.26303E-03     42.5212E-03    -12.1330E+06    -98.8485E+06    -6.65396E+06     79.4582E+03    -26.0464E-03     51.8746E-03    -25.8282E-03     29.3828E-03    -25.9587E-03     51.4122E-03    -25.7005E-03     29.3640E-03
            1655     4.38585E-03     42.4956E-03    -13.1165E+06    -99.5735E+06    -8.36116E+06    -462.704E+03    -25.9489E-03     51.7680E-03    -25.8192E-03     24.4197E-03    -25.8608E-03     51.3042E-03    -25.6976E-03     24.3987E-03
            1656     3.50867E-03     42.4748E-03    -13.5080E+06    -100.464E+06    -10.3730E+06    -265.935E+03    -25.8871E-03     51.6979E-03    -25.8108E-03     19.4445E-03    -25.7956E-03     51.2319E-03    -25.6974E-03     19.4300E-03
            1657     2.63147E-03     42.4586E-03    -13.8200E+06    -101.090E+06    -11.5890E+06    -24.8991E+03    -25.8469E-03     51.6537E-03    -25.8068E-03     14.5488E-03    -25.7535E-03     51.1860E-03    -25.6981E-03     14.5407E-03
            1658     1.75437E-03     42.4471E-03    -14.1574E+06    -101.567E+06    -12.9307E+06     283.223E+03    -25.8228E-03     51.6233E-03    -25.8005E-03     9.75230E-03    -25.7279E-03     51.1552E-03    -25.6974E-03     9.75097E-03
            1659     877.088E-06     42.4401E-03    -14.7663E+06    -102.424E+06    -14.5836E+06     216.907E+03    -25.8006E-03     51.5940E-03    -25.7934E-03     5.19262E-03    -25.7047E-03     51.1250E-03    -25.6964E-03     5.19284E-03
            1660     16.6667E-03     42.5638E-03    -4.82004E+06     150.513E+06     75.4580E+06     229.413E+03    -33.7629E-03     59.6985E-03    -25.9356E-03     208.241E-03    -38.3910E-03     64.6250E-03    -25.7696E-03     210.738E-03
            1661     15.7862E-03     42.3148E-03    -8.11028E+06     121.924E+06     31.4419E+06     632.074E+03    -34.4684E-03     60.2266E-03    -25.7583E-03     209.960E-03    -38.1325E-03     64.2036E-03    -25.7661E-03     210.549E-03
            1662     14.9111E-03     42.1578E-03    -9.03563E+06     75.6645E+06    -7.08292E+06    -42.6922E+03    -30.0222E-03     55.6468E-03    -25.6246E-03     134.475E-03    -31.1034E-03     56.9850E-03    -25.7566E-03     134.293E-03
            1663     14.0340E-03     42.0564E-03    -8.83279E+06     28.3382E+06    -13.6395E+06    -368.958E+03    -27.7951E-03     53.4439E-03    -25.6487E-03     95.1696E-03    -28.1761E-03     53.9336E-03    -25.7452E-03     94.9761E-03
            1664     13.1569E-03     41.9756E-03    -8.70697E+06    -11.7386E+06    -12.7136E+06    -201.082E+03    -27.2644E-03     52.9752E-03    -25.7108E-03     80.5074E-03    -27.4492E-03     53.1243E-03    -25.7447E-03     80.3451E-03
            1665     12.2798E-03     41.9021E-03    -8.62934E+06    -40.9853E+06    -14.1488E+06     369.371E+03    -27.1581E-03     52.9011E-03    -25.7430E-03     73.0784E-03    -27.2317E-03     52.8395E-03    -25.7418E-03     72.9544E-03
            1666     11.4028E-03     41.8362E-03    -7.68561E+06    -61.3074E+06    -10.3122E+06     276.538E+03    -26.9467E-03     52.7307E-03    -25.7840E-03     65.5456E-03    -26.9533E-03     52.5223E-03    -25.7355E-03     65.4454E-03
            1667     10.5256E-03     41.7769E-03    -5.97059E+06    -69.5054E+06    -3.17260E+06     365.301E+03    -26.7876E-03     52.6093E-03    -25.8218E-03     59.6203E-03    -26.7612E-03     52.3242E-03    -25.7282E-03     59.5411E-03
            1668     9.64864E-03     41.7227E-03    -6.75719E+06    -74.5024E+06    -3.24601E+06     80.0148E+03    -26.6463E-03     52.4676E-03    -25.8213E-03     54.5283E-03    -26.6012E-03     52.1434E-03    -25.7197E-03     54.4621E-03
            1669     8.77153E-03     41.6731E-03    -8.97922E+06    -83.0546E+06    -4.83155E+06    -332.199E+03    -26.5183E-03     52.3376E-03    -25.8193E-03     49.4714E-03    -26.4590E-03     51.9656E-03    -25.7100E-03     49.4138E-03
            1670     7.89462E-03     41.6285E-03    -9.22740E+06    -88.8699E+06    -2.52964E+06     894.311E+03    -26.3650E-03     52.1953E-03    -25.8303E-03     44.4119E-03    -26.2944E-03     51.7838E-03    -25.7007E-03     44.3814E-03
            1671     7.01732E-03     41.5886E-03    -9.26617E+06    -92.9958E+06    -1.60501E+06     1.16787E+06    -26.2268E-03     52.0611E-03    -25.8343E-03     39.4338E-03    -26.1466E-03     51.6226E-03    -25.6941E-03     39.4160E-03
            1672     6.14027E-03     41.5535E-03    -10.2621E+06    -96.0792E+06    -2.53005E+06     624.911E+03    -26.1272E-03     51.9573E-03    -25.8301E-03     34.4133E-03    -26.0426E-03     51.5026E-03    -25.6886E-03     34.3958E-03
            1673     5.26309E-03     41.5232E-03    -11.1502E+06    -97.7411E+06    -5.20092E+06     284.661E+03    -26.0319E-03     51.8468E-03    -25.8150E-03     29.4016E-03    -25.9429E-03     51.3864E-03    -25.6831E-03     29.3855E-03
            1674     4.38592E-03     41.4976E-03    -12.2903E+06    -99.5680E+06    -8.66828E+06    -247.960E+03    -25.9386E-03     51.7372E-03    -25.7986E-03     24.4137E-03    -25.8459E-03     51.2726E-03    -25.6797E-03     24.3956E-03
            1675     3.50872E-03     41.4767E-03    -13.4351E+06    -100.665E+06    -11.0512E+06    -444.562E+03    -25.8721E-03     51.6614E-03    -25.7893E-03     19.4460E-03    -25.7789E-03     51.1952E-03    -25.6791E-03     19.4293E-03
            1676     2.63157E-03     41.4606E-03    -14.0745E+06    -101.470E+06    -12.3369E+06    -329.502E+03    -25.8398E-03     51.6229E-03    -25.7831E-03     14.5307E-03    -25.7460E-03     51.1547E-03    -25.6773E-03     14.5187E-03
            1677     1.75431E-03     41.4491E-03    -14.4726E+06    -101.836E+06    -13.1443E+06    -37.4486E+03    -25.8100E-03     51.5835E-03    -25.7735E-03     9.71508E-03    -25.7160E-03     51.1147E-03    -25.6706E-03     9.70965E-03
            1678     877.303E-06     41.4420E-03    -14.4689E+06    -101.958E+06    -14.0110E+06     271.963E+03    -25.7536E-03     51.5344E-03    -25.7808E-03     5.14546E-03    -25.6578E-03     51.0664E-03    -25.6820E-03     5.14639E-03
            1679     16.6649E-03     41.5676E-03    -5.05094E+06     150.500E+06     76.3333E+06    -71.5456E+03    -34.6521E-03     60.5943E-03    -25.9422E-03     208.663E-03    -39.2914E-03     65.5287E-03    -25.7714E-03     211.128E-03
            1680     15.7903E-03     41.3149E-03    -7.38158E+06     121.662E+06     30.7034E+06     184.426E+03    -35.6038E-03     61.3072E-03    -25.7033E-03     210.047E-03    -39.2583E-03     65.2784E-03    -25.7155E-03     210.574E-03
            1681     14.9123E-03     41.1601E-03    -7.60090E+06     75.6505E+06    -7.20262E+06     278.969E+03    -29.6090E-03     55.1588E-03    -25.5498E-03     134.108E-03    -30.6698E-03     56.4821E-03    -25.6845E-03     133.938E-03
            1682     14.0350E-03     41.0578E-03    -8.08099E+06     28.5970E+06    -11.5699E+06     71.8009E+03    -27.4977E-03     53.1010E-03    -25.6033E-03     95.5906E-03    -27.8788E-03     53.5885E-03    -25.6909E-03     95.4070E-03
            1683     13.1576E-03     40.9779E-03    -8.15187E+06    -11.9454E+06    -10.8626E+06     144.603E+03    -27.0869E-03     52.7656E-03    -25.6787E-03     81.0540E-03    -27.2723E-03     52.9112E-03    -25.7039E-03     80.8973E-03
            1684     12.2802E-03     40.9036E-03    -7.36424E+06    -41.0068E+06    -12.6097E+06    -157.028E+03    -27.0028E-03     52.7213E-03    -25.7185E-03     73.5028E-03    -27.0728E-03     52.6561E-03    -25.7114E-03     73.3726E-03
            1685     11.4030E-03     40.8381E-03    -6.21446E+06    -60.7268E+06    -9.53139E+06    -702.274E+03    -26.8770E-03     52.6391E-03    -25.7622E-03     65.8581E-03    -26.8784E-03     52.4306E-03    -25.7128E-03     65.7455E-03
            1686     10.5260E-03     40.7787E-03    -6.20777E+06    -70.5540E+06    -3.36769E+06    -544.355E+03    -26.7288E-03     52.5331E-03    -25.8043E-03     59.8685E-03    -26.7017E-03     52.2433E-03    -25.7098E-03     59.7778E-03
            1687     9.64884E-03     40.7244E-03    -5.88848E+06    -74.6769E+06     362.554E+03     866.137E+03    -26.6112E-03     52.4343E-03    -25.8231E-03     54.6805E-03    -26.5667E-03     52.1028E-03    -25.7044E-03     54.6246E-03
            1688     8.77179E-03     40.6749E-03    -6.41981E+06    -82.4653E+06    -97.9424E+03     1.09013E+06    -26.4801E-03     52.3061E-03    -25.8260E-03     49.5926E-03    -26.4156E-03     51.9263E-03    -25.6976E-03     49.5536E-03
            1689     7.89452E-03     40.6303E-03     -8.0489E+06    -89.7769E+06    -1.45960E+06     294.205E+03    -26.3542E-03     52.1793E-03    -25.8251E-03     44.5461E-03    -26.2779E-03     51.7600E-03    -25.6906E-03     44.5081E-03
            1690     7.01752E-03     40.5905E-03    -8.65141E+06    -92.6166E+06    -886.063E+03     650.233E+03    -26.2250E-03     52.0515E-03    -25.8265E-03     39.5040E-03    -26.1432E-03     51.6128E-03    -25.6841E-03     39.4798E-03
            1691     6.14025E-03     40.5554E-03    -9.09822E+06    -95.5493E+06    -2.22688E+06     589.202E+03    -26.1204E-03     51.9394E-03    -25.8190E-03     34.4458E-03    -26.0311E-03     51.4851E-03    -25.6784E-03     34.4281E-03
            1692     5.26313E-03     40.5251E-03    -10.2572E+06    -97.6435E+06    -4.74265E+06     496.411E+03    -26.0415E-03     51.8458E-03    -25.8043E-03     29.3579E-03    -25.9488E-03     51.3839E-03    -25.6716E-03     29.3447E-03
            1693     4.38599E-03     40.4996E-03    -11.6764E+06    -99.0012E+06    -7.72069E+06     588.552E+03    -25.9567E-03     51.7418E-03    -25.7852E-03     24.3477E-03    -25.8631E-03     51.2778E-03    -25.6633E-03     24.3406E-03
            1694     3.50882E-03     40.4788E-03    -13.2017E+06    -100.514E+06    -10.6828E+06     162.529E+03    -25.8870E-03     51.6527E-03    -25.7657E-03     19.3822E-03    -25.7934E-03     51.1864E-03    -25.6542E-03     19.3734E-03
            1695     2.63158E-03     40.4626E-03    -14.3642E+06    -101.495E+06    -12.8729E+06    -202.756E+03    -25.8326E-03     51.5789E-03    -25.7463E-03     14.4636E-03    -25.7394E-03     51.1118E-03    -25.6427E-03     14.4534E-03
            1696     1.75454E-03     40.4511E-03    -14.8592E+06    -102.166E+06    -14.1666E+06    -392.573E+03    -25.7627E-03     51.4953E-03    -25.7326E-03     9.64758E-03    -25.6687E-03     51.0269E-03    -25.6337E-03     9.63758E-03
            1697     877.114E-06     40.4442E-03    -15.1349E+06    -102.121E+06    -14.5920E+06    -294.550E+03    -25.7281E-03     51.4618E-03    -25.7337E-03     5.16899E-03    -25.6344E-03     50.9948E-03    -25.6367E-03     5.16264E-03
            1698     16.6621E-03     40.5603E-03    -4.26010E+06     151.102E+06     76.8053E+06     285.207E+03    -34.8389E-03     60.7553E-03    -25.9165E-03     207.690E-03    -39.4764E-03     65.6915E-03    -25.7454E-03     210.114E-03
            1699     15.7893E-03     40.3157E-03    -7.72862E+06     121.124E+06     29.1195E+06    -415.813E+03    -35.3368E-03     60.9942E-03    -25.6574E-03     207.568E-03    -38.9875E-03     64.9629E-03    -25.6762E-03     208.104E-03
            1700     14.9130E-03     40.1624E-03    -8.25812E+06     75.2243E+06    -9.07018E+06    -295.890E+03    -29.2459E-03     54.7557E-03    -25.5098E-03     134.337E-03    -30.3146E-03     56.0884E-03    -25.6522E-03     134.171E-03
            1701     14.0349E-03     40.0602E-03    -7.95035E+06     28.6726E+06    -12.0047E+06     291.488E+03    -27.1719E-03     52.7615E-03    -25.5896E-03     96.6450E-03    -27.5540E-03     53.2519E-03    -25.6796E-03     96.4675E-03
            1702     13.1576E-03     39.9796E-03    -7.66301E+06    -12.0152E+06    -10.6986E+06     175.129E+03    -26.9947E-03     52.6786E-03    -25.6839E-03     82.0949E-03    -27.1795E-03     52.8245E-03    -25.7088E-03     81.9388E-03
            1703     12.2802E-03     39.9058E-03    -7.81519E+06    -40.1359E+06    -13.0385E+06    -364.080E+03    -27.0464E-03     52.7715E-03    -25.7252E-03     74.2726E-03    -27.1204E-03     52.7131E-03    -25.7208E-03     74.1391E-03
            1704     11.4030E-03     39.8397E-03    -8.08105E+06    -60.3674E+06    -10.7873E+06    -941.934E+03    -26.8665E-03     52.6348E-03    -25.7684E-03     66.3812E-03    -26.8758E-03     52.4325E-03    -25.7231E-03     66.2658E-03
            1705     10.5259E-03     39.7807E-03    -7.50841E+06    -71.1057E+06    -4.86829E+06    -1.14981E+06    -26.7405E-03     52.5521E-03    -25.8115E-03     60.4080E-03    -26.7168E-03     52.2634E-03    -25.7219E-03     60.3099E-03
            1706     9.64876E-03     39.7260E-03    -6.97719E+06    -76.6564E+06    -2.78367E+06    -525.119E+03    -26.6415E-03     52.4657E-03    -25.8242E-03     55.0800E-03    -26.5948E-03     52.1302E-03    -25.7169E-03     55.0067E-03
            1707     8.77158E-03     39.6769E-03    -6.54293E+06    -82.7035E+06    -1.25494E+06     1.34544E+06    -26.5267E-03     52.3582E-03    -25.8315E-03     49.8031E-03    -26.4606E-03     51.9789E-03    -25.7084E-03     49.7678E-03
            1708     7.89457E-03     39.6321E-03    -7.48938E+06    -88.5679E+06    -1.30594E+06     1.57337E+06    -26.4184E-03     52.2481E-03    -25.8297E-03     44.6109E-03    -26.3412E-03     51.8337E-03    -25.6969E-03     44.5897E-03
            1709     7.01739E-03     39.5925E-03    -9.34541E+06    -92.6096E+06    -3.03124E+06     328.303E+03    -26.3000E-03     52.1152E-03    -25.8152E-03     39.4758E-03    -26.2186E-03     51.6806E-03    -25.6826E-03     39.4475E-03
            1710     6.14035E-03     39.5573E-03    -10.3112E+06    -95.5059E+06    -4.58441E+06     428.101E+03    -26.1701E-03     51.9680E-03    -25.7979E-03     34.3547E-03    -26.0835E-03     51.5190E-03    -25.6674E-03     34.3350E-03
            1711     5.26322E-03     39.5271E-03    -11.1323E+06    -97.7881E+06    -5.96638E+06     836.792E+03    -26.0586E-03     51.8392E-03    -25.7806E-03     29.2399E-03    -25.9683E-03     51.3796E-03    -25.6525E-03     29.2313E-03
            1712     4.38606E-03     39.5016E-03    -12.1275E+06    -98.6669E+06    -6.90998E+06     887.014E+03    -25.9822E-03     51.7432E-03    -25.7610E-03     24.2088E-03    -25.8925E-03     51.2803E-03    -25.6349E-03     24.2055E-03
            1713     3.50892E-03     39.4808E-03    -12.9429E+06    -99.8474E+06    -9.56279E+06     684.581E+03    -25.8977E-03     51.6265E-03    -25.7288E-03     19.2320E-03    -25.8054E-03     51.1616E-03    -25.6131E-03     19.2299E-03
            1714     2.63185E-03     39.4647E-03    -13.8387E+06    -101.095E+06    -12.2531E+06     211.358E+03    -25.7825E-03     51.4832E-03    -25.7006E-03     14.3553E-03    -25.6882E-03     51.0164E-03    -25.5952E-03     14.3504E-03
            1715     1.75445E-03     39.4533E-03    -14.8673E+06    -102.128E+06    -14.2123E+06    -103.766E+03    -25.7074E-03     51.3955E-03    -25.6880E-03     9.59458E-03    -25.6134E-03     50.9274E-03    -25.5895E-03     9.58840E-03
            1716     877.328E-06     39.4464E-03    -15.5802E+06    -102.660E+06    -15.4767E+06    -278.023E+03    -25.7132E-03     51.3755E-03    -25.6623E-03     5.19801E-03    -25.6197E-03     50.9077E-03    -25.5682E-03     5.19191E-03
            1717     16.6711E-03     39.5647E-03    -3.91140E+06     151.330E+06     77.6823E+06     506.416E+03    -34.6061E-03     60.4641E-03    -25.8580E-03     206.588E-03    -39.1790E-03     65.3352E-03    -25.6833E-03     208.987E-03
            1718     15.7903E-03     39.3160E-03    -6.94380E+06     121.806E+06     30.1064E+06    -521.608E+03    -33.8522E-03     59.5051E-03    -25.6529E-03     209.404E-03    -37.5192E-03     63.4925E-03    -25.6689E-03     209.996E-03
            1719     14.9125E-03     39.1650E-03    -7.75057E+06     75.1835E+06    -9.54519E+06    -1.34093E+06    -29.1518E-03     54.7028E-03    -25.5510E-03     134.391E-03    -30.2135E-03     56.0316E-03    -25.6965E-03     134.211E-03
            1720     14.0346E-03     39.0626E-03    -6.29494E+06     27.4483E+06    -13.3902E+06     19.0447E+03    -27.0685E-03     52.7064E-03    -25.6380E-03     98.3409E-03    -27.4396E-03     53.1915E-03    -25.7356E-03     98.1610E-03
            1721     13.1564E-03     38.9819E-03    -6.75155E+06    -12.2000E+06    -12.3634E+06     1.51400E+06    -27.1780E-03     52.9143E-03    -25.7363E-03     83.3030E-03    -27.3574E-03     53.0623E-03    -25.7707E-03     83.1625E-03
            1722     12.2794E-03     38.9069E-03    -7.84824E+06    -38.0838E+06    -13.8988E+06     716.687E+03    -27.2103E-03     52.9849E-03    -25.7746E-03     74.7727E-03    -27.2860E-03     52.9378E-03    -25.7775E-03     74.6527E-03
            1723     11.4024E-03     38.8421E-03    -7.48531E+06    -59.3866E+06    -13.4060E+06    -1.40498E+06    -27.0064E-03     52.8103E-03    -25.8039E-03     66.8452E-03    -27.0102E-03     52.6155E-03    -25.7739E-03     66.7238E-03
            1724     10.5252E-03     38.7820E-03    -7.02018E+06    -72.0655E+06    -7.71826E+06    -1.53458E+06    -26.8960E-03     52.7384E-03    -25.8424E-03     60.7200E-03    -26.8642E-03     52.4482E-03    -25.7663E-03     60.6171E-03
            1725     9.64823E-03     38.7281E-03    -7.79377E+06    -77.9591E+06    -4.74563E+06    -318.968E+03    -26.8094E-03     52.6615E-03    -25.8521E-03     55.1380E-03    -26.7618E-03     52.3233E-03    -25.7515E-03     55.0674E-03
            1726     8.77132E-03     38.6783E-03    -8.69978E+06    -84.5668E+06    -4.09765E+06     583.684E+03    -26.7035E-03     52.5473E-03    -25.8437E-03     49.7077E-03    -26.6414E-03     52.1659E-03    -25.7290E-03     49.6623E-03
            1727     7.89436E-03     38.6340E-03    -8.49682E+06    -87.8125E+06    -1.60847E+06     1.66672E+06    -26.5523E-03     52.3855E-03    -25.8332E-03     44.4055E-03    -26.4807E-03     51.9766E-03    -25.7016E-03     44.3853E-03
            1728     7.01746E-03     38.5941E-03    -9.12589E+06    -91.1482E+06    -1.77221E+06     1.26874E+06    -26.4023E-03     52.2108E-03    -25.8085E-03     39.2220E-03    -26.3237E-03     51.7813E-03    -25.6719E-03     39.2057E-03
            1729     6.14050E-03     38.5593E-03    -10.8195E+06    -96.0262E+06    -4.50728E+06     510.412E+03    -26.2543E-03     52.0275E-03    -25.7732E-03     34.0904E-03    -26.1696E-03     51.5766E-03    -25.6408E-03     34.0717E-03
            1730     5.26339E-03     38.5290E-03    -11.6831E+06    -97.5899E+06    -6.33094E+06     603.288E+03    -26.1087E-03     51.8448E-03    -25.7361E-03     28.9950E-03    -26.0209E-03     51.3875E-03    -25.6093E-03     28.9833E-03
            1731     4.38632E-03     38.5036E-03    -12.0315E+06    -98.5763E+06    -7.21551E+06     540.641E+03    -25.9685E-03     51.6717E-03    -25.7032E-03     23.9653E-03    -25.8780E-03     51.2095E-03    -25.5789E-03     23.9575E-03
            1732     3.50922E-03     38.4829E-03    -12.6140E+06    -99.3607E+06    -9.13758E+06     552.036E+03    -25.8204E-03     51.4919E-03    -25.6715E-03     19.0603E-03    -25.7278E-03     51.0283E-03    -25.5548E-03     19.0565E-03
            1733     2.63187E-03     38.4670E-03    -13.4273E+06    -100.730E+06    -11.2538E+06     600.227E+03    -25.7202E-03     51.3697E-03    -25.6495E-03     14.2610E-03    -25.6259E-03     50.9027E-03    -25.5402E-03     14.2612E-03
            1734     1.75465E-03     38.4556E-03    -14.2761E+06    -101.744E+06    -13.3739E+06     498.720E+03    -25.6743E-03     51.3046E-03    -25.6303E-03     9.52658E-03    -25.5791E-03     50.8363E-03    -25.5289E-03     9.52822E-03
            1735     877.273E-06     38.4486E-03    -15.1167E+06    -102.563E+06    -15.0283E+06     369.758E+03    -25.6395E-03     51.2440E-03    -25.6045E-03     5.13412E-03    -25.5445E-03     50.7754E-03    -25.5090E-03     5.13639E-03
            1736     16.6660E-03     38.5736E-03    -4.44758E+06     151.018E+06     76.8737E+06    -1.16538E+06    -34.2291E-03     60.1744E-03    -25.9453E-03     209.556E-03    -38.8668E-03     65.1103E-03    -25.7735E-03     212.051E-03
            1737     15.7862E-03     38.3140E-03    -4.76708E+06     122.282E+06     30.2098E+06    -2.00127E+06    -34.5201E-03     60.2684E-03    -25.7484E-03     210.022E-03    -38.1501E-03     64.2283E-03    -25.7677E-03     210.553E-03
            1738     14.9108E-03     38.1679E-03    -4.65358E+06     73.2483E+06    -10.9900E+06     328.392E+03    -28.4167E-03     54.0739E-03    -25.6572E-03     135.050E-03    -29.4235E-03     55.3561E-03    -25.8116E-03     134.908E-03
            1739     14.0318E-03     38.0653E-03    -8.23978E+06     25.3465E+06    -17.9766E+06     2.35819E+06    -27.7928E-03     53.5398E-03    -25.7471E-03     99.8631E-03    -28.1711E-03     54.0310E-03    -25.8618E-03     99.7058E-03
            1740     13.1554E-03     37.9824E-03    -8.93088E+06    -10.6083E+06    -13.6408E+06     1.42217E+06    -27.6224E-03     53.4519E-03    -25.8295E-03     83.7507E-03    -27.8133E-03     53.6130E-03    -25.8694E-03     83.6063E-03
            1741     12.2783E-03     37.9091E-03    -6.22346E+06    -36.4706E+06    -12.6330E+06    -400.906E+03    -27.4590E-03     53.3170E-03    -25.8580E-03     74.8369E-03    -27.5300E-03     53.2731E-03    -25.8592E-03     74.7018E-03
            1742     11.4013E-03     37.8429E-03    -5.48934E+06    -59.1013E+06    -11.6084E+06    -153.381E+03    -27.3507E-03     53.2257E-03    -25.8750E-03     66.7075E-03    -27.3477E-03     53.0271E-03    -25.8394E-03     66.6009E-03
            1743     10.5248E-03     37.7840E-03    -7.88524E+06    -72.5067E+06    -7.20324E+06     71.1802E+03    -27.2141E-03     53.1038E-03    -25.8897E-03     60.3646E-03    -27.1867E-03     52.8119E-03    -25.8091E-03     60.2813E-03
            1744     9.64795E-03     37.7291E-03    -9.20335E+06    -78.7073E+06    -4.33207E+06    -82.1679E+03    -27.0650E-03     52.9415E-03    -25.8765E-03     54.7199E-03    -27.0240E-03     52.6010E-03    -25.7707E-03     54.6515E-03
            1745     8.77134E-03     37.6801E-03    -9.31147E+06    -85.3282E+06    -3.33322E+06     389.177E+03    -26.9048E-03     52.7509E-03    -25.8461E-03     49.1948E-03    -26.8458E-03     52.3656E-03    -25.7255E-03     49.1462E-03
            1746     7.89460E-03     37.6354E-03    -9.72927E+06    -88.2782E+06    -2.72599E+06     500.534E+03    -26.6868E-03     52.4928E-03    -25.8059E-03     43.9393E-03    -26.6191E-03     52.0850E-03    -25.6775E-03     43.9036E-03
            1747     7.01776E-03     37.5959E-03    -9.85934E+06    -90.7412E+06    -1.47506E+06     1.24093E+06    -26.4750E-03     52.2436E-03    -25.7686E-03     38.7745E-03    -26.4010E-03     51.8168E-03    -25.6301E-03     38.7576E-03
            1748     6.14075E-03     37.5610E-03    -10.7265E+06    -95.1526E+06    -3.17883E+06     1.20614E+06    -26.3055E-03     52.0256E-03    -25.7201E-03     33.6830E-03    -26.2235E-03     51.5770E-03    -25.5825E-03     33.6730E-03
            1749     5.26390E-03     37.5310E-03    -12.0466E+06    -97.2779E+06    -6.61125E+06     217.012E+03    -26.1095E-03     51.7706E-03    -25.6611E-03     28.6702E-03    -26.0236E-03     51.3157E-03    -25.5356E-03     28.6533E-03
            1750     4.38677E-03     37.5057E-03    -12.6934E+06    -98.4398E+06    -8.99063E+06    -9.08914E+03    -25.8791E-03     51.4943E-03    -25.6152E-03     23.7479E-03    -25.7896E-03     51.0363E-03    -25.4990E-03     23.7330E-03
            1751     3.50939E-03     37.4852E-03    -13.1471E+06    -99.6544E+06    -10.1640E+06     324.988E+03    -25.7257E-03     51.3157E-03    -25.5900E-03     18.8871E-03    -25.6338E-03     50.8529E-03    -25.4773E-03     18.8804E-03
            1752     2.63207E-03     37.4693E-03    -13.6256E+06    -100.502E+06    -11.7461E+06     623.566E+03    -25.6606E-03     51.2283E-03    -25.5677E-03     14.1081E-03    -25.5668E-03     50.7634E-03    -25.4609E-03     14.1086E-03
            1753     1.75477E-03     37.4579E-03    -14.0887E+06    -101.354E+06    -12.9226E+06     662.562E+03    -25.6051E-03     51.1490E-03    -25.5440E-03     9.40110E-03    -25.5102E-03     50.6818E-03    -25.4412E-03     9.40479E-03
            1754     877.446E-06     37.4511E-03    -14.4050E+06    -101.645E+06    -13.8879E+06     572.373E+03    -25.5370E-03     51.0624E-03    -25.5253E-03     5.03602E-03    -25.4415E-03     50.5957E-03    -25.4265E-03     5.04093E-03
            1755     16.6545E-03     37.5513E-03    -749.880E+03     153.904E+06     75.9290E+06    -3.22504E+06    -32.8512E-03     58.8520E-03    -26.0007E-03     207.809E-03    -37.5315E-03     63.8563E-03    -25.8432E-03     210.422E-03
            1756     15.7919E-03     37.3234E-03    -5.02771E+06     117.751E+06     20.0473E+06    -619.938E+03    -32.8139E-03     58.6373E-03    -25.8233E-03     203.857E-03    -36.2583E-03     62.4235E-03    -25.8866E-03     204.456E-03
            1757     14.9054E-03     37.1697E-03    -13.0237E+06     69.1812E+06    -19.7101E+06     5.78532E+06    -28.4398E-03     54.2302E-03    -25.7904E-03     138.426E-03    -29.4788E-03     55.5257E-03    -25.9704E-03     138.361E-03
            1758     14.0306E-03     37.0651E-03    -14.5159E+06     30.5502E+06    -17.5260E+06     2.57757E+06    -28.7535E-03     54.6476E-03    -25.8942E-03     99.5834E-03    -29.1774E-03     55.1793E-03    -26.0050E-03     99.4171E-03
            1759     13.1538E-03     36.9841E-03    -11.3347E+06    -9.42791E+06    -15.5768E+06    -2.42969E+06    -28.1834E-03     54.1047E-03    -25.9213E-03     83.3643E-03    -28.3849E-03     54.2777E-03    -25.9691E-03     83.1669E-03
            1760     12.2772E-03     36.9096E-03    -9.81945E+06    -37.9136E+06    -14.3347E+06    -1.05373E+06    -27.9614E-03     53.8849E-03    -25.9235E-03     74.3226E-03    -28.0464E-03     53.8421E-03    -25.9260E-03     74.1763E-03
            1761     11.4010E-03     36.8442E-03    -10.2288E+06    -59.7664E+06    -12.2398E+06     455.541E+03    -27.7859E-03     53.6983E-03    -25.9124E-03     65.9119E-03    -27.8051E-03     53.5045E-03    -25.8721E-03     65.8109E-03
            1762     10.5246E-03     36.7846E-03    -8.62219E+06    -71.7658E+06    -7.74751E+06     261.681E+03    -27.5718E-03     53.4579E-03    -25.8861E-03     59.5106E-03    -27.5487E-03     53.1718E-03    -25.8082E-03     59.4280E-03
            1763     9.64832E-03     36.7305E-03    -8.24012E+06    -79.3937E+06    -4.34139E+06     321.119E+03    -27.2932E-03     53.1396E-03    -25.8464E-03     53.9036E-03    -27.2465E-03     52.7944E-03    -25.7411E-03     53.8393E-03
            1764     8.77172E-03     36.6811E-03    -9.64030E+06    -85.2868E+06    -3.53870E+06     610.151E+03    -27.0073E-03     52.8020E-03    -25.7947E-03     48.5023E-03    -26.9496E-03     52.4176E-03    -25.6748E-03     48.4560E-03
            1765     7.89514E-03     36.6371E-03    -10.7174E+06    -87.9589E+06    -3.26962E+06     269.117E+03    -26.7535E-03     52.4898E-03    -25.7363E-03     43.3403E-03    -26.6904E-03     52.0859E-03    -25.6096E-03     43.3012E-03
            1766     7.01830E-03     36.5976E-03    -11.5436E+06    -91.9254E+06    -4.08507E+06     357.278E+03    -26.5003E-03     52.1759E-03    -25.6756E-03     38.2615E-03    -26.4293E-03     51.7494E-03    -25.5460E-03     38.2329E-03
            1767     6.14151E-03     36.5629E-03    -11.4946E+06    -94.0043E+06    -4.57402E+06     678.558E+03    -26.2381E-03     51.8561E-03    -25.6180E-03     33.2767E-03    -26.1596E-03     51.4163E-03    -25.4879E-03     33.2599E-03
            1768     5.26434E-03     36.5330E-03    -11.6215E+06    -96.5624E+06    -6.81358E+06     203.704E+03    -25.9968E-03     51.5590E-03    -25.5622E-03     28.3542E-03    -25.9095E-03     51.1074E-03    -25.4394E-03     28.3373E-03
            1769     4.38708E-03     36.5081E-03    -12.5484E+06    -98.6938E+06    -9.76976E+06     43.8077E+03    -25.8171E-03     51.3297E-03    -25.5126E-03     23.4729E-03    -25.7254E-03     50.8714E-03    -25.4001E-03     23.4588E-03
            1770     3.50979E-03     36.4876E-03    -13.3596E+06    -99.9663E+06    -11.1872E+06     251.463E+03    -25.6809E-03     51.1554E-03    -25.4745E-03     18.6422E-03    -25.5882E-03     50.6927E-03    -25.3661E-03     18.6346E-03
            1771     2.63247E-03     36.4717E-03    -13.8143E+06     -100.34E+06    -12.1617E+06     335.126E+03    -25.5498E-03     50.9936E-03    -25.4437E-03     13.9030E-03    -25.4566E-03     50.5304E-03    -25.3390E-03     13.8997E-03
            1772     1.75497E-03     36.4605E-03    -13.9353E+06    -100.969E+06    -12.8378E+06     246.565E+03    -25.4643E-03     50.8891E-03    -25.4248E-03     9.29608E-03    -25.3693E-03     50.4235E-03    -25.3224E-03     9.29439E-03
            1773     877.499E-06     36.4536E-03    -13.8604E+06    -101.041E+06    -13.2305E+06     23.6560E+03    -25.4288E-03     50.8378E-03    -25.4089E-03     4.94274E-03    -25.3324E-03     50.3723E-03    -25.3085E-03     4.94054E-03
            1774     16.6766E-03     36.5556E-03    -1.08822E+06     150.992E+06     68.8115E+06    -194.725E+03    -29.0868E-03     55.0816E-03    -25.9948E-03     212.835E-03    -33.6494E-03     59.9771E-03    -25.8681E-03     215.604E-03
            1775     15.7789E-03     36.3306E-03    -12.5918E+06     112.922E+06     17.6382E+06     6.74160E+06    -31.6941E-03     57.7228E-03    -26.0287E-03     210.166E-03    -35.1476E-03     61.4811E-03    -26.0860E-03     210.982E-03
            1776     14.9056E-03     36.1691E-03    -18.4743E+06     75.6552E+06    -13.7079E+06     3.34583E+06    -31.4516E-03     57.4438E-03    -25.9922E-03     139.492E-03    -32.5958E-03     58.8307E-03    -26.1437E-03     139.342E-03
            1777     14.0284E-03     36.0654E-03    -11.1296E+06     35.5842E+06    -13.6904E+06    -2.72515E+06    -29.3356E-03     55.3088E-03    -25.9732E-03     97.7827E-03    -29.7511E-03     55.8509E-03    -26.0771E-03     97.5438E-03
            1778     13.1527E-03     35.9841E-03    -9.50705E+06    -11.3019E+06    -13.3952E+06    -1.52786E+06    -28.8076E-03     54.7711E-03    -25.9635E-03     81.2887E-03    -29.0015E-03     54.9299E-03    -26.0003E-03     81.0974E-03
            1779     12.2773E-03     35.9101E-03    -11.9782E+06    -39.3986E+06    -13.3365E+06    -50.6426E+03    -28.4344E-03     54.3568E-03    -25.9224E-03     72.5483E-03    -28.5303E-03     54.3090E-03    -25.9146E-03     72.4108E-03
            1780     11.4013E-03     35.8446E-03    -10.9797E+06    -58.8124E+06    -12.6223E+06    -1.12913E+06    -28.0734E-03     53.9371E-03    -25.8637E-03     64.4449E-03    -28.0975E-03     53.7501E-03    -25.8256E-03     64.3211E-03
            1781     10.5255E-03     35.7855E-03    -9.66519E+06    -72.5204E+06    -10.3666E+06    -1.42495E+06    -27.7090E-03     53.5128E-03    -25.8038E-03     58.3314E-03    -27.6863E-03     53.2284E-03    -25.7365E-03     58.2258E-03
            1782     9.64917E-03     35.7315E-03    -9.32593E+06    -81.1846E+06    -6.87706E+06     734.301E+03    -27.3309E-03     53.0798E-03    -25.7489E-03     52.9775E-03    -27.2834E-03     52.7309E-03    -25.6521E-03     52.9179E-03
            1783     8.77275E-03     35.6827E-03    -9.67638E+06    -83.9393E+06    -4.10785E+06     1.06639E+06    -26.9929E-03     52.6817E-03    -25.6888E-03     47.8176E-03    -26.9365E-03     52.3048E-03    -25.5736E-03     47.7771E-03
            1784     7.89598E-03     35.6386E-03    -10.3424E+06    -87.7801E+06    -2.72888E+06     202.954E+03    -26.7105E-03     52.3378E-03    -25.6272E-03     42.7646E-03    -26.6465E-03     51.9333E-03    -25.4986E-03     42.7246E-03
            1785     7.01931E-03     35.5994E-03    -10.6768E+06    -91.8185E+06    -4.50642E+06    -139.536E+03    -26.4167E-03     51.9709E-03    -25.5542E-03     37.7992E-03    -26.3408E-03     51.5442E-03    -25.4281E-03     37.7643E-03
            1786     6.14217E-03     35.5651E-03    -11.0250E+06    -94.0948E+06    -6.19863E+06    -465.438E+03    -26.1132E-03     51.6024E-03    -25.4892E-03     32.9216E-03    -26.0297E-03     51.1638E-03    -25.3678E-03     32.8902E-03
            1787     5.26495E-03     35.5355E-03    -11.3796E+06    -96.5573E+06    -6.59191E+06     85.4698E+03    -25.9020E-03     51.3424E-03    -25.4404E-03     27.9909E-03    -25.8137E-03     50.8900E-03    -25.3168E-03     27.9726E-03
            1788     4.38767E-03     35.5105E-03    -12.0957E+06    -99.0030E+06    -8.77272E+06     567.980E+03    -25.7520E-03     51.1370E-03    -25.3850E-03     23.1163E-03    -25.6589E-03     50.6750E-03    -25.2678E-03     23.1089E-03
            1789     3.51040E-03     35.4902E-03    -13.1062E+06    -99.5749E+06    -10.9381E+06     491.769E+03    -25.5705E-03     50.9014E-03    -25.3309E-03     18.3810E-03    -25.4774E-03     50.4400E-03    -25.2222E-03     18.3765E-03
            1790     2.63283E-03     35.4746E-03    -13.8785E+06    -100.170E+06    -12.0317E+06     108.356E+03    -25.4068E-03     50.7012E-03    -25.2944E-03     13.7567E-03    -25.3144E-03     50.2388E-03    -25.1892E-03     13.7506E-03
            1791     1.75527E-03     35.4633E-03    -14.3311E+06    -100.691E+06    -13.5459E+06    -94.2674E+03    -25.3097E-03     50.5804E-03    -25.2707E-03     9.20049E-03    -25.2160E-03     50.1177E-03    -25.1717E-03     9.19443E-03
            1792     877.594E-06     35.4566E-03    -14.6213E+06    -101.145E+06    -14.6296E+06    -302.623E+03    -25.2811E-03     50.5298E-03    -25.2487E-03     4.87767E-03    -25.1863E-03     50.0670E-03    -25.1540E-03     4.87123E-03
            1793     16.6504E-03     35.5833E-03    -6.81783E+06     145.584E+06     69.5941E+06     6.08106E+06    -29.8655E-03     56.0763E-03    -26.2108E-03     214.294E-03    -34.4260E-03     60.9276E-03    -26.0641E-03     216.999E-03
            1794     15.7740E-03     35.3180E-03    -15.3350E+06     114.988E+06     28.3676E+06     1.17308E+06    -35.0239E-03     61.2074E-03    -26.1835E-03     209.388E-03    -38.6525E-03     65.1077E-03    -26.1861E-03     209.953E-03
            1795     14.9043E-03     35.1695E-03    -6.25260E+06     81.2557E+06    -1.41445E+06    -4.28617E+06    -32.3467E-03     58.3388E-03    -25.9921E-03     131.130E-03    -33.4622E-03     59.7245E-03    -26.1079E-03     130.847E-03
            1796     14.0298E-03     35.0645E-03    -6.03264E+06     33.0276E+06    -13.8263E+06    -1.80515E+06    -29.5260E-03     55.3989E-03    -25.8728E-03     94.0829E-03    -29.9118E-03     55.9205E-03    -25.9811E-03     93.8503E-03
            1797     13.1548E-03     34.9839E-03    -8.66638E+06    -12.2082E+06    -14.4752E+06     717.835E+03    -28.7367E-03     54.5795E-03    -25.8429E-03     78.5441E-03    -28.9233E-03     54.7340E-03    -25.8850E-03     78.3790E-03
            1798     12.2790E-03     34.9104E-03    -7.49334E+06    -39.1458E+06    -13.5106E+06    -78.5427E+03    -28.4005E-03     54.1896E-03    -25.7892E-03     70.7707E-03    -28.4740E-03     54.1368E-03    -25.7891E-03     70.6314E-03
            1799     11.4033E-03     34.8450E-03    -7.83608E+06    -56.8921E+06    -11.3440E+06    -830.595E+03    -27.9578E-03     53.6883E-03    -25.7305E-03     63.2650E-03    -27.9703E-03     53.5039E-03    -25.6933E-03     63.1450E-03
            1800     10.5270E-03     34.7865E-03    -9.98566E+06    -74.7348E+06    -9.71765E+06    -386.861E+03    -27.5621E-03     53.2381E-03    -25.6760E-03     57.4191E-03    -27.5383E-03     52.9417E-03    -25.6017E-03     57.3271E-03
            1801     9.65057E-03     34.7328E-03    -11.0712E+06    -81.9248E+06    -9.75563E+06     144.366E+03    -27.1899E-03     52.7918E-03    -25.6020E-03     52.3180E-03    -27.1454E-03     52.4455E-03    -25.5159E-03     52.2513E-03
            1802     8.77390E-03     34.6843E-03    -9.67659E+06    -82.9772E+06    -6.45118E+06    -361.402E+03    -26.8781E-03     52.4151E-03    -25.5369E-03     47.3300E-03    -26.8193E-03     52.0460E-03    -25.4349E-03     47.2716E-03
            1803     7.89727E-03     34.6404E-03    -8.35560E+06    -87.9197E+06    -2.90603E+06    -348.534E+03    -26.5628E-03     52.0465E-03    -25.4837E-03     42.3361E-03    -26.4881E-03     51.6385E-03    -25.3586E-03     42.2896E-03
            1804     7.02013E-03     34.6016E-03    -8.98033E+06    -91.5990E+06    -3.20958E+06    -18.2796E+03    -26.2694E-03     51.6882E-03    -25.4188E-03     37.3977E-03    -26.1870E-03     51.2581E-03    -25.2890E-03     37.3649E-03
            1805     6.14305E-03     34.5675E-03    -10.6865E+06    -94.1840E+06    -4.86918E+06     144.932E+03    -26.0358E-03     51.3874E-03    -25.3515E-03     32.4898E-03    -25.9524E-03     50.9458E-03    -25.2238E-03     32.4664E-03
            1806     5.26581E-03     34.5380E-03    -12.4676E+06    -97.0738E+06    -7.15534E+06     94.9891E+03    -25.8022E-03     51.0875E-03    -25.2853E-03     27.6395E-03    -25.7178E-03     50.6349E-03    -25.1622E-03     27.6214E-03
            1807     4.38850E-03     34.5132E-03    -13.1627E+06    -99.0276E+06    -8.62263E+06     222.596E+03    -25.5829E-03     50.8103E-03    -25.2274E-03     22.8765E-03    -25.4953E-03     50.3494E-03    -25.1078E-03     22.8648E-03
            1808     3.51087E-03     34.4932E-03    -13.0882E+06    -99.2177E+06    -10.2424E+06     213.956E+03    -25.4058E-03     50.5799E-03    -25.1742E-03     18.1764E-03    -25.3141E-03     50.1193E-03    -25.0626E-03     18.1685E-03
            1809     2.63327E-03     34.4776E-03    -13.3489E+06    -99.9932E+06    -11.7351E+06     234.762E+03    -25.2656E-03     50.3976E-03    -25.1319E-03     13.5881E-03    -25.1712E-03     49.9348E-03    -25.0263E-03     13.5836E-03
            1810     1.75556E-03     34.4665E-03    -14.2097E+06    -100.527E+06    -13.4594E+06     231.788E+03    -25.1525E-03     50.2535E-03    -25.1011E-03     9.09918E-03    -25.0586E-03     49.7914E-03    -25.0020E-03     9.09739E-03
            1811     877.839E-06     34.4598E-03    -14.9446E+06    -101.136E+06    -14.9893E+06     197.372E+03    -25.1026E-03     50.1816E-03    -25.0791E-03     4.89495E-03    -25.0088E-03     49.7199E-03    -24.9857E-03     4.89502E-03
            1812     16.6608E-03     34.5776E-03    -4.80545E+06     150.169E+06     83.5141E+06     4.90254E+06    -36.2463E-03     62.5114E-03    -26.2651E-03     204.442E-03    -40.9160E-03     67.4545E-03    -26.0583E-03     206.879E-03
            1813     15.7920E-03     34.3236E-03     867.567E+03     125.228E+06     37.7667E+06     80.5982E+03    -36.5821E-03     62.5071E-03    -25.9249E-03     205.400E-03    -40.2268E-03     66.4898E-03    -25.9189E-03     205.845E-03
            1814     14.9102E-03     34.1670E-03    -284.438E+03     76.3462E+06    -12.0200E+06    -1.43385E+06    -30.3468E-03     56.0027E-03    -25.6559E-03     129.860E-03    -31.3764E-03     57.3369E-03    -25.8263E-03     129.645E-03
            1815     14.0352E-03     34.0657E-03    -4.31938E+06     30.8101E+06    -12.7585E+06     2.37753E+06    -28.8360E-03     54.4970E-03    -25.6610E-03     93.1203E-03    -29.2092E-03     55.0013E-03    -25.7632E-03     92.9458E-03
            1816     13.1577E-03     33.9845E-03    -5.24386E+06    -10.7850E+06    -9.99375E+06     1.55734E+06    -28.1849E-03     53.8515E-03    -25.6666E-03     78.8968E-03    -28.3605E-03     53.9991E-03    -25.6933E-03     78.7471E-03
            1817     12.2818E-03     33.9109E-03    -6.56299E+06    -37.9966E+06    -11.5247E+06     522.971E+03    -28.0348E-03     53.6589E-03    -25.6242E-03     70.7320E-03    -28.1066E-03     53.6060E-03    -25.6172E-03     70.6032E-03
            1818     11.4051E-03     33.8463E-03    -7.73365E+06    -57.4229E+06    -9.43124E+06     996.769E+03    -27.6683E-03     53.2488E-03    -25.5805E-03     63.1467E-03    -27.6810E-03     53.0575E-03    -25.5332E-03     63.0526E-03
            1819     10.5287E-03     33.7876E-03    -8.82726E+06    -75.0898E+06    -7.14694E+06     1.71539E+06    -27.3613E-03     52.8955E-03    -25.5342E-03     57.1790E-03    -27.3341E-03     52.5911E-03    -25.4483E-03     57.1156E-03
            1820     9.65216E-03     33.7347E-03    -9.25725E+06    -79.6824E+06    -8.71307E+06    -328.571E+03    -27.0464E-03     52.4956E-03    -25.4492E-03     52.0779E-03    -26.9971E-03     52.1558E-03    -25.3638E-03     52.0063E-03
            1821     8.77541E-03     33.6859E-03    -8.99058E+06    -83.0790E+06    -8.37423E+06    -1.97927E+06    -26.7167E-03     52.0911E-03    -25.3744E-03     47.1062E-03    -26.6510E-03     51.7228E-03    -25.2827E-03     47.0280E-03
            1822     7.89837E-03     33.6427E-03    -9.27517E+06    -89.4102E+06    -4.02949E+06    -811.462E+03    -26.4298E-03     51.7582E-03    -25.3284E-03     42.0056E-03    -26.3556E-03     51.3453E-03    -25.2054E-03     41.9539E-03
            1823     7.02130E-03     33.6039E-03    -10.0295E+06    -91.8742E+06    -2.14514E+06     337.575E+03    -26.1682E-03     51.4350E-03    -25.2668E-03     37.0015E-03    -26.0921E-03     51.0033E-03    -25.1297E-03     36.9736E-03
            1824     6.14412E-03     33.5700E-03    -10.7511E+06    -94.1820E+06    -3.16813E+06     531.825E+03    -25.9054E-03     51.0984E-03    -25.1931E-03     32.1184E-03    -25.8246E-03     50.6543E-03    -25.0567E-03     32.1003E-03
            1825     5.26681E-03     33.5409E-03    -11.4520E+06    -96.6994E+06    -6.15329E+06     384.143E+03    -25.6369E-03     50.7542E-03    -25.1174E-03     27.3518E-03    -25.5492E-03     50.3005E-03    -24.9913E-03     27.3379E-03
            1826     4.38911E-03     33.5164E-03    -12.2991E+06    -98.7215E+06    -8.77210E+06    -290.179E+03    -25.4079E-03     50.4620E-03    -25.0541E-03     22.6568E-03    -25.3161E-03     50.0015E-03    -24.9370E-03     22.6389E-03
            1827     3.51151E-03     33.4964E-03    -12.8195E+06    -99.6085E+06    -10.7178E+06    -308.415E+03    -25.2434E-03     50.2440E-03    -25.0006E-03     17.9753E-03    -25.1490E-03     49.7816E-03    -24.8912E-03     17.9608E-03
            1828     2.63376E-03     33.4811E-03    -13.1871E+06    -100.142E+06    -11.7811E+06     268.363E+03    -25.0947E-03     50.0536E-03    -24.9590E-03     13.4243E-03    -24.9991E-03     49.5900E-03    -24.8535E-03     13.4203E-03
            1829     1.75588E-03     33.4700E-03    -13.4827E+06    -100.320E+06    -12.5848E+06     525.295E+03    -24.9745E-03     49.9078E-03    -24.9332E-03     9.01396E-03    -24.8786E-03     49.4443E-03    -24.8311E-03     9.01607E-03
            1830     877.877E-06     33.4634E-03    -13.7634E+06    -100.526E+06    -13.6378E+06     568.300E+03    -24.9341E-03     49.8515E-03    -24.9174E-03     4.89860E-03    -24.8373E-03     49.3890E-03    -24.8199E-03     4.90352E-03
            1831     16.6660E-03     33.5698E-03    -6.65160E+06     147.598E+06     76.7695E+06    -3.77917E+06    -36.5316E-03     62.5236E-03    -25.9919E-03     204.020E-03    -41.1903E-03     67.4598E-03    -25.8125E-03     206.331E-03
            1832     15.7874E-03     33.3258E-03    -256.269E+03     124.390E+06     37.1075E+06     1.88914E+06    -35.4354E-03     61.1409E-03    -25.7055E-03     210.384E-03    -39.1150E-03     65.1536E-03    -25.6999E-03     210.964E-03
            1833     14.9141E-03     33.1687E-03    -2.33938E+06     77.1569E+06    -9.24463E+06     5.09346E+06    -30.2078E-03     55.7105E-03    -25.5028E-03     135.082E-03    -31.2447E-03     57.0399E-03    -25.6575E-03     134.962E-03
            1834     14.0354E-03     33.0672E-03    -4.45892E+06     30.8894E+06    -10.7205E+06     3.40015E+06    -28.4360E-03     53.9619E-03    -25.5259E-03     95.7294E-03    -28.8084E-03     54.4592E-03    -25.6178E-03     95.5767E-03
            1835     13.1597E-03     32.9854E-03    -5.14544E+06    -9.23484E+06    -5.78766E+06     3.14791E+06    -28.1672E-03     53.7171E-03    -25.5500E-03     80.1736E-03    -28.3488E-03     53.8645E-03    -25.5581E-03     80.0474E-03
            1836     12.2828E-03     32.9124E-03    -6.21192E+06    -36.1318E+06    -8.47655E+06     2.19905E+06    -27.8757E-03     53.3760E-03    -25.5004E-03     71.3014E-03    -27.9506E-03     53.3252E-03    -25.4813E-03     71.1977E-03
            1837     11.4068E-03     32.8474E-03    -6.76575E+06    -59.1779E+06    -8.12689E+06     1.87141E+06    -27.5812E-03     53.0337E-03    -25.4525E-03     63.2804E-03    -27.5872E-03     52.8292E-03    -25.3975E-03     63.1995E-03
            1838     10.5301E-03     32.7896E-03    -6.36058E+06    -73.5563E+06    -4.93224E+06     1.83286E+06    -27.2806E-03     52.6810E-03    -25.4004E-03     57.1953E-03    -27.2457E-03     52.3766E-03    -25.3091E-03     57.1350E-03
            1839     9.65347E-03     32.7361E-03    -6.45666E+06    -76.8262E+06    -4.16981E+06     213.900E+03    -26.9833E-03     52.3020E-03    -25.3187E-03     51.8719E-03    -26.9301E-03     51.9653E-03    -25.2188E-03     51.8082E-03
            1840     8.77661E-03     32.6885E-03    -8.44179E+06    -83.1597E+06    -5.22725E+06    -722.944E+03    -26.6449E-03     51.8810E-03    -25.2361E-03     46.7581E-03    -26.5805E-03     51.5066E-03    -25.1295E-03     46.6969E-03
            1841     7.89962E-03     32.6448E-03    -10.0063E+06    -90.6862E+06    -4.27924E+06    -857.726E+03    -26.3503E-03     51.5174E-03    -25.1671E-03     41.6850E-03    -26.2773E-03     51.0993E-03    -25.0425E-03     41.6333E-03
            1842     7.02263E-03     32.6067E-03    -10.0285E+06    -92.3319E+06    -1.86953E+06    -605.485E+03    -26.0413E-03     51.1390E-03    -25.0977E-03     36.7034E-03    -25.9647E-03     50.7044E-03    -24.9586E-03     36.6641E-03
            1843     6.14523E-03     32.5729E-03    -9.84190E+06    -94.3775E+06    -3.15494E+06    -254.588E+03    -25.7294E-03     50.7474E-03    -25.0180E-03     31.8839E-03    -25.6436E-03     50.3008E-03    -24.8827E-03     31.8565E-03
            1844     5.26759E-03     32.5442E-03    -10.0480E+06    -96.7674E+06    -5.49772E+06     217.298E+03    -25.4865E-03     50.4294E-03    -24.9429E-03     27.0734E-03    -25.3926E-03     49.9722E-03    -24.8155E-03     27.0578E-03
            1845     4.39003E-03     32.5197E-03    -11.0579E+06    -98.1611E+06    -8.42297E+06     504.475E+03    -25.2521E-03     50.1254E-03    -24.8732E-03     22.3774E-03    -25.1554E-03     49.6654E-03    -24.7570E-03     22.3700E-03
            1846     3.51215E-03     32.5001E-03    -12.7459E+06    -99.8030E+06    -11.3549E+06     236.183E+03    -25.0378E-03     49.8565E-03    -24.8187E-03     17.8026E-03    -24.9418E-03     49.3939E-03    -24.7123E-03     17.7955E-03
            1847     2.63418E-03     32.4848E-03    -13.5892E+06    -100.312E+06    -12.4701E+06     45.6285E+03    -24.8982E-03     49.6828E-03    -24.7846E-03     13.3231E-03    -24.8034E-03     49.2198E-03    -24.6818E-03     13.3166E-03
            1848     1.75615E-03     32.4740E-03    -13.8066E+06    -100.374E+06    -12.7120E+06     256.218E+03    -24.8160E-03     49.5776E-03    -24.7616E-03     8.94945E-03    -24.7214E-03     49.1146E-03    -24.6596E-03     8.94824E-03
            1849     878.130E-06     32.4672E-03    -13.9768E+06    -99.6760E+06    -13.4203E+06     433.291E+03    -24.7572E-03     49.4985E-03    -24.7413E-03     4.85239E-03    -24.6630E-03     49.0404E-03    -24.6436E-03     4.85563E-03
            1850     16.6679E-03     32.5807E-03    -7.74893E+06     146.198E+06     69.1896E+06    -3.93945E+06    -34.6641E-03     60.5958E-03    -25.9317E-03     210.469E-03    -39.3590E-03     65.5818E-03    -25.7865E-03     212.846E-03
            1851     15.7894E-03     32.3219E-03    -14.0495E+06     113.580E+06     24.3279E+06    -4.22966E+06    -36.3637E-03     62.0573E-03    -25.6936E-03     210.695E-03    -40.0987E-03     66.0751E-03    -25.7163E-03     211.135E-03
            1852     14.9117E-03     32.1719E-03    -9.92498E+06     76.0068E+06    -7.44336E+06     1.38839E+06    -30.6998E-03     56.1984E-03    -25.4986E-03     134.000E-03    -31.7615E-03     57.5162E-03    -25.6316E-03     133.826E-03
            1853     14.0365E-03     32.0667E-03    -6.13196E+06     32.3482E+06    -8.61491E+06     3.45972E+06    -28.8995E-03     54.3751E-03    -25.4756E-03     96.1698E-03    -29.2866E-03     54.8803E-03    -25.5567E-03     96.0144E-03
            1854     13.1604E-03     31.9871E-03    -5.15390E+06    -8.90608E+06    -4.60712E+06     2.81251E+06    -28.3968E-03     53.8640E-03    -25.4672E-03     79.7589E-03    -28.5796E-03     54.0103E-03    -25.4698E-03     79.6275E-03
            1855     12.2844E-03     31.9131E-03    -4.06278E+06    -34.8435E+06    -7.05618E+06     2.72301E+06    -27.9301E-03     53.3277E-03    -25.3975E-03     71.1890E-03    -27.9968E-03     53.2767E-03    -25.3764E-03     71.0932E-03
            1856     11.4078E-03     31.8493E-03    -3.91630E+06    -59.3418E+06    -7.01016E+06     2.58965E+06    -27.6214E-03     52.9594E-03    -25.3380E-03     63.0709E-03    -27.6137E-03     52.7475E-03    -25.2813E-03     63.0000E-03
            1857     10.5315E-03     31.7909E-03    -4.71402E+06    -72.0762E+06    -2.90339E+06     1.84235E+06    -27.3111E-03     52.5883E-03    -25.2772E-03     56.9248E-03    -27.2724E-03     52.2854E-03    -25.1804E-03     56.8653E-03
            1858     9.65484E-03     31.7385E-03    -6.03385E+06    -75.6791E+06    -1.53597E+06     1.53324E+06    -26.9647E-03     52.1526E-03    -25.1879E-03     51.5137E-03    -26.9144E-03     51.8167E-03    -25.0771E-03     51.4679E-03
            1859     8.77809E-03     31.6905E-03    -7.51716E+06    -82.5862E+06    -2.02728E+06     1.18932E+06    -26.6217E-03     51.7168E-03    -25.0951E-03     46.3536E-03    -26.5578E-03     51.3389E-03    -24.9746E-03     46.3176E-03
            1860     7.90115E-03     31.6478E-03    -8.77677E+06    -89.0601E+06    -6.04980E+06    -562.336E+03    -26.2405E-03     51.2297E-03    -24.9891E-03     41.4231E-03    -26.1608E-03     50.8201E-03    -24.8775E-03     41.3762E-03
            1861     7.02368E-03     31.6094E-03    -9.32624E+06    -93.2820E+06    -5.48662E+06    -1.64765E+06    -25.8953E-03     50.8062E-03    -24.9108E-03     36.4537E-03    -25.8082E-03     50.3707E-03    -24.7895E-03     36.4018E-03
            1862     6.14624E-03     31.5764E-03    -9.92864E+06    -95.4218E+06    -4.40075E+06    -498.185E+03    -25.5984E-03     50.4385E-03    -24.8400E-03     31.5844E-03    -25.5096E-03     49.9884E-03    -24.7093E-03     31.5544E-03
            1863     5.26866E-03     31.5474E-03    -11.1899E+06    -97.2217E+06    -6.88502E+06     343.904E+03    -25.3177E-03     50.0782E-03    -24.7604E-03     26.8310E-03    -25.2267E-03     49.6222E-03    -24.6377E-03     26.8175E-03
            1864     4.39080E-03     31.5237E-03    -12.0601E+06    -98.3750E+06    -8.50485E+06     910.088E+03    -25.0647E-03     49.7603E-03    -24.6956E-03     22.1704E-03    -24.9724E-03     49.3006E-03    -24.5780E-03     22.1687E-03
            1865     3.51277E-03     31.5040E-03    -12.4905E+06    -98.9105E+06    -10.0858E+06     921.543E+03    -24.8558E-03     49.5003E-03    -24.6445E-03     17.6300E-03    -24.7616E-03     49.0399E-03    -24.5334E-03     17.6321E-03
            1866     2.63462E-03     31.4890E-03    -13.2760E+06    -100.042E+06    -12.1124E+06     241.083E+03    -24.7220E-03     49.3281E-03    -24.6060E-03     13.1716E-03    -24.6265E-03     48.8654E-03    -24.5023E-03     13.1678E-03
            1867     1.75645E-03     31.4781E-03    -13.7674E+06    -100.468E+06    -13.1924E+06    -68.9330E+03    -24.6434E-03     49.2202E-03    -24.5768E-03     8.84237E-03    -24.5478E-03     48.7573E-03    -24.4771E-03     8.83707E-03
            1868     878.263E-06     31.4715E-03    -13.7545E+06    -99.3579E+06    -13.3951E+06    -110.098E+03    -24.5775E-03     49.1286E-03    -24.5511E-03     4.79072E-03    -24.4827E-03     48.6716E-03    -24.4540E-03     4.78699E-03
            1869     16.6548E-03     31.5658E-03    -4.62335E+06     150.190E+06     75.0597E+06     912.599E+03    -35.1020E-03     61.0890E-03    -25.9870E-03     209.591E-03    -39.7755E-03     66.0617E-03    -25.8227E-03     211.999E-03
            1870     15.7891E-03     31.3238E-03    -10.0564E+06     116.052E+06     22.9245E+06    -1.90993E+06    -36.9467E-03     62.6117E-03    -25.6650E-03     205.488E-03    -40.5537E-03     66.5282E-03    -25.7041E-03     205.906E-03
            1871     14.9143E-03     31.1717E-03    -11.4653E+06     70.1177E+06    -16.8725E+06    -3.86922E+06    -30.8700E-03     56.2805E-03    -25.4106E-03     133.100E-03    -31.9149E-03     57.5826E-03    -25.5800E-03     132.859E-03
            1872     14.0376E-03     31.0681E-03    -8.01172E+06     30.0172E+06    -12.7613E+06    -174.349E+03    -29.1945E-03     54.5837E-03    -25.3891E-03     95.9552E-03    -29.5813E-03     55.0855E-03    -25.4848E-03     95.7507E-03
            1873     13.1619E-03     30.9870E-03    -5.10680E+06    -8.40260E+06    -5.36630E+06     1.98490E+06    -28.4551E-03     53.8285E-03    -25.3734E-03     79.2216E-03    -28.6354E-03     53.9763E-03    -25.3806E-03     79.0800E-03
            1874     12.2855E-03     30.9153E-03    -5.07164E+06    -35.7913E+06    -8.22878E+06     2.54842E+06    -28.0018E-03     53.2949E-03    -25.2930E-03     70.8748E-03    -28.0696E-03     53.2415E-03    -25.2749E-03     70.7770E-03
            1875     11.4093E-03     30.8502E-03    -5.41982E+06    -58.5053E+06    -7.52998E+06     3.31688E+06    -27.6471E-03     52.8694E-03    -25.2223E-03     62.8424E-03    -27.6466E-03     52.6638E-03    -25.1673E-03     62.7817E-03
            1876     10.5329E-03     30.7932E-03    -6.04833E+06    -70.5952E+06    -4.04978E+06     2.61858E+06    -27.3258E-03     52.4706E-03    -25.1448E-03     56.6175E-03    -27.2936E-03     52.1781E-03    -25.0539E-03     56.5688E-03
            1877     9.65620E-03     30.7403E-03    -6.26139E+06    -75.4699E+06    -3.16238E+06     1.78856E+06    -26.9503E-03     51.9912E-03    -25.0409E-03     51.2617E-03    -26.8984E-03     51.6584E-03    -24.9382E-03     51.2201E-03
            1878     8.77940E-03     30.6932E-03    -6.34249E+06    -81.9193E+06    -1.99928E+06     1.80848E+06    -26.5527E-03     51.4964E-03    -24.9437E-03     46.0560E-03    -26.4835E-03     51.1197E-03    -24.8257E-03     46.0290E-03
            1879     7.90216E-03     30.6505E-03    -7.55384E+06    -86.3158E+06    -5.27384E+06     859.266E+03    -26.1615E-03     50.9912E-03    -24.8297E-03     41.0604E-03    -26.0804E-03     50.5921E-03    -24.7199E-03     41.0327E-03
            1880     7.02495E-03     30.6130E-03    -9.82285E+06    -93.3974E+06    -8.28385E+06    -495.245E+03    -25.7962E-03     50.5272E-03    -24.7310E-03     36.1056E-03    -25.7071E-03     50.0956E-03    -24.6227E-03     36.0693E-03
            1881     6.14738E-03     30.5797E-03    -11.4756E+06    -96.9461E+06    -7.10635E+06    -362.214E+03    -25.4599E-03     50.1166E-03    -24.6567E-03     31.2739E-03    -25.3724E-03     49.6648E-03    -24.5350E-03     31.2464E-03
            1882     5.26953E-03     30.5516E-03    -12.0250E+06    -97.5045E+06    -6.93665E+06     443.229E+03    -25.1531E-03     49.7357E-03    -24.5826E-03     26.5179E-03    -25.0656E-03     49.2795E-03    -24.4585E-03     26.5063E-03
            1883     4.39148E-03     30.5276E-03    -12.4174E+06    -98.4562E+06    -8.39424E+06     429.608E+03    -24.9111E-03     49.4231E-03    -24.5121E-03     21.8558E-03    -24.8206E-03     48.9634E-03    -24.3933E-03     21.8483E-03
            1884     3.51342E-03     30.5085E-03    -12.6455E+06    -98.5308E+06    -9.15085E+06     468.566E+03    -24.7195E-03     49.1717E-03    -24.4522E-03     17.3053E-03    -24.6280E-03     48.7120E-03    -24.3367E-03     17.3017E-03
            1885     2.63519E-03     30.4934E-03    -12.8187E+06    -99.3105E+06    -11.0482E+06     475.507E+03    -24.5477E-03     48.9458E-03    -24.3981E-03     12.9189E-03    -24.4525E-03     48.4846E-03    -24.2908E-03     12.9183E-03
            1886     1.75687E-03     30.4827E-03    -13.1207E+06    -100.213E+06    -13.4290E+06    -37.5906E+03    -24.4236E-03     48.7812E-03    -24.3576E-03     8.66301E-03    -24.3247E-03     48.3189E-03    -24.2604E-03     8.65819E-03
            1887     878.402E-06     30.4761E-03    -12.9390E+06    -99.6740E+06    -13.5123E+06    -403.224E+03    -24.3661E-03     48.7009E-03    -24.3348E-03     4.69244E-03    -24.2666E-03     48.2414E-03    -24.2391E-03     4.68496E-03
            1888     16.6739E-03     30.5695E-03    -3.79907E+06     151.014E+06     78.5086E+06     961.358E+03    -35.7493E-03     61.6264E-03    -25.8770E-03     209.215E-03    -40.3576E-03     66.5297E-03    -25.6979E-03     211.582E-03
            1889     15.7906E-03     30.3224E-03    -5.58325E+06     121.360E+06     29.8460E+06     478.931E+03    -35.0567E-03     60.6435E-03    -25.5868E-03     204.494E-03    -38.5680E-03     64.4789E-03    -25.6054E-03     205.017E-03
            1890     14.9140E-03     30.1731E-03    -8.50128E+06     69.8982E+06    -17.3390E+06    -2.62763E+06    -31.1480E-03     56.4913E-03    -25.3433E-03     133.146E-03    -32.1916E-03     57.8032E-03    -25.5191E-03     132.912E-03
            1891     14.0388E-03     30.0677E-03    -9.39847E+06     25.1681E+06    -17.7031E+06    -2.89905E+06    -29.3167E-03     54.6135E-03    -25.2968E-03     95.8742E-03    -29.6945E-03     55.0986E-03    -25.4082E-03     95.6336E-03
            1892     13.1628E-03     29.9888E-03    -8.44257E+06    -10.0463E+06    -8.59556E+06     534.912E+03    -28.4541E-03     53.7324E-03    -25.2783E-03     78.9781E-03    -28.6423E-03     53.8799E-03    -25.2944E-03     78.8185E-03
            1893     12.2868E-03     29.9159E-03    -7.26051E+06    -37.0514E+06    -10.4369E+06     2.60308E+06    -28.0890E-03     53.2793E-03    -25.1903E-03     70.6321E-03    -28.1620E-03     53.2252E-03    -25.1782E-03     70.5352E-03
            1894     11.4105E-03     29.8524E-03    -6.58577E+06    -58.2125E+06    -8.42003E+06     3.09729E+06    -27.6892E-03     52.7983E-03    -25.1091E-03     62.6508E-03    -27.6928E-03     52.5963E-03    -25.0572E-03     62.5880E-03
            1895     10.5340E-03     29.7946E-03    -5.41101E+06    -68.4213E+06    -3.72341E+06     2.14482E+06    -27.3380E-03     52.3582E-03    -25.0202E-03     56.3474E-03    -27.3054E-03     52.0744E-03    -24.9318E-03     56.2935E-03
            1896     9.65754E-03     29.7428E-03    -4.83428E+06    -75.7124E+06    -2.08073E+06     1.49177E+06    -26.9570E-03     51.8669E-03    -24.9099E-03     50.8081E-03    -26.8987E-03     51.5287E-03    -24.8035E-03     50.7634E-03
            1897     8.78053E-03     29.6958E-03    -5.23959E+06    -81.8551E+06    -1.03952E+06     2.00120E+06    -26.5273E-03     51.3261E-03    -24.7988E-03     45.5317E-03    -26.4536E-03     50.9463E-03    -24.6777E-03     45.5079E-03
            1898     7.90357E-03     29.6537E-03    -6.08167E+06    -85.1559E+06    -1.80420E+06     2.34178E+06    -26.1186E-03     50.8001E-03    -24.6814E-03     40.4672E-03    -26.0365E-03     50.3993E-03    -24.5582E-03     40.4591E-03
            1899     7.02609E-03     29.6164E-03    -7.79546E+06    -92.0738E+06    -3.89883E+06     1.90529E+06    -25.7202E-03     50.2925E-03    -24.5723E-03     35.5348E-03    -25.6290E-03     49.8580E-03    -24.4470E-03     35.5300E-03
            1900     6.14838E-03     29.5838E-03    -9.96912E+06    -96.6453E+06    -5.89005E+06     539.992E+03    -25.3618E-03     49.8327E-03    -24.4709E-03     30.7378E-03    -25.2688E-03     49.3783E-03    -24.3458E-03     30.7223E-03
            1901     5.27053E-03     29.5556E-03    -11.2138E+06    -98.0222E+06    -6.23654E+06    -8.12944E+03    -25.0589E-03     49.4390E-03    -24.3800E-03     25.9411E-03    -24.9676E-03     48.9779E-03    -24.2528E-03     25.9238E-03
            1902     4.39255E-03     29.5323E-03    -11.7614E+06    -98.0067E+06    -7.40750E+06     134.890E+03    -24.7698E-03     49.0611E-03    -24.2913E-03     21.3295E-03    -24.6780E-03     48.6011E-03    -24.1692E-03     21.3183E-03
            1903     3.51426E-03     29.5130E-03    -12.4531E+06    -98.7260E+06    -9.61499E+06    -21.4907E+03    -24.5209E-03     48.7327E-03    -24.2118E-03     16.9090E-03    -24.4274E-03     48.2724E-03    -24.0987E-03     16.8993E-03
            1904     2.63590E-03     29.4984E-03    -12.9836E+06    -99.0789E+06    -11.0407E+06     159.427E+03    -24.3314E-03     48.4803E-03    -24.1488E-03     12.6376E-03    -24.2374E-03     48.0204E-03    -24.0415E-03     12.6330E-03
            1905     1.75729E-03     29.4877E-03    -13.2215E+06    -99.7272E+06    -12.8990E+06     199.941E+03    -24.1893E-03     48.2857E-03    -24.0965E-03     8.46166E-03    -24.0924E-03     47.8253E-03    -23.9972E-03     8.46002E-03
            1906     878.712E-06     29.4813E-03    -13.5610E+06    -99.9431E+06    -13.9027E+06     134.184E+03    -24.0930E-03     48.1554E-03    -24.0624E-03     4.57280E-03    -23.9956E-03     47.6960E-03    -23.9673E-03     4.57232E-03
            1907     16.6650E-03     29.5716E-03    -4.15407E+06     150.493E+06     77.8271E+06    -563.492E+03    -36.0286E-03     61.8742E-03    -25.8456E-03     209.678E-03    -40.6334E-03     66.7729E-03    -25.6686E-03     212.040E-03
            1908     15.7906E-03     29.3244E-03    -6.37836E+06     121.460E+06     31.4373E+06     751.561E+03    -35.4799E-03     61.0432E-03    -25.5633E-03     208.172E-03    -39.0216E-03     64.9023E-03    -25.5730E-03     208.691E-03
            1909     14.9156E-03     29.1718E-03    -8.86168E+06     73.4139E+06    -14.2754E+06     193.411E+03    -31.3974E-03     56.7111E-03    -25.3137E-03     133.500E-03    -32.4523E-03     58.0366E-03    -25.4787E-03     133.295E-03
            1910     14.0399E-03     29.0693E-03    -9.62884E+06     23.6270E+06    -18.7593E+06    -1.95111E+06    -29.5170E-03     54.7547E-03    -25.2377E-03     95.5550E-03    -29.8899E-03     55.2317E-03    -25.3518E-03     95.3252E-03
            1911     13.1638E-03     28.9891E-03    -9.76487E+06    -13.7971E+06    -10.4484E+06    -801.172E+03    -28.5566E-03     53.7626E-03    -25.2060E-03     79.0527E-03    -28.7415E-03     53.8942E-03    -25.2241E-03     78.8765E-03
            1912     12.2878E-03     28.9176E-03    -8.51019E+06    -37.9139E+06    -10.7803E+06     1.24223E+06    -28.2335E-03     53.3408E-03    -25.1073E-03     70.4876E-03    -28.3101E-03     53.2838E-03    -25.0939E-03     70.3732E-03
            1913     11.4116E-03     28.8537E-03    -6.14051E+06    -57.7746E+06    -9.46373E+06     1.33602E+06    -27.8473E-03     52.8468E-03    -24.9996E-03     62.3765E-03    -27.8470E-03     52.6471E-03    -24.9542E-03     62.2913E-03
            1914     10.5355E-03     28.7969E-03    -4.80667E+06    -67.4931E+06    -3.15994E+06     1.24384E+06    -27.4309E-03     52.3289E-03    -24.8981E-03     55.9124E-03    -27.3966E-03     52.0472E-03    -24.8090E-03     55.8476E-03
            1915     9.65874E-03     28.7450E-03    -5.27328E+06    -76.2355E+06    -485.822E+03     1.77614E+06    -27.0082E-03     51.7856E-03    -24.7774E-03     50.1908E-03    -26.9530E-03     51.4425E-03    -24.6617E-03     50.1503E-03
            1916     8.78216E-03     28.6988E-03    -5.97054E+06    -81.8249E+06    -1.34019E+06     2.03820E+06    -26.5590E-03     51.1953E-03    -24.6363E-03     44.8771E-03    -26.4881E-03     50.8166E-03    -24.5157E-03     44.8543E-03
            1917     7.90486E-03     28.6569E-03    -6.20822E+06    -85.4064E+06    -1.14661E+06     2.37322E+06    -26.0979E-03     50.6007E-03    -24.5028E-03     39.7828E-03    -26.0167E-03     50.1975E-03    -24.3756E-03     39.7756E-03
            1918     7.02752E-03     28.6202E-03    -6.49822E+06    -91.1463E+06     529.792E+03     2.86495E+06    -25.6815E-03     50.0691E-03    -24.3876E-03     34.7762E-03    -25.5914E-03     49.6308E-03    -24.2433E-03     34.7840E-03
            1919     6.14987E-03     28.5878E-03    -7.92047E+06    -94.6487E+06    -1.42763E+06     2.23638E+06    -25.2853E-03     49.5463E-03    -24.2610E-03     30.0139E-03    -25.1913E-03     49.0923E-03    -24.1194E-03     30.0206E-03
            1920     5.27198E-03     28.5602E-03    -10.1465E+06    -97.2522E+06    -6.35518E+06     626.110E+03    -24.9146E-03     49.0448E-03    -24.1302E-03     25.3752E-03    -24.8187E-03     48.5861E-03    -24.0062E-03     25.3665E-03
            1921     4.39373E-03     28.5370E-03    -11.5390E+06    -98.1465E+06    -8.72349E+06     8.27246E+03    -24.5763E-03     48.5984E-03    -24.0221E-03     20.8818E-03    -24.4813E-03     48.1393E-03    -23.9067E-03     20.8694E-03
            1922     3.51529E-03     28.5183E-03    -12.2497E+06    -98.5911E+06    -10.2392E+06     209.907E+03    -24.2859E-03     48.2194E-03    -23.9334E-03     16.5425E-03    -24.1907E-03     47.7603E-03    -23.8239E-03     16.5361E-03
            1923     2.63654E-03     28.5037E-03    -12.9830E+06    -99.2328E+06    -11.9118E+06     115.075E+03    -24.0758E-03     47.9356E-03    -23.8598E-03     12.3330E-03    -23.9803E-03     47.4762E-03    -23.7566E-03     12.3281E-03
            1924     1.75789E-03     28.4934E-03    -13.4908E+06    -99.5877E+06    -12.9538E+06     313.245E+03    -23.9183E-03     47.7176E-03    -23.7993E-03     8.23514E-03    -23.8228E-03     47.2583E-03    -23.7001E-03     8.23508E-03
            1925     878.954E-06     28.4870E-03    -13.6059E+06    -99.5419E+06    -13.5041E+06     375.152E+03    -23.7924E-03     47.5467E-03    -23.7543E-03     4.45364E-03    -23.6964E-03     47.0888E-03    -23.6577E-03     4.45634E-03
            1926     16.6660E-03     28.5690E-03    -4.68683E+06     149.579E+06     75.6247E+06    -852.340E+03    -35.2763E-03     61.1792E-03    -25.9030E-03     207.446E-03    -39.8544E-03     66.0524E-03    -25.7349E-03     209.803E-03
            1927     15.7909E-03     28.3244E-03    -8.88593E+06     119.115E+06     28.7380E+06    -211.996E+03    -36.7504E-03     62.3501E-03    -25.5998E-03     207.339E-03    -40.3001E-03     66.2079E-03    -25.6159E-03     207.788E-03
            1928     14.9148E-03     28.1714E-03    -8.98002E+06     75.1173E+06    -12.1742E+06     1.20536E+06    -31.8430E-03     57.1579E-03    -25.3148E-03     133.974E-03    -32.9021E-03     58.4870E-03    -25.4716E-03     133.774E-03
            1929     14.0399E-03     28.0693E-03    -9.55921E+06     25.6270E+06    -18.7145E+06     324.446E+03    -29.7918E-03     54.9976E-03    -25.2058E-03     95.0373E-03    -30.1646E-03     55.4817E-03    -25.3227E-03     94.8350E-03
            1930     13.1644E-03     27.9905E-03    -10.5595E+06    -15.6415E+06    -14.4399E+06    -1.02379E+06    -28.8798E-03     54.0178E-03    -25.1381E-03     78.9278E-03    -29.0587E-03     54.1456E-03    -25.1723E-03     78.7479E-03
            1931     12.2885E-03     27.9184E-03    -9.88828E+06    -38.9556E+06    -13.2614E+06    -661.513E+03    -28.5251E-03     53.5456E-03    -25.0205E-03     70.1244E-03    -28.6025E-03     53.4880E-03    -25.0160E-03     69.9849E-03
            1932     11.4129E-03     27.8554E-03    -8.58972E+06    -56.9760E+06    -13.0872E+06    -663.233E+03    -28.0975E-03     52.9750E-03    -24.8775E-03     61.7591E-03    -28.1044E-03     52.7871E-03    -24.8479E-03     61.6480E-03
            1933     10.5366E-03     27.7986E-03    -7.19868E+06    -69.2170E+06    -7.26974E+06     114.803E+03    -27.6015E-03     52.3502E-03    -24.7487E-03     55.2215E-03    -27.5700E-03     52.0685E-03    -24.6743E-03     55.1424E-03
            1934     9.66044E-03     27.7476E-03    -6.47660E+06    -76.8805E+06    -1.64300E+06     1.86908E+06    -27.1013E-03     51.7145E-03    -24.6132E-03     49.3849E-03    -27.0489E-03     51.3710E-03    -24.5006E-03     49.3461E-03
            1935     8.78352E-03     27.7016E-03    -7.07460E+06    -81.3865E+06    -1.47288E+06     2.23580E+06    -26.6009E-03     51.0511E-03    -24.4502E-03     44.0219E-03    -26.5356E-03     50.6760E-03    -24.3293E-03     44.0021E-03
            1936     7.90667E-03     27.6606E-03    -8.19900E+06    -85.7792E+06    -1.82937E+06     2.28592E+06    -26.0994E-03     50.3898E-03    -24.2903E-03     38.9343E-03    -26.0263E-03     49.9883E-03    -24.1632E-03     38.9263E-03
            1937     7.02922E-03     27.6241E-03    -9.17028E+06    -90.8219E+06    -1.90224E+06     2.47715E+06    -25.6052E-03     49.7467E-03    -24.1415E-03     34.0524E-03    -25.5250E-03     49.3171E-03    -24.0060E-03     34.0558E-03
            1938     6.15151E-03     27.5924E-03    -9.44922E+06    -93.2057E+06    -2.11275E+06     2.25968E+06    -25.1350E-03     49.1349E-03    -23.9998E-03     29.3797E-03    -25.0495E-03     48.6911E-03    -23.8616E-03     29.3873E-03
            1939     5.27332E-03     27.5651E-03    -9.80545E+06    -95.5741E+06    -5.99741E+06     1.66372E+06    -24.7106E-03     48.5662E-03    -23.8557E-03     24.8058E-03    -24.6158E-03     48.1147E-03    -23.7329E-03     24.8110E-03
            1940     4.39493E-03     27.5424E-03    -11.0821E+06    -97.9131E+06    -10.0695E+06     862.321E+03    -24.3628E-03     48.0897E-03    -23.7269E-03     20.3619E-03    -24.2638E-03     47.6330E-03    -23.6192E-03     20.3609E-03
            1941     3.51628E-03     27.5240E-03    -12.2240E+06    -98.5141E+06    -11.1309E+06     573.102E+03    -24.0555E-03     47.6797E-03    -23.6242E-03     16.0822E-03    -23.9589E-03     47.2223E-03    -23.5193E-03     16.0807E-03
            1942     2.63754E-03     27.5097E-03    -12.9500E+06    -98.9770E+06    -12.1159E+06     621.503E+03    -23.7774E-03     47.3179E-03    -23.5405E-03     11.9925E-03    -23.6817E-03     46.8600E-03    -23.4388E-03     11.9944E-03
            1943     1.75836E-03     27.4995E-03    -13.5284E+06    -99.4050E+06    -13.3712E+06     387.942E+03    -23.5856E-03     47.0647E-03    -23.4790E-03     8.02137E-03    -23.4900E-03     46.6069E-03    -23.3821E-03     8.02248E-03
            1944     879.265E-06     27.4934E-03    -13.4690E+06    -98.9773E+06    -13.5691E+06     143.801E+03    -23.4764E-03     46.9160E-03    -23.4395E-03     4.32707E-03    -23.3805E-03     46.4608E-03    -23.3443E-03     4.32686E-03
            1945     16.6637E-03     27.5663E-03    -3.85641E+06     150.251E+06     76.0358E+06     394.058E+03    -35.2158E-03     61.1450E-03    -25.9292E-03     208.792E-03    -39.7950E-03     66.0234E-03    -25.7613E-03     211.160E-03
            1946     15.7890E-03     27.3232E-03    -8.72826E+06     118.149E+06     26.4488E+06     354.954E+03    -37.0298E-03     62.6412E-03    -25.6114E-03     206.370E-03    -40.5555E-03     66.4786E-03    -25.6378E-03     206.803E-03
            1947     14.9154E-03     27.1704E-03    -10.5896E+06     74.3589E+06    -12.9189E+06     727.446E+03    -32.3290E-03     57.6393E-03    -25.3103E-03     132.696E-03    -33.3885E-03     58.9626E-03    -25.4673E-03     132.477E-03
            1948     14.0403E-03     27.0693E-03    -10.0340E+06     27.5273E+06    -17.0866E+06     956.769E+03    -30.0910E-03     55.2693E-03    -25.1782E-03     93.7735E-03    -30.4670E-03     55.7569E-03    -25.2890E-03     93.5761E-03
            1949     13.1649E-03     26.9910E-03    -9.64314E+06    -14.8198E+06    -15.1550E+06    -119.097E+03    -29.3351E-03     54.4026E-03    -25.0674E-03     77.8790E-03    -29.5086E-03     54.5331E-03    -25.1077E-03     77.7076E-03
            1950     12.2899E-03     26.9191E-03    -10.2109E+06    -39.0126E+06    -14.4152E+06    -1.09408E+06    -28.8590E-03     53.7744E-03    -24.9154E-03     69.1300E-03    -28.9351E-03     53.7176E-03    -24.9161E-03     68.9839E-03
            1951     11.4142E-03     26.8567E-03    -9.84943E+06    -56.6383E+06    -14.7688E+06    -1.51933E+06    -28.3303E-03     53.0687E-03    -24.7384E-03     60.7012E-03    -28.3406E-03     52.8858E-03    -24.7159E-03     60.5787E-03
            1952     10.5386E-03     26.8006E-03    -9.39760E+06    -71.4960E+06    -10.6162E+06    -877.159E+03    -27.7758E-03     52.3514E-03    -24.5756E-03     54.1823E-03    -27.7464E-03     52.0656E-03    -24.5114E-03     54.0904E-03
            1953     9.66214E-03     26.7501E-03    -9.12746E+06    -78.6957E+06    -4.64742E+06     1.05757E+06    -27.1880E-03     51.6003E-03    -24.4123E-03     48.3897E-03    -27.1412E-03     51.2552E-03    -24.3082E-03     48.3408E-03
            1954     8.78570E-03     26.7047E-03    -9.15540E+06    -81.0659E+06    -2.82446E+06     2.37820E+06    -26.6199E-03     50.8458E-03    -24.2260E-03     43.0497E-03    -26.5629E-03     50.4768E-03    -24.1093E-03     43.0323E-03
            1955     7.90853E-03     26.6642E-03    -9.80479E+06    -85.7352E+06    -3.95302E+06     2.54738E+06    -26.0406E-03     50.0775E-03    -24.0368E-03     38.0018E-03    -25.9721E-03     49.6812E-03    -23.9181E-03     37.9978E-03
            1956     7.03111E-03     26.6286E-03    -10.2061E+06    -89.7184E+06    -5.25901E+06     1.95822E+06    -25.4815E-03     49.3393E-03    -23.8578E-03     33.2296E-03    -25.4029E-03     48.9213E-03    -23.7392E-03     33.2270E-03
            1957     6.15314E-03     26.5973E-03    -10.3561E+06    -92.7284E+06    -4.94370E+06     1.26841E+06    -24.9738E-03     48.6734E-03    -23.6996E-03     28.5743E-03    -24.8892E-03     48.2372E-03    -23.5748E-03     28.5697E-03
            1958     5.27498E-03     26.5707E-03    -10.7503E+06    -95.2840E+06    -5.93966E+06     1.68192E+06    -24.5125E-03     48.0624E-03    -23.5499E-03     24.0257E-03    -24.4228E-03     47.6135E-03    -23.4258E-03     24.0315E-03
            1959     4.39638E-03     26.5483E-03    -11.3461E+06    -96.7978E+06    -9.04590E+06     1.83224E+06    -24.1025E-03     47.5083E-03    -23.4058E-03     19.7031E-03    -24.0078E-03     47.0559E-03    -23.2942E-03     19.7150E-03
            1960     3.51757E-03     26.5302E-03    -12.2883E+06    -98.1037E+06    -11.2878E+06     1.26717E+06    -23.7453E-03     47.0316E-03    -23.2863E-03     15.5608E-03    -23.6493E-03     46.5765E-03    -23.1827E-03     15.5687E-03
            1961     2.63833E-03     26.5163E-03    -13.1932E+06    -98.4828E+06    -11.9758E+06     1.00574E+06    -23.4436E-03     46.6416E-03    -23.1980E-03     11.6191E-03    -23.3500E-03     46.1863E-03    -23.0959E-03     11.6262E-03
            1962     1.75904E-03     26.5064E-03    -13.6582E+06    -98.5889E+06    -13.2841E+06     582.248E+03    -23.2321E-03     46.3673E-03    -23.1351E-03     7.78756E-03    -23.1384E-03     45.9136E-03    -23.0388E-03     7.79138E-03
            1963     879.493E-06     26.5003E-03    -13.8844E+06    -98.6455E+06    -14.0961E+06     122.872E+03    -23.1253E-03     46.2282E-03    -23.1030E-03     4.19459E-03    -23.0311E-03     45.7761E-03    -23.0103E-03     4.19423E-03
            1964     16.6656E-03     26.5678E-03    -4.02622E+06     150.031E+06     77.0486E+06     782.136E+03    -35.6708E-03     61.6066E-03    -25.9359E-03     209.172E-03    -40.2451E-03     66.4758E-03    -25.7623E-03     211.510E-03
            1965     15.7901E-03     26.3203E-03    -7.44850E+06     118.580E+06     27.1024E+06     939.915E+03    -37.3412E-03     62.9353E-03    -25.5941E-03     205.912E-03    -40.8512E-03     66.7612E-03    -25.6197E-03     206.329E-03
            1966     14.9159E-03     26.1696E-03    -8.23761E+06     73.9552E+06    -12.2294E+06     1.13028E+06    -32.7859E-03     58.0519E-03    -25.2660E-03     130.880E-03    -33.8217E-03     59.3565E-03    -25.4225E-03     130.654E-03
            1967     14.0412E-03     26.0691E-03    -8.75035E+06     27.8178E+06    -15.0020E+06     1.32853E+06    -30.5127E-03     55.6187E-03    -25.1061E-03     92.2199E-03    -30.8805E-03     56.0978E-03    -25.2087E-03     92.0231E-03
            1968     13.1667E-03     25.9908E-03    -9.38713E+06    -13.3227E+06    -13.7730E+06     1.04098E+06    -29.6242E-03     54.5825E-03    -24.9583E-03     76.4588E-03    -29.7984E-03     54.7160E-03    -24.9943E-03     76.3007E-03
            1969     12.2916E-03     25.9201E-03    -9.62991E+06    -37.4286E+06    -14.0163E+06    -511.324E+03    -29.0609E-03     53.8326E-03    -24.7717E-03     67.9147E-03    -29.1352E-03     53.7806E-03    -24.7736E-03     67.7758E-03
            1970     11.4163E-03     25.8578E-03    -9.93306E+06    -56.8746E+06    -14.7495E+06    -1.30628E+06    -28.4808E-03     53.0498E-03    -24.5690E-03     59.6128E-03    -28.4900E-03     52.8647E-03    -24.5459E-03     59.4933E-03
            1971     10.5405E-03     25.8026E-03    -10.4285E+06    -72.9523E+06    -11.5681E+06    -561.964E+03    -27.8899E-03     52.2664E-03    -24.3765E-03     53.0540E-03    -27.8612E-03     51.9753E-03    -24.3135E-03     52.9666E-03
            1972     9.66449E-03     25.7527E-03    -10.5957E+06    -80.2974E+06    -7.71814E+06     159.009E+03    -27.2385E-03     51.4139E-03    -24.1754E-03     47.3721E-03    -27.1915E-03     51.0666E-03    -24.0822E-03     47.3124E-03
            1973     8.78776E-03     25.7080E-03    -9.89423E+06    -82.1262E+06    -5.59182E+06     1.39592E+06    -26.6039E-03     50.5661E-03    -23.9621E-03     42.0629E-03    -26.5445E-03     50.1962E-03    -23.8567E-03     42.0337E-03
            1974     7.91079E-03     25.6683E-03    -9.35329E+06    -85.4121E+06    -4.21902E+06     2.34056E+06    -25.9760E-03     49.7321E-03    -23.7560E-03     36.9568E-03    -25.9049E-03     49.3368E-03    -23.6397E-03     36.9509E-03
            1975     7.03318E-03     25.6333E-03    -9.84788E+06    -88.2631E+06    -5.34950E+06     1.90222E+06    -25.3543E-03     48.9057E-03    -23.5514E-03     32.2091E-03    -25.2757E-03     48.4943E-03    -23.4359E-03     32.2063E-03
            1976     6.15529E-03     25.6027E-03    -10.9243E+06    -92.2250E+06    -6.15395E+06     1.25496E+06    -24.7827E-03     48.1501E-03    -23.3674E-03     27.6788E-03    -24.6997E-03     47.7188E-03    -23.2486E-03     27.6745E-03
            1977     5.27682E-03     25.5766E-03    -11.8226E+06    -95.8792E+06    -6.68907E+06     1.33587E+06    -24.2603E-03     47.4629E-03    -23.2026E-03     23.2663E-03    -24.1739E-03     47.0135E-03    -23.0799E-03     23.2682E-03
            1978     4.39805E-03     25.5548E-03    -12.3133E+06    -96.0475E+06    -8.59806E+06     1.71609E+06    -23.7767E-03     46.8255E-03    -23.0488E-03     19.0834E-03    -23.6884E-03     46.3775E-03    -22.9347E-03     19.0943E-03
            1979     3.51877E-03     25.5372E-03    -12.6035E+06    -97.2434E+06    -10.4496E+06     1.61769E+06    -23.3892E-03     46.3124E-03    -22.9232E-03     15.0471E-03    -23.2972E-03     45.8607E-03    -22.8161E-03     15.0598E-03
            1980     2.63938E-03     25.5237E-03    -12.9581E+06    -97.7165E+06    -11.5478E+06     1.14129E+06    -23.0956E-03     45.9205E-03    -22.8250E-03     11.1847E-03    -23.0025E-03     45.4681E-03    -22.7222E-03     11.1938E-03
            1981     1.75966E-03     25.5140E-03    -13.5544E+06    -97.6985E+06    -12.5758E+06     812.474E+03    -22.8693E-03     45.6217E-03    -22.7525E-03     7.48438E-03    -22.7774E-03     45.1714E-03    -22.6540E-03     7.49130E-03
            1982     879.885E-06     25.5081E-03    -14.1979E+06    -97.9678E+06    -14.1258E+06     551.869E+03    -22.7357E-03     45.4425E-03    -22.7068E-03     4.04351E-03    -22.6441E-03     44.9942E-03    -22.6148E-03     4.04879E-03
            1983     16.6645E-03     25.5663E-03    -4.41218E+06     149.488E+06     77.1748E+06     1.11076E+06    -36.5385E-03     62.4471E-03    -25.9086E-03     208.814E-03    -41.0963E-03     67.2960E-03    -25.7330E-03     211.078E-03
            1984     15.7905E-03     25.3187E-03    -8.17739E+06     118.395E+06     28.4710E+06     1.03079E+06    -37.8082E-03     63.3440E-03    -25.5358E-03     205.739E-03    -41.3218E-03     67.1663E-03    -25.5533E-03     206.120E-03
            1985     14.9170E-03     25.1676E-03    -9.38589E+06     73.9238E+06    -12.8109E+06     930.796E+03    -33.1490E-03     58.3165E-03    -25.1674E-03     129.026E-03    -34.1711E-03     59.6048E-03    -25.3251E-03     128.788E-03
            1986     14.0437E-03     25.0685E-03    -8.87620E+06     28.3593E+06    -15.2281E+06     1.67016E+06    -30.8232E-03     55.7973E-03    -24.9741E-03     90.6350E-03    -31.1868E-03     56.2742E-03    -25.0785E-03     90.4404E-03
            1987     13.1687E-03     24.9911E-03    -7.84564E+06    -12.0984E+06    -13.6801E+06     1.02918E+06    -29.7679E-03     54.5651E-03    -24.7973E-03     75.3632E-03    -29.9330E-03     54.6992E-03    -24.8368E-03     75.2052E-03
            1988     12.2939E-03     24.9206E-03    -7.01242E+06    -35.9170E+06    -13.3966E+06     233.260E+03    -29.1969E-03     53.7848E-03    -24.5879E-03     66.8373E-03    -29.2593E-03     53.7336E-03    -24.5926E-03     66.7085E-03
            1989     11.4185E-03     24.8593E-03    -7.31716E+06    -57.0288E+06    -12.3413E+06    -79.3842E+03    -28.5919E-03     52.9630E-03    -24.3711E-03     58.4378E-03    -28.5900E-03     52.7685E-03    -24.3396E-03     58.3346E-03
            1990     10.5430E-03     24.8045E-03    -7.73438E+06    -73.8901E+06    -10.4555E+06     260.461E+03    -27.9547E-03     52.1016E-03    -24.1468E-03     51.8292E-03    -27.9117E-03     51.7992E-03    -24.0808E-03     51.7531E-03
            1991     9.66688E-03     24.7557E-03    -8.55485E+06    -80.4707E+06    -7.00247E+06     644.460E+03    -27.2667E-03     51.1831E-03    -23.9163E-03     46.1483E-03    -27.2095E-03     50.8301E-03    -23.8223E-03     46.0956E-03
            1992     8.79035E-03     24.7117E-03    -9.52007E+06    -83.2126E+06    -6.12037E+06     648.672E+03    -26.5710E-03     50.2438E-03    -23.6728E-03     40.8952E-03    -26.5067E-03     49.8681E-03    -23.5689E-03     40.8571E-03
            1993     7.91324E-03     24.6727E-03    -9.63603E+06    -86.0564E+06    -3.97329E+06     1.53581E+06    -25.8844E-03     49.3278E-03    -23.4434E-03     35.8114E-03    -25.8136E-03     48.9288E-03    -23.3245E-03     35.7957E-03
            1994     7.03573E-03     24.6385E-03     -9.8924E+06    -87.2561E+06    -3.97840E+06     2.13645E+06    -25.1717E-03     48.3884E-03    -23.2167E-03     31.1515E-03    -25.0964E-03     47.9798E-03    -23.0958E-03     31.1524E-03
            1995     6.15743E-03     24.6086E-03    -10.7373E+06    -91.3986E+06    -5.84621E+06     1.68807E+06    -24.5165E-03     47.5250E-03    -23.0086E-03     26.7950E-03    -24.4339E-03     47.0968E-03    -22.8897E-03     26.7971E-03
            1996     5.27882E-03     24.5832E-03    -11.7273E+06    -95.8585E+06    -7.09406E+06     1.31099E+06    -23.9526E-03     46.7805E-03    -22.8279E-03     22.4907E-03    -23.8649E-03     46.3314E-03    -22.7073E-03     22.4929E-03
            1997     4.39965E-03     24.5621E-03    -12.4906E+06    -95.9094E+06    -8.71175E+06     1.33016E+06    -23.4548E-03     46.1173E-03    -22.6625E-03     18.3888E-03    -23.3673E-03     45.6702E-03    -22.5488E-03     18.3952E-03
            1998     3.52023E-03     24.5449E-03    -12.8759E+06    -96.3931E+06    -10.1145E+06     1.22813E+06    -23.0420E-03     45.5653E-03    -22.5233E-03     14.4639E-03    -22.9530E-03     45.1177E-03    -22.4154E-03     14.4719E-03
            1999     2.64043E-03     24.5317E-03    -13.1336E+06    -96.9582E+06    -11.2583E+06     947.121E+03    -22.7109E-03     45.1223E-03    -22.4114E-03     10.7203E-03    -22.6202E-03     44.6734E-03    -22.3081E-03     10.7271E-03
            2000     1.76046E-03     24.5224E-03    -13.5567E+06    -97.1358E+06    -12.0649E+06     894.451E+03    -22.4657E-03     44.7936E-03    -22.3279E-03     7.17241E-03    -22.3753E-03     44.3453E-03    -22.2277E-03     7.18054E-03
            2001     880.281E-06     24.5165E-03    -14.1079E+06    -96.6788E+06    -13.5286E+06     815.748E+03    -22.3125E-03     44.5754E-03    -22.2628E-03     3.88417E-03    -22.2231E-03     44.1325E-03    -22.1698E-03     3.89295E-03
            2002     16.6673E-03     24.5666E-03    -4.90263E+06     148.397E+06     76.1120E+06     980.751E+03    -37.6726E-03     63.4975E-03    -25.8249E-03     205.912E-03    -42.1422E-03     68.2559E-03    -25.6524E-03     208.033E-03
            2003     15.7929E-03     24.3158E-03    -8.18799E+06     119.743E+06     31.3410E+06     1.53198E+06    -37.9664E-03     63.3893E-03    -25.4228E-03     205.188E-03    -41.4814E-03     67.2094E-03    -25.4279E-03     205.555E-03
            2004     14.9199E-03     24.1661E-03    -9.76456E+06     73.5662E+06    -9.74697E+06     1.35123E+06    -33.1774E-03     58.2197E-03    -25.0423E-03     127.771E-03    -34.1878E-03     59.4849E-03    -25.1835E-03     127.537E-03
            2005     14.0453E-03     24.0676E-03    -9.01965E+06     28.7260E+06    -14.2115E+06     402.381E+03    -30.9537E-03     55.7730E-03    -24.8193E-03     89.4282E-03    -31.3144E-03     56.2449E-03    -24.9189E-03     89.2168E-03
            2006     13.1713E-03     23.9913E-03    -6.87016E+06    -10.7598E+06    -13.4842E+06    -400.889E+03    -29.9547E-03     54.5658E-03    -24.6111E-03     74.2683E-03    -30.1140E-03     54.7016E-03    -24.6529E-03     74.0919E-03
            2007     12.2964E-03     23.9214E-03    -5.33276E+06    -36.9178E+06    -13.9174E+06     278.521E+03    -29.3600E-03     53.7327E-03    -24.3727E-03     65.8213E-03    -29.4097E-03     53.6728E-03    -24.3810E-03     65.6936E-03
            2008     11.4215E-03     23.8607E-03    -5.33862E+06    -56.8471E+06    -9.55394E+06     1.56712E+06    -28.6871E-03     52.8292E-03    -24.1421E-03     57.1681E-03    -28.6780E-03     52.6270E-03    -24.0997E-03     57.0869E-03
            2009     10.5458E-03     23.8069E-03    -6.86183E+06    -74.0554E+06    -8.67767E+06     1.62132E+06    -27.9773E-03     51.8648E-03    -23.8875E-03     50.6048E-03    -27.9310E-03     51.5564E-03    -23.8135E-03     50.5475E-03
            2010     9.66984E-03     23.7586E-03    -7.87107E+06    -80.1745E+06    -5.53878E+06     1.50095E+06    -27.2563E-03     50.8838E-03    -23.6275E-03     44.8971E-03    -27.1972E-03     50.5283E-03    -23.5276E-03     44.8565E-03
            2011     8.79324E-03     23.7157E-03    -8.52017E+06    -82.8358E+06    -5.10805E+06     1.12573E+06    -26.4789E-03     49.8333E-03    -23.3544E-03     39.7040E-03    -26.4109E-03     49.4558E-03    -23.2475E-03     39.6731E-03
            2012     7.91610E-03     23.6774E-03    -9.10254E+06    -86.8428E+06    -5.04631E+06     856.273E+03    -25.7010E-03     48.7957E-03    -23.0947E-03     34.7642E-03    -25.6243E-03     48.3930E-03    -22.9808E-03     34.7410E-03
            2013     7.03821E-03     23.6443E-03     -9.0415E+06    -87.6125E+06    -3.20489E+06     1.63015E+06    -24.9480E-03     47.8050E-03    -22.8570E-03     30.1342E-03    -24.8686E-03     47.3918E-03    -22.7329E-03     30.1296E-03
            2014     6.15989E-03     23.6152E-03    -9.60555E+06    -90.5625E+06    -4.29103E+06     2.21226E+06    -24.2472E-03     46.8795E-03    -22.6324E-03     25.8637E-03    -24.1621E-03     46.4513E-03    -22.5086E-03     25.8735E-03
            2015     5.28086E-03     23.5905E-03    -10.9395E+06    -95.1284E+06    -6.66002E+06     1.81129E+06    -23.6543E-03     46.0833E-03    -22.4290E-03     21.6343E-03    -23.5642E-03     45.6360E-03    -22.3085E-03     21.6437E-03
            2016     4.40156E-03     23.5699E-03    -11.9796E+06    -95.4545E+06    -8.54688E+06     1.26301E+06    -23.1334E-03     45.3771E-03    -22.2437E-03     17.6189E-03    -23.0442E-03     44.9313E-03    -22.1307E-03     17.6249E-03
            2017     3.52177E-03     23.5534E-03    -12.6794E+06    -95.7817E+06    -10.0830E+06     958.987E+03    -22.6642E-03     44.7501E-03    -22.0859E-03     13.8313E-03    -22.5751E-03     44.3052E-03    -21.9791E-03     13.8362E-03
            2018     2.64167E-03     23.5406E-03    -13.3331E+06    -96.4756E+06    -11.7702E+06     828.505E+03    -22.2844E-03     44.2443E-03    -21.9599E-03     10.2495E-03    -22.1946E-03     43.7988E-03    -21.8595E-03     10.2551E-03
            2019     1.76124E-03     23.5315E-03    -13.8279E+06    -96.5807E+06    -12.8864E+06     699.263E+03    -22.0139E-03     43.8832E-03    -21.8693E-03     6.86361E-03    -21.9245E-03     43.4393E-03    -21.7737E-03     6.86943E-03
            2020     880.667E-06     23.5260E-03    -13.8188E+06    -95.5366E+06    -13.4851E+06     446.295E+03    -21.8580E-03     43.6626E-03    -21.8046E-03     3.72933E-03    -21.7689E-03     43.2249E-03    -21.7134E-03     3.73345E-03
            2021     16.6699E-03     23.5664E-03    -4.56397E+06     148.597E+06     77.7483E+06     1.07453E+06    -39.0719E-03     64.8326E-03    -25.7607E-03     204.265E-03    -43.5043E-03     69.5509E-03    -25.5808E-03     206.249E-03
            2022     15.7958E-03     23.3140E-03    -7.11853E+06     119.788E+06     31.5721E+06     1.20943E+06    -38.6463E-03     63.9406E-03    -25.2943E-03     206.451E-03    -42.2014E-03     67.8041E-03    -25.2998E-03     206.782E-03
            2023     14.9213E-03     23.1647E-03    -6.65761E+06     73.2258E+06    -12.7499E+06     1.15333E+06    -33.3344E-03     58.2022E-03    -24.8677E-03     126.966E-03    -34.3102E-03     59.4512E-03    -25.0280E-03     126.725E-03
            2024     14.0483E-03     23.0666E-03    -5.56763E+06     29.8616E+06    -15.4033E+06     656.534E+03    -31.1004E-03     55.7311E-03    -24.6307E-03     88.3490E-03    -31.4366E-03     56.1982E-03    -24.7429E-03     88.1410E-03
            2025     13.1738E-03     22.9916E-03    -6.19555E+06    -9.72585E+06    -13.4644E+06    -508.333E+03    -30.1871E-03     54.5933E-03    -24.4061E-03     73.2044E-03    -30.3414E-03     54.7300E-03    -24.4504E-03     73.0264E-03
            2026     12.2995E-03     22.9220E-03    -6.21580E+06    -39.0925E+06    -16.7453E+06    -59.7473E+03    -29.5245E-03     53.6541E-03    -24.1296E-03     64.8624E-03    -29.5690E-03     53.5863E-03    -24.1476E-03     64.7313E-03
            2027     11.4244E-03     22.8623E-03    -6.10696E+06    -59.0358E+06    -10.3116E+06     2.89188E+06    -28.7474E-03     52.6279E-03    -23.8806E-03     56.0753E-03    -28.7359E-03     52.4151E-03    -23.8377E-03     56.0127E-03
            2028     10.5490E-03     22.8094E-03    -7.07704E+06    -71.8200E+06    -6.69277E+06     3.50189E+06    -27.9826E-03     51.5879E-03    -23.6053E-03     49.4985E-03    -27.9420E-03     51.2866E-03    -23.5243E-03     49.4669E-03
            2029     9.67293E-03     22.7620E-03    -7.67233E+06    -79.2354E+06    -6.73473E+06     1.30779E+06    -27.1903E-03     50.4950E-03    -23.3047E-03     43.8358E-03    -27.1287E-03     50.1444E-03    -23.2124E-03     43.7944E-03
            2030     8.79629E-03     22.7201E-03    -7.26585E+06    -82.8903E+06    -5.67956E+06     1.16950E+06    -26.3481E-03     49.3592E-03    -23.0112E-03     38.5674E-03    -26.2720E-03     48.9796E-03    -22.9088E-03     38.5386E-03
            2031     7.91883E-03     22.6830E-03    -7.57994E+06    -86.3287E+06    -5.65564E+06     1.30594E+06    -25.5038E-03     48.2331E-03    -22.7292E-03     33.6699E-03    -25.4187E-03     47.8310E-03    -22.6214E-03     33.6539E-03
            2032     7.04092E-03     22.6506E-03    -8.85797E+06    -88.8867E+06    -4.26361E+06     1.52478E+06    -24.7301E-03     47.2035E-03    -22.4733E-03     29.0595E-03    -24.6460E-03     46.7848E-03    -22.3529E-03     29.0546E-03
            2033     6.16225E-03     22.6225E-03    -9.90232E+06    -90.3922E+06    -4.04130E+06     2.50042E+06    -24.0128E-03     46.2425E-03    -22.2297E-03     24.8080E-03    -23.9296E-03     45.8150E-03    -22.1045E-03     24.8221E-03
            2034     5.28319E-03     22.5985E-03    -10.6970E+06    -93.7021E+06    -6.25268E+06     2.23678E+06    -23.3475E-03     45.3476E-03    -22.0000E-03     20.7010E-03    -23.2587E-03     44.9062E-03    -21.8799E-03     20.7165E-03
            2035     4.40352E-03     22.5786E-03    -11.5199E+06    -94.6411E+06    -8.51929E+06     1.43358E+06    -22.7522E-03     44.5473E-03    -21.7951E-03     16.8281E-03    -22.6618E-03     44.1048E-03    -21.6838E-03     16.8368E-03
            2036     3.52342E-03     22.5627E-03    -12.4285E+06    -95.3659E+06    -10.1921E+06     1.18579E+06    -22.2446E-03     43.8695E-03    -21.6249E-03     13.1940E-03    -22.1546E-03     43.4264E-03    -21.5196E-03     13.2023E-03
            2037     2.64290E-03     22.5504E-03    -13.2898E+06    -95.9313E+06    -12.0504E+06     1.07485E+06    -21.8387E-03     43.3270E-03    -21.4883E-03     9.77255E-03    -21.7490E-03     42.8845E-03    -21.3901E-03     9.78163E-03
            2038     1.76210E-03     22.5417E-03    -13.8438E+06    -95.7888E+06    -13.4559E+06     709.417E+03    -21.5451E-03     42.9345E-03    -21.3894E-03     6.53699E-03    -21.4561E-03     42.4953E-03    -21.2977E-03     6.54315E-03
            2039     881.093E-06     22.5363E-03    -14.2808E+06    -94.7876E+06    -14.2398E+06     349.868E+03    -21.3881E-03     42.6993E-03    -21.3112E-03     3.55231E-03    -21.3013E-03     42.2672E-03    -21.2243E-03     3.55530E-03
            2040     16.6677E-03     22.5625E-03    -4.63926E+06     148.096E+06     77.1996E+06     659.709E+03    -40.0779E-03     65.8282E-03    -25.7503E-03     201.846E-03    -44.4608E-03     70.4966E-03    -25.5724E-03     203.696E-03
            2041     15.7961E-03     22.3106E-03    -6.95989E+06     119.623E+06     31.5606E+06     664.977E+03    -39.9613E-03     65.1763E-03    -25.2150E-03     205.645E-03    -43.5268E-03     69.0503E-03    -25.2206E-03     205.891E-03
            2042     14.9250E-03     22.1631E-03    -8.14304E+06      73.577E+06    -15.5516E+06     197.810E+03    -33.8240E-03     58.5400E-03    -24.7160E-03     126.206E-03    -34.7902E-03     59.7836E-03    -24.8886E-03     125.943E-03
            2043     14.0504E-03     22.0662E-03    -7.74228E+06     30.0544E+06    -19.0689E+06     749.556E+03    -31.4242E-03     55.8641E-03    -24.4399E-03     87.8157E-03    -31.7596E-03     56.3340E-03    -24.5676E-03     87.6086E-03
            2044     13.1768E-03     21.9912E-03    -7.20164E+06    -8.30972E+06    -14.3049E+06     946.039E+03    -30.4394E-03     54.6328E-03    -24.1934E-03     72.3303E-03    -30.5957E-03     54.7756E-03    -24.2424E-03     72.1715E-03
            2045     12.3024E-03     21.9232E-03    -7.99402E+06    -40.5467E+06    -18.6274E+06     733.968E+03    -29.6877E-03     53.5727E-03    -23.8850E-03     63.8821E-03    -29.7336E-03     53.5003E-03    -23.9078E-03     63.7625E-03
            2046     11.4275E-03     21.8640E-03    -7.16599E+06    -62.1733E+06    -14.0207E+06     2.14950E+06    -28.8351E-03     52.4332E-03    -23.5981E-03     55.0867E-03    -28.8170E-03     52.2096E-03    -23.5677E-03     55.0163E-03
            2047     10.5521E-03     21.8122E-03    -4.65664E+06    -69.7494E+06    -6.17771E+06     3.09150E+06    -27.9896E-03     51.2929E-03    -23.3033E-03     48.3795E-03    -27.9391E-03     50.9962E-03    -23.2263E-03     48.3445E-03
            2048     9.67602E-03     21.7658E-03    -4.31803E+06    -77.4112E+06    -4.88734E+06     2.35838E+06    -27.1201E-03     50.1029E-03    -22.9828E-03     42.6448E-03    -27.0459E-03     49.7528E-03    -22.8887E-03     42.6187E-03
            2049     8.79927E-03     21.7250E-03    -6.11075E+06    -83.4874E+06    -5.59835E+06     1.79600E+06    -26.2357E-03     48.8980E-03    -22.6623E-03     37.3230E-03    -26.1523E-03     48.5128E-03    -22.5604E-03     37.3036E-03
            2050     7.92193E-03     21.6889E-03    -7.43118E+06    -85.8598E+06    -4.95256E+06     2.19583E+06    -25.3566E-03     47.7135E-03    -22.3570E-03     32.4255E-03    -25.2718E-03     47.3120E-03    -22.2464E-03     32.4221E-03
            2051     7.04367E-03     21.6575E-03    -8.37066E+06    -89.1477E+06    -4.03222E+06     2.26921E+06    -24.5322E-03     46.6039E-03    -22.0717E-03     27.8781E-03    -24.4451E-03     46.1824E-03    -21.9505E-03     27.8838E-03
            2052     6.16504E-03     21.6303E-03    -9.22334E+06    -90.6643E+06    -3.54313E+06     2.38553E+06    -23.7430E-03     45.5463E-03    -21.8033E-03     23.6883E-03    -23.6564E-03     45.1154E-03    -21.6762E-03     23.7017E-03
            2053     5.28561E-03     21.6073E-03    -10.0446E+06    -92.2802E+06    -5.73784E+06     2.45547E+06    -22.9864E-03     44.5376E-03    -21.5511E-03     19.7528E-03    -22.8969E-03     44.1014E-03    -21.4314E-03     19.7718E-03
            2054     4.40560E-03     21.5882E-03    -11.1942E+06    -93.8402E+06    -8.82800E+06     2.03369E+06    -22.3343E-03     43.6648E-03    -21.3305E-03     16.0505E-03    -22.2428E-03     43.2260E-03    -21.2223E-03     16.0676E-03
            2055     3.52507E-03     21.5729E-03    -12.3566E+06    -94.7309E+06    -10.4011E+06     1.72375E+06    -21.8057E-03     42.9576E-03    -21.1518E-03     12.5500E-03    -21.7159E-03     42.5177E-03    -21.0485E-03     12.5658E-03
            2056     2.64418E-03     21.5612E-03    -13.1683E+06    -95.0840E+06    -11.8798E+06     1.32277E+06    -21.3870E-03     42.3936E-03    -21.0066E-03     9.27100E-03    -21.2982E-03     41.9549E-03    -20.9090E-03     9.28362E-03
            2057     1.76297E-03     21.5528E-03    -13.7266E+06    -94.9361E+06    -13.1957E+06     1.00498E+06    -21.0776E-03     41.9732E-03    -20.8956E-03     6.19096E-03    -20.9896E-03     41.5377E-03    -20.8040E-03     6.20115E-03
            2058     881.544E-06     21.5477E-03    -14.2455E+06    -93.7615E+06    -14.0409E+06     672.961E+03    -20.8973E-03     41.6953E-03    -20.7980E-03     3.36522E-03    -20.8120E-03     41.2679E-03    -20.7116E-03     3.37249E-03
            2059     16.6684E-03     21.5556E-03    -4.25074E+06     147.921E+06     77.0611E+06     434.916E+03    -40.7981E-03     66.5347E-03    -25.7366E-03     199.697E-03    -45.1126E-03     71.1358E-03    -25.5596E-03     201.443E-03
            2060     15.7988E-03     21.3067E-03    -6.96293E+06     119.027E+06     31.0447E+06     714.075E+03    -40.7624E-03     65.9076E-03    -25.1452E-03     203.126E-03    -44.2767E-03     69.7298E-03    -25.1525E-03     203.310E-03
            2061     14.9249E-03     21.1613E-03    -8.78002E+06     73.8378E+06    -12.5610E+06     1.36099E+06    -34.4258E-03     59.0346E-03    -24.6088E-03     124.754E-03    -35.3861E-03     60.2623E-03    -24.7660E-03     124.494E-03
            2062     14.0531E-03     21.0647E-03    -9.88557E+06     30.6374E+06    -18.4218E+06     681.172E+03    -31.8892E-03     56.1667E-03    -24.2775E-03     86.6442E-03    -32.2310E-03     56.6356E-03    -24.3997E-03     86.4332E-03
            2063     13.1794E-03     20.9914E-03    -9.32186E+06    -8.66212E+06    -17.1398E+06     627.282E+03    -30.7158E-03     54.6918E-03    -23.9760E-03     71.3136E-03    -30.8741E-03     54.8360E-03    -24.0356E-03     71.1511E-03
            2064     12.3053E-03     20.9238E-03    -7.87130E+06    -40.6035E+06    -18.1292E+06     1.52377E+06    -29.8926E-03     53.5386E-03    -23.6460E-03     62.6669E-03    -29.9360E-03     53.4625E-03    -23.6664E-03     62.5582E-03
            2065     11.4307E-03     20.8662E-03    -6.75806E+06    -62.4131E+06    -16.2540E+06      670.94E+03    -28.9397E-03     52.2524E-03    -23.3127E-03     53.9485E-03    -28.9138E-03     52.0281E-03    -23.2936E-03     53.8607E-03
            2066     10.5553E-03     20.8151E-03    -5.46544E+06    -70.8410E+06    -8.75894E+06     1.09953E+06    -28.0098E-03     50.9988E-03    -22.9891E-03     47.1964E-03    -27.9564E-03     50.7000E-03    -22.9222E-03     47.1375E-03
            2067     9.67931E-03     20.7701E-03    -4.48526E+06    -77.2350E+06    -3.59989E+06     3.06549E+06    -27.0699E-03     49.7262E-03    -22.6563E-03     41.3177E-03    -26.9974E-03     49.3741E-03    -22.5558E-03     41.3022E-03
            2068     8.80251E-03     20.7302E-03    -4.89932E+06      -82.84E+06    -3.55013E+06     3.55818E+06    -26.1366E-03     48.4451E-03    -22.3085E-03     35.9937E-03    -26.0501E-03     48.0575E-03    -22.1991E-03     35.9985E-03
            2069     7.92491E-03     20.6954E-03    -6.25789E+06    -85.6589E+06    -2.87554E+06     3.08458E+06    -25.2149E-03     47.1899E-03    -21.9750E-03     31.1315E-03    -25.1270E-03     46.7840E-03    -21.8561E-03     31.1408E-03
            2070     7.04682E-03     20.6650E-03    -7.38140E+06    -88.4254E+06    -3.73080E+06     2.86145E+06    -24.2910E-03     45.9448E-03    -21.6538E-03     26.7207E-03    -24.2001E-03     45.5246E-03    -21.5335E-03     26.7352E-03
            2071     6.16772E-03     20.6389E-03    -8.52282E+06    -90.5052E+06    -4.51333E+06     2.71606E+06    -23.4061E-03     44.7670E-03    -21.3609E-03     22.6625E-03    -23.3145E-03     44.3370E-03    -21.2399E-03     22.6812E-03
            2072     5.28799E-03     20.6168E-03    -9.77702E+06    -91.7601E+06    -5.77965E+06     2.90640E+06    -22.6160E-03     43.7144E-03    -21.0984E-03     18.8223E-03    -22.5256E-03     43.2803E-03    -20.9801E-03     18.8481E-03
            2073     4.40763E-03     20.5986E-03    -10.8665E+06    -92.7516E+06    -8.98085E+06     2.87776E+06    -21.9349E-03     42.7964E-03    -20.8615E-03     15.2339E-03    -21.8430E-03     42.3627E-03    -20.7562E-03     15.2626E-03
            2074     3.52677E-03     20.5840E-03    -11.7331E+06    -93.6203E+06    -10.4975E+06     2.26135E+06    -21.3708E-03     42.0403E-03    -20.6696E-03     11.8741E-03    -21.2792E-03     41.6052E-03    -20.5693E-03     11.8973E-03
            2075     2.64547E-03     20.5728E-03    -12.6041E+06    -94.0570E+06    -11.4721E+06     1.79001E+06    -20.9262E-03     41.4422E-03    -20.5160E-03     8.73639E-03    -20.8365E-03     41.0072E-03    -20.4187E-03     8.75537E-03
            2076     1.76386E-03     20.5648E-03    -13.4623E+06    -93.7944E+06    -12.8559E+06     1.30266E+06    -20.5924E-03     40.9880E-03    -20.3956E-03     5.82961E-03    -20.5052E-03     40.5573E-03    -20.3044E-03     5.84384E-03
            2077     882.026E-06     20.5600E-03    -13.8125E+06    -92.3958E+06    -13.7309E+06     818.825E+03    -20.3754E-03     40.6860E-03    -20.3106E-03     3.16951E-03    -20.2904E-03     40.2644E-03    -20.2253E-03     3.17876E-03
            2078     16.6692E-03     20.5470E-03    -4.35036E+06     147.224E+06     76.4466E+06     575.520E+03    -41.3527E-03     67.0533E-03    -25.7006E-03     198.581E-03    -45.6082E-03     71.5943E-03    -25.5255E-03     200.249E-03
            2079     15.7981E-03     20.3030E-03    -8.14380E+06     117.579E+06     30.1117E+06     938.595E+03    -41.3004E-03     66.3690E-03    -25.0686E-03     200.600E-03    -44.7499E-03     70.1198E-03    -25.0767E-03     200.743E-03
            2080     14.9286E-03     20.1576E-03    -8.72976E+06     74.2133E+06    -13.2189E+06     1.46115E+06    -35.0987E-03     59.5785E-03    -24.4797E-03     122.848E-03    -36.0383E-03     60.7889E-03    -24.6408E-03     122.576E-03
            2081     14.0554E-03     20.0641E-03    -7.58640E+06     32.6256E+06    -18.8993E+06     1.35307E+06    -32.3094E-03     56.4068E-03    -24.0974E-03     85.1193E-03    -32.6338E-03     56.8749E-03    -24.2282E-03     84.9160E-03
            2082     13.1822E-03     19.9907E-03    -7.81428E+06    -9.57067E+06    -17.1898E+06     1.01086E+06    -31.0077E-03     54.7735E-03    -23.7657E-03     70.1356E-03    -31.1525E-03     54.9064E-03    -23.8265E-03     69.9788E-03
            2083     12.3085E-03     19.9249E-03    -8.10478E+06    -40.5335E+06    -18.2273E+06     1.33417E+06    -30.0696E-03     53.4723E-03    -23.4027E-03     61.4135E-03    -30.1111E-03     53.3940E-03    -23.4233E-03     61.3038E-03
            2084     11.4338E-03     19.8682E-03    -7.94654E+06    -60.7750E+06    -17.4481E+06     960.528E+03    -29.0442E-03     52.0749E-03    -23.0307E-03     52.7250E-03    -29.0226E-03     51.8599E-03    -23.0183E-03     52.6428E-03
            2085     10.5586E-03     19.8185E-03    -8.46228E+06    -72.6801E+06    -12.4812E+06     869.735E+03    -28.0460E-03     50.7163E-03    -22.6704E-03     45.9654E-03    -27.9978E-03     50.4163E-03    -22.6151E-03     45.9055E-03
            2086     9.68257E-03     19.7745E-03    -8.78224E+06    -78.9487E+06    -7.14280E+06     2.37393E+06    -27.0330E-03     49.3420E-03    -22.3090E-03     40.0153E-03    -26.9731E-03     48.9914E-03    -22.2175E-03     39.9927E-03
            2087     8.80577E-03     19.7361E-03    -7.90140E+06    -81.8508E+06    -6.81188E+06     3.14627E+06    -26.0138E-03     47.9413E-03    -21.9275E-03     34.7298E-03    -25.9381E-03     47.5668E-03    -21.8314E-03     34.7311E-03
            2088     7.92825E-03     19.7022E-03    -6.72951E+06    -85.3822E+06    -5.74479E+06     3.17733E+06    -25.0102E-03     46.5781E-03    -21.5680E-03     29.9255E-03    -24.9201E-03     46.1778E-03    -21.4631E-03     29.9376E-03
            2089     7.04963E-03     19.6733E-03    -7.08998E+06    -88.1736E+06    -5.35498E+06     3.76951E+06    -24.0276E-03     45.2580E-03    -21.2304E-03     25.5243E-03    -23.9327E-03     44.8405E-03    -21.1190E-03     25.5518E-03
            2090     6.17037E-03     19.6482E-03    -8.51721E+06    -89.5801E+06    -6.40055E+06     3.83871E+06    -23.1010E-03     44.0163E-03    -20.9154E-03     21.5037E-03    -23.0076E-03     43.5933E-03    -20.8051E-03     21.5379E-03
            2091     5.29036E-03     19.6272E-03    -9.90452E+06    -91.4439E+06    -6.68134E+06     3.59011E+06    -22.2697E-03     42.9086E-03    -20.6389E-03     17.7463E-03    -22.1789E-03     42.4774E-03    -20.5254E-03     17.7816E-03
            2092     4.40973E-03     19.6098E-03    -10.9337E+06    -91.4290E+06    -8.54759E+06     3.40906E+06    -21.5401E-03     41.9286E-03    -20.3885E-03     14.3023E-03    -21.4510E-03     41.5009E-03    -20.2828E-03     14.3384E-03
            2093     3.52850E-03     19.5960E-03    -11.8406E+06    -92.2342E+06    -10.6685E+06     2.93218E+06    -20.9253E-03     41.1037E-03    -20.1784E-03     11.1261E-03    -20.8359E-03     40.6758E-03    -20.0808E-03     11.1584E-03
            2094     2.64680E-03     19.5853E-03    -12.6131E+06    -92.6647E+06    -11.9774E+06     2.29588E+06    -20.4466E-03     40.4595E-03    -20.0130E-03     8.17476E-03    -20.3582E-03     40.0322E-03    -19.9202E-03     8.20062E-03
            2095     1.76475E-03     19.5779E-03    -13.0907E+06    -92.2536E+06    -12.5430E+06     1.58694E+06    -20.0974E-03     39.9863E-03    -19.8890E-03     5.41929E-03    -20.0110E-03     39.5624E-03    -19.7989E-03     5.43740E-03
            2096     882.403E-06     19.5733E-03    -13.4495E+06    -90.8018E+06    -13.3280E+06     871.763E+03    -19.8599E-03     39.6665E-03    -19.8066E-03     2.90454E-03    -19.7760E-03     39.2518E-03    -19.7221E-03     2.91455E-03
            2097     16.6694E-03     19.5408E-03    -3.96157E+06     146.855E+06     76.3743E+06     694.054E+03    -42.1813E-03     67.8406E-03    -25.6593E-03     196.831E-03    -46.3503E-03     72.2954E-03    -25.4846E-03     198.401E-03
            2098     15.8011E-03     19.2964E-03    -7.68173E+06     116.777E+06     28.6831E+06     1.15762E+06    -41.7759E-03     66.7497E-03    -24.9737E-03     198.032E-03    -45.1418E-03     70.4197E-03    -24.9885E-03     198.132E-03
            2099     14.9290E-03     19.1549E-03    -8.71048E+06     74.2213E+06    -16.9121E+06     1.23672E+06    -35.6016E-03     59.9321E-03    -24.3305E-03     120.811E-03    -36.5099E-03     61.1221E-03    -24.5101E-03     120.526E-03
            2100     14.0579E-03     19.0619E-03    -8.30888E+06     32.7361E+06    -21.4472E+06     1.32779E+06    -32.7414E-03     56.6540E-03    -23.9126E-03     83.4679E-03    -33.0567E-03     57.1182E-03    -24.0552E-03     83.2630E-03
            2101     13.1851E-03     18.9908E-03    -8.09718E+06    -9.78159E+06    -15.8720E+06     2.44007E+06    -31.2771E-03     54.8390E-03    -23.5619E-03     68.7616E-03    -31.4198E-03     54.9642E-03    -23.6153E-03     68.6243E-03
            2102     12.3112E-03     18.9256E-03    -8.60751E+06    -39.7535E+06    -17.2545E+06     2.21184E+06    -30.2383E-03     53.4005E-03    -23.1622E-03     60.0024E-03    -30.2814E-03     53.3220E-03    -23.1783E-03     59.9057E-03
            2103     11.4370E-03     18.8706E-03    -8.71199E+06    -59.8077E+06    -17.3409E+06     1.51653E+06    -29.1715E-03     51.9239E-03    -22.7524E-03     51.2397E-03    -29.1528E-03     51.7123E-03    -22.7397E-03     51.1665E-03
            2104     10.5618E-03     18.8219E-03    -8.47399E+06    -73.5074E+06    -13.5889E+06     1.79820E+06    -28.0998E-03     50.4537E-03    -22.3539E-03     44.4590E-03    -28.0470E-03     50.1493E-03    -22.3029E-03     44.4131E-03
            2105     9.68589E-03     18.7795E-03    -8.32203E+06    -79.6843E+06    -9.58606E+06     2.07760E+06    -26.9988E-03     48.9523E-03    -21.9535E-03     38.4938E-03    -26.9306E-03     48.5995E-03    -21.8738E-03     38.4694E-03
            2106     8.80902E-03     18.7422E-03    -8.10692E+06    -81.5708E+06    -9.54156E+06     2.15891E+06    -25.8825E-03     47.4243E-03    -21.5418E-03     33.2240E-03    -25.8033E-03     47.0544E-03    -21.4594E-03     33.2144E-03
            2107     7.93110E-03     18.7099E-03    -8.41765E+06    -86.0961E+06    -8.80089E+06     3.10194E+06    -24.8075E-03     45.9663E-03    -21.1588E-03     28.4354E-03    -24.7196E-03     45.5685E-03    -21.0658E-03     28.4482E-03
            2108     7.05257E-03     18.6820E-03    -8.67413E+06    -88.3468E+06    -6.94154E+06     4.19290E+06    -23.7935E-03     44.5957E-03    -20.8022E-03     24.0268E-03    -23.7035E-03     44.1814E-03    -20.6962E-03     24.0610E-03
            2109     6.17314E-03     18.6583E-03    -8.89268E+06    -88.6831E+06    -6.39231E+06     4.63714E+06    -22.8157E-03     43.2812E-03    -20.4655E-03     20.0940E-03    -22.7252E-03     42.8629E-03    -20.3560E-03     20.1395E-03
            2110     5.29288E-03     18.6383E-03    -9.80572E+06    -90.3296E+06    -7.11423E+06     4.43033E+06    -21.9165E-03     42.0784E-03    -20.1619E-03     16.5109E-03    -21.8259E-03     41.6530E-03    -20.0523E-03     16.5578E-03
            2111     4.41188E-03     18.6220E-03    -10.9974E+06    -90.2305E+06    -8.73648E+06     3.98794E+06    -21.1272E-03     41.0200E-03    -19.8929E-03     13.2252E-03    -21.0396E-03     40.5985E-03    -19.7898E-03     13.2695E-03
            2112     3.53027E-03     18.6089E-03    -11.8905E+06    -90.6041E+06    -10.8562E+06     3.54414E+06    -20.4651E-03     40.1312E-03    -19.6661E-03     10.2344E-03    -20.3780E-03     39.7117E-03    -19.5718E-03     10.2751E-03
            2113     2.64814E-03     18.5990E-03    -12.4173E+06    -90.6911E+06    -12.3583E+06     2.65185E+06    -19.9496E-03     39.4368E-03    -19.4872E-03     7.50009E-03    -19.8626E-03     39.0195E-03    -19.3995E-03     7.53090E-03
            2114     1.76565E-03     18.5918E-03    -12.6684E+06    -90.4757E+06    -12.2919E+06     1.63895E+06    -19.5789E-03     38.9375E-03    -19.3586E-03     4.94330E-03    -19.4933E-03     38.5214E-03    -19.2705E-03     4.96231E-03
            2115     882.973E-06     18.5877E-03    -12.7335E+06    -89.0566E+06    -12.4867E+06     821.229E+03    -19.3439E-03     38.6035E-03    -19.2596E-03     2.64134E-03    -19.2602E-03     38.1952E-03    -19.1745E-03     2.65080E-03
            2116     16.6712E-03     18.5311E-03    -3.90788E+06     146.440E+06     77.3080E+06     814.011E+03    -43.1731E-03     68.8052E-03    -25.6321E-03     195.286E-03    -47.2641E-03     73.1781E-03    -25.4523E-03     196.749E-03
            2117     15.8014E-03     18.2918E-03    -7.43972E+06     116.683E+06     30.4158E+06     1.58818E+06    -42.5676E-03     67.4605E-03    -24.8929E-03     195.807E-03    -45.8584E-03     71.0510E-03    -24.8992E-03     195.856E-03
            2118     14.9323E-03     18.1502E-03    -8.32620E+06     74.4070E+06    -16.9435E+06     1.71053E+06    -36.1086E-03     60.2980E-03    -24.1895E-03     118.221E-03    -36.9843E-03     61.4577E-03    -24.3700E-03     117.932E-03
            2119     14.0604E-03     18.0605E-03    -8.37952E+06     31.7681E+06    -23.6937E+06     2.21390E+06    -33.0840E-03     56.8054E-03    -23.7214E-03     81.4047E-03    -33.3837E-03     57.2570E-03    -23.8738E-03     81.2113E-03
            2120     13.1877E-03     17.9900E-03    -8.42402E+06    -10.2890E+06    -17.5636E+06     2.93820E+06    -31.5998E-03     54.9346E-03    -23.3347E-03     66.9914E-03    -31.7355E-03     55.0548E-03    -23.3954E-03     66.8612E-03
            2121     12.3147E-03     17.9268E-03    -7.62140E+06    -38.2701E+06    -18.0588E+06     2.96273E+06    -30.4603E-03     53.3565E-03    -22.8962E-03     58.2528E-03    -30.4957E-03     53.2813E-03    -22.9199E-03     58.1676E-03
            2122     11.4403E-03     17.8727E-03    -7.36461E+06    -59.0192E+06    -17.8878E+06     2.29500E+06    -29.3224E-03     51.7732E-03    -22.4508E-03     49.4324E-03    -29.2946E-03     51.5617E-03    -22.4440E-03     49.3713E-03
            2123     10.5654E-03     17.8258E-03    -6.77179E+06    -73.4657E+06    -14.1814E+06     1.67049E+06    -28.1668E-03     50.1829E-03    -22.0161E-03     42.5869E-03    -28.1026E-03     49.8751E-03    -21.9707E-03     42.5414E-03
            2124     9.68935E-03     17.7846E-03    -5.77770E+06    -79.9639E+06    -10.1274E+06     1.97010E+06    -26.9700E-03     48.5511E-03    -21.5810E-03     36.5994E-03    -26.8864E-03     48.1925E-03    -21.5074E-03     36.5756E-03
            2125     8.81243E-03     17.7490E-03    -6.38305E+06    -82.3643E+06    -7.37867E+06     3.35423E+06    -25.7786E-03     46.9310E-03    -21.1524E-03     31.2505E-03    -25.6916E-03     46.5504E-03    -21.0606E-03     31.2580E-03
            2126     7.93466E-03     17.7180E-03    -7.89493E+06    -86.4271E+06    -7.02252E+06     4.18831E+06    -24.6239E-03     45.3613E-03    -20.7374E-03     26.5372E-03    -24.5347E-03     44.9578E-03    -20.6358E-03     26.5654E-03
            2127     7.05581E-03     17.6915E-03    -8.92525E+06    -88.2389E+06    -7.60635E+06     4.30222E+06    -23.5219E-03     43.8627E-03    -20.3409E-03     22.2867E-03    -23.4317E-03     43.4497E-03    -20.2380E-03     22.3237E-03
            2128     6.17609E-03     17.6691E-03    -9.43480E+06    -88.3726E+06    -7.31493E+06     4.70858E+06    -22.4848E-03     42.4626E-03    -19.9778E-03     18.4954E-03    -22.3957E-03     42.0476E-03    -19.8726E-03     18.5429E-03
            2129     5.29552E-03     17.6504E-03    -9.81534E+06    -89.0571E+06    -7.90842E+06     5.01268E+06    -21.5328E-03     41.1820E-03    -19.6492E-03     15.0870E-03    -21.4428E-03     40.7639E-03    -19.5453E-03     15.1423E-03
            2130     4.41422E-03     17.6350E-03    -10.4900E+06    -88.7321E+06    -9.22650E+06     4.67515E+06    -20.6883E-03     40.0479E-03    -19.3596E-03     11.9987E-03    -20.5996E-03     39.6337E-03    -19.2619E-03     12.0524E-03
            2131     3.53221E-03     17.6229E-03    -11.1096E+06    -88.6866E+06    -10.2974E+06     3.89805E+06    -19.9835E-03     39.1022E-03    -19.1187E-03     9.23896E-03    -19.8960E-03     38.6903E-03    -19.0255E-03     9.28466E-03
            2132     2.64968E-03     17.6135E-03    -11.3803E+06    -88.3895E+06    -11.2488E+06     2.89140E+06    -19.4210E-03     38.3481E-03    -18.9271E-03     6.74146E-03    -19.3337E-03     37.9392E-03    -18.8387E-03     6.77569E-03
            2133     1.76669E-03     17.6070E-03    -11.6129E+06    -88.4297E+06    -11.6730E+06     1.80377E+06    -19.0045E-03     37.7976E-03    -18.7932E-03     4.43805E-03    -18.9175E-03     37.3893E-03    -18.7065E-03     4.45941E-03
            2134     883.351E-06     17.6030E-03    -11.9097E+06    -87.2781E+06    -11.9737E+06     820.558E+03    -18.7825E-03     37.4798E-03    -18.6973E-03     2.39183E-03    -18.6980E-03     37.0785E-03    -18.6134E-03     2.40141E-03
            2135     16.6697E-03     17.5230E-03    -4.74641E+06     144.911E+06     76.4689E+06     696.965E+03    -44.2823E-03     69.8817E-03    -25.5994E-03     192.870E-03    -48.2745E-03     74.1498E-03    -25.4203E-03     194.194E-03
            2136     15.8035E-03     17.2826E-03    -7.72336E+06     117.213E+06     33.8824E+06     1.68379E+06    -43.4813E-03     68.2893E-03    -24.8080E-03     192.048E-03    -46.6810E-03     71.7796E-03    -24.7974E-03     192.014E-03
            2137     14.9341E-03     17.1471E-03    -9.48084E+06     74.6547E+06    -14.9772E+06     2.12711E+06    -36.6048E-03     60.6433E-03    -24.0385E-03     114.975E-03    -37.4548E-03     61.7682E-03    -24.2079E-03     114.681E-03
            2138     14.0630E-03     17.0578E-03    -8.97259E+06     31.1335E+06    -25.0816E+06     2.51399E+06    -33.4557E-03     56.9646E-03    -23.5088E-03     79.0356E-03    -33.7432E-03     57.4035E-03    -23.6664E-03     78.8465E-03
            2139     13.1913E-03     16.9897E-03    -7.57277E+06    -10.1873E+06    -18.1931E+06     2.96522E+06    -31.8849E-03     54.9671E-03    -23.0822E-03     64.7501E-03    -32.0090E-03     55.0809E-03    -23.1474E-03     64.6216E-03
            2140     12.3178E-03     16.9276E-03    -7.29245E+06    -38.0059E+06    -18.0749E+06     3.27909E+06    -30.6919E-03     53.2987E-03    -22.6068E-03     56.1871E-03    -30.7217E-03     53.2202E-03    -22.6314E-03     56.1080E-03
            2141     11.4442E-03     16.8752E-03    -6.89773E+06    -57.5795E+06    -17.7703E+06     3.09574E+06    -29.4687E-03     51.5882E-03    -22.1195E-03     47.2986E-03    -29.4377E-03     51.3799E-03    -22.1148E-03     47.2502E-03
            2142     10.5691E-03     16.8297E-03    -7.34050E+06    -72.6922E+06    -14.6007E+06     2.33033E+06    -28.2182E-03     49.8631E-03    -21.6449E-03     40.4069E-03    -28.1551E-03     49.5583E-03    -21.6019E-03     40.3724E-03
            2143     9.69336E-03     16.7903E-03    -8.72409E+06    -81.0436E+06    -12.2927E+06     2.71951E+06    -26.9352E-03     48.1037E-03    -21.1685E-03     34.4166E-03    -26.8599E-03     47.7455E-03    -21.0998E-03     34.4048E-03
            2144     8.81644E-03     16.7561E-03    -8.95556E+06    -83.3687E+06    -9.82614E+06     3.84636E+06    -25.6510E-03     46.3518E-03    -20.7008E-03     29.1459E-03    -25.5706E-03     45.9723E-03    -20.6161E-03     29.1619E-03
            2145     7.93840E-03     16.7268E-03    -8.29264E+06    -86.0911E+06    -8.06283E+06     4.54083E+06    -24.4027E-03     44.6568E-03    -20.2541E-03     24.5145E-03    -24.3137E-03     44.2562E-03    -20.1576E-03     24.5491E-03
            2146     7.05937E-03     16.7018E-03    -8.14496E+06    -87.7681E+06    -8.95207E+06     4.82330E+06    -23.2157E-03     43.0404E-03    -19.8247E-03     20.3870E-03    -23.1198E-03     42.6300E-03    -19.7303E-03     20.4322E-03
            2147     6.17938E-03     16.6807E-03     -8.5476E+06    -88.1555E+06    -8.58338E+06     5.07587E+06    -22.1065E-03     41.5432E-03    -19.4368E-03     16.7076E-03    -22.0111E-03     41.1295E-03    -19.3394E-03     16.7609E-03
            2148     5.29850E-03     16.6632E-03    -9.09109E+06    -88.0357E+06    -8.04916E+06     5.28000E+06    -21.0773E-03     40.1692E-03    -19.0919E-03     13.5195E-03    -20.9847E-03     39.7552E-03    -18.9913E-03     13.5791E-03
            2149     4.41673E-03     16.6490E-03    -9.39342E+06    -86.9469E+06    -8.59808E+06     4.99710E+06    -20.1899E-03     38.9775E-03    -18.7877E-03     10.7171E-03    -20.0990E-03     38.5696E-03    -18.6909E-03     10.7757E-03
            2150     3.53430E-03     16.6378E-03    -9.67158E+06    -86.4393E+06    -9.24776E+06     4.18531E+06    -19.4473E-03     37.9807E-03    -18.5334E-03     8.21063E-03    -19.3573E-03     37.5763E-03    -18.4403E-03     8.26049E-03
            2151     2.65124E-03     16.6292E-03    -10.0628E+06    -86.0882E+06    -9.86806E+06     3.14451E+06    -18.8435E-03     37.1775E-03    -18.3339E-03     5.98229E-03    -18.7549E-03     36.7761E-03    -18.2439E-03     6.02012E-03
            2152     1.76774E-03     16.6233E-03    -10.4324E+06    -86.2076E+06    -10.4822E+06     2.21477E+06    -18.4221E-03     36.6131E-03    -18.1910E-03     3.92173E-03    -18.3341E-03     36.2124E-03    -18.1033E-03     3.94860E-03
            2153     883.951E-06     16.6196E-03    -10.8396E+06    -85.1682E+06    -10.8190E+06     1.21552E+06    -18.1874E-03     36.2642E-03    -18.0767E-03     2.08217E-03    -18.1023E-03     35.8702E-03    -17.9916E-03     2.09695E-03
            2154     16.6725E-03     16.5104E-03    -4.27724E+06     144.539E+06     76.3004E+06     961.568E+03    -45.7429E-03     71.2955E-03    -25.5525E-03     190.778E-03    -49.6373E-03     75.4666E-03    -25.3744E-03     191.963E-03
            2155     15.8060E-03     16.2757E-03    -7.62844E+06     115.684E+06     31.8695E+06     1.92975E+06    -44.3959E-03     69.0710E-03    -24.6751E-03     188.265E-03    -47.4761E-03     72.4426E-03    -24.6725E-03     188.155E-03
            2156     14.9372E-03     16.1420E-03    -8.11194E+06     74.5320E+06    -14.7386E+06     2.39547E+06    -37.2274E-03     61.0760E-03    -23.8486E-03     111.444E-03    -38.0343E-03     62.1615E-03    -24.0186E-03     111.144E-03
            2157     14.0671E-03     16.0557E-03    -7.54298E+06     31.1204E+06    -23.1238E+06     2.92064E+06    -33.8667E-03     57.1421E-03    -23.2754E-03     76.3350E-03    -34.1367E-03     57.5629E-03    -23.4252E-03     76.1514E-03
            2158     13.1947E-03     15.9892E-03    -7.96367E+06    -10.2151E+06    -18.1700E+06     3.33168E+06    -32.1796E-03     54.9766E-03    -22.7969E-03     62.5528E-03    -32.2983E-03     55.0835E-03    -22.8614E-03     62.4313E-03
            2159     12.3223E-03     15.9285E-03    -7.13407E+06    -37.5427E+06    -17.0347E+06     3.23871E+06    -30.9622E-03     53.2421E-03    -22.2799E-03     53.8434E-03    -30.9886E-03     53.1594E-03    -22.3003E-03     53.7660E-03
            2160     11.4483E-03     15.8779E-03    -6.55413E+06    -57.6484E+06    -16.2274E+06     3.79090E+06    -29.6235E-03     51.3728E-03    -21.7493E-03     44.8367E-03    -29.5894E-03     51.1580E-03    -21.7374E-03     44.8000E-03
            2161     10.5737E-03     15.8340E-03    -7.66710E+06    -72.1377E+06    -12.7824E+06     4.95534E+06    -28.2778E-03     49.5091E-03    -21.2312E-03     37.8350E-03    -28.2173E-03     49.2023E-03    -21.1794E-03     37.8371E-03
            2162     9.69775E-03     15.7964E-03    -9.00586E+06    -80.0325E+06    -11.6650E+06     4.04099E+06    -26.8880E-03     47.5926E-03    -20.7046E-03     31.8263E-03    -26.8146E-03     47.2370E-03    -20.6339E-03     31.8342E-03
            2163     8.82073E-03     15.7639E-03    -8.76009E+06    -83.6650E+06    -11.5439E+06     2.94118E+06    -25.4936E-03     45.6797E-03    -20.1861E-03     26.6393E-03    -25.4080E-03     45.2996E-03    -20.1098E-03     26.6459E-03
            2164     7.94263E-03     15.7363E-03    -7.93712E+06    -86.8802E+06    -8.70504E+06     4.03868E+06    -24.1331E-03     43.8426E-03    -19.7095E-03     22.0863E-03    -24.0394E-03     43.4376E-03    -19.6156E-03     22.1163E-03
            2165     7.06339E-03     15.7129E-03    -7.77043E+06    -87.3404E+06    -8.59348E+06     5.19522E+06    -22.8360E-03     42.0892E-03    -19.2532E-03     18.1698E-03    -22.7388E-03     41.6793E-03    -19.1582E-03     18.2213E-03
            2166     6.18308E-03     15.6932E-03    -7.97197E+06    -87.6311E+06    -8.21504E+06     5.52919E+06    -21.6171E-03     40.4599E-03    -18.8428E-03     14.7508E-03    -21.5197E-03     40.0470E-03    -18.7453E-03     14.8112E-03
            2167     5.30169E-03     15.6772E-03    -8.08905E+06    -86.7801E+06    -7.73310E+06     5.44240E+06    -20.5263E-03     39.0082E-03    -18.4819E-03     11.8597E-03    -20.4307E-03     38.5983E-03    -18.3830E-03     11.9223E-03
            2168     4.41945E-03     15.6641E-03    -8.11204E+06    -85.2549E+06    -7.99123E+06     4.98949E+06    -19.5994E-03     37.7688E-03    -18.1694E-03     9.37002E-03    -19.5053E-03     37.3665E-03    -18.0740E-03     9.42908E-03
            2169     3.53649E-03     15.6539E-03    -8.15467E+06    -84.2461E+06    -8.33444E+06     4.44221E+06    -18.8351E-03     36.7463E-03    -17.9112E-03     7.13052E-03    -18.7420E-03     36.3493E-03    -17.8189E-03     7.18414E-03
            2170     2.65289E-03     15.6462E-03    -8.52342E+06    -83.7834E+06    -8.47425E+06     3.68110E+06    -18.2318E-03     35.9421E-03    -17.7103E-03     5.17317E-03    -18.1408E-03     35.5480E-03    -17.6188E-03     5.21820E-03
            2171     1.76885E-03     15.6407E-03    -9.05712E+06    -83.6396E+06    -9.01016E+06     2.61911E+06    -17.8098E-03     35.3702E-03    -17.5603E-03     3.41404E-03    -17.7208E-03     34.9782E-03    -17.4710E-03     3.44631E-03
            2172     884.581E-06     15.6374E-03    -9.27994E+06    -82.5210E+06    -9.18706E+06     1.44160E+06    -17.5576E-03     34.9929E-03    -17.4353E-03     1.81859E-03    -17.4709E-03     34.6076E-03    -17.3481E-03     1.83640E-03
            2173     16.6716E-03     15.4970E-03    -4.91710E+06     143.126E+06     75.2716E+06     696.262E+03    -47.2097E-03     72.7155E-03    -25.5058E-03     189.053E-03    -51.0220E-03     76.8002E-03    -25.3298E-03     190.093E-03
            2174     15.8072E-03     15.2662E-03    -7.22231E+06     114.871E+06     32.0601E+06     1.29756E+06    -45.6414E-03     70.1812E-03    -24.5398E-03     183.162E-03    -48.5899E-03     73.4192E-03    -24.5356E-03     182.962E-03
            2175     14.9407E-03     15.1365E-03    -7.20918E+06     73.8803E+06    -14.3941E+06     2.29993E+06    -37.8330E-03     61.4684E-03    -23.6354E-03     107.506E-03    -38.5931E-03     62.5071E-03    -23.8040E-03     107.196E-03
            2176     14.0702E-03     15.0536E-03    -6.93679E+06     30.4108E+06    -23.9676E+06     3.83917E+06    -34.3423E-03     57.3437E-03    -23.0014E-03     73.5992E-03    -34.5929E-03     57.7473E-03    -23.1553E-03     73.4285E-03
            2177     13.1992E-03     14.9882E-03    -6.15689E+06    -9.54909E+06    -17.5404E+06     4.23118E+06    -32.6748E-03     55.1463E-03    -22.4715E-03     60.1618E-03    -32.7787E-03     55.2454E-03    -22.5364E-03     60.0535E-03
            2178     12.3266E-03     14.9297E-03    -7.20984E+06    -37.1800E+06    -15.8398E+06     4.32130E+06    -31.3219E-03     53.2241E-03    -21.9023E-03     51.1643E-03    -31.3455E-03     53.1362E-03    -21.9171E-03     51.1035E-03
            2179     11.4534E-03     14.8806E-03    -8.41900E+06    -58.2772E+06    -16.3732E+06     4.86428E+06    -29.8612E-03     51.1726E-03    -21.3114E-03     42.0012E-03    -29.8315E-03     50.9537E-03    -21.2965E-03     41.9815E-03
            2180     10.5788E-03     14.8387E-03    -7.50287E+06     -72.171E+06    -12.8182E+06     5.28273E+06    -28.3793E-03     49.1135E-03    -20.7342E-03     34.8682E-03    -28.3151E-03     48.8037E-03    -20.6827E-03     34.8776E-03
            2181     9.70309E-03     14.8029E-03    -6.25379E+06    -77.2053E+06    -8.81355E+06     4.71199E+06    -26.8381E-03     47.0004E-03    -20.1623E-03     28.7906E-03    -26.7573E-03     46.6490E-03    -20.0854E-03     28.8099E-03
            2182     8.82609E-03     14.7724E-03    -6.91205E+06    -83.0936E+06    -9.85447E+06     3.55346E+06    -25.2862E-03     44.8831E-03    -19.5968E-03     23.6665E-03    -25.1934E-03     44.4994E-03    -19.5156E-03     23.6833E-03
            2183     7.94770E-03     14.7466E-03    -7.78397E+06    -88.3311E+06    -9.67249E+06     4.02717E+06    -23.7567E-03     42.8322E-03    -19.0756E-03     19.3310E-03    -23.6578E-03     42.4203E-03    -18.9846E-03     19.3628E-03
            2184     7.06805E-03     14.7249E-03    -7.77383E+06    -87.2770E+06    -8.59128E+06     5.28145E+06    -22.3001E-03     40.8975E-03    -18.5974E-03     15.6874E-03    -22.2025E-03     40.4874E-03    -18.5025E-03     15.7416E-03
            2185     6.18715E-03     14.7070E-03    -7.64754E+06    -86.7517E+06    -7.63051E+06     5.62677E+06    -21.0029E-03     39.1769E-03    -18.1740E-03     12.5813E-03    -20.9057E-03     38.7667E-03    -18.0752E-03     12.6443E-03
            2186     5.30525E-03     14.6924E-03    -7.50099E+06    -85.2968E+06    -7.54189E+06     5.29635E+06    -19.8806E-03     37.6813E-03    -17.8008E-03     9.99503E-03    -19.7843E-03     37.2775E-03    -17.7039E-03     10.0566E-03
            2187     4.42244E-03     14.6805E-03    -7.21683E+06    -83.6607E+06    -7.53492E+06     4.85396E+06    -18.9118E-03     36.3968E-03    -17.4850E-03     7.80617E-03    -18.8161E-03     36.0003E-03    -17.3909E-03     7.86410E-03
            2188     3.53880E-03     14.6712E-03    -6.97340E+06    -82.4491E+06    -7.36955E+06     4.47822E+06    -18.1322E-03     35.3629E-03    -17.2307E-03     5.90487E-03    -18.0371E-03     34.9717E-03    -17.1379E-03     5.95940E-03
            2189     2.65466E-03     14.6642E-03    -6.77164E+06    -81.4682E+06    -6.86365E+06     3.94994E+06    -17.5475E-03     34.5825E-03    -17.0350E-03     4.26889E-03    -17.4534E-03     34.1951E-03    -16.9414E-03     4.31769E-03
            2190     1.77004E-03     14.6594E-03    -6.72439E+06    -80.6419E+06    -6.93719E+06     2.94754E+06    -17.1141E-03     34.0083E-03    -16.8942E-03     2.83147E-03    -17.0208E-03     33.6250E-03    -16.8022E-03     2.86817E-03
            2191     885.019E-06     14.6564E-03    -6.81705E+06    -79.4274E+06    -7.08627E+06     1.59315E+06    -16.8914E-03     33.6774E-03    -16.7861E-03     1.50380E-03    -16.7999E-03     33.3009E-03    -16.6964E-03     1.52368E-03
            2192     16.6727E-03     14.4796E-03    -3.85740E+06     143.084E+06     75.9196E+06     304.031E+03    -48.7702E-03     74.1961E-03    -25.4260E-03     185.411E-03    -52.4485E-03     78.1488E-03    -25.2482E-03     186.279E-03
            2193     15.8117E-03     14.2559E-03    -6.87202E+06     113.522E+06     31.8690E+06     818.250E+03    -46.2086E-03     70.5838E-03    -24.3752E-03     177.314E-03    -49.0048E-03     73.6666E-03    -24.3705E-03     177.047E-03
            2194     14.9439E-03     14.1315E-03    -8.64069E+06     72.4690E+06    -13.5061E+06     2.96763E+06    -38.5983E-03     62.0098E-03    -23.4115E-03     103.399E-03    -39.3221E-03     62.9996E-03    -23.5715E-03     103.087E-03
            2195     14.0749E-03     14.0504E-03    -8.04452E+06     30.7783E+06    -23.8765E+06     3.47150E+06    -35.1107E-03     57.8096E-03    -22.6989E-03     70.4345E-03    -35.3533E-03     58.2023E-03    -22.8513E-03     70.2576E-03
            2196     13.2039E-03     13.9874E-03    -7.28745E+06    -10.7644E+06    -18.9141E+06     4.75123E+06    -33.3348E-03     55.4248E-03    -22.0900E-03     57.2514E-03    -33.4323E-03     55.5132E-03    -22.1584E-03     57.1510E-03
            2197     12.3324E-03     13.9304E-03    -7.62449E+06    -37.1513E+06    -13.7612E+06     6.75651E+06    -31.8070E-03     53.2687E-03    -21.4618E-03     47.9161E-03    -31.8300E-03     53.1729E-03    -21.4657E-03     47.8893E-03
            2198     11.4593E-03     13.8837E-03    -8.46056E+06    -56.6092E+06    -14.5394E+06     6.00070E+06    -30.1651E-03     50.9611E-03    -20.7960E-03     38.6726E-03    -30.1367E-03     50.7440E-03    -20.7743E-03     38.6708E-03
            2199     10.5851E-03     13.8437E-03    -8.38450E+06    -70.9898E+06    -13.9531E+06     4.03024E+06    -28.4931E-03     48.6325E-03    -20.1394E-03     31.5005E-03    -28.4305E-03     48.3288E-03    -20.0941E-03     31.4969E-03
            2200     9.70941E-03     13.8101E-03    -7.10108E+06    -76.6743E+06    -10.3558E+06     3.87383E+06    -26.7278E-03     46.2357E-03    -19.5078E-03     25.4550E-03    -26.6478E-03     45.8884E-03    -19.4381E-03     25.4665E-03
            2201     8.83216E-03     13.7817E-03    -6.56339E+06    -82.6927E+06    -8.23821E+06     5.11791E+06    -24.9792E-03     43.8875E-03    -18.9084E-03     20.4235E-03    -24.8862E-03     43.5017E-03    -18.8201E-03     20.4631E-03
            2202     7.95353E-03     13.7581E-03    -7.75418E+06    -88.0985E+06    -8.32575E+06     5.16649E+06    -23.2746E-03     41.6237E-03    -18.3491E-03     16.2693E-03    -23.1770E-03     41.2101E-03    -18.2518E-03     16.3178E-03
            2203     7.07334E-03     13.7384E-03    -8.29880E+06    -87.2675E+06    -8.67309E+06     4.88193E+06    -21.6822E-03     39.5208E-03    -17.8386E-03     12.8913E-03    -21.5866E-03     39.1111E-03    -17.7434E-03     12.9419E-03
            2204     6.19191E-03     13.7221E-03    -7.55311E+06    -85.8116E+06    -7.29472E+06     5.11709E+06    -20.3017E-03     37.6993E-03    -17.3976E-03     10.0951E-03    -20.2056E-03     37.2929E-03    -17.2987E-03     10.1526E-03
            2205     5.30937E-03     13.7089E-03    -6.84851E+06    -83.7747E+06    -6.61034E+06     4.84062E+06    -19.1245E-03     36.1398E-03    -17.0153E-03     7.82073E-03    -19.0284E-03     35.7411E-03    -16.9169E-03     7.87727E-03
            2206     4.42587E-03     13.6983E-03    -6.32080E+06    -82.2832E+06    -6.44288E+06     4.44505E+06    -18.1228E-03     34.8182E-03    -16.6953E-03     5.96861E-03    -18.0262E-03     34.4256E-03    -16.5991E-03     6.02187E-03
            2207     3.54162E-03     13.6900E-03    -5.72762E+06    -80.7816E+06    -5.99142E+06     4.09875E+06    -17.3148E-03     33.7582E-03    -16.4434E-03     4.47290E-03    -17.2179E-03     33.3715E-03    -16.3479E-03     4.52300E-03
            2208     2.65666E-03     13.6838E-03    -5.10003E+06    -79.2806E+06    -4.97905E+06     3.50672E+06    -16.7267E-03     32.9852E-03    -16.2585E-03     3.22042E-03    -16.6301E-03     32.6035E-03    -16.1610E-03     3.26383E-03
            2209     1.77132E-03     13.6794E-03    -4.56290E+06    -77.8114E+06    -3.91180E+06     2.70425E+06    -16.3387E-03     32.4680E-03    -16.1293E-03     2.10272E-03    -16.2431E-03     32.0913E-03    -16.0294E-03     2.13649E-03
            2210     885.750E-06     13.6768E-03    -4.51036E+06    -76.1878E+06    -4.05362E+06     1.68737E+06    -16.1355E-03     32.1425E-03    -16.0070E-03     1.10988E-03    -16.0415E-03     31.7744E-03    -15.9103E-03     1.13109E-03
            2211     16.6782E-03     13.4648E-03    -3.69241E+06     141.826E+06     75.0601E+06     714.764E+03    -50.0664E-03     75.4104E-03    -25.3440E-03     183.650E-03    -53.6124E-03     79.2293E-03    -25.1690E-03     184.369E-03
            2212     15.8120E-03     13.2453E-03    -7.93797E+06     111.863E+06     32.5671E+06     2.22345E+06    -47.3923E-03     71.6147E-03    -24.2223E-03     172.943E-03    -50.0480E-03     74.5452E-03    -24.2102E-03     172.616E-03
            2213     14.9478E-03     13.1239E-03    -10.1900E+06     72.4126E+06    -9.60753E+06     2.89906E+06    -39.8854E-03     63.0636E-03    -23.1783E-03     98.5775E-03    -40.5777E-03     64.0050E-03    -23.3165E-03     98.2481E-03
            2214     14.0796E-03     13.0477E-03    -10.4626E+06     30.9410E+06    -20.5633E+06     3.69208E+06    -36.1795E-03     58.5434E-03    -22.3639E-03     66.7195E-03    -36.4243E-03     58.9208E-03    -22.4964E-03     66.5428E-03
            2215     13.2100E-03     12.9855E-03    -10.2072E+06    -12.3224E+06    -19.3905E+06     4.62988E+06    -34.1889E-03     55.8333E-03    -21.6443E-03     53.8127E-03    -34.2895E-03     55.9102E-03    -21.7086E-03     53.7117E-03
            2216     12.3389E-03     12.9316E-03    -7.98333E+06    -38.0359E+06    -14.3992E+06     5.80410E+06    -32.4099E-03     53.3301E-03    -20.9203E-03     44.1473E-03    -32.4263E-03     53.2252E-03    -20.9255E-03     44.1111E-03
            2217     11.4664E-03     12.8867E-03    -5.64174E+06    -54.1763E+06    -10.9832E+06     6.37564E+06    -30.4923E-03     50.6755E-03    -20.1832E-03     34.8256E-03    -30.4544E-03     50.4573E-03    -20.1514E-03     34.8321E-03
            2218     10.5925E-03     12.8493E-03    -5.62462E+06    -68.1733E+06    -9.93626E+06     4.85524E+06    -28.5301E-03     47.9866E-03    -19.4566E-03     27.5832E-03    -28.4608E-03     47.6844E-03    -19.3993E-03     27.5937E-03
            2219     9.71671E-03     12.8181E-03    -7.16667E+06    -77.5807E+06    -9.13541E+06     4.15351E+06    -26.5145E-03     45.2752E-03    -18.7607E-03     21.7057E-03    -26.4334E-03     44.9199E-03    -18.6835E-03     21.7238E-03
            2220     8.83936E-03     12.7922E-03    -8.01858E+06    -83.4001E+06    -6.40980E+06     5.38848E+06    -24.5623E-03     42.6797E-03    -18.1174E-03     16.8820E-03    -24.4772E-03     42.2887E-03    -18.0169E-03     16.9275E-03
            2221     7.96023E-03     12.7708E-03    -7.79237E+06    -86.4076E+06    -4.13156E+06     5.74103E+06    -22.7168E-03     40.2415E-03    -17.5247E-03     12.9493E-03    -22.6272E-03     39.8296E-03    -17.4088E-03     13.0071E-03
            2222     7.07966E-03     12.7532E-03    -7.88706E+06    -86.1666E+06    -6.10001E+06     4.71995E+06    -21.0136E-03     37.9873E-03    -16.9737E-03     9.91942E-03    -20.9208E-03     37.5784E-03    -16.8678E-03     9.96930E-03
            2223     6.19759E-03     12.7388E-03    -7.66458E+06    -84.9764E+06    -6.74520E+06     3.97392E+06    -19.5135E-03     36.0135E-03    -16.5000E-03     7.54555E-03    -19.4197E-03     35.6104E-03    -16.3994E-03     7.58932E-03
            2224     5.31432E-03     12.7271E-03    -6.70875E+06    -82.7336E+06    -5.81929E+06     3.94681E+06    -18.2431E-03     34.3483E-03    -16.1052E-03     5.64532E-03    -18.1487E-03     33.9532E-03    -16.0046E-03     5.69104E-03
            2225     4.43005E-03     12.7178E-03    -5.94677E+06    -80.9298E+06    -5.08529E+06     3.72922E+06    -17.1985E-03     32.9821E-03    -15.7835E-03     4.19800E-03    -17.1039E-03     32.5937E-03    -15.6830E-03     4.24251E-03
            2226     3.54490E-03     12.7105E-03    -5.18031E+06    -79.1685E+06    -4.27462E+06     3.11448E+06    -16.3859E-03     31.9195E-03    -15.5336E-03     3.12557E-03    -16.2910E-03     31.5375E-03    -15.4326E-03     3.16332E-03
            2227     2.65916E-03     12.7050E-03    -4.17356E+06    -77.3369E+06    -3.15655E+06     2.39916E+06    -15.8029E-03     31.1532E-03    -15.3503E-03     2.23860E-03    -15.7072E-03     30.7772E-03    -15.2479E-03     2.26795E-03
            2228     1.77299E-03     12.7011E-03    -3.25381E+06    -75.6817E+06    -2.28052E+06     1.60837E+06    -15.4265E-03     30.6471E-03    -15.2206E-03     1.46186E-03    -15.3298E-03     30.2767E-03    -15.1176E-03     1.48164E-03
            2229     886.630E-06     12.6987E-03    -2.55841E+06    -73.7305E+06    -1.88819E+06     877.068E+03    -15.2244E-03     30.3261E-03    -15.1018E-03     767.883E-06    -15.1274E-03     29.9644E-03    -15.0006E-03     778.695E-06
            2230     16.6717E-03     12.4449E-03    -4.54878E+06     139.825E+06     74.0166E+06     670.230E+03    -52.0351E-03     77.3006E-03    -25.2655E-03     179.354E-03    -55.4301E-03     80.9614E-03    -25.0916E-03     179.875E-03
            2231     15.8165E-03     12.2312E-03    -7.99890E+06     110.716E+06     33.7349E+06     2.10972E+06    -49.0787E-03     73.0996E-03    -24.0209E-03     164.200E-03    -51.5468E-03     75.8350E-03    -24.0011E-03     163.759E-03
            2232     14.9522E-03     12.1167E-03    -9.21443E+06     72.0635E+06    -7.40668E+06     4.34295E+06    -41.0182E-03     63.8777E-03    -22.8595E-03     92.2669E-03    -41.6579E-03     64.7624E-03    -22.9877E-03     91.9444E-03
            2233     14.0856E-03     12.0428E-03    -10.1807E+06     31.4021E+06    -18.5196E+06     4.35109E+06    -37.4119E-03     59.3490E-03    -21.9371E-03     61.8930E-03    -37.6441E-03     59.7105E-03    -22.0604E-03     61.7207E-03
            2234     13.2171E-03     11.9840E-03    -9.20486E+06    -11.8371E+06    -18.2845E+06     3.72132E+06    -35.1357E-03     56.2379E-03    -21.1022E-03     49.4461E-03    -35.2245E-03     56.3053E-03    -21.1631E-03     49.3341E-03
            2235     12.3469E-03     11.9321E-03    -7.99363E+06    -39.1967E+06    -15.5584E+06     4.04754E+06    -33.0027E-03     53.2730E-03    -20.2703E-03     39.7926E-03    -33.0096E-03     53.1578E-03    -20.2797E-03     39.7371E-03
            2236     11.4751E-03     11.8903E-03    -6.66626E+06    -53.5816E+06    -10.0530E+06     4.86376E+06    -30.7121E-03     50.1678E-03    -19.4557E-03     30.5383E-03    -30.6776E-03     49.9488E-03    -19.4186E-03     30.5291E-03
            2237     10.6011E-03     11.8555E-03    -5.89806E+06    -67.0931E+06    -6.31304E+06     6.06649E+06    -28.3986E-03     47.0690E-03    -18.6704E-03     23.4344E-03    -28.3349E-03     46.7647E-03    -18.5961E-03     23.4642E-03
            2238     9.72527E-03     11.8272E-03    -7.08484E+06    -76.6843E+06    -4.19369E+06     6.23705E+06    -26.1430E-03     44.0687E-03    -17.9257E-03     17.8158E-03    -26.0684E-03     43.7090E-03    -17.8252E-03     17.8638E-03
            2239     8.84740E-03     11.8039E-03    -8.10887E+06    -82.9795E+06    -4.34190E+06     4.97659E+06    -23.9924E-03     41.2185E-03    -17.2261E-03     13.4017E-03    -23.9103E-03     40.8257E-03    -17.1157E-03     13.4442E-03
            2240     7.96791E-03     11.7850E-03    -7.88577E+06    -85.7228E+06    -3.06095E+06     4.80783E+06    -21.9993E-03     38.5957E-03    -16.5964E-03     9.92082E-03    -21.9121E-03     38.1852E-03    -16.4760E-03     9.96823E-03
            2241     7.08661E-03     11.7696E-03    -7.68825E+06    -84.1822E+06    -3.79029E+06     4.62516E+06    -20.1979E-03     36.2240E-03    -16.0261E-03     7.35237E-03    -20.1100E-03     35.8209E-03    -15.9118E-03     7.40215E-03
            2242     6.20385E-03     11.7572E-03    -7.92176E+06    -83.5739E+06    -5.68147E+06     3.39298E+06    -18.6039E-03     34.1362E-03    -15.5324E-03     5.47164E-03    -18.5148E-03     33.7388E-03    -15.4281E-03     5.50866E-03
            2243     5.31975E-03     11.7471E-03    -7.73153E+06    -82.1177E+06    -5.59042E+06     2.64872E+06    -17.2615E-03     32.3913E-03    -15.1298E-03     4.03863E-03    -17.1734E-03     32.0004E-03    -15.0274E-03     4.06810E-03
            2244     4.43451E-03     11.7392E-03    -6.78831E+06    -79.7439E+06    -3.98817E+06     2.40005E+06    -16.2078E-03     31.0190E-03    -14.8111E-03     2.95196E-03    -16.1206E-03     30.6361E-03    -14.7056E-03     2.97959E-03
            2245     3.54848E-03     11.7329E-03    -5.90164E+06    -77.6492E+06    -3.26653E+06     1.74073E+06    -15.4164E-03     29.9744E-03    -14.5580E-03     2.17195E-03    -15.3287E-03     29.5996E-03    -14.4532E-03     2.19209E-03
            2246     2.66187E-03     11.7281E-03    -5.19917E+06    -75.9564E+06    -3.61812E+06     952.315E+03    -14.8313E-03     29.1935E-03    -14.3622E-03     1.55693E-03    -14.7420E-03     28.8266E-03    -14.2627E-03     1.56766E-03
            2247     1.77483E-03     11.7247E-03    -4.45293E+06    -74.4117E+06    -4.10259E+06     353.807E+03    -14.4195E-03     28.6464E-03    -14.2269E-03     1.03262E-03    -14.3279E-03     28.2867E-03    -14.1331E-03     1.03622E-03
            2248     887.387E-06     11.7226E-03    -3.76526E+06    -72.8530E+06    -3.74804E+06    -69.6462E+03    -14.2250E-03     28.3521E-03    -14.1271E-03     534.084E-06    -14.1326E-03     27.9991E-03    -14.0347E-03     532.680E-06
            2249     16.6825E-03     11.4215E-03    -3.17930E+06     139.016E+06     76.4782E+06     1.26321E+06    -54.7479E-03     79.8768E-03    -25.1289E-03     174.667E-03    -57.9624E-03     83.3521E-03    -24.9434E-03     174.971E-03
            2250     15.8220E-03     11.2189E-03    -7.20488E+06     109.176E+06     35.2928E+06     3.34369E+06    -50.4982E-03     74.2365E-03    -23.7384E-03     156.806E-03    -52.7575E-03     76.7562E-03    -23.7098E-03     156.308E-03
            2251     14.9588E-03     11.1074E-03    -9.70377E+06     71.3726E+06    -5.89838E+06     4.50926E+06    -42.6238E-03     65.0760E-03    -22.4522E-03     86.7105E-03    -43.2248E-03     65.9135E-03    -22.5711E-03     86.3764E-03
            2252     14.0935E-03     11.0376E-03    -8.81836E+06     32.9858E+06    -15.7374E+06     4.98422E+06    -38.6262E-03     60.0323E-03    -21.4062E-03     56.5403E-03    -38.8413E-03     60.3793E-03    -21.5199E-03     56.3749E-03
            2253     13.2259E-03     10.9816E-03    -9.77700E+06    -10.4447E+06    -18.9596E+06     4.40520E+06    -35.9411E-03     56.3871E-03    -20.4460E-03     44.7539E-03    -36.0244E-03     56.4540E-03    -20.5115E-03     44.6535E-03
            2254     12.3565E-03     10.9330E-03    -9.99481E+06    -38.8097E+06    -18.2191E+06     3.42576E+06    -33.4128E-03     52.9241E-03    -19.5113E-03     35.1953E-03    -33.4203E-03     52.8115E-03    -19.5316E-03     35.1363E-03
            2255     11.4846E-03     10.8942E-03    -9.92953E+06    -55.0924E+06    -11.2825E+06     4.51841E+06    -30.6592E-03     49.2905E-03    -18.6313E-03     26.1969E-03    -30.6331E-03     49.0666E-03    -18.5935E-03     26.1882E-03
            2256     10.6107E-03     10.8629E-03    -10.2902E+06    -67.0279E+06    -6.89605E+06     5.70071E+06    -28.0026E-03     45.7958E-03    -17.7932E-03     19.5352E-03    -27.9578E-03     45.4967E-03    -17.7156E-03     19.5646E-03
            2257     9.73439E-03     10.8375E-03    -8.45670E+06    -74.9102E+06    -3.90376E+06     5.12266E+06    -25.4931E-03     42.5023E-03    -17.0093E-03     14.4560E-03    -25.4270E-03     42.1517E-03    -16.9079E-03     14.4928E-03
            2258     8.85615E-03     10.8172E-03    -7.03423E+06    -81.8148E+06    -3.22561E+06     4.84650E+06    -23.1578E-03     39.4493E-03    -16.2915E-03     10.5773E-03    -23.0729E-03     39.0584E-03    -16.1788E-03     10.6204E-03
            2259     7.97564E-03     10.8009E-03    -7.80801E+06    -85.1165E+06    -3.07418E+06     4.51701E+06    -21.0489E-03     36.7015E-03    -15.6526E-03     7.72676E-03    -20.9619E-03     36.2935E-03    -15.5332E-03     7.77195E-03
            2260     7.09354E-03     10.7878E-03    -8.36713E+06    -82.8187E+06    -2.40086E+06     3.99349E+06    -19.1990E-03     34.2913E-03    -15.0923E-03     5.63716E-03    -19.1183E-03     33.8939E-03    -14.9721E-03     5.67967E-03
            2261     6.20983E-03     10.7775E-03    -8.53172E+06    -81.5024E+06    -3.23112E+06     3.15275E+06    -17.5950E-03     32.2058E-03    -14.6107E-03     4.18223E-03    -17.5155E-03     31.8159E-03    -14.4963E-03     4.21659E-03
            2262     5.32477E-03     10.7691E-03    -8.76903E+06    -80.8637E+06    -4.42828E+06     1.66094E+06    -16.2840E-03     30.4964E-03    -14.2123E-03     3.15930E-03    -16.2046E-03     30.1116E-03    -14.1045E-03     3.17623E-03
            2263     4.43872E-03     10.7625E-03    -8.62491E+06    -79.0058E+06    -4.10331E+06     715.994E+03    -15.2733E-03     29.1672E-03    -13.8939E-03     2.37335E-03    -15.1962E-03     28.7909E-03    -13.7874E-03     2.37931E-03
            2264     3.55191E-03     10.7572E-03    -8.24388E+06    -76.6797E+06    -4.51645E+06     348.761E+03    -14.4981E-03     28.1331E-03    -13.6350E-03     1.77849E-03    -14.4218E-03     27.7684E-03    -13.5345E-03     1.78064E-03
            2265     2.66446E-03     10.7532E-03    -8.11768E+06    -75.2260E+06    -6.35238E+06    -51.5657E+03    -13.9061E-03     27.3366E-03    -13.4305E-03     1.29593E-03    -13.8285E-03     26.9815E-03    -13.3414E-03     1.29364E-03
            2266     1.77652E-03     10.7503E-03    -8.13130E+06    -74.0785E+06    -7.48415E+06    -323.629E+03    -13.4967E-03     26.7848E-03    -13.2881E-03     878.408E-06    -13.4191E-03     26.4371E-03    -13.2063E-03     873.206E-06
            2267     888.390E-06     10.7485E-03    -8.10560E+06    -73.1202E+06    -7.99650E+06    -255.288E+03    -13.2876E-03     26.4603E-03    -13.1727E-03     474.829E-06    -13.2104E-03     26.1185E-03    -13.0949E-03     471.001E-06
            2268     16.6791E-03     10.3973E-03    -5.48417E+06     135.463E+06     75.8829E+06     1.03325E+06    -57.6506E-03     82.6053E-03    -24.9548E-03     169.024E-03    -60.6770E-03     85.8738E-03    -24.7638E-03     169.074E-03
            2269     15.8248E-03     10.2027E-03    -8.15991E+06     107.772E+06     38.5493E+06     3.29572E+06    -52.6699E-03     76.0757E-03    -23.4058E-03     147.903E-03    -54.7548E-03     78.4031E-03    -23.3575E-03     147.310E-03
            2270     14.9662E-03     10.0959E-03    -8.98595E+06     71.2000E+06    -4.54714E+06     4.87692E+06    -44.3831E-03     66.3307E-03    -21.9476E-03     78.9389E-03    -44.9372E-03     67.1194E-03    -22.0605E-03     78.5912E-03
            2271     14.1026E-03     10.0323E-03     -11.244E+06     32.7679E+06    -17.9470E+06     6.46941E+06    -39.5331E-03     60.2942E-03    -20.7610E-03     50.7389E-03    -39.7386E-03     60.6285E-03    -20.8820E-03     50.5965E-03
            2272     13.2358E-03     9.97886E-03    -11.2150E+06    -6.56535E+06    -19.6497E+06     5.29449E+06    -36.4679E-03     56.1710E-03    -19.7031E-03     40.1083E-03    -36.5539E-03     56.2512E-03    -19.7756E-03     40.0244E-03
            2273     12.3667E-03     9.93445E-03    -10.9082E+06    -38.5305E+06    -20.0183E+06     3.75477E+06    -33.4704E-03     52.1588E-03    -18.6884E-03     30.5715E-03    -33.4743E-03     52.0455E-03    -18.7168E-03     30.5230E-03
            2274     11.4951E-03     9.89929E-03    -10.8462E+06    -56.6946E+06    -13.4643E+06     4.80987E+06    -30.2296E-03     47.9867E-03    -17.7571E-03     22.1863E-03    -30.1992E-03     47.7559E-03    -17.7265E-03     22.1870E-03
            2275     10.6204E-03     9.87168E-03    -9.69203E+06    -64.9542E+06    -8.20100E+06     4.36357E+06    -27.2141E-03     44.1062E-03    -16.8921E-03     16.2814E-03    -27.1656E-03     43.8167E-03    -16.8249E-03     16.2980E-03
            2276     9.74348E-03     9.84954E-03    -9.34871E+06    -74.1243E+06    -5.17553E+06     3.25719E+06    -24.4657E-03     40.5784E-03    -16.1127E-03     11.9093E-03    -24.4025E-03     40.2340E-03    -16.0175E-03     11.9254E-03
            2277     8.86394E-03     9.83239E-03    -9.59593E+06    -82.3255E+06    -2.82375E+06     4.26365E+06    -22.0043E-03     37.4308E-03    -15.4265E-03     8.69665E-03    -21.9316E-03     37.0401E-03    -15.3073E-03     8.73428E-03
            2278     7.98261E-03     9.81874E-03    -9.56452E+06    -83.2639E+06    -980.025E+03     4.41844E+06    -19.8706E-03     34.6936E-03    -14.8230E-03     6.48499E-03    -19.7980E-03     34.2943E-03    -14.6933E-03     6.53012E-03
            2279     7.09941E-03     9.80804E-03    -9.82626E+06    -81.5411E+06    -874.469E+03     3.04030E+06    -18.0638E-03     32.3628E-03    -14.2989E-03     4.92797E-03    -17.9945E-03     31.9716E-03    -14.1708E-03     4.95883E-03
            2280     6.21474E-03     9.79966E-03    -9.81449E+06    -79.8664E+06    -796.053E+03     2.04550E+06    -16.5832E-03     30.4421E-03    -13.8589E-03     3.86596E-03    -16.5160E-03     30.0588E-03    -13.7328E-03     3.88629E-03
            2281     5.32891E-03     9.79290E-03    -9.96179E+06    -79.0717E+06    -2.45543E+06     966.940E+03    -15.3936E-03     28.8813E-03    -13.4877E-03     3.15422E-03    -15.3256E-03     28.5043E-03    -13.3708E-03     3.16225E-03
            2282     4.44209E-03     9.78745E-03    -10.5801E+06    -78.2413E+06    -5.45062E+06    -243.517E+03    -14.4590E-03     27.6367E-03    -13.1777E-03     2.59481E-03    -14.3909E-03     27.2690E-03    -13.0762E-03     2.58838E-03
            2283     3.55452E-03     9.78313E-03    -11.0278E+06    -76.5761E+06    -7.52233E+06    -721.024E+03    -13.7360E-03     26.6663E-03    -12.9303E-03     2.08409E-03    -13.6694E-03     26.3105E-03    -12.8409E-03     2.07238E-03
            2284     2.66639E-03     9.77988E-03    -11.2145E+06    -75.1801E+06    -8.97433E+06    -655.068E+03    -13.1979E-03     25.9364E-03    -12.7385E-03     1.59188E-03    -13.1320E-03     25.5898E-03    -12.6581E-03     1.58174E-03
            2285     1.77785E-03     9.77751E-03    -11.4329E+06    -74.3917E+06    -10.4352E+06    -549.995E+03    -12.8188E-03     25.4120E-03    -12.5932E-03     1.10721E-03    -12.7530E-03     25.0718E-03    -12.5210E-03     1.09903E-03
            2286     888.989E-06     9.77599E-03    -11.6472E+06    -73.7154E+06    -11.2851E+06    -346.655E+03    -12.5889E-03     25.0582E-03    -12.4693E-03     598.697E-06    -12.5237E-03     24.7233E-03    -12.4019E-03     593.658E-06
            2287     16.6881E-03     9.37235E-03    -5.54666E+06     134.934E+06     72.2076E+06     859.190E+03    -62.0495E-03     86.7608E-03    -24.7113E-03     159.457E-03    -64.8257E-03     89.7880E-03    -24.5379E-03     159.198E-03
            2288     15.8356E-03     9.18292E-03    -8.43803E+06     105.126E+06     31.8497E+06     2.42647E+06    -55.1387E-03     78.0602E-03    -22.9215E-03     137.701E-03    -57.0166E-03     80.1901E-03    -22.9024E-03     136.981E-03
            2289     14.9766E-03     9.08527E-03    -10.3642E+06     68.1258E+06    -4.78872E+06     6.93419E+06    -45.3749E-03     66.7229E-03    -21.3479E-03     70.8624E-03    -45.8706E-03     67.4384E-03    -21.4556E-03     70.5436E-03
            2290     14.1128E-03     9.02605E-03    -10.8955E+06     34.7163E+06    -13.7606E+06     7.61954E+06    -40.0413E-03     60.1194E-03    -20.0781E-03     45.5231E-03    -40.2373E-03     60.4403E-03    -20.1815E-03     45.4030E-03
            2291     13.2465E-03     8.97695E-03    -11.4301E+06    -3.27971E+06    -17.8010E+06     5.78908E+06    -36.6166E-03     55.5496E-03    -18.9329E-03     35.6428E-03    -36.7024E-03     55.6352E-03    -19.0006E-03     35.5727E-03
            2292     12.3774E-03     8.93635E-03    -12.0990E+06    -37.2895E+06    -18.3279E+06     4.84125E+06    -32.9705E-03     50.8453E-03    -17.8749E-03     26.2642E-03    -32.9791E-03     50.7322E-03    -17.8949E-03     26.2378E-03
            2293     11.5049E-03     8.90620E-03    -11.2724E+06    -56.2062E+06    -13.0646E+06     3.34183E+06    -29.2739E-03     46.2011E-03    -16.9271E-03     18.8557E-03    -29.2443E-03     45.9700E-03    -16.8946E-03     18.8439E-03
            2294     10.6294E-03     8.88202E-03    -10.1555E+06    -63.8527E+06    -6.89884E+06     3.14375E+06    -25.9431E-03     42.0311E-03    -16.0880E-03     13.8967E-03    -25.8990E-03     41.7445E-03    -16.0152E-03     13.9022E-03
            2295     9.75107E-03     8.86382E-03    -10.7524E+06    -73.7925E+06    -1.48689E+06     3.83441E+06    -23.0306E-03     38.4022E-03    -15.3717E-03     10.3182E-03    -22.9796E-03     38.0555E-03    -15.2565E-03     10.3447E-03
            2296     8.87054E-03     8.84950E-03    -11.8937E+06    -82.3565E+06    -415.563E+03     3.38966E+06    -20.5693E-03     35.3169E-03    -14.7475E-03     7.96254E-03    -20.5114E-03     34.9256E-03    -14.6129E-03     7.99076E-03
            2297     7.98781E-03     8.83861E-03    -11.8751E+06    -81.7342E+06     1.30377E+06     2.72329E+06    -18.5176E-03     32.7357E-03    -14.2181E-03     6.43638E-03    -18.4620E-03     32.3441E-03    -14.0759E-03     6.46074E-03
            2298     7.10343E-03     8.83003E-03    -11.3804E+06    -79.4901E+06     1.98636E+06     1.51354E+06    -16.8793E-03     30.6549E-03    -13.7755E-03     5.40740E-03    -16.8249E-03     30.2721E-03    -13.6338E-03     5.41915E-03
            2299     6.21781E-03     8.82335E-03    -11.2827E+06    -79.0127E+06     369.092E+03     241.449E+03    -15.6231E-03     29.0273E-03    -13.4041E-03     4.72125E-03    -15.5662E-03     28.6488E-03    -13.2714E-03     4.71860E-03
            2300     5.33116E-03     8.81800E-03    -11.3810E+06    -78.1370E+06    -2.10183E+06    -130.144E+03    -14.6473E-03     27.7403E-03    -13.0930E-03     4.20057E-03    -14.5884E-03     27.3697E-03    -12.9737E-03     4.19458E-03
            2301     4.44374E-03     8.81369E-03    -11.8795E+06    -77.4058E+06    -6.12248E+06    -613.829E+03    -13.8776E-03     26.7078E-03    -12.8302E-03     3.67599E-03    -13.8162E-03     26.3472E-03    -12.7314E-03     3.66486E-03
            2302     3.55570E-03     8.81024E-03    -12.6288E+06    -76.7102E+06    -9.26958E+06    -1.19177E+06    -13.2873E-03     25.9079E-03    -12.6206E-03     3.07533E-03    -13.2260E-03     25.5563E-03    -12.5374E-03     3.05760E-03
            2303     2.66717E-03     8.80761E-03    -13.1025E+06    -75.7619E+06    -10.8336E+06    -1.21995E+06    -12.8513E-03     25.3099E-03    -12.4586E-03     2.40648E-03    -12.7913E-03     24.9659E-03    -12.3839E-03     2.38909E-03
            2304     1.77836E-03     8.80569E-03    -13.2834E+06    -75.0584E+06    -12.1225E+06    -883.126E+03    -12.5228E-03     24.8579E-03    -12.3351E-03     1.67273E-03    -12.4629E-03     24.5195E-03    -12.2676E-03     1.66027E-03
            2305     889.286E-06     8.80460E-03    -13.3450E+06    -74.5976E+06    -13.0760E+06    -547.561E+03    -12.3183E-03     24.5608E-03    -12.2425E-03     924.754E-06    -12.2578E-03     24.2266E-03    -12.1803E-03     917.134E-06
            2306     16.6897E-03     8.33914E-03    -4.10404E+06     133.524E+06     73.9335E+06     2.51594E+06    -66.2495E-03     90.7369E-03    -24.4874E-03     151.671E-03    -68.7807E-03     93.5145E-03    -24.3054E-03     151.162E-03
            2307     15.8418E-03     8.16169E-03    -9.37597E+06     101.624E+06     33.2437E+06     5.68031E+06    -57.6225E-03     80.1117E-03    -22.4891E-03     128.508E-03    -59.2971E-03     82.0191E-03    -22.4567E-03     127.740E-03
            2308     14.9855E-03     8.07383E-03    -13.1697E+06     66.3374E+06    -1.49021E+06     6.75501E+06    -46.3717E-03     67.1558E-03    -20.7841E-03     64.4099E-03    -46.8239E-03     67.8020E-03    -20.8686E-03     64.1013E-03
            2309     14.1229E-03     8.02050E-03    -12.7841E+06     36.6216E+06    -10.1304E+06     7.29054E+06    -40.5856E-03     60.0038E-03    -19.4182E-03     41.6442E-03    -40.7851E-03     60.3179E-03    -19.5034E-03     41.5281E-03
            2310     13.2568E-03     7.97488E-03    -13.2857E+06    -1.18649E+06    -13.7835E+06     7.31510E+06    -36.3289E-03     54.5469E-03    -18.2179E-03     31.6365E-03    -36.4245E-03     54.6315E-03    -18.2658E-03     31.5964E-03
            2311     12.3870E-03     7.94063E-03    -13.8911E+06    -33.6340E+06    -12.7380E+06     5.07982E+06    -31.8247E-03     48.9859E-03    -17.1612E-03     22.7958E-03    -31.8510E-03     48.8809E-03    -17.1560E-03     22.7822E-03
            2312     11.5134E-03     7.91439E-03    -14.0748E+06    -53.7700E+06    -9.18011E+06     2.22420E+06    -27.7032E-03     43.9565E-03    -16.2533E-03     16.6796E-03    -27.6945E-03     43.7339E-03    -16.2008E-03     16.6604E-03
            2313     10.6364E-03     7.89507E-03    -13.7510E+06    -64.9243E+06    -4.55981E+06     1.68765E+06    -24.1967E-03     39.6883E-03    -15.4916E-03     12.8361E-03    -24.1716E-03     39.3973E-03    -15.4003E-03     12.8275E-03
            2314     9.75655E-03     7.87993E-03    -12.6043E+06    -73.9226E+06     2.26974E+06     2.70159E+06    -21.2581E-03     36.1399E-03    -14.8818E-03     10.2493E-03    -21.2213E-03     35.7894E-03    -14.7450E-03     10.2642E-03
            2315     8.87421E-03     7.86896E-03    -12.0674E+06    -80.5724E+06     3.81625E+06     2.38054E+06    -18.9312E-03     33.3053E-03    -14.3741E-03     8.73258E-03    -18.8828E-03     32.9171E-03    -14.2207E-03     8.74971E-03
            2316     7.99012E-03     7.86016E-03    -12.0978E+06    -80.0762E+06     2.93359E+06     376.021E+03    -17.1481E-03     31.1036E-03    -13.9555E-03     7.82553E-03    -17.0984E-03     30.7182E-03    -13.8072E-03     7.82078E-03
            2317     7.10466E-03     7.85357E-03    -11.6672E+06    -78.3048E+06     2.94554E+06    -859.903E+03    -15.8136E-03     29.4426E-03    -13.6290E-03     7.13946E-03    -15.7639E-03     29.0649E-03    -13.4838E-03     7.12129E-03
            2318     6.21808E-03     7.84816E-03    -11.7036E+06    -78.4992E+06     367.244E+03    -1.23735E+06    -14.8635E-03     28.2263E-03    -13.3628E-03     6.59851E-03    -14.8095E-03     27.8511E-03    -13.2301E-03     6.57725E-03
            2319     5.33087E-03     7.84392E-03    -12.2454E+06    -78.2318E+06    -2.71196E+06    -1.52616E+06    -14.1876E-03     27.3319E-03    -13.1443E-03     6.00039E-03    -14.1320E-03     26.9630E-03    -13.0266E-03     5.97670E-03
            2320     4.44312E-03     7.84039E-03    -12.4922E+06    -77.2725E+06    -5.69424E+06    -1.46838E+06    -13.6769E-03     26.6383E-03    -12.9614E-03     5.28230E-03    -13.6194E-03     26.2787E-03    -12.8597E-03     5.26037E-03
            2321     3.55497E-03     7.83766E-03    -12.7390E+06    -76.8146E+06    -8.53092E+06    -1.56122E+06    -13.2723E-03     26.0831E-03    -12.8108E-03     4.41988E-03    -13.2124E-03     25.7301E-03    -12.7236E-03     4.39756E-03
            2322     2.66654E-03     7.83544E-03    -13.1245E+06    -76.4965E+06    -10.7743E+06    -1.71319E+06    -12.9451E-03     25.6402E-03    -12.6951E-03     3.47030E-03    -12.8843E-03     25.2925E-03    -12.6191E-03     3.44669E-03
            2323     1.77782E-03     7.83399E-03    -13.3039E+06    -76.2172E+06    -12.2604E+06    -1.43383E+06    -12.7174E-03     25.3346E-03    -12.6171E-03     2.42199E-03    -12.6557E-03     24.9906E-03    -12.5486E-03     2.40254E-03
            2324     888.892E-06     7.83308E-03    -13.2594E+06    -75.9594E+06    -12.8700E+06    -742.452E+03    -12.6087E-03     25.1721E-03    -12.5634E-03     1.35724E-03    -12.5461E-03     24.8307E-03    -12.4984E-03     1.34717E-03
            2325     16.6933E-03     7.29972E-03    -4.91003E+06     129.054E+06     78.5338E+06     3.32315E+06    -70.1366E-03     94.4832E-03    -24.3466E-03     143.075E-03    -72.4547E-03     97.0158E-03    -24.1339E-03     142.324E-03
            2326     15.8491E-03     7.13778E-03    -9.43710E+06     98.2403E+06     44.8834E+06     6.57124E+06    -59.7619E-03     81.9373E-03    -22.1754E-03     114.028E-03    -61.2170E-03     83.5800E-03    -22.0797E-03     113.204E-03
            2327     14.9929E-03     7.06240E-03    -10.6744E+06     67.2534E+06     7.12463E+06     7.96523E+06    -47.2194E-03     67.5305E-03    -20.3111E-03     56.5069E-03    -47.6156E-03     68.1080E-03    -20.3575E-03     56.2314E-03
            2328     14.1312E-03     7.01337E-03    -13.3023E+06     36.5915E+06    -8.03141E+06     8.39172E+06    -40.7518E-03     59.6000E-03    -18.8482E-03     37.2598E-03    -40.9430E-03     59.8980E-03    -18.9222E-03     37.1697E-03
            2329     13.2654E-03     6.97498E-03    -14.8956E+06     1.42786E+06    -9.17777E+06     7.96814E+06    -35.2750E-03     52.9220E-03    -17.6470E-03     27.9117E-03    -35.3809E-03     53.0072E-03    -17.6733E-03     27.8941E-03
            2330     12.3942E-03     6.94616E-03    -15.6791E+06    -28.5631E+06    -6.70762E+06     5.19264E+06    -29.9518E-03     46.6059E-03    -16.6541E-03     20.6816E-03    -29.9993E-03     46.5162E-03    -16.6235E-03     20.6809E-03
            2331     11.5188E-03     6.92568E-03    -16.0562E+06    -50.4009E+06    -4.12289E+06     1.44479E+06    -25.5590E-03     41.4149E-03    -15.8559E-03     16.2349E-03    -25.5709E-03     41.2031E-03    -15.7801E-03     16.2132E-03
            2332     10.6397E-03     6.90995E-03    -15.3609E+06    -65.0421E+06    -1.80419E+06    -647.738E+03    -22.0845E-03     37.3132E-03    -15.2287E-03     13.6696E-03    -22.0706E-03     37.0192E-03    -15.1211E-03     13.6359E-03
            2333     9.75802E-03     6.89869E-03     -14.172E+06    -75.0091E+06     4.00198E+06    -486.011E+03    -19.3745E-03     34.1456E-03    -14.7711E-03     11.9902E-03    -19.3462E-03     33.7892E-03    -14.6218E-03     11.9672E-03
            2334     8.87410E-03     6.88997E-03    -12.5591E+06    -78.7332E+06     7.16596E+06    -564.252E+03    -17.3876E-03     31.8117E-03    -14.4242E-03     11.0992E-03    -17.3491E-03     31.4285E-03    -14.2560E-03     11.0804E-03
            2335     7.98872E-03     6.88320E-03    -11.1854E+06    -78.1631E+06     4.49728E+06    -2.01600E+06    -16.0590E-03     30.2030E-03    -14.1440E-03     10.4320E-03    -16.0097E-03     29.8235E-03    -13.9919E-03     10.3977E-03
            2336     7.10227E-03     6.87782E-03    -11.1325E+06    -78.5524E+06     1.77642E+06    -2.76314E+06    -15.1695E-03     29.1082E-03    -13.9387E-03     9.66471E-03    -15.1150E-03     28.7302E-03    -13.7998E-03     9.62282E-03
            2337     6.21531E-03     6.87343E-03    -11.4077E+06    -78.5714E+06    -29.7360E+03    -2.66341E+06    -14.5821E-03     28.3696E-03    -13.7875E-03     8.90040E-03    -14.5260E-03     27.9941E-03    -13.6572E-03     8.86135E-03
            2338     5.32790E-03     6.86971E-03    -11.5553E+06    -78.4362E+06    -2.26206E+06    -2.83996E+06    -14.2090E-03     27.8742E-03    -13.6653E-03     7.95008E-03    -14.1503E-03     27.5026E-03    -13.5461E-03     7.90989E-03
            2339     4.44029E-03     6.86674E-03    -11.6308E+06    -77.9539E+06    -4.56015E+06    -2.98760E+06    -13.9378E-03     27.4995E-03    -13.5617E-03     6.86205E-03    -13.8766E-03     27.1335E-03    -13.4546E-03     6.82086E-03
            2340     3.55252E-03     6.86429E-03    -11.3841E+06    -77.5036E+06    -6.62676E+06    -2.67882E+06    -13.7067E-03     27.1829E-03    -13.4762E-03     5.64779E-03    -13.6419E-03     26.8217E-03    -13.3805E-03     5.61132E-03
            2341     2.66449E-03     6.86259E-03    -11.3038E+06    -77.4724E+06    -8.74243E+06    -2.26487E+06    -13.5202E-03     26.9328E-03    -13.4126E-03     4.36682E-03    -13.4518E-03     26.5746E-03    -13.3276E-03     4.33629E-03
            2342     1.77632E-03     6.86122E-03    -11.4648E+06    -77.7742E+06    -10.5504E+06    -1.82151E+06    -13.4119E-03     26.7846E-03    -13.3727E-03     3.01180E-03    -13.3412E-03     26.4276E-03    -13.2960E-03     2.98748E-03
            2343     888.218E-06     6.86044E-03    -11.6251E+06    -77.9211E+06    -11.3246E+06    -1.06804E+06    -13.3699E-03     26.7146E-03    -13.3447E-03     1.66892E-03    -13.2985E-03     26.3587E-03    -13.2715E-03     1.65472E-03
            2344     16.6955E-03     6.25151E-03    -3.46641E+06     126.126E+06     80.6764E+06     3.64831E+06    -74.1631E-03     98.3736E-03    -24.2106E-03     132.890E-03    -76.2529E-03     100.667E-03    -23.9850E-03     131.926E-03
            2345     15.8548E-03     6.11369E-03    -7.74225E+06     95.6641E+06     51.4759E+06     6.23013E+06    -61.2837E-03     83.1532E-03    -21.8696E-03     96.8832E-03    -62.4724E-03     84.5082E-03    -21.7397E-03     96.0458E-03
            2346     15.0003E-03     6.04971E-03    -10.4655E+06     65.2409E+06     14.5931E+06     9.38156E+06    -47.0520E-03     66.9787E-03    -19.9267E-03     48.6007E-03    -47.3993E-03     67.4795E-03    -19.9332E-03     48.3811E-03
            2347     14.1383E-03     6.00744E-03    -12.8191E+06     37.5621E+06    -3.38791E+06     11.7237E+06    -39.3636E-03     57.8246E-03    -18.4610E-03     33.3954E-03    -39.5455E-03     58.1049E-03    -18.5138E-03     33.3735E-03
            2348     13.2704E-03     5.97665E-03    -16.4828E+06     5.88125E+06    -5.11923E+06     9.43897E+06    -32.9831E-03     50.3303E-03    -17.3473E-03     25.7296E-03    -33.1015E-03     50.4266E-03    -17.3575E-03     25.7508E-03
            2349     12.3970E-03     5.95482E-03    -18.0429E+06    -22.5718E+06    -659.012E+03     4.36806E+06    -27.3816E-03     43.8929E-03    -16.5114E-03     20.8107E-03    -27.4554E-03     43.8249E-03    -16.4558E-03     20.8117E-03
            2350     11.5191E-03     5.93903E-03    -17.4937E+06    -46.0212E+06     1.87934E+06    -608.645E+03    -23.1098E-03     39.0014E-03    -15.8916E-03     18.0094E-03    -23.1428E-03     38.8037E-03    -15.7901E-03     17.9689E-03
            2351     10.6380E-03     5.92754E-03    -16.5267E+06    -64.1426E+06     2.83596E+06    -3.52386E+06    -20.0103E-03     35.4598E-03    -15.4495E-03     16.4404E-03    -20.0097E-03     35.1647E-03    -15.3183E-03     16.3744E-03
            2352     9.75431E-03     5.91875E-03    -14.9544E+06    -75.7616E+06     5.96033E+06    -4.32111E+06    -17.8627E-03     33.0220E-03    -15.1593E-03     15.2040E-03    -17.8397E-03     32.6599E-03    -14.9980E-03     15.1345E-03
            2353     8.86917E-03     5.91230E-03    -13.1798E+06    -78.0872E+06     7.08137E+06    -4.73615E+06    -16.4713E-03     31.4285E-03    -14.9572E-03     14.3836E-03    -16.4365E-03     31.0492E-03    -14.7894E-03     14.3129E-03
            2354     7.98301E-03     5.90641E-03    -12.1423E+06    -78.1706E+06     4.41287E+06    -4.60270E+06    -15.6719E-03     30.4801E-03    -14.8083E-03     13.4162E-03    -15.6272E-03     30.1020E-03    -14.6552E-03     13.3498E-03
            2355     7.09659E-03     5.90192E-03    -11.6588E+06    -78.9710E+06     1.54428E+06    -4.40907E+06    -15.2394E-03     29.9424E-03    -14.7030E-03     12.1242E-03    -15.1865E-03     29.5632E-03    -14.5639E-03     12.0620E-03
            2356     6.20976E-03     5.89789E-03    -11.1596E+06    -79.0837E+06    -281.899E+03    -4.74965E+06    -14.9700E-03     29.5959E-03    -14.6259E-03     10.8654E-03    -14.9115E-03     29.2178E-03    -14.4965E-03     10.8002E-03
            2357     5.32289E-03     5.89452E-03    -10.2579E+06    -79.0206E+06    -1.98945E+06    -4.81990E+06    -14.7980E-03     29.3611E-03    -14.5632E-03     9.43664E-03    -14.7323E-03     28.9842E-03    -14.4437E-03     9.37142E-03
            2358     4.43588E-03     5.89170E-03    -9.48734E+06    -79.0160E+06    -3.89694E+06    -4.66037E+06    -14.6626E-03     29.1728E-03    -14.5102E-03     7.91071E-03    -14.5901E-03     28.7974E-03    -14.4014E-03     7.84830E-03
            2359     3.54874E-03     5.88956E-03    -9.15463E+06    -79.2376E+06    -5.74365E+06    -4.08597E+06    -14.5627E-03     29.0304E-03    -14.4677E-03     6.36018E-03    -14.4854E-03     28.6559E-03    -14.3683E-03     6.30579E-03
            2360     2.66160E-03     5.88789E-03    -8.94188E+06    -79.2850E+06    -6.66847E+06    -3.02940E+06    -14.4990E-03     28.9345E-03    -14.4355E-03     4.78742E-03    -14.4192E-03     28.5607E-03    -14.3409E-03     4.74716E-03
            2361     1.77448E-03     5.88669E-03    -9.06024E+06    -79.6658E+06    -7.79672E+06    -2.03491E+06    -14.4372E-03     28.8456E-03    -14.4085E-03     3.25171E-03    -14.3557E-03     28.4718E-03    -14.3188E-03     3.22472E-03
            2362     887.205E-06     5.88589E-03    -9.31525E+06    -80.1662E+06    -9.12718E+06    -1.25978E+06    -14.3962E-03     28.7866E-03    -14.3904E-03     1.78770E-03    -14.3132E-03     28.4129E-03    -14.3063E-03     1.77108E-03
            2363     16.6983E-03     5.19786E-03    -3.39192E+06     121.231E+06     80.8739E+06     2.97517E+06    -76.3954E-03     100.458E-03    -24.0622E-03     120.356E-03    -78.2114E-03     102.460E-03    -23.8287E-03     119.263E-03
            2364     15.8602E-03     5.08774E-03    -7.53385E+06     91.5509E+06     56.4615E+06     7.48980E+06    -60.6554E-03     82.3159E-03    -21.6605E-03     78.4280E-03    -61.5735E-03     83.3723E-03    -21.5000E-03     77.6952E-03
            2365     15.0048E-03     5.03831E-03    -13.8302E+06     61.1597E+06     20.1063E+06     12.4740E+06    -45.0439E-03     64.8078E-03    -19.7639E-03     42.4515E-03    -45.3638E-03     65.2389E-03    -19.7320E-03     42.3285E-03
            2366     14.1400E-03     5.00413E-03    -18.7257E+06     39.3159E+06    -20.8140E+03     14.5095E+06    -36.1872E-03     54.6123E-03    -18.4251E-03     32.3347E-03    -36.3923E-03     54.8913E-03    -18.4550E-03     32.3845E-03
            2367     13.2691E-03     4.98161E-03    -19.6433E+06     14.7571E+06    -408.781E+03     9.28769E+06    -29.7110E-03     47.2201E-03    -17.5091E-03     26.6174E-03    -29.8585E-03     47.3521E-03    -17.5041E-03     26.6591E-03
            2368     12.3927E-03     4.96579E-03    -18.3936E+06    -16.2960E+06     4.96579E+06     1.65308E+06    -24.6654E-03     41.5619E-03    -16.8966E-03     23.5106E-03    -24.7556E-03     41.5149E-03    -16.8214E-03     23.4886E-03
            2369     11.5125E-03     4.95481E-03    -17.5817E+06    -41.6388E+06     6.55177E+06    -3.17802E+06    -21.0878E-03     37.5682E-03    -16.4805E-03     21.6895E-03    -21.1329E-03     37.3843E-03    -16.3618E-03     21.6229E-03
            2370     10.6296E-03     4.94616E-03    -17.0901E+06    -62.5779E+06     5.43983E+06    -6.58214E+06    -18.7841E-03     34.9960E-03    -16.2119E-03     20.3272E-03    -18.7916E-03     34.7049E-03    -16.0691E-03     20.2260E-03
            2371     9.74517E-03     4.93956E-03    -16.0386E+06    -75.9944E+06     6.42046E+06    -8.36847E+06    -17.4317E-03     33.4860E-03    -16.0544E-03     18.7625E-03    -17.4140E-03     33.1230E-03    -15.8888E-03     18.6434E-03
            2372     8.85986E-03     4.93391E-03    -14.7907E+06    -79.0328E+06     5.51009E+06    -8.35495E+06    -16.6940E-03     32.6343E-03    -15.9402E-03     17.2423E-03    -16.6634E-03     32.2544E-03    -15.7766E-03     17.1266E-03
            2373     7.97429E-03     4.92886E-03    -13.2971E+06    -79.6507E+06     2.52106E+06    -7.83153E+06    -16.3003E-03     32.1503E-03    -15.8500E-03     15.5393E-03    -16.2563E-03     31.7689E-03    -15.7026E-03     15.4325E-03
            2374     7.08838E-03     4.92435E-03    -11.4507E+06    -79.9545E+06     219.868E+03    -7.26770E+06    -16.1116E-03     31.8925E-03    -15.7809E-03     13.5998E-03    -16.0541E-03     31.5097E-03    -15.6473E-03     13.5016E-03
            2375     6.20262E-03     4.92072E-03    -10.0345E+06    -79.7338E+06    -1.17753E+06    -7.12452E+06    -15.9928E-03     31.7162E-03    -15.7234E-03     11.7760E-03    -15.9262E-03     31.3342E-03    -15.5991E-03     11.6806E-03
            2376     5.31667E-03     4.91733E-03    -9.20193E+06    -80.4610E+06    -3.79608E+06    -7.07061E+06    -15.8699E-03     31.5374E-03    -15.6675E-03     9.96113E-03    -15.7941E-03     31.1542E-03    -15.5565E-03     9.86730E-03
            2377     4.43067E-03     4.91480E-03    -8.52201E+06    -81.1491E+06    -5.61253E+06    -6.08341E+06    -15.7709E-03     31.3931E-03    -15.6222E-03     8.11321E-03    -15.6880E-03     31.0080E-03    -15.5203E-03     8.03272E-03
            2378     3.54462E-03     4.91264E-03    -8.22386E+06    -81.5459E+06    -6.47427E+06    -4.86530E+06    -15.6985E-03     31.2846E-03    -15.5861E-03     6.38374E-03    -15.6122E-03     30.8982E-03    -15.4883E-03     6.31947E-03
            2379     2.65857E-03     4.91104E-03    -8.26592E+06    -81.9216E+06    -7.10955E+06    -3.72395E+06    -15.6355E-03     31.1887E-03    -15.5532E-03     4.72375E-03    -15.5478E-03     30.8014E-03    -15.4580E-03     4.67462E-03
            2380     1.77240E-03     4.90995E-03    -8.35300E+06    -82.1349E+06    -7.45531E+06    -2.31598E+06    -15.5693E-03     31.0937E-03    -15.5244E-03     3.17601E-03    -15.4812E-03     30.7059E-03    -15.4304E-03     3.14545E-03
            2381     886.251E-06     4.90923E-03    -8.45246E+06    -82.3742E+06    -8.23190E+06    -1.19968E+06    -15.5117E-03     31.0155E-03    -15.5037E-03     1.73217E-03    -15.4225E-03     30.6282E-03    -15.4132E-03     1.71634E-03
            2382     16.7034E-03     4.14549E-03    -4.88193E+06     115.922E+06     75.9953E+06     3.15592E+06    -75.8554E-03     99.8285E-03    -23.9731E-03     106.137E-03    -77.3529E-03     101.504E-03    -23.7541E-03     105.056E-03
            2383     15.8607E-03     4.06308E-03    -10.9495E+06     83.4554E+06     53.7434E+06     10.0678E+06    -56.3617E-03     78.0531E-03    -21.6914E-03     63.6823E-03    -57.0510E-03     78.8475E-03    -21.5278E-03     63.1711E-03
            2384     15.0021E-03     4.02986E-03    -15.8747E+06     57.8173E+06     31.4243E+06     15.9400E+06    -41.0265E-03     61.1050E-03    -20.0785E-03     39.2455E-03    -41.3306E-03     61.4685E-03    -19.9822E-03     39.2366E-03
            2385     14.1335E-03     4.00491E-03    -17.5400E+06     45.5062E+06     15.5514E+06     13.8514E+06    -32.2136E-03     51.2115E-03    -18.9979E-03     34.3896E-03    -32.4319E-03     51.4847E-03    -18.9607E-03     34.4674E-03
            2386     13.2587E-03     3.98931E-03    -16.4808E+06     25.1419E+06     8.43577E+06     5.81856E+06    -26.6671E-03     44.9660E-03    -18.2989E-03     30.1216E-03    -26.8203E-03     45.1259E-03    -18.2693E-03     30.1390E-03
            2387     12.3800E-03     3.97863E-03    -15.4539E+06    -10.5462E+06     8.53125E+06    -1.33909E+06    -22.9363E-03     40.8213E-03    -17.8850E-03     27.4810E-03    -23.0220E-03     40.7902E-03    -17.8047E-03     27.4309E-03
            2388     11.4985E-03     3.97101E-03    -15.1109E+06    -38.7916E+06     6.80058E+06    -5.46129E+06    -20.5807E-03     38.1941E-03    -17.6135E-03     25.3907E-03    -20.6162E-03     38.0186E-03    -17.5013E-03     25.3002E-03
            2389     10.6156E-03     3.96432E-03    -15.2566E+06    -60.1321E+06     4.55124E+06    -8.56188E+06    -19.2342E-03     36.6682E-03    -17.4340E-03     23.2024E-03    -19.2336E-03     36.3867E-03    -17.3020E-03     23.0790E-03
            2390     9.73187E-03     3.95871E-03    -15.4368E+06    -75.8048E+06     4.37385E+06    -11.2914E+06    -18.5331E-03     35.8478E-03    -17.3147E-03     20.7406E-03    -18.5091E-03     35.4870E-03    -17.1605E-03     20.5859E-03
            2391     8.84799E-03     3.95349E-03    -14.1152E+06    -80.6984E+06     1.70149E+06    -12.2131E+06    -18.1573E-03     35.3493E-03    -17.1920E-03     18.3386E-03    -18.1149E-03     34.9651E-03    -17.0460E-03     18.1744E-03
            2392     7.96383E-03     3.94880E-03    -11.8447E+06    -81.8257E+06    -1.96623E+06    -11.5280E+06    -17.8676E-03     34.9387E-03    -17.0711E-03     15.9161E-03    -17.8064E-03     34.5504E-03    -16.9451E-03     15.7625E-03
            2393     7.07958E-03     3.94455E-03    -9.85901E+06    -82.1243E+06    -4.07698E+06    -10.4206E+06    -17.6174E-03     34.5851E-03    -16.9677E-03     13.5350E-03    -17.5423E-03     34.1952E-03    -16.8547E-03     13.3968E-03
            2394     6.19503E-03     3.94094E-03    -8.49563E+06    -81.6718E+06    -4.35347E+06    -9.09700E+06    -17.4057E-03     34.2874E-03    -16.8818E-03     11.3649E-03    -17.3239E-03     33.8980E-03    -16.7728E-03     11.2447E-03
            2395     5.31043E-03     3.93793E-03    -8.33320E+06    -82.7465E+06    -6.42975E+06    -7.77679E+06    -17.2124E-03     34.0106E-03    -16.7982E-03     9.37774E-03    -17.1251E-03     33.6185E-03    -16.6983E-03     9.27517E-03
            2396     4.42563E-03     3.93543E-03    -8.75810E+06    -84.1074E+06    -8.57453E+06    -6.56945E+06    -17.0383E-03     33.7614E-03    -16.7232E-03     7.51337E-03    -16.9479E-03     33.3661E-03    -16.6314E-03     7.42686E-03
            2397     3.54074E-03     3.93348E-03    -8.83771E+06    -84.3064E+06    -8.71257E+06    -5.13794E+06    -16.8761E-03     33.5410E-03    -16.6649E-03     5.83641E-03    -16.7855E-03     33.1450E-03    -16.5735E-03     5.76880E-03
            2398     2.65563E-03     3.93201E-03    -8.96981E+06    -84.7227E+06    -9.18868E+06    -3.71068E+06    -16.7446E-03     33.3604E-03    -16.6158E-03     4.27437E-03    -16.6534E-03     32.9631E-03    -16.5259E-03     4.22553E-03
            2399     1.77051E-03     3.93101E-03    -9.15622E+06    -84.9413E+06    -9.37613E+06    -2.41834E+06    -16.6523E-03     33.2277E-03    -16.5754E-03     2.82445E-03    -16.5614E-03     32.8298E-03    -16.4858E-03     2.79262E-03
            2400     885.270E-06     3.93037E-03    -9.18253E+06    -84.7239E+06    -9.18674E+06    -1.15500E+06    -16.5649E-03     33.1146E-03    -16.5497E-03     1.51160E-03    -16.4745E-03     32.7180E-03    -16.4594E-03     1.49635E-03
            2401     16.7019E-03     3.10077E-03    -7.71638E+06     109.065E+06     65.5734E+06     6.09076E+06    -71.7042E-03     95.9219E-03    -24.2176E-03     92.0700E-03    -72.8534E-03     97.2460E-03    -24.0367E-03     91.1733E-03
            2402     15.8525E-03     3.04323E-03    -13.0188E+06     76.3398E+06     49.4930E+06     12.0848E+06    -50.0607E-03     72.3023E-03    -22.2416E-03     54.1779E-03    -50.5727E-03     72.8988E-03    -22.0859E-03     53.8950E-03
            2403     14.9887E-03     3.02532E-03    -12.4462E+06     59.0891E+06     42.1112E+06     12.6411E+06    -36.1799E-03     57.2008E-03    -21.0209E-03     39.4591E-03    -36.4528E-03     57.5184E-03    -20.8779E-03     39.4750E-03
            2404     14.1160E-03     3.00888E-03    -9.04254E+06     53.1158E+06     30.5337E+06     8.10125E+06    -29.3556E-03     49.5843E-03    -20.2287E-03     38.2220E-03    -29.5515E-03     49.8485E-03    -20.1399E-03     38.2558E-03
            2405     13.2393E-03     2.99811E-03    -6.65034E+06     32.2981E+06     14.6626E+06     3.22341E+06    -25.5843E-03     45.2703E-03    -19.6861E-03     33.6761E-03    -25.7005E-03     45.4351E-03    -19.6499E-03     33.6769E-03
            2406     12.3601E-03     2.99101E-03    -8.07439E+06    -5.88647E+06     6.61853E+06    -1.50145E+06    -23.5009E-03     42.8512E-03    -19.3503E-03     29.9625E-03    -23.5501E-03     42.8314E-03    -19.2970E-03     29.9190E-03
            2407     11.4798E-03     2.98496E-03    -10.2443E+06    -36.0161E+06     197.661E+03    -5.99685E+06    -22.3160E-03     41.4010E-03    -19.0850E-03     26.4361E-03    -22.3197E-03     41.2396E-03    -19.0169E-03     26.3432E-03
            2408     10.5989E-03     2.97958E-03    -10.5581E+06    -57.6325E+06    -5.47355E+06    -9.75889E+06    -21.4961E-03     40.3446E-03    -18.8485E-03     23.0645E-03    -21.4600E-03     40.0820E-03    -18.7770E-03     22.9283E-03
            2409     9.71764E-03     2.97445E-03    -9.59530E+06    -74.4158E+06    -6.52268E+06    -13.0536E+06    -20.9138E-03     39.5638E-03    -18.6499E-03     19.8834E-03    -20.8461E-03     39.2164E-03    -18.5607E-03     19.7078E-03
            2410     8.83589E-03     2.96981E-03    -8.84352E+06    -82.4502E+06    -8.58415E+06    -14.5856E+06    -20.4152E-03     38.8630E-03    -18.4477E-03     16.9549E-03    -20.3285E-03     38.4768E-03    -18.3583E-03     16.7615E-03
            2411     7.95384E-03     2.96552E-03    -8.13908E+06    -85.0490E+06    -10.6298E+06    -13.6215E+06    -19.9020E-03     38.1531E-03    -18.2512E-03     14.3034E-03    -19.8046E-03     37.7556E-03    -18.1692E-03     14.1237E-03
            2412     7.07125E-03     2.96186E-03    -7.52696E+06    -85.3612E+06    -10.6852E+06    -11.7241E+06    -19.3939E-03     37.4729E-03    -18.0790E-03     11.8989E-03    -19.2927E-03     37.0728E-03    -17.9978E-03     11.7447E-03
            2413     6.18828E-03     2.95867E-03    -7.57194E+06    -85.4017E+06    -9.96973E+06    -9.46037E+06    -18.9308E-03     36.8628E-03    -17.9320E-03     9.77255E-03    -18.8307E-03     36.4614E-03    -17.8470E-03     9.64818E-03
            2414     5.30489E-03     2.95598E-03    -7.98704E+06    -85.8266E+06    -9.79401E+06    -7.16532E+06    -18.5418E-03     36.3454E-03    -17.8036E-03     7.90374E-03    -18.4433E-03     35.9422E-03    -17.7166E-03     7.80948E-03
            2415     4.42128E-03     2.95386E-03    -8.64894E+06    -86.7253E+06    -10.9573E+06    -5.70595E+06    -18.2149E-03     35.9035E-03    -17.6887E-03     6.26560E-03    -18.1166E-03     35.4984E-03    -17.6051E-03     6.19055E-03
            2416     3.53731E-03     2.95220E-03    -9.49405E+06    -87.2437E+06    -11.2187E+06    -4.53752E+06    -17.9396E-03     35.5365E-03    -17.5969E-03     4.80583E-03    -17.8444E-03     35.1303E-03    -17.5128E-03     4.74619E-03
            2417     2.65320E-03     2.95097E-03    -9.98108E+06    -87.4140E+06    -10.9491E+06    -3.21387E+06    -17.7261E-03     35.2516E-03    -17.5255E-03     3.48832E-03    -17.6334E-03     34.8449E-03    -17.4391E-03     3.44604E-03
            2418     1.76890E-03     2.95008E-03    -10.1038E+06    -87.3787E+06    -10.7326E+06    -2.09134E+06    -17.5689E-03     35.0398E-03    -17.4710E-03     2.27635E-03    -17.4771E-03     34.6331E-03    -17.3833E-03     2.24881E-03
            2419     884.506E-06     2.94966E-03    -10.1263E+06    -87.1324E+06    -10.3862E+06    -1.14693E+06    -17.4539E-03     34.8998E-03    -17.4460E-03     1.20569E-03    -17.3629E-03     34.4944E-03    -17.3569E-03     1.19055E-03
            2420     16.6854E-03     2.05766E-03    -6.78482E+06     102.476E+06     62.8784E+06     8.22531E+06    -65.2259E-03     90.4031E-03    -25.1772E-03     79.2647E-03    -66.0512E-03     91.3915E-03    -25.0016E-03     78.6176E-03
            2421     15.8331E-03     2.03116E-03    -6.88151E+06     76.5666E+06     55.2210E+06     9.02283E+06    -44.0621E-03     67.6491E-03    -23.5870E-03     49.9964E-03    -44.4294E-03     68.1063E-03    -23.4119E-03     49.8375E-03
            2422     14.9631E-03     2.02401E-03    -4.86238E+06     64.6120E+06     47.8052E+06     5.44181E+06    -34.0197E-03     56.6680E-03    -22.6483E-03     43.5240E-03    -34.2451E-03     56.9670E-03    -22.4959E-03     43.4991E-03
            2423     14.0896E-03     2.01210E-03    -2.41985E+06     55.7063E+06     28.3736E+06     2.31638E+06    -30.3790E-03     52.3253E-03    -21.9463E-03     40.3330E-03    -30.5295E-03     52.5822E-03    -21.8817E-03     40.3169E-03
            2424     13.2141E-03     2.00522E-03    -1.89089E+06     33.4801E+06     5.04295E+06     2.82226E+06    -28.1484E-03     49.5108E-03    -21.3625E-03     32.7563E-03    -28.2216E-03     49.6810E-03    -21.3831E-03     32.7661E-03
            2425     12.3376E-03     1.99918E-03    -2.24994E+06    -823.902E+03    -7.11634E+06     344.364E+03    -26.6634E-03     47.5813E-03    -20.9179E-03     26.9988E-03    -26.6675E-03     47.5946E-03    -20.9490E-03     26.9862E-03
            2426     11.4609E-03     1.99441E-03    -2.26942E+06    -31.6963E+06    -15.5643E+06    -5.13471E+06    -25.6123E-03     46.1345E-03    -20.5222E-03     22.5865E-03    -25.5576E-03     46.0039E-03    -20.5508E-03     22.5092E-03
            2427     10.5834E-03     1.99026E-03    -2.18254E+06    -55.2022E+06    -21.9950E+06    -9.45790E+06    -24.7078E-03     44.8537E-03    -20.1459E-03     18.9771E-03    -24.6082E-03     44.6138E-03    -20.1726E-03     18.8476E-03
            2428     9.70490E-03     1.98614E-03    -2.59833E+06    -72.9380E+06    -24.4255E+06    -12.1722E+06    -23.7328E-03     43.5357E-03    -19.8029E-03     15.8181E-03    -23.6055E-03     43.2108E-03    -19.8155E-03     15.6559E-03
            2429     8.82565E-03     1.98247E-03    -3.31227E+06    -84.0590E+06    -24.4459E+06    -13.2642E+06    -22.7514E-03     42.2432E-03    -19.4918E-03     13.1518E-03    -22.6111E-03     41.8635E-03    -19.4874E-03     12.9770E-03
            2430     7.94544E-03     1.97921E-03    -4.17680E+06    -88.8711E+06    -22.3370E+06    -12.2665E+06    -21.8537E-03     41.0685E-03    -19.2148E-03     10.8881E-03    -21.7137E-03     40.6628E-03    -19.1915E-03     10.7271E-03
            2431     7.06452E-03     1.97636E-03    -5.37913E+06    -89.3667E+06    -18.7634E+06    -9.91202E+06    -21.0322E-03     40.0043E-03    -18.9721E-03     8.87447E-03    -20.9026E-03     39.5926E-03    -18.9285E-03     8.74451E-03
            2432     6.18291E-03     1.97399E-03    -6.74979E+06    -89.3335E+06    -15.6010E+06    -7.58572E+06    -20.2886E-03     39.0504E-03    -18.7619E-03     7.17065E-03    -20.1703E-03     38.6362E-03    -18.7005E-03     7.07115E-03
            2433     5.30068E-03     1.97199E-03    -7.97860E+06    -89.0686E+06    -13.4481E+06    -5.63641E+06    -19.6506E-03     38.2339E-03    -18.5834E-03     5.72917E-03    -19.5419E-03     37.8197E-03    -18.5099E-03     5.65516E-03
            2434     4.41788E-03     1.97038E-03    -9.03378E+06    -89.0600E+06    -12.4625E+06    -4.01978E+06    -19.1551E-03     37.5893E-03    -18.4342E-03     4.47915E-03    -19.0531E-03     37.1752E-03    -18.3543E-03     4.42626E-03
            2435     3.53480E-03     1.96917E-03    -10.0128E+06    -89.3685E+06    -12.3862E+06    -3.05622E+06    -18.7764E-03     37.0867E-03    -18.3104E-03     3.39777E-03    -18.6789E-03     36.6724E-03    -18.2282E-03     3.35753E-03
            2436     2.65135E-03     1.96825E-03    -10.8014E+06    -89.5621E+06    -12.2532E+06    -2.40406E+06    -18.4719E-03     36.6868E-03    -18.2150E-03     2.45195E-03    -18.3782E-03     36.2724E-03    -18.1307E-03     2.42033E-03
            2437     1.76769E-03     1.96767E-03    -11.0957E+06    -89.3699E+06    -11.7312E+06    -1.65038E+06    -18.2541E-03     36.4061E-03    -18.1521E-03     1.60747E-03    -18.1629E-03     35.9924E-03    -18.0650E-03     1.58577E-03
            2438     883.852E-06     1.96732E-03    -11.1218E+06    -89.1629E+06    -11.3971E+06    -970.800E+03    -18.1350E-03     36.2602E-03    -18.1252E-03     847.783E-06    -18.0444E-03     35.8475E-03    -18.0367E-03     835.024E-06
            2439     16.6581E-03     1.02563E-03     709.372E+03     98.9726E+06     71.7110E+06     5.67283E+06    -60.0800E-03     87.0986E-03    -27.0186E-03     66.3205E-03    -60.6070E-03     87.7764E-03    -26.8046E-03     65.8870E-03
            2440     15.7940E-03     1.02292E-03     1.41479E+06     80.1342E+06     60.2970E+06     4.30398E+06    -44.5705E-03     70.1566E-03    -25.5862E-03     45.0811E-03    -44.8162E-03     70.5165E-03    -25.4029E-03     45.0190E-03
            2441     14.9274E-03     1.01802E-03     1.58572E+06     68.2049E+06     41.1318E+06     1.21625E+06    -39.3224E-03     63.8472E-03    -24.5248E-03     36.5346E-03    -39.4874E-03     64.1396E-03    -24.4203E-03     36.5078E-03
            2442     14.0600E-03     1.00998E-03     1.49879E+06     53.7605E+06     13.9466E+06     1.81614E+06    -35.7339E-03     59.3194E-03    -23.5855E-03     28.5050E-03    -35.8302E-03     59.5708E-03    -23.5959E-03     28.5058E-03
            2443     13.1914E-03     1.00487E-03     1.57546E+06     33.5165E+06    -7.55505E+06     2.62920E+06    -32.7381E-03     55.5350E-03    -22.7969E-03     21.0568E-03    -32.7705E-03     55.7135E-03    -22.8855E-03     21.0763E-03
            2444     12.3207E-03     1.00196E-03     3.68244E+06     4.10584E+06    -21.3368E+06    -132.059E+03    -30.6079E-03     52.7502E-03    -22.1423E-03     16.5152E-03    -30.5659E-03     52.7976E-03    -22.2603E-03     16.5042E-03
            2445     11.4469E-03     999.060E-06     5.51906E+06    -28.0489E+06    -32.5782E+06    -3.41781E+06    -28.8915E-03     50.4534E-03    -21.5619E-03     13.2738E-03    -28.7767E-03     50.3530E-03    -21.6921E-03     13.2241E-03
            2446     10.5721E-03     996.237E-06     5.20061E+06    -53.1775E+06    -36.9410E+06    -5.55994E+06    -27.3794E-03     48.4328E-03    -21.0533E-03     10.7299E-03    -27.2232E-03     48.2132E-03    -21.1685E-03     10.6542E-03
            2447     9.69621E-03     994.161E-06     3.31994E+06    -71.8151E+06    -38.2573E+06    -7.39330E+06    -25.9179E-03     46.5134E-03    -20.5955E-03     8.80854E-03    -25.7420E-03     46.2052E-03    -20.6875E-03     8.71041E-03
            2448     8.81862E-03     992.187E-06     852.774E+03    -85.5095E+06    -35.5936E+06    -8.14665E+06    -24.5368E-03     44.7350E-03    -20.1982E-03     7.26683E-03    -24.3571E-03     44.3580E-03    -20.2534E-03     7.15988E-03
            2449     7.93992E-03     990.320E-06    -1.95752E+06    -92.1314E+06    -29.9863E+06    -7.16302E+06    -23.2769E-03     43.1323E-03    -19.8555E-03     5.89911E-03    -23.1097E-03     42.7181E-03    -19.8690E-03     5.80534E-03
            2450     7.06015E-03     988.741E-06    -4.55471E+06    -92.7153E+06    -24.4195E+06    -5.60177E+06    -22.1578E-03     41.7115E-03    -19.5537E-03     4.73784E-03    -22.0108E-03     41.2900E-03    -19.5347E-03     4.66449E-03
            2451     6.17946E-03     987.478E-06    -6.57836E+06    -92.1542E+06    -19.2648E+06    -4.13585E+06    -21.2039E-03     40.5007E-03    -19.2968E-03     3.79628E-03    -21.0752E-03     40.0774E-03    -19.2500E-03     3.74207E-03
            2452     5.29796E-03     986.436E-06    -8.28501E+06    -91.4074E+06    -15.7265E+06    -2.96015E+06    -20.4090E-03     39.4880E-03    -19.0790E-03     3.01630E-03    -20.2951E-03     39.0658E-03    -19.0131E-03     2.97745E-03
            2453     4.41585E-03     985.561E-06    -9.57739E+06    -90.8401E+06    -13.5706E+06    -2.14579E+06    -19.7708E-03     38.6704E-03    -18.8996E-03     2.34408E-03    -19.6673E-03     38.2498E-03    -18.8219E-03     2.31586E-03
            2454     3.53318E-03     984.857E-06    -10.4363E+06    -90.6222E+06    -12.7817E+06    -1.49822E+06    -19.2851E-03     38.0409E-03    -18.7558E-03     1.75987E-03    -19.1874E-03     37.6215E-03    -18.6732E-03     1.74011E-03
            2455     2.65021E-03     984.439E-06    -11.1378E+06    -90.6407E+06    -12.6126E+06    -1.17464E+06    -18.9316E-03     37.5794E-03    -18.6477E-03     1.26188E-03    -18.8375E-03     37.1606E-03    -18.5632E-03     1.24640E-03
            2456     1.76691E-03     984.131E-06    -11.7667E+06    -90.7246E+06    -12.5239E+06    -1.04848E+06    -18.6958E-03     37.2703E-03    -18.5744E-03     829.527E-06    -18.6049E-03     36.8518E-03    -18.4884E-03     815.797E-06
            2457     883.500E-06     983.933E-06    -12.1879E+06    -90.7215E+06    -12.3716E+06    -634.016E+03    -18.5622E-03     37.0951E-03    -18.5329E-03     435.438E-06    -18.4731E-03     36.6775E-03    -18.4456E-03     427.265E-06


