********************************************************************************
Field Output Report, written Wed May 29 00:05:13 2024

Source 1
---------

   ODB: G:/Abaqus_calc_2019/1740/Vel_5/odb/zeides_2a_16_red_2000_cal_50_vel_5_fric_0100.odb
   Step: Step-1
   Frame: Increment  30464490: Step Time =    3.056

Loc 1 : Nodal values from source 1

Output sorted by column "Nodal Label".

Field Output reported at nodes for region: DIE_2A_16_D0_36-1.Region_1
   Computation algorithm: EXTRAPOLATE_COMPUTE_AVERAGE
   Averaged at nodes
   Averaging regions: ODB_REGIONS

      Node Label     COORD.COOR1     COORD.COOR2
                          @Loc 1          @Loc 1
-------------------------------------------------
               1     16.4041E-03     180.080E-03


Field Output reported at nodes for region: DIE_2A_16_D0_36-1.Region_2
   Computation algorithm: EXTRAPOLATE_COMPUTE_AVERAGE
   Averaged at nodes
   Averaging regions: ODB_REGIONS

      Node Label     COORD.COOR1     COORD.COOR2
                          @Loc 1          @Loc 1
-------------------------------------------------
               1     16.4041E-03     180.080E-03


Field Output reported at nodes for part: WIRE-1
   Computation algorithm: EXTRAPOLATE_COMPUTE_AVERAGE
   Averaged at nodes
   Averaging regions: ODB_REGIONS

      Node Label     COORD.COOR1     COORD.COOR2           S.S11           S.S22           S.S33           S.S12         PE.PE11         PE.PE22         PE.PE33         PE.PE12         LE.LE11         LE.LE22         LE.LE33         LE.LE12
                          @Loc 1          @Loc 1          @Loc 1          @Loc 1          @Loc 1          @Loc 1          @Loc 1          @Loc 1          @Loc 1          @Loc 1          @Loc 1          @Loc 1          @Loc 1          @Loc 1
-------------------------------------------------------------------------------------------------------------------------------------------------------------------------------------------------------------------------------------------------
               1     1.12126E-06     85.1140E-03    -117.189E+06    -233.253E+06    -119.731E+06     3.64320E+06    -225.142E-03     451.209E-03    -226.067E-03     7.58879E-03    -225.150E-03     450.402E-03    -226.158E-03     7.29994E-03
               2     14.3669E-03     87.3674E-03    -734.338E+03     75.9022E+06     91.4167E+06     540.084E+03    -224.294E-03     450.153E-03    -225.860E-03     102.285E-03    -225.477E-03     451.339E-03    -225.512E-03     93.2926E-03
               3     14.3994E-03     173.863E-03    -51.4711E+06     42.5029E+06     38.7336E+06    -33.8024E+06    -122.015E-03     347.387E-03    -225.372E-03     28.3933E-03    -122.353E-03     347.672E-03    -225.165E-03     27.7684E-03
               4    -23.1586E-06     170.740E-03     43.2684E+06    -16.6103E+06     29.6185E+06    -6.65646E+06    -246.248E-03     505.581E-03    -259.333E-03    -27.0071E-03    -246.039E-03     505.527E-03    -259.224E-03    -28.1463E-03
               5    -694.851E-09    -9.57567E-15    -73.0308E+06    -241.551E+06    -73.6225E+06    -3.05067E+06    -191.795E-03     383.413E-03    -191.618E-03     666.732E-06    -191.536E-03     382.426E-03    -191.530E-03     666.223E-06
               6     14.1940E-03    -9.57567E-15    -18.0022E+06     74.8868E+06     81.6732E+06    -331.560E+03    -454.136E-03     682.992E-03    -228.856E-03     153.011E-03    -456.422E-03     685.268E-03    -228.530E-03     131.361E-03
               7     717.781E-06     85.1344E-03    -119.446E+06    -223.746E+06    -117.793E+06     907.955E+03    -225.439E-03     451.272E-03    -225.832E-03     10.8280E-03    -225.498E-03     450.500E-03    -225.924E-03     10.2673E-03
               8     1.43498E-03     85.1663E-03    -119.026E+06    -210.769E+06    -112.488E+06    -2.80778E+06    -225.133E-03     450.625E-03    -225.492E-03     18.9170E-03    -225.258E-03     449.911E-03    -225.576E-03     17.7530E-03
               9     2.15683E-03     85.1996E-03    -112.713E+06    -201.138E+06    -101.873E+06    -4.90054E+06    -225.242E-03     450.596E-03    -225.354E-03     29.4175E-03    -225.408E-03     449.945E-03    -225.409E-03     27.4858E-03
              10     2.87585E-03     85.2461E-03    -106.755E+06    -186.848E+06    -86.0841E+06    -2.06492E+06    -226.790E-03     452.261E-03    -225.471E-03     40.0383E-03    -227.021E-03     451.699E-03    -225.475E-03     37.4100E-03
              11     3.59178E-03     85.3120E-03    -100.647E+06    -166.756E+06    -66.1498E+06     2.65919E+06    -227.622E-03     453.406E-03    -225.785E-03     49.0484E-03    -227.929E-03     452.957E-03    -225.728E-03     45.9177E-03
              12     4.30801E-03     85.3859E-03    -93.5888E+06    -142.192E+06    -46.4349E+06     1.27469E+06    -227.199E-03     453.207E-03    -226.008E-03     58.0980E-03    -227.592E-03     452.897E-03    -225.898E-03     54.4278E-03
              13     5.02423E-03     85.4792E-03    -88.2170E+06    -120.050E+06    -32.1278E+06    -569.342E+03    -226.543E-03     452.585E-03    -226.041E-03     66.6511E-03    -227.019E-03     452.414E-03    -225.900E-03     62.5056E-03
              14     5.74276E-03     85.5873E-03    -80.1336E+06    -99.7479E+06    -18.6712E+06    -2.60786E+06    -226.579E-03     452.565E-03    -225.986E-03     75.0271E-03    -227.138E-03     452.539E-03    -225.818E-03     70.2754E-03
              15     6.46309E-03     85.6971E-03    -68.7404E+06    -74.6091E+06    -3.31044E+06    -2.13966E+06    -227.522E-03     453.472E-03    -225.950E-03     85.2891E-03    -228.177E-03     453.628E-03    -225.759E-03     79.8782E-03
              16     7.18143E-03     85.8239E-03    -58.2966E+06    -43.8290E+06     13.5560E+06     145.675E+03    -228.360E-03     454.331E-03    -225.971E-03     93.5150E-03    -229.124E-03     454.693E-03    -225.755E-03     87.5374E-03
              17     7.89870E-03     85.9592E-03    -50.4531E+06    -15.3906E+06     25.8971E+06     593.565E+03    -228.279E-03     454.258E-03    -225.979E-03     99.6722E-03    -229.148E-03     454.819E-03    -225.754E-03     93.1697E-03
              18     8.61791E-03     86.1031E-03    -44.3757E+06     10.4001E+06     35.3464E+06     3.73855E+06    -227.916E-03     453.851E-03    -225.936E-03     105.488E-03    -228.897E-03     454.610E-03    -225.710E-03     98.5088E-03
              19     9.33688E-03     86.2527E-03    -35.8545E+06     29.7571E+06     49.9274E+06     4.32572E+06    -228.083E-03     453.988E-03    -225.905E-03     109.488E-03    -229.203E-03     454.942E-03    -225.646E-03     101.631E-03
              20     10.0524E-03     86.4080E-03    -29.3214E+06     33.3383E+06     62.5621E+06     2.32714E+06    -228.520E-03     454.425E-03    -225.905E-03     115.738E-03    -229.781E-03     455.519E-03    -225.598E-03     107.001E-03
              21     10.7720E-03     86.5746E-03    -24.8489E+06     38.0426E+06     72.2705E+06    -1.24106E+06    -228.423E-03     454.313E-03    -225.890E-03     121.076E-03    -229.822E-03     455.549E-03    -225.548E-03     111.551E-03
              22     11.4940E-03     86.7408E-03    -19.2535E+06     53.2642E+06     80.7630E+06    -2.84855E+06    -228.930E-03     454.798E-03    -225.868E-03     120.793E-03    -230.439E-03     456.194E-03    -225.513E-03     110.491E-03
              23     12.2094E-03     86.9050E-03    -16.4351E+06     60.0922E+06     83.7064E+06    -1.51056E+06    -229.826E-03     455.714E-03    -225.889E-03     120.375E-03    -231.389E-03     457.189E-03    -225.533E-03     109.658E-03
              24     12.9274E-03     87.0736E-03    -12.2171E+06     59.4404E+06     84.8048E+06    -457.606E+03    -229.243E-03     455.176E-03    -225.933E-03     114.851E-03    -230.769E-03     456.624E-03    -225.577E-03     103.909E-03
              25     13.6464E-03     87.2258E-03    -4.57466E+06     68.1790E+06     88.6485E+06       665.7E+03    -226.411E-03     452.316E-03    -225.905E-03     105.559E-03    -227.740E-03     453.614E-03    -225.554E-03     95.5459E-03
              26     14.3687E-03     88.8421E-03    -4.03900E+06     71.8652E+06     86.5856E+06    -2.89103E+06    -225.851E-03     451.717E-03    -225.866E-03     95.8522E-03    -226.983E-03     452.839E-03    -225.532E-03     86.8001E-03
              27     14.3607E-03     90.3407E-03    -1.76491E+06     68.6670E+06     86.7935E+06     10.6655E+03    -227.738E-03     453.630E-03    -225.892E-03     100.499E-03    -228.848E-03     454.725E-03    -225.555E-03     91.7214E-03
              28     14.3715E-03     91.8317E-03     2.76226E+06     72.0784E+06     92.1819E+06     1.99500E+06    -226.561E-03     452.364E-03    -225.803E-03     107.347E-03    -227.714E-03     453.516E-03    -225.451E-03     98.6003E-03
              29     14.3661E-03     93.3142E-03    -5.93202E+06     65.5656E+06     84.6136E+06    -1.26044E+06    -227.757E-03     453.485E-03    -225.728E-03     100.152E-03    -228.930E-03     454.624E-03    -225.391E-03     90.9927E-03
              30     14.3668E-03     94.8012E-03    -2.34954E+06     68.2183E+06     85.4994E+06    -1.79278E+06    -228.472E-03     454.295E-03    -225.823E-03     96.2331E-03    -229.605E-03     455.415E-03    -225.491E-03     86.9977E-03
              31     14.3638E-03     96.2935E-03    -2.34704E+06     74.0791E+06     89.7554E+06     2.20772E+06    -230.515E-03     456.388E-03    -225.873E-03     103.137E-03    -231.680E-03     457.548E-03    -225.528E-03     94.1387E-03
              32     14.3650E-03     97.8019E-03    -2.52556E+06     76.2635E+06     88.0715E+06     5.07605E+06    -229.789E-03     455.633E-03    -225.844E-03     107.275E-03    -230.991E-03     456.842E-03    -225.510E-03     98.3433E-03
              33     14.3681E-03     99.2773E-03    -2.12925E+06     76.6910E+06     86.8840E+06    -1.68903E+06    -225.589E-03     451.411E-03    -225.822E-03     102.757E-03    -226.812E-03     452.648E-03    -225.496E-03     93.4241E-03
              34     14.3668E-03     100.753E-03    -3.66044E+06     74.8579E+06     86.3296E+06    -2.71005E+06    -225.947E-03     451.742E-03    -225.795E-03     94.3119E-03    -227.085E-03     452.883E-03    -225.467E-03     85.1946E-03
              35     14.3666E-03     102.249E-03    -3.44444E+06     74.7094E+06     88.7837E+06     545.582E+03    -225.836E-03     451.711E-03    -225.874E-03     94.2957E-03    -226.882E-03     452.752E-03    -225.534E-03     85.9772E-03
              36     14.3650E-03     103.739E-03    -3.12897E+06     75.7120E+06     90.6548E+06     1.09287E+06    -226.069E-03     451.956E-03    -225.887E-03     104.350E-03    -227.231E-03     453.113E-03    -225.539E-03     95.6733E-03
              37     14.3687E-03     105.224E-03    -1.34327E+06     77.9131E+06     91.2048E+06    -1.90998E+06    -228.267E-03     454.027E-03    -225.761E-03     104.641E-03    -229.515E-03     455.284E-03    -225.416E-03     95.1140E-03
              38     14.3664E-03     106.718E-03    -395.702E+03     78.3530E+06     91.6061E+06    -667.845E+03    -225.888E-03     451.656E-03    -225.768E-03     100.266E-03    -227.070E-03     452.849E-03    -225.423E-03     91.0824E-03
              39     14.3699E-03     108.195E-03    -4.40888E+06     71.8318E+06     87.7685E+06    -267.582E+03    -224.580E-03     450.386E-03    -225.805E-03     101.230E-03    -225.743E-03     451.533E-03    -225.464E-03     92.3613E-03
              40     14.3650E-03     109.682E-03    -3.94980E+06     72.5086E+06     91.4765E+06    -952.258E+03    -229.060E-03     454.872E-03    -225.812E-03     100.972E-03    -230.222E-03     456.013E-03    -225.454E-03     91.9904E-03
              41     14.3655E-03     111.184E-03     1.70205E+06     76.9870E+06     91.2468E+06     1.60749E+06    -229.961E-03     455.764E-03    -225.803E-03     104.223E-03    -231.124E-03     456.941E-03    -225.461E-03     95.2265E-03
              42     14.3681E-03     112.667E-03     558.764E+03     75.1729E+06     87.4256E+06     1.13998E+06    -227.424E-03     453.155E-03    -225.731E-03     104.523E-03    -228.626E-03     454.372E-03    -225.404E-03     95.2737E-03
              43     14.3691E-03     114.154E-03    -4.85105E+06     73.1417E+06     87.4058E+06    -85.3567E+03    -228.402E-03     454.080E-03    -225.678E-03     100.562E-03    -229.596E-03     455.263E-03    -225.340E-03     91.3240E-03
              44     14.3661E-03     115.647E-03    -3.23940E+06     76.6659E+06     89.2851E+06     125.004E+03    -228.700E-03     454.416E-03    -225.716E-03     99.7874E-03    -229.851E-03     455.569E-03    -225.376E-03     90.8470E-03
              45     14.3687E-03     117.139E-03    -2.01539E+06     80.1848E+06     91.8410E+06     339.774E+03    -226.901E-03     452.683E-03    -225.781E-03     103.710E-03    -228.099E-03     453.892E-03    -225.435E-03     94.6981E-03
              46     14.3662E-03     118.625E-03    -2.66586E+06     78.8563E+06     90.1715E+06    -1.78327E+06    -226.127E-03     451.929E-03    -225.802E-03     102.440E-03    -227.359E-03     453.170E-03    -225.462E-03     93.0974E-03
              47     14.3680E-03     120.103E-03    -3.19388E+06     74.6716E+06     87.8215E+06    -1.97697E+06    -227.072E-03     452.830E-03    -225.758E-03     99.2341E-03    -228.220E-03     453.978E-03    -225.423E-03     90.2473E-03
              48     14.3675E-03     121.596E-03    -3.10917E+06     75.4587E+06     90.1393E+06     1.19127E+06    -228.010E-03     453.685E-03    -225.676E-03     98.8152E-03    -229.085E-03     454.757E-03    -225.330E-03     90.3768E-03
              49     14.3707E-03     123.089E-03     3.04190E+06     84.4814E+06     97.6294E+06     5.06092E+06    -227.627E-03     453.283E-03    -225.656E-03     102.733E-03    -228.766E-03     454.450E-03    -225.295E-03     94.0515E-03
              50     14.3676E-03     124.582E-03    -3.82454E+06     80.6253E+06     90.6642E+06    -1.20447E+06    -229.055E-03     454.785E-03    -225.730E-03     103.733E-03    -230.300E-03     456.041E-03    -225.388E-03     94.3288E-03
              51     14.3632E-03     126.070E-03    -7.98054E+06     79.8562E+06     87.8218E+06    -2.63536E+06    -228.234E-03     454.086E-03    -225.852E-03     101.698E-03    -229.440E-03     455.292E-03    -225.517E-03     92.6100E-03
              52     14.3690E-03     127.550E-03    -313.281E+03     90.6613E+06     97.2556E+06     4.42723E+06    -226.911E-03     452.725E-03    -225.814E-03     102.856E-03    -228.034E-03     453.887E-03    -225.459E-03     94.5321E-03
              53     14.3672E-03     129.047E-03    -926.795E+03     91.4966E+06     95.2145E+06    -738.008E+03    -227.514E-03     453.252E-03    -225.738E-03     101.665E-03    -228.692E-03     454.476E-03    -225.393E-03     92.7567E-03
              54     14.3675E-03     130.534E-03    -3.94292E+06     88.8817E+06     94.1485E+06     20.3083E+03    -225.808E-03     451.642E-03    -225.834E-03     103.264E-03    -227.062E-03     452.924E-03    -225.486E-03     94.0409E-03
              55     14.3661E-03     132.017E-03     340.113E+03     94.4357E+06     100.854E+06     3.05132E+06    -225.168E-03     451.005E-03    -225.838E-03     106.078E-03    -226.418E-03     452.300E-03    -225.471E-03     97.0751E-03
              56     14.3707E-03     133.501E-03    -4.39270E+06     94.2521E+06     99.0642E+06    -13.1590E+03    -226.495E-03     452.258E-03    -225.763E-03     103.993E-03    -227.745E-03     453.540E-03    -225.398E-03     94.9064E-03
              57     14.3647E-03     134.996E-03    -3.10791E+06     99.6725E+06     103.686E+06     2.81234E+06    -225.701E-03     451.458E-03    -225.757E-03     104.686E-03    -226.927E-03     452.726E-03    -225.378E-03     95.9133E-03
              58     14.3745E-03     136.468E-03     1.29268E+06     105.649E+06     107.271E+06     182.206E+03    -223.141E-03     448.703E-03    -225.562E-03     103.530E-03    -224.303E-03     449.934E-03    -225.180E-03     95.1554E-03
              59     14.3757E-03     137.946E-03    -4.58961E+06     103.969E+06     103.793E+06    -1.23835E+06    -223.064E-03     448.325E-03    -225.261E-03     96.9640E-03    -224.200E-03     449.513E-03    -224.886E-03     88.6297E-03
              60     14.3795E-03     139.434E-03    -5.60938E+06     105.298E+06     104.467E+06     969.458E+03    -224.210E-03     449.276E-03    -225.066E-03     98.2761E-03    -225.364E-03     450.481E-03    -224.688E-03     89.9268E-03
              61     14.3803E-03     140.919E-03    -2.04896E+06     106.968E+06     106.768E+06     1.42499E+06    -223.284E-03     448.212E-03    -224.927E-03     101.106E-03    -224.485E-03     449.476E-03    -224.546E-03     92.4756E-03
              62     14.3843E-03     142.400E-03    -2.88236E+06     111.378E+06     110.017E+06     1.72748E+06    -222.282E-03     447.092E-03    -224.810E-03     102.500E-03    -223.576E-03     448.452E-03    -224.417E-03     93.4169E-03
              63     14.3840E-03     143.878E-03    -4.42417E+06     113.901E+06     109.041E+06     887.055E+03    -223.104E-03     447.725E-03    -224.621E-03     102.642E-03    -224.416E-03     449.110E-03    -224.234E-03     93.4647E-03
              64     14.3897E-03     145.358E-03    -1.85298E+06     118.008E+06     111.840E+06     441.675E+03    -222.080E-03     446.508E-03    -224.427E-03     97.7688E-03    -223.319E-03     447.835E-03    -224.037E-03     88.8687E-03
              65     14.3909E-03     146.831E-03    -1.52818E+06     119.775E+06     115.809E+06     187.232E+03    -220.413E-03     444.699E-03    -224.286E-03     95.3576E-03    -221.622E-03     445.992E-03    -223.878E-03     86.6340E-03
              66     14.3939E-03     148.312E-03    -3.16453E+06     121.778E+06     117.494E+06      74.225E+03    -222.163E-03     446.263E-03    -224.100E-03     99.5916E-03    -223.414E-03     447.594E-03    -223.684E-03     90.7813E-03
              67     14.3954E-03     149.799E-03    -2.76481E+06     120.612E+06     117.224E+06    -191.192E+03    -224.328E-03     448.204E-03    -223.876E-03     102.135E-03    -225.588E-03     449.543E-03    -223.461E-03     93.2791E-03
              68     14.3991E-03     151.275E-03    -3.91180E+06     117.963E+06     118.880E+06     339.748E+03    -225.364E-03     449.031E-03    -223.667E-03     100.399E-03    -226.590E-03     450.316E-03    -223.238E-03     91.7406E-03
              69     14.4012E-03     152.760E-03     -3.0073E+06     119.318E+06     124.357E+06     122.400E+03    -227.305E-03     450.774E-03    -223.469E-03     101.422E-03    -228.541E-03     452.062E-03    -223.015E-03     92.7147E-03
              70     14.4031E-03     154.256E-03    -3.76012E+06     116.528E+06     124.143E+06    -1.41176E+06    -232.049E-03     455.308E-03    -223.259E-03     109.844E-03    -233.406E-03     456.705E-03    -222.802E-03     100.521E-03
              71     14.4031E-03     155.758E-03    -1.95330E+06     114.215E+06     123.495E+06     70.4633E+03    -238.722E-03     461.767E-03    -223.045E-03     115.847E-03    -240.119E-03     463.204E-03    -222.590E-03     106.271E-03
              72     14.4042E-03     157.263E-03    -6.33347E+06     110.118E+06     118.334E+06    -1.47390E+06    -243.740E-03     466.613E-03    -222.873E-03     114.536E-03    -245.088E-03     467.986E-03    -222.432E-03     105.140E-03
              73     14.4038E-03     158.771E-03     -767.66E+03     105.804E+06     115.134E+06    -562.168E+03    -249.467E-03     472.168E-03    -222.701E-03     116.038E-03    -250.737E-03     473.478E-03    -222.277E-03     106.852E-03
              74     14.4046E-03     160.299E-03    -6.61210E+06     95.8309E+06     111.501E+06    -1.96772E+06    -256.822E-03     479.351E-03    -222.529E-03     120.867E-03    -258.116E-03     480.640E-03    -222.101E-03     111.586E-03
              75     14.4037E-03     161.838E-03    -2.72031E+06     78.8292E+06     113.132E+06    -5.07874E+06    -261.490E-03     483.918E-03    -222.428E-03     127.888E-03    -262.841E-03     485.212E-03    -221.973E-03     118.022E-03
              76     14.4062E-03     163.372E-03     1.04320E+06     64.6836E+06     113.245E+06    -4.25828E+06    -264.574E-03     486.905E-03    -222.331E-03     128.148E-03    -265.898E-03     488.134E-03    -221.860E-03     118.114E-03
              77     14.4042E-03     164.901E-03    -6.21756E+06     45.3794E+06     105.441E+06      316.09E+03    -265.734E-03     487.976E-03    -222.242E-03     117.165E-03    -266.838E-03     488.911E-03    -221.772E-03     108.367E-03
              78     14.4081E-03     166.431E-03    -4.37145E+06     28.6782E+06     108.944E+06    -7.16503E+06    -266.609E-03     488.785E-03    -222.175E-03     113.659E-03    -267.562E-03     489.508E-03    -221.666E-03     105.569E-03
              79     14.4069E-03     167.985E-03     7.08358E+06     23.0291E+06     118.325E+06    -1.63487E+06    -268.388E-03     490.475E-03    -222.087E-03     116.365E-03    -269.290E-03     491.142E-03    -221.539E-03     108.434E-03
              80     14.4105E-03     169.524E-03    -9.14658E+06     13.7788E+06     112.848E+06    -2.60306E+06    -261.652E-03     483.811E-03    -222.160E-03     110.320E-03    -262.491E-03     484.339E-03    -221.602E-03     103.419E-03
              81     14.4096E-03     171.036E-03     11.8423E+06     28.7479E+06     125.425E+06     7.16108E+06    -244.283E-03     466.726E-03    -222.443E-03     102.751E-03    -244.804E-03     467.027E-03    -221.875E-03     98.6106E-03
              82     14.4165E-03     172.529E-03     12.3608E+06     46.9095E+06     94.8865E+06     2.65726E+06    -178.025E-03     402.014E-03    -223.989E-03     64.6532E-03    -178.249E-03     402.219E-03    -223.601E-03     63.3909E-03
              83     13.5398E-03     173.697E-03    -37.3887E+06    -18.4578E+06     52.5085E+06    -16.1838E+06    -121.460E-03     349.445E-03    -227.985E-03    -13.6608E-03    -121.617E-03     349.376E-03    -227.642E-03    -14.5085E-03
              84     12.7160E-03     173.466E-03    -17.7056E+06    -16.6314E+06     94.9973E+06    -572.619E+03    -118.356E-03     351.206E-03    -232.850E-03    -88.5596E-03    -118.430E-03     351.010E-03    -232.326E-03    -89.5082E-03
              85     11.9301E-03     173.219E-03    -5.37967E+06     12.2110E+06     118.162E+06    -2.41847E+06    -116.671E-03     353.806E-03    -237.134E-03    -141.376E-03    -116.755E-03     353.657E-03    -236.554E-03    -142.131E-03
              86     11.1616E-03     172.972E-03     2.47771E+06    -3.64159E+06     118.397E+06    -4.73503E+06    -120.735E-03     361.736E-03    -241.001E-03    -177.346E-03    -120.767E-03     361.472E-03    -240.407E-03    -178.030E-03
              87     10.4109E-03     172.732E-03     2.87689E+06     1.88812E+06     121.489E+06    -6.35743E+06    -129.333E-03     373.758E-03    -244.426E-03    -204.165E-03    -129.369E-03     373.481E-03    -243.825E-03    -204.906E-03
              88     9.67313E-03     172.497E-03     3.90134E+06    -2.62967E+06     120.835E+06    -7.85824E+06    -140.438E-03     387.756E-03    -247.318E-03    -224.845E-03    -140.448E-03     387.421E-03    -246.716E-03    -225.687E-03
              89     8.94790E-03     172.273E-03     6.65316E+06    -1.44889E+06     119.010E+06    -10.4080E+06    -153.000E-03     402.620E-03    -249.620E-03    -241.592E-03    -153.002E-03     402.266E-03    -249.032E-03    -242.491E-03
              90     8.23443E-03     172.064E-03     9.42705E+06    -6.92356E+06     115.115E+06    -9.58143E+06    -166.950E-03     418.261E-03    -251.312E-03    -250.064E-03    -166.913E-03     417.835E-03    -250.740E-03    -251.101E-03
              91     7.53298E-03     171.863E-03     10.7571E+06    -5.24525E+06     112.259E+06    -8.15051E+06    -179.728E-03     432.192E-03    -252.464E-03    -250.847E-03    -179.659E-03     431.727E-03    -251.910E-03    -252.074E-03
              92     6.83551E-03     171.680E-03     11.0657E+06    -2.20791E+06     107.218E+06    -9.17114E+06    -191.401E-03     444.631E-03    -253.230E-03    -245.615E-03    -191.323E-03     444.160E-03    -252.707E-03    -247.000E-03
              93     6.14482E-03     171.511E-03     12.5069E+06    -2.25975E+06     100.919E+06    -11.2935E+06    -203.391E-03     457.061E-03    -253.670E-03    -233.947E-03    -203.298E-03     456.566E-03    -253.180E-03    -235.552E-03
              94     5.45907E-03     171.361E-03     15.0304E+06    -4.28122E+06     94.1324E+06    -12.7275E+06    -214.290E-03     468.121E-03    -253.830E-03    -218.409E-03    -214.177E-03     467.614E-03    -253.375E-03    -220.181E-03
              95     4.77374E-03     171.230E-03     18.4932E+06    -4.92005E+06     87.4055E+06    -13.5257E+06    -223.136E-03     476.960E-03    -253.825E-03    -199.890E-03    -223.016E-03     476.478E-03    -253.407E-03    -201.704E-03
              96     4.08893E-03     171.113E-03     22.5057E+06    -5.50502E+06     78.8764E+06    -13.8463E+06    -230.870E-03     484.542E-03    -253.673E-03    -177.386E-03    -230.753E-03     484.083E-03    -253.303E-03    -179.221E-03
              97     3.40739E-03     171.013E-03     28.1508E+06    -5.67426E+06     69.7278E+06    -14.2837E+06    -237.494E-03     490.882E-03    -253.388E-03    -151.322E-03    -237.373E-03     490.443E-03    -253.072E-03    -153.216E-03
              98     2.72618E-03     170.929E-03     34.2416E+06    -7.23817E+06     61.3587E+06    -14.0494E+06    -242.305E-03     495.461E-03    -253.156E-03    -124.751E-03    -242.173E-03     495.048E-03    -252.888E-03    -126.641E-03
              99     2.04325E-03     170.870E-03     39.4175E+06    -7.45315E+06     55.4307E+06    -12.3292E+06    -245.926E-03     499.116E-03    -253.190E-03    -96.8544E-03    -245.798E-03     498.743E-03    -252.959E-03    -98.6431E-03
             100     1.35994E-03     170.822E-03     41.8873E+06    -8.08775E+06     49.9718E+06    -9.28622E+06    -249.348E-03     502.764E-03    -253.416E-03    -69.8014E-03    -249.236E-03     502.444E-03    -253.216E-03    -71.1879E-03
             101     673.320E-06     170.795E-03     42.6428E+06    -12.8400E+06     38.1669E+06    -7.10707E+06    -248.684E-03     505.122E-03    -256.437E-03    -42.4327E-03    -248.530E-03     504.950E-03    -256.290E-03    -43.5197E-03
             102     15.0719E-06     169.179E-03    -5.98102E+06    -27.3489E+06    -5.10251E+06    -4.33405E+06    -229.700E-03     459.584E-03    -229.885E-03    -8.87960E-03    -229.582E-03     459.606E-03    -229.862E-03    -9.60898E-03
             103    -5.84645E-06     167.771E-03    -91.0866E+06    -60.6488E+06    -87.8951E+06    -5.99731E+06    -198.921E-03     397.150E-03    -198.228E-03     3.97633E-03    -199.050E-03     397.228E-03    -198.448E-03     4.02477E-03
             104    -2.62543E-06     166.372E-03    -175.503E+06    -108.088E+06    -174.680E+06    -6.76221E+06    -182.451E-03     370.968E-03    -188.517E-03     4.43874E-03    -182.899E-03     371.015E-03    -188.979E-03     4.62213E-03
             105     2.06373E-06     165.003E-03    -253.879E+06    -154.339E+06    -251.781E+06    -8.32436E+06    -179.811E-03     360.650E-03    -180.839E-03     17.7819E-03    -180.474E-03     360.685E-03    -181.506E-03     17.3638E-03
             106    -3.20792E-06     163.651E-03    -256.140E+06    -184.455E+06    -256.513E+06    -5.32300E+06    -183.838E-03     366.247E-03    -182.409E-03     18.0082E-03    -184.444E-03     366.146E-03    -183.053E-03     17.6373E-03
             107     6.24359E-06     162.277E-03    -189.668E+06    -191.644E+06    -189.335E+06     1.61310E+06    -192.883E-03     376.279E-03    -183.396E-03     11.6982E-03    -193.248E-03     375.947E-03    -183.790E-03     11.7461E-03
             108     4.73134E-06     160.892E-03    -137.665E+06    -184.026E+06    -141.480E+06     1.31520E+06    -198.044E-03     389.421E-03    -191.377E-03     11.2215E-03    -198.235E-03     388.972E-03    -191.618E-03     11.4612E-03
             109    -5.84718E-06     159.505E-03    -131.779E+06    -188.320E+06    -131.944E+06    -1.10109E+06    -202.262E-03     411.125E-03    -208.863E-03     2.45235E-03    -202.423E-03     410.638E-03    -209.058E-03     2.79989E-03
             110    -2.66569E-06     158.043E-03    -129.142E+06    -193.166E+06    -128.025E+06    -1.00531E+06    -209.323E-03     425.326E-03    -216.004E-03    -1.47137E-03    -209.474E-03     424.812E-03    -216.176E-03    -1.29832E-03
             111     1.43149E-06     156.574E-03    -126.315E+06    -197.743E+06    -125.124E+06    -2.75542E+06    -212.554E-03     426.353E-03    -213.799E-03     10.4981E-03    -212.696E-03     425.805E-03    -213.955E-03     10.1717E-03
             112    -2.11102E-06     155.125E-03    -133.481E+06    -216.248E+06    -135.132E+06    -3.47354E+06    -212.349E-03     424.290E-03    -211.941E-03     10.3089E-03    -212.481E-03     423.674E-03    -212.110E-03     9.68060E-03
             113     3.25389E-06     153.691E-03    -138.364E+06    -227.374E+06    -138.237E+06    -372.224E+03    -215.577E-03     428.546E-03    -212.969E-03     8.09593E-03    -215.721E-03     427.884E-03    -213.130E-03     7.52728E-03
             114    -619.889E-09     152.226E-03    -142.429E+06    -232.164E+06    -142.312E+06    -938.393E+03    -222.231E-03     443.195E-03    -220.963E-03     10.5309E-03    -222.380E-03     442.519E-03    -221.132E-03     10.0455E-03
             115    -206.543E-09     150.731E-03    -148.215E+06    -237.186E+06    -148.987E+06    -670.557E+03    -226.906E-03     455.229E-03    -228.323E-03     7.54135E-03    -227.055E-03     454.543E-03    -228.510E-03     7.14315E-03
             116    -1.07658E-06     149.241E-03    -153.195E+06    -241.835E+06    -151.385E+06    -740.228E+03    -228.198E-03     460.479E-03    -232.281E-03     7.59452E-03    -228.361E-03     459.779E-03    -232.465E-03     7.29098E-03
             117    -3.52935E-06     147.724E-03    -147.249E+06    -241.432E+06    -145.995E+06     609.722E+03    -230.509E-03     462.921E-03    -232.412E-03     8.39244E-03    -230.644E-03     462.213E-03    -232.578E-03     7.96877E-03
             118     5.33696E-06     146.216E-03    -143.528E+06    -244.429E+06    -144.258E+06    -961.542E+03    -230.914E-03     457.914E-03    -227.000E-03     6.47489E-03    -231.028E-03     457.186E-03    -227.158E-03     5.88646E-03
             119    -1.62035E-06     144.742E-03    -142.973E+06    -250.869E+06    -144.345E+06    -1.02112E+06    -226.313E-03     449.748E-03    -223.435E-03    -1.05651E-03    -226.416E-03     448.982E-03    -223.586E-03    -1.16382E-03
             120     1.96805E-06     143.270E-03    -142.665E+06    -255.722E+06    -141.662E+06     17.7313E+03    -226.029E-03     452.525E-03    -226.496E-03     396.405E-06    -226.128E-03     451.724E-03    -226.627E-03     351.641E-06
             121    -3.02652E-06     141.751E-03    -145.941E+06    -261.022E+06    -145.952E+06    -406.496E+03    -230.651E-03     465.500E-03    -234.849E-03     13.3615E-03    -230.753E-03     464.687E-03    -234.989E-03     12.9402E-03
             122    -2.05892E-06     140.217E-03    -133.765E+06    -252.253E+06    -134.373E+06     2.19603E+06    -231.559E-03     466.849E-03    -235.290E-03     10.8539E-03    -231.638E-03     466.039E-03    -235.402E-03     10.3109E-03
             123     1.74292E-06     138.736E-03    -130.723E+06    -255.378E+06    -128.831E+06    -104.140E+03    -226.779E-03     449.456E-03    -222.677E-03    -1.58958E-03    -226.836E-03     448.617E-03    -222.761E-03    -1.71673E-03
             124     4.54273E-06     137.273E-03    -128.511E+06    -255.454E+06    -129.717E+06     704.761E+03    -225.419E-03     445.272E-03    -219.853E-03     2.87002E-03    -225.457E-03     444.433E-03    -219.945E-03     2.89251E-03
             125    -2.81401E-06     135.788E-03    -129.623E+06    -247.533E+06    -128.163E+06    -441.154E+03    -230.232E-03     462.259E-03    -232.027E-03     5.49495E-03    -230.289E-03     461.458E-03    -232.121E-03     5.03369E-03
             126    -1.44740E-06     134.252E-03    -139.205E+06    -256.960E+06    -138.821E+06    -2.51855E+06    -228.790E-03     463.066E-03    -234.276E-03    -1.07444E-03    -228.868E-03     462.238E-03    -234.395E-03    -918.033E-06
             127    -2.13789E-06     132.764E-03    -128.407E+06    -257.869E+06    -133.268E+06     621.566E+03    -223.801E-03     452.276E-03    -228.475E-03     6.18021E-03    -223.850E-03     451.413E-03    -228.581E-03     6.08617E-03
             128    -1.06760E-06     131.274E-03    -121.529E+06    -247.929E+06    -118.649E+06     3.53183E+06    -224.506E-03     452.727E-03    -228.221E-03     11.6306E-03    -224.556E-03     451.887E-03    -228.279E-03     10.9553E-03
             129    -1.11556E-06     129.773E-03    -126.669E+06    -241.548E+06    -122.611E+06    -220.485E+03    -225.158E-03     451.771E-03    -226.613E-03     10.1644E-03    -225.229E-03     450.977E-03    -226.692E-03     9.52019E-03
             130     1.15459E-06     128.298E-03    -130.561E+06    -258.907E+06    -133.664E+06    -5.12382E+06    -225.685E-03     450.256E-03    -224.571E-03     9.59931E-03    -225.730E-03     449.400E-03    -224.675E-03     8.79633E-03
             131     270.405E-09     126.816E-03    -120.496E+06    -262.543E+06    -121.409E+06     2.22105E+06    -226.145E-03     450.656E-03    -224.511E-03     863.095E-06    -226.147E-03     449.745E-03    -224.563E-03     700.812E-06
             132     570.162E-09     125.336E-03    -114.635E+06    -243.929E+06    -111.806E+06     4.68209E+06    -226.242E-03     452.314E-03    -226.072E-03     2.61048E-03    -226.252E-03     451.467E-03    -226.111E-03     2.65268E-03
             133    -1.21331E-06     123.829E-03    -115.165E+06    -233.245E+06    -114.765E+06    -703.158E+03    -227.009E-03     455.146E-03    -228.137E-03     7.12224E-03    -227.037E-03     454.351E-03    -228.206E-03     6.73453E-03
             134     191.229E-09     122.331E-03    -121.378E+06    -247.541E+06    -121.598E+06    -2.90682E+06    -224.201E-03     448.354E-03    -224.154E-03     5.13882E-03    -224.231E-03     447.506E-03    -224.227E-03     4.82453E-03
             135     852.069E-09     120.872E-03    -118.415E+06    -253.893E+06    -118.415E+06     824.608E+03    -224.178E-03     449.414E-03    -225.237E-03     11.5788E-03    -224.192E-03     448.531E-03    -225.289E-03     11.1159E-03
             136    -3.49395E-06     119.364E-03    -112.651E+06    -242.347E+06    -111.378E+06    -714.838E+03    -227.682E-03     458.817E-03    -231.136E-03     8.21193E-03    -227.691E-03     457.967E-03    -231.178E-03     7.57785E-03
             137     1.15756E-06     117.867E-03    -119.145E+06    -240.886E+06    -122.060E+06     2.14083E+06    -225.995E-03     452.227E-03    -226.232E-03    -1.71248E-03    -226.009E-03     451.399E-03    -226.320E-03    -1.69905E-03
             138     789.395E-09     116.402E-03    -118.055E+06    -228.712E+06    -120.424E+06     2.02330E+06    -222.880E-03     444.336E-03    -221.456E-03     23.9105E-06    -222.902E-03     443.566E-03    -221.555E-03    -60.9125E-06
             139    -789.927E-09     114.916E-03    -124.858E+06    -236.779E+06    -122.376E+06    -4.71482E+06    -225.468E-03     453.398E-03    -227.930E-03     8.69813E-03    -225.516E-03     452.609E-03    -228.018E-03     8.16341E-03
             140    -2.81724E-06     113.402E-03    -129.469E+06    -244.797E+06    -128.885E+06     2.27434E+06    -227.546E-03     456.238E-03    -228.693E-03     5.33410E-03    -227.612E-03     455.422E-03    -228.794E-03     5.25330E-03
             141     4.81964E-06     111.914E-03    -122.597E+06    -232.146E+06    -122.131E+06     1.06546E+06    -223.693E-03     444.789E-03    -221.096E-03     5.68521E-03    -223.745E-03     444.011E-03    -221.193E-03     5.57959E-03
             142    -3.06131E-06     110.460E-03    -115.352E+06    -232.668E+06    -115.126E+06    -1.01759E+06    -224.197E-03     449.464E-03    -225.267E-03     10.9659E-03    -224.212E-03     448.670E-03    -225.338E-03     10.4011E-03
             143    -317.152E-09     108.952E-03    -114.895E+06    -229.063E+06    -112.581E+06     1.69678E+06    -228.311E-03     460.173E-03    -231.862E-03     6.80813E-03    -228.345E-03     459.395E-03    -231.926E-03     6.21889E-03
             144    -1.43037E-06     107.436E-03    -121.088E+06    -234.031E+06    -120.835E+06    -3.30247E+06    -226.132E-03     452.492E-03    -226.360E-03     9.88880E-03    -226.180E-03     451.712E-03    -226.449E-03     9.26867E-03
             145     2.77403E-06     105.961E-03    -127.132E+06    -247.354E+06    -129.017E+06     29.5495E+03    -223.843E-03     445.443E-03    -221.600E-03     11.1195E-03    -223.879E-03     444.614E-03    -221.702E-03     10.7486E-03
             146    -1.01906E-06     104.507E-03    -119.538E+06    -243.038E+06    -123.942E+06     1.40296E+06    -227.402E-03     452.959E-03    -225.557E-03     3.86041E-03    -227.412E-03     452.131E-03    -225.651E-03     3.67736E-03
             147     1.78353E-06     102.995E-03    -117.297E+06    -244.008E+06    -121.033E+06    -2.77308E+06    -228.329E-03     457.783E-03    -229.455E-03    -23.3771E-06    -228.331E-03     456.942E-03    -229.536E-03    -229.140E-06
             148    -4.27560E-06     101.495E-03    -120.033E+06    -245.279E+06    -124.852E+06     847.622E+03    -222.066E-03     450.537E-03    -228.471E-03     807.286E-06    -222.076E-03     449.692E-03    -228.565E-03     632.566E-06
             149    -2.56590E-06     100.027E-03    -118.321E+06    -232.006E+06    -115.733E+06     3.81880E+06    -220.118E-03     446.841E-03    -226.723E-03     3.44342E-03    -220.151E-03     446.045E-03    -226.794E-03     3.50038E-03
             150    -170.104E-09     98.5254E-03    -122.353E+06    -228.188E+06    -118.040E+06    -1.99435E+06    -226.042E-03     454.783E-03    -228.740E-03     13.5747E-03    -226.101E-03     454.026E-03    -228.822E-03     13.1729E-03
             151    -1.11201E-06     97.0203E-03    -133.726E+06    -241.897E+06    -133.253E+06     266.623E+03    -227.861E-03     456.507E-03    -228.646E-03     10.6390E-03    -227.937E-03     455.715E-03    -228.768E-03     9.74509E-03
             152     1.14650E-06     95.5433E-03    -125.968E+06    -232.457E+06    -120.720E+06     3.37732E+06    -225.405E-03     449.035E-03    -223.630E-03     4.07912E-03    -225.467E-03     448.255E-03    -223.714E-03     3.70823E-03
             153     1.37761E-06     94.0688E-03    -124.533E+06    -235.728E+06    -121.034E+06    -4.68095E+06    -225.295E-03     449.289E-03    -223.993E-03     1.97232E-03    -225.341E-03     448.495E-03    -224.076E-03     1.84787E-03
             154    -2.08215E-06     92.5833E-03    -124.899E+06    -247.306E+06    -126.849E+06     486.401E+03    -226.261E-03     454.742E-03    -228.481E-03     2.46028E-03    -226.278E-03     453.900E-03    -228.576E-03     2.35266E-03
             155    -521.216E-09     91.0668E-03    -113.602E+06    -229.754E+06    -116.778E+06     3.15325E+06    -226.356E-03     454.703E-03    -228.347E-03     6.34046E-03    -226.360E-03     453.908E-03    -228.433E-03     6.08263E-03
             156     151.233E-09     89.5846E-03    -120.510E+06    -228.223E+06    -122.770E+06    -80.5309E+03    -224.393E-03     448.026E-03    -223.633E-03     4.28252E-03    -224.426E-03     447.252E-03    -223.741E-03     4.04169E-03
             157     1.21380E-06     88.1168E-03    -127.331E+06    -236.620E+06    -121.864E+06    -3.03096E+06    -224.213E-03     448.569E-03    -224.356E-03     9.35543E-03    -224.272E-03     447.775E-03    -224.438E-03     8.79472E-03
             158    -2.85437E-06     86.6078E-03    -120.879E+06    -241.836E+06    -119.934E+06    -1.25686E+06    -226.580E-03     455.419E-03    -228.838E-03     12.8877E-03    -226.603E-03     454.590E-03    -228.912E-03     12.1930E-03
             159    -853.467E-09     83.6468E-03    -124.197E+06    -234.179E+06    -125.659E+06    -1.64641E+06    -223.021E-03     446.372E-03    -223.351E-03     5.44267E-03    -223.054E-03     445.573E-03    -223.460E-03     5.03662E-03
             160     4.08690E-09     82.1676E-03    -121.270E+06    -234.015E+06    -118.877E+06     2.30698E+06    -226.677E-03     454.543E-03    -227.866E-03     6.48201E-03    -226.707E-03     453.733E-03    -227.946E-03     6.16883E-03
             161    -938.824E-09     80.6541E-03    -127.099E+06    -231.837E+06    -124.621E+06    -2.29064E+06    -228.411E-03     457.929E-03    -229.518E-03     5.66030E-03    -228.464E-03     457.146E-03    -229.620E-03     5.44801E-03
             162     222.969E-09     79.1571E-03    -127.115E+06    -243.957E+06    -135.124E+06    -1.47932E+06    -223.505E-03     446.974E-03    -223.469E-03     5.28853E-03    -223.521E-03     446.141E-03    -223.607E-03     4.86996E-03
             163     381.846E-09     77.6982E-03    -125.869E+06    -238.249E+06    -120.182E+06     2.13458E+06    -223.079E-03     445.941E-03    -222.863E-03     9.07602E-03    -223.121E-03     445.106E-03    -222.936E-03     8.55630E-03
             164    -718.594E-09     76.2105E-03    -128.633E+06    -241.873E+06    -128.537E+06    -2.28915E+06    -226.156E-03     455.301E-03    -229.146E-03     6.81052E-03    -226.193E-03     454.466E-03    -229.251E-03     6.55038E-03
             165    -3.30617E-06     74.6989E-03    -122.620E+06    -236.043E+06    -125.021E+06     4.98824E+06    -223.551E-03     450.957E-03    -227.406E-03     3.27413E-03    -223.568E-03     450.149E-03    -227.511E-03     3.17335E-03
             166     1.68754E-06     73.2316E-03    -109.082E+06    -217.916E+06    -111.493E+06     254.459E+03    -223.918E-03     447.279E-03    -223.360E-03     5.61172E-03    -223.918E-03     446.523E-03    -223.444E-03     5.29166E-03
             167     617.222E-09     71.7554E-03    -120.266E+06    -228.458E+06    -114.959E+06    -2.70735E+06    -228.165E-03     455.047E-03    -226.882E-03     3.28766E-03    -228.197E-03     454.253E-03    -226.951E-03     3.00497E-03
             168    -1.12064E-06     70.2399E-03    -123.011E+06    -228.981E+06    -120.340E+06     1.81866E+06    -226.759E-03     455.676E-03    -228.917E-03     7.37288E-03    -226.795E-03     454.893E-03    -229.009E-03     6.90732E-03
             169    -1.60419E-06     68.7365E-03    -117.159E+06    -221.115E+06    -119.653E+06    -1.05930E+06    -223.456E-03     448.367E-03    -224.911E-03     11.5998E-03    -223.477E-03     447.618E-03    -225.019E-03     11.0008E-03
             170     2.04799E-06     67.2815E-03    -123.171E+06    -228.404E+06    -123.155E+06     409.497E+03    -222.975E-03     445.737E-03    -222.762E-03     8.04827E-03    -223.010E-03     444.967E-03    -222.868E-03     7.61046E-03
             171    -2.30665E-06     65.7973E-03    -123.576E+06    -224.713E+06    -121.474E+06    -289.784E+03    -224.825E-03     450.699E-03    -225.875E-03     7.11620E-03    -224.867E-03     449.945E-03    -225.977E-03     6.59465E-03
             172     957.044E-09     64.2975E-03    -119.221E+06    -227.220E+06    -117.794E+06    -985.503E+03    -225.699E-03     451.786E-03    -226.087E-03     4.38087E-03    -225.719E-03     450.998E-03    -226.173E-03     4.05920E-03
             173    -263.199E-09     62.8219E-03    -111.592E+06    -224.355E+06    -113.044E+06     3.98242E+06    -224.271E-03     448.355E-03    -224.083E-03     5.03536E-03    -224.267E-03     447.562E-03    -224.161E-03     4.89682E-03
             174    -287.432E-09     61.3326E-03    -120.510E+06    -232.082E+06    -118.208E+06    -6.33019E+06    -226.041E-03     451.702E-03    -225.662E-03     7.67842E-03    -226.061E-03     450.899E-03    -225.741E-03     7.33283E-03
             175     1.26771E-06     59.8419E-03    -131.049E+06    -258.320E+06    -136.225E+06    -2.32525E+06    -228.472E-03     457.356E-03    -228.884E-03     8.32383E-03    -228.480E-03     456.470E-03    -229.001E-03     7.70539E-03
             176    -3.02445E-06     58.3378E-03    -124.859E+06    -239.479E+06    -122.267E+06     6.97329E+06    -225.677E-03     453.690E-03    -228.013E-03     4.63099E-03    -225.699E-03     452.856E-03    -228.096E-03     4.34691E-03
             177     1.35259E-06     56.8555E-03    -115.890E+06    -221.435E+06    -116.373E+06    -1.26550E+06    -223.045E-03     446.849E-03    -223.804E-03     4.17881E-03    -223.052E-03     446.069E-03    -223.897E-03     4.16851E-03
             178    -872.524E-09     55.3865E-03    -124.768E+06    -232.383E+06    -128.411E+06    -2.12538E+06    -224.860E-03     450.960E-03    -226.100E-03     7.01783E-03    -224.879E-03     450.168E-03    -226.224E-03     6.67038E-03
             179    -1.54392E-06     53.8806E-03    -123.518E+06    -238.827E+06    -125.209E+06     361.313E+03    -226.504E-03     456.133E-03    -229.629E-03     5.56109E-03    -226.516E-03     455.314E-03    -229.729E-03     5.10204E-03
             180    -653.758E-09     52.3849E-03    -114.105E+06    -229.054E+06    -113.602E+06     2.97126E+06    -226.240E-03     454.479E-03    -228.239E-03     6.32520E-03    -226.232E-03     453.669E-03    -228.309E-03     6.13487E-03
             181    -145.712E-09     50.9003E-03    -120.841E+06    -234.633E+06    -118.257E+06    -4.33033E+06    -228.206E-03     455.627E-03    -227.421E-03     8.01312E-03    -228.211E-03     454.795E-03    -227.497E-03     7.56928E-03
             182     1.93140E-06     49.3924E-03    -133.854E+06    -257.658E+06    -131.659E+06    -3.05818E+06    -230.360E-03     458.471E-03    -228.110E-03     9.34905E-03    -230.376E-03     457.566E-03    -228.201E-03     8.66612E-03
             183    -649.082E-09     47.9012E-03    -122.837E+06    -253.302E+06    -127.045E+06     3.09535E+06    -226.881E-03     454.466E-03    -227.586E-03     5.97706E-03    -226.856E-03     453.566E-03    -227.676E-03     5.67686E-03
             184    -1.83631E-06     46.4123E-03    -115.071E+06    -241.703E+06    -116.815E+06     755.238E+03    -222.793E-03     447.450E-03    -224.657E-03     2.02491E-03    -222.765E-03     446.581E-03    -224.723E-03     1.83410E-03
             185     1.51047E-06     44.9482E-03    -120.576E+06    -238.282E+06    -114.641E+06     217.316E+03    -225.652E-03     453.013E-03    -227.361E-03     7.85888E-03    -225.662E-03     452.168E-03    -227.414E-03     7.37956E-03
             186    -3.70549E-06     43.4256E-03    -124.732E+06    -233.847E+06    -125.969E+06     557.485E+03    -229.011E-03     462.015E-03    -233.004E-03     8.52473E-03    -229.033E-03     461.206E-03    -233.114E-03     8.18023E-03
             187     79.5736E-09     41.9258E-03    -126.381E+06    -230.661E+06    -130.126E+06     652.851E+03    -227.538E-03     456.488E-03    -228.950E-03     5.05878E-03    -227.564E-03     455.696E-03    -229.083E-03     4.70989E-03
             188     1.39966E-06     40.4395E-03    -123.446E+06    -232.791E+06    -117.771E+06    -687.263E+03    -226.298E-03     450.006E-03    -223.709E-03     8.00215E-03    -226.321E-03     449.192E-03    -223.781E-03     7.40953E-03
             189     742.420E-09     38.9575E-03    -119.616E+06    -234.491E+06    -116.326E+06     271.310E+03    -227.632E-03     454.192E-03    -226.560E-03     10.4009E-03    -227.636E-03     453.371E-03    -226.628E-03     9.85444E-03
             190    -1.48367E-06     37.4540E-03    -123.044E+06    -237.499E+06    -129.193E+06    -437.297E+03    -227.570E-03     456.887E-03    -229.317E-03     7.78572E-03    -227.562E-03     456.059E-03    -229.440E-03     7.41210E-03
             191    -488.829E-09     35.9616E-03    -124.623E+06    -234.562E+06    -126.532E+06     859.127E+03    -226.495E-03     453.323E-03    -226.829E-03     4.27689E-03    -226.493E-03     452.492E-03    -226.941E-03     4.02879E-03
             192     1.82634E-06     34.4839E-03    -127.041E+06    -232.279E+06    -120.611E+06     601.411E+03    -228.052E-03     455.068E-03    -227.016E-03     7.11292E-03    -228.083E-03     454.264E-03    -227.098E-03     6.67284E-03
             193    -1.77217E-06     32.9704E-03    -122.372E+06    -231.772E+06    -124.520E+06    -523.655E+03    -227.790E-03     458.725E-03    -230.935E-03     9.29298E-03    -227.803E-03     457.939E-03    -231.044E-03     8.92547E-03
             194    -2.96096E-06     31.4737E-03    -113.787E+06    -229.872E+06    -124.734E+06    -783.029E+03    -225.771E-03     454.747E-03    -228.976E-03     6.17473E-03    -225.737E-03     453.942E-03    -229.101E-03     5.69190E-03
             195     2.86250E-06     29.9938E-03    -123.053E+06    -234.983E+06    -115.144E+06    -1.15482E+06    -226.861E-03     452.042E-03    -225.181E-03     6.33876E-03    -226.872E-03     451.188E-03    -225.237E-03     5.82409E-03
             196    -429.999E-09     28.4990E-03    -122.355E+06    -241.336E+06    -117.589E+06    -1.76656E+06    -228.320E-03     455.820E-03    -227.500E-03     8.86898E-03    -228.311E-03     454.940E-03    -227.561E-03     8.54147E-03
             197    -957.698E-09     26.9996E-03    -118.311E+06    -245.459E+06    -123.155E+06     527.165E+03    -227.060E-03     455.692E-03    -228.633E-03     6.78081E-03    -227.017E-03     454.810E-03    -228.721E-03     6.38065E-03
             198    -115.293E-09     25.5074E-03    -122.686E+06    -238.206E+06    -117.656E+06     3.86549E+06    -225.785E-03     451.542E-03    -225.758E-03     6.96475E-03    -225.780E-03     450.691E-03    -225.823E-03     6.61959E-03
             199     1.10777E-06     24.0278E-03    -118.011E+06    -224.843E+06    -117.225E+06     802.975E+03    -226.482E-03     451.623E-03    -225.142E-03     6.73830E-03    -226.472E-03     450.823E-03    -225.231E-03     6.34976E-03
             200    -342.790E-09     22.5354E-03    -122.902E+06    -228.260E+06    -124.054E+06    -1.13837E+06    -225.655E-03     451.873E-03    -226.219E-03     5.71274E-03    -225.660E-03     451.077E-03    -226.330E-03     5.26521E-03
             201    -1.40204E-06     21.0458E-03    -128.496E+06    -242.463E+06    -125.851E+06    -3.35430E+06    -222.790E-03     446.601E-03    -223.811E-03     4.42071E-03    -222.806E-03     445.749E-03    -223.903E-03     4.00224E-03
             202     1.57245E-06     19.5723E-03    -118.235E+06    -239.987E+06    -119.926E+06     775.465E+03    -219.596E-03     438.397E-03    -218.800E-03     4.65343E-03    -219.572E-03     437.530E-03    -218.881E-03     4.36201E-03
             203    -745.226E-09     18.1098E-03    -114.454E+06    -232.671E+06    -113.185E+06     2.55567E+06    -216.368E-03     432.803E-03    -216.435E-03     6.12089E-03    -216.340E-03     431.961E-03    -216.498E-03     5.86302E-03
             204    -332.489E-09     16.6519E-03    -126.106E+06    -246.770E+06    -126.482E+06    -3.88106E+06    -211.807E-03     424.523E-03    -212.716E-03     3.31346E-03    -211.803E-03     423.657E-03    -212.808E-03     2.79027E-03
             205    -37.3478E-09     15.2105E-03    -131.192E+06    -250.344E+06    -131.643E+06     2.14128E+06    -205.765E-03     411.324E-03    -205.559E-03     2.55829E-03    -205.779E-03     410.458E-03    -205.664E-03     2.22656E-03
             206     594.800E-09     13.7976E-03    -114.632E+06    -230.718E+06    -112.649E+06     2.07829E+06    -200.927E-03     401.017E-03    -200.090E-03     2.00850E-03    -200.914E-03     400.189E-03    -200.153E-03     1.79321E-03
             207    -30.3376E-09     12.3845E-03    -111.257E+06    -228.523E+06    -111.522E+06    -2.91002E+06    -196.066E-03     391.299E-03    -195.234E-03     61.2669E-06    -196.045E-03     390.476E-03    -195.299E-03    -331.963E-06
             208     580.070E-09     10.9950E-03    -117.314E+06    -233.951E+06    -118.801E+06     1.84212E+06    -189.364E-03     379.307E-03    -189.943E-03    -82.2704E-06    -189.367E-03     378.494E-03    -190.028E-03    -398.532E-06
             209    -2.11081E-06     9.61678E-03    -121.096E+06    -222.978E+06    -121.437E+06     2.81779E+06    -184.243E-03     369.060E-03    -184.817E-03     684.993E-06    -184.280E-03     368.319E-03    -184.926E-03     428.586E-06
             210     2.68587E-06     8.25093E-03    -122.939E+06    -227.048E+06    -121.817E+06    -4.25363E+06    -182.948E-03     364.115E-03    -181.167E-03     2.39381E-03    -182.972E-03     363.335E-03    -181.268E-03     2.07742E-03
             211    -703.513E-09     6.89390E-03    -114.547E+06    -240.119E+06    -115.944E+06    -347.228E+03    -181.997E-03     363.426E-03    -181.429E-03     1.81195E-03    -181.956E-03     362.540E-03    -181.494E-03     1.46290E-03
             212    -587.463E-09     5.52881E-03    -100.176E+06    -231.059E+06    -97.2099E+06     2.68442E+06    -182.218E-03     366.633E-03    -184.415E-03     2.39291E-03    -182.144E-03     365.764E-03    -184.421E-03     2.09482E-03
             213    -1.53082E-06     4.15894E-03    -88.5162E+06    -231.532E+06    -89.5430E+06    -2.76208E+06    -185.714E-03     373.382E-03    -187.668E-03     2.42456E-03    -185.583E-03     372.520E-03    -187.652E-03     2.14456E-03
             214     557.285E-09     2.77669E-03    -80.3750E+06    -241.384E+06    -83.0053E+06     357.719E+03    -189.763E-03     379.187E-03    -189.424E-03     1.31279E-03    -189.564E-03     378.272E-03    -189.372E-03     1.16408E-03
             215     699.290E-09     1.38920E-03    -75.7938E+06    -242.408E+06    -72.9567E+06    -275.701E+03    -191.673E-03     382.362E-03    -190.689E-03     1.45718E-03    -191.440E-03     381.397E-03    -190.592E-03     1.44507E-03
             216     743.330E-06    -9.57567E-15    -70.7548E+06    -230.002E+06    -69.0995E+06    -3.15110E+06    -191.953E-03     383.649E-03    -191.696E-03     522.848E-06    -191.756E-03     382.676E-03    -191.605E-03     446.960E-06
             217     1.48572E-03    -9.57567E-15    -67.4395E+06    -213.492E+06    -63.0450E+06    -231.724E+03    -192.290E-03     384.158E-03    -191.868E-03     1.08979E-03    -192.157E-03     383.215E-03    -191.776E-03     945.894E-06
             218     2.22762E-03    -9.57567E-15    -66.2258E+06    -202.081E+06    -59.9240E+06     1.15450E+06    -192.769E-03     384.841E-03    -192.072E-03     2.33155E-03    -192.655E-03     383.951E-03    -191.983E-03     2.13356E-03
             219     2.96959E-03    -9.57567E-15    -64.3204E+06    -187.571E+06    -57.1386E+06    -1.24039E+06    -193.289E-03     385.587E-03    -192.298E-03     2.95574E-03    -193.211E-03     384.784E-03    -192.219E-03     2.62607E-03
             220     3.71115E-03    -9.57567E-15    -62.2485E+06    -168.917E+06    -52.5131E+06     1.01121E+06    -194.070E-03     386.639E-03    -192.569E-03     3.97270E-03    -194.037E-03     385.940E-03    -192.497E-03     3.63385E-03
             221     4.45131E-03    -9.57567E-15    -61.0180E+06    -146.814E+06    -47.7207E+06     463.797E+03    -195.602E-03     388.543E-03    -192.941E-03     5.33933E-03    -195.614E-03     387.956E-03    -192.878E-03     4.97793E-03
             222     5.19074E-03    -9.57567E-15    -58.9725E+06    -123.092E+06    -46.5854E+06    -502.121E+03    -197.281E-03     390.698E-03    -193.417E-03     5.97550E-03    -197.321E-03     390.227E-03    -193.386E-03     5.48042E-03
             223     5.92839E-03    -9.57567E-15    -55.9220E+06    -95.2493E+06    -44.5051E+06    -2.56898E+06    -198.774E-03     392.741E-03    -193.967E-03     6.86973E-03    -198.842E-03     392.402E-03    -193.970E-03     6.24808E-03
             224     6.66567E-03    -9.57567E-15    -48.7823E+06    -58.0944E+06    -39.0999E+06    -8.53559E+06    -201.376E-03     395.987E-03    -194.611E-03     7.81516E-03    -201.475E-03     395.820E-03    -194.651E-03     7.09946E-03
             225     7.40084E-03    -9.57567E-15    -37.9616E+06    -19.5122E+06    -30.6586E+06    -10.5177E+06    -205.472E-03     400.931E-03    -195.459E-03     8.42182E-03    -205.589E-03     400.933E-03    -195.529E-03     7.51788E-03
             226     8.13062E-03    -9.57567E-15    -30.8361E+06     4.37769E+06    -14.6465E+06    -1.99495E+06    -210.349E-03     406.966E-03    -196.618E-03     10.2716E-03    -210.491E-03     407.058E-03    -196.652E-03     9.34677E-03
             227     8.85750E-03    -9.57567E-15    -29.5450E+06     15.4862E+06     4.92567E+06     3.09853E+06    -215.865E-03     413.931E-03    -198.065E-03     11.6942E-03    -216.051E-03     414.053E-03    -198.020E-03     10.6601E-03
             228     9.58116E-03    -9.57567E-15    -26.8137E+06     27.2875E+06     19.6016E+06    -3.19644E+06    -222.804E-03     422.553E-03    -199.748E-03     13.3288E-03    -223.022E-03     422.716E-03    -199.651E-03     12.0210E-03
             229     10.2972E-03    -9.57567E-15    -21.6356E+06     34.6867E+06     32.0434E+06    -230.749E+03    -231.310E-03     433.041E-03    -201.732E-03     14.9812E-03    -231.545E-03     433.232E-03    -201.590E-03     13.1613E-03
             230     11.0089E-03    -9.57567E-15    -18.3503E+06     42.2032E+06     53.8840E+06    -45.7923E+03    -242.997E-03     447.159E-03    -204.161E-03     14.6686E-03    -243.272E-03     447.365E-03    -203.926E-03     12.3065E-03
             231     11.7147E-03    -9.57567E-15    -13.1457E+06     58.6260E+06     82.6157E+06    -2.33301E+06    -263.018E-03     470.285E-03    -207.267E-03     14.9564E-03    -263.342E-03     470.540E-03    -206.920E-03     12.1415E-03
             232     12.3958E-03    -9.57567E-15    -7.35956E+06     67.8960E+06     95.9219E+06    -862.110E+03    -293.302E-03     504.651E-03    -211.350E-03     20.9567E-03    -293.673E-03     504.975E-03    -210.958E-03     16.8283E-03
             233     13.0537E-03    -9.57567E-15    -10.5275E+06     66.9851E+06     90.1942E+06     1.13763E+06    -339.222E-03     556.073E-03    -216.851E-03     37.8951E-03    -339.716E-03     556.541E-03    -216.482E-03     31.6210E-03
             234     13.6745E-03    -9.57567E-15    -16.6882E+06     70.2361E+06     83.1972E+06     2.00867E+06    -410.905E-03     635.348E-03    -224.443E-03     101.199E-03    -412.345E-03     636.774E-03    -224.105E-03     86.6167E-03
             235     14.3085E-03     1.98920E-03    -9.88412E+06     78.7726E+06     82.9919E+06    -1.63698E+06    -398.793E-03     626.166E-03    -227.373E-03     155.928E-03    -401.070E-03     628.452E-03    -227.058E-03     136.676E-03
             236     14.3461E-03     3.65112E-03     1.74269E+06     84.1858E+06     87.5062E+06    -2.48359E+06    -325.322E-03     550.728E-03    -225.405E-03     145.914E-03    -327.277E-03     552.725E-03    -225.093E-03     130.729E-03
             237     14.3583E-03     5.25345E-03     4.50264E+06     84.3578E+06     91.8046E+06    -436.762E+03    -299.298E-03     524.072E-03    -224.773E-03     127.184E-03    -300.836E-03     525.655E-03    -224.443E-03     114.408E-03
             238     14.3648E-03     6.82705E-03     635.847E+03     76.2930E+06     90.7160E+06    -524.893E+03    -284.231E-03     508.851E-03    -224.620E-03     115.567E-03    -285.602E-03     510.230E-03    -224.278E-03     103.909E-03
             239     14.3678E-03     8.38701E-03    -580.250E+03     68.5358E+06     89.4037E+06    -1.68304E+06    -269.181E-03     493.878E-03    -224.697E-03     108.247E-03    -270.475E-03     495.153E-03    -224.348E-03     97.1178E-03
             240     14.3711E-03     9.91555E-03     170.925E+03     68.3667E+06     90.5638E+06    -1.67260E+06    -257.769E-03     482.604E-03    -224.835E-03     103.903E-03    -259.057E-03     483.871E-03    -224.481E-03     92.8538E-03
             241     14.3693E-03     11.4396E-03    -3.29206E+06     67.2908E+06     89.1327E+06    -2.32072E+06    -251.902E-03     476.891E-03    -224.989E-03     98.9679E-03    -253.125E-03     478.083E-03    -224.636E-03     88.4384E-03
             242     14.3687E-03     12.9638E-03    -4.48227E+06     65.2549E+06     86.3976E+06     1.63217E+06    -246.621E-03     471.898E-03    -225.277E-03     95.9850E-03    -247.711E-03     472.953E-03    -224.933E-03     86.6472E-03
             243     14.3625E-03     14.4731E-03    -2.43972E+06     64.8443E+06     84.1643E+06     1.32574E+06    -237.010E-03     462.620E-03    -225.610E-03     94.3910E-03    -238.039E-03     463.627E-03    -225.280E-03     85.6189E-03
             244     14.3696E-03     15.9541E-03     189.414E+03     65.3530E+06     85.7525E+06    -1.23830E+06    -229.711E-03     455.458E-03    -225.747E-03     94.7430E-03    -230.767E-03     456.498E-03    -225.414E-03     85.8285E-03
             245     14.3644E-03     17.4521E-03    -3.31588E+06     61.2820E+06     83.1295E+06    -1.91748E+06    -229.265E-03     455.022E-03    -225.757E-03     92.7775E-03    -230.308E-03     456.030E-03    -225.426E-03     83.9306E-03
             246     14.3674E-03     18.9422E-03    -2.13238E+06     60.1315E+06     82.6801E+06    -1.63156E+06    -226.415E-03     452.228E-03    -225.813E-03     93.2890E-03    -227.387E-03     453.166E-03    -225.484E-03     85.0820E-03
             247     14.3676E-03     20.4242E-03     2.13193E+06     65.2181E+06     87.1863E+06     3.03295E+06    -224.067E-03     449.872E-03    -225.805E-03     95.6732E-03    -225.018E-03     450.810E-03    -225.467E-03     87.8449E-03
             248     14.3689E-03     21.9123E-03    -6.17487E+06     59.2571E+06     81.8149E+06     383.106E+03    -227.711E-03     453.553E-03    -225.842E-03     89.2414E-03    -228.675E-03     454.468E-03    -225.510E-03     81.0482E-03
             249     14.3579E-03     23.3954E-03    -6.44065E+06     59.2156E+06     80.0792E+06     201.704E+03    -226.411E-03     452.377E-03    -225.966E-03     83.6552E-03    -227.306E-03     453.226E-03    -225.642E-03     75.8105E-03
             250     14.3727E-03     24.8753E-03     1.27745E+06     67.3279E+06     87.4340E+06     205.407E+03    -221.869E-03     447.749E-03    -225.880E-03     86.0713E-03    -222.724E-03     448.595E-03    -225.543E-03     78.6802E-03
             251     14.3665E-03     26.3608E-03    -915.182E+03     65.9180E+06     88.8332E+06    -1.67890E+06    -225.250E-03     450.994E-03    -225.743E-03     87.7112E-03    -226.184E-03     451.901E-03    -225.394E-03     79.7224E-03
             252     14.3676E-03     27.8646E-03    -74.1645E+03     68.3812E+06     88.4508E+06     2.41996E+06    -226.822E-03     452.589E-03    -225.768E-03     95.2093E-03    -227.857E-03     453.611E-03    -225.424E-03     86.8111E-03
             253     14.3682E-03     29.3453E-03    -2.52173E+06     67.3985E+06     84.2780E+06    -1.57005E+06    -224.439E-03     450.247E-03    -225.807E-03     98.0107E-03    -225.558E-03     451.352E-03    -225.480E-03     89.1441E-03
             254     14.3662E-03     30.8283E-03    -4.91436E+06     67.9614E+06     83.5584E+06    -1.68224E+06    -225.144E-03     450.945E-03    -225.800E-03     101.475E-03    -226.358E-03     452.141E-03    -225.474E-03     92.1590E-03
             255     14.3691E-03     32.3257E-03     988.643E+03     74.8807E+06     88.9153E+06     3.31334E+06    -224.865E-03     450.640E-03    -225.775E-03     107.886E-03    -226.095E-03     451.882E-03    -225.441E-03     98.7896E-03
             256     14.3683E-03     33.8078E-03    -2.34847E+06     73.2834E+06     85.6156E+06    -626.945E+03    -222.913E-03     448.773E-03    -225.860E-03     102.271E-03    -224.101E-03     449.965E-03    -225.535E-03     93.2602E-03
             257     14.3640E-03     35.2709E-03    -5.45003E+06     72.0486E+06     84.5360E+06    -521.472E+03    -223.909E-03     449.808E-03    -225.898E-03     97.2040E-03    -225.032E-03     450.921E-03    -225.572E-03     88.4728E-03
             258     14.3695E-03     36.7619E-03    -1.37493E+06     76.0539E+06     87.9353E+06     1.77511E+06    -226.483E-03     452.277E-03    -225.794E-03     94.8697E-03    -227.516E-03     453.321E-03    -225.463E-03     86.5590E-03
             259     14.3651E-03     38.2580E-03    -1.39917E+06     76.6274E+06     89.1983E+06    -823.667E+03    -226.658E-03     452.429E-03    -225.771E-03     100.154E-03    -227.782E-03     453.562E-03    -225.434E-03     91.3910E-03
             260     14.3701E-03     39.7453E-03    -3.49487E+06     72.5231E+06     87.1995E+06     244.818E+03    -225.931E-03     451.690E-03    -225.759E-03     107.902E-03    -227.140E-03     452.891E-03    -225.423E-03     98.9885E-03
             261     14.3669E-03     41.2388E-03    -3.32749E+06     72.8476E+06     88.4323E+06     1.48483E+06    -225.667E-03     451.503E-03    -225.836E-03     102.047E-03    -226.806E-03     452.633E-03    -225.495E-03     93.4321E-03
             262     14.3642E-03     42.7018E-03     282.837E+03     76.1892E+06     89.9639E+06     113.958E+03    -223.349E-03     449.243E-03    -225.894E-03     95.4117E-03    -224.433E-03     450.339E-03    -225.555E-03     86.7854E-03
             263     14.3721E-03     44.1846E-03    -1.62166E+06     73.4185E+06     86.8344E+06    -1.99481E+06    -225.139E-03     450.901E-03    -225.762E-03     96.3715E-03    -226.238E-03     452.004E-03    -225.432E-03     87.5603E-03
             264     14.3634E-03     45.6922E-03    -2.11026E+06     72.2762E+06     90.1564E+06    -2.06422E+06    -227.791E-03     453.627E-03    -225.836E-03     95.9661E-03    -228.940E-03     454.764E-03    -225.487E-03     86.7427E-03
             265     14.3658E-03     47.1657E-03    -3.86739E+06     69.1427E+06     87.2805E+06     669.318E+03    -225.270E-03     451.215E-03    -225.946E-03     99.3950E-03    -226.436E-03     452.360E-03    -225.604E-03     90.3237E-03
             266     14.3671E-03     48.6531E-03    -2.54973E+06     68.9132E+06     85.9697E+06     976.297E+03    -226.726E-03     452.552E-03    -225.826E-03     102.392E-03    -227.847E-03     453.660E-03    -225.492E-03     93.6940E-03
             267     14.3668E-03     50.1560E-03    -1.37089E+06     69.4961E+06     85.8522E+06    -524.456E+03    -226.850E-03     452.600E-03    -225.749E-03     104.607E-03    -227.995E-03     453.737E-03    -225.419E-03     95.8109E-03
             268     14.3702E-03     51.6289E-03    -3.67958E+06     71.1961E+06     86.0061E+06    -1.01488E+06    -225.565E-03     451.332E-03    -225.767E-03     102.944E-03    -226.743E-03     452.500E-03    -225.435E-03     93.9545E-03
             269     14.3643E-03     53.1178E-03    -1.24105E+06     74.7799E+06     89.6504E+06    -219.511E+03    -227.542E-03     453.351E-03    -225.809E-03     98.0339E-03    -228.660E-03     454.470E-03    -225.467E-03     89.1749E-03
             270     14.3676E-03     54.6051E-03    -3.38273E+06     72.5091E+06     88.3178E+06     138.148E+03    -227.816E-03     453.590E-03    -225.773E-03     102.155E-03    -228.972E-03     454.735E-03    -225.432E-03     93.2743E-03
             271     14.3690E-03     56.0998E-03    -1.22526E+06     74.1691E+06     90.0731E+06     252.024E+03    -227.408E-03     453.150E-03    -225.742E-03     101.125E-03    -228.557E-03     454.297E-03    -225.397E-03     92.2632E-03
             272     14.3653E-03     57.5849E-03    -1.36859E+06     75.0723E+06     89.8251E+06     1.27854E+06    -227.444E-03     453.216E-03    -225.771E-03     99.7760E-03    -228.540E-03     454.313E-03    -225.429E-03     91.2406E-03
             273     14.3693E-03     59.0668E-03    -3.42807E+06     75.0508E+06     86.5628E+06     1.50551E+06    -228.928E-03     454.596E-03    -225.668E-03     101.608E-03    -230.046E-03     455.717E-03    -225.339E-03     92.9396E-03
             274     14.3681E-03     60.5729E-03    -2.08168E+06     76.4723E+06     87.4474E+06    -1.19268E+06    -229.133E-03     454.821E-03    -225.688E-03     98.6375E-03    -230.289E-03     455.989E-03    -225.359E-03     89.4614E-03
             275     14.3646E-03     62.0521E-03    -1.99987E+06     76.5722E+06     90.2383E+06    -660.282E+03    -226.834E-03     452.659E-03    -225.825E-03     101.433E-03    -228.039E-03     453.867E-03    -225.481E-03     92.1892E-03
             276     14.3694E-03     63.5410E-03    -2.24624E+06     76.1235E+06     89.2749E+06     307.045E+03    -225.591E-03     451.365E-03    -225.773E-03     103.995E-03    -226.802E-03     452.578E-03    -225.434E-03     94.8833E-03
             277     14.3681E-03     65.0312E-03    -1.30128E+06     76.9814E+06     87.2506E+06     766.425E+03    -226.602E-03     452.331E-03    -225.729E-03     103.610E-03    -227.817E-03     453.562E-03    -225.403E-03     94.3920E-03
             278     14.3663E-03     66.5152E-03    -2.86419E+06     75.4821E+06     86.2327E+06     65.9246E+03    -227.726E-03     453.521E-03    -225.794E-03     100.813E-03    -228.895E-03     454.697E-03    -225.468E-03     91.7855E-03
             279     14.3657E-03     68.0019E-03    -2.99982E+06     75.0518E+06     87.5185E+06    -39.6615E+03    -226.898E-03     452.730E-03    -225.832E-03     101.626E-03    -228.053E-03     453.887E-03    -225.499E-03     92.7086E-03
             280     14.3682E-03     69.4952E-03    -1.28630E+06     76.9601E+06     90.2012E+06     1.13515E+06    -227.503E-03     453.282E-03    -225.779E-03     103.024E-03    -228.677E-03     454.462E-03    -225.437E-03     93.9938E-03
             281     14.3665E-03     70.9739E-03    -2.78785E+06     75.7820E+06     90.3241E+06    -1.53603E+06    -229.726E-03     455.436E-03    -225.709E-03     94.0557E-03    -230.794E-03     456.500E-03    -225.364E-03     85.3557E-03
             282     14.3676E-03     72.4637E-03    -2.12591E+06     75.8338E+06     87.6442E+06    -1.27804E+06    -228.958E-03     454.637E-03    -225.680E-03     88.5036E-03    -229.912E-03     455.599E-03    -225.348E-03     80.4324E-03
             283     14.3687E-03     73.9604E-03    -2.23155E+06     75.9804E+06     86.4436E+06     180.775E+03    -227.413E-03     453.080E-03    -225.666E-03     92.5088E-03    -228.406E-03     454.084E-03    -225.341E-03     84.4023E-03
             284     14.3684E-03     75.4481E-03    -2.15956E+06     76.4275E+06     87.0062E+06    -276.808E+03    -227.737E-03     453.411E-03    -225.674E-03     94.8920E-03    -228.815E-03     454.500E-03    -225.347E-03     86.1901E-03
             285     14.3672E-03     76.9407E-03     1.12333E+06     79.7083E+06     91.8429E+06     2.57959E+06    -227.311E-03     453.025E-03    -225.715E-03     100.086E-03    -228.449E-03     454.185E-03    -225.373E-03     91.2017E-03
             286     14.3695E-03     78.4368E-03    -6.44916E+06     72.4746E+06     85.4309E+06    -144.106E+03    -228.509E-03     454.309E-03    -225.800E-03     104.273E-03    -229.723E-03     455.510E-03    -225.469E-03     95.1394E-03
             287     14.3594E-03     79.9275E-03    -10.0793E+06     68.5410E+06     80.0098E+06    -522.045E+03    -230.281E-03     456.192E-03    -225.911E-03     106.661E-03    -231.500E-03     457.386E-03    -225.596E-03     97.6003E-03
             288     14.3680E-03     81.4161E-03     2.20172E+06     80.2507E+06     91.1119E+06     3.40961E+06    -227.042E-03     452.895E-03    -225.853E-03     107.661E-03    -228.190E-03     454.072E-03    -225.517E-03     99.0762E-03
             289     14.3702E-03     82.8945E-03     3.43307E+06     82.0286E+06     93.7219E+06    -1.88704E+06    -226.959E-03     452.608E-03    -225.649E-03     102.585E-03    -228.103E-03     453.784E-03    -225.304E-03     93.6570E-03
             290     14.3686E-03     84.3870E-03    -1.73913E+06     76.0099E+06     91.5470E+06    -1.36500E+06    -230.151E-03     455.772E-03    -225.621E-03     98.9027E-03    -231.309E-03     456.928E-03    -225.271E-03     89.7464E-03
             291     14.3664E-03     85.8890E-03    -4.76206E+06     73.1159E+06     90.5298E+06     995.095E+03    -228.043E-03     453.823E-03    -225.780E-03     102.105E-03    -229.232E-03     454.992E-03    -225.426E-03     93.1087E-03
             292     714.306E-06     86.6325E-03    -117.569E+06    -226.240E+06    -116.566E+06     751.312E+03    -225.271E-03     452.881E-03    -227.610E-03     14.3540E-03    -225.327E-03     452.103E-03    -227.695E-03     13.5574E-03
             293     1.43535E-03     86.6466E-03    -113.234E+06    -204.716E+06    -105.402E+06     1.58314E+06    -224.337E-03     450.310E-03    -225.973E-03     21.1252E-03    -224.459E-03     449.615E-03    -226.039E-03     19.9163E-03
             294     2.15493E-03     86.6840E-03    -112.651E+06    -197.092E+06    -95.6711E+06    -2.17584E+06    -225.781E-03     451.358E-03    -225.577E-03     29.5373E-03    -225.960E-03     450.716E-03    -225.606E-03     27.6887E-03
             295     2.87159E-03     86.7369E-03    -110.498E+06    -188.034E+06    -85.1553E+06    -3.08872E+06    -226.839E-03     452.561E-03    -225.723E-03     37.9992E-03    -227.081E-03     451.991E-03    -225.716E-03     35.4367E-03
             296     3.58953E-03     86.8014E-03    -103.002E+06    -172.988E+06    -68.4168E+06    -1.74285E+06    -226.949E-03     452.881E-03    -225.932E-03     48.0981E-03    -227.253E-03     452.403E-03    -225.874E-03     44.9539E-03
             297     4.30723E-03     86.8781E-03    -92.5505E+06    -144.522E+06    -49.0767E+06     922.965E+03    -227.079E-03     453.121E-03    -226.043E-03     59.3735E-03    -227.459E-03     452.802E-03    -225.944E-03     55.7935E-03
             298     5.02493E-03     86.9705E-03    -82.2842E+06    -113.027E+06    -28.8133E+06     1.21667E+06    -226.510E-03     452.560E-03    -226.049E-03     69.7722E-03    -226.983E-03     452.423E-03    -225.910E-03     65.6366E-03
             299     5.74578E-03     87.0687E-03    -76.7443E+06    -94.3113E+06    -14.6192E+06    -1.90652E+06    -226.103E-03     452.057E-03    -225.953E-03     77.0735E-03    -226.660E-03     452.048E-03    -225.778E-03     72.3983E-03
             300     6.46531E-03     87.1866E-03    -73.0112E+06    -75.7614E+06    -3.97073E+06    -3.77916E+06    -226.735E-03     452.579E-03    -225.844E-03     84.8775E-03    -227.388E-03     452.716E-03    -225.648E-03     79.6629E-03
             301     7.18245E-03     87.3141E-03    -66.2547E+06    -48.3193E+06     8.00308E+06    -3.32977E+06    -227.435E-03     453.212E-03    -225.777E-03     93.1290E-03    -228.198E-03     453.545E-03    -225.571E-03     87.3576E-03
             302     7.90122E-03     87.4485E-03    -58.9535E+06    -18.0512E+06     22.1215E+06    -1.26725E+06    -227.912E-03     453.662E-03    -225.750E-03     99.9342E-03    -228.808E-03     454.221E-03    -225.528E-03     93.4917E-03
             303     8.61961E-03     87.5901E-03    -48.9681E+06     8.98229E+06     36.8112E+06    -1.80396E+06    -227.739E-03     453.462E-03    -225.723E-03     105.772E-03    -228.770E-03     454.245E-03    -225.481E-03     98.5072E-03
             304     9.33792E-03     87.7428E-03    -38.2336E+06     26.0569E+06     48.4286E+06    -148.394E+03    -227.619E-03     453.287E-03    -225.668E-03     112.017E-03    -228.775E-03     454.259E-03    -225.408E-03     103.972E-03
             305     10.0593E-03     87.8967E-03    -30.7840E+06     31.7424E+06     57.2657E+06     3.24392E+06    -228.745E-03     454.385E-03    -225.639E-03     118.508E-03    -230.041E-03     455.518E-03    -225.354E-03     109.617E-03
             306     10.7784E-03     88.0625E-03    -24.7079E+06     45.6191E+06     71.2035E+06     3.00514E+06    -229.584E-03     455.271E-03    -225.687E-03     120.909E-03    -231.018E-03     456.573E-03    -225.361E-03     111.192E-03
             307     11.4942E-03     88.2297E-03    -20.4821E+06     54.9494E+06     81.3824E+06     955.239E+03    -230.045E-03     455.815E-03    -225.770E-03     120.340E-03    -231.570E-03     457.226E-03    -225.413E-03     109.985E-03
             308     12.2129E-03     88.3999E-03    -17.0367E+06     55.9151E+06     84.0566E+06     1.28701E+06    -230.593E-03     456.454E-03    -225.861E-03     119.765E-03    -232.138E-03     457.893E-03    -225.497E-03     109.135E-03
             309     12.9289E-03     88.5638E-03    -10.9131E+06     62.8177E+06     87.3162E+06      802.43E+03    -229.246E-03     455.174E-03    -225.927E-03     114.432E-03    -230.754E-03     456.612E-03    -225.566E-03     103.656E-03
             310     13.6457E-03     88.7158E-03    -5.43784E+06     69.1722E+06     87.4783E+06    -1.84189E+06    -226.830E-03     452.734E-03    -225.903E-03     102.857E-03    -228.135E-03     454.011E-03    -225.559E-03     92.8736E-03
             311     720.416E-06     88.1149E-03    -125.101E+06    -228.044E+06    -121.783E+06    -2.77421E+06    -225.142E-03     449.722E-03    -224.580E-03     13.1300E-03    -225.225E-03     448.952E-03    -224.677E-03     12.3718E-03
             312     1.43875E-03     88.1334E-03    -119.780E+06    -211.240E+06    -113.356E+06     765.421E+03    -226.760E-03     451.949E-03    -225.189E-03     21.8244E-03    -226.895E-03     451.243E-03    -225.276E-03     20.5914E-03
             313     2.15354E-03     88.1768E-03    -113.665E+06    -194.823E+06    -93.4784E+06     4.45450E+06    -226.981E-03     452.762E-03    -225.781E-03     31.2645E-03    -227.172E-03     452.131E-03    -225.801E-03     29.5571E-03
             314     2.87105E-03     88.2255E-03    -107.693E+06    -182.049E+06    -77.5666E+06    -168.904E+03    -226.224E-03     452.214E-03    -225.989E-03     40.7378E-03    -226.482E-03     451.668E-03    -225.957E-03     38.1527E-03
             315     3.58978E-03     88.2896E-03    -100.924E+06    -170.183E+06    -64.6758E+06    -2.86346E+06    -225.866E-03     451.819E-03    -225.952E-03     50.5062E-03    -226.177E-03     451.354E-03    -225.882E-03     47.2942E-03
             316     4.30885E-03     88.3665E-03    -93.0033E+06    -146.216E+06    -49.4884E+06    -395.757E+03    -225.877E-03     451.726E-03    -225.848E-03     59.8701E-03    -226.245E-03     451.388E-03    -225.749E-03     56.4698E-03
             317     5.02924E-03     88.4564E-03    -85.9302E+06    -118.805E+06    -34.5899E+06     339.345E+03    -226.516E-03     452.292E-03    -225.775E-03     68.4371E-03    -226.976E-03     452.125E-03    -225.651E-03     64.4358E-03
             318     5.74520E-03     88.5596E-03    -78.7736E+06    -94.6029E+06    -15.3619E+06     2.77165E+06    -227.072E-03     452.862E-03    -225.790E-03     76.2871E-03    -227.630E-03     452.848E-03    -225.615E-03     71.7215E-03
             319     6.46188E-03     88.6728E-03    -73.8802E+06    -70.6335E+06     -45.626E+03     2.13340E+06    -227.039E-03     452.828E-03    -225.789E-03     85.1341E-03    -227.722E-03     452.998E-03    -225.579E-03     79.8760E-03
             320     7.18394E-03     88.7991E-03    -70.1437E+06    -44.8780E+06     10.7207E+06    -1.39802E+06    -226.918E-03     452.648E-03    -225.729E-03     91.7493E-03    -227.723E-03     453.013E-03    -225.509E-03     85.8059E-03
             321     7.90361E-03     88.9367E-03    -61.7577E+06    -13.0901E+06     24.4549E+06    -4.31192E+06    -226.944E-03     452.597E-03    -225.652E-03     97.5486E-03    -227.863E-03     453.179E-03    -225.422E-03     91.0012E-03
             322     8.62141E-03     89.0805E-03    -53.4836E+06     9.75030E+06     35.7987E+06    -6.83020E+06    -227.209E-03     452.791E-03    -225.582E-03     103.255E-03    -228.267E-03     453.590E-03    -225.340E-03     95.7915E-03
             323     9.34281E-03     89.2243E-03    -46.4364E+06     18.8781E+06     42.7716E+06    -5.48093E+06    -228.146E-03     453.699E-03    -225.553E-03     107.777E-03    -229.305E-03     454.636E-03    -225.299E-03     99.6061E-03
             324     10.0608E-03     89.3873E-03    -37.7814E+06     24.8495E+06     49.7413E+06    -3.04844E+06    -229.522E-03     455.121E-03    -225.599E-03     111.944E-03    -230.771E-03     456.179E-03    -225.331E-03     103.077E-03
             325     10.7758E-03     89.5540E-03    -28.4170E+06     42.4705E+06     64.6056E+06     72.6106E+03    -229.860E-03     455.572E-03    -225.712E-03     114.589E-03    -231.229E-03     456.803E-03    -225.409E-03     105.002E-03
             326     11.4938E-03     89.7209E-03    -19.7058E+06     56.3616E+06     78.5705E+06     2.95649E+06    -229.904E-03     455.727E-03    -225.823E-03     117.655E-03    -231.363E-03     457.089E-03    -225.484E-03     107.594E-03
             327     12.2099E-03     89.8898E-03    -14.6781E+06     57.3226E+06     83.3603E+06     1.34326E+06    -230.185E-03     456.096E-03    -225.911E-03     118.147E-03    -231.706E-03     457.527E-03    -225.556E-03     107.516E-03
             328     12.9278E-03     90.0566E-03    -9.22313E+06     65.7194E+06     87.1188E+06     349.942E+03    -228.234E-03     454.183E-03    -225.949E-03     110.367E-03    -229.750E-03     455.647E-03    -225.596E-03     99.3019E-03
             329     13.6492E-03     90.1990E-03    -3.34684E+06     70.6258E+06     88.0214E+06     579.443E+03    -227.016E-03     452.934E-03    -225.918E-03     102.082E-03    -228.310E-03     454.212E-03    -225.576E-03     92.1040E-03
             330     721.431E-06     89.5958E-03    -120.365E+06    -220.967E+06    -118.224E+06    -757.706E+03    -225.681E-03     449.980E-03    -224.298E-03     10.5849E-03    -225.753E-03     449.225E-03    -224.394E-03     10.0110E-03
             331     1.43527E-03     89.6302E-03    -123.263E+06    -214.535E+06    -114.346E+06    -2.37011E+06    -226.524E-03     451.780E-03    -225.256E-03     21.2577E-03    -226.670E-03     451.064E-03    -225.337E-03     19.9829E-03
             332     2.15404E-03     89.6620E-03    -116.525E+06    -201.973E+06    -101.240E+06     301.612E+03    -225.726E-03     451.295E-03    -225.569E-03     31.8748E-03    -225.916E-03     450.649E-03    -225.613E-03     30.0456E-03
             333     2.87340E-03     89.7162E-03    -104.957E+06    -181.321E+06    -78.9262E+06     1.26670E+06    -225.653E-03     451.234E-03    -225.581E-03     42.1110E-03    -225.899E-03     450.693E-03    -225.560E-03     39.5427E-03
             334     3.59126E-03     89.7755E-03    -99.6412E+06    -165.999E+06    -62.7538E+06    -1.05548E+06    -226.301E-03     451.907E-03    -225.606E-03     50.8492E-03    -226.611E-03     451.456E-03    -225.534E-03     47.7258E-03
             335     4.31010E-03     89.8541E-03    -93.1202E+06    -146.105E+06    -47.3816E+06    -1.02144E+06    -226.680E-03     452.355E-03    -225.675E-03     58.7905E-03    -227.051E-03     452.014E-03    -225.565E-03     55.3089E-03
             336     5.02674E-03     89.9437E-03    -87.2115E+06    -122.987E+06    -32.1033E+06     776.983E+03    -226.672E-03     452.391E-03    -225.719E-03     67.3018E-03    -227.133E-03     452.199E-03    -225.574E-03     63.2770E-03
             337     5.74672E-03     90.0494E-03    -79.5623E+06    -96.9964E+06    -15.2271E+06     3.03999E+06    -226.756E-03     452.483E-03    -225.727E-03     75.5767E-03    -227.322E-03     452.466E-03    -225.547E-03     70.9037E-03
             338     6.46754E-03     90.1589E-03    -71.2166E+06    -69.5608E+06     1.29120E+06     3.28906E+06    -227.489E-03     453.228E-03    -225.739E-03     84.6450E-03    -228.170E-03     453.406E-03    -225.529E-03     79.2775E-03
             339     7.18149E-03     90.2913E-03    -60.6540E+06    -39.3807E+06     16.9009E+06     2.79131E+06    -227.823E-03     453.585E-03    -225.763E-03     91.4198E-03    -228.616E-03     453.975E-03    -225.533E-03     85.3328E-03
             340     7.89940E-03     90.4187E-03    -52.7828E+06    -5.95673E+06     30.4027E+06     1.62551E+06    -227.423E-03     453.174E-03    -225.751E-03     96.0382E-03    -228.336E-03     453.791E-03    -225.514E-03     89.3034E-03
             341     8.62201E-03     90.5667E-03    -49.6116E+06     14.4699E+06     39.2088E+06    -1.27499E+06    -228.062E-03     453.803E-03    -225.740E-03     100.056E-03    -229.092E-03     454.594E-03    -225.493E-03     92.6669E-03
             342     9.33670E-03     90.7148E-03    -45.0554E+06     21.1150E+06     46.2768E+06    -4.73781E+06    -229.194E-03     454.989E-03    -225.795E-03     105.112E-03    -230.322E-03     455.898E-03    -225.529E-03     97.0442E-03
             343     10.0517E-03     90.8781E-03    -39.2327E+06     24.1588E+06     53.0407E+06    -7.14278E+06    -229.234E-03     455.097E-03    -225.863E-03     113.103E-03    -230.475E-03     456.130E-03    -225.576E-03     104.390E-03
             344     10.7718E-03     91.0411E-03    -31.9839E+06     33.8840E+06     61.0024E+06    -5.61174E+06    -229.440E-03     455.344E-03    -225.904E-03     117.406E-03    -230.817E-03     456.551E-03    -225.602E-03     107.839E-03
             345     11.4907E-03     91.2096E-03    -24.4753E+06     49.2188E+06     69.9878E+06    -1.56903E+06    -230.043E-03     456.002E-03    -225.959E-03     118.711E-03    -231.516E-03     457.359E-03    -225.644E-03     108.544E-03
             346     12.2096E-03     91.3822E-03    -15.4270E+06     60.2459E+06     80.0238E+06     281.616E+03    -228.757E-03     454.761E-03    -226.004E-03     118.036E-03    -230.280E-03     456.211E-03    -225.669E-03     107.444E-03
             347     12.9264E-03     91.5463E-03    -10.6414E+06     65.4349E+06     83.3720E+06    -32.0056E+03    -226.446E-03     452.394E-03    -225.948E-03     111.400E-03    -227.940E-03     453.841E-03    -225.611E-03     100.600E-03
             348     13.6437E-03     91.6822E-03    -4.18315E+06     69.0721E+06     86.6584E+06     532.827E+03    -226.014E-03     451.858E-03    -225.844E-03     106.392E-03    -227.312E-03     453.135E-03    -225.505E-03     96.6257E-03
             349     714.017E-06     91.0891E-03    -116.658E+06    -224.120E+06    -115.072E+06     3.39129E+06    -225.164E-03     452.424E-03    -227.260E-03     11.9228E-03    -225.218E-03     451.648E-03    -227.341E-03     11.3549E-03
             350     1.43698E-03     91.1135E-03    -114.127E+06    -209.285E+06    -103.610E+06     2.35761E+06    -224.214E-03     449.996E-03    -225.782E-03     21.8281E-03    -224.338E-03     449.277E-03    -225.831E-03     20.6352E-03
             351     2.15638E-03     91.1501E-03    -110.200E+06    -197.247E+06    -91.6401E+06    -1.08561E+06    -224.912E-03     450.214E-03    -225.302E-03     31.2229E-03    -225.093E-03     449.570E-03    -225.315E-03     29.2829E-03
             352     2.87470E-03     91.2004E-03    -106.455E+06    -186.050E+06    -80.1139E+06    -1.70430E+06    -225.597E-03     450.840E-03    -225.242E-03     40.5711E-03    -225.836E-03     450.273E-03    -225.219E-03     37.9951E-03
             353     3.59359E-03     91.2656E-03    -97.8972E+06    -167.417E+06    -61.9213E+06    -416.056E+03    -226.575E-03     451.935E-03    -225.360E-03     50.3547E-03    -226.871E-03     451.469E-03    -225.285E-03     47.3159E-03
             354     4.30904E-03     91.3442E-03    -91.9916E+06    -149.846E+06    -44.9528E+06    -92.4411E+03    -227.520E-03     453.093E-03    -225.572E-03     59.4256E-03    -227.899E-03     452.743E-03    -225.446E-03     55.7370E-03
             355     5.02801E-03     91.4318E-03    -82.2913E+06    -123.362E+06    -27.0224E+06     1.52516E+06    -227.441E-03     453.194E-03    -225.753E-03     66.9709E-03    -227.893E-03     452.995E-03    -225.590E-03     62.8029E-03
             356     5.74610E-03     91.5348E-03    -73.8958E+06    -96.1322E+06    -13.6731E+06     874.214E+03    -227.071E-03     452.886E-03    -225.814E-03     74.1193E-03    -227.615E-03     452.866E-03    -225.636E-03     69.3175E-03
             357     6.46171E-03     91.6490E-03    -64.6925E+06    -70.5912E+06     2.37364E+06     1.50506E+06    -227.245E-03     453.073E-03    -225.828E-03     83.3272E-03    -227.880E-03     453.221E-03    -225.620E-03     78.0171E-03
             358     7.18399E-03     91.7783E-03    -55.7832E+06    -40.5908E+06     18.7018E+06     3.55926E+06    -228.095E-03     453.945E-03    -225.850E-03     90.6799E-03    -228.849E-03     454.303E-03    -225.617E-03     84.7312E-03
             359     7.90215E-03     91.9107E-03    -49.7434E+06    -7.33479E+06     30.8618E+06     4.30054E+06    -228.766E-03     454.666E-03    -225.900E-03     95.4972E-03    -229.664E-03     455.272E-03    -225.663E-03     88.7267E-03
             360     8.61466E-03     92.0547E-03    -41.5470E+06     20.3821E+06     44.7812E+06     3.85602E+06    -228.427E-03     454.375E-03    -225.948E-03     102.989E-03    -229.444E-03     455.187E-03    -225.693E-03     95.6997E-03
             361     9.33460E-03     92.2069E-03    -35.4048E+06     28.9523E+06     54.8155E+06     1.05750E+06    -228.342E-03     454.295E-03    -225.952E-03     110.530E-03    -229.476E-03     455.247E-03    -225.669E-03     102.572E-03
             362     10.0571E-03     92.3633E-03    -30.8473E+06     30.1724E+06     61.8592E+06    -878.888E+03    -228.897E-03     454.843E-03    -225.946E-03     116.221E-03    -230.139E-03     455.903E-03    -225.636E-03     107.601E-03
             363     10.7753E-03     92.5326E-03    -27.4180E+06     31.1091E+06     65.3396E+06    -2.60353E+06    -229.694E-03     455.651E-03    -225.957E-03     120.096E-03    -231.051E-03     456.832E-03    -225.636E-03     110.707E-03
             364     11.4897E-03     92.7037E-03    -23.2016E+06     44.8208E+06     71.4383E+06    -2.58268E+06    -229.690E-03     455.670E-03    -225.981E-03     122.097E-03    -231.163E-03     457.013E-03    -225.655E-03     112.032E-03
             365     12.2057E-03     92.8694E-03    -17.5853E+06     58.5252E+06     78.6355E+06    -1.56133E+06    -227.201E-03     453.144E-03    -225.943E-03     120.089E-03    -228.726E-03     454.587E-03    -225.609E-03     109.680E-03
             366     12.9309E-03     93.0270E-03    -8.95787E+06     66.9264E+06     85.3317E+06    -1.48392E+06    -226.000E-03     451.831E-03    -225.831E-03     113.218E-03    -227.467E-03     453.256E-03    -225.488E-03     102.684E-03
             367     13.6547E-03     93.1735E-03    -4.68348E+06     69.7887E+06     87.3097E+06    -1.26173E+06    -227.228E-03     452.977E-03    -225.749E-03     104.383E-03    -228.521E-03     454.248E-03    -225.407E-03     94.5119E-03
             368     718.320E-06     92.5753E-03    -120.985E+06    -234.975E+06    -119.239E+06     2.39537E+06    -225.070E-03     452.398E-03    -227.328E-03     8.59080E-03    -225.123E-03     451.583E-03    -227.408E-03     8.06930E-03
             369     1.43618E-03     92.5965E-03    -111.604E+06    -210.555E+06    -102.202E+06     4.16686E+06    -224.130E-03     449.890E-03    -225.760E-03     21.2248E-03    -224.242E-03     449.159E-03    -225.804E-03     19.9916E-03
             370     2.15514E-03     92.6375E-03    -105.852E+06    -193.101E+06    -86.4727E+06     2.58405E+06    -225.201E-03     450.518E-03    -225.317E-03     31.2058E-03    -225.371E-03     449.879E-03    -225.316E-03     29.3401E-03
             371     2.87349E-03     92.6868E-03    -103.843E+06    -182.112E+06    -73.1032E+06     1.20550E+06    -226.241E-03     451.626E-03    -225.385E-03     39.3951E-03    -226.478E-03     451.061E-03    -225.336E-03     36.9039E-03
             372     3.59150E-03     92.7525E-03    -99.6671E+06    -170.480E+06    -59.2449E+06     1.60558E+06    -226.298E-03     451.830E-03    -225.532E-03     48.7174E-03    -226.599E-03     451.344E-03    -225.437E-03     45.6969E-03
             373     4.31208E-03     92.8333E-03    -91.7233E+06    -150.907E+06    -44.4530E+06     591.700E+03    -226.734E-03     452.359E-03    -225.626E-03     58.2019E-03    -227.102E-03     451.995E-03    -225.496E-03     54.6320E-03
             374     5.02728E-03     92.9236E-03    -82.1603E+06    -123.670E+06    -29.8426E+06    -763.587E+03    -227.632E-03     453.368E-03    -225.736E-03     67.0857E-03    -228.083E-03     453.175E-03    -225.587E-03     62.8671E-03
             375     5.74347E-03     93.0241E-03    -72.7651E+06    -97.4684E+06    -14.1193E+06    -513.767E+03    -227.941E-03     453.809E-03    -225.868E-03     75.6358E-03    -228.488E-03     453.793E-03    -225.692E-03     70.7452E-03
             376     6.46482E-03     93.1362E-03    -63.8425E+06    -71.0785E+06     3.44640E+06     829.855E+03    -227.846E-03     453.804E-03    -225.958E-03     83.9072E-03    -228.476E-03     453.945E-03    -225.745E-03     78.6303E-03
             377     7.18028E-03     93.2659E-03    -55.6951E+06    -41.7176E+06     19.4833E+06     1.26904E+06    -227.815E-03     453.795E-03    -225.980E-03     91.4442E-03    -228.546E-03     454.124E-03    -225.741E-03     85.6973E-03
             378     7.89638E-03     93.4038E-03    -47.4127E+06    -11.4586E+06     31.2212E+06     59.7254E+03    -227.529E-03     453.466E-03    -225.937E-03     97.6123E-03    -228.400E-03     454.037E-03    -225.696E-03     91.0032E-03
             379     8.61975E-03     93.5412E-03    -39.3885E+06     16.7224E+06     42.6997E+06     2.15080E+06    -227.071E-03     452.915E-03    -225.845E-03     105.615E-03    -228.082E-03     453.722E-03    -225.598E-03     98.3636E-03
             380     9.33985E-03     93.6937E-03    -32.3224E+06     31.3688E+06     53.7004E+06     5.05715E+06    -228.370E-03     454.150E-03    -225.780E-03     113.588E-03    -229.510E-03     455.131E-03    -225.510E-03     105.679E-03
             381     10.0539E-03     93.8550E-03    -27.7331E+06     32.4755E+06     61.6755E+06     5.57528E+06    -229.836E-03     455.648E-03    -225.812E-03     117.432E-03    -231.104E-03     456.754E-03    -225.510E-03     108.637E-03
             382     10.7709E-03     94.0204E-03    -23.1428E+06     37.6830E+06     71.1253E+06     3.03097E+06    -228.759E-03     454.607E-03    -225.849E-03     121.962E-03    -230.148E-03     455.842E-03    -225.514E-03     112.522E-03
             383     11.4935E-03     94.1930E-03    -18.0575E+06     48.8828E+06     78.3452E+06    -99.4153E+03    -227.555E-03     453.337E-03    -225.782E-03     125.054E-03    -229.046E-03     454.710E-03    -225.435E-03     115.075E-03
             384     12.2160E-03     94.3577E-03    -11.7276E+06     58.8594E+06     84.9044E+06    -1.01667E+06    -228.309E-03     454.026E-03    -225.717E-03     120.509E-03    -229.849E-03     455.488E-03    -225.361E-03     109.852E-03
             385     12.9319E-03     94.5097E-03    -8.53596E+06     64.8568E+06     86.8563E+06    -593.318E+03    -229.409E-03     455.143E-03    -225.734E-03     112.274E-03    -230.935E-03     456.617E-03    -225.382E-03     101.160E-03
             386     13.6442E-03     94.6679E-03    -5.85644E+06     67.4854E+06     84.9096E+06    -682.967E+03    -229.086E-03     454.876E-03    -225.790E-03     102.446E-03    -230.407E-03     456.169E-03    -225.454E-03     92.2211E-03
             387     717.052E-06     94.0671E-03    -121.841E+06    -234.038E+06    -120.120E+06    -4.15143E+06    -226.092E-03     450.760E-03    -224.668E-03     8.36731E-03    -226.151E-03     449.952E-03    -224.753E-03     7.78816E-03
             388     1.43622E-03     94.0807E-03    -119.031E+06    -220.446E+06    -114.184E+06    -261.996E+03    -226.540E-03     452.102E-03    -225.563E-03     20.4780E-03    -226.656E-03     451.349E-03    -225.641E-03     19.1499E-03
             389     2.15577E-03     94.1238E-03    -114.355E+06    -201.061E+06    -97.0514E+06     3.41197E+06    -226.122E-03     451.965E-03    -225.844E-03     29.7768E-03    -226.304E-03     451.311E-03    -225.871E-03     27.9314E-03
             390     2.87316E-03     94.1768E-03    -105.634E+06    -182.713E+06    -74.7491E+06     4.94763E+06    -226.389E-03     452.347E-03    -225.957E-03     38.0677E-03    -226.629E-03     451.780E-03    -225.913E-03     35.6634E-03
             391     3.58996E-03     94.2418E-03    -97.5480E+06    -165.961E+06    -56.7696E+06     4.34617E+06    -226.395E-03     452.425E-03    -226.030E-03     47.0543E-03    -226.693E-03     451.952E-03    -225.932E-03     44.0716E-03
             392     4.30677E-03     94.3176E-03    -90.3982E+06    -143.832E+06    -43.0002E+06     1.02770E+06    -225.863E-03     451.846E-03    -225.983E-03     56.8253E-03    -226.225E-03     451.501E-03    -225.859E-03     53.4039E-03
             393     5.02838E-03     94.4141E-03    -85.4250E+06    -120.497E+06    -30.6116E+06    -2.05590E+06    -226.134E-03     452.018E-03    -225.884E-03     65.9782E-03    -226.598E-03     451.839E-03    -225.738E-03     61.8141E-03
             394     5.74798E-03     94.5123E-03    -76.4705E+06    -99.4089E+06    -13.4914E+06    -2.33533E+06    -227.747E-03     453.654E-03    -225.907E-03     75.1200E-03    -228.305E-03     453.627E-03    -225.720E-03     70.2289E-03
             395     6.46085E-03     94.6300E-03    -66.0135E+06    -72.5484E+06     2.05170E+06    -1.41494E+06    -227.949E-03     453.929E-03    -225.980E-03     83.4439E-03    -228.591E-03     454.073E-03    -225.769E-03     78.0713E-03
             396     7.18060E-03     94.7522E-03    -59.2896E+06    -43.7815E+06     14.1528E+06    -1.69651E+06    -226.043E-03     451.945E-03    -225.902E-03     93.4302E-03    -226.801E-03     452.295E-03    -225.681E-03     87.5916E-03
             397     7.90378E-03     94.8913E-03    -51.9936E+06    -13.0924E+06     28.2902E+06    -648.373E+03    -225.808E-03     451.509E-03    -225.702E-03     100.978E-03    -226.700E-03     452.089E-03    -225.466E-03     94.5011E-03
             398     8.62052E-03     95.0256E-03    -46.0364E+06     11.7884E+06     37.7532E+06     714.005E+03    -227.983E-03     453.559E-03    -225.576E-03     105.971E-03    -228.997E-03     454.342E-03    -225.338E-03     98.8221E-03
             399     9.33908E-03     95.1823E-03    -39.8112E+06     25.0167E+06     45.5774E+06     3.46036E+06    -229.318E-03     454.908E-03    -225.590E-03     112.798E-03    -230.445E-03     455.850E-03    -225.341E-03     105.040E-03
             400     10.0598E-03     95.3487E-03    -30.5737E+06     32.4133E+06     57.9426E+06     4.38009E+06    -228.586E-03     454.220E-03    -225.635E-03     117.170E-03    -229.864E-03     455.337E-03    -225.348E-03     108.376E-03
             401     10.7788E-03     95.5089E-03    -23.5371E+06     44.9103E+06     71.7638E+06     2.92821E+06    -228.003E-03     453.631E-03    -225.628E-03     121.103E-03    -229.429E-03     454.925E-03    -225.301E-03     111.466E-03
             402     11.4980E-03     95.6745E-03    -16.8250E+06     51.1197E+06     80.1573E+06    -60.8511E+03    -228.660E-03     454.270E-03    -225.610E-03     121.433E-03    -230.154E-03     455.654E-03    -225.259E-03     111.201E-03
             403     12.2156E-03     95.8468E-03    -11.2840E+06     55.1128E+06     84.8357E+06    -569.036E+03    -230.119E-03     455.782E-03    -225.663E-03     116.225E-03    -231.654E-03     457.227E-03    -225.302E-03     105.258E-03
             404     12.9301E-03     96.0106E-03    -8.87318E+06     64.0031E+06     87.2320E+06     2.17301E+06    -229.702E-03     455.459E-03    -225.758E-03     110.116E-03    -231.221E-03     456.922E-03    -225.401E-03     98.9772E-03
             405     13.6500E-03     96.1552E-03    -4.76306E+06     70.4784E+06     88.2076E+06     2.34409E+06    -229.480E-03     455.314E-03    -225.835E-03     105.442E-03    -230.798E-03     456.611E-03    -225.489E-03     95.4649E-03
             406     723.083E-06     95.5502E-03    -124.570E+06    -226.461E+06    -117.624E+06     518.598E+03    -226.958E-03     451.697E-03    -224.739E-03     8.75099E-03    -227.044E-03     450.924E-03    -224.819E-03     8.19636E-03
             407     1.43614E-03     95.5777E-03    -124.519E+06    -219.608E+06    -115.157E+06    -2.37741E+06    -228.011E-03     454.279E-03    -226.269E-03     17.9867E-03    -228.149E-03     453.536E-03    -226.345E-03     16.8234E-03
             408     2.14958E-03     95.6114E-03    -119.184E+06    -208.066E+06    -104.123E+06    -1.45528E+06    -226.717E-03     453.413E-03    -226.696E-03     29.2421E-03    -226.909E-03     452.747E-03    -226.742E-03     27.2169E-03
             409     2.86865E-03     95.6662E-03    -107.682E+06    -186.421E+06    -81.1910E+06     1.56013E+06    -225.760E-03     452.356E-03    -226.595E-03     39.6091E-03    -226.006E-03     451.794E-03    -226.575E-03     36.9783E-03
             410     3.58784E-03     95.7305E-03    -97.8921E+06    -165.406E+06    -61.0481E+06     1.88541E+06    -226.057E-03     452.480E-03    -226.423E-03     48.6503E-03    -226.358E-03     452.024E-03    -226.347E-03     45.5783E-03
             411     4.30706E-03     95.8076E-03    -91.1314E+06    -142.482E+06    -44.6812E+06     470.766E+03    -226.276E-03     452.588E-03    -226.312E-03     57.6242E-03    -226.648E-03     452.261E-03    -226.197E-03     54.0926E-03
             412     5.02433E-03     95.8965E-03    -84.6801E+06    -117.610E+06    -28.4258E+06    -265.910E+03    -225.799E-03     451.986E-03    -226.187E-03     65.7426E-03    -226.257E-03     451.808E-03    -226.036E-03     61.6958E-03
             413     5.74247E-03     96.0028E-03    -76.4970E+06    -96.3025E+06    -12.7259E+06    -1.37645E+06    -225.789E-03     451.811E-03    -226.023E-03     76.2941E-03    -226.337E-03     451.784E-03    -225.836E-03     71.6638E-03
             414     6.46400E-03     96.1209E-03    -69.5895E+06    -74.9132E+06    -1.22666E+06    -1.35066E+06    -226.125E-03     451.980E-03    -225.855E-03     84.4869E-03    -226.774E-03     452.119E-03    -225.651E-03     79.2167E-03
             415     7.18365E-03     96.2340E-03    -63.5414E+06    -45.8656E+06     10.6511E+06     481.473E+03    -225.867E-03     451.556E-03    -225.690E-03     91.0455E-03    -226.647E-03     451.917E-03    -225.478E-03     85.0611E-03
             416     7.90390E-03     96.3727E-03    -59.2595E+06    -12.5404E+06     23.8898E+06     1.17658E+06    -226.486E-03     452.034E-03    -225.548E-03     97.9112E-03    -227.413E-03     452.637E-03    -225.324E-03     91.2657E-03
             417     8.62510E-03     96.5184E-03    -52.2861E+06     11.7811E+06     36.0106E+06    -141.779E+03    -229.303E-03     454.852E-03    -225.550E-03     103.610E-03    -230.335E-03     455.636E-03    -225.311E-03     96.3753E-03
             418     9.33950E-03     96.6748E-03    -42.4766E+06     23.2874E+06     45.7178E+06    -1.13112E+06    -229.457E-03     455.113E-03    -225.656E-03     107.605E-03    -230.586E-03     456.042E-03    -225.400E-03     99.6104E-03
             419     10.0567E-03     96.8298E-03    -34.6398E+06     29.5768E+06     54.2526E+06    -301.431E+03    -227.161E-03     452.833E-03    -225.672E-03     110.969E-03    -228.408E-03     453.905E-03    -225.394E-03     102.188E-03
             420     10.7784E-03     96.9956E-03    -26.7190E+06     44.6814E+06     67.5732E+06     1.26152E+06    -228.358E-03     454.006E-03    -225.649E-03     115.650E-03    -229.720E-03     455.237E-03    -225.337E-03     106.249E-03
             421     11.4944E-03     97.1669E-03    -20.4118E+06     54.9711E+06     77.2582E+06     761.310E+03    -230.013E-03     455.715E-03    -225.703E-03     117.859E-03    -231.468E-03     457.069E-03    -225.366E-03     107.809E-03
             422     12.2089E-03     97.3388E-03    -17.6115E+06     54.8526E+06     80.4757E+06     407.007E+03    -229.039E-03     454.805E-03    -225.765E-03     118.403E-03    -230.597E-03     456.261E-03    -225.417E-03     107.624E-03
             423     12.9293E-03     97.4984E-03    -10.7567E+06     61.6085E+06     85.3123E+06     667.165E+03    -228.456E-03     454.246E-03    -225.789E-03     111.269E-03    -229.965E-03     455.688E-03    -225.436E-03     100.282E-03
             424     13.6489E-03     97.6392E-03    -3.72868E+06     71.3363E+06     88.1964E+06     2.92432E+06    -229.236E-03     455.057E-03    -225.821E-03     105.502E-03    -230.533E-03     456.339E-03    -225.478E-03     95.6454E-03
             425     712.590E-06     97.0451E-03    -127.758E+06    -228.516E+06    -124.195E+06     682.153E+03    -227.422E-03     455.655E-03    -228.233E-03     11.9402E-03    -227.520E-03     454.892E-03    -228.337E-03     10.9979E-03
             426     1.43172E-03     97.0709E-03    -118.894E+06    -209.822E+06    -108.392E+06    -2.12946E+06    -226.447E-03     453.999E-03    -227.552E-03     18.5637E-03    -226.588E-03     453.294E-03    -227.618E-03     17.1901E-03
             427     2.15276E-03     97.1024E-03    -115.367E+06    -204.272E+06    -100.403E+06    -5.86211E+06    -226.067E-03     453.153E-03    -227.086E-03     30.6442E-03    -226.253E-03     452.497E-03    -227.124E-03     28.5683E-03
             428     2.86993E-03     97.1557E-03    -109.856E+06    -191.924E+06    -87.7610E+06    -2.64074E+06    -225.733E-03     452.480E-03    -226.746E-03     40.7184E-03    -225.977E-03     451.907E-03    -226.748E-03     38.0219E-03
             429     3.58885E-03     97.2167E-03    -101.695E+06    -166.867E+06    -66.2066E+06     233.221E+03    -225.651E-03     452.145E-03    -226.493E-03     50.1605E-03    -225.962E-03     451.694E-03    -226.435E-03     47.1002E-03
             430     4.30602E-03     97.2994E-03    -94.9504E+06    -143.608E+06    -48.5485E+06    -1.63022E+06    -226.303E-03     452.631E-03    -226.329E-03     59.1994E-03    -226.688E-03     452.311E-03    -226.225E-03     55.6942E-03
             431     5.02429E-03     97.3848E-03    -84.6577E+06    -120.092E+06    -31.1618E+06    -1.03239E+06    -226.006E-03     452.212E-03    -226.206E-03     67.7564E-03    -226.466E-03     452.036E-03    -226.065E-03     63.6642E-03
             432     5.74517E-03     97.4881E-03    -77.0106E+06    -96.3425E+06    -15.2212E+06     1.53051E+06    -224.854E-03     450.841E-03    -225.987E-03     77.1561E-03    -225.413E-03     450.829E-03    -225.811E-03     72.4941E-03
             433     6.46642E-03     97.6007E-03    -72.5413E+06    -73.4592E+06    -765.670E+03     2.09420E+06    -225.545E-03     451.299E-03    -225.754E-03     83.6280E-03    -226.211E-03     451.449E-03    -225.546E-03     78.3805E-03
             434     7.18424E-03     97.7288E-03    -64.8444E+06    -47.7925E+06     12.1177E+06     1.55545E+06    -228.059E-03     453.751E-03    -225.692E-03     88.2226E-03    -228.824E-03     454.081E-03    -225.469E-03     82.2936E-03
             435     7.90082E-03     97.8537E-03    -55.3348E+06    -11.2806E+06     26.1499E+06     2.07012E+06    -229.328E-03     455.115E-03    -225.787E-03     95.2292E-03    -230.233E-03     455.708E-03    -225.560E-03     88.4865E-03
             436     8.61671E-03     98.0106E-03    -47.3581E+06     16.6534E+06     40.1239E+06     1.30087E+06    -228.564E-03     454.442E-03    -225.878E-03     102.339E-03    -229.591E-03     455.244E-03    -225.633E-03     95.0257E-03
             437     9.33515E-03     98.1651E-03    -42.8712E+06     22.8532E+06     46.7196E+06    -2.53978E+06    -227.534E-03     453.402E-03    -225.868E-03     106.760E-03    -228.679E-03     454.340E-03    -225.605E-03     98.6620E-03
             438     10.0550E-03     98.3150E-03    -36.5914E+06     27.5537E+06     52.8425E+06    -2.87789E+06    -228.476E-03     454.310E-03    -225.833E-03     112.857E-03    -229.734E-03     455.382E-03    -225.556E-03     104.041E-03
             439     10.7723E-03     98.4815E-03    -29.1673E+06     41.8551E+06     63.0517E+06     233.671E+03    -229.433E-03     455.283E-03    -225.850E-03     118.646E-03    -230.788E-03     456.500E-03    -225.553E-03     109.412E-03
             440     11.4908E-03     98.6610E-03    -23.8771E+06     55.1847E+06     73.3601E+06        2.94E+06    -228.057E-03     453.909E-03    -225.852E-03     119.385E-03    -229.516E-03     455.266E-03    -225.530E-03     109.585E-03
             441     12.2143E-03     98.8201E-03    -16.9326E+06     60.0992E+06     82.3252E+06     3.02187E+06    -227.461E-03     453.270E-03    -225.809E-03     119.005E-03    -229.004E-03     454.727E-03    -225.460E-03     108.515E-03
             442     12.9336E-03     98.9908E-03    -12.5436E+06     60.8389E+06     83.5849E+06     670.660E+03    -229.407E-03     455.206E-03    -225.798E-03     112.689E-03    -230.886E-03     456.613E-03    -225.450E-03     101.997E-03
             443     13.6448E-03     99.1367E-03    -7.52892E+06     67.8189E+06     83.4072E+06    -892.965E+03    -228.178E-03     453.996E-03    -225.818E-03     104.059E-03    -229.475E-03     455.265E-03    -225.488E-03     94.1395E-03
             444     716.844E-06     98.5461E-03    -122.502E+06    -225.109E+06    -120.178E+06    -2.25632E+06    -225.868E-03     453.603E-03    -227.735E-03     16.2882E-03    -225.952E-03     452.848E-03    -227.832E-03     15.5735E-03
             445     1.43428E-03     98.5562E-03    -116.109E+06    -210.563E+06    -110.749E+06    -1.61912E+06    -226.311E-03     452.950E-03    -226.639E-03     23.6249E-03    -226.439E-03     452.245E-03    -226.719E-03     22.2394E-03
             446     2.15090E-03     98.5951E-03    -110.126E+06    -195.033E+06    -91.9241E+06    -1.32750E+06    -226.516E-03     453.056E-03    -226.540E-03     32.1218E-03    -226.695E-03     452.420E-03    -226.558E-03     30.2772E-03
             447     2.86950E-03     98.6434E-03    -108.741E+06    -189.593E+06    -82.5929E+06    -4.40968E+06    -226.165E-03     452.621E-03    -226.456E-03     41.0576E-03    -226.411E-03     452.048E-03    -226.437E-03     38.4445E-03
             448     3.58763E-03     98.7060E-03    -101.193E+06    -172.254E+06    -69.8386E+06    -2.47467E+06    -225.987E-03     452.298E-03    -226.311E-03     51.0753E-03    -226.293E-03     451.836E-03    -226.263E-03     47.8213E-03
             449     4.30807E-03     98.7861E-03    -91.0371E+06    -142.181E+06    -48.1270E+06     1.26105E+06    -225.856E-03     452.028E-03    -226.173E-03     59.5484E-03    -226.233E-03     451.717E-03    -226.075E-03     55.9877E-03
             450     5.02728E-03     98.8742E-03    -85.9080E+06    -120.052E+06    -30.5195E+06     1.21090E+06    -226.386E-03     452.465E-03    -226.079E-03     66.0880E-03    -226.863E-03     452.299E-03    -225.933E-03     61.8478E-03
             451     5.74496E-03     98.9721E-03    -80.1491E+06    -101.021E+06    -16.6703E+06     95.8950E+03    -226.856E-03     452.899E-03    -226.042E-03     73.1599E-03    -227.429E-03     452.876E-03    -225.863E-03     68.2187E-03
             452     6.46281E-03     99.0875E-03    -69.9325E+06    -73.4628E+06     475.385E+03     1.44083E+06    -227.004E-03     453.028E-03    -226.023E-03     80.5028E-03    -227.659E-03     453.172E-03    -225.813E-03     75.0860E-03
             453     7.18261E-03     99.2156E-03    -60.9738E+06    -44.4635E+06     15.7398E+06     682.140E+03    -228.058E-03     454.088E-03    -226.030E-03     87.3397E-03    -228.806E-03     454.416E-03    -225.799E-03     81.4278E-03
             454     7.89763E-03     99.3534E-03    -52.0933E+06    -14.7178E+06     26.4754E+06    -1.33690E+06    -228.727E-03     454.783E-03    -226.057E-03     96.8659E-03    -229.586E-03     455.328E-03    -225.827E-03     90.3941E-03
             455     8.61423E-03     99.4971E-03    -43.8379E+06     14.0701E+06     37.1319E+06     2.56440E+06    -227.001E-03     452.996E-03    -225.995E-03     106.360E-03    -228.000E-03     453.782E-03    -225.766E-03     99.3171E-03
             456     9.33781E-03     99.6460E-03    -38.5027E+06     27.1758E+06     47.8366E+06     3.96448E+06    -227.305E-03     453.185E-03    -225.881E-03     111.480E-03    -228.431E-03     454.132E-03    -225.625E-03     103.720E-03
             457     10.0573E-03     99.8071E-03    -33.5333E+06     30.8310E+06     57.6952E+06     968.089E+03    -230.385E-03     456.285E-03    -225.900E-03     114.976E-03    -231.629E-03     457.352E-03    -225.608E-03     106.333E-03
             458     10.7727E-03     99.9765E-03    -28.6911E+06     37.3771E+06     66.0434E+06     34.0157E+03    -229.909E-03     455.906E-03    -225.997E-03     117.062E-03    -231.259E-03     457.096E-03    -225.679E-03     107.748E-03
             459     11.4929E-03     100.141E-03    -24.0896E+06     50.0713E+06     75.0631E+06     2.33881E+06    -228.166E-03     454.182E-03    -226.016E-03     116.601E-03    -229.601E-03     455.492E-03    -225.678E-03     106.812E-03
             460     12.2101E-03     100.309E-03    -17.7232E+06     60.6713E+06     82.3145E+06     1.84767E+06    -228.144E-03     454.133E-03    -225.989E-03     114.724E-03    -229.669E-03     455.572E-03    -225.639E-03     104.097E-03
             461     12.9266E-03     100.478E-03    -9.38208E+06     64.3528E+06     85.7240E+06    -661.990E+03    -227.053E-03     452.994E-03    -225.941E-03     110.967E-03    -228.534E-03     454.422E-03    -225.592E-03     100.173E-03
             462     13.6495E-03     100.632E-03    -4.18694E+06     70.2433E+06     86.6737E+06    -2.23514E+06    -225.999E-03     451.849E-03    -225.850E-03     101.370E-03    -227.268E-03     453.101E-03    -225.512E-03     91.5721E-03
             463     721.443E-06     100.021E-03    -117.133E+06    -221.440E+06    -112.825E+06     2.78091E+06    -222.619E-03     447.946E-03    -225.326E-03     11.5323E-03    -222.690E-03     447.183E-03    -225.399E-03     11.1623E-03
             464     1.44015E-03     100.053E-03    -118.525E+06    -210.694E+06    -108.936E+06     930.503E+03    -226.143E-03     450.491E-03    -224.348E-03     24.6451E-03    -226.284E-03     449.783E-03    -224.416E-03     23.4880E-03
             465     2.15537E-03     100.085E-03    -114.685E+06    -198.520E+06    -96.7493E+06     1.50532E+06    -227.275E-03     452.387E-03    -225.112E-03     33.9612E-03    -227.465E-03     451.747E-03    -225.142E-03     32.2659E-03
             466     2.87325E-03     100.132E-03    -106.316E+06    -183.128E+06    -77.6448E+06    -1.80619E+06    -227.464E-03     453.128E-03    -225.664E-03     43.0690E-03    -227.717E-03     452.579E-03    -225.633E-03     40.4822E-03
             467     3.59057E-03     100.198E-03    -102.364E+06    -175.013E+06    -66.8295E+06    -4.42008E+06    -227.296E-03     453.250E-03    -225.954E-03     51.1911E-03    -227.619E-03     452.783E-03    -225.886E-03     47.7248E-03
             468     4.30740E-03     100.271E-03    -93.7226E+06    -147.444E+06    -51.3823E+06     1.26786E+06    -227.125E-03     453.205E-03    -226.080E-03     58.4918E-03    -227.507E-03     452.880E-03    -225.987E-03     54.8237E-03
             469     5.02555E-03     100.365E-03    -84.6804E+06    -116.367E+06    -30.1081E+06     3.25690E+06    -227.538E-03     453.719E-03    -226.182E-03     64.9459E-03    -228.013E-03     453.568E-03    -226.041E-03     60.6819E-03
             470     5.74220E-03     100.463E-03    -77.3232E+06    -96.6791E+06    -13.0365E+06    -303.616E+03    -228.367E-03     454.681E-03    -226.313E-03     73.0213E-03    -228.928E-03     454.661E-03    -226.126E-03     68.1285E-03
             471     6.45883E-03     100.578E-03    -68.4860E+06    -76.6166E+06    -1.12540E+06    -3.55695E+06    -228.238E-03     454.638E-03    -226.400E-03     81.8961E-03    -228.885E-03     454.773E-03    -226.195E-03     76.3832E-03
             472     7.17527E-03     100.702E-03    -60.8454E+06    -48.6949E+06     9.84442E+06    -266.811E+03    -226.588E-03     452.920E-03    -226.332E-03     90.3005E-03    -227.351E-03     453.265E-03    -226.124E-03     84.2218E-03
             473     7.89805E-03     100.841E-03    -56.1967E+06    -14.5033E+06     22.5528E+06     1.99801E+06    -225.576E-03     451.696E-03    -226.119E-03     98.0238E-03    -226.446E-03     452.249E-03    -225.904E-03     91.7550E-03
             474     8.62212E-03     100.980E-03    -50.0152E+06     11.1754E+06     34.6563E+06    -648.719E+03    -227.356E-03     453.304E-03    -225.949E-03     103.333E-03    -228.338E-03     454.049E-03    -225.719E-03     96.4660E-03
             475     9.33893E-03     101.135E-03    -39.8395E+06     26.7386E+06     46.1357E+06     1.40611E+06    -230.220E-03     456.193E-03    -225.973E-03     107.628E-03    -231.307E-03     457.099E-03    -225.723E-03     99.9438E-03
             476     10.0529E-03     101.302E-03    -34.1514E+06     31.1613E+06     55.8058E+06     3.87851E+06    -230.490E-03     456.607E-03    -226.117E-03     110.701E-03    -231.713E-03     457.658E-03    -225.834E-03     102.049E-03
             477     10.7704E-03     101.466E-03    -28.3423E+06     38.2131E+06     68.3952E+06     2.47924E+06    -229.325E-03     455.554E-03    -226.229E-03     112.474E-03    -230.675E-03     456.741E-03    -225.901E-03     102.997E-03
             478     11.4872E-03     101.627E-03    -20.5740E+06     51.3970E+06     79.2894E+06     1.09032E+06    -228.806E-03     455.060E-03    -226.254E-03     115.997E-03    -230.228E-03     456.361E-03    -225.902E-03     106.153E-03
             479     12.2037E-03     101.805E-03    -15.2599E+06     60.7640E+06     83.8388E+06    -832.992E+03    -227.912E-03     454.121E-03    -226.209E-03     118.254E-03    -229.451E-03     455.578E-03    -225.855E-03     107.621E-03
             480     12.9251E-03     101.958E-03    -7.34783E+06     65.5297E+06     87.3097E+06    -1.61498E+06    -225.840E-03     451.939E-03    -226.099E-03     112.564E-03    -227.389E-03     453.441E-03    -225.747E-03     101.364E-03
             481     13.6472E-03     102.113E-03    -2.71649E+06     70.7202E+06     89.1470E+06     92.6033E+03    -225.157E-03     451.108E-03    -225.951E-03     101.084E-03    -226.419E-03     452.353E-03    -225.604E-03     91.3804E-03
             482     719.356E-06     101.505E-03    -119.806E+06    -229.783E+06    -120.176E+06     1.57132E+06    -223.263E-03     449.975E-03    -226.712E-03     7.20053E-03    -223.322E-03     449.185E-03    -226.806E-03     6.66198E-03
             483     1.43891E-03     101.533E-03    -116.230E+06    -207.023E+06    -106.256E+06     2.50944E+06    -224.511E-03     449.393E-03    -224.882E-03     17.8472E-03    -224.641E-03     448.687E-03    -224.945E-03     16.7680E-03
             484     2.16068E-03     101.573E-03    -114.034E+06    -198.987E+06    -95.9956E+06     61.3630E+03    -225.606E-03     450.518E-03    -224.912E-03     27.6472E-03    -225.785E-03     449.865E-03    -224.938E-03     25.9988E-03
             485     2.87509E-03     101.625E-03    -108.644E+06    -185.697E+06    -82.1786E+06    -121.519E+03    -227.025E-03     452.259E-03    -225.234E-03     39.1789E-03    -227.266E-03     451.694E-03    -225.218E-03     36.7450E-03
             486     3.59116E-03     101.686E-03    -101.657E+06    -169.968E+06    -62.8205E+06     92.5004E+03    -227.885E-03     453.539E-03    -225.653E-03     49.9943E-03    -228.202E-03     453.073E-03    -225.574E-03     46.8396E-03
             487     4.30793E-03     101.764E-03    -95.8924E+06    -149.368E+06    -50.1025E+06    -1.87432E+06    -228.298E-03     454.273E-03    -225.975E-03     59.6001E-03    -228.685E-03     453.935E-03    -225.870E-03     55.9599E-03
             488     5.02369E-03     101.854E-03    -83.7531E+06    -118.544E+06    -33.7010E+06    -1.48561E+06    -227.998E-03     454.171E-03    -226.172E-03     68.0982E-03    -228.470E-03     454.022E-03    -226.047E-03     63.7563E-03
             489     5.74223E-03     101.954E-03    -75.1269E+06    -92.9743E+06    -15.0226E+06     1.53185E+06    -227.817E-03     454.090E-03    -226.273E-03     77.2500E-03    -228.373E-03     454.093E-03    -226.104E-03     72.5171E-03
             490     6.45951E-03     102.071E-03    -72.1950E+06    -76.2309E+06    -3.76311E+06    -582.447E+03    -227.776E-03     454.060E-03    -226.284E-03     86.4854E-03    -228.438E-03     454.206E-03    -226.088E-03     81.2402E-03
             491     7.17935E-03     102.190E-03    -67.4921E+06    -55.2508E+06     5.09617E+06    -1.45871E+06    -227.638E-03     453.871E-03    -226.233E-03     92.8957E-03    -228.432E-03     454.215E-03    -226.030E-03     86.7503E-03
             492     7.89897E-03     102.322E-03    -57.2699E+06    -11.8846E+06     22.6043E+06     2.20725E+06    -228.234E-03     454.433E-03    -226.198E-03     96.4933E-03    -229.146E-03     455.033E-03    -225.985E-03     89.7990E-03
             493     8.61506E-03     102.469E-03    -49.6755E+06     17.4858E+06     38.6355E+06     63.5360E+03    -229.996E-03     456.269E-03    -226.273E-03     100.507E-03    -231.012E-03     457.059E-03    -226.033E-03     93.2688E-03
             494     9.32929E-03     102.631E-03    -45.8652E+06     21.4069E+06     44.8634E+06    -2.13849E+06    -230.111E-03     456.503E-03    -226.391E-03     106.576E-03    -231.234E-03     457.409E-03    -226.131E-03     98.6759E-03
             495     10.0474E-03     102.791E-03    -37.4676E+06     25.5890E+06     49.7086E+06    -686.679E+03    -228.561E-03     454.970E-03    -226.409E-03     112.774E-03    -229.823E-03     456.046E-03    -226.143E-03     103.925E-03
             496     10.7672E-03     102.954E-03    -29.7149E+06     39.8636E+06     60.6428E+06     1.62247E+06    -228.110E-03     454.468E-03    -226.358E-03     117.268E-03    -229.528E-03     455.746E-03    -226.070E-03     107.540E-03
             497     11.4853E-03     103.122E-03    -21.9348E+06     54.8931E+06     76.0844E+06    -482.516E+03    -226.954E-03     453.232E-03    -226.278E-03     120.347E-03    -228.451E-03     454.626E-03    -225.945E-03     110.274E-03
             498     12.2094E-03     103.283E-03    -11.5638E+06     62.8664E+06     88.1821E+06    -1.54376E+06    -226.487E-03     452.630E-03    -226.143E-03     123.649E-03    -228.030E-03     454.099E-03    -225.776E-03     113.268E-03
             499     12.9269E-03     103.455E-03    -9.13822E+06     64.5256E+06     88.0651E+06     481.692E+03    -227.361E-03     453.368E-03    -226.007E-03     116.797E-03    -228.915E-03     454.863E-03    -225.647E-03     105.833E-03
             500     13.6430E-03     103.591E-03    -7.32449E+06     68.6588E+06     87.0950E+06     1.12841E+06    -226.755E-03     452.675E-03    -225.920E-03     106.365E-03    -228.095E-03     453.981E-03    -225.574E-03     96.4138E-03
             501     713.607E-06     102.997E-03    -119.221E+06    -233.540E+06    -121.443E+06    -1.05844E+06    -226.999E-03     455.602E-03    -228.603E-03     6.35551E-03    -227.049E-03     454.799E-03    -228.699E-03     5.76593E-03
             502     1.43186E-03     103.018E-03    -115.810E+06    -211.014E+06    -111.033E+06     2.16939E+06    -225.235E-03     452.492E-03    -227.257E-03     17.9871E-03    -225.356E-03     451.779E-03    -227.338E-03     16.7482E-03
             503     2.14901E-03     103.059E-03    -110.683E+06    -193.984E+06    -92.3039E+06     3.66842E+06    -224.758E-03     451.250E-03    -226.492E-03     26.9696E-03    -224.937E-03     450.616E-03    -226.511E-03     25.2026E-03
             504     2.87276E-03     103.110E-03    -109.548E+06    -185.092E+06    -79.6258E+06     2.24978E+06    -224.812E-03     450.869E-03    -226.057E-03     35.7924E-03    -225.052E-03     450.295E-03    -226.028E-03     33.4763E-03
             505     3.59241E-03     103.178E-03    -102.457E+06    -168.612E+06    -65.5517E+06     278.093E+03    -225.530E-03     451.364E-03    -225.834E-03     47.8336E-03    -225.827E-03     450.889E-03    -225.769E-03     44.9985E-03
             506     4.30915E-03     103.256E-03    -93.7554E+06    -144.655E+06    -48.8042E+06    -1.93708E+06    -226.432E-03     452.208E-03    -225.776E-03     59.6851E-03    -226.811E-03     451.882E-03    -225.674E-03     56.1888E-03
             507     5.02806E-03     103.344E-03    -88.3624E+06    -121.955E+06    -35.8908E+06    -1.01563E+06    -226.882E-03     452.661E-03    -225.779E-03     69.9810E-03    -227.366E-03     452.503E-03    -225.653E-03     65.7635E-03
             508     5.74484E-03     103.445E-03    -83.2141E+06    -101.013E+06    -22.7906E+06     1.08577E+06    -227.314E-03     453.111E-03    -225.797E-03     79.3796E-03    -227.900E-03     453.109E-03    -225.644E-03     74.5982E-03
             509     6.46568E-03     103.556E-03    -74.1933E+06    -74.1106E+06    -3.28594E+06     2.68933E+06    -228.431E-03     454.310E-03    -225.879E-03     85.9003E-03    -229.096E-03     454.458E-03    -225.681E-03     80.7582E-03
             510     7.18282E-03     103.683E-03    -63.8959E+06    -46.0904E+06     14.4242E+06    -595.978E+03    -230.389E-03     456.458E-03    -226.069E-03     90.8426E-03    -231.179E-03     456.815E-03    -225.837E-03     84.7207E-03
             511     7.89508E-03     103.816E-03    -55.8932E+06    -16.9565E+06     23.3474E+06    -3.83013E+06    -231.548E-03     457.858E-03    -226.310E-03     98.2202E-03    -232.485E-03     458.469E-03    -226.087E-03     91.0821E-03
             512     8.60929E-03     103.965E-03    -47.9046E+06     12.6070E+06     34.0727E+06     715.756E+03    -230.168E-03     456.643E-03    -226.475E-03     107.255E-03    -231.212E-03     457.463E-03    -226.254E-03     99.8647E-03
             513     9.32909E-03     104.120E-03    -39.7672E+06     27.3416E+06     48.8955E+06     2.26416E+06    -227.907E-03     454.387E-03    -226.480E-03     113.827E-03    -229.057E-03     455.351E-03    -226.218E-03     106.003E-03
             514     10.0506E-03     104.277E-03    -33.3992E+06     29.6910E+06     56.1634E+06    -1.49888E+06    -226.964E-03     453.296E-03    -226.332E-03     119.332E-03    -228.258E-03     454.414E-03    -226.046E-03     110.562E-03
             515     10.7693E-03     104.445E-03    -26.5535E+06     35.7614E+06     61.4924E+06    -3.53624E+06    -227.053E-03     453.201E-03    -226.148E-03     123.668E-03    -228.499E-03     454.501E-03    -225.854E-03     113.891E-03
             516     11.4915E-03     104.605E-03    -19.2696E+06     51.5975E+06     75.5269E+06    -867.560E+03    -227.775E-03     453.820E-03    -226.044E-03     122.098E-03    -229.309E-03     455.249E-03    -225.714E-03     111.697E-03
             517     12.2100E-03     104.768E-03    -15.0495E+06     59.6311E+06     85.8937E+06     1.61425E+06    -227.548E-03     453.532E-03    -225.984E-03     120.417E-03    -229.103E-03     454.996E-03    -225.619E-03     109.857E-03
             518     12.9326E-03     104.943E-03    -10.9376E+06     63.5763E+06     87.7143E+06     2.22845E+06    -226.310E-03     452.187E-03    -225.877E-03     113.443E-03    -227.800E-03     453.609E-03    -225.515E-03     102.881E-03
             519     13.6529E-03     105.085E-03    -4.87290E+06     72.9830E+06     89.5800E+06     134.293E+03    -227.041E-03     452.826E-03    -225.785E-03     104.951E-03    -228.381E-03     454.148E-03    -225.436E-03     94.8584E-03
             520     716.805E-06     104.492E-03    -122.011E+06    -235.463E+06    -122.126E+06     1.25011E+06    -227.749E-03     454.006E-03    -226.257E-03     10.9884E-03    -227.810E-03     453.202E-03    -226.350E-03     10.4110E-03
             521     1.43333E-03     104.511E-03    -122.977E+06    -219.828E+06    -116.603E+06     1.47118E+06    -227.359E-03     454.371E-03    -227.013E-03     23.4320E-03    -227.504E-03     453.643E-03    -227.099E-03     22.0071E-03
             522     2.15258E-03     104.547E-03    -114.321E+06    -198.480E+06    -98.2210E+06     5.20750E+06    -226.090E-03     453.020E-03    -226.930E-03     32.6216E-03    -226.280E-03     452.385E-03    -226.968E-03     30.7845E-03
             523     2.86644E-03     104.599E-03    -105.801E+06    -180.354E+06    -76.2130E+06     5.35181E+06    -224.923E-03     451.497E-03    -226.575E-03     40.0635E-03    -225.160E-03     450.940E-03    -226.541E-03     37.8623E-03
             524     3.58695E-03     104.659E-03    -100.289E+06    -165.690E+06    -61.4331E+06     1.93902E+06    -224.120E-03     450.238E-03    -226.118E-03     49.8740E-03    -224.419E-03     449.772E-03    -226.040E-03     47.0850E-03
             525     4.31030E-03     104.743E-03    -95.8553E+06    -144.340E+06    -47.9315E+06     2.12457E+06    -224.280E-03     449.989E-03    -225.709E-03     59.0481E-03    -224.665E-03     449.661E-03    -225.600E-03     55.6930E-03
             526     5.02960E-03     104.830E-03    -91.7665E+06    -121.747E+06    -33.5439E+06     2.10308E+06    -225.721E-03     451.219E-03    -225.498E-03     67.5684E-03    -226.211E-03     451.049E-03    -225.356E-03     63.5135E-03
             527     5.75066E-03     104.934E-03    -81.3534E+06    -99.2832E+06    -16.3894E+06    -877.433E+03    -228.482E-03     454.058E-03    -225.576E-03     75.9533E-03    -229.061E-03     454.043E-03    -225.396E-03     71.0933E-03
             528     6.46442E-03     105.048E-03    -70.0977E+06    -73.4837E+06    -29.2433E+03    -2.00100E+06    -230.136E-03     455.988E-03    -225.852E-03     81.6908E-03    -230.783E-03     456.126E-03    -225.644E-03     76.3154E-03
             529     7.17891E-03     105.177E-03    -62.0023E+06    -42.1406E+06     14.5757E+06    -954.699E+03    -229.721E-03     455.822E-03    -226.101E-03     90.1768E-03    -230.487E-03     456.176E-03    -225.877E-03     84.2348E-03
             530     7.89718E-03     105.313E-03    -56.3228E+06    -15.7574E+06     25.7817E+06    -2.70359E+06    -229.304E-03     455.521E-03    -226.217E-03     101.033E-03    -230.232E-03     456.118E-03    -225.984E-03     94.2396E-03
             531     8.61655E-03     105.457E-03    -50.1049E+06     7.19105E+06     31.5752E+06    -3.50581E+06    -228.122E-03     454.307E-03    -226.185E-03     108.559E-03    -229.167E-03     455.108E-03    -225.965E-03     101.223E-03
             532     9.33633E-03     105.605E-03    -40.8238E+06     25.2659E+06     42.6158E+06    -269.638E+03    -227.176E-03     453.246E-03    -226.070E-03     114.867E-03    -228.325E-03     454.216E-03    -225.835E-03     107.044E-03
             533     10.0543E-03     105.767E-03    -33.0280E+06     36.0285E+06     57.9490E+06     11.6287E+03    -227.189E-03     453.145E-03    -225.956E-03     118.525E-03    -228.491E-03     454.290E-03    -225.671E-03     109.736E-03
             534     10.7778E-03     105.924E-03    -28.5134E+06     36.0111E+06     64.8171E+06    -2.72302E+06    -228.239E-03     454.112E-03    -225.873E-03     120.465E-03    -229.651E-03     455.363E-03    -225.560E-03     110.841E-03
             535     11.4948E-03     106.100E-03    -22.3060E+06     44.3431E+06     75.0424E+06    -1.13000E+06    -230.314E-03     456.226E-03    -225.912E-03     118.922E-03    -231.820E-03     457.592E-03    -225.568E-03     108.487E-03
             536     12.2083E-03     106.261E-03    -17.4858E+06     58.9353E+06     83.7199E+06     1.62454E+06    -229.300E-03     455.289E-03    -225.989E-03     115.368E-03    -230.865E-03     456.759E-03    -225.631E-03     104.462E-03
             537     12.9255E-03     106.420E-03    -11.3239E+06     64.2904E+06     86.0981E+06     826.141E+03    -226.272E-03     452.222E-03    -225.950E-03     109.912E-03    -227.734E-03     453.622E-03    -225.597E-03     99.3369E-03
             538     13.6476E-03     106.571E-03    -3.08824E+06     73.9731E+06     90.3542E+06    -742.045E+03    -225.473E-03     451.305E-03    -225.832E-03     102.179E-03    -226.754E-03     452.575E-03    -225.483E-03     92.3572E-03
             539     723.069E-06     105.985E-03    -124.813E+06    -236.159E+06    -124.093E+06    -308.663E+03    -225.978E-03     449.009E-03    -223.031E-03     14.1897E-03    -226.048E-03     448.206E-03    -223.128E-03     13.6253E-03
             540     1.43754E-03     106.004E-03    -121.619E+06    -220.867E+06    -115.121E+06    -1.62012E+06    -227.947E-03     453.089E-03    -225.142E-03     22.0233E-03    -228.078E-03     452.343E-03    -225.221E-03     20.8035E-03
             541     2.15223E-03     106.038E-03    -116.044E+06    -206.328E+06    -103.165E+06    -791.129E+03    -226.839E-03     452.788E-03    -225.949E-03     31.7172E-03    -227.019E-03     452.123E-03    -225.997E-03     29.7981E-03
             542     2.87464E-03     106.087E-03    -106.325E+06    -184.484E+06    -82.2140E+06     1.64439E+06    -226.031E-03     452.097E-03    -226.066E-03     40.6557E-03    -226.264E-03     451.537E-03    -226.056E-03     38.2160E-03
             543     3.59185E-03     106.146E-03    -96.8654E+06    -164.936E+06    -57.6225E+06     3.78935E+06    -225.779E-03     451.802E-03    -226.023E-03     49.5860E-03    -226.082E-03     451.343E-03    -225.931E-03     46.5512E-03
             544     4.30850E-03     106.225E-03    -94.5540E+06    -145.868E+06    -44.2538E+06     4.26430E+06    -225.253E-03     451.128E-03    -225.875E-03     57.3915E-03    -225.648E-03     450.798E-03    -225.748E-03     53.7801E-03
             545     5.02954E-03     106.315E-03    -86.4132E+06    -117.405E+06    -28.2738E+06     2.26985E+06    -226.752E-03     452.546E-03    -225.794E-03     65.6532E-03    -227.227E-03     452.380E-03    -225.640E-03     61.5265E-03
             546     5.74409E-03     106.425E-03    -72.6976E+06    -90.0015E+06    -7.35753E+06     108.603E+03    -228.917E-03     454.863E-03    -225.945E-03     74.5773E-03    -229.458E-03     454.847E-03    -225.746E-03     69.9180E-03
             547     6.46029E-03     106.546E-03    -68.5333E+06    -72.2251E+06     1.51805E+06    -2.41664E+06    -228.483E-03     454.591E-03    -226.108E-03     81.7059E-03    -229.129E-03     454.733E-03    -225.896E-03     76.3349E-03
             548     7.17965E-03     106.663E-03    -63.6629E+06    -44.9473E+06     11.7211E+06    -348.528E+03    -227.164E-03     453.272E-03    -226.108E-03     91.3515E-03    -227.942E-03     453.630E-03    -225.892E-03     85.4035E-03
             549     7.90022E-03     106.801E-03    -56.3015E+06    -12.7408E+06     26.4999E+06     1.34578E+06    -226.950E-03     452.953E-03    -226.004E-03     100.176E-03    -227.853E-03     453.535E-03    -225.771E-03     93.7418E-03
             550     8.61845E-03     106.945E-03    -48.8779E+06     11.5115E+06     36.5576E+06    -2.41482E+06    -227.488E-03     453.382E-03    -225.893E-03     104.446E-03    -228.520E-03     454.175E-03    -225.656E-03     97.1582E-03
             551     9.33769E-03     107.090E-03    -41.7170E+06     24.2501E+06     43.3914E+06    -4.16791E+06    -228.381E-03     454.222E-03    -225.841E-03     109.626E-03    -229.526E-03     455.178E-03    -225.599E-03     101.557E-03
             552     10.0590E-03     107.255E-03    -35.7577E+06     31.2861E+06     54.3669E+06    -2.47028E+06    -229.175E-03     455.055E-03    -225.880E-03     111.553E-03    -230.453E-03     456.159E-03    -225.602E-03     102.527E-03
             553     10.7726E-03     107.413E-03    -28.3098E+06     35.0612E+06     66.5238E+06     116.009E+03    -229.390E-03     455.350E-03    -225.959E-03     114.558E-03    -230.745E-03     456.535E-03    -225.636E-03     105.040E-03
             554     11.4892E-03     107.592E-03    -22.9395E+06     44.1348E+06     75.4299E+06     855.721E+03    -228.816E-03     454.807E-03    -225.991E-03     118.585E-03    -230.259E-03     456.106E-03    -225.644E-03     108.669E-03
             555     12.2090E-03     107.752E-03    -16.3505E+06     59.8624E+06     83.5903E+06     109.178E+03    -228.602E-03     454.588E-03    -225.985E-03     116.701E-03    -230.151E-03     456.048E-03    -225.631E-03     105.950E-03
             556     12.9284E-03     107.909E-03    -7.40913E+06     68.0789E+06     88.6736E+06    -502.898E+03    -227.814E-03     453.778E-03    -225.964E-03     112.963E-03    -229.306E-03     455.228E-03    -225.608E-03     102.178E-03
             557     13.6448E-03     108.058E-03    -4.26474E+06     71.7031E+06     88.8091E+06    -548.489E+03    -225.663E-03     451.537E-03    -225.874E-03     105.807E-03    -226.959E-03     452.814E-03    -225.528E-03     96.0839E-03
             558     718.112E-06     107.465E-03    -120.842E+06    -227.410E+06    -119.935E+06    -3.81361E+06    -225.508E-03     451.561E-03    -226.053E-03     11.0598E-03    -225.582E-03     450.792E-03    -226.148E-03     10.2890E-03
             559     1.43838E-03     107.496E-03    -117.026E+06    -215.033E+06    -111.532E+06    -4.43170E+06    -225.128E-03     450.757E-03    -225.629E-03     17.1091E-03    -225.243E-03     450.021E-03    -225.705E-03     15.9651E-03
             560     2.15669E-03     107.528E-03    -113.636E+06    -206.679E+06    -102.326E+06    -6.75066E+06    -225.794E-03     451.323E-03    -225.529E-03     28.2777E-03    -225.961E-03     450.651E-03    -225.576E-03     26.2950E-03
             561     2.87093E-03     107.573E-03    -109.539E+06    -191.661E+06    -88.9788E+06    -2.59541E+06    -226.899E-03     452.590E-03    -225.690E-03     39.3851E-03    -227.132E-03     452.012E-03    -225.699E-03     36.7569E-03
             562     3.58860E-03     107.639E-03    -102.122E+06    -172.556E+06    -66.8218E+06     2.11724E+06    -227.654E-03     453.645E-03    -225.991E-03     47.4648E-03    -227.957E-03     453.168E-03    -225.927E-03     44.3533E-03
             563     4.30763E-03     107.711E-03    -89.8961E+06    -144.693E+06    -43.7710E+06     857.148E+03    -228.121E-03     454.392E-03    -226.271E-03     55.8808E-03    -228.499E-03     454.064E-03    -226.150E-03     52.0822E-03
             564     5.02307E-03     107.805E-03    -79.4822E+06    -113.941E+06    -26.2253E+06     1.16471E+06    -228.029E-03     454.472E-03    -226.444E-03     65.9014E-03    -228.484E-03     454.318E-03    -226.294E-03     61.6421E-03
             565     5.74165E-03     107.918E-03    -75.7525E+06    -93.9380E+06    -13.7558E+06     2.48544E+06    -226.104E-03     452.515E-03    -226.411E-03     75.4845E-03    -226.657E-03     452.506E-03    -226.234E-03     70.7942E-03
             566     6.46211E-03     108.031E-03    -68.0396E+06    -70.9652E+06     2.85615E+06     2.24681E+06    -225.173E-03     451.370E-03    -226.197E-03     83.6469E-03    -225.836E-03     451.531E-03    -225.981E-03     78.3244E-03
             567     7.18180E-03     108.152E-03    -59.7594E+06    -45.8889E+06     15.7015E+06     523.910E+03    -226.691E-03     452.685E-03    -225.995E-03     92.1789E-03    -227.475E-03     453.049E-03    -225.763E-03     86.0731E-03
             568     7.89937E-03     108.287E-03    -52.0268E+06    -12.8070E+06     27.9133E+06     1.85637E+06    -227.651E-03     453.549E-03    -225.899E-03     98.6701E-03    -228.540E-03     454.128E-03    -225.665E-03     92.1118E-03
             569     8.62042E-03     108.431E-03    -43.7934E+06     18.0498E+06     42.9477E+06     1.21675E+06    -228.768E-03     454.670E-03    -225.903E-03     102.326E-03    -229.770E-03     455.457E-03    -225.650E-03     95.1573E-03
             570     9.33687E-03     108.584E-03    -38.4846E+06     27.8666E+06     50.9281E+06    -2.69765E+06    -229.746E-03     455.724E-03    -225.979E-03     106.792E-03    -230.879E-03     456.672E-03    -225.709E-03     98.6669E-03
             571     10.0494E-03     108.743E-03    -33.4272E+06     28.1156E+06     57.9414E+06    -2.15575E+06    -229.186E-03     455.242E-03    -226.056E-03     113.393E-03    -230.471E-03     456.339E-03    -225.758E-03     104.331E-03
             572     10.7688E-03     108.909E-03    -27.1297E+06     30.5336E+06     66.7946E+06     620.741E+03    -227.870E-03     453.915E-03    -226.044E-03     119.458E-03    -229.255E-03     455.118E-03    -225.715E-03     109.938E-03
             573     11.4914E-03     109.070E-03    -20.9517E+06     44.6375E+06     75.6554E+06    -35.2699E+03    -226.649E-03     452.571E-03    -225.921E-03     123.763E-03    -228.108E-03     453.894E-03    -225.577E-03     113.995E-03
             574     12.2127E-03     109.245E-03    -13.9817E+06     61.5302E+06     85.2296E+06    -725.109E+03    -227.716E-03     453.523E-03    -225.807E-03     121.921E-03    -229.294E-03     455.023E-03    -225.450E-03     111.223E-03
             575     12.9288E-03     109.398E-03    -9.32476E+06     68.6260E+06     88.6890E+06     618.316E+03    -228.448E-03     454.224E-03    -225.776E-03     113.320E-03    -229.997E-03     455.726E-03    -225.418E-03     102.247E-03
             576     13.6513E-03     109.544E-03    -6.24484E+06     71.8818E+06     89.8044E+06     337.217E+03    -228.450E-03     454.243E-03    -225.793E-03     105.079E-03    -229.766E-03     455.531E-03    -225.439E-03     95.1876E-03
             577     711.644E-06     108.959E-03    -114.943E+06    -220.590E+06    -111.109E+06    -525.309E+03    -226.110E-03     456.044E-03    -229.933E-03     9.86825E-03    -226.179E-03     455.290E-03    -230.002E-03     8.99230E-03
             578     1.43146E-03     108.977E-03    -113.095E+06    -207.293E+06    -104.221E+06    -1.31286E+06    -223.803E-03     450.972E-03    -227.169E-03     17.8909E-03    -223.926E-03     450.265E-03    -227.225E-03     16.5774E-03
             579     2.15385E-03     109.013E-03    -111.170E+06    -199.618E+06    -94.1579E+06    -3.81632E+06    -225.240E-03     451.415E-03    -226.175E-03     27.4435E-03    -225.412E-03     450.758E-03    -226.195E-03     25.5728E-03
             580     2.87477E-03     109.065E-03    -106.864E+06    -190.158E+06    -84.4682E+06    -5.71339E+06    -226.929E-03     453.026E-03    -226.097E-03     37.1894E-03    -227.148E-03     452.435E-03    -226.089E-03     34.6741E-03
             581     3.59076E-03     109.130E-03    -101.688E+06    -177.626E+06    -72.8523E+06    -2.16357E+06    -227.553E-03     453.831E-03    -226.277E-03     47.2666E-03    -227.835E-03     453.333E-03    -226.237E-03     44.1426E-03
             582     4.30454E-03     109.205E-03    -92.0907E+06    -147.768E+06    -49.7737E+06     1.21553E+06    -228.527E-03     455.038E-03    -226.511E-03     59.4630E-03    -228.900E-03     454.704E-03    -226.413E-03     55.8346E-03
             583     5.01986E-03     109.302E-03    -82.9877E+06    -118.110E+06    -29.6094E+06     711.357E+03    -227.557E-03     454.192E-03    -226.636E-03     70.1664E-03    -228.034E-03     454.041E-03    -226.492E-03     65.9078E-03
             584     5.73928E-03     109.398E-03    -76.9308E+06    -98.7359E+06    -16.0074E+06     479.579E+03    -225.036E-03     451.506E-03    -226.471E-03     77.1698E-03    -225.609E-03     451.503E-03    -226.296E-03     72.2557E-03
             585     6.46279E-03     109.514E-03    -67.7196E+06    -72.5132E+06     2.19381E+06     2.21267E+06    -225.155E-03     451.336E-03    -226.181E-03     83.9739E-03    -225.812E-03     451.489E-03    -225.967E-03     78.6669E-03
             586     7.18257E-03     109.640E-03    -59.9625E+06    -44.2278E+06     17.3917E+06     835.932E+03    -227.410E-03     453.436E-03    -226.026E-03     90.2819E-03    -228.180E-03     453.785E-03    -225.788E-03     84.2785E-03
             587     7.90115E-03     109.778E-03     -51.427E+06    -10.3896E+06     30.3438E+06    -1.75209E+06    -228.519E-03     454.537E-03    -226.018E-03     95.7920E-03    -229.416E-03     455.126E-03    -225.776E-03     89.0019E-03
             588     8.61573E-03     109.920E-03    -44.1060E+06     16.8066E+06     42.6821E+06    -370.332E+03    -228.381E-03     454.416E-03    -226.035E-03     103.472E-03    -229.395E-03     455.209E-03    -225.782E-03     96.2203E-03
             589     9.33221E-03     110.079E-03    -38.3697E+06     27.3769E+06     52.2294E+06     2.25642E+06    -227.253E-03     453.236E-03    -225.983E-03     111.297E-03    -228.402E-03     454.193E-03    -225.705E-03     103.398E-03
             590     10.0559E-03     110.228E-03    -32.1679E+06     29.9054E+06     59.1851E+06     2.00895E+06    -226.721E-03     452.564E-03    -225.843E-03     120.689E-03    -228.042E-03     453.705E-03    -225.543E-03     111.833E-03
             591     10.7774E-03     110.397E-03    -26.7533E+06     31.9961E+06     66.4228E+06     756.743E+03    -227.691E-03     453.407E-03    -225.717E-03     124.040E-03    -229.130E-03     454.673E-03    -225.392E-03     114.367E-03
             592     11.4955E-03     110.554E-03    -20.6546E+06     47.1390E+06     77.8298E+06    -1.51709E+06    -228.140E-03     453.798E-03    -225.657E-03     123.272E-03    -229.655E-03     455.181E-03    -225.307E-03     113.061E-03
             593     12.2155E-03     110.731E-03    -16.0714E+06     61.6864E+06     85.2057E+06    -887.679E+03    -228.418E-03     454.044E-03    -225.626E-03     121.699E-03    -230.017E-03     455.558E-03    -225.266E-03     110.893E-03
             594     12.9356E-03     110.892E-03    -14.5511E+06     64.6471E+06     84.2602E+06     167.209E+03    -229.417E-03     455.065E-03    -225.648E-03     110.311E-03    -230.965E-03     456.546E-03    -225.299E-03     99.1301E-03
             595     13.6481E-03     111.031E-03    -5.88909E+06     72.0648E+06     87.5448E+06     653.444E+03    -230.003E-03     455.746E-03    -225.743E-03     103.708E-03    -231.317E-03     457.041E-03    -225.401E-03     93.6448E-03
             596     718.543E-06     110.456E-03    -113.474E+06    -222.802E+06    -111.998E+06      771.42E+03    -225.653E-03     451.018E-03    -225.365E-03     14.3578E-03    -225.702E-03     450.250E-03    -225.437E-03     13.5852E-03
             597     1.43623E-03     110.463E-03    -113.581E+06    -210.406E+06    -105.764E+06     2.79639E+06    -227.312E-03     453.128E-03    -225.816E-03     23.4562E-03    -227.435E-03     452.415E-03    -225.875E-03     22.1183E-03
             598     2.15168E-03     110.504E-03    -109.307E+06    -194.231E+06    -89.1882E+06     4.26653E+06    -227.375E-03     453.717E-03    -226.342E-03     32.7065E-03    -227.556E-03     453.079E-03    -226.348E-03     30.9618E-03
             599     2.86558E-03     110.556E-03    -105.085E+06     -183.46E+06    -74.6984E+06    -419.686E+03    -226.871E-03     453.405E-03    -226.534E-03     39.7462E-03    -227.110E-03     452.836E-03    -226.489E-03     37.3175E-03
             600     3.58580E-03     110.617E-03    -99.6557E+06    -176.546E+06    -65.7425E+06    -5.38637E+06    -226.712E-03     453.244E-03    -226.532E-03     49.4343E-03    -227.001E-03     452.744E-03    -226.460E-03     46.2342E-03
             601     4.30705E-03     110.699E-03    -90.0646E+06    -149.098E+06    -49.4812E+06    -703.817E+03    -226.564E-03     453.024E-03    -226.459E-03     60.0954E-03    -226.917E-03     452.671E-03    -226.360E-03     56.6090E-03
             602     5.02761E-03     110.789E-03    -83.8805E+06    -120.070E+06    -30.2281E+06     2.05552E+06    -226.199E-03     452.549E-03    -226.350E-03     68.2527E-03    -226.661E-03     452.375E-03    -226.205E-03     64.1639E-03
             603     5.74575E-03     110.888E-03    -76.7469E+06    -99.2195E+06    -13.5707E+06    -667.076E+03    -226.992E-03     453.259E-03    -226.266E-03     75.5393E-03    -227.555E-03     453.237E-03    -226.079E-03     70.6639E-03
             604     6.46091E-03     110.998E-03    -68.9358E+06    -73.1023E+06     1.45294E+06     307.367E+03    -228.116E-03     454.381E-03    -226.265E-03     83.5069E-03    -228.772E-03     454.529E-03    -226.052E-03     78.1386E-03
             605     7.17842E-03     111.131E-03    -59.8087E+06    -40.8748E+06     18.6404E+06     1.68333E+06    -227.712E-03     453.989E-03    -226.277E-03     89.7707E-03    -228.474E-03     454.339E-03    -226.038E-03     83.8767E-03
             606     7.89493E-03     111.266E-03    -54.9307E+06    -10.6202E+06     29.5336E+06    -221.622E+03    -226.335E-03     452.496E-03    -226.161E-03     97.5003E-03    -227.249E-03     453.092E-03    -225.918E-03     90.8611E-03
             607     8.61632E-03     111.411E-03    -50.5436E+06     11.9884E+06     38.3210E+06    -532.520E+03    -225.203E-03     451.123E-03    -225.920E-03     107.720E-03    -226.256E-03     451.928E-03    -225.673E-03     100.568E-03
             608     9.34152E-03     111.559E-03    -41.7962E+06     23.5521E+06     48.5795E+06     214.845E+03    -225.303E-03     450.961E-03    -225.658E-03     112.868E-03    -226.452E-03     451.905E-03    -225.388E-03     105.103E-03
             609     10.0621E-03     111.713E-03    -31.8969E+06     30.3772E+06     57.8602E+06     1.19170E+06    -227.062E-03     452.546E-03    -225.484E-03     117.014E-03    -228.332E-03     453.643E-03    -225.193E-03     108.306E-03
             610     10.7807E-03     111.884E-03    -24.5550E+06     39.4033E+06     68.1193E+06     906.148E+03    -229.216E-03     454.683E-03    -225.467E-03     118.843E-03    -230.603E-03     455.926E-03    -225.148E-03     109.249E-03
             611     11.4976E-03     112.049E-03    -20.4154E+06     47.4699E+06     76.4660E+06     1.37340E+06    -230.262E-03     455.823E-03    -225.562E-03     117.319E-03    -231.727E-03     457.163E-03    -225.219E-03     107.113E-03
             612     12.2136E-03     112.214E-03    -15.7223E+06     56.0519E+06     82.9566E+06     1.96192E+06    -229.527E-03     455.186E-03    -225.658E-03     117.313E-03    -231.044E-03     456.605E-03    -225.302E-03     106.753E-03
             613     12.9298E-03     112.384E-03    -9.52266E+06     67.1280E+06     86.4285E+06     375.573E+03    -228.880E-03     454.583E-03    -225.703E-03     110.036E-03    -230.338E-03     455.995E-03    -225.355E-03     99.3567E-03
             614     13.6485E-03     112.527E-03    -2.80474E+06     73.5213E+06     86.8659E+06     282.746E+03    -228.232E-03     453.955E-03    -225.723E-03     103.659E-03    -229.521E-03     455.244E-03    -225.391E-03     93.7163E-03
             615     726.647E-06     111.934E-03    -123.123E+06    -228.648E+06    -120.115E+06     1.96120E+06    -225.539E-03     448.123E-03    -222.583E-03     8.78889E-03    -225.617E-03     447.346E-03    -222.674E-03     8.46763E-03
             616     1.44009E-03     111.961E-03    -119.822E+06    -217.155E+06    -111.429E+06     1.60070E+06    -227.955E-03     452.802E-03    -224.847E-03     18.3146E-03    -228.080E-03     452.064E-03    -224.916E-03     17.3731E-03
             617     2.15466E-03     111.995E-03    -114.128E+06    -200.441E+06    -96.7342E+06     4.49049E+06    -227.531E-03     453.418E-03    -225.886E-03     30.8991E-03    -227.712E-03     452.763E-03    -225.914E-03     29.2971E-03
             618     2.87500E-03     112.048E-03    -105.707E+06    -182.088E+06    -74.5163E+06     4.92776E+06    -226.604E-03     452.808E-03    -226.204E-03     41.6541E-03    -226.856E-03     452.255E-03    -226.159E-03     39.1935E-03
             619     3.58997E-03     112.107E-03    -96.5315E+06    -167.831E+06    -54.7174E+06     25.1002E+03    -226.903E-03     453.184E-03    -226.281E-03     52.1156E-03    -227.212E-03     452.713E-03    -226.171E-03     48.9953E-03
             620     4.30524E-03     112.188E-03    -91.4392E+06    -150.723E+06    -45.3142E+06    -2.81535E+06    -226.572E-03     452.829E-03    -226.257E-03     60.3442E-03    -226.947E-03     452.475E-03    -226.132E-03     56.7011E-03
             621     5.02325E-03     112.274E-03    -83.5229E+06    -123.621E+06    -31.5392E+06    -1.74570E+06    -226.270E-03     452.435E-03    -226.164E-03     67.1072E-03    -226.721E-03     452.242E-03    -226.022E-03     62.9205E-03
             622     5.74267E-03     112.378E-03    -74.1809E+06    -96.7101E+06    -12.5686E+06     1.10535E+06    -227.736E-03     453.885E-03    -226.150E-03     76.1486E-03    -228.272E-03     453.852E-03    -225.965E-03     71.5173E-03
             623     6.46023E-03     112.493E-03    -67.2743E+06    -70.4753E+06     3.26864E+06     1.32810E+06    -228.502E-03     454.718E-03    -226.216E-03     86.2575E-03    -229.159E-03     454.876E-03    -225.999E-03     80.9815E-03
             624     7.17630E-03     112.621E-03    -60.8570E+06    -44.5736E+06     16.0963E+06     1.27222E+06    -226.856E-03     453.035E-03    -226.179E-03     94.6485E-03    -227.639E-03     453.397E-03    -225.945E-03     88.7268E-03
             625     7.89995E-03     112.749E-03    -51.9398E+06    -11.7754E+06     30.9674E+06     2.98331E+06    -225.419E-03     451.396E-03    -225.977E-03     100.172E-03    -226.325E-03     451.986E-03    -225.730E-03     93.6476E-03
             626     8.62343E-03     112.891E-03    -43.0686E+06     18.0705E+06     43.4208E+06     3.86801E+06    -225.478E-03     451.205E-03    -225.727E-03     103.684E-03    -226.483E-03     451.995E-03    -225.473E-03     96.6449E-03
             627     9.34186E-03     113.042E-03    -40.1569E+06     25.1640E+06     49.0842E+06     1.51333E+06    -227.159E-03     452.739E-03    -225.579E-03     106.521E-03    -228.257E-03     453.641E-03    -225.312E-03     98.8186E-03
             628     10.0588E-03     113.203E-03    -35.2169E+06     27.1563E+06     56.6186E+06    -1.01674E+06    -229.114E-03     454.705E-03    -225.590E-03     110.937E-03    -230.345E-03     455.742E-03    -225.296E-03     102.244E-03
             629     10.7763E-03     113.369E-03    -27.8411E+06     36.5629E+06     66.1005E+06     279.065E+03    -229.694E-03     455.369E-03    -225.675E-03     114.445E-03    -231.030E-03     456.545E-03    -225.357E-03     105.060E-03
             630     11.4938E-03     113.543E-03    -22.3943E+06     45.2625E+06     72.8326E+06     2.40902E+06    -229.507E-03     455.261E-03    -225.754E-03     114.627E-03    -230.921E-03     456.545E-03    -225.423E-03     104.694E-03
             631     12.2105E-03     113.704E-03    -14.3073E+06     56.6231E+06     80.5949E+06     838.439E+03    -228.315E-03     454.101E-03    -225.786E-03     116.542E-03    -229.816E-03     455.518E-03    -225.444E-03     106.003E-03
             632     12.9311E-03     113.872E-03    -5.43587E+06     70.5504E+06     88.7903E+06     708.380E+03    -226.917E-03     452.662E-03    -225.745E-03     113.345E-03    -228.371E-03     454.089E-03    -225.396E-03     102.872E-03
             633     13.6505E-03     114.015E-03    -3.02154E+06     74.7303E+06     89.6581E+06     876.058E+03    -227.454E-03     453.146E-03    -225.692E-03     103.979E-03    -228.736E-03     454.423E-03    -225.348E-03     94.2285E-03
             634     710.038E-06     113.420E-03    -126.446E+06    -233.862E+06    -122.790E+06     1.46024E+06    -225.961E-03     453.754E-03    -227.793E-03     9.03693E-03    -226.052E-03     452.965E-03    -227.884E-03     8.60661E-03
             635     1.43299E-03     113.449E-03    -118.497E+06    -214.154E+06    -108.166E+06     41.2445E+03    -224.514E-03     450.937E-03    -226.423E-03     19.1840E-03    -224.646E-03     450.211E-03    -226.481E-03     18.0841E-03
             636     2.15318E-03     113.486E-03    -114.351E+06    -203.121E+06    -97.0670E+06    -1.18653E+06    -225.309E-03     451.154E-03    -225.844E-03     30.4137E-03    -225.495E-03     450.494E-03    -225.869E-03     28.5239E-03
             637     2.86969E-03     113.532E-03    -107.741E+06    -188.030E+06    -82.1134E+06     202.206E+03    -225.891E-03     451.635E-03    -225.745E-03     40.3384E-03    -226.137E-03     451.070E-03    -225.726E-03     37.6862E-03
             638     3.59075E-03     113.600E-03    -97.6992E+06    -168.141E+06    -58.9782E+06     3.63387E+06    -226.058E-03     451.822E-03    -225.765E-03     51.5533E-03    -226.366E-03     451.359E-03    -225.674E-03     48.4843E-03
             639     4.31010E-03     113.676E-03    -92.8259E+06    -148.031E+06    -42.4691E+06     702.060E+03    -227.051E-03     452.864E-03    -225.813E-03     61.6543E-03    -227.449E-03     452.531E-03    -225.676E-03     57.9749E-03
             640     5.02814E-03     113.764E-03    -86.8040E+06    -123.998E+06    -31.8934E+06    -2.92634E+06    -227.835E-03     453.747E-03    -225.912E-03     68.9744E-03    -228.315E-03     453.571E-03    -225.766E-03     64.6589E-03
             641     5.74542E-03     113.866E-03    -78.1656E+06    -100.191E+06    -17.1834E+06     149.464E+03    -227.472E-03     453.467E-03    -225.995E-03     77.8785E-03    -228.026E-03     453.437E-03    -225.822E-03     73.2202E-03
             642     6.46366E-03     113.986E-03    -69.5360E+06    -73.8131E+06    -115.919E+03     1.37994E+06    -226.107E-03     452.044E-03    -225.936E-03     85.3300E-03    -226.758E-03     452.185E-03    -225.729E-03     80.1599E-03
             643     7.18661E-03     114.103E-03    -60.4735E+06    -44.0619E+06     15.9793E+06     625.007E+03    -225.807E-03     451.572E-03    -225.766E-03     92.7211E-03    -226.580E-03     451.929E-03    -225.534E-03     86.8261E-03
             644     7.90303E-03     114.239E-03    -52.0119E+06    -11.7673E+06     29.9516E+06     1.25442E+06    -227.990E-03     453.660E-03    -225.670E-03     99.0291E-03    -228.896E-03     454.252E-03    -225.427E-03     92.3586E-03
             645     8.61698E-03     114.376E-03    -44.7661E+06     15.6310E+06     40.5410E+06     2.55743E+06    -229.672E-03     455.403E-03    -225.731E-03     101.882E-03    -230.693E-03     456.203E-03    -225.486E-03     94.5064E-03
             646     9.33561E-03     114.530E-03    -36.2590E+06     30.4982E+06     51.6938E+06     4.34411E+06    -229.684E-03     455.544E-03    -225.860E-03     106.228E-03    -230.774E-03     456.463E-03    -225.593E-03     98.4654E-03
             647     10.0543E-03     114.692E-03    -32.3493E+06     30.7942E+06     60.0026E+06     3.77384E+06    -229.518E-03     455.481E-03    -225.963E-03     111.602E-03    -230.731E-03     456.514E-03    -225.660E-03     103.106E-03
             648     10.7710E-03     114.861E-03    -28.5739E+06     30.3871E+06     66.5701E+06     2.11565E+06    -228.681E-03     454.681E-03    -226.000E-03     116.212E-03    -230.012E-03     455.826E-03    -225.670E-03     106.987E-03
             649     11.4897E-03     115.028E-03    -20.9831E+06     47.0174E+06     75.4666E+06     1.08637E+06    -226.943E-03     452.873E-03    -225.930E-03     118.264E-03    -228.366E-03     454.170E-03    -225.591E-03     108.514E-03
             650     12.2111E-03     115.194E-03    -15.7475E+06     62.0034E+06     82.1885E+06     358.023E+03    -226.702E-03     452.509E-03    -225.806E-03     119.517E-03    -228.261E-03     453.993E-03    -225.462E-03     108.896E-03
             651     12.9314E-03     115.352E-03    -9.85944E+06     67.4727E+06     86.3363E+06     421.595E+03    -227.413E-03     453.139E-03    -225.726E-03     113.676E-03    -228.958E-03     454.638E-03    -225.378E-03     102.647E-03
             652     13.6515E-03     115.507E-03    -4.58702E+06     74.1960E+06     89.0339E+06     325.501E+03    -228.075E-03     453.785E-03    -225.710E-03     103.466E-03    -229.390E-03     455.088E-03    -225.365E-03     93.4742E-03
             653     718.685E-06     114.919E-03    -121.524E+06    -232.312E+06    -120.127E+06    -2.78222E+06    -224.988E-03     451.904E-03    -226.915E-03     14.6052E-03    -225.057E-03     451.115E-03    -227.003E-03     13.7142E-03
             654     1.43550E-03     114.929E-03    -118.202E+06    -219.011E+06    -112.068E+06     928.673E+03    -224.291E-03     449.846E-03    -225.555E-03     25.9146E-03    -224.424E-03     449.113E-03    -225.626E-03     24.3513E-03
             655     2.15649E-03     114.973E-03    -112.101E+06    -199.554E+06    -94.8419E+06     525.745E+03    -224.865E-03     450.012E-03    -225.147E-03     35.4089E-03    -225.058E-03     449.375E-03    -225.169E-03     33.3607E-03
             656     2.87565E-03     115.023E-03    -107.887E+06    -186.067E+06    -79.8590E+06     615.290E+03    -226.467E-03     451.676E-03    -225.208E-03     42.8878E-03    -226.715E-03     451.111E-03    -225.181E-03     40.4557E-03
             657     3.59224E-03     115.083E-03    -103.612E+06    -175.593E+06    -66.2404E+06     988.109E+03    -227.280E-03     452.768E-03    -225.487E-03     49.9810E-03    -227.588E-03     452.277E-03    -225.414E-03     46.9618E-03
             658     4.31172E-03     115.164E-03    -91.4505E+06    -146.946E+06    -45.0050E+06     1.30748E+06    -227.313E-03     453.047E-03    -225.734E-03     56.8591E-03    -227.678E-03     452.695E-03    -225.613E-03     53.3579E-03
             659     5.02742E-03     115.258E-03    -84.3895E+06    -117.455E+06    -27.8315E+06     1.76513E+06    -227.286E-03     453.163E-03    -225.877E-03     64.4933E-03    -227.754E-03     452.995E-03    -225.723E-03     60.3154E-03
             660     5.74389E-03     115.354E-03    -80.5045E+06    -99.9214E+06    -16.4643E+06    -1.31730E+06    -226.810E-03     452.725E-03    -225.915E-03     75.0429E-03    -227.396E-03     452.718E-03    -225.736E-03     70.0392E-03
             661     6.46419E-03     115.470E-03    -70.2603E+06    -75.5614E+06    -1.78351E+06    -2.73133E+06    -226.172E-03     452.021E-03    -225.849E-03     81.0328E-03    -226.831E-03     452.167E-03    -225.646E-03     75.5188E-03
             662     7.18241E-03     115.586E-03    -60.6165E+06    -46.9798E+06     12.0392E+06    -465.307E+03    -226.261E-03     451.995E-03    -225.735E-03     86.9989E-03    -227.007E-03     452.325E-03    -225.519E-03     81.0126E-03
             663     7.90392E-03     115.729E-03    -54.9408E+06    -14.3818E+06     25.8908E+06     2.32804E+06    -227.545E-03     453.212E-03    -225.667E-03     97.3413E-03    -228.432E-03     453.777E-03    -225.437E-03     90.8497E-03
             664     8.62177E-03     115.874E-03    -48.5005E+06     13.5401E+06     39.7513E+06     2.07843E+06    -230.166E-03     455.904E-03    -225.738E-03     105.365E-03    -231.205E-03     456.704E-03    -225.488E-03     98.0970E-03
             665     9.33483E-03     116.022E-03    -40.9046E+06     25.3484E+06     47.5828E+06     1.50887E+06    -231.145E-03     457.050E-03    -225.905E-03     111.238E-03    -232.295E-03     458.006E-03    -225.644E-03     103.222E-03
             666     10.0511E-03     116.182E-03    -33.6181E+06     29.5290E+06     53.7059E+06     4.51663E+06    -229.540E-03     455.550E-03    -226.010E-03     117.273E-03    -230.817E-03     456.657E-03    -225.736E-03     108.509E-03
             667     10.7713E-03     116.348E-03    -28.3800E+06     37.2376E+06     63.5251E+06     4.58428E+06    -227.323E-03     453.303E-03    -225.979E-03     120.468E-03    -228.742E-03     454.568E-03    -225.675E-03     110.921E-03
             668     11.4930E-03     116.512E-03    -23.7851E+06     50.9984E+06     76.2005E+06     411.141E+03    -226.146E-03     452.003E-03    -225.856E-03     120.689E-03    -227.644E-03     453.376E-03    -225.515E-03     110.695E-03
             669     12.2149E-03     116.676E-03    -18.4732E+06     60.8101E+06     84.1857E+06     66.7100E+03    -228.243E-03     454.006E-03    -225.763E-03     121.062E-03    -229.819E-03     455.488E-03    -225.404E-03     110.445E-03
             670     12.9312E-03     116.849E-03    -12.3568E+06     65.7127E+06     86.1867E+06    -100.792E+03    -229.243E-03     455.011E-03    -225.768E-03     112.327E-03    -230.793E-03     456.501E-03    -225.415E-03     101.164E-03
             671     13.6460E-03     116.991E-03    -5.77309E+06     74.0200E+06     88.8599E+06    -466.603E+03    -227.574E-03     453.359E-03    -225.786E-03     103.930E-03    -228.912E-03     454.682E-03    -225.440E-03     93.8053E-03
             672     722.239E-06     116.394E-03    -119.776E+06    -228.880E+06    -117.628E+06     830.261E+03    -224.534E-03     447.004E-03    -222.469E-03     8.79030E-03    -224.593E-03     446.215E-03    -222.552E-03     8.30295E-03
             673     1.44185E-03     116.422E-03    -121.808E+06    -222.857E+06    -114.286E+06    -494.756E+03    -226.591E-03     450.673E-03    -224.082E-03     20.1275E-03    -226.719E-03     449.914E-03    -224.154E-03     18.8659E-03
             674     2.15749E-03     116.453E-03    -116.009E+06    -204.628E+06    -101.069E+06     1.03377E+06    -226.104E-03     450.998E-03    -224.894E-03     28.4399E-03    -226.284E-03     450.334E-03    -224.934E-03     26.6118E-03
             675     2.87647E-03     116.512E-03    -105.552E+06    -183.828E+06    -77.3342E+06     2.56858E+06    -226.640E-03     451.916E-03    -225.276E-03     38.7620E-03    -226.868E-03     451.342E-03    -225.243E-03     36.4956E-03
             676     3.59178E-03     116.577E-03    -98.2279E+06    -170.465E+06    -60.5503E+06     414.150E+03    -228.424E-03     454.115E-03    -225.691E-03     48.0235E-03    -228.715E-03     453.627E-03    -225.604E-03     45.0331E-03
             677     4.30365E-03     116.655E-03    -93.4969E+06    -150.136E+06    -48.9939E+06    -30.6416E+03    -227.176E-03     453.155E-03    -225.979E-03     57.4731E-03    -227.552E-03     452.808E-03    -225.871E-03     53.8337E-03
             678     5.02476E-03     116.742E-03    -84.7288E+06    -120.562E+06    -31.5906E+06     1.16392E+06    -225.875E-03     451.844E-03    -225.969E-03     67.2406E-03    -226.342E-03     451.674E-03    -225.829E-03     63.0612E-03
             679     5.74616E-03     116.845E-03    -73.5193E+06    -92.1605E+06    -11.4934E+06     1.36444E+06    -226.435E-03     452.316E-03    -225.881E-03     75.6860E-03    -226.990E-03     452.316E-03    -225.698E-03     70.9064E-03
             680     6.46301E-03     116.956E-03    -70.1787E+06    -69.3576E+06     274.832E+03     528.146E+03    -227.407E-03     453.255E-03    -225.848E-03     83.1320E-03    -228.077E-03     453.428E-03    -225.644E-03     77.7335E-03
             681     7.18032E-03     117.078E-03    -67.7142E+06    -50.8425E+06     8.93695E+06     -93.435E+03    -228.318E-03     454.200E-03    -225.882E-03     89.8323E-03    -229.105E-03     454.540E-03    -225.665E-03     83.7599E-03
             682     7.89765E-03     117.207E-03    -58.9884E+06    -18.9654E+06     22.2289E+06    -425.045E+03    -227.612E-03     453.504E-03    -225.892E-03     96.6745E-03    -228.508E-03     454.058E-03    -225.667E-03     90.1042E-03
             683     8.62051E-03     117.363E-03    -48.9455E+06     12.1634E+06     36.6050E+06     797.237E+03    -227.206E-03     453.033E-03    -225.827E-03     103.729E-03    -228.211E-03     453.802E-03    -225.591E-03     96.6920E-03
             684     9.33999E-03     117.520E-03    -43.2654E+06     20.4599E+06     45.4235E+06     2.55654E+06    -227.914E-03     453.683E-03    -225.769E-03     109.768E-03    -229.053E-03     454.609E-03    -225.509E-03     101.917E-03
             685     10.0575E-03     117.670E-03    -36.3766E+06     25.0611E+06     51.1069E+06     1.74265E+06    -227.908E-03     453.615E-03    -225.707E-03     118.828E-03    -229.211E-03     454.729E-03    -225.435E-03     109.998E-03
             686     10.7756E-03     117.837E-03    -26.5096E+06     39.5948E+06     63.5642E+06     2.75094E+06    -228.086E-03     453.738E-03    -225.652E-03     122.930E-03    -229.532E-03     455.046E-03    -225.353E-03     113.217E-03
             687     11.4953E-03     117.993E-03    -20.1675E+06     55.3436E+06     79.6167E+06     4.32510E+06    -229.920E-03     455.614E-03    -225.694E-03     121.147E-03    -231.454E-03     457.042E-03    -225.347E-03     110.797E-03
             688     12.2117E-03     118.169E-03    -17.2222E+06     64.0446E+06     86.3909E+06     1.41297E+06    -230.576E-03     456.368E-03    -225.792E-03     120.239E-03    -232.150E-03     457.858E-03    -225.428E-03     109.529E-03
             689     12.9280E-03     118.340E-03    -13.9819E+06     66.2989E+06     85.7862E+06    -1.48621E+06    -228.712E-03     454.558E-03    -225.846E-03     111.475E-03    -230.229E-03     456.012E-03    -225.492E-03     100.554E-03
             690     13.6498E-03     118.478E-03    -7.01603E+06     72.8749E+06     87.7737E+06    -1.45267E+06    -226.877E-03     452.704E-03    -225.827E-03     103.054E-03    -228.216E-03     454.022E-03    -225.484E-03     92.9112E-03
             691     719.469E-06     117.876E-03    -117.186E+06    -228.785E+06    -116.625E+06     551.950E+03    -226.266E-03     452.501E-03    -226.235E-03     5.13827E-03    -226.314E-03     451.704E-03    -226.317E-03     4.81827E-03
             692     1.43468E-03     117.911E-03    -115.846E+06    -214.850E+06    -108.898E+06    -2.40003E+06    -226.621E-03     452.936E-03    -226.315E-03     15.6046E-03    -226.726E-03     452.190E-03    -226.380E-03     14.6134E-03
             693     2.15140E-03     117.945E-03    -111.542E+06    -204.599E+06    -97.9030E+06    -3.39925E+06    -226.776E-03     453.229E-03    -226.453E-03     25.0603E-03    -226.929E-03     452.546E-03    -226.485E-03     23.2838E-03
             694     2.86896E-03     117.994E-03    -103.552E+06    -189.414E+06    -81.8546E+06    -1.04759E+06    -225.615E-03     452.016E-03    -226.402E-03     37.8435E-03    -225.825E-03     451.425E-03    -226.386E-03     35.3583E-03
             695     3.58882E-03     118.072E-03    -97.5395E+06    -172.755E+06    -63.8995E+06     2.71159E+06    -224.119E-03     450.191E-03    -226.072E-03     49.6226E-03    -224.400E-03     449.698E-03    -225.999E-03     46.7105E-03
             696     4.31135E-03     118.143E-03    -90.6299E+06    -149.144E+06    -45.8004E+06     1.90777E+06    -225.001E-03     450.735E-03    -225.734E-03     60.4236E-03    -225.372E-03     450.388E-03    -225.616E-03     56.9042E-03
             697     5.02925E-03     118.228E-03    -84.1690E+06    -121.802E+06    -31.3382E+06     1.52984E+06    -226.830E-03     452.455E-03    -225.624E-03     70.4598E-03    -227.296E-03     452.280E-03    -225.482E-03     66.3522E-03
             698     5.74522E-03     118.334E-03    -79.3246E+06    -98.8560E+06    -17.7465E+06     4.14767E+06    -227.115E-03     452.769E-03    -225.655E-03     76.2216E-03    -227.668E-03     452.742E-03    -225.485E-03     71.6536E-03
             699     6.46584E-03     118.442E-03    -72.4494E+06    -70.4667E+06    -270.770E+03     6.09920E+06    -227.396E-03     453.089E-03    -225.693E-03     84.2764E-03    -228.065E-03     453.251E-03    -225.487E-03     79.1203E-03
             700     7.18449E-03     118.572E-03    -64.0565E+06    -40.6779E+06     17.1555E+06     3.80066E+06    -229.375E-03     455.173E-03    -225.797E-03     92.4498E-03    -230.169E-03     455.545E-03    -225.560E-03     86.5376E-03
             701     7.89933E-03     118.702E-03    -59.5791E+06    -14.1245E+06     24.7860E+06    -762.635E+03    -230.023E-03     455.967E-03    -225.944E-03     98.3706E-03    -230.952E-03     456.563E-03    -225.713E-03     91.6183E-03
             702     8.61327E-03     118.845E-03    -55.0820E+06     8.15568E+06     30.6774E+06    -1.83422E+06    -226.707E-03     452.642E-03    -225.935E-03     105.072E-03    -227.767E-03     453.447E-03    -225.713E-03     97.7350E-03
             703     9.33689E-03     119.000E-03    -45.6867E+06     17.7599E+06     42.1360E+06    -1.79590E+06    -224.272E-03     449.990E-03    -225.718E-03     110.111E-03    -225.420E-03     450.917E-03    -225.466E-03     102.250E-03
             704     10.0607E-03     119.157E-03    -35.1131E+06     24.9842E+06     55.1873E+06    -1.44823E+06    -225.769E-03     451.255E-03    -225.485E-03     115.270E-03    -227.009E-03     452.298E-03    -225.195E-03     106.767E-03
             705     10.7831E-03     119.321E-03    -26.6502E+06     32.5285E+06     65.5458E+06     34.0035E+03    -229.617E-03     455.052E-03    -225.435E-03     119.947E-03    -230.959E-03     456.225E-03    -225.116E-03     110.708E-03
             706     11.4970E-03     119.494E-03    -18.1751E+06     51.0734E+06     78.6500E+06     3.49572E+06    -232.965E-03     458.578E-03    -225.613E-03     120.821E-03    -234.440E-03     459.942E-03    -225.267E-03     110.629E-03
             707     12.2091E-03     119.663E-03    -10.3591E+06     70.1253E+06     90.6286E+06     4.65419E+06    -230.819E-03     456.640E-03    -225.821E-03     118.768E-03    -232.377E-03     458.147E-03    -225.454E-03     108.001E-03
             708     12.9305E-03     119.823E-03    -8.13239E+06     73.1057E+06     90.2813E+06     1.85029E+06    -227.444E-03     453.290E-03    -225.846E-03     113.739E-03    -228.984E-03     454.799E-03    -225.489E-03     102.815E-03
             709     13.6453E-03     119.973E-03    -5.91987E+06     73.3874E+06     87.4727E+06    -1.06902E+06    -227.028E-03     452.811E-03    -225.783E-03     104.452E-03    -228.362E-03     454.130E-03    -225.443E-03     94.4241E-03
             710     710.126E-06     119.380E-03    -114.047E+06    -230.972E+06    -113.207E+06     272.813E+03    -227.242E-03     457.048E-03    -229.806E-03     12.5257E-03    -227.294E-03     456.248E-03    -229.872E-03     11.6284E-03
             711     1.43019E-03     119.396E-03    -109.104E+06    -209.443E+06    -102.269E+06     1.45857E+06    -226.308E-03     454.360E-03    -228.052E-03     22.0510E-03    -226.418E-03     453.644E-03    -228.101E-03     20.6759E-03
             712     2.15083E-03     119.439E-03    -106.693E+06    -199.852E+06    -89.9554E+06    -617.966E+03    -226.173E-03     453.566E-03    -227.393E-03     31.4583E-03    -226.334E-03     452.901E-03    -227.398E-03     29.5967E-03
             713     2.86650E-03     119.488E-03    -107.654E+06    -194.771E+06    -83.1726E+06    -1.37778E+06    -224.541E-03     451.391E-03    -226.850E-03     40.2155E-03    -224.771E-03     450.789E-03    -226.828E-03     37.6707E-03
             714     3.58929E-03     119.545E-03    -101.905E+06    -178.964E+06    -68.2207E+06     797.105E+03    -222.360E-03     448.489E-03    -226.129E-03     49.7712E-03    -222.651E-03     447.982E-03    -226.063E-03     46.7589E-03
             715     4.31254E-03     119.626E-03    -92.5005E+06    -151.890E+06    -47.8663E+06     2.60048E+06    -224.301E-03     449.875E-03    -225.574E-03     58.2330E-03    -224.652E-03     449.496E-03    -225.459E-03     54.9550E-03
             716     5.03038E-03     119.721E-03    -84.1974E+06    -124.304E+06    -29.1012E+06     4.74775E+06    -226.626E-03     452.081E-03    -225.455E-03     66.2327E-03    -227.065E-03     451.864E-03    -225.298E-03     62.3830E-03
             717     5.74887E-03     119.821E-03    -77.8163E+06    -101.658E+06    -14.2732E+06     4.81519E+06    -227.117E-03     452.635E-03    -225.517E-03     74.3034E-03    -227.665E-03     452.586E-03    -225.328E-03     69.6666E-03
             718     6.46514E-03     119.930E-03    -68.1951E+06    -75.1216E+06     639.608E+03     3.64177E+06    -227.591E-03     453.167E-03    -225.577E-03     83.7365E-03    -228.241E-03     453.307E-03    -225.366E-03     78.4372E-03
             719     7.18289E-03     120.060E-03    -60.0737E+06    -42.1458E+06     14.7339E+06     6.78184E+06    -228.189E-03     453.810E-03    -225.621E-03     93.6649E-03    -228.941E-03     454.156E-03    -225.399E-03     88.0355E-03
             720     7.90104E-03     120.198E-03    -52.9043E+06    -5.36613E+06     32.4419E+06     7.55175E+06    -228.592E-03     454.271E-03    -225.679E-03     100.416E-03    -229.498E-03     454.876E-03    -225.432E-03     94.0394E-03
             721     8.62036E-03     120.335E-03    -47.5685E+06     16.9228E+06     42.4473E+06     1.57173E+06    -227.666E-03     453.342E-03    -225.676E-03     106.397E-03    -228.735E-03     454.180E-03    -225.420E-03     99.0006E-03
             722     9.33971E-03     120.476E-03    -41.9078E+06     23.1254E+06     49.1400E+06    -2.23762E+06    -227.105E-03     452.707E-03    -225.602E-03     112.062E-03    -228.268E-03     453.662E-03    -225.329E-03     104.070E-03
             723     10.0601E-03     120.642E-03    -36.1300E+06     24.2053E+06     56.6134E+06    -3.76157E+06    -228.820E-03     454.398E-03    -225.578E-03     113.099E-03    -230.048E-03     455.419E-03    -225.278E-03     104.485E-03
             724     10.7766E-03     120.806E-03    -30.9628E+06     26.4883E+06     60.9937E+06    -3.72426E+06    -230.725E-03     456.390E-03    -225.665E-03     114.965E-03    -232.022E-03     457.495E-03    -225.354E-03     105.763E-03
             725     11.4942E-03     120.994E-03    -23.8222E+06     43.9521E+06     71.6214E+06    -1.65369E+06    -229.992E-03     455.781E-03    -225.790E-03     116.396E-03    -231.424E-03     457.077E-03    -225.461E-03     106.366E-03
             726     12.2131E-03     121.152E-03    -14.7850E+06     65.8083E+06     84.0285E+06     472.658E+03    -227.920E-03     453.753E-03    -225.833E-03     114.330E-03    -229.471E-03     455.241E-03    -225.486E-03     103.469E-03
             727     12.9295E-03     121.309E-03    -4.24115E+06     76.9165E+06     92.0719E+06     3.48248E+06    -226.460E-03     452.241E-03    -225.781E-03     112.638E-03    -228.008E-03     453.779E-03    -225.426E-03     101.607E-03
             728     13.6541E-03     121.461E-03    -1.19300E+06     77.8035E+06     92.5276E+06     3.25147E+06    -226.906E-03     452.611E-03    -225.706E-03     105.015E-03    -228.203E-03     453.913E-03    -225.354E-03     95.2929E-03
             729     722.212E-06     120.871E-03    -116.641E+06    -237.552E+06    -114.919E+06     2.86265E+06    -225.877E-03     451.288E-03    -225.411E-03     17.0434E-03    -225.934E-03     450.467E-03    -225.472E-03     16.2345E-03
             730     1.43629E-03     120.892E-03    -113.492E+06    -215.870E+06    -104.751E+06     5.40119E+06    -227.425E-03     453.365E-03    -225.940E-03     26.4521E-03    -227.553E-03     452.633E-03    -225.987E-03     25.0319E-03
             731     2.15102E-03     120.927E-03    -109.653E+06    -202.817E+06    -88.9660E+06     5.99817E+06    -226.006E-03     452.250E-03    -226.244E-03     34.5816E-03    -226.185E-03     451.579E-03    -226.236E-03     32.7457E-03
             732     2.87315E-03     120.977E-03    -103.761E+06    -190.228E+06    -72.3440E+06     2.35356E+06    -225.183E-03     451.254E-03    -226.072E-03     40.7846E-03    -225.421E-03     450.659E-03    -226.007E-03     38.1858E-03
             733     3.59074E-03     121.027E-03    -96.1765E+06    -176.412E+06    -59.2409E+06    -1.27422E+06    -226.451E-03     452.406E-03    -225.956E-03     49.7480E-03    -226.743E-03     451.903E-03    -225.857E-03     46.4442E-03
             734     4.30676E-03     121.114E-03    -89.0151E+06    -151.106E+06    -44.2802E+06     3.10278E+06    -226.167E-03     452.103E-03    -225.936E-03     58.1046E-03    -226.513E-03     451.725E-03    -225.809E-03     54.7102E-03
             735     5.02664E-03     121.206E-03    -81.6471E+06    -126.157E+06    -26.7296E+06     4.25734E+06    -224.811E-03     450.607E-03    -225.795E-03     64.5569E-03    -225.236E-03     450.371E-03    -225.628E-03     60.7008E-03
             736     5.74696E-03     121.307E-03    -72.1320E+06    -103.406E+06    -11.6669E+06     2.51779E+06    -225.851E-03     451.471E-03    -225.620E-03     74.1078E-03    -226.364E-03     451.395E-03    -225.424E-03     69.5206E-03
             737     6.46612E-03     121.422E-03    -64.6228E+06    -76.8197E+06     1.87893E+06     4.82074E+06    -227.619E-03     453.210E-03    -225.591E-03     82.9395E-03    -228.243E-03     453.327E-03    -225.377E-03     77.6950E-03
             738     7.18509E-03     121.544E-03    -58.5130E+06    -47.7206E+06     15.8782E+06     6.80265E+06    -226.669E-03     452.249E-03    -225.581E-03     91.1004E-03    -227.402E-03     452.559E-03    -225.347E-03     85.4450E-03
             739     7.90603E-03     121.686E-03    -49.0994E+06    -8.97810E+06     33.9068E+06     7.89173E+06    -225.693E-03     451.149E-03    -225.456E-03     97.5825E-03    -226.552E-03     451.704E-03    -225.202E-03     91.4043E-03
             740     8.62593E-03     121.820E-03    -41.3514E+06     22.1815E+06     48.7110E+06     6.88272E+06    -228.617E-03     454.028E-03    -225.411E-03     101.759E-03    -229.631E-03     454.832E-03    -225.139E-03     94.5717E-03
             741     9.34229E-03     121.971E-03    -35.9611E+06     31.7985E+06     57.4667E+06     4.60150E+06    -231.501E-03     457.093E-03    -225.591E-03     106.490E-03    -232.624E-03     458.034E-03    -225.298E-03     98.5121E-03
             742     10.0553E-03     122.131E-03    -31.4308E+06     29.6096E+06     63.7161E+06      1.8392E+06    -232.525E-03     458.400E-03    -225.874E-03     113.490E-03    -233.767E-03     459.450E-03    -225.553E-03     104.717E-03
             743     10.7687E-03     122.306E-03    -29.5784E+06     26.2098E+06     64.5509E+06    -265.152E+03    -230.997E-03     457.067E-03    -226.070E-03     117.094E-03    -232.355E-03     458.226E-03    -225.742E-03     107.571E-03
             744     11.4866E-03     122.471E-03    -26.1726E+06     43.3798E+06     70.9597E+06    -1.97550E+06    -226.635E-03     452.692E-03    -226.057E-03     117.736E-03    -228.116E-03     454.028E-03    -225.727E-03     107.624E-03
             745     12.2091E-03     122.641E-03    -19.5360E+06     64.3868E+06     81.3685E+06    -2.84821E+06    -225.365E-03     451.264E-03    -225.899E-03     116.112E-03    -226.949E-03     452.772E-03    -225.558E-03     105.295E-03
             746     12.9316E-03     122.794E-03    -11.9415E+06     69.1251E+06     85.5934E+06    -2.08436E+06    -226.070E-03     451.824E-03    -225.754E-03     111.091E-03    -227.598E-03     453.307E-03    -225.409E-03     100.158E-03
             747     13.6474E-03     122.945E-03    -2.58051E+06     77.6011E+06     92.1068E+06     1.73824E+06    -226.724E-03     452.400E-03    -225.676E-03     105.634E-03    -228.021E-03     453.696E-03    -225.324E-03     95.9458E-03
             748     720.913E-06     122.352E-03    -119.062E+06    -238.666E+06    -118.998E+06    -2.47419E+06    -224.878E-03     449.250E-03    -224.372E-03     10.2759E-03    -224.931E-03     448.421E-03    -224.448E-03     9.67692E-03
             749     1.44011E-03     122.385E-03    -117.483E+06    -226.714E+06    -113.075E+06    -596.214E+03    -225.560E-03     450.334E-03    -224.774E-03     19.4400E-03    -225.663E-03     449.548E-03    -224.841E-03     18.3099E-03
             750     2.15863E-03     122.415E-03    -109.783E+06    -208.139E+06    -94.2803E+06     3.68901E+06    -225.560E-03     450.617E-03    -225.057E-03     28.7968E-03    -225.712E-03     449.915E-03    -225.068E-03     27.1341E-03
             751     2.87509E-03     122.460E-03    -98.6949E+06    -187.759E+06    -70.6614E+06     3.38634E+06    -226.976E-03     452.329E-03    -225.353E-03     38.8365E-03    -227.186E-03     451.728E-03    -225.291E-03     36.3520E-03
             752     3.59105E-03     122.525E-03    -92.5938E+06    -174.793E+06    -54.5741E+06     2.60249E+06    -228.420E-03     454.203E-03    -225.783E-03     49.8836E-03    -228.695E-03     453.687E-03    -225.668E-03     46.7750E-03
             753     4.30638E-03     122.604E-03    -86.3499E+06    -152.991E+06    -41.0016E+06     3.99260E+06    -226.962E-03     452.993E-03    -226.031E-03     59.3946E-03    -227.316E-03     452.617E-03    -225.889E-03     55.7843E-03
             754     5.02589E-03     122.687E-03    -78.8701E+06    -126.850E+06    -26.0167E+06     3.85819E+06    -225.619E-03     451.588E-03    -225.968E-03     67.2347E-03    -226.056E-03     451.370E-03    -225.800E-03     63.0952E-03
             755     5.74639E-03     122.793E-03    -73.0729E+06    -105.946E+06    -11.8962E+06     3.76221E+06    -226.179E-03     452.016E-03    -225.838E-03     75.2177E-03    -226.702E-03     451.939E-03    -225.638E-03     70.5732E-03
             756     6.46520E-03     122.909E-03    -66.4525E+06    -81.0281E+06     3.03378E+06     5.10258E+06    -227.015E-03     452.798E-03    -225.784E-03     82.1396E-03    -227.642E-03     452.893E-03    -225.555E-03     76.8871E-03
             757     7.18121E-03     123.037E-03    -56.3797E+06    -48.6926E+06     19.5252E+06     5.21995E+06    -226.618E-03     452.359E-03    -225.742E-03     87.1168E-03    -227.364E-03     452.676E-03    -225.492E-03     81.0911E-03
             758     7.90244E-03     123.158E-03    -49.0435E+06    -15.9680E+06     31.7282E+06     5.17044E+06    -226.674E-03     452.330E-03    -225.656E-03     93.4233E-03    -227.519E-03     452.852E-03    -225.403E-03     86.9862E-03
             759     8.62234E-03     123.316E-03    -40.5583E+06     17.8968E+06     46.5644E+06     8.45882E+06    -229.302E-03     454.979E-03    -225.676E-03     99.6343E-03    -230.262E-03     455.722E-03    -225.410E-03     92.7049E-03
             760     9.33527E-03     123.465E-03    -33.5344E+06     35.8832E+06     56.5765E+06     9.17774E+06    -231.519E-03     457.382E-03    -225.864E-03     105.007E-03    -232.632E-03     458.340E-03    -225.584E-03     97.0305E-03
             761     10.0527E-03     123.626E-03    -29.5764E+06     34.6430E+06     63.5304E+06     8.25786E+06    -230.661E-03     456.725E-03    -226.064E-03     115.588E-03    -231.930E-03     457.828E-03    -225.754E-03     106.840E-03
             762     10.7709E-03     123.800E-03    -23.8902E+06     34.6394E+06     72.6781E+06     5.06034E+06    -227.505E-03     453.589E-03    -226.084E-03     121.447E-03    -228.907E-03     454.819E-03    -225.736E-03     111.998E-03
             763     11.4908E-03     123.955E-03    -18.1881E+06     47.9874E+06     79.7355E+06     1.15796E+06    -226.117E-03     452.036E-03    -225.919E-03     124.448E-03    -227.621E-03     453.415E-03    -225.564E-03     114.443E-03
             764     12.2125E-03     124.122E-03    -13.4388E+06     64.2569E+06     87.9218E+06     1.36428E+06    -227.150E-03     452.918E-03    -225.768E-03     123.611E-03    -228.751E-03     454.445E-03    -225.402E-03     112.925E-03
             765     12.9299E-03     124.285E-03    -10.6979E+06     71.0602E+06     90.5478E+06     318.837E+03    -228.107E-03     453.815E-03    -225.708E-03     113.284E-03    -229.627E-03     455.286E-03    -225.343E-03     102.517E-03
             766     13.6532E-03     124.428E-03    -6.93503E+06     76.6912E+06     89.7331E+06    -1.64814E+06    -228.769E-03     454.481E-03    -225.712E-03     105.578E-03    -230.092E-03     455.791E-03    -225.364E-03     95.6834E-03
             767     712.846E-06     123.843E-03    -116.060E+06    -231.302E+06    -113.314E+06    -2.39562E+06    -225.272E-03     452.444E-03    -227.172E-03     11.8965E-03    -225.331E-03     451.643E-03    -227.235E-03     11.1414E-03
             768     1.43344E-03     123.865E-03    -112.285E+06    -223.443E+06    -106.570E+06    -4.94452E+06    -223.644E-03     449.331E-03    -225.686E-03     19.8939E-03    -223.738E-03     448.546E-03    -225.732E-03     18.6394E-03
             769     2.15490E-03     123.901E-03    -107.562E+06    -212.728E+06    -98.3819E+06    -3.93890E+06    -225.137E-03     450.276E-03    -225.139E-03     28.1346E-03    -225.268E-03     449.557E-03    -225.167E-03     26.3034E-03
             770     2.87363E-03     123.950E-03    -103.472E+06    -196.928E+06    -82.0423E+06     1.69049E+06    -227.047E-03     452.377E-03    -225.329E-03     39.4681E-03    -227.248E-03     451.750E-03    -225.304E-03     37.0358E-03
             771     3.59028E-03     124.018E-03    -96.6728E+06    -178.660E+06    -59.0546E+06     4.88765E+06    -226.950E-03     452.604E-03    -225.654E-03     49.4188E-03    -227.220E-03     452.068E-03    -225.550E-03     46.5776E-03
             772     4.31086E-03     124.089E-03    -93.2572E+06    -160.678E+06    -46.5986E+06     2.10408E+06    -226.977E-03     452.776E-03    -225.800E-03     58.0159E-03    -227.348E-03     452.381E-03    -225.664E-03     54.3314E-03
             773     5.02813E-03     124.179E-03    -85.5175E+06    -133.191E+06    -32.0826E+06     3.41510E+06    -227.936E-03     453.867E-03    -225.931E-03     66.3214E-03    -228.393E-03     453.641E-03    -225.775E-03     62.0389E-03
             774     5.74341E-03     124.280E-03    -73.4312E+06    -103.721E+06    -9.68959E+06     6.79894E+06    -227.398E-03     453.457E-03    -226.059E-03     74.3651E-03    -227.928E-03     453.386E-03    -225.851E-03     69.7387E-03
             775     6.46143E-03     124.397E-03    -66.2152E+06    -80.1015E+06     5.67577E+06     5.16491E+06    -226.340E-03     452.361E-03    -226.021E-03     82.7922E-03    -226.965E-03     452.450E-03    -225.781E-03     77.6524E-03
             776     7.18386E-03     124.521E-03    -60.3746E+06    -54.2668E+06     15.1568E+06     3.80270E+06    -228.285E-03     454.259E-03    -225.974E-03     88.3400E-03    -229.034E-03     454.557E-03    -225.732E-03     82.3273E-03
             777     7.89843E-03     124.652E-03    -52.4044E+06    -18.1587E+06     28.4931E+06     4.97564E+06    -230.370E-03     456.474E-03    -226.104E-03     93.1473E-03    -231.245E-03     457.016E-03    -225.859E-03     86.3840E-03
             778     8.61362E-03     124.801E-03    -44.9270E+06     15.8628E+06     43.2455E+06     6.66971E+06    -228.599E-03     454.822E-03    -226.223E-03     100.026E-03    -229.587E-03     455.582E-03    -225.965E-03     92.9527E-03
             779     9.33605E-03     124.960E-03    -38.4829E+06     31.6698E+06     52.1137E+06     7.72717E+06    -227.108E-03     453.274E-03    -226.167E-03     107.904E-03    -228.234E-03     454.225E-03    -225.896E-03     100.149E-03
             780     10.0516E-03     125.117E-03    -31.0917E+06     36.6547E+06     60.8631E+06      8.4962E+06    -225.997E-03     452.001E-03    -226.004E-03     116.554E-03    -227.254E-03     453.101E-03    -225.708E-03     108.134E-03
             781     10.7753E-03     125.278E-03    -22.8759E+06     45.6367E+06     75.6312E+06     5.36096E+06    -224.716E-03     450.502E-03    -225.786E-03     120.736E-03    -226.099E-03     451.746E-03    -225.441E-03     111.592E-03
             782     11.5009E-03     125.441E-03    -16.5342E+06     51.3702E+06     84.4430E+06     1.49064E+06    -226.910E-03     452.509E-03    -225.598E-03     122.406E-03    -228.388E-03     453.865E-03    -225.227E-03     112.485E-03
             783     12.2171E-03     125.614E-03    -13.7321E+06     59.7168E+06     88.2108E+06     3.92311E+06    -229.821E-03     455.392E-03    -225.571E-03     120.866E-03    -231.414E-03     456.893E-03    -225.197E-03     109.990E-03
             784     12.9358E-03     125.773E-03    -9.14174E+06     75.2791E+06     93.4699E+06     5.90315E+06    -231.057E-03     456.747E-03    -225.690E-03     110.854E-03    -232.605E-03     458.258E-03    -225.318E-03     99.7278E-03
             785     13.6453E-03     125.925E-03    -6.56553E+06     80.5533E+06     91.5151E+06     1.22210E+06    -229.887E-03     455.698E-03    -225.811E-03     103.116E-03    -231.199E-03     457.007E-03    -225.461E-03     93.2169E-03
             786     720.519E-06     125.330E-03    -113.121E+06    -233.860E+06    -107.811E+06     4.74698E+06    -225.591E-03     451.492E-03    -225.901E-03     9.31295E-03    -225.637E-03     450.668E-03    -225.937E-03     8.93114E-03
             787     1.43896E-03     125.350E-03    -110.872E+06    -219.034E+06    -98.4159E+06     3.50399E+06    -225.128E-03     450.738E-03    -225.610E-03     20.6863E-03    -225.233E-03     449.963E-03    -225.624E-03     19.5659E-03
             788     2.15605E-03     125.386E-03    -109.901E+06    -211.595E+06    -91.1539E+06    -382.166E+03    -225.869E-03     451.393E-03    -225.524E-03     30.4384E-03    -226.025E-03     450.673E-03    -225.513E-03     28.6263E-03
             789     2.87308E-03     125.440E-03    -106.464E+06    -201.852E+06    -82.2528E+06    -655.272E+03    -226.042E-03     451.633E-03    -225.591E-03     39.6487E-03    -226.248E-03     450.983E-03    -225.555E-03     37.2574E-03
             790     3.59264E-03     125.504E-03    -99.2525E+06    -185.111E+06    -64.3352E+06     3.30797E+06    -226.542E-03     452.236E-03    -225.694E-03     47.9903E-03    -226.805E-03     451.677E-03    -225.604E-03     45.1239E-03
             791     4.30909E-03     125.578E-03    -92.3719E+06    -158.229E+06    -44.2194E+06     4.49254E+06    -228.107E-03     454.017E-03    -225.910E-03     55.9636E-03    -228.462E-03     453.611E-03    -225.768E-03     52.4733E-03
             792     5.02498E-03     125.672E-03    -86.8901E+06    -133.113E+06    -30.0538E+06     1.73798E+06    -227.975E-03     454.110E-03    -226.135E-03     64.2015E-03    -228.435E-03     453.875E-03    -225.966E-03     59.9311E-03
             793     5.74302E-03     125.770E-03    -78.1707E+06    -111.389E+06    -15.4958E+06     3.25205E+06    -227.268E-03     453.487E-03    -226.219E-03     73.9347E-03    -227.803E-03     453.394E-03    -226.021E-03     69.2247E-03
             794     6.46320E-03     125.882E-03    -67.6574E+06    -82.1125E+06     2.29590E+06     6.89491E+06    -227.829E-03     454.067E-03    -226.237E-03     81.4366E-03    -228.445E-03     454.144E-03    -226.009E-03     76.3382E-03
             795     7.17969E-03     126.009E-03    -60.7186E+06    -53.9841E+06     15.8848E+06     6.52559E+06    -229.074E-03     455.373E-03    -226.299E-03     89.0180E-03    -229.808E-03     455.653E-03    -226.053E-03     83.2273E-03
             796     7.89430E-03     126.156E-03    -54.5685E+06    -20.5204E+06     27.2661E+06     6.52882E+06    -229.398E-03     455.775E-03    -226.377E-03     96.8036E-03    -230.288E-03     456.319E-03    -226.131E-03     90.1838E-03
             797     8.61032E-03     126.286E-03    -48.7135E+06     13.8442E+06     40.5492E+06     7.07559E+06    -227.538E-03     453.895E-03    -226.357E-03     105.562E-03    -228.598E-03     454.714E-03    -226.104E-03     98.2710E-03
             798     9.32977E-03     126.441E-03    -42.3350E+06     29.8739E+06     52.1992E+06     5.33658E+06    -225.533E-03     451.710E-03    -226.176E-03     112.773E-03    -226.707E-03     452.688E-03    -225.897E-03     104.995E-03
             799     10.0586E-03     126.598E-03    -34.0975E+06     34.8999E+06     60.0005E+06     4.49849E+06    -225.084E-03     451.000E-03    -225.917E-03     112.866E-03    -226.331E-03     452.077E-03    -225.618E-03     104.378E-03
             800     10.7798E-03     126.759E-03    -26.9371E+06     49.8154E+06     72.9740E+06     5.65173E+06    -226.642E-03     452.393E-03    -225.750E-03     113.706E-03    -228.006E-03     453.625E-03    -225.419E-03     104.433E-03
             801     11.4945E-03     126.928E-03    -22.8189E+06     55.0672E+06     82.2826E+06     5.17513E+06    -228.591E-03     454.315E-03    -225.723E-03     114.931E-03    -230.040E-03     455.639E-03    -225.359E-03     105.044E-03
             802     12.2146E-03     127.102E-03    -20.0026E+06     58.0670E+06     84.4062E+06     2.96739E+06    -229.307E-03     455.064E-03    -225.757E-03     114.867E-03    -230.837E-03     456.484E-03    -225.390E-03     104.260E-03
             803     12.9270E-03     127.271E-03    -13.6032E+06     72.1830E+06     88.1698E+06     2.03371E+06    -229.012E-03     454.812E-03    -225.799E-03     111.170E-03    -230.555E-03     456.307E-03    -225.444E-03     100.167E-03
             804     13.6471E-03     127.418E-03    -4.63836E+06     83.4265E+06     93.4403E+06     3.66629E+06    -227.734E-03     453.551E-03    -225.817E-03     104.984E-03    -229.036E-03     454.862E-03    -225.464E-03     95.3791E-03
             805     717.392E-06     126.818E-03    -118.681E+06    -248.411E+06    -117.672E+06     5.01482E+06    -226.414E-03     451.541E-03    -225.127E-03     6.17150E-03    -226.451E-03     450.666E-03    -225.183E-03     5.86138E-03
             806     1.43477E-03     126.838E-03    -117.199E+06    -228.332E+06    -106.852E+06     8.71146E+06    -226.320E-03     452.191E-03    -225.871E-03     17.3924E-03    -226.430E-03     451.389E-03    -225.904E-03     16.4195E-03
             807     2.15318E-03     126.876E-03    -112.822E+06    -210.822E+06    -88.3101E+06     9.24662E+06    -225.844E-03     451.831E-03    -225.987E-03     29.4659E-03    -226.015E-03     451.111E-03    -225.959E-03     27.8557E-03
             808     2.87176E-03     126.929E-03    -107.603E+06    -198.636E+06    -74.8216E+06     3.45214E+06    -226.074E-03     452.038E-03    -225.964E-03     38.6790E-03    -226.294E-03     451.388E-03    -225.894E-03     36.4583E-03
             809     3.59011E-03     126.988E-03    -101.833E+06    -188.502E+06    -64.4871E+06     1.00512E+06    -227.214E-03     453.254E-03    -226.040E-03     48.3804E-03    -227.485E-03     452.681E-03    -225.942E-03     45.5074E-03
             810     4.30634E-03     127.077E-03    -87.7521E+06    -156.984E+06    -42.2518E+06     5.34786E+06    -227.720E-03     453.935E-03    -226.215E-03     57.5951E-03    -228.050E-03     453.518E-03    -226.071E-03     54.2798E-03
             811     5.02360E-03     127.158E-03    -80.3629E+06    -130.923E+06    -25.2184E+06     4.48006E+06    -227.500E-03     453.832E-03    -226.332E-03     64.9282E-03    -227.936E-03     453.591E-03    -226.151E-03     60.7387E-03
             812     5.74413E-03     127.258E-03    -78.5563E+06    -116.139E+06    -15.7096E+06     3.57016E+06    -228.484E-03     454.910E-03    -226.425E-03     73.4359E-03    -229.022E-03     454.802E-03    -226.221E-03     68.5747E-03
             813     6.45857E-03     127.376E-03    -71.2011E+06    -91.6946E+06    -2.65881E+06     4.89645E+06    -228.994E-03     455.541E-03    -226.547E-03     80.9972E-03    -229.618E-03     455.594E-03    -226.324E-03     75.6918E-03
             814     7.17375E-03     127.502E-03    -62.5789E+06    -58.6304E+06     12.5892E+06     7.40689E+06    -226.848E-03     453.374E-03    -226.526E-03     91.1950E-03    -227.586E-03     453.646E-03    -226.288E-03     85.4859E-03
             815     7.89767E-03     127.638E-03    -55.8727E+06    -21.5127E+06     28.5151E+06     8.72341E+06    -225.315E-03     451.611E-03    -226.297E-03     100.061E-03    -226.195E-03     452.134E-03    -226.042E-03     93.8791E-03
             816     8.62110E-03     127.780E-03    -49.1618E+06     13.2315E+06     41.7071E+06     7.77324E+06    -226.900E-03     452.967E-03    -226.066E-03     105.437E-03    -227.935E-03     453.752E-03    -225.805E-03     98.4337E-03
             817     9.34074E-03     127.925E-03    -40.1294E+06     33.8999E+06     54.5447E+06     7.79560E+06    -228.638E-03     454.636E-03    -225.999E-03     110.243E-03    -229.795E-03     455.613E-03    -225.717E-03     102.441E-03
             818     10.0521E-03     128.086E-03    -34.8140E+06     35.2171E+06     62.2624E+06     6.25941E+06    -228.861E-03     454.883E-03    -226.022E-03     110.302E-03    -230.131E-03     455.974E-03    -225.711E-03     101.507E-03
             819     10.7690E-03     128.243E-03    -31.7072E+06     47.7150E+06     69.5296E+06     6.59352E+06    -229.329E-03     455.386E-03    -226.057E-03     113.809E-03    -230.737E-03     456.649E-03    -225.732E-03     104.261E-03
             820     11.4891E-03     128.422E-03    -24.6875E+06     55.4798E+06      78.616E+06     8.10362E+06    -229.193E-03     455.295E-03    -226.101E-03     116.910E-03    -230.655E-03     456.638E-03    -225.753E-03     107.072E-03
             821     12.2041E-03     128.586E-03    -15.4093E+06     63.7313E+06     88.3514E+06     5.31313E+06    -227.258E-03     453.336E-03    -226.078E-03     117.664E-03    -228.759E-03     454.753E-03    -225.707E-03     107.460E-03
             822     12.9308E-03     128.760E-03    -10.7725E+06     77.1516E+06     92.8017E+06     2.50746E+06    -225.273E-03     451.210E-03    -225.937E-03     112.238E-03    -226.776E-03     452.680E-03    -225.569E-03     101.740E-03
             823     13.6524E-03     128.899E-03    -5.81789E+06     83.3548E+06     92.6497E+06     805.044E+03    -225.999E-03     451.788E-03    -225.789E-03     102.728E-03    -227.308E-03     453.104E-03    -225.438E-03     93.0032E-03
             824     718.348E-06     128.310E-03    -129.124E+06    -253.519E+06    -131.784E+06    -4.08353E+06    -226.352E-03     451.483E-03    -225.131E-03     12.6157E-03    -226.419E-03     450.625E-03    -225.235E-03     11.7649E-03
             825     1.43490E-03     128.329E-03    -123.914E+06    -240.187E+06    -121.403E+06     220.894E+03    -226.826E-03     452.737E-03    -225.911E-03     21.0916E-03    -226.939E-03     451.914E-03    -225.990E-03     19.8116E-03
             826     2.15303E-03     128.363E-03    -115.584E+06    -219.813E+06    -100.838E+06     7.15285E+06    -226.566E-03     452.758E-03    -226.192E-03     31.2015E-03    -226.729E-03     452.024E-03    -226.210E-03     29.3931E-03
             827     2.87221E-03     128.416E-03    -106.393E+06    -197.075E+06    -76.1376E+06     8.75399E+06    -227.071E-03     453.418E-03    -226.347E-03     39.5108E-03    -227.290E-03     452.780E-03    -226.288E-03     37.2967E-03
             828     3.58763E-03     128.483E-03    -101.359E+06    -182.879E+06    -60.1444E+06     3.16365E+06    -226.974E-03     453.429E-03    -226.455E-03     48.7811E-03    -227.260E-03     452.880E-03    -226.343E-03     45.9290E-03
             829     4.30712E-03     128.562E-03    -95.4575E+06    -165.617E+06    -49.2774E+06     464.546E+03    -226.054E-03     452.444E-03    -226.390E-03     57.6589E-03    -226.412E-03     452.018E-03    -226.258E-03     54.0987E-03
             830     5.02715E-03     128.650E-03    -85.7085E+06    -138.975E+06    -32.3565E+06     5.37434E+06    -227.458E-03     453.797E-03    -226.339E-03     66.4099E-03    -227.889E-03     453.524E-03    -226.175E-03     62.4082E-03
             831     5.73889E-03     128.753E-03    -77.1774E+06    -115.204E+06    -15.1789E+06     6.89127E+06    -229.155E-03     455.615E-03    -226.461E-03     77.3176E-03    -229.686E-03     455.508E-03    -226.258E-03     72.6943E-03
             832     6.45646E-03     128.868E-03    -69.8433E+06    -93.2638E+06    -905.377E+03     5.89185E+06    -228.410E-03     454.980E-03    -226.570E-03     85.2231E-03    -229.051E-03     455.045E-03    -226.338E-03     79.8453E-03
             833     7.17947E-03     128.987E-03    -63.6421E+06    -63.4237E+06     11.6609E+06     7.22944E+06    -226.629E-03     453.124E-03    -226.495E-03     89.6201E-03    -227.379E-03     453.389E-03    -226.253E-03     83.6916E-03
             834     7.89910E-03     129.119E-03    -56.0464E+06    -26.5056E+06     25.7222E+06     8.62373E+06    -225.605E-03     451.889E-03    -226.284E-03     94.8927E-03    -226.474E-03     452.391E-03    -226.036E-03     88.4585E-03
             835     8.61750E-03     129.265E-03    -48.3815E+06     12.4520E+06     41.2797E+06     9.36281E+06    -227.119E-03     453.231E-03    -226.112E-03     100.121E-03    -228.116E-03     453.981E-03    -225.853E-03     93.1409E-03
             836     9.33295E-03     129.418E-03    -42.3041E+06     35.0595E+06     52.7940E+06     8.98774E+06    -228.709E-03     454.784E-03    -226.074E-03     105.629E-03    -229.835E-03     455.731E-03    -225.800E-03     97.9696E-03
             837     10.0539E-03     129.579E-03    -36.1855E+06     35.8113E+06     61.3211E+06     9.36012E+06    -229.553E-03     455.679E-03    -226.126E-03     112.690E-03    -230.823E-03     456.770E-03    -225.819E-03     104.104E-03
             838     10.7709E-03     129.736E-03    -29.0173E+06     44.4402E+06     72.5798E+06     8.83604E+06    -230.458E-03     456.667E-03    -226.209E-03     119.531E-03    -231.889E-03     457.942E-03    -225.868E-03     109.999E-03
             839     11.4865E-03     129.911E-03    -22.8025E+06     57.8700E+06     82.8094E+06     7.53117E+06    -229.043E-03     455.294E-03    -226.251E-03     120.791E-03    -230.583E-03     456.718E-03    -225.888E-03     110.598E-03
             840     12.2100E-03     130.074E-03    -18.2677E+06     69.8064E+06     90.1181E+06     4.85368E+06    -227.077E-03     453.270E-03    -226.193E-03     118.651E-03    -228.663E-03     454.778E-03    -225.817E-03     108.093E-03
             841     12.9257E-03     130.239E-03    -9.65281E+06     82.5309E+06     96.2003E+06     1.92523E+06    -225.773E-03     451.834E-03    -226.061E-03     110.970E-03    -227.297E-03     453.338E-03    -225.686E-03     100.270E-03
             842     13.6448E-03     130.387E-03    -3.60465E+06     87.7953E+06     96.3310E+06      387.38E+03    -225.359E-03     451.269E-03    -225.910E-03     103.267E-03    -226.711E-03     452.640E-03    -225.550E-03     93.2632E-03
             843     720.041E-06     129.797E-03    -127.788E+06    -241.461E+06    -122.821E+06    -3.79595E+06    -225.637E-03     451.919E-03    -226.282E-03     10.7586E-03    -225.731E-03     451.104E-03    -226.360E-03     9.88443E-03
             844     1.43841E-03     129.817E-03    -122.736E+06    -235.549E+06    -116.913E+06    -7.17188E+06    -226.923E-03     453.064E-03    -226.141E-03     17.9897E-03    -227.040E-03     452.252E-03    -226.206E-03     16.5898E-03
             845     2.15405E-03     129.855E-03    -116.761E+06    -226.889E+06    -108.096E+06    -5.15317E+06    -227.978E-03     454.526E-03    -226.548E-03     29.0163E-03    -228.126E-03     453.769E-03    -226.590E-03     26.9698E-03
             846     2.86829E-03     129.907E-03    -109.423E+06    -208.464E+06    -90.6774E+06     2.15415E+06    -227.115E-03     453.915E-03    -226.800E-03     38.2875E-03    -227.312E-03     453.247E-03    -226.793E-03     35.9199E-03
             847     3.58743E-03     129.974E-03    -98.3937E+06    -181.934E+06    -63.6599E+06     6.28146E+06    -225.451E-03     452.153E-03    -226.702E-03     48.1549E-03    -225.718E-03     451.610E-03    -226.614E-03     45.3597E-03
             848     4.30533E-03     130.047E-03    -98.4386E+06    -167.788E+06    -50.4932E+06     2.76925E+06    -225.842E-03     452.299E-03    -226.457E-03     58.9438E-03    -226.229E-03     451.887E-03    -226.324E-03     55.2070E-03
             849     5.02308E-03     130.139E-03     -90.576E+06    -145.598E+06    -35.3550E+06     2.85266E+06    -227.225E-03     453.584E-03    -226.359E-03     68.2043E-03    -227.678E-03     453.301E-03    -226.193E-03     64.0648E-03
             850     5.74607E-03     130.246E-03    -78.2700E+06    -119.056E+06    -17.1004E+06     4.78796E+06    -227.421E-03     453.779E-03    -226.358E-03     75.7909E-03    -227.940E-03     453.646E-03    -226.157E-03     71.2278E-03
             851     6.46455E-03     130.357E-03    -71.1266E+06    -96.6404E+06    -2.87755E+06     5.45862E+06    -228.046E-03     454.412E-03    -226.367E-03     83.2597E-03    -228.677E-03     454.457E-03    -226.138E-03     77.9088E-03
             852     7.17653E-03     130.480E-03    -61.2695E+06    -65.9896E+06     11.5332E+06     6.67009E+06    -228.913E-03     455.331E-03    -226.417E-03     87.8575E-03    -229.665E-03     455.597E-03    -226.175E-03     81.6449E-03
             853     7.89253E-03     130.605E-03    -53.2732E+06    -33.2939E+06     23.5640E+06     9.60466E+06    -228.560E-03     455.014E-03    -226.454E-03     95.1328E-03    -229.445E-03     455.524E-03    -226.211E-03     88.2615E-03
             854     8.61260E-03     130.752E-03    -47.2553E+06     8.47137E+06     38.5871E+06     12.5462E+06    -227.565E-03     453.965E-03    -226.400E-03     103.569E-03    -228.589E-03     454.740E-03    -226.151E-03     96.3975E-03
             855     9.33381E-03     130.910E-03    -43.2596E+06     35.8712E+06     51.3862E+06     12.0253E+06    -227.256E-03     453.548E-03    -226.292E-03     107.438E-03    -228.398E-03     454.515E-03    -226.024E-03     99.8133E-03
             856     10.0532E-03     131.059E-03    -36.7611E+06     39.4295E+06     61.8874E+06     9.56621E+06    -228.681E-03     454.927E-03    -226.246E-03     112.019E-03    -229.942E-03     456.018E-03    -225.940E-03     103.543E-03
             857     10.7715E-03     131.237E-03    -28.0371E+06     40.9876E+06     71.4947E+06     7.18369E+06    -229.146E-03     455.405E-03    -226.259E-03     115.578E-03    -230.505E-03     456.603E-03    -225.920E-03     106.316E-03
             858     11.4898E-03     131.395E-03    -19.4649E+06     60.3288E+06     85.2023E+06     7.49921E+06    -228.227E-03     454.478E-03    -226.251E-03     118.028E-03    -229.724E-03     455.873E-03    -225.885E-03     107.979E-03
             859     12.2047E-03     131.564E-03    -13.3780E+06     80.1957E+06     96.2394E+06     7.47260E+06    -227.427E-03     453.616E-03    -226.189E-03     118.963E-03    -229.022E-03     455.168E-03    -225.804E-03     108.375E-03
             860     12.9259E-03     131.726E-03    -10.2242E+06     83.2227E+06     96.8883E+06     2.89013E+06    -226.179E-03     452.247E-03    -226.067E-03     114.520E-03    -227.741E-03     453.787E-03    -225.689E-03     103.769E-03
             861     13.6470E-03     131.873E-03    -4.41467E+06     89.8119E+06     98.1609E+06     1.19687E+06    -225.301E-03     451.215E-03    -225.913E-03     108.622E-03    -226.703E-03     452.635E-03    -225.546E-03     98.6220E-03
             862     713.519E-06     131.287E-03    -118.798E+06    -238.198E+06    -114.028E+06     4.33813E+06    -226.033E-03     453.510E-03    -227.477E-03     14.3639E-03    -226.108E-03     452.691E-03    -227.529E-03     13.4656E-03
             863     1.43145E-03     131.307E-03    -118.268E+06    -226.722E+06    -105.395E+06     2.56117E+06    -227.980E-03     454.965E-03    -226.985E-03     21.3504E-03    -228.111E-03     454.182E-03    -227.012E-03     19.9599E-03
             864     2.14911E-03     131.351E-03    -117.763E+06    -221.402E+06    -96.7069E+06    -3.16727E+06    -227.338E-03     454.582E-03    -227.244E-03     30.0623E-03    -227.517E-03     453.838E-03    -227.235E-03     28.0749E-03
             865     2.86747E-03     131.400E-03    -114.466E+06    -213.847E+06    -90.2504E+06    -4.22987E+06    -225.751E-03     452.800E-03    -227.049E-03     39.5273E-03    -225.975E-03     452.121E-03    -227.024E-03     36.9646E-03
             866     3.58692E-03     131.457E-03    -106.896E+06    -194.916E+06    -76.6029E+06     602.314E+03    -225.513E-03     452.216E-03    -226.703E-03     48.6250E-03    -225.790E-03     451.644E-03    -226.649E-03     45.6464E-03
             867     4.30861E-03     131.536E-03    -94.8511E+06    -164.939E+06    -52.8678E+06     3.64674E+06    -226.732E-03     453.270E-03    -226.538E-03     58.5679E-03    -227.088E-03     452.857E-03    -226.426E-03     55.0307E-03
             868     5.02568E-03     131.632E-03    -86.4618E+06    -142.188E+06    -33.0405E+06     2.33532E+06    -227.547E-03     454.089E-03    -226.542E-03     66.5775E-03    -227.991E-03     453.817E-03    -226.376E-03     62.3293E-03
             869     5.73912E-03     131.731E-03    -80.2535E+06    -123.639E+06    -18.0980E+06     3.15580E+06    -227.093E-03     453.635E-03    -226.542E-03     72.3698E-03    -227.609E-03     453.480E-03    -226.337E-03     67.6925E-03
             870     6.45796E-03     131.846E-03    -73.6528E+06    -101.553E+06    -5.75998E+06     4.11090E+06    -226.604E-03     453.049E-03    -226.445E-03     81.1988E-03    -227.215E-03     453.054E-03    -226.220E-03     76.0432E-03
             871     7.18028E-03     131.974E-03    -65.2314E+06    -73.9513E+06     6.14539E+06     3.63265E+06    -227.759E-03     454.106E-03    -226.347E-03     89.7174E-03    -228.491E-03     454.326E-03    -226.114E-03     83.7803E-03
             872     7.89777E-03     132.098E-03    -57.5514E+06    -41.4560E+06     19.2361E+06     7.40970E+06    -229.769E-03     456.143E-03    -226.373E-03     98.1225E-03    -230.645E-03     456.611E-03    -226.134E-03     91.4683E-03
             873     8.61255E-03     132.244E-03    -50.2612E+06     382.635E+03     33.8635E+06     12.0625E+06    -229.518E-03     455.958E-03    -226.440E-03     104.254E-03    -230.548E-03     456.712E-03    -226.198E-03     96.9901E-03
             874     9.33222E-03     132.389E-03    -41.7954E+06     34.8010E+06     49.8946E+06     14.6083E+06    -229.005E-03     455.474E-03    -226.470E-03     107.083E-03    -230.158E-03     456.458E-03    -226.210E-03     99.2405E-03
             875     10.0485E-03     132.559E-03    -35.4447E+06     43.9307E+06     63.0741E+06     13.1628E+06    -228.462E-03     454.940E-03    -226.478E-03     111.630E-03    -229.756E-03     456.082E-03    -226.175E-03     102.927E-03
             876     10.7654E-03     132.716E-03    -31.8398E+06     48.0361E+06     71.6302E+06     8.94359E+06    -226.751E-03     453.145E-03    -226.394E-03     115.935E-03    -228.162E-03     454.406E-03    -226.059E-03     106.618E-03
             877     11.4873E-03     132.885E-03    -25.1185E+06     63.1223E+06     81.8039E+06     4.50768E+06    -226.321E-03     452.551E-03    -226.230E-03     119.733E-03    -227.831E-03     453.959E-03    -225.877E-03     109.887E-03
             878     12.2099E-03     133.052E-03    -14.3110E+06     79.1832E+06     95.1277E+06     5.25173E+06    -226.516E-03     452.604E-03    -226.088E-03     120.286E-03    -228.136E-03     454.179E-03    -225.706E-03     109.602E-03
             879     12.9303E-03     133.209E-03    -6.88455E+06     88.6050E+06     102.875E+06     6.76733E+06    -225.996E-03     451.957E-03    -225.961E-03     113.514E-03    -227.562E-03     453.514E-03    -225.565E-03     102.763E-03
             880     13.6497E-03     133.361E-03    -4.66941E+06      93.798E+06     101.609E+06     2.59341E+06    -226.036E-03     451.863E-03    -225.827E-03     106.223E-03    -227.399E-03     453.248E-03    -225.448E-03     96.4382E-03
             881     723.560E-06     132.772E-03    -128.858E+06    -251.433E+06    -129.719E+06     3.52748E+06    -225.932E-03     453.536E-03    -227.605E-03     13.5077E-03    -226.014E-03     452.687E-03    -227.702E-03     13.0134E-03
             882     1.43670E-03     132.810E-03    -126.966E+06    -237.191E+06    -116.666E+06     7.14638E+06    -227.666E-03     454.591E-03    -226.925E-03     23.3086E-03    -227.807E-03     453.785E-03    -226.981E-03     22.1041E-03
             883     2.15082E-03     132.840E-03    -120.738E+06    -219.672E+06    -95.9934E+06     7.16413E+06    -226.299E-03     453.309E-03    -227.010E-03     30.5472E-03    -226.493E-03     452.575E-03    -226.996E-03     28.7494E-03
             884     2.87152E-03     132.886E-03    -114.844E+06    -205.772E+06    -79.6497E+06     2.39263E+06    -226.396E-03     453.230E-03    -226.834E-03     39.6369E-03    -226.649E-03     452.576E-03    -226.767E-03     37.1309E-03
             885     3.58883E-03     132.949E-03    -111.255E+06    -192.946E+06    -72.7637E+06    -1.55378E+06    -228.064E-03     454.902E-03    -226.838E-03     47.0907E-03    -228.370E-03     454.339E-03    -226.761E-03     43.9952E-03
             886     4.30195E-03     133.025E-03    -100.970E+06    -168.593E+06    -58.0625E+06    -168.503E+03    -227.685E-03     454.631E-03    -226.946E-03     56.0201E-03    -228.041E-03     454.198E-03    -226.845E-03     52.5621E-03
             887     5.02024E-03     133.122E-03    -90.8597E+06    -146.388E+06    -38.9183E+06     42.2210E+03    -226.312E-03     453.198E-03    -226.887E-03     65.7387E-03    -226.752E-03     452.909E-03    -226.737E-03     61.6047E-03
             888     5.74157E-03     133.223E-03    -83.6646E+06    -126.965E+06    -22.7803E+06     1.78079E+06    -226.535E-03     453.257E-03    -226.722E-03     74.8165E-03    -227.065E-03     453.106E-03    -226.531E-03     70.1279E-03
             889     6.45945E-03     133.334E-03    -75.8824E+06    -102.762E+06    -8.40189E+06     4.42842E+06    -226.884E-03     453.465E-03    -226.581E-03     81.7501E-03    -227.501E-03     453.472E-03    -226.364E-03     76.5931E-03
             890     7.17919E-03     133.453E-03    -69.8350E+06    -76.6894E+06     3.53972E+06     3.75609E+06    -227.103E-03     453.567E-03    -226.464E-03     87.3206E-03    -227.831E-03     453.764E-03    -226.234E-03     81.4601E-03
             891     7.89786E-03     133.597E-03    -63.8938E+06    -49.5190E+06     14.8532E+06     4.97100E+06    -228.527E-03     454.944E-03    -226.416E-03     93.8145E-03    -229.376E-03     455.346E-03    -226.178E-03     87.3297E-03
             892     8.61554E-03     133.732E-03    -55.1900E+06    -11.4937E+06     29.5097E+06     7.75978E+06    -230.436E-03     456.921E-03    -226.485E-03     101.469E-03    -231.438E-03     457.600E-03    -226.241E-03     94.2661E-03
             893     9.32766E-03     133.889E-03    -45.9839E+06     27.6804E+06     42.6344E+06     11.0729E+06    -229.477E-03     456.025E-03    -226.548E-03     108.453E-03    -230.659E-03     457.018E-03    -226.309E-03     100.396E-03
             894     10.0463E-03     134.041E-03    -38.4878E+06     43.7847E+06     55.2045E+06     13.3930E+06    -226.691E-03     453.171E-03    -226.480E-03     115.363E-03    -228.029E-03     454.368E-03    -226.211E-03     106.579E-03
             895     10.7708E-03     134.205E-03    -31.1631E+06     59.4500E+06     73.3067E+06     11.9271E+06    -226.243E-03     452.566E-03    -226.323E-03     120.009E-03    -227.739E-03     453.950E-03    -225.997E-03     110.423E-03
             896     11.4902E-03     134.369E-03    -27.7262E+06     72.2998E+06     85.5257E+06     6.75999E+06    -226.498E-03     452.662E-03    -226.164E-03     120.081E-03    -228.071E-03     454.145E-03    -225.801E-03     110.039E-03
             897     12.2104E-03     134.536E-03    -22.2050E+06     76.4878E+06     93.8260E+06     1.48003E+06    -226.383E-03     452.417E-03    -226.034E-03     118.287E-03    -228.021E-03     453.976E-03    -225.644E-03     107.557E-03
             898     12.9282E-03     134.701E-03    -12.7740E+06     88.1820E+06     100.879E+06     1.82458E+06    -226.373E-03     452.293E-03    -225.920E-03     111.519E-03    -227.987E-03     453.882E-03    -225.524E-03     100.417E-03
             899     13.6483E-03     134.841E-03    -5.37602E+06     97.5671E+06     103.885E+06     3.30218E+06    -226.014E-03     451.827E-03    -225.813E-03     105.770E-03    -227.382E-03     453.221E-03    -225.427E-03     96.0243E-03
             900     710.536E-06     134.266E-03    -137.229E+06    -253.326E+06    -135.204E+06    -2.80361E+06    -227.022E-03     458.878E-03    -231.857E-03     4.99630E-03    -227.118E-03     458.035E-03    -231.966E-03     4.77119E-03
             901     1.43226E-03     134.298E-03    -132.947E+06    -245.694E+06    -128.394E+06    -2.10052E+06    -224.759E-03     453.258E-03    -228.499E-03     15.3656E-03    -224.886E-03     452.420E-03    -228.592E-03     14.3551E-03
             902     2.15473E-03     134.329E-03    -124.765E+06    -229.465E+06    -112.210E+06     2.63443E+06    -225.935E-03     453.282E-03    -227.348E-03     24.4416E-03    -226.100E-03     452.516E-03    -227.395E-03     22.7184E-03
             903     2.86935E-03     134.377E-03    -114.513E+06    -205.001E+06    -85.3940E+06     7.06899E+06    -227.724E-03     454.945E-03    -227.220E-03     35.2573E-03    -227.954E-03     454.289E-03    -227.184E-03     32.9665E-03
             904     3.58404E-03     134.446E-03    -107.102E+06    -184.030E+06    -64.1295E+06     3.65122E+06    -227.943E-03     455.289E-03    -227.346E-03     46.7525E-03    -228.255E-03     454.753E-03    -227.244E-03     43.7468E-03
             905     4.30193E-03     134.520E-03    -101.711E+06    -168.365E+06    -53.3069E+06    -919.014E+03    -227.470E-03     454.813E-03    -227.343E-03     56.9064E-03    -227.847E-03     454.385E-03    -227.218E-03     53.3082E-03
             906     5.02094E-03     134.607E-03    -95.9015E+06    -151.842E+06    -42.8532E+06    -219.457E+03    -225.992E-03     453.156E-03    -227.164E-03     64.9938E-03    -226.434E-03     452.843E-03    -227.019E-03     60.9634E-03
             907     5.74047E-03     134.709E-03    -88.8674E+06    -131.341E+06    -27.6222E+06     1.77048E+06    -226.202E-03     453.127E-03    -226.925E-03     73.0459E-03    -226.735E-03     452.959E-03    -226.744E-03     68.4012E-03
             908     6.45947E-03     134.826E-03    -80.7012E+06    -107.249E+06    -11.9002E+06     2.93305E+06    -228.320E-03     455.159E-03    -226.839E-03     78.9648E-03    -228.943E-03     455.149E-03    -226.626E-03     73.6845E-03
             909     7.17301E-03     134.946E-03    -72.9369E+06    -78.9580E+06     1.25737E+06     3.99216E+06    -228.910E-03     455.786E-03    -226.876E-03     85.2142E-03    -229.649E-03     455.982E-03    -226.649E-03     79.2177E-03
             910     7.89171E-03     135.079E-03    -65.2914E+06    -50.3199E+06     14.6892E+06     4.72389E+06    -228.165E-03     455.046E-03    -226.881E-03     92.0778E-03    -229.023E-03     455.451E-03    -226.640E-03     85.4542E-03
             911     8.61039E-03     135.227E-03    -58.4627E+06    -19.1744E+06     26.7374E+06     6.46681E+06    -227.522E-03     454.313E-03    -226.791E-03     99.2834E-03    -228.499E-03     454.938E-03    -226.545E-03     92.2382E-03
             912     9.33134E-03     135.381E-03    -51.2433E+06     20.6512E+06     37.0102E+06     7.64084E+06    -226.565E-03     453.175E-03    -226.611E-03     104.573E-03    -227.714E-03     454.109E-03    -226.381E-03     96.7054E-03
             913     10.0538E-03     135.522E-03    -43.0100E+06     43.5864E+06     48.8338E+06     7.68942E+06    -225.882E-03     452.292E-03    -226.410E-03     110.034E-03    -227.170E-03     453.441E-03    -226.167E-03     101.427E-03
             914     10.7708E-03     135.695E-03    -33.8278E+06     58.6842E+06     67.0040E+06     8.31635E+06    -225.834E-03     452.069E-03    -226.235E-03     116.266E-03    -227.261E-03     453.390E-03    -225.936E-03     106.985E-03
             915     11.4898E-03     135.854E-03    -25.8077E+06     75.3048E+06     85.3638E+06     9.68968E+06    -226.460E-03     452.551E-03    -226.092E-03     119.234E-03    -227.978E-03     453.998E-03    -225.737E-03     109.519E-03
             916     12.2076E-03     136.026E-03    -19.3924E+06     83.0272E+06     97.8381E+06     5.81626E+06    -226.171E-03     452.135E-03    -225.965E-03     120.257E-03    -227.746E-03     453.653E-03    -225.568E-03     110.129E-03
             917     12.9305E-03     136.181E-03    -14.1012E+06     90.5697E+06     102.560E+06     938.706E+03    -225.937E-03     451.752E-03    -225.816E-03     116.756E-03    -227.543E-03     453.333E-03    -225.414E-03     106.075E-03
             918     13.6483E-03     136.337E-03    -5.86041E+06     99.1425E+06     104.016E+06     735.563E+03    -224.884E-03     450.531E-03    -225.647E-03     109.003E-03    -226.254E-03     451.930E-03    -225.262E-03     99.4687E-03
             919     711.022E-06     135.777E-03    -130.512E+06    -247.477E+06    -128.374E+06    -2.50163E+06    -228.561E-03     459.428E-03    -230.867E-03     10.0228E-03    -228.649E-03     458.607E-03    -230.961E-03     9.17459E-03
             920     1.42809E-03     135.780E-03    -126.941E+06    -239.667E+06    -120.768E+06    -4.11638E+06    -226.663E-03     455.759E-03    -229.096E-03     20.9370E-03    -226.800E-03     454.952E-03    -229.168E-03     19.4130E-03
             921     2.14574E-03     135.822E-03    -123.613E+06    -230.382E+06    -111.155E+06    -4.55772E+06    -227.315E-03     455.614E-03    -228.299E-03     29.8822E-03    -227.492E-03     454.858E-03    -228.341E-03     27.8388E-03
             922     2.86327E-03     135.873E-03    -118.432E+06    -214.267E+06    -97.1628E+06    -351.859E+03    -227.452E-03     455.487E-03    -228.036E-03     36.9392E-03    -227.680E-03     454.817E-03    -228.039E-03     34.4524E-03
             923     3.58406E-03     135.933E-03    -105.926E+06    -187.170E+06    -70.9742E+06     3.45255E+06    -226.733E-03     454.580E-03    -227.846E-03     47.2233E-03    -227.030E-03     454.042E-03    -227.776E-03     44.1467E-03
             924     4.30292E-03     136.013E-03    -100.376E+06    -167.761E+06    -52.9458E+06     2.02407E+06    -227.408E-03     455.081E-03    -227.673E-03     54.6037E-03    -227.778E-03     454.652E-03    -227.549E-03     50.9802E-03
             925     5.01867E-03     136.098E-03    -98.4383E+06    -152.913E+06    -42.9737E+06     1.81269E+06    -228.032E-03     455.640E-03    -227.608E-03     60.1830E-03    -228.474E-03     455.314E-03    -227.458E-03     56.1049E-03
             926     5.73618E-03     136.196E-03    -89.3611E+06    -131.211E+06    -26.3246E+06     2.76838E+06    -227.564E-03     455.126E-03    -227.561E-03     69.7907E-03    -228.094E-03     454.948E-03    -227.373E-03     65.1017E-03
             927     6.45291E-03     136.318E-03    -79.9096E+06    -108.865E+06    -10.6904E+06     2.64419E+06    -227.451E-03     454.904E-03    -227.453E-03     78.1900E-03    -228.062E-03     454.875E-03    -227.232E-03     72.9757E-03
             928     7.17306E-03     136.439E-03    -72.2264E+06    -84.3049E+06     419.761E+03     3.49233E+06    -228.284E-03     455.631E-03    -227.346E-03     85.5336E-03    -228.989E-03     455.778E-03    -227.117E-03     79.7891E-03
             929     7.88761E-03     136.574E-03    -64.3466E+06    -53.7404E+06     13.1673E+06     5.53798E+06    -227.936E-03     455.186E-03    -227.249E-03     94.6279E-03    -228.785E-03     455.577E-03    -227.012E-03     88.1306E-03
             930     8.60548E-03     136.713E-03    -57.8456E+06    -23.1832E+06     26.4685E+06     6.34805E+06    -226.119E-03     453.173E-03    -227.054E-03     101.578E-03    -227.101E-03     453.791E-03    -226.804E-03     94.5350E-03
             931     9.32807E-03     136.861E-03    -49.6076E+06     19.8633E+06     40.2645E+06     6.99176E+06    -225.955E-03     452.731E-03    -226.776E-03     104.858E-03    -227.071E-03     453.625E-03    -226.532E-03     97.2344E-03
             932     10.0439E-03     137.017E-03    -42.2796E+06     47.5456E+06     51.7254E+06     5.36180E+06    -226.341E-03     452.894E-03    -226.553E-03     107.749E-03    -227.592E-03     454.013E-03    -226.302E-03     99.3206E-03
             933     10.7674E-03     137.169E-03    -35.3918E+06     53.4233E+06     66.1192E+06     4.56594E+06    -224.737E-03     451.092E-03    -226.356E-03     114.100E-03    -226.104E-03     452.333E-03    -226.051E-03     105.119E-03
             934     11.4916E-03     137.345E-03    -26.3412E+06     70.5110E+06     84.0282E+06     6.69833E+06    -223.934E-03     450.024E-03    -226.090E-03     119.104E-03    -225.393E-03     451.397E-03    -225.734E-03     109.802E-03
             935     12.2149E-03     137.506E-03    -17.2332E+06     88.4880E+06     99.5316E+06     6.57579E+06    -224.490E-03     450.324E-03    -225.835E-03     118.527E-03    -226.008E-03     451.807E-03    -225.441E-03     108.773E-03
             936     12.9347E-03     137.669E-03    -9.31320E+06      97.462E+06     107.733E+06     2.78958E+06    -224.334E-03     449.949E-03    -225.615E-03     115.841E-03    -225.876E-03     451.492E-03    -225.204E-03     105.599E-03
             937     13.6571E-03     137.822E-03    -5.24262E+06     102.115E+06     106.072E+06    -346.993E+03    -223.537E-03     448.917E-03    -225.380E-03     105.692E-03    -224.872E-03     450.288E-03    -224.990E-03     96.3273E-03
             938     724.281E-06     137.269E-03    -126.083E+06    -247.059E+06    -123.974E+06     1.22518E+06    -227.697E-03     450.159E-03    -222.462E-03     10.9607E-03    -227.769E-03     449.327E-03    -222.541E-03     10.4984E-03
             939     1.43741E-03     137.280E-03    -123.580E+06    -234.918E+06    -114.268E+06     139.709E+03    -231.035E-03     457.281E-03    -226.247E-03     24.8370E-03    -231.172E-03     456.485E-03    -226.298E-03     23.4256E-03
             940     2.15050E-03     137.318E-03    -120.385E+06    -224.679E+06    -103.380E+06    -2.72700E+06    -230.248E-03     458.058E-03    -227.811E-03     32.9548E-03    -230.434E-03     457.320E-03    -227.827E-03     30.8679E-03
             941     2.86681E-03     137.367E-03    -116.509E+06    -213.822E+06    -93.4780E+06    -4.59909E+06    -228.492E-03     456.697E-03    -228.205E-03     38.8058E-03    -228.732E-03     456.035E-03    -228.193E-03     35.9862E-03
             942     3.58132E-03     137.425E-03    -112.357E+06    -198.569E+06    -81.0461E+06    -417.390E+03    -228.458E-03     456.676E-03    -228.217E-03     47.0304E-03    -228.763E-03     456.111E-03    -228.172E-03     43.7051E-03
             943     4.29726E-03     137.507E-03    -103.169E+06    -173.971E+06    -58.7814E+06     4.34027E+06    -228.326E-03     456.543E-03    -228.217E-03     54.5363E-03    -228.690E-03     456.094E-03    -228.109E-03     50.9758E-03
             944     5.01474E-03     137.593E-03    -93.2264E+06    -149.506E+06    -38.2193E+06     2.53770E+06    -229.113E-03     457.348E-03    -228.235E-03     61.8340E-03    -229.558E-03     457.043E-03    -228.075E-03     57.5708E-03
             945     5.72906E-03     137.693E-03    -85.0673E+06    -129.883E+06    -23.4060E+06     1.22721E+06    -228.467E-03     456.692E-03    -228.226E-03     70.3348E-03    -229.001E-03     456.531E-03    -228.031E-03     65.3830E-03
             946     6.44935E-03     137.803E-03    -77.6960E+06    -109.697E+06    -10.2935E+06     2.09214E+06    -226.481E-03     454.513E-03    -228.032E-03     79.8974E-03    -227.091E-03     454.488E-03    -227.812E-03     74.6422E-03
             947     7.16711E-03     137.932E-03    -70.4778E+06    -88.7717E+06     950.132E+03     3.33831E+06    -225.911E-03     453.607E-03    -227.696E-03     87.5652E-03    -226.607E-03     453.735E-03    -227.461E-03     81.8777E-03
             948     7.88931E-03     138.061E-03    -62.0729E+06    -61.0293E+06     13.3363E+06     5.42430E+06    -225.776E-03     453.128E-03    -227.352E-03     94.5945E-03    -226.579E-03     453.456E-03    -227.107E-03     88.3732E-03
             949     8.61101E-03     138.202E-03    -54.0001E+06    -22.9478E+06     29.7672E+06     6.45356E+06    -225.692E-03     452.724E-03    -227.032E-03     102.393E-03    -226.635E-03     453.307E-03    -226.772E-03     95.6449E-03
             950     9.32727E-03     138.349E-03    -46.7976E+06     19.1734E+06     44.5391E+06     6.00513E+06    -225.942E-03     452.667E-03    -226.725E-03     110.222E-03    -227.057E-03     453.554E-03    -226.462E-03     102.767E-03
             951     10.0508E-03     138.505E-03    -38.9271E+06     49.6907E+06     56.8728E+06     5.79581E+06    -226.613E-03     453.092E-03    -226.479E-03     114.178E-03    -227.886E-03     454.239E-03    -226.211E-03     105.826E-03
             952     10.7671E-03     138.656E-03    -33.2323E+06     54.6831E+06     68.5694E+06     4.71370E+06    -225.989E-03     452.294E-03    -226.305E-03     116.140E-03    -227.382E-03     453.564E-03    -225.993E-03     106.996E-03
             953     11.4886E-03     138.818E-03    -26.8118E+06     67.2629E+06     83.6187E+06     3.57374E+06    -223.728E-03     449.796E-03    -226.068E-03     119.895E-03    -225.214E-03     451.183E-03    -225.709E-03     110.392E-03
             954     12.2109E-03     138.991E-03    -18.1848E+06     89.9762E+06     99.8412E+06     4.26315E+06    -222.784E-03     448.539E-03    -225.755E-03     119.590E-03    -224.348E-03     450.069E-03    -225.360E-03     109.664E-03
             955     12.9334E-03     139.149E-03    -10.9206E+06     100.425E+06     107.611E+06     2.31348E+06    -222.793E-03     448.240E-03    -225.447E-03     116.003E-03    -224.388E-03     449.840E-03    -225.038E-03     105.557E-03
             956     13.6565E-03     139.300E-03    -6.48808E+06     104.694E+06     106.889E+06     303.203E+03    -223.383E-03     448.566E-03    -225.182E-03     105.897E-03    -224.755E-03     449.976E-03    -224.790E-03     96.3924E-03
             957     721.668E-06     138.740E-03    -129.992E+06    -249.017E+06    -127.397E+06     1.53399E+06    -228.028E-03     452.493E-03    -224.465E-03     4.52946E-03    -228.110E-03     451.653E-03    -224.553E-03     4.23808E-03
             958     1.43867E-03     138.786E-03    -128.698E+06    -238.135E+06    -120.743E+06     2.61462E+06    -229.251E-03     456.118E-03    -226.867E-03     15.0703E-03    -229.379E-03     455.300E-03    -226.939E-03     14.2224E-03
             959     2.14967E-03     138.817E-03    -124.696E+06    -224.452E+06    -106.122E+06     2.73242E+06    -229.291E-03     457.040E-03    -227.749E-03     25.6486E-03    -229.471E-03     456.291E-03    -227.774E-03     24.0507E-03
             960     2.86514E-03     138.861E-03    -120.344E+06    -211.321E+06    -91.9586E+06    -1.17065E+06    -230.068E-03     458.302E-03    -228.233E-03     37.6837E-03    -230.325E-03     457.648E-03    -228.212E-03     35.0257E-03
             961     3.58073E-03     138.927E-03    -114.023E+06    -196.777E+06    -78.4607E+06    -2.87446E+06    -230.013E-03     458.586E-03    -228.573E-03     46.1878E-03    -230.325E-03     458.021E-03    -228.514E-03     42.9061E-03
             962     4.29690E-03     138.998E-03    -102.628E+06    -174.854E+06    -59.5701E+06     364.154E+03    -228.161E-03     456.789E-03    -228.628E-03     54.9806E-03    -228.516E-03     456.332E-03    -228.524E-03     51.4904E-03
             963     5.01362E-03     139.090E-03    -91.6625E+06    -151.115E+06    -40.0658E+06     1.12610E+06    -227.617E-03     456.063E-03    -228.447E-03     66.7809E-03    -228.057E-03     455.758E-03    -228.295E-03     62.6451E-03
             964     5.73114E-03     139.189E-03    -84.6949E+06    -132.025E+06    -24.7182E+06     443.126E+03    -228.467E-03     456.749E-03    -228.282E-03     74.8076E-03    -229.017E-03     456.601E-03    -228.091E-03     69.7893E-03
             965     6.44670E-03     139.292E-03    -78.0177E+06    -112.073E+06    -10.7536E+06     784.185E+03    -227.744E-03     455.876E-03    -228.132E-03     82.5060E-03    -228.374E-03     455.863E-03    -227.910E-03     77.0808E-03
             966     7.16878E-03     139.420E-03    -69.5763E+06    -90.5137E+06     3.44857E+06     2.12528E+06    -225.924E-03     453.781E-03    -227.857E-03     88.2398E-03    -226.621E-03     453.899E-03    -227.607E-03     82.5263E-03
             967     7.88812E-03     139.546E-03    -61.7130E+06    -65.4219E+06     14.8959E+06     2.01271E+06    -224.904E-03     452.370E-03    -227.466E-03     92.0642E-03    -225.677E-03     452.649E-03    -227.207E-03     85.9271E-03
             968     8.60745E-03     139.688E-03    -53.0661E+06    -26.4827E+06     29.4499E+06     4.41369E+06    -224.127E-03     451.169E-03    -227.042E-03     98.4314E-03    -225.015E-03     451.688E-03    -226.779E-03     91.9076E-03
             969     9.33346E-03     139.831E-03    -45.5742E+06     16.8635E+06     46.9333E+06     6.92464E+06    -223.783E-03     450.405E-03    -226.622E-03     106.526E-03    -224.865E-03     451.249E-03    -226.346E-03     99.1950E-03
             970     10.0522E-03     139.992E-03    -40.4244E+06     48.5865E+06     57.2207E+06     6.87699E+06    -224.198E-03     450.424E-03    -226.226E-03     112.980E-03    -225.460E-03     451.549E-03    -225.952E-03     104.788E-03
             971     10.7739E-03     140.147E-03    -33.6955E+06     59.9815E+06     66.6222E+06     5.31747E+06    -225.489E-03     451.433E-03    -225.945E-03     118.266E-03    -226.901E-03     452.745E-03    -225.650E-03     109.152E-03
             972     11.4917E-03     140.302E-03    -25.8801E+06     66.5473E+06     81.5573E+06     2.87806E+06    -225.128E-03     450.877E-03    -225.750E-03     123.407E-03    -226.668E-03     452.325E-03    -225.401E-03     113.582E-03
             973     12.2158E-03     140.467E-03    -18.9104E+06     86.7209E+06     98.0627E+06     2.54548E+06    -223.506E-03     449.015E-03    -225.509E-03     124.600E-03    -225.140E-03     450.605E-03    -225.117E-03     114.383E-03
             974     12.9407E-03     140.631E-03    -11.2310E+06     105.157E+06     109.201E+06     2.26363E+06    -223.731E-03     448.982E-03    -225.251E-03     117.406E-03    -225.337E-03     450.605E-03    -224.841E-03     106.998E-03
             975     13.6615E-03     140.782E-03    -4.64396E+06     108.045E+06     109.139E+06     1.36680E+06    -223.713E-03     448.743E-03    -225.030E-03     105.656E-03    -225.080E-03     450.161E-03    -224.635E-03     96.1310E-03
             976     707.610E-06     140.253E-03    -136.985E+06    -252.100E+06    -135.259E+06     521.693E+03    -229.945E-03     463.456E-03    -233.511E-03     10.3389E-03    -230.056E-03     462.625E-03    -233.623E-03     9.66287E-03
             977     1.42246E-03     140.271E-03    -133.173E+06    -242.053E+06    -125.307E+06     499.395E+03    -226.142E-03     456.784E-03    -230.642E-03     14.7841E-03    -226.285E-03     455.964E-03    -230.724E-03     13.7795E-03
             978     2.14988E-03     140.310E-03    -129.175E+06    -228.228E+06    -111.861E+06     3.02278E+06    -226.034E-03     455.076E-03    -229.042E-03     26.5285E-03    -226.226E-03     454.328E-03    -229.083E-03     24.8932E-03
             979     2.86524E-03     140.361E-03    -123.252E+06    -210.586E+06     -94.623E+06     1.22514E+06    -228.764E-03     457.326E-03    -228.562E-03     38.8156E-03    -229.025E-03     456.677E-03    -228.551E-03     36.4062E-03
             980     3.57871E-03     140.426E-03    -112.256E+06    -189.606E+06    -73.8879E+06    -1.98016E+06    -229.024E-03     457.629E-03    -228.605E-03     47.8010E-03    -229.337E-03     457.084E-03    -228.536E-03     44.7862E-03
             981     4.29449E-03     140.493E-03    -105.373E+06    -173.763E+06    -59.5715E+06    -3.03499E+06    -228.269E-03     456.828E-03    -228.559E-03     56.3347E-03    -228.648E-03     456.389E-03    -228.452E-03     52.7282E-03
             982     5.01509E-03     140.578E-03    -96.5913E+06    -154.495E+06    -43.5333E+06    -2.45460E+06    -227.170E-03     455.531E-03    -228.361E-03     65.4863E-03    -227.603E-03     455.199E-03    -228.214E-03     61.5697E-03
             983     5.73542E-03     140.683E-03    -87.9124E+06    -134.602E+06    -27.6877E+06    -2.31505E+06    -227.335E-03     455.451E-03    -228.115E-03     72.9021E-03    -227.851E-03     455.257E-03    -227.931E-03     68.3355E-03
             984     6.45220E-03     140.791E-03    -78.6131E+06    -113.419E+06    -11.1672E+06    -1.20056E+06    -228.294E-03     456.256E-03    -227.962E-03     79.9182E-03    -228.887E-03     456.200E-03    -227.739E-03     74.7504E-03
             985     7.16627E-03     140.905E-03    -69.8809E+06    -90.6959E+06     4.08214E+06     822.141E+03    -227.350E-03     455.161E-03    -227.811E-03     87.2735E-03    -228.025E-03     455.254E-03    -227.558E-03     81.7280E-03
             986     7.88563E-03     141.037E-03    -62.4926E+06    -65.4829E+06     15.9440E+06     620.552E+03    -225.551E-03     453.075E-03    -227.524E-03     92.8384E-03    -226.335E-03     453.359E-03    -227.259E-03     86.6433E-03
             987     8.60806E-03     141.167E-03    -55.7022E+06    -34.9001E+06     26.9347E+06     1.22028E+06    -224.399E-03     451.529E-03    -227.130E-03     98.3898E-03    -225.290E-03     452.020E-03    -226.864E-03     91.7443E-03
             988     9.32633E-03     141.316E-03    -47.7379E+06     7.31401E+06     42.7920E+06     5.53297E+06    -222.958E-03     449.640E-03    -226.682E-03     104.719E-03    -224.015E-03     450.429E-03    -226.409E-03     97.4512E-03
             989     10.0523E-03     141.469E-03    -38.9020E+06     50.1729E+06     57.4404E+06     8.19537E+06    -221.107E-03     447.263E-03    -226.156E-03     110.021E-03    -222.331E-03     448.361E-03    -225.885E-03     102.062E-03
             990     10.7785E-03     141.626E-03    -31.7527E+06     66.8564E+06     67.7272E+06     5.04204E+06    -222.114E-03     447.783E-03    -225.669E-03     116.345E-03    -223.470E-03     449.067E-03    -225.381E-03     107.669E-03
             991     11.5022E-03     141.794E-03    -25.6447E+06     66.2585E+06     79.6291E+06     2.36103E+06    -224.640E-03     450.019E-03    -225.379E-03     117.938E-03    -226.104E-03     451.396E-03    -225.040E-03     108.375E-03
             992     12.2211E-03     141.943E-03    -17.4134E+06     86.2536E+06     98.0946E+06     2.13405E+06    -225.710E-03     450.948E-03    -225.239E-03     119.735E-03    -227.292E-03     452.491E-03    -224.848E-03     109.489E-03
             993     12.9389E-03     142.120E-03    -10.6565E+06     107.519E+06     110.807E+06     2.37162E+06    -224.874E-03     449.983E-03    -225.110E-03     114.762E-03    -226.439E-03     451.572E-03    -224.696E-03     104.440E-03
             994     13.6586E-03     142.260E-03    -5.80370E+06     109.820E+06     110.676E+06     2.06793E+06    -223.000E-03     447.921E-03    -224.920E-03     104.186E-03    -224.383E-03     449.352E-03    -224.518E-03     94.5480E-03
             995     713.455E-06     141.766E-03    -139.992E+06    -252.198E+06    -137.435E+06    -592.384E+03    -228.981E-03     461.866E-03    -232.884E-03     13.2965E-03    -229.100E-03     461.046E-03    -233.003E-03     12.6911E-03
             996     1.43122E-03     141.767E-03    -135.254E+06    -241.953E+06    -126.322E+06    -840.200E+03    -227.862E-03     458.160E-03    -230.298E-03     20.8730E-03    -228.026E-03     457.356E-03    -230.383E-03     19.6310E-03
             997     2.14302E-03     141.798E-03    -129.199E+06    -227.708E+06    -112.671E+06    -1.59345E+06    -228.282E-03     457.751E-03    -229.469E-03     32.1346E-03    -228.492E-03     457.023E-03    -229.515E-03     30.0800E-03
             998     2.86298E-03     141.859E-03    -120.059E+06    -207.540E+06    -93.6486E+06    -1.34455E+06    -226.910E-03     455.903E-03    -228.993E-03     37.6663E-03    -227.156E-03     455.258E-03    -228.987E-03     35.2825E-03
             999     3.58373E-03     141.917E-03    -115.846E+06    -191.410E+06    -77.8152E+06    -1.60039E+06    -226.495E-03     455.001E-03    -228.506E-03     45.9863E-03    -226.804E-03     454.445E-03    -228.449E-03     43.2120E-03
            1000     4.30197E-03     141.991E-03    -107.087E+06    -171.932E+06    -58.7425E+06    -3.32855E+06    -228.682E-03     456.977E-03    -228.296E-03     55.8673E-03    -229.064E-03     456.540E-03    -228.185E-03     52.3445E-03
            1001     5.01314E-03     142.074E-03    -97.1362E+06    -151.144E+06    -40.4342E+06    -3.65753E+06    -229.122E-03     457.438E-03    -228.316E-03     62.9520E-03    -229.550E-03     457.102E-03    -228.159E-03     59.1238E-03
            1002     5.72932E-03     142.170E-03    -90.2402E+06    -134.211E+06    -27.2010E+06    -4.12931E+06    -227.147E-03     455.350E-03    -228.204E-03     71.0918E-03    -227.642E-03     455.128E-03    -228.014E-03     66.8231E-03
            1003     6.44991E-03     142.284E-03    -82.5364E+06    -115.785E+06    -13.5169E+06    -4.09376E+06    -226.136E-03     454.050E-03    -227.915E-03     78.5571E-03    -226.709E-03     453.959E-03    -227.695E-03     73.7133E-03
            1004     7.17033E-03     142.399E-03    -73.5302E+06    -91.9141E+06     845.001E+03    -3.15407E+06    -226.228E-03     453.824E-03    -227.596E-03     87.1025E-03    -226.892E-03     453.898E-03    -227.352E-03     81.7542E-03
            1005     7.88953E-03     142.523E-03    -63.7443E+06    -67.5305E+06     14.4645E+06    -1.62641E+06    -226.289E-03     453.597E-03    -227.307E-03     94.2855E-03    -227.071E-03     453.870E-03    -227.044E-03     88.1502E-03
            1006     8.60761E-03     142.655E-03    -54.7923E+06    -39.3939E+06     26.9841E+06     383.308E+03    -225.617E-03     452.629E-03    -227.012E-03     99.5163E-03    -226.509E-03     453.109E-03    -226.741E-03     92.7801E-03
            1007     9.33049E-03     142.799E-03    -46.2021E+06    -2.46831E+06     40.0288E+06     2.28197E+06    -223.843E-03     450.486E-03    -226.644E-03     104.668E-03    -224.863E-03     451.218E-03    -226.373E-03     97.4085E-03
            1008     10.0519E-03     142.943E-03    -37.4359E+06     44.6001E+06     55.6029E+06     5.04600E+06    -222.175E-03     448.368E-03    -226.193E-03     107.511E-03    -223.350E-03     449.407E-03    -225.925E-03     99.6081E-03
            1009     10.7752E-03     143.103E-03    -30.2151E+06     71.0409E+06     68.9620E+06     6.33814E+06    -221.681E-03     447.422E-03    -225.741E-03     112.391E-03    -222.983E-03     448.669E-03    -225.455E-03     103.961E-03
            1010     11.4983E-03     143.271E-03    -25.1163E+06     70.4472E+06     80.4040E+06     4.44299E+06    -223.280E-03     448.686E-03    -225.406E-03     114.258E-03    -224.689E-03     450.022E-03    -225.070E-03     105.013E-03
            1011     12.2188E-03     143.434E-03    -20.0424E+06     86.8788E+06     97.5734E+06     1.83282E+06    -224.427E-03     449.630E-03    -225.203E-03     116.626E-03    -225.981E-03     451.138E-03    -224.812E-03     106.547E-03
            1012     12.9405E-03     143.599E-03    -13.1549E+06     108.097E+06     111.685E+06     2.06559E+06    -223.042E-03     448.044E-03    -225.003E-03     115.626E-03    -224.637E-03     449.653E-03    -224.582E-03     105.303E-03
            1013     13.6653E-03     143.742E-03    -6.93958E+06     112.963E+06     111.995E+06     2.09246E+06    -222.564E-03     447.316E-03    -224.751E-03     106.616E-03    -223.997E-03     448.800E-03    -224.345E-03     96.8557E-03
            1014     717.746E-06     143.254E-03    -141.357E+06    -250.866E+06    -138.817E+06    -95.8172E+03    -227.433E-03     454.234E-03    -226.802E-03     6.40746E-03    -227.558E-03     453.424E-03    -226.927E-03     5.95137E-03
            1015     1.43510E-03     143.265E-03    -137.634E+06    -239.811E+06    -128.932E+06    -788.595E+03    -230.579E-03     458.380E-03    -227.801E-03     20.1215E-03    -230.757E-03     457.596E-03    -227.899E-03     18.7970E-03
            1016     2.14928E-03     143.308E-03    -130.849E+06    -224.808E+06    -113.132E+06    -3.15601E+06    -230.995E-03     459.839E-03    -228.845E-03     31.7083E-03    -231.215E-03     459.126E-03    -228.895E-03     29.6733E-03
            1017     2.86025E-03     143.350E-03    -124.236E+06    -207.416E+06    -96.8180E+06    -3.88161E+06    -228.390E-03     457.487E-03    -229.097E-03     36.7857E-03    -228.647E-03     456.848E-03    -229.100E-03     34.4354E-03
            1018     3.57895E-03     143.405E-03    -115.895E+06    -187.701E+06    -77.5937E+06    -3.54123E+06    -227.026E-03     455.845E-03    -228.819E-03     43.6734E-03    -227.329E-03     455.296E-03    -228.767E-03     40.9757E-03
            1019     4.29647E-03     143.487E-03    -107.364E+06    -167.999E+06    -58.4423E+06    -4.36075E+06    -227.381E-03     455.899E-03    -228.517E-03     53.3624E-03    -227.749E-03     455.458E-03    -228.410E-03     50.0839E-03
            1020     5.01624E-03     143.573E-03    -100.373E+06    -151.000E+06    -42.3428E+06    -4.19541E+06    -228.078E-03     456.423E-03    -228.345E-03     61.5539E-03    -228.521E-03     456.097E-03    -228.192E-03     57.6661E-03
            1021     5.73241E-03     143.664E-03    -91.0387E+06    -131.979E+06    -26.0010E+06    -4.30684E+06    -227.357E-03     455.543E-03    -228.186E-03     70.9709E-03    -227.871E-03     455.341E-03    -227.993E-03     66.5612E-03
            1022     6.45040E-03     143.769E-03    -82.2981E+06    -112.801E+06    -12.4802E+06    -6.06346E+06    -225.403E-03     453.276E-03    -227.872E-03     78.1761E-03    -225.980E-03     453.196E-03    -227.652E-03     73.3429E-03
            1023     7.17201E-03     143.885E-03    -74.0616E+06    -93.2358E+06    -327.368E+03    -6.67456E+06    -224.862E-03     452.321E-03    -227.459E-03     84.3419E-03    -225.500E-03     452.367E-03    -227.218E-03     79.1210E-03
            1024     7.89215E-03     144.013E-03    -65.7768E+06    -70.2659E+06     12.1482E+06    -5.93209E+06    -225.256E-03     452.341E-03    -227.085E-03     91.3010E-03    -225.995E-03     452.562E-03    -226.827E-03     85.4471E-03
            1025     8.61158E-03     144.145E-03    -56.5178E+06    -44.6775E+06     24.1986E+06    -3.86319E+06    -225.256E-03     452.014E-03    -226.759E-03     97.9699E-03    -226.110E-03     452.439E-03    -226.491E-03     91.4455E-03
            1026     9.33068E-03     144.280E-03    -47.8228E+06    -12.0290E+06     36.4718E+06    -1.14932E+06    -225.302E-03     451.757E-03    -226.455E-03     103.728E-03    -226.291E-03     452.428E-03    -226.186E-03     96.5195E-03
            1027     10.0514E-03     144.431E-03    -40.7884E+06     36.9261E+06     52.5256E+06     2.69543E+06    -224.562E-03     450.720E-03    -226.157E-03     107.579E-03    -225.727E-03     451.719E-03    -225.889E-03     99.6565E-03
            1028     10.7715E-03     144.579E-03    -33.3593E+06     69.6356E+06     66.2149E+06     5.56010E+06    -223.157E-03     448.981E-03    -225.824E-03     114.706E-03    -224.477E-03     450.238E-03    -225.545E-03     106.274E-03
            1029     11.4953E-03     144.749E-03    -24.7964E+06     74.5847E+06     79.9329E+06     4.76490E+06    -222.036E-03     447.506E-03    -225.470E-03     120.521E-03    -223.481E-03     448.896E-03    -225.142E-03     111.383E-03
            1030     12.2189E-03     144.916E-03    -18.7819E+06     91.6112E+06     98.9476E+06     4.19020E+06    -221.538E-03     446.661E-03    -225.123E-03     120.438E-03    -223.089E-03     448.184E-03    -224.734E-03     110.713E-03
            1031     12.9449E-03     145.071E-03    -14.4137E+06     108.360E+06     110.213E+06     2.78713E+06    -222.258E-03     447.065E-03    -224.807E-03     116.473E-03    -223.841E-03     448.662E-03    -224.392E-03     106.345E-03
            1032     13.6663E-03     145.227E-03    -6.59709E+06     114.119E+06     112.021E+06     984.652E+03    -222.547E-03     447.093E-03    -224.546E-03     105.516E-03    -223.952E-03     448.555E-03    -224.142E-03     95.8748E-03
            1033     721.767E-06     144.739E-03    -142.141E+06    -247.205E+06    -141.144E+06    -1.68814E+06    -228.659E-03     453.823E-03    -225.164E-03     7.09245E-03    -228.791E-03     453.042E-03    -225.306E-03     6.57482E-03
            1034     1.43266E-03     144.770E-03    -139.125E+06    -237.559E+06    -131.716E+06    -2.35291E+06    -230.758E-03     458.424E-03    -227.666E-03     19.3128E-03    -230.935E-03     457.650E-03    -227.779E-03     18.1186E-03
            1035     2.14641E-03     144.803E-03    -133.889E+06    -222.862E+06    -116.431E+06    -3.20189E+06    -229.895E-03     458.548E-03    -228.653E-03     27.5535E-03    -230.114E-03     457.838E-03    -228.718E-03     25.7898E-03
            1036     2.86642E-03     144.850E-03    -126.623E+06    -203.831E+06    -97.8615E+06    -4.01483E+06    -229.873E-03     458.853E-03    -228.980E-03     35.2831E-03    -230.142E-03     458.233E-03    -228.990E-03     32.9764E-03
            1037     3.57760E-03     144.905E-03    -118.657E+06    -184.720E+06    -78.6253E+06    -4.13771E+06    -229.295E-03     458.403E-03    -229.107E-03     44.0813E-03    -229.621E-03     457.880E-03    -229.061E-03     41.2622E-03
            1038     4.29497E-03     144.976E-03    -111.057E+06    -164.905E+06    -60.4137E+06    -4.69494E+06    -226.727E-03     455.639E-03    -228.912E-03     53.8755E-03    -227.117E-03     455.225E-03    -228.814E-03     50.5923E-03
            1039     5.01311E-03     145.064E-03    -102.447E+06    -147.333E+06    -43.0350E+06    -6.16371E+06    -225.614E-03     454.084E-03    -228.469E-03     61.4913E-03    -226.066E-03     453.773E-03    -228.322E-03     57.6740E-03
            1040     5.73282E-03     145.157E-03    -92.8177E+06    -130.168E+06    -27.5730E+06    -7.57176E+06    -226.343E-03     454.417E-03    -228.074E-03     68.8040E-03    -226.848E-03     454.210E-03    -227.888E-03     64.4899E-03
            1041     6.45150E-03     145.260E-03    -83.4855E+06    -109.314E+06    -13.6140E+06    -7.45767E+06    -226.177E-03     453.941E-03    -227.765E-03     75.7633E-03    -226.743E-03     453.863E-03    -227.553E-03     71.0331E-03
            1042     7.16913E-03     145.371E-03    -75.3637E+06    -91.9976E+06    -1.01924E+06    -7.94937E+06    -224.685E-03     452.092E-03    -227.407E-03     84.0889E-03    -225.327E-03     452.143E-03    -227.170E-03     78.8897E-03
            1043     7.88976E-03     145.499E-03    -67.6945E+06    -70.1199E+06     10.2951E+06    -8.39817E+06    -223.288E-03     450.227E-03    -226.939E-03     91.6540E-03    -224.018E-03     450.438E-03    -226.688E-03     85.9617E-03
            1044     8.61371E-03     145.625E-03    -59.9320E+06    -48.2615E+06     21.6600E+06    -8.30767E+06    -223.903E-03     450.385E-03    -226.482E-03     99.1172E-03    -224.739E-03     450.774E-03    -226.217E-03     92.8496E-03
            1045     9.33458E-03     145.772E-03    -51.7257E+06    -20.5136E+06     33.4604E+06    -5.66757E+06    -224.600E-03     450.713E-03    -226.112E-03     106.173E-03    -225.578E-03     451.337E-03    -225.840E-03     99.1485E-03
            1046     10.0538E-03     145.912E-03    -43.1510E+06     25.7505E+06     47.8596E+06    -15.6387E+03    -224.252E-03     450.025E-03    -225.773E-03     112.884E-03    -225.414E-03     450.987E-03    -225.509E-03     105.117E-03
            1047     10.7770E-03     146.065E-03    -34.6735E+06     65.3913E+06     63.5424E+06     3.35326E+06    -224.232E-03     449.688E-03    -225.457E-03     120.707E-03    -225.566E-03     450.947E-03    -225.183E-03     112.351E-03
            1048     11.4987E-03     146.225E-03    -27.6597E+06     77.6535E+06     76.2312E+06     3.16700E+06    -222.708E-03     447.850E-03    -225.143E-03     123.870E-03    -224.173E-03     449.272E-03    -224.834E-03     114.797E-03
            1049     12.2260E-03     146.390E-03    -20.1334E+06     91.6451E+06     91.4404E+06     3.55776E+06    -222.473E-03     447.303E-03    -224.830E-03     122.504E-03    -224.013E-03     448.832E-03    -224.476E-03     112.876E-03
            1050     12.9468E-03     146.554E-03    -11.5665E+06     110.998E+06     108.910E+06     3.38655E+06    -223.600E-03     448.207E-03    -224.606E-03     116.585E-03    -225.186E-03     449.829E-03    -224.206E-03     106.317E-03
            1051     13.6675E-03     146.708E-03    -4.69973E+06     117.163E+06     115.921E+06     1.03333E+06    -221.979E-03     446.387E-03    -224.407E-03     103.952E-03    -223.390E-03     447.861E-03    -223.991E-03     94.2109E-03
            1052     713.382E-06     146.237E-03    -143.414E+06    -241.484E+06    -141.208E+06    -1.23547E+06    -230.276E-03     458.355E-03    -228.079E-03     11.3139E-03    -230.421E-03     457.606E-03    -228.227E-03     10.6024E-03
            1053     1.43144E-03     146.269E-03    -140.796E+06    -232.244E+06    -131.968E+06    -2.60396E+06    -229.298E-03     458.488E-03    -229.190E-03     18.5442E-03    -229.486E-03     457.738E-03    -229.309E-03     17.5379E-03
            1054     2.14865E-03     146.301E-03    -135.565E+06    -218.363E+06    -117.695E+06    -3.86570E+06    -229.041E-03     458.244E-03    -229.204E-03     25.5987E-03    -229.266E-03     457.555E-03    -229.279E-03     24.0234E-03
            1055     2.86039E-03     146.348E-03    -129.623E+06    -200.983E+06    -100.118E+06    -4.47134E+06    -228.666E-03     457.800E-03    -229.134E-03     34.4798E-03    -228.948E-03     457.199E-03    -229.155E-03     32.2629E-03
            1056     3.57905E-03     146.406E-03    -121.508E+06    -182.210E+06    -80.4399E+06    -5.08162E+06    -228.132E-03     457.124E-03    -228.991E-03     44.3921E-03    -228.473E-03     456.620E-03    -228.953E-03     41.6170E-03
            1057     4.29400E-03     146.470E-03    -112.059E+06    -161.902E+06    -61.1666E+06    -5.44174E+06    -227.094E-03     455.829E-03    -228.735E-03     54.8516E-03    -227.495E-03     455.435E-03    -228.644E-03     51.5665E-03
            1058     5.01404E-03     146.552E-03    -103.358E+06    -141.477E+06    -43.3105E+06    -6.59834E+06    -225.574E-03     453.906E-03    -228.332E-03     63.6909E-03    -226.031E-03     453.620E-03    -228.193E-03     60.0456E-03
            1059     5.73349E-03     146.647E-03    -95.3232E+06    -126.051E+06    -28.0625E+06    -8.84193E+06    -225.148E-03     453.016E-03    -227.868E-03     71.1474E-03    -225.655E-03     452.819E-03    -227.688E-03     67.1080E-03
            1060     6.45176E-03     146.751E-03    -86.9448E+06    -108.850E+06    -15.1707E+06    -9.51672E+06    -224.949E-03     452.381E-03    -227.432E-03     78.2312E-03    -225.516E-03     452.297E-03    -227.224E-03     73.7521E-03
            1061     7.17260E-03     146.858E-03    -78.0548E+06    -89.3972E+06    -2.48204E+06    -9.90533E+06    -223.960E-03     450.948E-03    -226.988E-03     86.9791E-03    -224.604E-03     451.005E-03    -226.758E-03     82.0187E-03
            1062     7.89580E-03     146.979E-03    -69.5531E+06    -69.0435E+06     9.44678E+06    -10.2741E+06    -223.283E-03     449.792E-03    -226.509E-03     94.8089E-03    -224.021E-03     450.010E-03    -226.260E-03     89.2440E-03
            1063     8.61638E-03     147.109E-03    -61.2667E+06    -47.3761E+06     21.5847E+06    -9.86862E+06    -222.870E-03     448.902E-03    -226.032E-03     102.045E-03    -223.713E-03     449.297E-03    -225.766E-03     95.8873E-03
            1064     9.33895E-03     147.254E-03    -53.7913E+06    -22.0557E+06     32.7125E+06    -8.86596E+06    -221.814E-03     447.355E-03    -225.541E-03     107.535E-03    -222.774E-03     447.951E-03    -225.267E-03     100.797E-03
            1065     10.0657E-03     147.391E-03    -45.8258E+06     12.9646E+06     43.5605E+06    -6.27248E+06    -223.054E-03     448.138E-03    -225.084E-03     115.287E-03    -224.179E-03     449.020E-03    -224.819E-03     107.779E-03
            1066     10.7864E-03     147.551E-03    -37.0419E+06     54.8319E+06     58.0685E+06    -558.519E+03    -225.502E-03     450.295E-03    -224.793E-03     120.829E-03    -226.803E-03     451.491E-03    -224.528E-03     112.532E-03
            1067     11.5077E-03     147.706E-03    -29.6585E+06     79.0843E+06     70.8068E+06     2.74123E+06    -225.548E-03     450.185E-03    -224.637E-03     120.364E-03    -226.992E-03     451.600E-03    -224.355E-03     111.197E-03
            1068     12.2261E-03     147.868E-03    -23.0579E+06     92.2084E+06     86.4169E+06     189.581E+03    -225.062E-03     449.589E-03    -224.527E-03     122.803E-03    -226.643E-03     451.165E-03    -224.196E-03     112.833E-03
            1069     12.9472E-03     148.040E-03    -14.1186E+06     110.525E+06     108.138E+06     138.913E+03    -223.336E-03     447.746E-03    -224.410E-03     117.468E-03    -224.984E-03     449.422E-03    -224.009E-03     106.864E-03
            1070     13.6708E-03     148.181E-03    -5.83678E+06     119.739E+06     118.090E+06     837.916E+03    -221.879E-03     446.098E-03    -224.220E-03     104.997E-03    -223.330E-03     447.612E-03    -223.794E-03     95.1090E-03
            1071     714.419E-06     147.742E-03    -145.709E+06    -238.254E+06    -142.045E+06     394.023E+03    -229.926E-03     461.498E-03    -231.572E-03     12.6681E-03    -230.090E-03     460.769E-03    -231.725E-03     12.0088E-03
            1072     1.42851E-03     147.764E-03    -142.372E+06    -227.670E+06    -131.718E+06    -639.518E+03    -228.915E-03     459.288E-03    -230.373E-03     19.1415E-03    -229.122E-03     458.566E-03    -230.495E-03     18.1003E-03
            1073     2.14353E-03     147.801E-03    -137.692E+06    -213.522E+06    -116.924E+06    -2.56185E+06    -227.275E-03     456.907E-03    -229.633E-03     26.1870E-03    -227.517E-03     456.243E-03    -229.708E-03     24.7311E-03
            1074     2.86311E-03     147.845E-03    -130.397E+06    -196.314E+06    -98.8553E+06    -4.45302E+06    -225.830E-03     454.697E-03    -228.866E-03     37.3390E-03    -226.121E-03     454.115E-03    -228.887E-03     35.3367E-03
            1075     3.58072E-03     147.896E-03    -122.002E+06    -177.535E+06    -79.9951E+06    -6.07119E+06    -226.322E-03     454.588E-03    -228.266E-03     48.1536E-03    -226.666E-03     454.101E-03    -228.232E-03     45.6164E-03
            1076     4.30092E-03     147.968E-03    -113.227E+06    -158.501E+06    -61.4528E+06    -7.18295E+06    -226.948E-03     454.886E-03    -227.938E-03     55.7694E-03    -227.339E-03     454.491E-03    -227.851E-03     52.8184E-03
            1077     5.01658E-03     148.041E-03    -104.010E+06    -138.038E+06    -43.8539E+06    -7.25578E+06    -225.970E-03     453.625E-03    -227.655E-03     64.4695E-03    -226.414E-03     453.337E-03    -227.523E-03     61.1509E-03
            1078     5.73607E-03     148.137E-03    -95.0169E+06    -119.818E+06    -26.2450E+06    -7.91447E+06    -223.841E-03     451.063E-03    -227.222E-03     73.1331E-03    -224.346E-03     450.882E-03    -227.042E-03     69.3622E-03
            1079     6.45902E-03     148.235E-03    -86.2843E+06    -103.996E+06    -12.3890E+06    -10.5010E+06    -222.841E-03     449.502E-03    -226.662E-03     80.6892E-03    -223.403E-03     449.425E-03    -226.448E-03     76.4542E-03
            1080     7.18077E-03     148.344E-03    -77.9810E+06    -86.8138E+06    -1.87112E+06    -11.6685E+06    -223.566E-03     449.712E-03    -226.146E-03     88.0260E-03    -224.183E-03     449.750E-03    -225.917E-03     83.3969E-03
            1081     7.90020E-03     148.461E-03    -69.8691E+06    -67.2246E+06     10.0605E+06    -11.6697E+06    -223.733E-03     449.470E-03    -225.737E-03     95.7275E-03    -224.442E-03     449.664E-03    -225.488E-03     90.5069E-03
            1082     8.62239E-03     148.594E-03    -62.5265E+06    -47.4350E+06     20.4134E+06    -11.8051E+06    -222.428E-03     447.744E-03    -225.316E-03     102.437E-03    -223.241E-03     448.107E-03    -225.054E-03     96.5849E-03
            1083     9.34754E-03     148.725E-03    -55.4869E+06    -22.2898E+06     31.3848E+06    -10.3655E+06    -222.109E-03     446.980E-03    -224.872E-03     106.513E-03    -223.036E-03     447.541E-03    -224.602E-03     100.022E-03
            1084     10.0698E-03     148.871E-03    -47.0914E+06     8.16169E+06     43.8504E+06    -9.45575E+06    -224.321E-03     448.857E-03    -224.537E-03     112.747E-03    -225.389E-03     449.660E-03    -224.261E-03     105.492E-03
            1085     10.7917E-03     149.034E-03    -38.2547E+06     43.0951E+06     54.7639E+06    -6.81429E+06    -225.940E-03     450.286E-03    -224.346E-03     116.086E-03    -227.152E-03     451.357E-03    -224.079E-03     108.037E-03
            1086     11.5096E-03     149.192E-03    -28.5630E+06     75.5864E+06     66.8599E+06    -2.73965E+06    -226.336E-03     450.588E-03    -224.251E-03     117.762E-03    -227.718E-03     451.942E-03    -223.985E-03     108.718E-03
            1087     12.2304E-03     149.352E-03    -19.6697E+06     94.0314E+06     86.4687E+06    -1.06685E+06    -225.280E-03     449.486E-03    -224.206E-03     122.806E-03    -226.838E-03     451.058E-03    -223.882E-03     112.882E-03
            1088     12.9526E-03     149.519E-03    -14.8261E+06     109.079E+06     106.980E+06    -1.01769E+06    -223.027E-03     447.134E-03    -224.107E-03     117.989E-03    -224.660E-03     448.791E-03    -223.708E-03     107.505E-03
            1089     13.6761E-03     149.657E-03    -8.03015E+06     119.599E+06     116.105E+06    -755.281E+03    -223.236E-03     447.186E-03    -223.950E-03     106.308E-03    -224.677E-03     448.686E-03    -223.531E-03     96.5291E-03
            1090     713.540E-06     149.241E-03    -150.150E+06    -237.583E+06    -146.427E+06    -785.208E+03    -228.822E-03     459.939E-03    -231.116E-03     13.3579E-03    -229.007E-03     459.224E-03    -231.286E-03     12.7494E-03
            1091     1.42926E-03     149.269E-03    -143.465E+06    -225.659E+06    -133.229E+06    -1.00439E+06    -227.775E-03     457.295E-03    -229.520E-03     21.5877E-03    -227.991E-03     456.590E-03    -229.651E-03     20.5288E-03
            1092     2.14649E-03     149.295E-03    -135.994E+06    -208.186E+06    -115.052E+06    -2.00399E+06    -224.755E-03     453.231E-03    -228.476E-03     28.7276E-03    -224.997E-03     452.586E-03    -228.552E-03     27.3816E-03
            1093     2.86747E-03     149.329E-03    -128.785E+06    -190.289E+06    -95.9851E+06    -3.69456E+06    -224.379E-03     451.842E-03    -227.463E-03     40.3783E-03    -224.668E-03     451.277E-03    -227.481E-03     38.6338E-03
            1094     3.58760E-03     149.392E-03    -121.032E+06    -171.761E+06    -77.2279E+06    -5.42645E+06    -225.578E-03     452.481E-03    -226.902E-03     50.2464E-03    -225.914E-03     452.001E-03    -226.864E-03     48.0851E-03
            1095     4.30292E-03     149.456E-03    -112.445E+06    -152.879E+06    -58.4633E+06    -7.23685E+06    -225.772E-03     452.404E-03    -226.632E-03     57.8973E-03    -226.149E-03     452.008E-03    -226.539E-03     55.4023E-03
            1096     5.02335E-03     149.535E-03    -103.063E+06    -134.840E+06    -41.2020E+06    -8.77676E+06    -225.092E-03     451.467E-03    -226.375E-03     66.7179E-03    -225.518E-03     451.168E-03    -226.236E-03     63.7569E-03
            1097     5.74318E-03     149.619E-03    -93.5496E+06    -115.229E+06    -25.1661E+06    -9.00111E+06    -223.350E-03     449.345E-03    -225.996E-03     74.2851E-03    -223.834E-03     449.162E-03    -225.819E-03     70.8218E-03
            1098     6.46515E-03     149.715E-03    -84.6308E+06    -96.5310E+06    -9.98170E+06    -10.3599E+06    -222.892E-03     448.430E-03    -225.538E-03     82.6303E-03    -223.441E-03     448.365E-03    -225.325E-03     78.6795E-03
            1099     7.18689E-03     149.828E-03    -75.9761E+06    -82.0207E+06     1.71250E+06    -12.9112E+06    -223.618E-03     448.757E-03    -225.139E-03     88.8913E-03    -224.219E-03     448.792E-03    -224.902E-03     84.4634E-03
            1100     7.90907E-03     149.945E-03    -67.7949E+06    -65.7584E+06     11.7144E+06    -13.2337E+06    -223.183E-03     447.976E-03    -224.793E-03     95.2064E-03    -223.849E-03     448.134E-03    -224.541E-03     90.3197E-03
            1101     8.63164E-03     150.071E-03    -59.9250E+06    -45.2380E+06     23.1297E+06    -12.2756E+06    -223.225E-03     447.687E-03    -224.461E-03     101.757E-03    -223.995E-03     448.016E-03    -224.193E-03     96.2119E-03
            1102     9.35257E-03     150.205E-03     -51.238E+06    -22.8588E+06     34.5095E+06    -12.4237E+06    -225.811E-03     450.063E-03    -224.252E-03     107.319E-03    -226.707E-03     450.596E-03    -223.972E-03     100.874E-03
            1103     10.0717E-03     150.356E-03    -42.8895E+06     4.90337E+06     45.4879E+06    -12.2582E+06    -227.421E-03     451.618E-03    -224.197E-03     112.091E-03    -228.424E-03     452.354E-03    -223.914E-03     105.018E-03
            1104     10.7903E-03     150.515E-03    -34.5820E+06     38.4121E+06     57.5242E+06    -11.0204E+06    -225.310E-03     449.435E-03    -224.125E-03     114.433E-03    -226.453E-03     450.425E-03    -223.843E-03     106.650E-03
            1105     11.5147E-03     150.674E-03    -27.1562E+06     71.6083E+06     68.6806E+06    -8.43736E+06    -224.072E-03     448.022E-03    -223.950E-03     119.251E-03    -225.407E-03     449.316E-03    -223.671E-03     110.515E-03
            1106     12.2350E-03     150.836E-03    -19.5229E+06     87.9149E+06     82.9037E+06    -3.93291E+06    -224.284E-03     448.082E-03    -223.797E-03     122.072E-03    -225.755E-03     449.555E-03    -223.482E-03     112.607E-03
            1107     12.9582E-03     150.991E-03    -10.6391E+06     105.822E+06     103.754E+06    -633.777E+03    -224.400E-03     448.117E-03    -223.717E-03     118.132E-03    -225.966E-03     449.720E-03    -223.336E-03     107.856E-03
            1108     13.6776E-03     151.145E-03    -5.37661E+06     120.273E+06     116.907E+06     309.691E+03    -225.065E-03     448.740E-03    -223.675E-03     107.558E-03    -226.486E-03     450.230E-03    -223.257E-03     97.8632E-03
            1109     717.677E-06     150.744E-03    -148.045E+06    -234.507E+06    -145.407E+06    -1.63935E+06    -225.739E-03     453.191E-03    -227.452E-03     12.9356E-03    -225.918E-03     452.485E-03    -227.624E-03     12.3756E-03
            1110     1.43384E-03     150.762E-03    -140.987E+06    -221.928E+06    -130.384E+06    -3.04021E+06    -223.368E-03     449.317E-03    -225.949E-03     22.3865E-03    -223.575E-03     448.615E-03    -226.075E-03     21.5941E-03
            1111     2.15577E-03     150.779E-03    -132.984E+06    -203.985E+06    -113.046E+06    -3.25761E+06    -223.864E-03     448.958E-03    -225.094E-03     32.8900E-03    -224.095E-03     448.322E-03    -225.171E-03     31.8157E-03
            1112     2.87384E-03     150.819E-03    -127.271E+06    -185.877E+06    -94.9257E+06    -3.61435E+06    -225.361E-03     450.272E-03    -224.910E-03     44.5545E-03    -225.647E-03     449.721E-03    -224.931E-03     43.0221E-03
            1113     3.59108E-03     150.879E-03    -117.971E+06    -165.776E+06    -72.9227E+06    -5.09098E+06    -224.124E-03     448.967E-03    -224.842E-03     53.4915E-03    -224.455E-03     448.502E-03    -224.796E-03     51.5386E-03
            1114     4.31455E-03     150.943E-03    -108.410E+06    -146.760E+06    -53.5683E+06    -6.94694E+06    -223.496E-03     448.087E-03    -224.591E-03     62.9019E-03    -223.868E-03     447.708E-03    -224.489E-03     60.5810E-03
            1115     5.03355E-03     151.021E-03    -99.3921E+06    -129.048E+06    -36.6306E+06    -8.95453E+06    -223.688E-03     448.023E-03    -224.335E-03     70.6274E-03    -224.104E-03     447.734E-03    -224.187E-03     67.8805E-03
            1116     5.75458E-03     151.102E-03    -89.9863E+06    -110.557E+06    -21.6159E+06    -10.5606E+06    -224.167E-03     448.311E-03    -224.144E-03     77.6415E-03    -224.631E-03     448.126E-03    -223.961E-03     74.4419E-03
            1117     6.47509E-03     151.197E-03    -80.6541E+06    -91.4620E+06    -6.46792E+06    -11.0520E+06    -225.087E-03     449.122E-03    -224.034E-03     86.3011E-03    -225.615E-03     449.057E-03    -223.817E-03     82.5974E-03
            1118     7.19514E-03     151.311E-03    -72.8982E+06    -74.9341E+06     6.67467E+06    -12.2763E+06    -224.420E-03     448.351E-03    -223.932E-03     90.3132E-03    -225.010E-03     448.398E-03    -223.684E-03     86.0692E-03
            1119     7.91653E-03     151.422E-03    -65.0608E+06    -61.3250E+06     16.6291E+06    -14.6409E+06    -223.903E-03     447.670E-03    -223.766E-03     94.7097E-03    -224.543E-03     447.813E-03    -223.500E-03     90.0472E-03
            1120     8.63905E-03     151.551E-03    -55.7123E+06    -43.9787E+06     26.9658E+06    -15.0083E+06    -225.757E-03     449.407E-03    -223.650E-03     101.422E-03    -226.483E-03     449.701E-03    -223.370E-03     96.0898E-03
            1121     9.35896E-03     151.691E-03    -46.6282E+06    -22.3964E+06     37.8733E+06    -15.5103E+06    -227.979E-03     451.654E-03    -223.675E-03     108.690E-03    -228.825E-03     452.145E-03    -223.385E-03     102.504E-03
            1122     10.0750E-03     151.847E-03    -40.0749E+06     4.18724E+06     48.4652E+06    -14.2685E+06    -227.331E-03     451.057E-03    -223.726E-03     114.410E-03    -228.299E-03     451.757E-03    -223.432E-03     107.624E-03
            1123     10.7952E-03     151.994E-03    -35.8668E+06     35.8754E+06     59.7266E+06    -10.8829E+06    -224.621E-03     448.270E-03    -223.649E-03     118.510E-03    -225.777E-03     449.253E-03    -223.350E-03     110.880E-03
            1124     11.5172E-03     152.149E-03    -31.1967E+06     67.4516E+06     68.8660E+06    -9.12301E+06    -223.549E-03     446.988E-03    -223.439E-03     124.819E-03    -224.921E-03     448.289E-03    -223.148E-03     116.181E-03
            1125     12.2431E-03     152.316E-03    -23.6190E+06     81.7368E+06     79.8263E+06    -7.87316E+06    -225.314E-03     448.610E-03    -223.296E-03     125.350E-03    -226.790E-03     450.061E-03    -222.981E-03     115.950E-03
            1126     12.9623E-03     152.474E-03    -15.7225E+06     97.7534E+06     96.4700E+06    -4.80306E+06    -226.602E-03     449.906E-03    -223.304E-03     119.085E-03    -228.161E-03     451.476E-03    -222.941E-03     108.794E-03
            1127     13.6835E-03     152.628E-03    -7.64811E+06     117.310E+06     115.052E+06    -1.01370E+06    -226.835E-03     450.234E-03    -223.399E-03     108.509E-03    -228.268E-03     451.723E-03    -222.983E-03     98.7365E-03
            1128     717.807E-06     152.231E-03    -140.665E+06    -227.779E+06    -138.122E+06    -1.51648E+06    -220.639E-03     441.497E-03    -220.858E-03     12.7484E-03    -220.804E-03     440.803E-03    -221.014E-03     12.3050E-03
            1129     1.44537E-03     152.234E-03    -137.032E+06    -217.150E+06    -126.530E+06    -2.35375E+06    -220.334E-03     441.009E-03    -220.675E-03     21.6485E-03    -220.530E-03     440.317E-03    -220.794E-03     21.0814E-03
            1130     2.16709E-03     152.260E-03    -131.441E+06    -200.433E+06    -109.636E+06    -3.42473E+06    -223.388E-03     444.368E-03    -220.980E-03     35.1512E-03    -223.620E-03     443.741E-03    -221.047E-03     34.1913E-03
            1131     2.88379E-03     152.310E-03    -123.099E+06    -179.837E+06    -90.0545E+06    -5.39887E+06    -224.101E-03     445.744E-03    -221.643E-03     45.1419E-03    -224.375E-03     445.203E-03    -221.654E-03     43.7601E-03
            1132     3.60501E-03     152.356E-03    -113.226E+06    -160.731E+06    -68.7792E+06    -6.75458E+06    -222.713E-03     444.679E-03    -221.966E-03     54.7264E-03    -223.029E-03     444.221E-03    -221.912E-03     52.8975E-03
            1133     4.32524E-03     152.423E-03    -103.056E+06    -140.704E+06    -48.5392E+06    -7.91769E+06    -222.384E-03     444.364E-03    -221.980E-03     64.0169E-03    -222.736E-03     443.992E-03    -221.869E-03     61.8706E-03
            1134     5.04833E-03     152.501E-03    -93.1858E+06    -122.461E+06    -31.0907E+06    -9.37765E+06    -222.643E-03     444.585E-03    -221.942E-03     69.7307E-03    -223.023E-03     444.289E-03    -221.784E-03     67.3193E-03
            1135     5.76958E-03     152.582E-03    -84.1176E+06    -105.256E+06    -15.4139E+06    -10.4435E+06    -224.363E-03     446.355E-03    -221.992E-03     79.1078E-03    -224.799E-03     446.163E-03    -221.794E-03     76.1808E-03
            1136     6.48732E-03     152.686E-03    -75.1849E+06    -87.5682E+06    -1.23427E+06    -11.5048E+06    -225.771E-03     447.925E-03    -222.154E-03     88.6117E-03    -226.269E-03     447.848E-03    -221.924E-03     85.1642E-03
            1137     7.20611E-03     152.791E-03    -66.1844E+06    -68.9985E+06     12.7779E+06    -11.4179E+06    -225.657E-03     447.974E-03    -222.317E-03     93.5711E-03    -226.211E-03     448.011E-03    -222.057E-03     89.6696E-03
            1138     7.92687E-03     152.904E-03    -58.5513E+06    -52.7910E+06     24.5235E+06    -13.4267E+06    -226.784E-03     449.246E-03    -222.462E-03     99.9107E-03    -227.398E-03     449.394E-03    -222.178E-03     95.5725E-03
            1139     8.64440E-03     153.034E-03    -51.6244E+06    -41.1351E+06     32.2000E+06    -16.9011E+06    -228.153E-03     450.791E-03    -222.638E-03     108.128E-03    -228.855E-03     451.070E-03    -222.342E-03     103.094E-03
            1140     9.36103E-03     153.179E-03    -45.1349E+06    -22.2071E+06     40.6990E+06    -16.0500E+06    -227.260E-03     450.024E-03    -222.764E-03     116.150E-03    -228.088E-03     450.494E-03    -222.463E-03     110.373E-03
            1141     10.0846E-03     153.326E-03    -39.7082E+06     3.24731E+06     51.4927E+06    -13.0403E+06    -225.613E-03     448.374E-03    -222.761E-03     121.001E-03    -226.572E-03     449.055E-03    -222.451E-03     114.608E-03
            1142     10.8085E-03     153.475E-03    -33.1522E+06     32.1017E+06     63.8951E+06    -10.2546E+06    -225.737E-03     448.439E-03    -222.702E-03     122.920E-03    -226.854E-03     449.367E-03    -222.381E-03     115.650E-03
            1143     11.5310E-03     153.628E-03    -24.7958E+06     65.5264E+06     74.4118E+06    -8.08380E+06    -226.610E-03     449.270E-03    -222.660E-03     126.522E-03    -227.908E-03     450.497E-03    -222.347E-03     118.240E-03
            1144     12.2495E-03     153.795E-03    -19.1986E+06     80.4971E+06     84.0457E+06    -7.57391E+06    -227.841E-03     450.546E-03    -222.706E-03     128.816E-03    -229.302E-03     451.982E-03    -222.374E-03     119.485E-03
            1145     12.9681E-03     153.965E-03    -13.3793E+06     91.2903E+06     98.1005E+06    -6.12343E+06    -228.680E-03     451.536E-03    -222.857E-03     121.158E-03    -230.218E-03     453.066E-03    -222.479E-03     110.875E-03
            1146     13.6854E-03     154.106E-03    -6.35191E+06     110.539E+06     115.059E+06    -2.97206E+06    -230.260E-03     453.361E-03    -223.101E-03     111.718E-03    -231.710E-03     454.848E-03    -222.677E-03     101.706E-03
            1147     730.750E-06     153.692E-03    -136.527E+06    -221.814E+06    -133.694E+06    -1.22510E+06    -217.292E-03     431.710E-03    -214.418E-03     9.76437E-03    -217.451E-03     431.035E-03    -214.567E-03     9.32845E-03
            1148     1.45086E-03     153.700E-03    -134.431E+06    -210.640E+06    -124.497E+06    -3.65177E+06    -220.561E-03     437.363E-03    -216.802E-03     19.1482E-03    -220.756E-03     436.699E-03    -216.924E-03     18.5619E-03
            1149     2.16999E-03     153.739E-03    -127.964E+06    -194.829E+06    -107.298E+06    -5.69815E+06    -220.954E-03     439.151E-03    -218.197E-03     31.6404E-03    -221.179E-03     438.541E-03    -218.265E-03     30.6856E-03
            1150     2.89379E-03     153.782E-03    -116.981E+06    -173.819E+06    -84.3927E+06    -6.53352E+06    -220.061E-03     438.859E-03    -218.798E-03     41.0037E-03    -220.309E-03     438.319E-03    -218.798E-03     39.8401E-03
            1151     3.61582E-03     153.830E-03    -107.655E+06    -153.929E+06    -63.5373E+06    -8.53848E+06    -221.078E-03     440.182E-03    -219.105E-03     52.2655E-03    -221.365E-03     439.725E-03    -219.043E-03     50.7156E-03
            1152     4.33689E-03     153.901E-03    -97.5398E+06    -135.802E+06    -43.8892E+06    -9.78204E+06    -221.165E-03     440.529E-03    -219.364E-03     62.5409E-03    -221.485E-03     440.147E-03    -219.245E-03     60.6563E-03
            1153     5.05746E-03     153.972E-03    -87.5573E+06    -117.190E+06    -25.7397E+06    -9.96984E+06    -221.489E-03     441.017E-03    -219.528E-03     71.8190E-03    -221.845E-03     440.720E-03    -219.360E-03     69.6331E-03
            1154     5.77893E-03     154.062E-03    -78.1136E+06    -99.8067E+06    -9.55201E+06    -11.4430E+06    -223.398E-03     443.124E-03    -219.726E-03     83.1902E-03    -223.807E-03     442.929E-03    -219.516E-03     80.5319E-03
            1155     6.50148E-03     154.164E-03    -69.0339E+06    -84.0828E+06     4.28171E+06    -12.0038E+06    -224.326E-03     444.311E-03    -219.985E-03     90.9615E-03    -224.773E-03     444.201E-03    -219.741E-03     87.9927E-03
            1156     7.22366E-03     154.271E-03    -60.2368E+06    -66.1204E+06     17.6010E+06    -11.9203E+06    -225.654E-03     445.916E-03    -220.262E-03     97.7498E-03    -226.152E-03     445.914E-03    -219.991E-03     94.4041E-03
            1157     7.94145E-03     154.389E-03    -51.5433E+06    -46.6008E+06     31.0864E+06    -11.7959E+06    -227.657E-03     448.252E-03    -220.595E-03     107.467E-03    -228.237E-03     448.393E-03    -220.297E-03     103.558E-03
            1158     8.65967E-03     154.522E-03    -46.2256E+06    -34.1896E+06     39.8765E+06    -12.5475E+06    -227.702E-03     448.606E-03    -220.904E-03     117.180E-03    -228.386E-03     448.889E-03    -220.588E-03     112.626E-03
            1159     9.38249E-03     154.658E-03    -42.5729E+06    -20.3713E+06     45.8149E+06    -13.0677E+06    -226.668E-03     447.743E-03    -221.075E-03     124.363E-03    -227.473E-03     448.192E-03    -220.755E-03     119.086E-03
            1160     10.1031E-03     154.805E-03    -36.1858E+06     1.92027E+06     55.0253E+06    -12.4971E+06    -227.069E-03     448.243E-03    -221.174E-03     127.933E-03    -227.997E-03     448.890E-03    -220.849E-03     121.897E-03
            1161     10.8218E-03     154.956E-03    -27.5798E+06     30.3223E+06     68.2070E+06    -12.0851E+06    -229.074E-03     450.414E-03    -221.340E-03     129.563E-03    -230.155E-03     451.307E-03    -221.003E-03     122.511E-03
            1162     11.5377E-03     155.114E-03    -20.6680E+06     62.8013E+06     78.7691E+06    -9.96275E+06    -230.870E-03     452.458E-03    -221.588E-03     132.007E-03    -232.124E-03     453.634E-03    -221.255E-03     123.971E-03
            1163     12.2572E-03     155.277E-03    -14.1558E+06     77.2183E+06     88.2303E+06    -6.29645E+06    -231.468E-03     453.363E-03    -221.896E-03     134.678E-03    -232.896E-03     454.760E-03    -221.546E-03     125.589E-03
            1164     12.9766E-03     155.452E-03    -9.26629E+06     86.5540E+06     98.7710E+06    -2.72878E+06    -232.312E-03     454.562E-03    -222.250E-03     125.786E-03    -233.829E-03     456.067E-03    -221.868E-03     115.592E-03
            1165     13.6937E-03     155.596E-03    -5.21716E+06     105.595E+06     112.990E+06    -537.138E+03    -235.935E-03     458.673E-03    -222.737E-03     115.988E-03    -237.391E-03     460.158E-03    -222.318E-03     105.879E-03
            1166     725.909E-06     155.145E-03    -131.248E+06    -212.458E+06    -130.366E+06    -4.57098E+06    -214.949E-03     427.868E-03    -212.918E-03     14.0681E-03    -215.098E-03     427.228E-03    -213.072E-03     13.5166E-03
            1167     1.44961E-03     155.172E-03    -128.241E+06    -201.804E+06    -120.272E+06    -6.01282E+06    -217.695E-03     432.327E-03    -214.632E-03     24.3960E-03    -217.879E-03     431.690E-03    -214.755E-03     23.7969E-03
            1168     2.17274E-03     155.205E-03    -122.692E+06    -185.503E+06    -103.373E+06    -7.91716E+06    -216.985E-03     432.578E-03    -215.593E-03     35.2022E-03    -217.200E-03     431.998E-03    -215.663E-03     34.3394E-03
            1169     2.89887E-03     155.241E-03    -113.073E+06    -167.714E+06    -81.8184E+06    -10.1617E+06    -217.240E-03     433.184E-03    -215.944E-03     46.3402E-03    -217.485E-03     432.669E-03    -215.946E-03     45.1560E-03
            1170     3.62308E-03     155.304E-03    -102.964E+06    -148.068E+06    -61.1737E+06    -10.2581E+06    -218.461E-03     434.705E-03    -216.243E-03     56.5518E-03    -218.732E-03     434.262E-03    -216.185E-03     55.1509E-03
            1171     4.34721E-03     155.365E-03    -93.7303E+06    -130.650E+06    -40.3827E+06    -10.4922E+06    -218.684E-03     435.225E-03    -216.541E-03     65.2910E-03    -218.986E-03     434.847E-03    -216.417E-03     63.6633E-03
            1172     5.07415E-03     155.442E-03    -83.8647E+06    -112.587E+06    -22.0366E+06    -11.7616E+06    -220.150E-03     436.956E-03    -216.806E-03     76.9323E-03    -220.490E-03     436.663E-03    -216.632E-03     74.9862E-03
            1173     5.79702E-03     155.535E-03    -73.9347E+06    -94.7583E+06    -5.77838E+06    -12.4575E+06    -221.928E-03     439.065E-03    -217.138E-03     87.1993E-03    -222.301E-03     438.856E-03    -216.922E-03     85.0106E-03
            1174     6.51776E-03     155.638E-03    -65.3785E+06    -80.8023E+06     8.46104E+06    -12.6261E+06    -222.744E-03     440.236E-03    -217.493E-03     94.2434E-03    -223.146E-03     440.095E-03    -217.238E-03     91.8117E-03
            1175     7.23882E-03     155.745E-03    -57.3307E+06    -64.0646E+06     20.3908E+06    -12.6216E+06    -224.195E-03     442.025E-03    -217.830E-03     103.449E-03    -224.655E-03     441.995E-03    -217.552E-03     100.596E-03
            1176     7.96079E-03     155.872E-03    -51.0455E+06    -47.3964E+06     31.6173E+06    -10.5798E+06    -225.536E-03     443.717E-03    -218.181E-03     113.076E-03    -226.081E-03     443.820E-03    -217.880E-03     109.696E-03
            1177     8.68317E-03     155.997E-03    -45.1601E+06    -30.7905E+06     42.7955E+06    -8.31104E+06    -226.283E-03     444.799E-03    -218.517E-03     120.762E-03    -226.914E-03     445.037E-03    -218.192E-03     116.901E-03
            1178     9.40270E-03     156.139E-03    -39.7272E+06    -15.4319E+06     50.8385E+06    -8.40951E+06    -227.623E-03     446.454E-03    -218.831E-03     126.963E-03    -228.351E-03     446.839E-03    -218.497E-03     122.480E-03
            1179     10.1230E-03     156.284E-03    -35.2747E+06     4.19904E+06     57.7717E+06    -8.94538E+06    -229.216E-03     448.384E-03    -219.168E-03     132.044E-03    -230.085E-03     448.975E-03    -218.834E-03     126.670E-03
            1180     10.8422E-03     156.444E-03    -32.6268E+06     35.7002E+06     68.2091E+06    -10.4225E+06    -231.416E-03     450.984E-03    -219.569E-03     137.362E-03    -232.511E-03     451.893E-03    -219.232E-03     130.731E-03
            1181     11.5612E-03     156.602E-03    -28.6097E+06     61.2793E+06     75.2907E+06    -12.0281E+06    -235.108E-03     455.188E-03    -220.080E-03     140.301E-03    -236.396E-03     456.375E-03    -219.751E-03     132.460E-03
            1182     12.2743E-03     156.772E-03    -21.8610E+06     66.1866E+06     78.9854E+06    -8.84415E+06    -237.949E-03     458.686E-03    -220.736E-03     138.378E-03    -239.345E-03     460.011E-03    -220.406E-03     129.510E-03
            1183     12.9871E-03     156.939E-03    -16.1257E+06     80.3350E+06     88.6312E+06    -3.82685E+06    -239.779E-03     461.283E-03    -221.504E-03     128.246E-03    -241.284E-03     462.760E-03    -221.154E-03     118.057E-03
            1184     13.6959E-03     157.101E-03    -9.97871E+06     103.327E+06     107.067E+06    -1.94098E+06    -242.360E-03     464.749E-03    -222.390E-03     117.674E-03    -243.815E-03     466.226E-03    -221.990E-03     107.499E-03
            1185     728.924E-06     156.597E-03    -126.510E+06    -197.404E+06    -123.086E+06    -4.31575E+06    -211.738E-03     424.819E-03    -213.081E-03     16.5805E-03    -211.899E-03     424.237E-03    -213.227E-03     16.1952E-03
            1186     1.45750E-03     156.628E-03    -122.749E+06    -191.352E+06    -114.072E+06    -7.14081E+06    -211.204E-03     423.314E-03    -212.109E-03     26.5253E-03    -211.382E-03     422.709E-03    -212.224E-03     26.1370E-03
            1187     2.18779E-03     156.657E-03    -115.712E+06    -176.122E+06    -98.3975E+06    -8.84916E+06    -212.511E-03     424.435E-03    -211.924E-03     36.5259E-03    -212.706E-03     423.878E-03    -211.993E-03     35.9440E-03
            1188     2.91284E-03     156.702E-03    -109.589E+06    -158.246E+06    -78.6644E+06    -10.1969E+06    -213.688E-03     425.830E-03    -212.142E-03     51.0309E-03    -213.934E-03     425.352E-03    -212.147E-03     49.9694E-03
            1189     3.63838E-03     156.761E-03    -102.687E+06    -142.862E+06    -58.9022E+06    -11.8947E+06    -214.585E-03     427.020E-03    -212.435E-03     63.7053E-03    -214.867E-03     426.600E-03    -212.373E-03     62.4130E-03
            1190     4.36503E-03     156.825E-03    -92.2764E+06    -124.679E+06    -39.2790E+06    -13.1916E+06    -216.920E-03     429.751E-03    -212.831E-03     73.4835E-03    -217.224E-03     429.397E-03    -212.712E-03     72.0176E-03
            1191     5.08724E-03     156.904E-03    -82.2658E+06    -107.632E+06    -21.1051E+06    -13.2331E+06    -219.005E-03     432.373E-03    -213.368E-03     84.9472E-03    -219.337E-03     432.092E-03    -213.198E-03     83.2613E-03
            1192     5.81088E-03     157.002E-03    -74.7305E+06    -92.5884E+06    -5.78992E+06    -12.0720E+06    -219.764E-03     433.646E-03    -213.882E-03     95.0637E-03    -220.129E-03     433.432E-03    -213.668E-03     93.2454E-03
            1193     6.53663E-03     157.103E-03    -67.2448E+06    -77.3178E+06     8.08202E+06    -11.6651E+06    -220.986E-03     435.313E-03    -214.326E-03     103.730E-03    -221.392E-03     435.182E-03    -214.076E-03     101.633E-03
            1194     7.26091E-03     157.217E-03    -61.4451E+06    -64.2158E+06     18.7510E+06    -10.4858E+06    -222.884E-03     437.656E-03    -214.771E-03     113.106E-03    -223.341E-03     437.611E-03    -214.495E-03     110.719E-03
            1195     7.98405E-03     157.340E-03    -55.9269E+06    -49.1223E+06     29.0187E+06    -8.51176E+06    -224.774E-03     440.026E-03    -215.252E-03     119.916E-03    -225.290E-03     440.085E-03    -214.954E-03     117.191E-03
            1196     8.70552E-03     157.473E-03    -49.5485E+06    -31.2968E+06     39.8874E+06    -6.63716E+06    -226.641E-03     442.410E-03    -215.769E-03     125.252E-03    -227.231E-03     442.597E-03    -215.452E-03     122.063E-03
            1197     9.42736E-03     157.615E-03    -43.3143E+06    -13.7975E+06     49.4471E+06    -5.62405E+06    -229.035E-03     445.362E-03    -216.327E-03     131.837E-03    -229.716E-03     445.697E-03    -215.997E-03     128.081E-03
            1198     10.1457E-03     157.768E-03    -38.1323E+06     7.09077E+06     57.4767E+06    -5.22539E+06    -231.862E-03     448.814E-03    -216.952E-03     135.325E-03    -232.665E-03     449.341E-03    -216.619E-03     130.762E-03
            1199     10.8650E-03     157.922E-03    -32.2392E+06     44.7879E+06     70.0143E+06    -5.54343E+06    -235.427E-03     453.117E-03    -217.689E-03     137.523E-03    -236.426E-03     453.958E-03    -217.357E-03     131.770E-03
            1200     11.5792E-03     158.097E-03    -25.6723E+06     67.3088E+06     77.3350E+06    -8.41823E+06    -240.169E-03     458.754E-03    -218.585E-03     137.676E-03    -241.322E-03     459.832E-03    -218.259E-03     130.669E-03
            1201     12.2893E-03     158.271E-03    -21.0380E+06     60.8139E+06     76.7098E+06    -10.3994E+06    -244.184E-03     463.836E-03    -219.651E-03     134.291E-03    -245.448E-03     465.019E-03    -219.325E-03     125.924E-03
            1202     12.9948E-03     158.445E-03    -12.9696E+06     71.6069E+06     86.2356E+06    -8.40032E+06    -246.654E-03     467.487E-03    -220.833E-03     129.230E-03    -248.081E-03     468.873E-03    -220.487E-03     119.182E-03
            1203     13.6992E-03     158.613E-03    -3.71604E+06     96.3151E+06     105.104E+06    -3.39053E+06    -248.554E-03     470.624E-03    -222.070E-03     120.906E-03    -249.944E-03     472.039E-03    -221.679E-03     110.865E-03
            1204     724.742E-06     158.041E-03    -126.060E+06    -187.256E+06    -121.786E+06    -1.95769E+06    -207.976E-03     421.297E-03    -213.321E-03     8.62752E-03    -208.148E-03     420.767E-03    -213.476E-03     8.48929E-03
            1205     1.45936E-03     158.064E-03    -121.122E+06    -177.069E+06    -108.731E+06    -5.45899E+06    -206.894E-03     416.778E-03    -209.884E-03     23.4068E-03    -207.092E-03     416.236E-03    -209.995E-03     22.9829E-03
            1206     2.18984E-03     158.101E-03    -116.676E+06    -168.117E+06    -96.1192E+06    -8.67999E+06    -207.515E-03     416.389E-03    -208.873E-03     33.7844E-03    -207.724E-03     415.865E-03    -208.941E-03     33.3470E-03
            1207     2.92253E-03     158.146E-03    -109.944E+06    -152.107E+06    -79.3738E+06    -8.81154E+06    -207.777E-03     416.264E-03    -208.487E-03     47.2582E-03    -208.013E-03     415.798E-03    -208.504E-03     46.6632E-03
            1208     3.65681E-03     158.203E-03    -101.762E+06    -133.125E+06    -57.1591E+06    -10.0692E+06    -209.174E-03     417.545E-03    -208.371E-03     62.7444E-03    -209.449E-03     417.151E-03    -208.317E-03     61.8703E-03
            1209     4.38555E-03     158.279E-03    -95.0817E+06    -119.021E+06    -39.5765E+06    -11.6910E+06    -212.539E-03     421.137E-03    -208.598E-03     77.2893E-03    -212.848E-03     420.799E-03    -208.486E-03     76.1897E-03
            1210     5.11271E-03     158.362E-03    -88.5336E+06    -104.076E+06    -23.7873E+06    -11.5647E+06    -214.867E-03     423.956E-03    -209.089E-03     91.2701E-03    -215.210E-03     423.682E-03    -208.929E-03     90.0373E-03
            1211     5.84035E-03     158.456E-03    -81.8851E+06    -90.9707E+06    -9.77289E+06    -10.9332E+06    -216.347E-03     425.958E-03    -209.611E-03     104.635E-03    -216.724E-03     425.747E-03    -209.409E-03     103.234E-03
            1212     6.56576E-03     158.564E-03    -76.1834E+06    -77.4590E+06     1.96904E+06    -8.57113E+06    -219.059E-03     429.217E-03    -210.158E-03     115.026E-03    -219.478E-03     429.084E-03    -209.925E-03     113.400E-03
            1213     7.29004E-03     158.679E-03    -69.9684E+06      -62.66E+06     14.4971E+06    -7.33839E+06    -222.517E-03     433.352E-03    -210.835E-03     123.855E-03    -222.976E-03     433.298E-03    -210.570E-03     122.046E-03
            1214     8.01246E-03     158.809E-03    -63.0297E+06    -48.9049E+06     24.4408E+06    -7.56215E+06    -226.057E-03     437.695E-03    -211.637E-03     130.539E-03    -226.557E-03     437.727E-03    -211.353E-03     128.435E-03
            1215     8.73321E-03     158.945E-03    -55.8562E+06    -31.5574E+06     34.1180E+06    -6.82939E+06    -229.410E-03     441.956E-03    -212.546E-03     134.144E-03    -229.976E-03     442.115E-03    -212.249E-03     131.531E-03
            1216     9.45245E-03     159.089E-03    -48.2733E+06    -13.3759E+06     44.2781E+06    -6.27048E+06    -233.008E-03     446.559E-03    -213.551E-03     137.760E-03    -233.650E-03     446.856E-03    -213.240E-03     134.583E-03
            1217     10.1711E-03     159.250E-03    -39.2075E+06     9.71397E+06     55.3095E+06    -7.29253E+06    -238.006E-03     452.696E-03    -214.689E-03     138.118E-03    -238.732E-03     453.158E-03    -214.370E-03     134.224E-03
            1218     10.8810E-03     159.413E-03    -29.2940E+06     46.1924E+06     69.3250E+06    -7.98667E+06    -243.257E-03     459.262E-03    -216.005E-03     137.764E-03    -244.123E-03     459.989E-03    -215.683E-03     132.821E-03
            1219     11.5893E-03     159.595E-03    -21.3269E+06     71.5238E+06     78.5943E+06    -6.88705E+06    -246.053E-03     463.462E-03    -217.409E-03     137.285E-03    -247.067E-03     464.427E-03    -217.089E-03     131.163E-03
            1220     12.2961E-03     159.775E-03    -14.6189E+06     67.5123E+06     82.5449E+06    -9.12916E+06    -248.241E-03     467.069E-03    -218.828E-03     135.778E-03    -249.412E-03     468.189E-03    -218.492E-03     128.005E-03
            1221     13.0025E-03     159.957E-03    -9.84000E+06     66.6004E+06     88.6441E+06    -9.98055E+06    -250.793E-03     471.055E-03    -220.262E-03     131.268E-03    -252.154E-03     472.361E-03    -219.901E-03     121.535E-03
            1222     13.7067E-03     160.128E-03    -7.67824E+06     84.3951E+06     101.740E+06    -4.91809E+06    -254.255E-03     476.009E-03    -221.754E-03     123.664E-03    -255.624E-03     477.356E-03    -221.357E-03     113.724E-03
            1223     731.479E-06     159.482E-03    -128.888E+06    -182.333E+06    -126.461E+06    -1.38729E+06    -203.803E-03     410.970E-03    -207.167E-03     13.2182E-03    -203.986E-03     410.467E-03    -207.348E-03     13.2463E-03
            1224     1.46143E-03     159.498E-03    -125.316E+06    -169.508E+06    -113.016E+06    -1.21062E+06    -203.955E-03     409.108E-03    -205.152E-03     31.5919E-03    -204.182E-03     408.614E-03    -205.290E-03     31.2102E-03
            1225     2.19687E-03     159.533E-03    -122.443E+06    -157.403E+06    -96.1762E+06    -3.34424E+06    -202.720E-03     407.220E-03    -204.500E-03     44.8303E-03    -202.975E-03     406.760E-03    -204.575E-03     44.4570E-03
            1226     2.93177E-03     159.574E-03    -117.465E+06    -146.092E+06    -81.9788E+06    -7.54736E+06    -204.137E-03     408.223E-03    -204.087E-03     56.9410E-03    -204.405E-03     407.793E-03    -204.115E-03     56.6217E-03
            1227     3.66491E-03     159.635E-03    -111.598E+06    -130.243E+06    -66.6009E+06    -7.43974E+06    -205.811E-03     409.891E-03    -204.080E-03     69.4284E-03    -206.103E-03     409.518E-03    -204.063E-03     69.0188E-03
            1228     4.40104E-03     159.713E-03    -105.251E+06    -114.115E+06    -45.8181E+06    -5.93473E+06    -206.728E-03     410.974E-03    -204.246E-03     81.5003E-03    -207.049E-03     410.648E-03    -204.157E-03     81.0677E-03
            1229     5.13574E-03     159.802E-03    -99.0135E+06    -100.590E+06    -28.9079E+06     -5.5833E+06    -208.902E-03     413.394E-03    -204.492E-03     93.1955E-03    -209.242E-03     413.107E-03    -204.347E-03     92.7716E-03
            1230     5.86767E-03     159.898E-03    -93.5375E+06    -88.1541E+06    -16.1758E+06    -5.40637E+06    -212.547E-03     417.485E-03    -204.938E-03     105.881E-03    -212.914E-03     417.253E-03    -204.755E-03     105.310E-03
            1231     6.59840E-03     160.014E-03    -87.3956E+06    -75.9682E+06    -4.80940E+06    -7.23938E+06    -216.621E-03     422.241E-03    -205.621E-03     117.150E-03    -217.020E-03     422.073E-03    -205.408E-03     116.329E-03
            1232     7.32487E-03     160.136E-03    -78.1252E+06    -60.0822E+06     7.34397E+06    -7.98048E+06    -221.192E-03     427.704E-03    -206.512E-03     127.366E-03    -221.619E-03     427.618E-03    -206.274E-03     126.295E-03
            1233     8.04851E-03     160.274E-03    -69.1937E+06    -45.1438E+06     18.4599E+06    -8.31433E+06    -226.617E-03     434.232E-03    -207.615E-03     136.007E-03    -227.080E-03     434.237E-03    -207.357E-03     134.585E-03
            1234     8.76801E-03     160.417E-03    -60.0500E+06    -28.2920E+06     28.8470E+06    -10.4051E+06    -233.017E-03     441.980E-03    -208.963E-03     140.563E-03    -233.534E-03     442.102E-03    -208.691E-03     138.610E-03
            1235     9.48214E-03     160.571E-03    -49.3453E+06    -9.70485E+06     40.2083E+06    -12.2130E+06    -239.522E-03     450.079E-03    -210.557E-03     144.398E-03    -240.106E-03     450.339E-03    -210.270E-03     141.786E-03
            1236     10.1910E-03     160.737E-03    -39.5806E+06     11.3351E+06     51.0225E+06    -13.1156E+06    -245.566E-03     457.895E-03    -212.329E-03     147.154E-03    -246.250E-03     458.333E-03    -212.033E-03     143.659E-03
            1237     10.8986E-03     160.919E-03    -31.8650E+06     44.5716E+06     64.0890E+06    -12.8406E+06    -250.463E-03     464.672E-03    -214.209E-03     147.616E-03    -251.298E-03     465.368E-03    -213.907E-03     143.076E-03
            1238     11.6022E-03     161.098E-03    -24.5215E+06     67.9609E+06     73.2323E+06    -11.5739E+06    -252.654E-03     468.738E-03    -216.084E-03     145.316E-03    -253.652E-03     469.680E-03    -215.781E-03     139.438E-03
            1239     12.3084E-03     161.282E-03    -17.2490E+06     69.4938E+06     79.1972E+06    -7.88701E+06    -254.435E-03     472.332E-03    -217.897E-03     143.155E-03    -255.619E-03     473.474E-03    -217.577E-03     135.530E-03
            1240     13.0097E-03     161.474E-03    -13.4706E+06     68.8276E+06     86.6622E+06    -7.01904E+06    -256.919E-03     476.605E-03    -219.687E-03     134.557E-03    -258.257E-03     477.890E-03    -219.334E-03     125.124E-03
            1241     13.7080E-03     161.648E-03    -7.57636E+06     74.4558E+06     101.714E+06    -7.03435E+06    -259.697E-03     481.201E-03    -221.504E-03     127.043E-03    -261.065E-03     482.513E-03    -221.093E-03     116.946E-03
            1242     742.893E-06     160.906E-03    -140.317E+06    -181.860E+06    -138.593E+06     1.63426E+06    -198.621E-03     392.397E-03    -193.775E-03     18.0240E-03    -198.847E-03     391.924E-03    -194.001E-03     18.2245E-03
            1243     1.47987E-03     160.918E-03    -140.143E+06    -171.373E+06    -128.154E+06     2.42076E+06    -198.958E-03     395.664E-03    -196.706E-03     32.6050E-03    -199.226E-03     395.195E-03    -196.895E-03     32.7309E-03
            1244     2.21892E-03     160.946E-03    -134.834E+06    -153.488E+06    -109.457E+06     3.48112E+06    -199.430E-03     396.941E-03    -197.511E-03     47.4679E-03    -199.721E-03     396.525E-03    -197.640E-03     47.6504E-03
            1245     2.95689E-03     160.996E-03    -131.560E+06    -138.926E+06    -89.9006E+06     2.61519E+06    -201.364E-03     399.470E-03    -198.106E-03     61.5315E-03    -201.683E-03     399.088E-03    -198.163E-03     61.8229E-03
            1246     3.69094E-03     161.061E-03    -128.712E+06    -127.931E+06    -74.8824E+06     132.142E+03    -202.727E-03     401.430E-03    -198.703E-03     75.0110E-03    -203.066E-03     401.074E-03    -198.705E-03     75.2851E-03
            1247     4.42381E-03     161.134E-03    -120.703E+06    -111.780E+06    -56.4000E+06    -863.510E+03    -203.259E-03     402.433E-03    -199.174E-03     88.3213E-03    -203.609E-03     402.120E-03    -199.119E-03     88.5268E-03
            1248     5.16013E-03     161.225E-03    -112.616E+06    -96.8111E+06    -38.6063E+06    -1.75993E+06    -205.825E-03     405.445E-03    -199.620E-03     100.989E-03    -206.184E-03     405.172E-03    -199.510E-03     101.148E-03
            1249     5.89370E-03     161.332E-03    -104.285E+06    -83.1624E+06    -25.0403E+06    -4.60757E+06    -210.394E-03     410.672E-03    -200.278E-03     112.227E-03    -210.757E-03     410.441E-03    -200.131E-03     112.307E-03
            1250     6.62332E-03     161.451E-03    -93.2254E+06    -68.2936E+06    -11.4882E+06    -8.02286E+06    -215.037E-03     416.243E-03    -201.205E-03     122.076E-03    -215.397E-03     416.062E-03    -201.029E-03     122.013E-03
            1251     7.35231E-03     161.583E-03    -82.9442E+06    -55.1117E+06     78.1253E+03    -11.1186E+06    -220.325E-03     422.674E-03    -202.349E-03     131.618E-03    -220.699E-03     422.559E-03    -202.149E-03     131.257E-03
            1252     8.07768E-03     161.729E-03    -71.1308E+06    -38.7315E+06     12.9176E+06    -14.1554E+06    -227.270E-03     431.022E-03    -203.753E-03     140.298E-03    -227.677E-03     431.003E-03    -203.529E-03     139.470E-03
            1253     8.79749E-03     161.888E-03    -60.6144E+06    -21.0263E+06     24.7408E+06    -17.4701E+06    -235.573E-03     441.053E-03    -205.480E-03     145.906E-03    -236.028E-03     441.149E-03    -205.238E-03     144.557E-03
            1254     9.51114E-03     162.056E-03    -50.9779E+06    -5.46430E+06     35.1621E+06    -19.5301E+06    -244.238E-03     451.773E-03    -207.535E-03     150.835E-03    -244.771E-03     452.006E-03    -207.277E-03     148.727E-03
            1255     10.2202E-03     162.236E-03    -41.8844E+06     12.6162E+06     45.8881E+06    -19.5113E+06    -251.191E-03     461.003E-03    -209.812E-03     154.389E-03    -251.845E-03     461.422E-03    -209.540E-03     151.242E-03
            1256     10.9242E-03     162.424E-03    -33.3504E+06     42.6225E+06     58.7206E+06    -17.7475E+06    -255.942E-03     468.100E-03    -212.157E-03     153.882E-03    -256.746E-03     468.768E-03    -211.877E-03     149.631E-03
            1257     11.6263E-03     162.615E-03    -25.1260E+06     62.7454E+06     68.2009E+06    -14.2814E+06    -260.076E-03     474.582E-03    -214.507E-03     148.942E-03    -261.030E-03     475.474E-03    -214.220E-03     143.302E-03
            1258     12.3215E-03     162.800E-03    -18.9260E+06     63.0151E+06     74.2168E+06    -11.4494E+06    -262.942E-03     479.779E-03    -216.837E-03     145.233E-03    -264.086E-03     480.866E-03    -216.530E-03     137.720E-03
            1259     13.0175E-03     163.002E-03    -10.1269E+06     65.7577E+06     82.1164E+06    -8.69349E+06    -264.536E-03     483.619E-03    -219.083E-03     138.043E-03    -265.834E-03     484.877E-03    -218.753E-03     128.626E-03
            1260     13.7108E-03     163.181E-03    -1.60776E+06     67.0108E+06     99.4208E+06    -5.56376E+06    -264.953E-03     486.204E-03    -221.251E-03     129.454E-03    -266.283E-03     487.479E-03    -220.849E-03     119.289E-03
            1261     745.228E-06     162.293E-03    -185.814E+06    -185.781E+06    -182.459E+06     1.54361E+06    -191.577E-03     377.676E-03    -186.099E-03     16.4454E-03    -191.955E-03     377.318E-03    -186.473E-03     16.6932E-03
            1262     1.49078E-03     162.316E-03    -177.742E+06    -172.946E+06    -165.733E+06     1.35066E+06    -192.093E-03     381.532E-03    -189.439E-03     29.1808E-03    -192.480E-03     381.154E-03    -189.759E-03     29.7269E-03
            1263     2.22890E-03     162.349E-03    -167.187E+06    -157.496E+06    -142.876E+06     2.02002E+06    -194.975E-03     385.701E-03    -190.725E-03     46.7691E-03    -195.353E-03     385.337E-03    -190.969E-03     47.4269E-03
            1264     2.96685E-03     162.402E-03    -154.009E+06    -138.568E+06    -114.486E+06     3.49544E+06    -196.042E-03     387.858E-03    -191.816E-03     63.7174E-03    -196.410E-03     387.517E-03    -191.965E-03     64.4851E-03
            1265     3.70890E-03     162.467E-03    -139.937E+06    -121.434E+06    -86.4282E+06     2.48997E+06    -197.288E-03     389.887E-03    -192.599E-03     78.6720E-03    -197.637E-03     389.556E-03    -192.652E-03     79.5499E-03
            1266     4.45129E-03     162.545E-03    -129.327E+06    -108.756E+06    -67.4336E+06    -390.082E+03    -200.907E-03     394.279E-03    -193.372E-03     93.2059E-03    -201.236E-03     393.958E-03    -193.364E-03     94.1144E-03
            1267     5.18842E-03     162.640E-03    -117.667E+06     -92.134E+06    -49.9098E+06    -3.52203E+06    -205.344E-03     399.710E-03    -194.366E-03     106.127E-03    -205.658E-03     399.424E-03    -194.311E-03     107.034E-03
            1268     5.92360E-03     162.756E-03    -104.770E+06    -74.2221E+06    -32.3206E+06    -7.22408E+06    -209.550E-03     405.090E-03    -195.540E-03     116.720E-03    -209.852E-03     404.851E-03    -195.442E-03     117.528E-03
            1269     6.65653E-03     162.882E-03    -94.1906E+06    -57.9093E+06    -17.6714E+06    -10.9489E+06    -215.081E-03     411.965E-03    -196.884E-03     126.596E-03    -215.388E-03     411.784E-03    -196.752E-03     127.199E-03
            1270     7.38437E-03     163.023E-03    -83.7048E+06    -42.2332E+06    -3.86761E+06    -16.9881E+06    -222.217E-03     420.709E-03    -198.492E-03     135.125E-03    -222.541E-03     420.599E-03    -198.329E-03     135.409E-03
            1271     8.10764E-03     163.181E-03    -72.7110E+06    -29.4545E+06     7.93016E+06    -23.4946E+06    -229.831E-03     430.218E-03    -200.387E-03     141.990E-03    -230.181E-03     430.184E-03    -200.199E-03     141.789E-03
            1272     8.82604E-03     163.356E-03    -60.3958E+06    -14.6591E+06     20.4333E+06    -26.0111E+06    -238.163E-03     440.721E-03    -202.558E-03     146.953E-03    -238.554E-03     440.789E-03    -202.347E-03     146.159E-03
            1273     9.53836E-03     163.539E-03    -50.0632E+06    -2.31341E+06     31.2894E+06    -26.0792E+06    -247.087E-03     452.091E-03    -205.004E-03     150.570E-03    -247.552E-03     452.282E-03    -204.771E-03     148.961E-03
            1274     10.2429E-03     163.736E-03    -40.7945E+06     12.2550E+06     42.0877E+06    -24.9087E+06    -254.832E-03     462.495E-03    -207.663E-03     151.780E-03    -255.395E-03     462.838E-03    -207.411E-03     149.207E-03
            1275     10.9440E-03     163.931E-03    -32.8975E+06     38.0192E+06     54.7236E+06    -21.9794E+06    -261.033E-03     471.458E-03    -210.425E-03     150.115E-03    -261.729E-03     472.017E-03    -210.159E-03     146.499E-03
            1276     11.6401E-03     164.135E-03    -26.6925E+06     55.4621E+06     63.8652E+06    -17.9399E+06    -266.420E-03     479.642E-03    -213.222E-03     145.729E-03    -267.256E-03     480.398E-03    -212.945E-03     140.813E-03
            1277     12.3332E-03     164.335E-03    -19.4047E+06     61.2561E+06     73.8373E+06    -16.9415E+06    -269.501E-03     485.502E-03    -216.001E-03     140.617E-03    -270.499E-03     486.436E-03    -215.692E-03     133.983E-03
            1278     13.0243E-03     164.531E-03    -12.0236E+06     60.6188E+06     82.4606E+06    -17.1509E+06    -270.584E-03     489.226E-03    -218.641E-03     136.462E-03    -271.802E-03     490.378E-03    -218.299E-03     127.448E-03
            1279     13.7144E-03     164.729E-03    -7.53166E+06     51.0655E+06     94.6219E+06    -7.89017E+06    -268.397E-03     489.472E-03    -221.074E-03     125.402E-03    -269.617E-03     490.572E-03    -220.664E-03     115.812E-03
            1280     748.240E-06     163.669E-03    -250.778E+06    -177.765E+06    -248.285E+06    -6.66887E+06    -184.255E-03     367.240E-03    -182.985E-03     21.0281E-03    -184.868E-03     367.110E-03    -183.605E-03     21.0696E-03
            1281     1.49572E-03     163.692E-03    -239.527E+06    -164.709E+06    -227.728E+06    -10.5816E+06    -185.500E-03     369.417E-03    -183.917E-03     32.8899E-03    -186.110E-03     369.253E-03    -184.469E-03     33.4165E-03
            1282     2.24606E-03     163.736E-03    -223.892E+06    -151.389E+06    -198.896E+06    -15.1968E+06    -187.779E-03     372.498E-03    -184.720E-03     50.2840E-03    -188.358E-03     372.319E-03    -185.170E-03     50.9112E-03
            1283     2.99330E-03     163.790E-03    -201.907E+06    -134.859E+06    -164.895E+06    -18.2697E+06    -190.520E-03     376.198E-03    -185.679E-03     64.7408E-03    -191.045E-03     376.004E-03    -186.015E-03     65.5820E-03
            1284     3.73797E-03     163.856E-03    -176.898E+06    -116.894E+06    -129.532E+06    -19.8166E+06    -194.099E-03     380.894E-03    -186.795E-03     77.4765E-03    -194.549E-03     380.677E-03    -187.017E-03     78.6625E-03
            1285     4.47820E-03     163.944E-03    -152.270E+06    -103.218E+06    -98.9721E+06    -21.5367E+06    -199.487E-03     387.643E-03    -188.156E-03     90.4249E-03    -199.849E-03     387.387E-03    -188.280E-03     91.8232E-03
            1286     5.21430E-03     164.050E-03    -127.675E+06    -88.0868E+06    -72.3636E+06    -22.5849E+06    -204.959E-03     394.732E-03    -189.773E-03     101.906E-03    -205.244E-03     394.462E-03    -189.822E-03     103.361E-03
            1287     5.94797E-03     164.169E-03    -104.244E+06    -69.5262E+06    -46.2646E+06    -21.5246E+06    -210.012E-03     401.548E-03    -191.536E-03     111.860E-03    -210.241E-03     401.296E-03    -191.516E-03     113.263E-03
            1288     6.67996E-03     164.305E-03    -84.6168E+06    -49.4245E+06    -23.2958E+06    -22.3157E+06    -216.910E-03     410.366E-03    -193.456E-03     121.518E-03    -217.113E-03     410.162E-03    -193.378E-03     122.752E-03
            1289     7.40619E-03     164.463E-03    -68.6687E+06    -31.2564E+06    -3.95906E+06    -24.5884E+06    -225.348E-03     421.002E-03    -195.654E-03     128.776E-03    -225.542E-03     420.855E-03    -195.529E-03     129.830E-03
            1290     8.12580E-03     164.632E-03    -57.6677E+06    -18.0310E+06     11.5282E+06    -26.0975E+06    -233.288E-03     431.408E-03    -198.120E-03     134.617E-03    -233.506E-03     431.327E-03    -197.953E-03     135.292E-03
            1291     8.84114E-03     164.820E-03    -51.1052E+06    -8.90089E+06     22.6848E+06    -27.5938E+06    -241.086E-03     441.845E-03    -200.759E-03     141.009E-03    -241.373E-03     441.855E-03    -200.558E-03     140.924E-03
            1292     9.55042E-03     165.022E-03    -45.8313E+06     813.100E+03      32.891E+06    -27.8901E+06    -249.195E-03     452.741E-03    -203.546E-03     145.450E-03    -249.573E-03     452.866E-03    -203.316E-03     144.495E-03
            1293     10.2562E-03     165.232E-03    -40.2863E+06     15.7149E+06     44.0012E+06    -28.9998E+06    -257.088E-03     463.562E-03    -206.473E-03     146.795E-03    -257.570E-03     463.832E-03    -206.218E-03     144.944E-03
            1294     10.9547E-03     165.445E-03    -31.3635E+06     30.5840E+06     55.2136E+06    -27.3880E+06    -264.489E-03     473.998E-03    -209.509E-03     146.042E-03    -265.069E-03     474.418E-03    -209.232E-03     143.189E-03
            1295     11.6480E-03     165.661E-03    -20.8956E+06     47.7367E+06     67.4626E+06    -22.6765E+06    -269.929E-03     482.511E-03    -212.582E-03     142.946E-03    -270.629E-03     483.113E-03    -212.284E-03     138.830E-03
            1296     12.3377E-03     165.871E-03    -13.2913E+06     62.1700E+06     81.3944E+06    -19.4176E+06    -273.253E-03     488.861E-03    -215.608E-03     137.628E-03    -274.106E-03     489.652E-03    -215.271E-03     131.924E-03
            1297     13.0253E-03     166.073E-03    -10.1748E+06     51.0812E+06     87.0677E+06    -12.8370E+06    -273.260E-03     491.707E-03    -218.447E-03     134.269E-03    -274.342E-03     492.682E-03    -218.071E-03     126.206E-03
            1298     13.7120E-03     166.276E-03    -7.32184E+06     32.1983E+06     96.9589E+06    -7.47616E+06    -269.226E-03     490.210E-03    -220.984E-03     123.594E-03    -270.318E-03     491.109E-03    -220.535E-03     114.765E-03
            1299     754.211E-06     165.033E-03    -249.978E+06    -148.818E+06    -245.422E+06    -12.5274E+06    -180.765E-03     361.560E-03    -180.795E-03     18.5295E-03    -181.431E-03     361.570E-03    -181.444E-03     18.4848E-03
            1300     1.50539E-03     165.057E-03    -241.354E+06    -137.230E+06    -228.377E+06    -21.9399E+06    -182.342E-03     363.406E-03    -181.063E-03     25.9377E-03    -183.006E-03     363.390E-03    -181.656E-03     26.3084E-03
            1301     2.25457E-03     165.101E-03    -228.886E+06    -125.703E+06    -203.839E+06    -31.8418E+06    -184.273E-03     366.045E-03    -181.772E-03     38.5719E-03    -184.912E-03     366.017E-03    -182.277E-03     39.0902E-03
            1302     3.00318E-03     165.163E-03    -212.136E+06    -112.768E+06    -176.101E+06    -40.4121E+06    -188.141E-03     370.935E-03    -182.794E-03     48.6519E-03    -188.738E-03     370.890E-03    -183.203E-03     49.4949E-03
            1303     3.74685E-03     165.238E-03    -192.906E+06    -100.686E+06    -148.780E+06    -47.1654E+06    -193.275E-03     377.521E-03    -184.246E-03     60.1903E-03    -193.810E-03     377.446E-03    -184.564E-03     61.3096E-03
            1304     4.48819E-03     165.335E-03    -170.535E+06    -89.9163E+06    -120.899E+06    -52.3184E+06    -198.213E-03     384.189E-03    -185.976E-03     73.9566E-03    -198.670E-03     384.072E-03    -186.203E-03     75.1494E-03
            1305     5.22767E-03     165.450E-03    -148.856E+06    -80.0619E+06    -96.1225E+06    -55.8062E+06    -203.675E-03     391.527E-03    -187.853E-03     84.8728E-03    -204.055E-03     391.374E-03    -188.001E-03     86.2249E-03
            1306     5.96280E-03     165.579E-03    -126.712E+06    -69.0814E+06    -73.3767E+06    -56.3738E+06    -210.880E-03     400.831E-03    -189.951E-03     94.5546E-03    -211.181E-03     400.652E-03    -190.034E-03     96.0839E-03
            1307     6.69058E-03     165.728E-03    -102.898E+06    -49.5802E+06    -47.6428E+06    -53.8927E+06    -218.941E-03     411.283E-03    -192.341E-03     104.794E-03    -219.180E-03     411.120E-03    -192.359E-03     106.362E-03
            1308     7.41361E-03     165.900E-03    -81.8683E+06    -33.7622E+06    -21.7959E+06    -49.1957E+06    -226.777E-03     421.754E-03    -194.977E-03     112.846E-03    -226.975E-03     421.606E-03    -194.918E-03     114.385E-03
            1309     8.13185E-03     166.085E-03    -63.2206E+06    -22.0445E+06     2.24890E+06    -42.8131E+06    -234.484E-03     432.261E-03    -197.776E-03     119.345E-03    -234.664E-03     432.133E-03    -197.641E-03     120.676E-03
            1310     8.84453E-03     166.285E-03    -46.2894E+06    -12.7471E+06     23.5499E+06    -35.6879E+06    -242.034E-03     442.712E-03    -200.677E-03     127.326E-03    -242.226E-03     442.627E-03    -200.474E-03     128.081E-03
            1311     9.55396E-03     166.502E-03    -31.9716E+06    -276.353E+03     41.9661E+06    -30.3494E+06    -249.400E-03     453.036E-03    -203.636E-03     133.144E-03    -249.634E-03     453.037E-03    -203.379E-03     133.153E-03
            1312     10.2564E-03     166.727E-03    -20.8553E+06     19.8870E+06     58.2433E+06    -26.7967E+06    -256.530E-03     463.169E-03    -206.639E-03     135.913E-03    -256.840E-03     463.310E-03    -206.347E-03     135.129E-03
            1313     10.9547E-03     166.958E-03    -13.8791E+06     30.4645E+06     68.6023E+06    -25.3374E+06    -263.140E-03     472.809E-03    -209.670E-03     138.352E-03    -263.550E-03     473.083E-03    -209.351E-03     136.479E-03
            1314     11.6481E-03     167.188E-03    -9.89064E+06     38.6649E+06     77.9799E+06    -21.8498E+06    -268.550E-03     481.243E-03    -212.694E-03     138.277E-03    -269.092E-03     481.664E-03    -212.345E-03     135.117E-03
            1315     12.3389E-03     167.408E-03    -8.25242E+06     52.2943E+06     90.3634E+06    -13.1938E+06    -272.075E-03     487.727E-03    -215.652E-03     137.166E-03    -272.822E-03     488.369E-03    -215.264E-03     132.308E-03
            1316     13.0254E-03     167.623E-03    -5.24318E+06     40.1881E+06     92.4778E+06    -6.69609E+06    -271.658E-03     490.055E-03    -218.397E-03     132.937E-03    -272.605E-03     490.858E-03    -217.985E-03     125.804E-03
            1317     13.7205E-03     167.806E-03     2.56673E+06     21.9906E+06     103.599E+06    -3.32262E+06    -269.198E-03     490.087E-03    -220.890E-03     122.509E-03    -270.157E-03     490.834E-03    -220.407E-03     114.363E-03
            1318     747.491E-06     166.389E-03    -175.449E+06    -106.212E+06    -171.146E+06    -13.0780E+06    -183.478E-03     370.339E-03    -186.861E-03     7.26509E-03    -183.945E-03     370.352E-03    -187.308E-03     7.36945E-03
            1319     1.49780E-03     166.421E-03    -169.835E+06    -97.6810E+06    -157.034E+06    -24.4001E+06    -186.042E-03     371.481E-03    -185.439E-03     11.9618E-03    -186.523E-03     371.463E-03    -185.836E-03     12.0927E-03
            1320     2.24635E-03     166.466E-03    -160.407E+06    -87.8008E+06    -137.051E+06    -34.4679E+06    -188.479E-03     374.637E-03    -186.158E-03     17.2704E-03    -188.950E-03     374.617E-03    -186.483E-03     17.5430E-03
            1321     2.99244E-03     166.535E-03    -151.191E+06    -78.4336E+06    -118.119E+06    -44.0602E+06    -190.990E-03     378.211E-03    -187.221E-03     23.2177E-03    -191.453E-03     378.193E-03    -187.478E-03     23.5864E-03
            1322     3.73681E-03     166.619E-03    -141.435E+06    -69.2584E+06    -100.815E+06    -53.1757E+06    -194.727E-03     383.252E-03    -188.525E-03     29.3980E-03    -195.174E-03     383.236E-03    -188.723E-03     29.8649E-03
            1323     4.47731E-03     166.722E-03    -132.174E+06    -63.4822E+06    -85.3772E+06    -60.9609E+06    -198.789E-03     388.874E-03    -190.085E-03     36.3503E-03    -199.211E-03     388.843E-03    -190.228E-03     36.9554E-03
            1324     5.21408E-03     166.845E-03    -122.566E+06    -58.4967E+06    -70.4057E+06    -66.7414E+06    -203.449E-03     395.300E-03    -191.851E-03     42.6657E-03    -203.840E-03     395.249E-03    -191.941E-03     43.5268E-03
            1325     5.94579E-03     166.988E-03    -113.252E+06    -53.6457E+06    -56.2817E+06    -71.6426E+06    -209.750E-03     403.620E-03    -193.870E-03     50.6218E-03    -210.111E-03     403.550E-03    -193.909E-03     51.7039E-03
            1326     6.67246E-03     167.152E-03    -103.234E+06    -44.2859E+06    -41.2174E+06    -73.7552E+06    -216.444E-03     412.591E-03    -196.147E-03     60.3039E-03    -216.779E-03     412.522E-03    -196.140E-03     61.5668E-03
            1327     7.39427E-03     167.334E-03    -91.2114E+06    -37.4598E+06    -23.6568E+06    -71.4568E+06    -222.557E-03     421.145E-03    -198.588E-03     70.0101E-03    -222.856E-03     421.058E-03    -198.520E-03     71.4408E-03
            1328     8.11170E-03     167.534E-03    -77.4531E+06    -32.0251E+06    -4.60923E+06    -66.3134E+06    -228.998E-03     430.111E-03    -201.112E-03     79.3794E-03    -229.259E-03     429.999E-03    -200.977E-03     80.9119E-03
            1329     8.82479E-03     167.747E-03    -61.9992E+06    -27.7861E+06     14.4963E+06    -59.2241E+06    -236.076E-03     439.788E-03    -203.712E-03     90.1186E-03    -236.296E-03     439.651E-03    -203.510E-03     91.5705E-03
            1330     9.53181E-03     167.978E-03    -46.8236E+06    -13.5513E+06     35.1013E+06    -51.4654E+06    -242.713E-03     449.069E-03    -206.356E-03     100.599E-03    -242.925E-03     448.969E-03    -206.093E-03     101.736E-03
            1331     10.2366E-03     168.217E-03    -33.0528E+06     4.04360E+06     55.5983E+06    -41.7131E+06    -248.590E-03     457.581E-03    -208.990E-03     109.058E-03    -248.830E-03     457.560E-03    -208.670E-03     109.631E-03
            1332     10.9380E-03     168.460E-03    -24.0805E+06     21.2068E+06     74.1137E+06    -30.5493E+06    -254.121E-03     465.707E-03    -211.586E-03     116.771E-03    -254.447E-03     465.812E-03    -211.211E-03     116.344E-03
            1333     11.6375E-03     168.704E-03    -18.5832E+06     23.9217E+06     88.0414E+06    -20.7112E+06    -259.267E-03     473.412E-03    -214.145E-03     121.402E-03    -259.706E-03     473.619E-03    -213.713E-03     119.596E-03
            1334     12.3318E-03     168.939E-03    -11.6078E+06     29.3156E+06     96.7405E+06    -8.98120E+06    -262.789E-03     479.396E-03    -216.607E-03     122.776E-03    -263.378E-03     479.770E-03    -216.149E-03     119.244E-03
            1335     13.0288E-03     169.156E-03    -6.87161E+06     36.8014E+06     101.112E+06    -2.11236E+06    -264.559E-03     483.492E-03    -218.933E-03     119.106E-03    -265.322E-03     484.070E-03    -218.471E-03     113.555E-03
            1336     13.7150E-03     169.350E-03    -7.43817E+06     20.2312E+06     107.152E+06    -2.43638E+06    -263.474E-03     484.591E-03    -221.117E-03     112.799E-03    -264.306E-03     485.159E-03    -220.600E-03     106.044E-03
            1337     740.017E-06     167.771E-03    -91.5846E+06    -60.6628E+06    -87.2051E+06    -11.6675E+06    -200.203E-03     399.158E-03    -198.955E-03     386.453E-06    -200.406E-03     399.165E-03    -199.171E-03     238.628E-06
            1338     1.48008E-03     167.806E-03    -89.3176E+06    -57.2701E+06    -79.0326E+06    -22.0985E+06    -201.839E-03     402.175E-03    -200.336E-03    -8.84630E-03    -202.113E-03     402.110E-03    -200.519E-03    -9.16539E-03
            1339     2.21618E-03     167.857E-03    -83.1786E+06    -51.2853E+06    -63.1345E+06    -30.4628E+06    -202.112E-03     403.591E-03    -201.479E-03    -17.7676E-03    -202.381E-03     403.523E-03    -201.599E-03    -18.1015E-03
            1340     2.95205E-03     167.924E-03    -75.6863E+06    -44.3536E+06    -46.7244E+06    -37.9342E+06    -202.227E-03     404.643E-03    -202.416E-03    -22.5227E-03    -202.487E-03     404.571E-03    -202.476E-03    -23.0617E-03
            1341     3.68613E-03     168.015E-03    -67.8550E+06    -37.0944E+06    -31.5737E+06     -44.397E+06    -203.384E-03     406.804E-03    -203.420E-03    -26.1635E-03    -203.631E-03     406.732E-03    -203.425E-03    -26.8428E-03
            1342     4.41736E-03     168.123E-03    -62.0048E+06    -33.7654E+06    -18.6575E+06    -49.3150E+06    -205.179E-03     409.830E-03    -204.651E-03    -29.9541E-03    -205.422E-03     409.754E-03    -204.606E-03    -30.5298E-03
            1343     5.14605E-03     168.252E-03    -57.4701E+06    -32.7455E+06    -6.74332E+06    -53.0476E+06    -206.422E-03     412.472E-03    -206.050E-03    -31.7828E-03    -206.666E-03     412.385E-03    -205.953E-03    -32.2118E-03
            1344     5.87282E-03     168.401E-03    -53.5904E+06    -29.4142E+06     5.19373E+06    -56.0300E+06    -207.583E-03     415.093E-03    -207.510E-03    -29.3428E-03    -207.830E-03     415.009E-03    -207.364E-03    -29.6122E-03
            1345     6.59666E-03     168.574E-03    -52.1258E+06    -25.5074E+06     14.6986E+06    -58.1678E+06    -209.324E-03     418.331E-03    -209.008E-03    -24.5306E-03    -209.586E-03     418.261E-03    -208.822E-03    -24.5391E-03
            1346     7.31808E-03     168.764E-03    -52.6840E+06    -25.0607E+06     21.1799E+06    -59.0548E+06    -211.241E-03     421.772E-03    -210.531E-03    -18.8532E-03    -211.521E-03     421.705E-03    -210.312E-03    -18.5392E-03
            1347     8.03756E-03     168.972E-03    -54.0197E+06    -26.4896E+06     26.8719E+06    -58.0875E+06    -213.451E-03     425.505E-03    -212.054E-03    -10.6201E-03    -213.743E-03     425.430E-03    -211.803E-03    -9.99542E-03
            1348     8.75369E-03     169.196E-03    -56.4801E+06    -25.8667E+06     33.1194E+06    -56.6143E+06    -216.344E-03     429.907E-03    -213.563E-03     1.18140E-03    -216.652E-03     429.831E-03    -213.278E-03     2.05413E-03
            1349     9.46803E-03     169.437E-03    -56.5121E+06    -18.4012E+06     42.8671E+06    -54.4998E+06    -219.132E-03     434.149E-03    -215.017E-03     15.5469E-03    -219.459E-03     434.097E-03    -214.694E-03     16.5657E-03
            1350     10.1798E-03     169.687E-03    -53.8068E+06    -10.6149E+06     55.2807E+06    -49.9825E+06    -222.082E-03     438.443E-03    -216.361E-03     31.6473E-03    -222.424E-03     438.414E-03    -215.991E-03     32.6555E-03
            1351     10.8893E-03     169.942E-03    -46.9333E+06    -2.57158E+06     69.7494E+06    -40.9190E+06    -225.939E-03     443.517E-03    -217.578E-03     50.5691E-03    -226.291E-03     443.512E-03    -217.157E-03     51.2882E-03
            1352     11.5950E-03     170.198E-03    -36.5447E+06     2.42078E+06     84.4774E+06    -28.4258E+06    -230.616E-03     449.302E-03    -218.686E-03     70.9032E-03    -230.978E-03     449.319E-03    -218.214E-03     70.9527E-03
            1353     12.3009E-03     170.445E-03    -23.0926E+06     12.3811E+06     97.8863E+06    -22.6621E+06    -236.475E-03     456.203E-03    -219.727E-03     89.2873E-03    -236.863E-03     456.284E-03    -219.222E-03     88.3040E-03
            1354     12.9998E-03     170.673E-03    -6.42094E+06     10.0200E+06     105.629E+06    -9.95432E+06    -243.108E-03     463.905E-03    -220.797E-03     103.570E-03    -243.542E-03     464.054E-03    -220.274E-03     101.002E-03
            1355     13.7052E-03     170.880E-03     6.61432E+06     12.5214E+06     115.814E+06     5.08353E+06    -245.378E-03     467.278E-03    -221.900E-03     106.221E-03    -245.871E-03     467.506E-03    -221.349E-03     102.368E-03
            1356     723.737E-06     169.218E-03    -4.84070E+06    -25.6739E+06    -2.05777E+06    -7.83389E+06    -231.306E-03     462.046E-03    -230.740E-03    -22.6126E-03    -231.266E-03     461.959E-03    -230.706E-03    -23.3298E-03
            1357     1.43444E-03     169.256E-03    -3.17275E+06    -22.8568E+06     5.38968E+06    -14.3951E+06    -231.508E-03     463.615E-03    -232.106E-03    -47.1581E-03    -231.538E-03     463.402E-03    -232.041E-03    -48.0953E-03
            1358     2.15005E-03     169.305E-03    -1.89689E+06    -20.9001E+06     14.9483E+06    -20.0506E+06    -228.883E-03     461.692E-03    -232.809E-03    -68.8495E-03    -228.898E-03     461.449E-03    -232.701E-03    -70.1039E-03
            1359     2.86554E-03     169.372E-03    -1.12546E+06    -17.8370E+06     25.2384E+06    -24.3253E+06    -226.445E-03     459.667E-03    -233.222E-03    -88.0306E-03    -226.448E-03     459.397E-03    -233.069E-03    -89.5389E-03
            1360     3.58051E-03     169.460E-03    -1.17088E+06    -14.3319E+06     36.1501E+06    -26.7848E+06    -223.839E-03     457.596E-03    -233.757E-03    -105.466E-03    -223.837E-03     457.307E-03    -233.554E-03    -107.143E-03
            1361     4.29399E-03     169.571E-03    -1.94125E+06    -13.0497E+06     46.9655E+06    -27.8560E+06    -220.536E-03     454.947E-03    -234.410E-03    -123.090E-03    -220.538E-03     454.643E-03    -234.154E-03    -124.716E-03
            1362     5.00551E-03     169.697E-03    -3.45686E+06    -13.1040E+06     56.4452E+06    -28.5777E+06    -216.037E-03     451.080E-03    -235.043E-03    -138.204E-03    -216.044E-03     450.761E-03    -234.737E-03    -139.753E-03
            1363     5.71753E-03     169.842E-03    -5.55267E+06    -11.6173E+06     64.5876E+06    -28.8759E+06    -210.465E-03     446.034E-03    -235.569E-03    -148.728E-03    -210.489E-03     445.710E-03    -235.221E-03    -150.194E-03
            1364     6.43062E-03     170.010E-03    -8.29513E+06    -8.69368E+06     71.8167E+06    -28.3498E+06    -204.221E-03     440.191E-03    -235.969E-03    -156.123E-03    -204.279E-03     439.892E-03    -235.585E-03    -157.391E-03
            1365     7.14351E-03     170.199E-03    -11.2147E+06    -8.18316E+06     77.7861E+06    -27.3743E+06    -197.674E-03     433.886E-03    -236.213E-03    -161.317E-03    -197.766E-03     433.617E-03    -235.796E-03    -162.311E-03
            1366     7.85654E-03     170.402E-03    -14.1928E+06    -12.6445E+06     81.1762E+06    -26.3440E+06    -191.289E-03     427.552E-03    -236.264E-03    -161.399E-03    -191.407E-03     427.290E-03    -235.819E-03    -162.150E-03
            1367     8.57215E-03     170.624E-03    -15.1504E+06    -11.7565E+06     86.1428E+06    -25.6095E+06    -184.513E-03     420.589E-03    -236.076E-03    -155.901E-03    -184.663E-03     420.363E-03    -235.606E-03    -156.395E-03
            1368     9.29004E-03     170.862E-03    -16.0497E+06    -7.18558E+06     91.5969E+06    -25.5687E+06    -177.310E-03     412.848E-03    -235.539E-03    -144.519E-03    -177.488E-03     412.671E-03    -235.047E-03    -144.780E-03
            1369     10.0136E-03     171.110E-03    -18.2586E+06    -6.23218E+06     94.9208E+06    -23.7052E+06    -171.329E-03     405.919E-03    -234.590E-03    -126.139E-03    -171.519E-03     405.761E-03    -234.080E-03    -126.192E-03
            1370     10.7427E-03     171.369E-03    -19.8483E+06    -5.32049E+06     96.4397E+06    -22.4629E+06    -166.935E-03     400.170E-03    -233.235E-03    -101.858E-03    -167.128E-03     400.024E-03    -232.716E-03    -101.732E-03
            1371     11.4805E-03     171.630E-03    -20.4086E+06    -6.99024E+06     97.2201E+06    -20.1781E+06    -164.857E-03     396.379E-03    -231.521E-03    -71.5746E-03    -165.033E-03     396.219E-03    -230.996E-03    -71.3776E-03
            1372     12.2202E-03     171.892E-03    -18.0001E+06     10.9961E+06     107.127E+06    -17.8241E+06    -166.788E-03     396.364E-03    -229.576E-03    -35.9035E-03    -166.973E-03     396.270E-03    -229.030E-03    -35.8730E-03
            1373     12.9630E-03     172.143E-03    -13.1445E+06    -15.7458E+06      99.355E+06    -12.7174E+06    -172.683E-03     400.170E-03    -227.488E-03     5.57327E-03    -172.840E-03     400.008E-03    -226.949E-03     4.77328E-03
            1374     13.6909E-03     172.368E-03     972.211E+03    -7.63052E+06     88.8560E+06    -2.07868E+06    -177.265E-03     402.465E-03    -225.200E-03     46.4561E-03    -177.428E-03     402.410E-03    -224.746E-03     45.0992E-03
            1375     13.6468E-03     85.7331E-03    -4.25845E+06     69.2582E+06     90.7362E+06     853.756E+03    -227.784E-03     453.568E-03    -225.784E-03     103.103E-03    -229.090E-03     454.841E-03    -225.424E-03     93.1232E-03
            1376     12.9300E-03     85.5869E-03    -6.90653E+06     64.2174E+06     89.2374E+06    -249.213E+03    -227.645E-03     453.444E-03    -225.799E-03     111.005E-03    -229.126E-03     454.869E-03    -225.436E-03     100.137E-03
            1377     12.2115E-03     85.4141E-03    -13.4609E+06     62.7069E+06     84.9212E+06    -2.67869E+06    -227.460E-03     453.299E-03    -225.839E-03     117.015E-03    -228.951E-03     454.718E-03    -225.486E-03     106.616E-03
            1378     11.4901E-03     85.2534E-03    -21.4445E+06     51.1864E+06     74.6997E+06    -2.84890E+06    -227.737E-03     453.626E-03    -225.889E-03     117.073E-03    -229.165E-03     454.943E-03    -225.559E-03     107.184E-03
            1379     10.7736E-03     85.0869E-03    -29.7767E+06     33.4199E+06     61.9183E+06    -2.13661E+06    -228.070E-03     454.007E-03    -225.937E-03     118.016E-03    -229.417E-03     455.187E-03    -225.633E-03     108.733E-03
            1380     10.0568E-03     84.9184E-03    -37.1087E+06     26.5425E+06     53.3774E+06    -1.80462E+06    -227.385E-03     453.403E-03    -226.018E-03     115.280E-03    -228.631E-03     454.457E-03    -225.735E-03     106.717E-03
            1381     9.33516E-03     84.7657E-03    -42.0626E+06     24.7540E+06     46.1682E+06     1.48831E+06    -227.781E-03     453.890E-03    -226.109E-03     111.196E-03    -228.929E-03     454.842E-03    -225.853E-03     103.314E-03
            1382     8.61573E-03     84.6149E-03    -46.0213E+06     16.4391E+06     36.6334E+06     2.94182E+06    -229.163E-03     455.285E-03    -226.122E-03     106.105E-03    -230.187E-03     456.098E-03    -225.896E-03     98.9183E-03
            1383     7.89814E-03     84.4687E-03    -53.3165E+06    -10.9642E+06     24.9270E+06     782.726E+03    -229.417E-03     455.476E-03    -226.058E-03     97.6352E-03    -230.316E-03     456.074E-03    -225.840E-03     90.9361E-03
            1384     7.17964E-03     84.3343E-03    -61.4437E+06    -44.2075E+06     13.8371E+06     1.08704E+06    -228.757E-03     454.727E-03    -225.970E-03     89.3346E-03    -229.544E-03     455.099E-03    -225.748E-03     83.0861E-03
            1385     6.46136E-03     84.2082E-03    -69.8378E+06    -71.8155E+06    -724.582E+03     2.57779E+06    -228.303E-03     454.151E-03    -225.848E-03     80.3021E-03    -228.967E-03     454.314E-03    -225.646E-03     74.7817E-03
            1386     5.74730E-03     84.0947E-03    -79.0627E+06    -99.3213E+06    -18.4912E+06     1.28619E+06    -227.641E-03     453.350E-03    -225.709E-03     71.8615E-03    -228.186E-03     453.315E-03    -225.542E-03     67.1188E-03
            1387     5.03063E-03     83.9942E-03    -87.9557E+06    -122.604E+06    -35.4208E+06    -583.247E+03    -225.980E-03     451.651E-03    -225.671E-03     65.9952E-03    -226.441E-03     451.467E-03    -225.543E-03     61.8959E-03
            1388     4.30832E-03     83.8995E-03    -94.1706E+06    -144.968E+06    -48.8840E+06    -1.10104E+06    -225.227E-03     451.038E-03    -225.811E-03     59.5328E-03    -225.607E-03     450.711E-03    -225.708E-03     56.0101E-03
            1389     3.58940E-03     83.8184E-03    -97.7150E+06    -163.857E+06    -60.8592E+06     386.760E+03    -225.573E-03     451.573E-03    -226.000E-03     50.8514E-03    -225.881E-03     451.129E-03    -225.925E-03     47.6931E-03
            1390     2.87075E-03     83.7594E-03    -105.701E+06    -183.676E+06    -79.8468E+06     1.36393E+06    -225.701E-03     451.851E-03    -226.150E-03     42.7219E-03    -225.947E-03     451.302E-03    -226.130E-03     40.0846E-03
            1391     2.15283E-03     83.7115E-03    -116.208E+06    -202.705E+06    -100.637E+06     457.413E+03    -227.117E-03     453.181E-03    -226.065E-03     33.5782E-03    -227.308E-03     452.534E-03    -226.106E-03     31.6306E-03
            1392     1.43991E-03     83.6764E-03    -120.136E+06    -213.749E+06    -113.191E+06     629.307E+03    -227.978E-03     453.225E-03    -225.247E-03     23.0844E-03    -228.109E-03     452.505E-03    -225.328E-03     21.7987E-03
            1393     722.949E-06     83.6498E-03    -121.882E+06    -226.262E+06    -121.223E+06    -169.353E+03    -225.283E-03     449.252E-03    -223.969E-03     12.0798E-03    -225.347E-03     448.475E-03    -224.070E-03     11.4035E-03
            1394     13.6555E-03     84.2513E-03    -6.17553E+06     67.7583E+06     87.4054E+06    -2.70701E+06    -228.472E-03     454.067E-03    -225.595E-03     103.355E-03    -229.768E-03     455.328E-03    -225.247E-03     93.4044E-03
            1395     12.9346E-03     84.0962E-03    -7.84778E+06     64.3045E+06     89.2588E+06     -887.93E+03    -226.347E-03     451.985E-03    -225.638E-03     113.310E-03    -227.836E-03     453.415E-03    -225.274E-03     102.591E-03
            1396     12.2135E-03     83.9347E-03    -13.2206E+06     62.7074E+06     85.5319E+06     2.61005E+06    -225.978E-03     451.743E-03    -225.764E-03     119.280E-03    -227.466E-03     453.158E-03    -225.408E-03     109.134E-03
            1397     11.4941E-03     83.7649E-03    -26.7770E+06     52.2018E+06     69.2375E+06     2.58548E+06    -227.321E-03     453.182E-03    -225.861E-03     120.270E-03    -228.767E-03     454.517E-03    -225.551E-03     110.644E-03
            1398     10.7739E-03     83.5984E-03    -34.3420E+06     37.4406E+06     56.4748E+06     986.685E+03    -228.200E-03     454.120E-03    -225.920E-03     118.198E-03    -229.586E-03     455.354E-03    -225.642E-03     108.830E-03
            1399     10.0501E-03     83.4358E-03    -40.4302E+06     24.5273E+06     46.5243E+06    -2.96727E+06    -227.459E-03     453.442E-03    -225.983E-03     111.981E-03    -228.692E-03     454.484E-03    -225.727E-03     103.382E-03
            1400     9.33036E-03     83.2769E-03    -46.4035E+06     20.7302E+06     42.3079E+06    -3.85274E+06    -228.189E-03     454.235E-03    -226.046E-03     106.207E-03    -229.316E-03     455.148E-03    -225.797E-03     98.2568E-03
            1401     8.61453E-03     83.1202E-03    -51.8971E+06     15.4825E+06     36.4981E+06    -552.854E+03    -229.201E-03     455.216E-03    -226.015E-03     100.757E-03    -230.244E-03     456.024E-03    -225.780E-03     93.3613E-03
            1402     7.89965E-03     82.9764E-03    -58.5937E+06    -9.41257E+06     23.8605E+06    -96.6761E+03    -229.277E-03     455.182E-03    -225.906E-03     95.1290E-03    -230.184E-03     455.779E-03    -225.688E-03     88.4706E-03
            1403     7.18457E-03     82.8439E-03    -65.9254E+06    -45.9018E+06     11.3637E+06     596.401E+03    -229.431E-03     455.192E-03    -225.761E-03     89.3430E-03    -230.219E-03     455.549E-03    -225.542E-03     83.2271E-03
            1404     6.46912E-03     82.7182E-03    -72.5328E+06    -73.4675E+06    -1.36881E+06     1.70584E+06    -228.179E-03     453.777E-03    -225.598E-03     81.3574E-03    -228.846E-03     453.930E-03    -225.393E-03     75.9567E-03
            1405     5.74802E-03     82.6071E-03    -77.6503E+06    -96.7499E+06    -16.4211E+06     467.016E+03    -226.609E-03     452.127E-03    -225.518E-03     74.5624E-03    -227.158E-03     452.105E-03    -225.348E-03     69.8718E-03
            1406     5.02772E-03     82.5068E-03    -83.0661E+06    -117.535E+06    -31.5145E+06     62.5477E+03    -226.082E-03     451.615E-03    -225.533E-03     67.7541E-03    -226.537E-03     451.450E-03    -225.400E-03     63.6629E-03
            1407     4.31060E-03     82.4171E-03    -90.6358E+06    -145.047E+06    -48.4709E+06    -1.10525E+06    -224.743E-03     450.432E-03    -225.689E-03     59.8245E-03    -225.101E-03     450.094E-03    -225.590E-03     56.3874E-03
            1408     3.58933E-03     82.3320E-03    -101.263E+06    -171.534E+06    -65.1805E+06    -2.60039E+06    -223.768E-03     449.866E-03    -226.098E-03     49.5418E-03    -224.067E-03     449.386E-03    -226.028E-03     46.4765E-03
            1409     2.86819E-03     82.2742E-03    -107.956E+06    -184.049E+06    -77.9639E+06     696.257E+03    -224.948E-03     451.538E-03    -226.590E-03     39.4651E-03    -225.196E-03     450.976E-03    -226.556E-03     36.9486E-03
            1410     2.14973E-03     82.2160E-03    -114.432E+06    -199.640E+06    -95.9035E+06     2.00359E+06    -226.406E-03     453.294E-03    -226.888E-03     31.6367E-03    -226.595E-03     452.648E-03    -226.912E-03     29.7464E-03
            1411     1.43225E-03     82.1804E-03    -119.443E+06    -213.237E+06    -110.366E+06     249.654E+03    -226.865E-03     453.896E-03    -227.031E-03     23.0274E-03    -226.999E-03     453.175E-03    -227.100E-03     21.6738E-03
            1412     715.993E-06     82.1658E-03    -120.037E+06    -224.519E+06    -115.618E+06     1.44058E+06    -226.787E-03     454.269E-03    -227.481E-03     12.7734E-03    -226.854E-03     453.491E-03    -227.560E-03     12.1063E-03
            1413     13.6498E-03     82.7590E-03    -4.34402E+06     68.6803E+06     86.4140E+06    -1.02583E+06    -227.614E-03     453.267E-03    -225.653E-03     107.730E-03    -228.913E-03     454.544E-03    -225.314E-03     97.9492E-03
            1414     12.9319E-03     82.6142E-03    -13.4853E+06     56.8052E+06     80.7390E+06     893.229E+03    -227.544E-03     453.233E-03    -225.689E-03     115.731E-03    -229.061E-03     454.670E-03    -225.348E-03     104.980E-03
            1415     12.2110E-03     82.4488E-03    -18.7544E+06     56.9690E+06      79.545E+06     3.75154E+06    -226.600E-03     452.382E-03    -225.781E-03     119.984E-03    -228.148E-03     453.834E-03    -225.439E-03     109.534E-03
            1416     11.4893E-03     82.2803E-03    -23.0782E+06     56.2174E+06     74.6608E+06     4.77407E+06    -227.331E-03     453.222E-03    -225.891E-03     121.531E-03    -228.804E-03     454.596E-03    -225.566E-03     111.766E-03
            1417     10.7711E-03     82.1062E-03    -26.8822E+06     45.5989E+06     67.1299E+06     2.26157E+06    -229.171E-03     455.103E-03    -225.932E-03     117.538E-03    -230.563E-03     456.367E-03    -225.624E-03     107.996E-03
            1418     10.0593E-03     81.9494E-03    -34.0798E+06     31.7753E+06     55.9805E+06     1.12539E+06    -230.263E-03     456.110E-03    -225.846E-03     110.900E-03    -231.518E-03     457.194E-03    -225.563E-03     102.007E-03
            1419     9.34317E-03     81.7885E-03    -43.7427E+06     22.3156E+06     43.0207E+06    -1.20719E+06    -229.504E-03     455.212E-03    -225.708E-03     106.735E-03    -230.619E-03     456.126E-03    -225.462E-03     98.8259E-03
            1420     8.62407E-03     81.6325E-03    -52.7070E+06     8.25133E+06     33.5162E+06    -4.09412E+06    -227.574E-03     453.247E-03    -225.673E-03     101.737E-03    -228.587E-03     454.005E-03    -225.441E-03     94.5220E-03
            1421     7.90167E-03     81.4903E-03    -58.6043E+06    -14.2712E+06     23.9701E+06    -1.99403E+06    -227.134E-03     452.866E-03    -225.733E-03     97.7837E-03    -228.020E-03     453.424E-03    -225.507E-03     91.3744E-03
            1422     7.18182E-03     81.3494E-03    -63.6780E+06    -44.9436E+06     11.3892E+06    -458.841E+03    -227.534E-03     453.321E-03    -225.786E-03     93.0831E-03    -228.303E-03     453.670E-03    -225.572E-03     87.2566E-03
            1423     6.46362E-03     81.2290E-03    -70.0087E+06    -73.7269E+06    -855.031E+03    -1.34622E+06    -227.204E-03     453.023E-03    -225.820E-03     85.5356E-03    -227.874E-03     453.186E-03    -225.616E-03     80.1232E-03
            1424     5.74628E-03     81.1235E-03    -78.4162E+06    -95.4144E+06    -15.8146E+06    -1.11370E+06    -227.447E-03     453.248E-03    -225.801E-03     78.3191E-03    -228.025E-03     453.255E-03    -225.628E-03     73.4829E-03
            1425     5.02864E-03     81.0172E-03    -87.2318E+06    -117.390E+06    -32.2984E+06    -782.393E+03    -227.420E-03     453.130E-03    -225.710E-03     68.4659E-03    -227.906E-03     452.983E-03    -225.575E-03     64.2358E-03
            1426     4.30994E-03     80.9296E-03    -94.1260E+06    -143.578E+06    -47.4540E+06    -513.923E+03    -225.926E-03     451.608E-03    -225.682E-03     58.6566E-03    -226.316E-03     451.292E-03    -225.575E-03     55.0146E-03
            1427     3.59032E-03     80.8528E-03    -102.109E+06    -167.956E+06    -65.2665E+06     2.09145E+06    -225.438E-03     451.209E-03    -225.771E-03     49.5821E-03    -225.742E-03     450.743E-03    -225.705E-03     46.6910E-03
            1428     2.87241E-03     80.7813E-03    -112.106E+06    -189.279E+06    -84.6027E+06     530.564E+03    -226.118E-03     451.918E-03    -225.801E-03     37.3216E-03    -226.357E-03     451.334E-03    -225.787E-03     34.9919E-03
            1429     2.15465E-03     80.7307E-03    -114.878E+06    -200.751E+06    -97.6237E+06    -2.15871E+06    -224.809E-03     450.764E-03    -225.955E-03     25.7507E-03    -224.985E-03     450.104E-03    -225.985E-03     23.9141E-03
            1430     1.43284E-03     80.6910E-03    -119.622E+06    -214.457E+06    -113.982E+06    -3.33084E+06    -224.024E-03     450.841E-03    -226.818E-03     16.6587E-03    -224.142E-03     450.110E-03    -226.903E-03     15.4036E-03
            1431     713.070E-06     80.6678E-03    -126.575E+06    -228.995E+06    -125.053E+06    -3.86720E+06    -226.553E-03     455.061E-03    -228.508E-03     8.95511E-03    -226.629E-03     454.281E-03    -228.618E-03     8.33356E-03
            1432     13.6457E-03     81.2705E-03    -1.76869E+06     70.5907E+06     87.5878E+06     4.02846E+06    -228.693E-03     454.535E-03    -225.843E-03     107.960E-03    -229.976E-03     455.809E-03    -225.505E-03     98.2699E-03
            1433     12.9289E-03     81.1192E-03    -10.5451E+06     58.5705E+06     82.5571E+06     3.01260E+06    -229.488E-03     455.285E-03    -225.796E-03     110.342E-03    -230.985E-03     456.712E-03    -225.453E-03     99.3273E-03
            1434     12.2130E-03     80.9661E-03    -16.7546E+06     52.9774E+06     79.6417E+06    -473.152E+03    -228.477E-03     454.237E-03    -225.760E-03     116.527E-03    -230.034E-03     455.692E-03    -225.415E-03     105.588E-03
            1435     11.4947E-03     80.7936E-03    -20.4451E+06     53.0456E+06     77.4683E+06    -810.048E+03    -228.267E-03     454.043E-03    -225.776E-03     119.436E-03    -229.747E-03     455.413E-03    -225.436E-03     109.303E-03
            1436     10.7751E-03     80.6193E-03    -25.4573E+06     46.5360E+06     70.0822E+06     1.42963E+06    -228.174E-03     453.974E-03    -225.800E-03     116.910E-03    -229.540E-03     455.212E-03    -225.480E-03     107.521E-03
            1437     10.0535E-03     80.4511E-03    -32.2004E+06     33.2057E+06     58.8305E+06     3.13052E+06    -228.769E-03     454.573E-03    -225.804E-03     115.243E-03    -230.038E-03     455.675E-03    -225.511E-03     106.471E-03
            1438     9.33781E-03     80.2971E-03    -37.8033E+06     27.6865E+06     48.8407E+06     2.61286E+06    -229.108E-03     454.881E-03    -225.773E-03     113.810E-03    -230.260E-03     455.855E-03    -225.514E-03     105.883E-03
            1439     8.61920E-03     80.1474E-03    -44.8607E+06     10.3208E+06     35.2264E+06    -68.1489E+03    -228.331E-03     454.085E-03    -225.754E-03     108.186E-03    -229.345E-03     454.875E-03    -225.528E-03     100.993E-03
            1440     7.90160E-03     80.0048E-03    -52.2659E+06    -16.0928E+06     24.3482E+06    -1.09970E+06    -227.743E-03     453.540E-03    -225.797E-03     101.398E-03    -228.626E-03     454.110E-03    -225.576E-03     94.8628E-03
            1441     7.18182E-03     79.8639E-03    -60.6275E+06    -45.2157E+06     13.1963E+06    -1.92051E+06    -226.726E-03     452.613E-03    -225.887E-03     90.6521E-03    -227.478E-03     452.951E-03    -225.667E-03     84.7659E-03
            1442     6.45971E-03     79.7440E-03    -70.3205E+06    -74.7277E+06    -1.04394E+06    -2.53698E+06    -226.317E-03     452.312E-03    -225.995E-03     80.3028E-03    -226.967E-03     452.450E-03    -225.790E-03     74.8810E-03
            1443     5.74136E-03     79.6272E-03    -77.7549E+06    -94.9929E+06    -13.9464E+06    -471.393E+03    -227.325E-03     453.359E-03    -226.034E-03     75.1312E-03    -227.896E-03     453.357E-03    -225.854E-03     70.2656E-03
            1444     5.02630E-03     79.5274E-03    -86.0456E+06    -117.095E+06    -29.9393E+06     129.187E+03    -227.466E-03     453.431E-03    -225.965E-03     67.4781E-03    -227.953E-03     453.284E-03    -225.820E-03     63.1789E-03
            1445     4.30894E-03     79.4418E-03    -95.9704E+06    -145.290E+06    -47.7337E+06    -442.560E+03    -227.713E-03     453.515E-03    -225.802E-03     59.0520E-03    -228.118E-03     453.202E-03    -225.691E-03     55.2784E-03
            1446     3.59234E-03     79.3642E-03    -102.114E+06    -166.029E+06    -61.6062E+06     3.28153E+06    -227.832E-03     453.330E-03    -225.498E-03     51.0240E-03    -228.156E-03     452.881E-03    -225.417E-03     47.9807E-03
            1447     2.87611E-03     79.2905E-03    -108.162E+06    -185.225E+06    -80.6783E+06     3.27365E+06    -226.571E-03     451.696E-03    -225.125E-03     40.6303E-03    -226.814E-03     451.133E-03    -225.103E-03     38.2160E-03
            1448     2.15878E-03     79.2463E-03    -117.653E+06    -204.971E+06    -100.976E+06    -705.495E+03    -225.893E-03     450.663E-03    -224.771E-03     29.2944E-03    -226.080E-03     450.000E-03    -224.808E-03     27.3923E-03
            1449     1.44046E-03     79.2101E-03    -123.687E+06    -216.194E+06    -113.291E+06     152.797E+03    -225.502E-03     449.789E-03    -224.287E-03     18.9120E-03    -225.643E-03     449.058E-03    -224.360E-03     17.6291E-03
            1450     720.930E-06     79.1776E-03    -126.526E+06    -232.502E+06    -127.312E+06     155.712E+03    -224.264E-03     447.987E-03    -223.724E-03     9.35442E-03    -224.328E-03     447.190E-03    -223.840E-03     8.66540E-03
            1451     13.6472E-03     79.7744E-03    -6.15084E+06     68.4795E+06     85.5320E+06     1.06342E+06    -229.776E-03     455.665E-03    -225.889E-03     106.090E-03    -231.089E-03     456.951E-03    -225.551E-03     96.1495E-03
            1452     12.9321E-03     79.6282E-03    -5.79502E+06     63.8315E+06     89.9722E+06     1.53255E+06    -228.983E-03     454.830E-03    -225.847E-03     109.640E-03    -230.463E-03     456.255E-03    -225.481E-03     98.6667E-03
            1453     12.2128E-03     79.4769E-03    -11.1796E+06     57.3900E+06     86.0858E+06     176.107E+03    -229.931E-03     455.717E-03    -225.786E-03     119.671E-03    -231.488E-03     457.188E-03    -225.423E-03     108.757E-03
            1454     11.4959E-03     79.3024E-03    -16.1212E+06     51.1135E+06     80.1294E+06     63.5842E+03    -230.085E-03     455.795E-03    -225.710E-03     122.735E-03    -231.583E-03     457.185E-03    -225.360E-03     112.449E-03
            1455     10.7780E-03     79.1361E-03    -23.6560E+06     39.3670E+06     68.4666E+06     2.34172E+06    -227.598E-03     453.294E-03    -225.695E-03     118.599E-03    -228.947E-03     454.499E-03    -225.376E-03     109.318E-03
            1456     10.0576E-03     78.9694E-03    -30.6859E+06     31.2858E+06     56.2192E+06     2.87051E+06    -226.425E-03     452.217E-03    -225.793E-03     114.529E-03    -227.641E-03     453.273E-03    -225.512E-03     106.068E-03
            1457     9.33298E-03     78.8080E-03    -36.0968E+06     29.3082E+06     49.8157E+06     2.54422E+06    -227.547E-03     453.454E-03    -225.907E-03     108.503E-03    -228.662E-03     454.401E-03    -225.648E-03     100.622E-03
            1458     8.61552E-03     78.6551E-03    -42.3744E+06     18.8918E+06     40.4700E+06     3.56966E+06    -228.894E-03     454.803E-03    -225.910E-03     102.012E-03    -229.893E-03     455.602E-03    -225.673E-03     94.7776E-03
            1459     7.89824E-03     78.5141E-03    -51.9506E+06    -10.4213E+06     27.2433E+06     2.29185E+06    -228.974E-03     454.815E-03    -225.841E-03     96.9747E-03    -229.859E-03     455.400E-03    -225.614E-03     90.3658E-03
            1460     7.18261E-03     78.3742E-03    -60.3742E+06    -44.3901E+06     14.9332E+06     528.650E+03    -227.975E-03     453.761E-03    -225.786E-03     88.7292E-03    -228.740E-03     454.111E-03    -225.559E-03     82.6590E-03
            1461     6.46771E-03     78.2590E-03    -68.5841E+06    -73.1770E+06     338.090E+03    -395.246E+03    -226.813E-03     452.587E-03    -225.773E-03     79.8540E-03    -227.449E-03     452.718E-03    -225.566E-03     74.5486E-03
            1462     5.74775E-03     78.1411E-03    -78.8247E+06    -99.5902E+06    -15.3060E+06    -752.389E+03    -225.552E-03     451.422E-03    -225.870E-03     73.9303E-03    -226.094E-03     451.375E-03    -225.688E-03     69.3411E-03
            1463     5.02510E-03     78.0393E-03    -86.1358E+06    -120.097E+06    -28.6392E+06    -24.6021E+03    -226.111E-03     452.116E-03    -226.005E-03     66.3820E-03    -226.583E-03     451.939E-03    -225.849E-03     62.2207E-03
            1464     4.30702E-03     77.9499E-03    -94.2503E+06    -144.478E+06    -45.9146E+06     1.20633E+06    -227.913E-03     453.839E-03    -225.926E-03     58.9341E-03    -228.306E-03     453.519E-03    -225.810E-03     55.2808E-03
            1465     3.59261E-03     77.8685E-03    -102.937E+06    -169.972E+06    -64.2298E+06    -609.875E+03    -227.486E-03     453.144E-03    -225.658E-03     51.8769E-03    -227.815E-03     452.691E-03    -225.583E-03     48.5946E-03
            1466     2.87350E-03     77.8098E-03    -106.743E+06    -183.127E+06    -76.2626E+06     1.49417E+06    -226.114E-03     451.578E-03    -225.464E-03     42.7736E-03    -226.369E-03     451.026E-03    -225.425E-03     40.2472E-03
            1467     2.15294E-03     77.7550E-03    -113.755E+06    -199.198E+06    -94.5285E+06     4.43723E+06    -226.282E-03     451.520E-03    -225.239E-03     33.0975E-03    -226.470E-03     450.873E-03    -225.257E-03     31.3066E-03
            1468     1.43944E-03     77.7204E-03    -121.562E+06    -217.008E+06    -112.669E+06     2.41947E+06    -226.661E-03     451.228E-03    -224.567E-03     25.2437E-03    -226.800E-03     450.500E-03    -224.639E-03     23.7966E-03
            1469     723.872E-06     77.7015E-03    -124.259E+06    -230.004E+06    -118.598E+06     1.91398E+06    -224.763E-03     448.229E-03    -223.466E-03     15.3472E-03    -224.839E-03     447.431E-03    -223.545E-03     14.4805E-03
            1470     13.6487E-03     78.2815E-03    -6.82795E+06     67.0544E+06     84.9240E+06    -2.53998E+06    -226.906E-03     452.738E-03    -225.832E-03     104.865E-03    -228.238E-03     454.037E-03    -225.495E-03     94.7775E-03
            1471     12.9267E-03     78.1432E-03    -11.3141E+06     58.2268E+06     83.3804E+06    -3.41085E+06    -227.236E-03     453.133E-03    -225.898E-03     111.387E-03    -228.734E-03     454.556E-03    -225.549E-03     100.450E-03
            1472     12.2090E-03     77.9823E-03    -15.6289E+06     59.6967E+06     84.2273E+06    -1.27765E+06    -230.163E-03     456.063E-03    -225.900E-03     120.647E-03    -231.730E-03     457.543E-03    -225.543E-03     109.853E-03
            1473     11.4928E-03     77.8100E-03    -19.0429E+06     50.4429E+06     78.1147E+06     780.960E+03    -230.222E-03     456.041E-03    -225.819E-03     121.677E-03    -231.743E-03     457.447E-03    -225.474E-03     111.264E-03
            1474     10.7748E-03     77.6481E-03    -24.6621E+06     34.4483E+06     66.6261E+06     2.57053E+06    -229.212E-03     454.963E-03    -225.751E-03     118.321E-03    -230.590E-03     456.182E-03    -225.432E-03     108.743E-03
            1475     10.0555E-03     77.4851E-03    -29.4222E+06     32.1347E+06     58.9943E+06     3.00495E+06    -229.226E-03     454.927E-03    -225.701E-03     114.348E-03    -230.452E-03     455.991E-03    -225.410E-03     105.734E-03
            1476     9.34108E-03     77.3207E-03    -35.7435E+06     29.3323E+06     50.7792E+06     2.67353E+06    -228.784E-03     454.425E-03    -225.641E-03     106.210E-03    -229.875E-03     455.346E-03    -225.378E-03     98.3924E-03
            1477     8.62151E-03     77.1683E-03    -43.4701E+06     19.2657E+06     43.2659E+06     3.55113E+06    -228.097E-03     453.698E-03    -225.601E-03     98.8409E-03    -229.073E-03     454.462E-03    -225.349E-03     91.7804E-03
            1478     7.90416E-03     77.0215E-03    -52.2528E+06    -7.12182E+06     30.7831E+06     4.92793E+06    -227.249E-03     452.847E-03    -225.598E-03     93.9879E-03    -228.118E-03     453.416E-03    -225.358E-03     87.5819E-03
            1479     7.18382E-03     76.8901E-03    -58.8016E+06    -41.2647E+06     17.5589E+06     3.33652E+06    -226.266E-03     451.941E-03    -225.675E-03     89.3070E-03    -227.026E-03     452.295E-03    -225.442E-03     83.3849E-03
            1480     6.46287E-03     76.7642E-03    -65.8114E+06    -69.6787E+06     5.19079E+06     2.86383E+06    -226.502E-03     452.285E-03    -225.783E-03     83.6681E-03    -227.148E-03     452.435E-03    -225.560E-03     78.4366E-03
            1481     5.74556E-03     76.6603E-03    -76.6774E+06    -97.4796E+06    -13.7086E+06     1.61973E+06    -226.870E-03     452.690E-03    -225.820E-03     76.4999E-03    -227.427E-03     452.669E-03    -225.636E-03     71.7952E-03
            1482     5.02705E-03     76.5528E-03    -85.6094E+06    -121.594E+06    -30.5584E+06    -21.0097E+03    -226.459E-03     452.297E-03    -225.838E-03     67.8873E-03    -226.929E-03     452.121E-03    -225.690E-03     63.7092E-03
            1483     4.30998E-03     76.4570E-03    -92.4686E+06    -145.701E+06    -46.1137E+06     251.476E+03    -225.941E-03     451.839E-03    -225.899E-03     58.5813E-03    -226.314E-03     451.501E-03    -225.784E-03     55.0670E-03
            1484     3.58836E-03     76.3839E-03    -100.609E+06    -170.974E+06    -65.6819E+06    -459.679E+03    -226.040E-03     451.999E-03    -225.958E-03     50.2101E-03    -226.339E-03     451.523E-03    -225.893E-03     47.1658E-03
            1485     2.87104E-03     76.3172E-03    -110.277E+06    -190.218E+06    -83.4341E+06    -858.275E+03    -226.422E-03     452.367E-03    -225.944E-03     40.5672E-03    -226.660E-03     451.780E-03    -225.926E-03     38.2109E-03
            1486     2.15592E-03     76.2702E-03    -106.780E+06    -193.949E+06    -88.0376E+06     1.04766E+06    -225.654E-03     451.651E-03    -225.997E-03     30.5568E-03    -225.813E-03     451.000E-03    -226.001E-03     28.9505E-03
            1487     1.43160E-03     76.2311E-03    -110.731E+06    -207.164E+06    -103.675E+06     2.24633E+06    -224.993E-03     451.413E-03    -226.420E-03     21.3151E-03    -225.096E-03     450.697E-03    -226.477E-03     20.1603E-03
            1488     711.674E-06     76.2111E-03    -125.821E+06    -233.670E+06    -125.423E+06    -479.830E+03    -225.637E-03     453.589E-03    -227.951E-03     11.7120E-03    -225.703E-03     452.783E-03    -228.057E-03     11.0816E-03
            1489     13.6490E-03     76.8041E-03    -3.94212E+06     69.2112E+06     86.4293E+06     340.561E+03    -226.125E-03     451.875E-03    -225.750E-03     102.086E-03    -227.427E-03     453.158E-03    -225.412E-03     92.0710E-03
            1490     12.9280E-03     76.6559E-03    -10.8513E+06     58.0439E+06     81.6825E+06    -2.62224E+06    -227.374E-03     453.185E-03    -225.811E-03     109.656E-03    -228.847E-03     454.589E-03    -225.471E-03     98.7672E-03
            1491     12.2109E-03     76.4881E-03    -16.6214E+06     57.3481E+06     79.7076E+06    -2.56849E+06    -229.355E-03     455.159E-03    -225.804E-03     114.941E-03    -230.845E-03     456.563E-03    -225.465E-03     104.372E-03
            1492     11.4924E-03     76.3223E-03    -24.0703E+06     45.1765E+06     70.8481E+06    -1.97823E+06    -228.636E-03     454.398E-03    -225.762E-03     115.493E-03    -230.090E-03     455.721E-03    -225.438E-03     105.317E-03
            1493     10.7739E-03     76.1575E-03    -28.8796E+06     32.8237E+06     63.8214E+06    -1.58497E+06    -229.950E-03     455.659E-03    -225.709E-03     115.617E-03    -231.306E-03     456.845E-03    -225.396E-03     106.073E-03
            1494     10.0599E-03     75.9920E-03    -32.0929E+06     32.1236E+06     60.1291E+06    -245.607E+03    -231.001E-03     456.570E-03    -225.569E-03     112.850E-03    -232.227E-03     457.622E-03    -225.268E-03     104.183E-03
            1495     9.34152E-03     75.8299E-03    -38.8736E+06     26.8480E+06     50.6595E+06     1.65788E+06    -229.271E-03     454.685E-03    -225.413E-03     108.293E-03    -230.370E-03     455.593E-03    -225.143E-03     100.582E-03
            1496     8.62541E-03     75.6818E-03    -46.2671E+06     15.6571E+06     40.7589E+06     2.57911E+06    -227.395E-03     452.774E-03    -225.379E-03     104.033E-03    -228.382E-03     453.535E-03    -225.131E-03     97.1507E-03
            1497     7.90420E-03     75.5367E-03    -51.4595E+06    -7.41716E+06     32.4734E+06     2.35329E+06    -225.947E-03     451.439E-03    -225.492E-03     98.1854E-03    -226.835E-03     452.024E-03    -225.245E-03     91.7499E-03
            1498     7.18406E-03     75.4066E-03    -59.1230E+06    -41.3567E+06     19.6597E+06     3.50424E+06    -225.017E-03     450.726E-03    -225.709E-03     91.0428E-03    -225.791E-03     451.086E-03    -225.465E-03     85.1438E-03
            1499     6.46307E-03     75.2818E-03    -67.1041E+06    -69.4616E+06     5.01178E+06     4.35963E+06    -225.946E-03     451.862E-03    -225.915E-03     84.1088E-03    -226.594E-03     452.010E-03    -225.692E-03     78.9595E-03
            1500     5.74379E-03     75.1648E-03    -72.5917E+06    -90.9584E+06    -9.58426E+06     4.69150E+06    -227.846E-03     453.789E-03    -225.943E-03     76.4149E-03    -228.403E-03     453.794E-03    -225.754E-03     71.6472E-03
            1501     5.02964E-03     75.0639E-03    -79.1800E+06    -115.080E+06    -27.5916E+06     2.86682E+06    -227.347E-03     453.184E-03    -225.837E-03     68.3846E-03    -227.807E-03     453.034E-03    -225.694E-03     64.1487E-03
            1502     4.30774E-03     74.9750E-03    -89.9817E+06    -147.225E+06    -48.0047E+06     408.858E+03    -225.920E-03     451.751E-03    -225.831E-03     59.1240E-03    -226.274E-03     451.402E-03    -225.727E-03     55.6761E-03
            1503     3.59050E-03     74.8938E-03    -99.7859E+06    -171.971E+06    -65.8347E+06     1.63459E+06    -225.885E-03     451.796E-03    -225.911E-03     48.7849E-03    -226.161E-03     451.298E-03    -225.846E-03     46.0241E-03
            1504     2.87218E-03     74.8288E-03    -105.278E+06    -186.070E+06    -82.7856E+06    -70.4634E+03    -225.984E-03     451.935E-03    -225.950E-03     39.0661E-03    -226.202E-03     451.358E-03    -225.942E-03     36.6666E-03
            1505     2.15174E-03     74.7799E-03    -108.015E+06    -197.731E+06    -94.3846E+06    -2.78808E+06    -226.401E-03     452.299E-03    -225.898E-03     28.9276E-03    -226.559E-03     451.647E-03    -225.926E-03     27.0369E-03
            1506     1.43845E-03     74.7465E-03    -114.667E+06    -208.862E+06    -104.466E+06     150.602E+03    -226.253E-03     451.946E-03    -225.693E-03     16.8245E-03    -226.367E-03     451.221E-03    -225.746E-03     15.8097E-03
            1507     719.616E-06     74.7195E-03    -121.810E+06    -226.208E+06    -118.644E+06     3.93046E+06    -224.628E-03     451.105E-03    -226.477E-03     6.85601E-03    -224.687E-03     450.321E-03    -226.565E-03     6.53180E-03
            1508     13.6509E-03     75.3176E-03    -3.95656E+06     69.6346E+06     86.0803E+06     443.850E+03    -227.797E-03     453.472E-03    -225.675E-03     101.288E-03    -229.076E-03     454.735E-03    -225.340E-03     91.3789E-03
            1509     12.9341E-03     75.1688E-03    -7.97710E+06     60.4616E+06     84.1902E+06     369.473E+03    -229.042E-03     454.699E-03    -225.657E-03     114.107E-03    -230.526E-03     456.125E-03    -225.312E-03     103.331E-03
            1510     12.2163E-03     74.9965E-03    -14.6142E+06     58.3507E+06     81.1406E+06     326.649E+03    -229.256E-03     454.866E-03    -225.610E-03     116.006E-03    -230.727E-03     456.256E-03    -225.267E-03     105.647E-03
            1511     11.4974E-03     74.8406E-03    -21.5353E+06     47.4839E+06     73.4317E+06    -855.565E+03    -228.718E-03     454.282E-03    -225.564E-03     115.215E-03    -230.139E-03     455.582E-03    -225.234E-03     105.234E-03
            1512     10.7780E-03     74.6665E-03    -28.0256E+06     32.8002E+06     62.7499E+06    -2.71090E+06    -229.617E-03     455.117E-03    -225.500E-03     116.860E-03    -230.946E-03     456.281E-03    -225.193E-03     107.510E-03
            1513     10.0598E-03     74.4977E-03    -36.1163E+06     27.4562E+06     55.5797E+06    -1.68754E+06    -228.647E-03     454.091E-03    -225.444E-03     112.719E-03    -229.879E-03     455.131E-03    -225.154E-03     104.102E-03
            1514     9.34257E-03     74.3458E-03    -42.1418E+06     23.7359E+06     49.4889E+06    -243.839E+03    -226.860E-03     452.341E-03    -225.481E-03     110.720E-03    -228.002E-03     453.274E-03    -225.207E-03     102.888E-03
            1515     8.61998E-03     74.1930E-03    -48.1236E+06     17.1990E+06     40.1715E+06    -118.811E+03    -227.023E-03     452.597E-03    -225.574E-03     107.365E-03    -228.059E-03     453.407E-03    -225.328E-03     100.266E-03
            1516     7.90180E-03     74.0533E-03    -55.3495E+06    -9.72963E+06     27.9349E+06    -449.440E+03    -227.117E-03     452.780E-03    -225.663E-03     98.5402E-03    -228.028E-03     453.380E-03    -225.429E-03     91.9280E-03
            1517     7.18156E-03     73.9200E-03    -64.1615E+06    -45.7755E+06     12.8586E+06     850.943E+03    -226.738E-03     452.479E-03    -225.742E-03     89.8807E-03    -227.507E-03     452.821E-03    -225.518E-03     83.9930E-03
            1518     6.46331E-03     73.7965E-03    -70.6595E+06    -70.7759E+06    -1.33835E+06     1.79836E+06    -226.750E-03     452.556E-03    -225.806E-03     83.3735E-03    -227.379E-03     452.687E-03    -225.608E-03     78.4234E-03
            1519     5.74532E-03     73.6746E-03    -74.6385E+06    -95.0471E+06    -14.5384E+06     818.036E+03    -226.375E-03     452.256E-03    -225.881E-03     75.4591E-03    -226.900E-03     452.221E-03    -225.708E-03     70.9773E-03
            1520     5.02395E-03     73.5742E-03    -79.5805E+06    -114.754E+06    -27.1409E+06     952.508E+03    -226.719E-03     452.648E-03    -225.928E-03     67.0832E-03    -227.171E-03     452.488E-03    -225.782E-03     62.8948E-03
            1521     4.30997E-03     73.4862E-03    -85.3483E+06    -137.488E+06    -39.6555E+06     4.66888E+06    -227.495E-03     453.351E-03    -225.856E-03     59.2613E-03    -227.859E-03     453.039E-03    -225.731E-03     55.7337E-03
            1522     3.59150E-03     73.4052E-03    -93.7995E+06    -162.378E+06    -57.4456E+06     5.25116E+06    -226.742E-03     452.435E-03    -225.693E-03     48.5954E-03    -227.018E-03     451.969E-03    -225.609E-03     45.7745E-03
            1523     2.87229E-03     73.3437E-03    -100.621E+06    -178.372E+06    -75.4918E+06     1.75779E+06    -225.505E-03     451.142E-03    -225.637E-03     38.4562E-03    -225.723E-03     450.589E-03    -225.610E-03     35.9822E-03
            1524     2.15581E-03     73.2892E-03    -116.541E+06    -203.539E+06    -101.256E+06     484.071E+03    -225.773E-03     451.404E-03    -225.631E-03     30.6562E-03    -225.963E-03     450.752E-03    -225.673E-03     28.6132E-03
            1525     1.43703E-03     73.2533E-03    -122.732E+06    -217.944E+06    -115.115E+06     249.783E+03    -226.895E-03     452.106E-03    -225.211E-03     21.3395E-03    -227.029E-03     451.371E-03    -225.293E-03     20.0987E-03
            1526     722.215E-06     73.2383E-03    -112.207E+06    -216.115E+06    -111.026E+06     189.393E+03    -225.635E-03     449.729E-03    -224.094E-03     10.9312E-03    -225.677E-03     448.974E-03    -224.173E-03     10.3999E-03
            1527     13.6494E-03     73.8277E-03    -4.29080E+06     69.7376E+06     85.3758E+06    -382.062E+03    -227.941E-03     453.607E-03    -225.666E-03     102.350E-03    -229.205E-03     454.856E-03    -225.334E-03     92.6619E-03
            1528     12.9307E-03     73.6776E-03    -10.6107E+06     58.9344E+06     82.7412E+06    -234.644E+03    -229.303E-03     454.950E-03    -225.648E-03     117.361E-03    -230.846E-03     456.425E-03    -225.304E-03     106.387E-03
            1529     12.2134E-03     73.5055E-03    -15.7222E+06     58.7549E+06     83.2914E+06     472.218E+03    -229.739E-03     455.340E-03    -225.601E-03     118.424E-03    -231.262E-03     456.775E-03    -225.247E-03     107.867E-03
            1530     11.4965E-03     73.3519E-03    -19.9530E+06     50.8646E+06     78.2885E+06     168.091E+03    -230.000E-03     455.517E-03    -225.517E-03     118.826E-03    -231.470E-03     456.869E-03    -225.170E-03     108.674E-03
            1531     10.7808E-03     73.1759E-03    -27.0356E+06     33.3995E+06     65.0349E+06     264.458E+03    -228.820E-03     454.265E-03    -225.444E-03     120.270E-03    -230.192E-03     455.470E-03    -225.129E-03     110.855E-03
            1532     10.0615E-03     73.0151E-03    -34.7859E+06     26.6526E+06     54.5569E+06    -184.252E+03    -226.549E-03     452.036E-03    -225.488E-03     114.618E-03    -227.801E-03     453.102E-03    -225.203E-03     105.958E-03
            1533     9.33685E-03     72.8617E-03    -42.2584E+06     22.9358E+06     45.9247E+06    -1.41760E+06    -226.524E-03     452.134E-03    -225.611E-03     109.785E-03    -227.662E-03     453.071E-03    -225.353E-03     101.896E-03
            1534     8.61827E-03     72.7075E-03    -48.5254E+06     15.7122E+06     37.6368E+06     266.450E+03    -226.954E-03     452.681E-03    -225.726E-03     104.599E-03    -227.971E-03     453.472E-03    -225.491E-03     97.5253E-03
            1535     7.90006E-03     72.5600E-03    -56.3253E+06    -9.91529E+06     23.8556E+06     1.76112E+06    -227.735E-03     453.518E-03    -225.783E-03     97.1937E-03    -228.635E-03     454.114E-03    -225.568E-03     90.6333E-03
            1536     7.18436E-03     72.4354E-03    -63.5769E+06    -44.2932E+06     8.48959E+06    -358.187E+03    -228.753E-03     454.484E-03    -225.731E-03     90.1814E-03    -229.516E-03     454.839E-03    -225.532E-03     84.2295E-03
            1537     6.46644E-03     72.3046E-03    -68.4703E+06    -70.5806E+06    -2.82645E+06    -2.27247E+06    -228.186E-03     453.806E-03    -225.620E-03     83.1488E-03    -228.816E-03     453.951E-03    -225.433E-03     77.9511E-03
            1538     5.74680E-03     72.1930E-03    -77.1413E+06    -97.8107E+06    -18.8911E+06    -3.48350E+06    -226.563E-03     452.124E-03    -225.561E-03     73.1124E-03    -227.088E-03     452.083E-03    -225.402E-03     68.5130E-03
            1539     5.02816E-03     72.0869E-03    -86.6053E+06    -121.266E+06    -34.2872E+06    -3.35336E+06    -225.819E-03     451.417E-03    -225.598E-03     64.1591E-03    -226.267E-03     451.226E-03    -225.468E-03     60.0519E-03
            1540     4.30727E-03     71.9929E-03    -90.3098E+06    -138.070E+06    -41.2339E+06    -60.6073E+03    -226.154E-03     451.812E-03    -225.658E-03     57.4543E-03    -226.537E-03     451.504E-03    -225.533E-03     53.7995E-03
            1541     3.59187E-03     71.9165E-03    -93.6930E+06    -156.399E+06    -51.5515E+06     3.01692E+06    -226.081E-03     451.740E-03    -225.659E-03     49.0747E-03    -226.388E-03     451.309E-03    -225.555E-03     45.9709E-03
            1542     2.87540E-03     71.8558E-03    -104.601E+06    -179.175E+06    -74.3467E+06     5.39490E+06    -225.610E-03     451.256E-03    -225.646E-03     40.9655E-03    -225.851E-03     450.706E-03    -225.606E-03     38.6092E-03
            1543     2.15375E-03     71.8060E-03    -114.975E+06    -199.252E+06    -97.0066E+06     5.52822E+06    -225.071E-03     450.853E-03    -225.782E-03     32.2987E-03    -225.257E-03     450.206E-03    -225.812E-03     30.6226E-03
            1544     1.43386E-03     71.7646E-03    -114.474E+06    -209.159E+06    -108.169E+06     1.53081E+06    -224.873E-03     451.159E-03    -226.286E-03     21.4651E-03    -224.986E-03     450.444E-03    -226.358E-03     20.2165E-03
            1545     714.404E-06     71.7452E-03    -115.851E+06    -219.997E+06    -112.996E+06    -1.84168E+06    -226.633E-03     453.403E-03    -226.770E-03     9.77690E-03    -226.684E-03     452.634E-03    -226.848E-03     9.10673E-03
            1546     13.6504E-03     72.3463E-03    -4.39080E+06     69.9213E+06     87.3114E+06    -235.522E+03    -228.878E-03     454.531E-03    -225.654E-03     99.8410E-03    -230.114E-03     455.747E-03    -225.312E-03     90.2259E-03
            1547     12.9322E-03     72.1823E-03    -10.0314E+06     60.7321E+06     85.4321E+06     1.12572E+06    -228.017E-03     453.652E-03    -225.635E-03     113.976E-03    -229.521E-03     455.088E-03    -225.281E-03     103.172E-03
            1548     12.2140E-03     72.0213E-03    -16.3776E+06     58.9767E+06     82.7675E+06    -127.317E+03    -228.042E-03     453.699E-03    -225.657E-03     118.551E-03    -229.550E-03     455.118E-03    -225.305E-03     108.149E-03
            1549     11.4959E-03     71.8552E-03    -21.7040E+06     47.8821E+06     76.2166E+06    -157.668E+03    -229.136E-03     454.798E-03    -225.661E-03     121.354E-03    -230.617E-03     456.150E-03    -225.318E-03     111.290E-03
            1550     10.7771E-03     71.6905E-03    -26.9918E+06     32.9437E+06     66.6643E+06     847.092E+03    -228.285E-03     453.951E-03    -225.665E-03     120.846E-03    -229.677E-03     455.170E-03    -225.340E-03     111.355E-03
            1551     10.0548E-03     71.5316E-03    -32.8160E+06     29.7413E+06     56.4270E+06     550.052E+03    -228.059E-03     453.743E-03    -225.684E-03     116.142E-03    -229.338E-03     454.847E-03    -225.397E-03     107.294E-03
            1552     9.34049E-03     71.3720E-03    -40.4955E+06     24.5340E+06     44.0968E+06     1.63102E+06    -228.631E-03     454.299E-03    -225.668E-03     109.181E-03    -229.753E-03     455.237E-03    -225.425E-03     101.303E-03
            1553     8.62229E-03     71.2221E-03    -48.9521E+06     12.5582E+06     32.8156E+06     384.382E+03    -227.341E-03     453.021E-03    -225.680E-03     103.463E-03    -228.332E-03     453.788E-03    -225.463E-03     96.4735E-03
            1554     7.89994E-03     71.0770E-03    -54.9993E+06    -10.7710E+06     23.7278E+06    -987.446E+03    -227.341E-03     453.095E-03    -225.754E-03     97.9804E-03    -228.227E-03     453.679E-03    -225.540E-03     91.4840E-03
            1555     7.18046E-03     70.9371E-03    -57.8466E+06    -38.3530E+06     15.3146E+06     295.084E+03    -229.192E-03     454.909E-03    -225.717E-03     90.1869E-03    -229.951E-03     455.282E-03    -225.501E-03     84.1556E-03
            1556     6.46535E-03     70.8182E-03    -65.7344E+06    -67.6684E+06     663.821E+03    -350.451E+03    -229.454E-03     454.945E-03    -225.491E-03     82.2058E-03    -230.115E-03     455.131E-03    -225.294E-03     76.5732E-03
            1557     5.74989E-03     70.7009E-03    -76.6075E+06    -93.7255E+06    -15.9039E+06    -519.555E+03    -227.756E-03     453.005E-03    -225.249E-03     73.4999E-03    -228.329E-03     453.020E-03    -225.082E-03     68.4702E-03
            1558     5.03274E-03     70.6038E-03    -86.7830E+06    -121.338E+06    -33.7316E+06     180.904E+03    -225.924E-03     451.073E-03    -225.149E-03     66.0776E-03    -226.387E-03     450.896E-03    -225.016E-03     61.9435E-03
            1559     4.31372E-03     70.5097E-03    -97.9788E+06    -149.048E+06    -55.5512E+06    -3.31281E+06    -224.559E-03     449.792E-03    -225.233E-03     58.2282E-03    -224.938E-03     449.455E-03    -225.153E-03     54.6857E-03
            1560     3.59039E-03     70.4292E-03    -105.185E+06    -169.444E+06    -69.1382E+06    -5.76374E+06    -224.485E-03     449.957E-03    -225.472E-03     47.9403E-03    -224.798E-03     449.496E-03    -225.419E-03     44.8096E-03
            1561     2.86874E-03     70.3696E-03    -107.945E+06    -183.401E+06    -77.0751E+06    -979.067E+03    -225.619E-03     451.255E-03    -225.636E-03     38.6476E-03    -225.864E-03     450.689E-03    -225.599E-03     36.1993E-03
            1562     2.15437E-03     70.3140E-03    -107.677E+06    -190.031E+06    -88.4322E+06     2.50762E+06    -225.598E-03     451.256E-03    -225.658E-03     28.8619E-03    -225.769E-03     450.627E-03    -225.669E-03     27.1544E-03
            1563     1.43692E-03     70.2822E-03    -111.807E+06    -201.970E+06    -102.181E+06     869.379E+03    -224.438E-03     450.517E-03    -226.079E-03     19.1177E-03    -224.553E-03     449.820E-03    -226.135E-03     17.9249E-03
            1564     716.244E-06     70.2535E-03    -119.623E+06    -219.280E+06    -114.783E+06     823.663E+03    -225.338E-03     453.042E-03    -227.704E-03     11.0680E-03    -225.404E-03     452.283E-03    -227.787E-03     10.3375E-03
            1565     13.6520E-03     70.8482E-03    -5.14177E+06     69.0917E+06     88.3630E+06    -31.7160E+03    -229.968E-03     455.617E-03    -225.648E-03     101.258E-03    -231.243E-03     456.863E-03    -225.299E-03     91.3550E-03
            1566     12.9358E-03     70.6997E-03    -9.87696E+06     60.3650E+06     85.7028E+06     1.29538E+06    -228.233E-03     453.818E-03    -225.585E-03     112.468E-03    -229.714E-03     455.230E-03    -225.230E-03     101.717E-03
            1567     12.2119E-03     70.5380E-03    -15.6246E+06     59.4385E+06     83.2269E+06     592.857E+03    -226.475E-03     452.116E-03    -225.641E-03     118.183E-03    -227.968E-03     453.523E-03    -225.288E-03     107.913E-03
            1568     11.4913E-03     70.3634E-03    -23.1955E+06     50.2021E+06     73.9925E+06     1.53601E+06    -226.722E-03     452.470E-03    -225.748E-03     118.219E-03    -228.171E-03     453.800E-03    -225.417E-03     108.382E-03
            1569     10.7718E-03     70.2062E-03    -31.1605E+06     33.2402E+06     59.2106E+06     1.06228E+06    -227.990E-03     453.799E-03    -225.808E-03     116.879E-03    -229.348E-03     454.992E-03    -225.515E-03     107.509E-03
            1570     10.0566E-03     70.0389E-03    -36.9138E+06     26.0929E+06     49.8793E+06    -1.42812E+06    -229.458E-03     455.252E-03    -225.794E-03     114.726E-03    -230.722E-03     456.333E-03    -225.529E-03     105.873E-03
            1571     9.33707E-03     69.8811E-03    -41.2067E+06     23.9762E+06     44.9487E+06    -350.652E+03    -229.095E-03     454.835E-03    -225.740E-03     108.663E-03    -230.221E-03     455.769E-03    -225.490E-03     100.716E-03
            1572     8.61837E-03     69.7349E-03    -45.7687E+06     17.2221E+06     36.3323E+06    -491.955E+03    -228.537E-03     454.222E-03    -225.685E-03     103.505E-03    -229.537E-03     455.015E-03    -225.462E-03     96.3573E-03
            1573     7.90264E-03     69.5899E-03    -52.8370E+06    -9.00947E+06     25.6661E+06    -2.55997E+06    -228.650E-03     454.295E-03    -225.645E-03     98.7423E-03    -229.533E-03     454.884E-03    -225.427E-03     92.1984E-03
            1574     7.18520E-03     69.4492E-03    -63.3804E+06    -44.2589E+06     12.5868E+06    -1.48194E+06    -228.476E-03     454.050E-03    -225.574E-03     90.1498E-03    -229.232E-03     454.388E-03    -225.355E-03     84.2980E-03
            1575     6.46762E-03     69.3226E-03    -71.4894E+06    -69.8823E+06    -1.12954E+06     4.60253E+03    -227.835E-03     453.301E-03    -225.466E-03     82.7619E-03    -228.512E-03     453.480E-03    -225.267E-03     77.2707E-03
            1576     5.74992E-03     69.2148E-03    -76.9049E+06    -91.3679E+06    -12.8059E+06     2.03102E+06    -227.118E-03     452.498E-03    -225.380E-03     76.7990E-03    -227.717E-03     452.537E-03    -225.200E-03     71.7441E-03
            1577     5.02971E-03     69.1166E-03    -84.3946E+06    -116.718E+06    -29.8793E+06     4.40881E+06    -226.943E-03     452.226E-03    -225.284E-03     70.1310E-03    -227.429E-03     452.085E-03    -225.141E-03     65.9044E-03
            1578     4.31134E-03     69.0240E-03    -92.3283E+06    -143.968E+06    -51.3504E+06     1.90381E+06    -226.598E-03     451.743E-03    -225.145E-03     60.0979E-03    -226.971E-03     451.426E-03    -225.059E-03     56.5727E-03
            1579     3.59386E-03     68.9500E-03    -100.327E+06    -168.314E+06    -70.5074E+06    -2.78525E+06    -225.893E-03     450.906E-03    -225.014E-03     47.8646E-03    -226.174E-03     450.439E-03    -224.977E-03     44.8993E-03
            1580     2.87793E-03     68.8769E-03    -109.096E+06    -188.922E+06    -84.0833E+06    -6.85823E+06    -225.437E-03     450.358E-03    -224.922E-03     37.4990E-03    -225.667E-03     449.775E-03    -224.910E-03     34.9461E-03
            1581     2.15659E-03     68.8315E-03    -114.470E+06    -197.883E+06    -94.5588E+06    -5.61317E+06    -225.031E-03     449.876E-03    -224.845E-03     27.6878E-03    -225.221E-03     449.232E-03    -224.865E-03     25.6934E-03
            1582     1.43640E-03     68.7921E-03    -117.654E+06    -205.322E+06    -107.867E+06    -1.25675E+06    -225.166E-03     449.842E-03    -224.675E-03     18.7538E-03    -225.297E-03     449.144E-03    -224.746E-03     17.5993E-03
            1583     719.495E-06     68.7715E-03    -118.440E+06    -216.563E+06    -117.618E+06     -776.25E+03    -224.456E-03     449.184E-03    -224.728E-03     12.8736E-03    -224.515E-03     448.441E-03    -224.830E-03     12.2077E-03
            1584     13.6477E-03     69.3448E-03    -5.04799E+06     67.9371E+06     86.6921E+06     129.527E+03    -228.721E-03     454.476E-03    -225.756E-03     104.972E-03    -230.055E-03     455.783E-03    -225.413E-03     94.7875E-03
            1585     12.9315E-03     69.2152E-03    -11.0906E+06     58.3030E+06     83.8337E+06     296.963E+03    -230.082E-03     455.768E-03    -225.686E-03     112.805E-03    -231.604E-03     457.215E-03    -225.336E-03     101.715E-03
            1586     12.2172E-03     69.0486E-03    -17.2087E+06     58.0305E+06     81.9103E+06     2.09285E+06    -228.697E-03     454.325E-03    -225.628E-03     118.261E-03    -230.233E-03     455.768E-03    -225.277E-03     107.684E-03
            1587     11.4967E-03     68.8871E-03    -23.0877E+06     50.6021E+06     73.6494E+06     2.22920E+06    -227.162E-03     452.808E-03    -225.646E-03     116.520E-03    -228.614E-03     454.144E-03    -225.317E-03     106.571E-03
            1588     10.7754E-03     68.7152E-03    -27.2002E+06     36.4470E+06     63.5699E+06     2.25189E+06    -227.702E-03     453.400E-03    -225.698E-03     114.633E-03    -229.027E-03     454.573E-03    -225.393E-03     105.349E-03
            1589     10.0554E-03     68.5498E-03    -34.0733E+06     27.8591E+06     52.3170E+06     508.074E+03    -228.159E-03     453.873E-03    -225.715E-03     112.063E-03    -229.370E-03     454.911E-03    -225.444E-03     103.480E-03
            1590     9.33817E-03     68.3929E-03    -41.6476E+06     23.7849E+06     43.4448E+06    -3.40447E+06    -228.616E-03     454.313E-03    -225.697E-03     106.498E-03    -229.721E-03     455.229E-03    -225.454E-03     98.5705E-03
            1591     8.62080E-03     68.2452E-03    -48.5534E+06     17.6827E+06     38.2155E+06    -2.24675E+06    -229.272E-03     454.902E-03    -225.630E-03     101.321E-03    -230.295E-03     455.705E-03    -225.394E-03     93.9641E-03
            1592     7.90216E-03     68.0980E-03    -56.5435E+06    -7.35064E+06     25.6843E+06     625.327E+03    -228.600E-03     454.132E-03    -225.532E-03     98.2325E-03    -229.514E-03     454.744E-03    -225.311E-03     91.6201E-03
            1593     7.18538E-03     67.9598E-03    -65.9860E+06    -47.6544E+06     7.83433E+06    -1.59783E+06    -226.693E-03     452.225E-03    -225.531E-03     92.4467E-03    -227.460E-03     452.565E-03    -225.327E-03     86.6510E-03
            1594     6.46477E-03     67.8394E-03    -74.1634E+06    -75.7194E+06    -7.38792E+06    -2.48696E+06    -225.526E-03     451.192E-03    -225.666E-03     85.0075E-03    -226.170E-03     451.325E-03    -225.486E-03     79.9630E-03
            1595     5.74315E-03     67.7262E-03    -78.6179E+06    -96.8879E+06    -17.7982E+06    -3.58700E+06    -226.957E-03     452.736E-03    -225.779E-03     77.6792E-03    -227.514E-03     452.722E-03    -225.614E-03     72.9728E-03
            1596     5.02724E-03     67.6270E-03    -82.0832E+06    -113.866E+06    -25.9524E+06    -1.01990E+06    -228.514E-03     454.175E-03    -225.661E-03     68.3588E-03    -228.990E-03     454.030E-03    -225.506E-03     64.0712E-03
            1597     4.31079E-03     67.5342E-03    -86.8146E+06    -134.674E+06    -38.1426E+06     4.03025E+06    -228.196E-03     453.532E-03    -225.337E-03     58.8183E-03    -228.574E-03     453.235E-03    -225.206E-03     55.2628E-03
            1598     3.59555E-03     67.4577E-03    -93.8011E+06    -159.341E+06    -56.6636E+06     4.07898E+06    -227.001E-03     451.969E-03    -224.968E-03     50.1714E-03    -227.294E-03     451.528E-03    -224.884E-03     47.1818E-03
            1599     2.87518E-03     67.3966E-03    -102.825E+06    -181.895E+06    -81.2982E+06     1.49180E+06    -225.327E-03     450.045E-03    -224.718E-03     41.6250E-03    -225.548E-03     449.492E-03    -224.712E-03     39.1741E-03
            1600     2.15771E-03     67.3446E-03    -114.718E+06    -206.810E+06    -101.984E+06    -3.58566E+06    -225.053E-03     449.666E-03    -224.613E-03     32.2985E-03    -225.228E-03     448.997E-03    -224.657E-03     30.2855E-03
            1601     1.44046E-03     67.3100E-03    -120.602E+06    -213.559E+06    -111.637E+06    -3.18395E+06    -225.756E-03     449.948E-03    -224.192E-03     22.1735E-03    -225.892E-03     449.227E-03    -224.266E-03     20.8700E-03
            1602     721.663E-06     67.2821E-03    -121.465E+06    -219.058E+06    -118.816E+06     31.4976E+03    -224.413E-03     447.699E-03    -223.286E-03     12.5555E-03    -224.484E-03     446.953E-03    -223.387E-03     11.9489E-03
            1603     13.6467E-03     67.8654E-03    -4.39032E+06     68.8071E+06     87.1152E+06     328.426E+03    -227.549E-03     453.399E-03    -225.850E-03     104.193E-03    -228.855E-03     454.682E-03    -225.508E-03     94.2110E-03
            1604     12.9281E-03     67.7114E-03    -8.56608E+06     60.2729E+06     85.7047E+06     1.68923E+06    -229.062E-03     454.909E-03    -225.846E-03     111.412E-03    -230.563E-03     456.344E-03    -225.493E-03     100.418E-03
            1605     12.2114E-03     67.5609E-03    -12.8371E+06     55.1251E+06     82.6296E+06     1.69273E+06    -230.307E-03     456.084E-03    -225.777E-03     119.486E-03    -231.841E-03     457.529E-03    -225.425E-03     108.754E-03
            1606     11.4953E-03     67.3960E-03    -16.2741E+06     45.9946E+06     78.0639E+06     708.845E+03    -230.543E-03     456.223E-03    -225.680E-03     120.976E-03    -232.006E-03     457.566E-03    -225.333E-03     110.791E-03
            1607     10.7797E-03     67.2306E-03    -22.1211E+06     37.5460E+06     71.4930E+06     1.29663E+06    -229.156E-03     454.763E-03    -225.607E-03     117.748E-03    -230.515E-03     455.969E-03    -225.272E-03     108.234E-03
            1608     10.0600E-03     67.0654E-03    -27.2067E+06     36.0367E+06     63.8408E+06     3.87638E+06    -227.679E-03     453.280E-03    -225.600E-03     113.446E-03    -228.896E-03     454.342E-03    -225.294E-03     104.941E-03
            1609     9.33909E-03     66.9044E-03    -35.3620E+06     29.4857E+06     49.6358E+06     3.55675E+06    -228.240E-03     453.835E-03    -225.595E-03     108.691E-03    -229.326E-03     454.756E-03    -225.338E-03     101.010E-03
            1610     8.62201E-03     66.7524E-03    -46.6514E+06     12.1966E+06     35.3991E+06     257.021E+03    -228.900E-03     454.443E-03    -225.544E-03     103.532E-03    -229.912E-03     455.231E-03    -225.317E-03     96.2211E-03
            1611     7.90552E-03     66.6123E-03    -52.8163E+06    -11.0606E+06     26.5297E+06     497.284E+03    -227.389E-03     452.923E-03    -225.534E-03     98.4177E-03    -228.292E-03     453.522E-03    -225.309E-03     91.7304E-03
            1612     7.18259E-03     66.4759E-03    -58.5279E+06    -42.8684E+06     13.3188E+06     385.223E+03    -225.785E-03     451.425E-03    -225.640E-03     91.3192E-03    -226.544E-03     451.786E-03    -225.427E-03     85.3663E-03
            1613     6.46222E-03     66.3547E-03    -65.4590E+06    -70.7660E+06    -1.06896E+06    -508.094E+03    -226.103E-03     451.891E-03    -225.788E-03     81.8612E-03    -226.714E-03     452.022E-03    -225.596E-03     76.7671E-03
            1614     5.74454E-03     66.2391E-03    -74.6841E+06    -96.2654E+06    -18.0652E+06    -3.00505E+06    -227.414E-03     453.227E-03    -225.813E-03     74.8694E-03    -227.927E-03     453.185E-03    -225.656E-03     70.3551E-03
            1615     5.02765E-03     66.1293E-03    -87.1442E+06    -123.668E+06    -34.2788E+06    -5.49358E+06    -227.992E-03     453.676E-03    -225.684E-03     65.9881E-03    -228.450E-03     453.485E-03    -225.549E-03     61.7708E-03
            1616     4.31160E-03     66.0479E-03    -93.5124E+06    -143.174E+06    -45.1040E+06    -1.48341E+06    -226.882E-03     452.404E-03    -225.522E-03     58.1352E-03    -227.266E-03     452.079E-03    -225.404E-03     54.5533E-03
            1617     3.59074E-03     65.9680E-03    -97.4946E+06    -162.587E+06    -59.2571E+06     299.807E+03    -225.848E-03     451.297E-03    -225.449E-03     50.7681E-03    -226.153E-03     450.851E-03    -225.368E-03     47.7192E-03
            1618     2.87475E-03     65.9118E-03    -101.173E+06    -176.480E+06    -73.9236E+06     2.58389E+06    -225.885E-03     451.289E-03    -225.404E-03     41.8634E-03    -226.121E-03     450.754E-03    -225.371E-03     39.3567E-03
            1619     2.15384E-03     65.8592E-03    -104.816E+06    -192.742E+06    -90.1387E+06     4.34373E+06    -225.873E-03     451.158E-03    -225.285E-03     32.9780E-03    -226.035E-03     450.527E-03    -225.304E-03     31.1150E-03
            1620     1.43550E-03     65.8199E-03    -114.194E+06    -214.441E+06    -106.895E+06     193.419E+03    -225.331E-03     450.525E-03    -225.194E-03     22.7692E-03    -225.443E-03     449.785E-03    -225.252E-03     21.4068E-03
            1621     717.788E-06     65.8021E-03    -121.637E+06    -223.699E+06    -117.298E+06    -972.859E+03    -224.885E-03     450.414E-03    -225.529E-03     12.5632E-03    -224.955E-03     449.646E-03    -225.615E-03     11.7504E-03
            1622     13.6488E-03     66.3741E-03    -5.18014E+06     68.0519E+06     84.6294E+06    -330.118E+03    -227.411E-03     453.221E-03    -225.811E-03     103.073E-03    -228.698E-03     454.486E-03    -225.479E-03     93.1947E-03
            1623     12.9299E-03     66.2271E-03    -8.29322E+06     60.1622E+06     84.6267E+06    -1.46259E+06    -226.670E-03     452.547E-03    -225.876E-03     109.318E-03    -228.133E-03     453.948E-03    -225.528E-03     98.4925E-03
            1624     12.2082E-03     66.0702E-03    -11.3052E+06     56.4803E+06     83.8452E+06    -1.14415E+06    -228.439E-03     454.375E-03    -225.937E-03     118.615E-03    -229.943E-03     455.797E-03    -225.583E-03     108.031E-03
            1625     11.4920E-03     65.8981E-03    -17.5629E+06     44.2279E+06     76.3409E+06    -541.258E+03    -230.944E-03     456.831E-03    -225.887E-03     121.357E-03    -232.412E-03     458.172E-03    -225.544E-03     111.119E-03
            1626     10.7751E-03     65.7407E-03    -23.7477E+06     34.6665E+06     67.8135E+06    -261.204E+03    -230.822E-03     456.576E-03    -225.754E-03     119.291E-03    -232.220E-03     457.816E-03    -225.430E-03     109.492E-03
            1627     10.0582E-03     65.5768E-03    -29.3486E+06     33.3069E+06     62.1857E+06     2.72967E+06    -229.604E-03     455.254E-03    -225.650E-03     116.037E-03    -230.855E-03     456.339E-03    -225.345E-03     107.364E-03
            1628     9.34032E-03     65.4202E-03    -34.5938E+06     30.2855E+06     53.5908E+06     5.73015E+06    -228.315E-03     453.922E-03    -225.608E-03     110.782E-03    -229.404E-03     454.841E-03    -225.334E-03     103.240E-03
            1629     8.62000E-03     65.2611E-03    -40.2075E+06     17.4512E+06     39.2856E+06     3.59237E+06    -227.888E-03     453.483E-03    -225.596E-03     104.386E-03    -228.857E-03     454.258E-03    -225.366E-03     97.4121E-03
            1630     7.90023E-03     65.1248E-03    -48.1297E+06    -11.1298E+06     28.1807E+06     136.228E+03    -227.544E-03     453.171E-03    -225.627E-03     96.7180E-03    -228.424E-03     453.759E-03    -225.400E-03     89.9523E-03
            1631     7.18383E-03     64.9916E-03    -55.7445E+06    -39.6046E+06     19.2531E+06     1.53543E+06    -227.121E-03     452.798E-03    -225.677E-03     90.5978E-03    -227.883E-03     453.165E-03    -225.442E-03     84.5757E-03
            1632     6.46640E-03     64.8656E-03    -64.9016E+06    -67.0110E+06     4.57822E+06     2.14532E+06    -227.563E-03     453.234E-03    -225.671E-03     83.0437E-03    -228.199E-03     453.388E-03    -225.457E-03     77.8321E-03
            1633     5.74864E-03     64.7503E-03    -74.4502E+06    -93.3900E+06    -14.2565E+06     5.01318E+06    -226.921E-03     452.545E-03    -225.624E-03     76.1149E-03    -227.454E-03     452.523E-03    -225.452E-03     71.6512E-03
            1634     5.02876E-03     64.6434E-03    -83.1541E+06    -121.798E+06    -37.2097E+06     1.80026E+06    -225.589E-03     451.247E-03    -225.658E-03     67.7580E-03    -226.023E-03     451.061E-03    -225.547E-03     63.7758E-03
            1635     4.30821E-03     64.5583E-03    -93.6885E+06    -152.972E+06    -55.5485E+06    -6.89257E+06    -225.573E-03     451.372E-03    -225.799E-03     58.5790E-03    -225.940E-03     451.025E-03    -225.720E-03     54.7815E-03
            1636     3.59088E-03     64.4850E-03    -100.038E+06    -170.660E+06    -65.2124E+06    -5.66940E+06    -226.113E-03     452.019E-03    -225.906E-03     50.1665E-03    -226.414E-03     451.548E-03    -225.840E-03     46.9470E-03
            1637     2.86938E-03     64.4199E-03    -104.187E+06    -181.963E+06    -76.1423E+06    -3.50041E+06    -227.038E-03     452.830E-03    -225.792E-03     39.7572E-03    -227.274E-03     452.271E-03    -225.758E-03     37.1916E-03
            1638     2.15597E-03     64.3704E-03    -105.354E+06    -187.663E+06    -85.4963E+06     358.208E+03    -226.478E-03     451.978E-03    -225.500E-03     28.5578E-03    -226.646E-03     451.355E-03    -225.502E-03     26.8280E-03
            1639     1.43687E-03     64.3354E-03    -107.686E+06    -204.529E+06     -98.048E+06     3.11045E+06    -225.076E-03     450.509E-03    -225.433E-03     18.5106E-03    -225.173E-03     449.788E-03    -225.470E-03     17.3675E-03
            1640     716.227E-06     64.3128E-03    -115.808E+06    -224.402E+06    -112.803E+06     359.184E+03    -225.273E-03     451.078E-03    -225.805E-03     9.24926E-03    -225.316E-03     450.285E-03    -225.875E-03     8.58558E-03
            1641     13.6486E-03     64.8809E-03    -3.98681E+06     68.0306E+06     84.6259E+06    -440.132E+03    -226.273E-03     452.046E-03    -225.774E-03     104.039E-03    -227.575E-03     453.330E-03    -225.443E-03     94.0755E-03
            1642     12.9297E-03     64.7447E-03    -9.91197E+06     58.6975E+06     82.2208E+06    -2.24061E+06    -226.992E-03     452.849E-03    -225.857E-03     110.192E-03    -228.455E-03     454.247E-03    -225.516E-03     99.3983E-03
            1643     12.2106E-03     64.5833E-03    -16.7325E+06     57.9920E+06     80.7815E+06    -2.47778E+06    -228.204E-03     454.116E-03    -225.912E-03     117.835E-03    -229.710E-03     455.535E-03    -225.568E-03     107.359E-03
            1644     11.4894E-03     64.4078E-03    -23.5957E+06     44.9572E+06     71.7068E+06    -2.55769E+06    -228.436E-03     454.368E-03    -225.932E-03     117.868E-03    -229.884E-03     455.685E-03    -225.605E-03     107.810E-03
            1645     10.7721E-03     64.2465E-03    -28.7768E+06     30.8175E+06     62.5306E+06    -1.51218E+06    -229.261E-03     455.183E-03    -225.922E-03     116.450E-03    -230.633E-03     456.381E-03    -225.613E-03     106.810E-03
            1646     10.0557E-03     64.0851E-03    -34.6936E+06     28.2739E+06     55.0784E+06    -237.592E+03    -230.331E-03     456.174E-03    -225.843E-03     115.839E-03    -231.593E-03     457.254E-03    -225.558E-03     107.055E-03
            1647     9.33907E-03     63.9297E-03    -40.1413E+06     25.9688E+06     49.0269E+06    -540.331E+03    -229.672E-03     455.417E-03    -225.745E-03     111.128E-03    -230.806E-03     456.359E-03    -225.479E-03     103.239E-03
            1648     8.62070E-03     63.7785E-03    -44.7979E+06     20.2696E+06     42.0229E+06     1.84137E+06    -228.102E-03     453.806E-03    -225.704E-03     104.740E-03    -229.113E-03     454.608E-03    -225.458E-03     97.6657E-03
            1649     7.90299E-03     63.6325E-03    -52.9734E+06    -6.99909E+06     27.8348E+06     1.92852E+06    -228.078E-03     453.769E-03    -225.691E-03     96.6374E-03    -228.986E-03     454.383E-03    -225.464E-03     89.9115E-03
            1650     7.18352E-03     63.5061E-03    -61.1230E+06    -41.9741E+06     15.0793E+06     1.50197E+06    -228.424E-03     454.064E-03    -225.640E-03     90.0041E-03    -229.195E-03     454.425E-03    -225.415E-03     84.0313E-03
            1651     6.46413E-03     63.3743E-03    -67.6430E+06    -68.1439E+06     1.54011E+06     1.83005E+06    -227.664E-03     453.220E-03    -225.556E-03     83.6130E-03    -228.302E-03     453.372E-03    -225.352E-03     78.4662E-03
            1652     5.74652E-03     63.2626E-03    -73.1041E+06    -93.0738E+06    -10.8845E+06     1.80857E+06    -226.039E-03     451.609E-03    -225.570E-03     74.9634E-03    -226.578E-03     451.590E-03    -225.384E-03     70.2846E-03
            1653     5.02652E-03     63.1612E-03    -76.7687E+06    -112.369E+06    -23.7488E+06     5.24235E+06    -224.353E-03     450.123E-03    -225.770E-03     67.0415E-03    -224.790E-03     449.957E-03    -225.615E-03     63.0799E-03
            1654     4.30715E-03     63.0699E-03    -85.7697E+06    -142.781E+06    -46.8011E+06     2.48045E+06    -225.150E-03     451.180E-03    -226.030E-03     58.6339E-03    -225.500E-03     450.854E-03    -225.933E-03     55.0483E-03
            1655     3.58812E-03     62.9957E-03    -97.4532E+06    -172.520E+06    -66.6112E+06    -3.34506E+06    -227.352E-03     453.412E-03    -226.060E-03     50.0298E-03    -227.639E-03     452.934E-03    -226.001E-03     46.7503E-03
            1656     2.87520E-03     62.9282E-03    -105.324E+06    -185.460E+06    -81.4351E+06     -4.0776E+06    -227.387E-03     453.172E-03    -225.785E-03     39.4174E-03    -227.615E-03     452.604E-03    -225.770E-03     36.8367E-03
            1657     2.15524E-03     62.8808E-03    -114.330E+06    -200.097E+06    -99.8280E+06    -4.29842E+06    -226.491E-03     451.909E-03    -225.418E-03     28.8301E-03    -226.670E-03     451.262E-03    -225.461E-03     26.8800E-03
            1658     1.43781E-03     62.8515E-03    -116.591E+06    -209.768E+06    -107.392E+06    -3.55462E+06    -226.136E-03     451.115E-03    -224.979E-03     20.0005E-03    -226.263E-03     450.401E-03    -225.043E-03     18.6398E-03
            1659     721.707E-06     62.8238E-03    -112.552E+06    -217.225E+06    -109.453E+06     951.664E+03    -225.085E-03     449.484E-03    -224.399E-03     10.3763E-03    -225.127E-03     448.717E-03    -224.468E-03     9.84243E-03
            1660     13.6487E-03     63.4009E-03    -1.70959E+06     71.3534E+06     89.9434E+06     1.06760E+06    -226.071E-03     451.904E-03    -225.833E-03     105.851E-03    -227.388E-03     453.207E-03    -225.484E-03     95.9040E-03
            1661     12.9270E-03     63.2542E-03    -6.95883E+06     63.1391E+06     86.6363E+06     2.63420E+06    -228.696E-03     454.571E-03    -225.875E-03     111.947E-03    -230.174E-03     455.998E-03    -225.524E-03     101.129E-03
            1662     12.2123E-03     63.0896E-03    -17.3875E+06     57.7443E+06     79.1770E+06    -1.15647E+06    -229.353E-03     455.182E-03    -225.829E-03     116.506E-03    -230.869E-03     456.612E-03    -225.492E-03     105.870E-03
            1663     11.4956E-03     62.9277E-03    -25.1234E+06     43.3907E+06     69.7090E+06    -4.00584E+06    -227.192E-03     453.040E-03    -225.848E-03     118.076E-03    -228.627E-03     454.337E-03    -225.526E-03     108.159E-03
            1664     10.7732E-03     62.7564E-03    -31.6635E+06     28.8003E+06     59.7050E+06    -2.48563E+06    -227.756E-03     453.683E-03    -225.928E-03     117.093E-03    -229.109E-03     454.853E-03    -225.625E-03     107.695E-03
            1665     10.0526E-03     62.5974E-03    -37.6238E+06     26.6454E+06     53.0725E+06    -2.50869E+06    -229.603E-03     455.530E-03    -225.927E-03     113.310E-03    -230.854E-03     456.588E-03    -225.646E-03     104.557E-03
            1666     9.33524E-03     62.4322E-03    -43.5028E+06     22.9011E+06     44.8366E+06    -3.20379E+06    -229.826E-03     455.654E-03    -225.828E-03     107.305E-03    -230.949E-03     456.574E-03    -225.574E-03     99.3244E-03
            1667     8.61938E-03     62.2928E-03    -48.9213E+06     12.8262E+06     37.2729E+06    -2.23139E+06    -228.975E-03     454.708E-03    -225.733E-03     102.273E-03    -229.998E-03     455.494E-03    -225.494E-03     94.9294E-03
            1668     7.89901E-03     62.1427E-03    -54.3321E+06    -5.86665E+06     28.8354E+06     1.40604E+06    -228.610E-03     454.270E-03    -225.660E-03     96.0702E-03    -229.514E-03     454.876E-03    -225.429E-03     89.4465E-03
            1669     7.18411E-03     62.0137E-03    -61.3767E+06    -38.2199E+06     14.3388E+06     1.11230E+06    -228.706E-03     454.251E-03    -225.544E-03     88.3864E-03    -229.473E-03     454.622E-03    -225.328E-03     82.4181E-03
            1670     6.46850E-03     61.8885E-03    -67.9762E+06    -68.0495E+06     580.096E+03    -579.657E+03    -227.322E-03     452.769E-03    -225.447E-03     81.8928E-03    -227.963E-03     452.925E-03    -225.247E-03     76.6263E-03
            1671     5.74821E-03     61.7761E-03    -77.4401E+06    -93.8127E+06    -13.9534E+06    -1.29507E+06    -225.484E-03     450.971E-03    -225.486E-03     73.4854E-03    -226.046E-03     450.965E-03    -225.308E-03     68.6529E-03
            1672     5.02930E-03     61.6773E-03    -86.7841E+06    -118.111E+06    -27.3453E+06    -66.8967E+03    -224.895E-03     450.561E-03    -225.665E-03     65.6404E-03    -225.373E-03     450.391E-03    -225.505E-03     61.4858E-03
            1673     4.30737E-03     61.5872E-03    -90.3050E+06    -136.492E+06    -40.5631E+06     4.84781E+06    -225.232E-03     451.099E-03    -225.867E-03     58.1408E-03    -225.610E-03     450.790E-03    -225.741E-03     54.7413E-03
            1674     3.59031E-03     61.4998E-03    -97.2619E+06    -162.125E+06    -62.0438E+06     4.31388E+06    -225.781E-03     451.779E-03    -225.998E-03     49.9715E-03    -226.084E-03     451.341E-03    -225.932E-03     46.8997E-03
            1675     2.87070E-03     61.4395E-03    -108.373E+06    -185.749E+06    -84.6492E+06     728.862E+03    -225.715E-03     451.821E-03    -226.107E-03     40.6488E-03    -225.956E-03     451.265E-03    -226.103E-03     38.1064E-03
            1676     2.15338E-03     61.3951E-03    -117.535E+06    -203.287E+06    -104.838E+06    -2.46901E+06    -226.123E-03     452.314E-03    -226.190E-03     32.0300E-03    -226.313E-03     451.670E-03    -226.249E-03     29.9940E-03
            1677     1.43651E-03     61.3573E-03    -120.963E+06    -215.847E+06    -117.779E+06    -5.06206E+06    -226.630E-03     452.740E-03    -226.111E-03     22.5375E-03    -226.760E-03     452.021E-03    -226.211E-03     21.0342E-03
            1678     717.285E-06     61.3446E-03    -120.310E+06    -225.459E+06    -119.232E+06    -5.61750E+06    -226.313E-03     452.149E-03    -225.836E-03     12.2839E-03    -226.369E-03     451.370E-03    -225.931E-03     11.5892E-03
            1679     13.6454E-03     61.9169E-03    -5.85136E+06     68.5742E+06     86.6954E+06    -183.133E+03    -227.541E-03     453.372E-03    -225.832E-03     104.251E-03    -228.869E-03     454.672E-03    -225.489E-03     94.1587E-03
            1680     12.9304E-03     61.7597E-03    -8.72425E+06     62.1939E+06     86.3371E+06     256.723E+03    -228.316E-03     454.168E-03    -225.852E-03     112.592E-03    -229.799E-03     455.591E-03    -225.498E-03     101.790E-03
            1681     12.2122E-03     61.5991E-03    -11.9778E+06     62.4953E+06     86.2160E+06     2.98133E+06    -228.564E-03     454.425E-03    -225.861E-03     117.356E-03    -230.080E-03     455.870E-03    -225.503E-03     106.791E-03
            1682     11.4910E-03     61.4420E-03    -20.3304E+06     46.5455E+06     74.4966E+06     2.70181E+06    -229.252E-03     455.084E-03    -225.832E-03     117.740E-03    -230.670E-03     456.379E-03    -225.498E-03     107.885E-03
            1683     10.7725E-03     61.2721E-03    -28.3238E+06     30.2228E+06     62.0139E+06    -1.38169E+06    -229.692E-03     455.457E-03    -225.765E-03     114.956E-03    -230.996E-03     456.588E-03    -225.458E-03     105.697E-03
            1684     10.0574E-03     61.1023E-03    -35.1201E+06     28.4889E+06     54.4146E+06    -1.92133E+06    -228.666E-03     454.366E-03    -225.699E-03     108.759E-03    -229.875E-03     455.393E-03    -225.418E-03     100.099E-03
            1685     9.33961E-03     60.9487E-03    -41.6087E+06     24.3452E+06     44.6353E+06    -2.49375E+06    -228.036E-03     453.698E-03    -225.662E-03     104.744E-03    -229.121E-03     454.592E-03    -225.414E-03     96.9744E-03
            1686     8.62010E-03     60.7970E-03     -49.528E+06     10.4371E+06     33.8509E+06    -3.87230E+06    -228.592E-03     454.216E-03    -225.623E-03     100.735E-03    -229.601E-03     454.988E-03    -225.397E-03     93.3859E-03
            1687     7.90600E-03     60.6588E-03    -56.3410E+06    -11.1392E+06     26.2266E+06    -3.41722E+06    -228.243E-03     453.826E-03    -225.583E-03     96.7300E-03    -229.148E-03     454.415E-03    -225.354E-03     90.0497E-03
            1688     7.18525E-03     60.5205E-03    -61.8694E+06    -37.3730E+06     17.0082E+06    -947.156E+03    -227.504E-03     453.070E-03    -225.567E-03     91.1112E-03    -228.282E-03     453.447E-03    -225.338E-03     85.1940E-03
            1689     6.46606E-03     60.4019E-03    -71.3540E+06    -68.3230E+06     165.953E+03     1.40901E+06    -226.774E-03     452.348E-03    -225.573E-03     84.3026E-03    -227.443E-03     452.520E-03    -225.370E-03     79.0648E-03
            1690     5.74773E-03     60.2912E-03    -79.3243E+06    -94.4748E+06    -17.7355E+06     631.360E+03    -226.162E-03     451.779E-03    -225.617E-03     76.9656E-03    -226.736E-03     451.788E-03    -225.454E-03     72.2091E-03
            1691     5.02752E-03     60.1917E-03    -85.8525E+06    -121.671E+06    -32.5217E+06    -2.39417E+06    -226.638E-03     452.296E-03    -225.658E-03     69.0582E-03    -227.112E-03     452.128E-03    -225.519E-03     64.7981E-03
            1692     4.31261E-03     60.0980E-03    -93.8339E+06    -145.728E+06    -44.5778E+06    -1.27614E+06    -226.474E-03     452.132E-03    -225.657E-03     60.6750E-03    -226.859E-03     451.795E-03    -225.533E-03     57.1414E-03
            1693     3.59097E-03     60.0185E-03    -99.5187E+06    -160.581E+06    -58.2908E+06     3.97691E+06    -225.036E-03     450.777E-03    -225.742E-03     48.9923E-03    -225.347E-03     450.334E-03    -225.656E-03     46.0995E-03
            1694     2.86954E-03     59.9526E-03    -103.472E+06    -176.844E+06    -75.0917E+06     4.39723E+06    -224.552E-03     450.571E-03    -226.018E-03     36.0665E-03    -224.777E-03     450.019E-03    -225.987E-03     33.8422E-03
            1695     2.15038E-03     59.9028E-03    -110.945E+06    -195.894E+06    -93.8831E+06     1.89329E+06    -224.675E-03     451.172E-03    -226.497E-03     26.9629E-03    -224.841E-03     450.523E-03    -226.522E-03     25.3158E-03
            1696     1.43140E-03     59.8684E-03    -121.159E+06    -214.307E+06    -114.748E+06     1.01464E+06    -225.324E-03     452.595E-03    -227.270E-03     19.7554E-03    -225.454E-03     451.870E-03    -227.357E-03     18.5254E-03
            1697     715.824E-06     59.8482E-03    -128.112E+06    -239.964E+06    -130.296E+06    -898.518E+03    -227.299E-03     455.616E-03    -228.317E-03     11.9251E-03    -227.357E-03     454.796E-03    -228.435E-03     11.0704E-03
            1698     13.6513E-03     60.4184E-03    -6.60441E+06     67.1980E+06     83.7584E+06    -1.40334E+06    -227.549E-03     453.238E-03    -225.690E-03     101.038E-03    -228.817E-03     454.479E-03    -225.359E-03     91.1605E-03
            1699     12.9308E-03     60.2796E-03    -13.5395E+06     57.4134E+06     81.2001E+06    -1.96382E+06    -226.217E-03     451.973E-03    -225.756E-03     111.139E-03    -227.662E-03     453.338E-03    -225.413E-03     100.639E-03
            1700     12.2075E-03     60.1098E-03    -15.8717E+06     59.9698E+06     85.1218E+06     685.029E+03    -228.272E-03     454.112E-03    -225.841E-03     116.286E-03    -229.760E-03     455.511E-03    -225.479E-03     105.939E-03
            1701     11.4935E-03     59.9492E-03    -18.0032E+06     50.8176E+06     80.4140E+06     3.43410E+06    -231.221E-03     456.985E-03    -225.764E-03     115.624E-03    -232.638E-03     458.286E-03    -225.410E-03     105.644E-03
            1702     10.7816E-03     59.7773E-03    -23.4911E+06     35.5644E+06     67.8960E+06     2.14868E+06    -230.232E-03     455.831E-03    -225.598E-03     115.759E-03    -231.561E-03     457.005E-03    -225.276E-03     106.347E-03
            1703     10.0622E-03     59.6190E-03    -29.9713E+06     32.4072E+06     58.2641E+06     98.7328E+03    -227.267E-03     452.825E-03    -225.559E-03     113.810E-03    -228.507E-03     453.906E-03    -225.271E-03     105.099E-03
            1704     9.34009E-03     59.4632E-03    -38.5970E+06     26.4449E+06     47.6822E+06     216.744E+03    -226.944E-03     452.588E-03    -225.645E-03     112.116E-03    -228.069E-03     453.533E-03    -225.389E-03     104.349E-03
            1705     8.62206E-03     59.3080E-03    -47.3819E+06     13.7522E+06     36.9166E+06    -622.476E+03    -227.636E-03     453.369E-03    -225.733E-03     107.013E-03    -228.665E-03     454.171E-03    -225.499E-03     99.8210E-03
            1706     7.89982E-03     59.1697E-03    -55.5685E+06    -13.4627E+06     24.6232E+06    -3.44782E+06    -228.064E-03     453.839E-03    -225.774E-03     100.959E-03    -228.978E-03     454.436E-03    -225.551E-03     94.2927E-03
            1707     7.18219E-03     59.0351E-03    -64.4123E+06    -47.7984E+06     11.1845E+06    -3.11176E+06    -227.084E-03     452.908E-03    -225.824E-03     92.1644E-03    -227.851E-03     453.245E-03    -225.606E-03     86.2879E-03
            1708     6.46243E-03     58.9145E-03    -69.4268E+06    -70.1488E+06    -148.071E+03     135.017E+03    -226.027E-03     451.967E-03    -225.941E-03     84.0055E-03    -226.675E-03     452.121E-03    -225.739E-03     78.8331E-03
            1709     5.74298E-03     58.8030E-03    -73.6215E+06    -90.1199E+06    -13.1204E+06     705.420E+03    -227.046E-03     453.077E-03    -226.032E-03     77.8652E-03    -227.599E-03     453.088E-03    -225.860E-03     73.1714E-03
            1710     5.02695E-03     58.7016E-03    -83.0747E+06    -118.640E+06    -30.9779E+06     111.486E+03    -227.996E-03     453.965E-03    -225.968E-03     70.1229E-03    -228.465E-03     453.808E-03    -225.831E-03     65.8741E-03
            1711     4.30686E-03     58.6079E-03    -93.3251E+06    -146.806E+06    -48.5317E+06    -1.43735E+06    -227.871E-03     453.648E-03    -225.777E-03     61.0785E-03    -228.251E-03     453.317E-03    -225.672E-03     57.4646E-03
            1712     3.59260E-03     58.5313E-03    -100.398E+06    -164.175E+06    -60.8485E+06    -1.05529E+06    -226.866E-03     452.441E-03    -225.575E-03     49.7364E-03    -227.173E-03     451.986E-03    -225.496E-03     46.7554E-03
            1713     2.87725E-03     58.4660E-03    -108.601E+06    -179.422E+06    -76.7014E+06     2.19797E+06    -225.298E-03     450.811E-03    -225.513E-03     38.5235E-03    -225.547E-03     450.260E-03    -225.479E-03     36.2611E-03
            1714     2.15734E-03     58.4198E-03    -113.182E+06    -194.651E+06    -93.1895E+06     3.74774E+06    -224.631E-03     450.353E-03    -225.722E-03     27.8068E-03    -224.811E-03     449.712E-03    -225.742E-03     26.2538E-03
            1715     1.43600E-03     58.3816E-03    -117.596E+06    -212.823E+06    -106.328E+06     4.65519E+06    -225.161E-03     451.316E-03    -226.155E-03     18.2474E-03    -225.280E-03     450.577E-03    -226.208E-03     17.2138E-03
            1716     715.029E-06     58.3515E-03    -123.708E+06    -232.183E+06    -118.030E+06     5.70806E+06    -225.625E-03     452.834E-03    -227.209E-03     9.26948E-03    -225.685E-03     452.020E-03    -227.283E-03     8.70132E-03
            1717     13.6532E-03     58.9401E-03    -3.68482E+06     70.0230E+06     87.0302E+06     1.35499E+06    -228.220E-03     453.885E-03    -225.664E-03     103.911E-03    -229.500E-03     455.147E-03    -225.326E-03     94.1008E-03
            1718     12.9310E-03     58.7931E-03    -10.9065E+06     59.6616E+06     83.1966E+06    -129.358E+03    -228.252E-03     453.904E-03    -225.652E-03     111.507E-03    -229.741E-03     455.325E-03    -225.306E-03     100.621E-03
            1719     12.2157E-03     58.6246E-03    -19.9237E+06     55.7776E+06     78.7926E+06    -2.45030E+06    -228.854E-03     454.484E-03    -225.630E-03     116.282E-03    -230.355E-03     455.884E-03    -225.288E-03     105.783E-03
            1720     11.4962E-03     58.4525E-03    -24.4219E+06     49.8061E+06     74.4633E+06    -2.48593E+06    -227.860E-03     453.497E-03    -225.637E-03     118.196E-03    -229.334E-03     454.846E-03    -225.302E-03     108.103E-03
            1721     10.7751E-03     58.2886E-03    -28.2001E+06     36.6570E+06     65.4177E+06    -1.47192E+06    -226.697E-03     452.417E-03    -225.720E-03     119.938E-03    -228.111E-03     453.672E-03    -225.405E-03     110.328E-03
            1722     10.0538E-03     58.1359E-03    -33.1368E+06     29.2413E+06     56.7146E+06    -518.214E+03    -227.330E-03     453.169E-03    -225.840E-03     118.172E-03    -228.604E-03     454.265E-03    -225.550E-03     109.469E-03
            1723     9.33560E-03     57.9736E-03    -38.7031E+06     25.7237E+06     49.6253E+06     1.16366E+06    -227.846E-03     453.781E-03    -225.935E-03     113.194E-03    -228.978E-03     454.723E-03    -225.668E-03     105.421E-03
            1724     8.61389E-03     57.8236E-03    -44.8167E+06     16.2956E+06     39.2838E+06     1.82587E+06    -227.457E-03     453.469E-03    -226.012E-03     105.843E-03    -228.464E-03     454.261E-03    -225.775E-03     98.7766E-03
            1725     7.89774E-03     57.6775E-03    -52.5764E+06    -11.4075E+06     24.6385E+06     767.177E+03    -227.332E-03     453.436E-03    -226.103E-03     99.2312E-03    -228.215E-03     454.020E-03    -225.887E-03     92.7336E-03
            1726     7.18084E-03     57.5447E-03    -60.3754E+06    -47.4703E+06     10.4548E+06    -2.26281E+06    -226.659E-03     452.895E-03    -226.236E-03     92.0002E-03    -227.418E-03     453.241E-03    -226.027E-03     86.0102E-03
            1727     6.46174E-03     57.4318E-03    -69.6182E+06    -73.3515E+06    -2.43071E+06    -2.82090E+06    -227.088E-03     453.458E-03    -226.370E-03     86.5254E-03    -227.752E-03     453.621E-03    -226.175E-03     81.1352E-03
            1728     5.74232E-03     57.3119E-03    -78.6621E+06    -94.2047E+06    -15.6147E+06    -46.2994E+03    -228.538E-03     454.910E-03    -226.372E-03     78.4856E-03    -229.108E-03     454.911E-03    -226.199E-03     73.7660E-03
            1729     5.02409E-03     57.2094E-03    -84.8797E+06    -116.377E+06    -29.3806E+06     814.931E+03    -228.507E-03     454.725E-03    -226.218E-03     67.9813E-03    -228.983E-03     454.572E-03    -226.073E-03     63.7272E-03
            1730     4.30989E-03     57.1183E-03    -92.9310E+06    -141.966E+06    -46.8806E+06     984.887E+03    -227.393E-03     453.444E-03    -226.052E-03     60.4212E-03    -227.781E-03     453.135E-03    -225.945E-03     56.8123E-03
            1731     3.59076E-03     57.0385E-03    -102.286E+06    -166.323E+06    -65.6923E+06    -1.16981E+06    -226.339E-03     452.330E-03    -225.991E-03     51.8000E-03    -226.659E-03     451.887E-03    -225.930E-03     48.6312E-03
            1732     2.87013E-03     56.9821E-03    -108.951E+06    -182.599E+06    -80.7583E+06    -1.10475E+06    -226.093E-03     452.107E-03    -226.014E-03     43.1333E-03    -226.354E-03     451.567E-03    -225.995E-03     40.5226E-03
            1733     2.15255E-03     56.9301E-03    -116.230E+06    -196.179E+06    -96.8938E+06     1.58783E+06    -227.110E-03     452.942E-03    -225.833E-03     33.5499E-03    -227.308E-03     452.314E-03    -225.864E-03     31.7961E-03
            1734     1.43871E-03     56.8939E-03    -118.703E+06    -210.999E+06    -108.011E+06     2.58544E+06    -227.388E-03     452.478E-03    -225.089E-03     22.2899E-03    -227.514E-03     451.754E-03    -225.151E-03     21.1883E-03
            1735     723.330E-06     56.8671E-03    -116.462E+06    -219.970E+06    -113.164E+06     1.19318E+06    -224.963E-03     449.138E-03    -224.175E-03     10.5285E-03    -225.006E-03     448.358E-03    -224.253E-03     10.1658E-03
            1736     13.6440E-03     57.4431E-03    -4.90813E+06     67.7058E+06     86.6700E+06     548.972E+03    -228.901E-03     454.641E-03    -225.740E-03     102.839E-03    -230.181E-03     455.893E-03    -225.398E-03     92.9456E-03
            1737     12.9347E-03     57.3005E-03    -7.81562E+06     62.2266E+06     86.5978E+06     473.603E+03    -229.926E-03     455.598E-03    -225.672E-03     113.808E-03    -231.452E-03     457.066E-03    -225.318E-03     102.673E-03
            1738     12.2164E-03     57.1347E-03    -11.1474E+06     57.5548E+06     84.0659E+06     1.63635E+06    -228.300E-03     453.943E-03    -225.643E-03     122.512E-03    -229.826E-03     455.390E-03    -225.290E-03     112.017E-03
            1739     11.4964E-03     56.9718E-03    -20.1528E+06     51.4402E+06     75.8646E+06     939.375E+03    -226.069E-03     451.805E-03    -225.736E-03     120.647E-03    -227.515E-03     453.143E-03    -225.402E-03     110.879E-03
            1740     10.7711E-03     56.8107E-03    -29.8802E+06     39.8084E+06     64.6980E+06    -1.97216E+06    -226.186E-03     452.085E-03    -225.899E-03     116.810E-03    -227.545E-03     453.291E-03    -225.590E-03     107.559E-03
            1741     10.0521E-03     56.6420E-03    -38.0897E+06     25.5967E+06     50.8932E+06    -2.80140E+06    -228.316E-03     454.296E-03    -225.980E-03     112.512E-03    -229.535E-03     455.324E-03    -225.708E-03     103.991E-03
            1742     9.33465E-03     56.4863E-03    -43.5802E+06     21.8146E+06     43.5037E+06    -1.99289E+06    -228.443E-03     454.432E-03    -225.990E-03     106.551E-03    -229.549E-03     455.335E-03    -225.741E-03     98.7039E-03
            1743     8.61909E-03     56.3346E-03    -48.2866E+06     14.3516E+06     37.1642E+06    -413.494E+03    -226.650E-03     452.716E-03    -226.066E-03     102.561E-03    -227.660E-03     453.497E-03    -225.831E-03     95.4089E-03
            1744     7.89797E-03     56.1905E-03    -55.0781E+06    -9.67625E+06     25.3598E+06     1.75902E+06    -224.975E-03     451.276E-03    -226.300E-03     98.2039E-03    -225.875E-03     451.872E-03    -226.080E-03     91.7193E-03
            1745     7.17373E-03     56.0611E-03    -63.1637E+06    -44.0113E+06     11.3736E+06     595.043E+03    -225.811E-03     452.412E-03    -226.601E-03     91.8127E-03    -226.600E-03     452.787E-03    -226.389E-03     85.7650E-03
            1746     6.45436E-03     55.9374E-03    -72.0551E+06    -73.1422E+06    -2.78416E+06    -376.046E+03    -228.638E-03     455.359E-03    -226.721E-03     85.8195E-03    -229.315E-03     455.528E-03    -226.524E-03     80.3840E-03
            1747     5.74083E-03     55.8182E-03    -79.3854E+06    -95.7586E+06    -16.6366E+06    -81.9459E+03    -229.267E-03     455.884E-03    -226.617E-03     78.1176E-03    -229.841E-03     455.884E-03    -226.446E-03     73.3107E-03
            1748     5.02632E-03     55.7170E-03    -87.5361E+06    -118.744E+06    -31.6636E+06    -627.641E+03    -228.070E-03     454.551E-03    -226.481E-03     68.8518E-03    -228.558E-03     454.398E-03    -226.340E-03     64.5612E-03
            1749     4.30561E-03     55.6296E-03    -95.9175E+06    -144.196E+06    -49.3493E+06     94.7934E+03    -226.645E-03     453.108E-03    -226.463E-03     60.6961E-03    -227.045E-03     452.798E-03    -226.361E-03     57.0481E-03
            1750     3.58628E-03     55.5528E-03    -102.431E+06    -166.165E+06    -67.0515E+06    -721.396E+03    -225.903E-03     452.501E-03    -226.598E-03     50.4884E-03    -226.217E-03     452.056E-03    -226.544E-03     47.3917E-03
            1751     2.86931E-03     55.4912E-03    -107.036E+06    -181.336E+06    -80.1550E+06    -1.21516E+06    -226.870E-03     453.582E-03    -226.712E-03     40.7785E-03    -227.113E-03     453.034E-03    -226.695E-03     38.3060E-03
            1752     2.15256E-03     55.4374E-03    -110.979E+06    -193.380E+06    -93.5375E+06    -260.172E+03    -227.779E-03     454.301E-03    -226.523E-03     31.9446E-03    -227.960E-03     453.675E-03    -226.549E-03     30.0904E-03
            1753     1.43490E-03     55.3995E-03    -119.405E+06    -208.619E+06    -112.501E+06    -2.25830E+06    -227.187E-03     453.227E-03    -226.040E-03     22.0671E-03    -227.319E-03     452.527E-03    -226.127E-03     20.6512E-03
            1754     717.338E-06     55.3831E-03    -124.725E+06    -224.736E+06    -125.303E+06    -3.08493E+06    -225.698E-03     451.628E-03    -225.930E-03     12.3769E-03    -225.763E-03     450.863E-03    -226.050E-03     11.6159E-03
            1755     13.6535E-03     55.9531E-03    -3.20446E+06     67.4243E+06     88.1749E+06     721.087E+03    -227.379E-03     453.136E-03    -225.757E-03     103.849E-03    -228.622E-03     454.352E-03    -225.410E-03     94.2846E-03
            1756     12.9284E-03     55.8086E-03    -8.17784E+06     62.1256E+06     86.6477E+06     635.856E+03    -227.144E-03     452.955E-03    -225.811E-03     112.884E-03    -228.596E-03     454.347E-03    -225.456E-03     102.348E-03
            1757     12.2085E-03     55.6488E-03    -15.6900E+06     55.6255E+06     80.6587E+06     183.423E+03    -227.046E-03     452.943E-03    -225.897E-03     121.496E-03    -228.576E-03     454.380E-03    -225.551E-03     111.062E-03
            1758     11.4885E-03     55.4832E-03    -21.5223E+06     51.3915E+06     74.2847E+06     1.37810E+06    -228.441E-03     454.408E-03    -225.967E-03     120.864E-03    -229.911E-03     455.768E-03    -225.638E-03     110.906E-03
            1759     10.7756E-03     55.3234E-03    -26.2579E+06     43.7966E+06     67.8589E+06     2.44622E+06    -229.668E-03     455.628E-03    -225.960E-03     117.658E-03    -231.049E-03     456.875E-03    -225.647E-03     108.177E-03
            1760     10.0572E-03     55.1548E-03    -34.7599E+06     28.6576E+06     53.7949E+06     241.288E+03    -228.445E-03     454.373E-03    -225.928E-03     114.628E-03    -229.697E-03     455.447E-03    -225.651E-03     105.936E-03
            1761     9.33897E-03     54.9958E-03    -43.6025E+06     21.5700E+06     43.1306E+06    -1.46577E+06    -226.744E-03     452.748E-03    -226.005E-03     110.267E-03    -227.888E-03     453.690E-03    -225.757E-03     102.333E-03
            1762     8.61665E-03     54.8504E-03    -51.1959E+06     12.4649E+06     36.5039E+06    -1.48937E+06    -226.056E-03     452.258E-03    -226.203E-03     106.427E-03    -227.100E-03     453.059E-03    -225.964E-03     99.2507E-03
            1763     7.89447E-03     54.7088E-03    -58.7183E+06    -10.7970E+06     26.0591E+06    -557.745E+03    -226.593E-03     453.009E-03    -226.416E-03     98.1045E-03    -227.511E-03     453.605E-03    -226.185E-03     91.5431E-03
            1764     7.17611E-03     54.5754E-03    -65.1849E+06    -42.5974E+06     12.6941E+06     1.74254E+06    -227.667E-03     454.204E-03    -226.537E-03     88.0253E-03    -228.439E-03     454.556E-03    -226.317E-03     82.1214E-03
            1765     6.46013E-03     54.4417E-03    -71.1876E+06    -72.0983E+06    -1.67835E+06    -198.428E+03    -227.433E-03     454.023E-03    -226.590E-03     81.4854E-03    -228.082E-03     454.169E-03    -226.391E-03     76.1727E-03
            1766     5.74052E-03     54.3281E-03    -78.8333E+06    -97.3879E+06    -17.5441E+06    -1.11319E+06    -226.774E-03     453.452E-03    -226.678E-03     75.9920E-03    -227.344E-03     453.447E-03    -226.510E-03     71.0914E-03
            1767     5.01943E-03     54.2249E-03    -87.3116E+06    -119.704E+06    -33.3373E+06    -817.055E+03    -227.017E-03     453.798E-03    -226.781E-03     67.6246E-03    -227.498E-03     453.641E-03    -226.648E-03     63.3449E-03
            1768     4.30452E-03     54.1400E-03    -94.0370E+06    -143.713E+06    -48.3419E+06    -2.46694E+06    -227.262E-03     454.098E-03    -226.836E-03     58.2476E-03    -227.650E-03     453.782E-03    -226.733E-03     54.5258E-03
            1769     3.58752E-03     54.0629E-03    -100.230E+06    -164.994E+06    -65.0863E+06    -1.18889E+06    -227.437E-03     454.245E-03    -226.808E-03     49.0296E-03    -227.742E-03     453.798E-03    -226.749E-03     45.9156E-03
            1770     2.86914E-03     53.9993E-03    -110.503E+06    -187.014E+06    -85.0596E+06    -3.24613E+06    -227.555E-03     454.232E-03    -226.676E-03     39.7749E-03    -227.799E-03     453.666E-03    -226.670E-03     37.2271E-03
            1771     2.15248E-03     53.9441E-03    -111.565E+06    -195.897E+06    -93.6453E+06    -2.83397E+06    -226.570E-03     453.187E-03    -226.617E-03     30.0999E-03    -226.753E-03     452.552E-03    -226.640E-03     28.1299E-03
            1772     1.43483E-03     53.9119E-03    -112.744E+06    -203.020E+06    -103.425E+06     1.68039E+06    -225.712E-03     452.661E-03    -226.948E-03     19.2043E-03    -225.832E-03     451.965E-03    -227.008E-03     17.9766E-03
            1773     715.093E-06     53.8922E-03    -121.563E+06    -226.349E+06    -120.148E+06     1.38035E+06    -226.127E-03     454.564E-03    -228.437E-03     9.77444E-03    -226.183E-03     453.784E-03    -228.533E-03     9.10132E-03
            1774     13.6453E-03     54.4703E-03    -5.17790E+06     66.0073E+06     87.3285E+06     1.08814E+06    -227.327E-03     453.123E-03    -225.796E-03     104.653E-03    -228.602E-03     454.361E-03    -225.447E-03     94.9652E-03
            1775     12.9296E-03     54.3203E-03    -9.10716E+06     62.0843E+06     87.6799E+06     1.05734E+06    -226.889E-03     452.746E-03    -225.856E-03     108.891E-03    -228.345E-03     454.135E-03    -225.495E-03     98.1821E-03
            1776     12.2092E-03     54.1669E-03    -14.1272E+06     57.4406E+06     84.2438E+06    -189.105E+03    -226.827E-03     452.762E-03    -225.935E-03     113.736E-03    -228.303E-03     454.148E-03    -225.577E-03     103.261E-03
            1777     11.4897E-03     53.9928E-03    -21.1542E+06     51.2351E+06     74.8883E+06     1.57859E+06    -227.259E-03     453.272E-03    -226.013E-03     117.752E-03    -228.712E-03     454.615E-03    -225.682E-03     107.769E-03
            1778     10.7700E-03     53.8260E-03    -28.8356E+06     40.9865E+06     62.6878E+06     2.48561E+06    -228.393E-03     454.458E-03    -226.066E-03     119.415E-03    -229.818E-03     455.746E-03    -225.770E-03     109.720E-03
            1779     10.0540E-03     53.6674E-03    -32.9845E+06     30.2679E+06     55.1029E+06     991.859E+03    -227.678E-03     453.823E-03    -226.145E-03     117.744E-03    -228.980E-03     454.956E-03    -225.866E-03     108.800E-03
            1780     9.33049E-03     53.5130E-03    -38.4729E+06     26.4745E+06     50.0624E+06     852.315E+03    -226.465E-03     452.775E-03    -226.310E-03     112.102E-03    -227.610E-03     453.732E-03    -226.042E-03     104.237E-03
            1781     8.61053E-03     53.3628E-03    -47.4117E+06     13.8283E+06     39.2223E+06     144.638E+03    -228.300E-03     454.736E-03    -226.436E-03     105.358E-03    -229.314E-03     455.517E-03    -226.191E-03     98.2497E-03
            1782     7.89549E-03     53.2171E-03    -54.3927E+06    -12.4471E+06     26.9226E+06    -1.03378E+06    -230.138E-03     456.532E-03    -226.393E-03     96.6634E-03    -231.017E-03     457.095E-03    -226.162E-03     90.1166E-03
            1783     7.18204E-03     53.0793E-03    -61.1445E+06    -43.5759E+06     14.3620E+06    -1.07074E+06    -228.551E-03     454.854E-03    -226.302E-03     89.2498E-03    -229.299E-03     455.188E-03    -226.079E-03     83.3898E-03
            1784     6.46214E-03     52.9596E-03    -68.6424E+06    -70.9398E+06     412.555E+03    -118.354E+03    -226.105E-03     452.484E-03    -226.379E-03     84.4843E-03    -226.760E-03     452.642E-03    -226.174E-03     79.1990E-03
            1785     5.74070E-03     52.8411E-03    -77.1710E+06    -96.9613E+06    -16.1398E+06    -143.301E+03    -225.735E-03     452.338E-03    -226.603E-03     77.2016E-03    -226.292E-03     452.323E-03    -226.431E-03     72.4890E-03
            1786     5.02368E-03     52.7361E-03    -83.3964E+06    -117.860E+06    -30.1069E+06    -955.000E+03    -226.491E-03     453.306E-03    -226.815E-03     66.7031E-03    -226.953E-03     453.140E-03    -226.674E-03     62.4893E-03
            1787     4.30333E-03     52.6464E-03    -90.1362E+06    -142.556E+06    -44.4012E+06    -2.26085E+06    -227.368E-03     454.273E-03    -226.905E-03     57.3973E-03    -227.750E-03     453.958E-03    -226.790E-03     53.5465E-03
            1788     3.58633E-03     52.5714E-03    -98.8812E+06    -166.706E+06    -62.1130E+06    -608.528E+03    -227.996E-03     454.813E-03    -226.817E-03     49.5877E-03    -228.307E-03     454.362E-03    -226.743E-03     46.2902E-03
            1789     2.87174E-03     52.5047E-03    -105.378E+06    -184.712E+06    -82.9233E+06    -781.304E+03    -227.255E-03     453.907E-03    -226.651E-03     40.5412E-03    -227.491E-03     453.353E-03    -226.645E-03     37.8411E-03
            1790     2.15355E-03     52.4581E-03    -116.411E+06    -204.670E+06    -104.057E+06    -4.89701E+06    -226.059E-03     452.763E-03    -226.704E-03     31.0222E-03    -226.246E-03     452.114E-03    -226.759E-03     28.8826E-03
            1791     1.43357E-03     52.4215E-03    -119.700E+06    -212.577E+06    -110.170E+06    -2.06237E+06    -226.444E-03     453.443E-03    -226.999E-03     20.7202E-03    -226.577E-03     452.722E-03    -227.068E-03     19.4625E-03
            1792     718.185E-06     52.3987E-03    -114.594E+06    -219.525E+06    -110.401E+06     2.38427E+06    -226.706E-03     454.410E-03    -227.704E-03     10.7284E-03    -226.747E-03     453.633E-03    -227.771E-03     10.2732E-03
            1793     13.6506E-03     52.9782E-03    -6.54160E+06     65.1983E+06     85.2452E+06    -1.20077E+06    -227.943E-03     453.746E-03    -225.803E-03     102.558E-03    -229.238E-03     455.002E-03    -225.462E-03     92.5667E-03
            1794     12.9307E-03     52.8338E-03    -12.8069E+06     59.7793E+06     84.0148E+06    -1.27738E+06    -228.559E-03     454.351E-03    -225.792E-03     109.708E-03    -230.078E-03     455.793E-03    -225.440E-03     98.5575E-03
            1795     12.2148E-03     52.6757E-03    -14.6209E+06     57.1113E+06     84.7060E+06     630.881E+03    -227.655E-03     453.463E-03    -225.808E-03     114.345E-03    -229.150E-03     454.863E-03    -225.446E-03     103.786E-03
            1796     11.4946E-03     52.5147E-03    -16.2430E+06     47.8925E+06     80.3276E+06     1.76480E+06    -225.760E-03     451.687E-03    -225.928E-03     118.496E-03    -227.151E-03     452.958E-03    -225.572E-03     108.906E-03
            1797     10.7706E-03     52.3414E-03    -20.9537E+06     40.9458E+06     71.4928E+06     3.27290E+06    -225.451E-03     451.586E-03    -226.135E-03     117.386E-03    -226.766E-03     452.764E-03    -225.806E-03     108.313E-03
            1798     10.0470E-03     52.1777E-03    -29.3611E+06     34.5057E+06     59.5511E+06     3.65566E+06    -226.530E-03     452.852E-03    -226.321E-03     111.310E-03    -227.749E-03     453.916E-03    -226.031E-03     102.727E-03
            1799     9.33151E-03     52.0268E-03    -37.2984E+06     28.1891E+06     48.3578E+06     573.599E+03    -228.253E-03     454.670E-03    -226.416E-03     107.406E-03    -229.358E-03     455.601E-03    -226.161E-03     99.5442E-03
            1800     8.61437E-03     51.8710E-03    -43.5867E+06     13.9642E+06     39.6585E+06     24.6506E+03    -229.401E-03     455.828E-03    -226.426E-03     104.628E-03    -230.407E-03     456.613E-03    -226.185E-03     97.3619E-03
            1801     7.89844E-03     51.7190E-03    -50.4910E+06    -11.7746E+06     29.0745E+06     1.67182E+06    -228.429E-03     454.857E-03    -226.428E-03     99.2998E-03    -229.334E-03     455.457E-03    -226.193E-03     92.5631E-03
            1802     7.17765E-03     51.5941E-03    -59.2565E+06    -44.9798E+06     13.1056E+06    -975.790E+03    -227.818E-03     454.287E-03    -226.468E-03     93.1172E-03    -228.596E-03     454.657E-03    -226.252E-03     87.0098E-03
            1803     6.45827E-03     51.4705E-03    -66.6014E+06    -71.2493E+06     2.12634E+06    -1.47123E+06    -228.382E-03     454.880E-03    -226.498E-03     85.5978E-03    -229.039E-03     455.041E-03    -226.287E-03     80.1855E-03
            1804     5.74179E-03     51.3537E-03    -73.9242E+06    -92.6481E+06    -10.2573E+06     1.10967E+06    -227.441E-03     453.943E-03    -226.501E-03     75.8861E-03    -227.987E-03     453.927E-03    -226.311E-03     71.2214E-03
            1805     5.02145E-03     51.2458E-03    -82.0493E+06    -115.420E+06    -27.5251E+06     1.22125E+06    -226.031E-03     452.631E-03    -226.600E-03     66.3478E-03    -226.486E-03     452.464E-03    -226.451E-03     62.2480E-03
            1806     4.30504E-03     51.1575E-03    -91.6208E+06    -143.522E+06    -46.0759E+06     334.857E+03    -226.204E-03     452.989E-03    -226.786E-03     58.2441E-03    -226.584E-03     452.668E-03    -226.675E-03     54.5665E-03
            1807     3.58766E-03     51.0766E-03    -101.020E+06    -171.060E+06    -64.0667E+06    -299.557E+03    -226.336E-03     453.316E-03    -226.980E-03     50.7727E-03    -226.648E-03     452.848E-03    -226.906E-03     47.5644E-03
            1808     2.86813E-03     51.0155E-03    -103.197E+06    -182.052E+06    -76.6243E+06     1.08889E+06    -225.952E-03     453.223E-03    -227.271E-03     42.5645E-03    -226.193E-03     452.674E-03    -227.240E-03     39.9383E-03
            1809     2.14981E-03     50.9677E-03    -112.523E+06    -199.857E+06    -100.361E+06     49.4621E+03    -226.820E-03     454.402E-03    -227.582E-03     34.3922E-03    -227.004E-03     453.770E-03    -227.631E-03     32.3136E-03
            1810     1.43460E-03     50.9294E-03    -122.500E+06    -219.507E+06    -120.715E+06    -4.32358E+06    -227.829E-03     455.555E-03    -227.726E-03     24.2397E-03    -227.953E-03     454.822E-03    -227.834E-03     22.7551E-03
            1811     716.696E-06     50.9044E-03    -121.437E+06    -228.576E+06    -120.368E+06    -5.32149E+06    -228.067E-03     455.652E-03    -227.584E-03     13.1115E-03    -228.113E-03     454.849E-03    -227.678E-03     12.3312E-03
            1812     13.6462E-03     51.4914E-03    -3.59418E+06     67.3923E+06     86.0219E+06    -533.650E+03    -226.968E-03     452.767E-03    -225.799E-03     105.706E-03    -228.256E-03     454.033E-03    -225.462E-03     95.8593E-03
            1813     12.9301E-03     51.3405E-03     -8.9315E+06     62.8928E+06     84.0369E+06    -515.581E+03    -227.456E-03     453.309E-03    -225.853E-03     111.906E-03    -228.951E-03     454.751E-03    -225.511E-03     100.996E-03
            1814     12.2106E-03     51.1876E-03    -18.2900E+06     53.8895E+06     77.2410E+06    -1.69903E+06    -226.782E-03     452.712E-03    -225.930E-03     118.905E-03    -228.324E-03     454.157E-03    -225.595E-03     108.283E-03
            1815     11.4909E-03     51.0301E-03    -23.0165E+06     42.5546E+06     72.6888E+06    -3.18623E+06    -227.953E-03     454.000E-03    -226.046E-03     124.092E-03    -229.414E-03     455.319E-03    -225.711E-03     114.258E-03
            1816     10.7731E-03     50.8579E-03    -25.1478E+06     37.8897E+06     71.6575E+06    -1.38680E+06    -227.883E-03     454.044E-03    -226.161E-03     120.136E-03    -229.235E-03     455.234E-03    -225.821E-03     110.938E-03
            1817     10.0548E-03     50.6952E-03    -28.4416E+06     36.0329E+06     64.4216E+06     2.45931E+06    -227.323E-03     453.579E-03    -226.256E-03     112.353E-03    -228.540E-03     454.636E-03    -225.945E-03     103.850E-03
            1818     9.33216E-03     50.5346E-03    -34.5871E+06     30.2954E+06     50.4763E+06     3.36135E+06    -228.317E-03     454.622E-03    -226.305E-03     109.239E-03    -229.431E-03     455.574E-03    -226.047E-03     101.349E-03
            1819     8.61559E-03     50.3783E-03    -43.0735E+06     13.7499E+06     36.9952E+06     2.02971E+06    -227.550E-03     453.925E-03    -226.375E-03     105.877E-03    -228.573E-03     454.737E-03    -226.148E-03     98.5378E-03
            1820     7.89236E-03     50.2369E-03    -49.5773E+06    -13.7191E+06     29.0712E+06    -429.694E+03    -226.596E-03     453.153E-03    -226.558E-03     98.9114E-03    -227.508E-03     453.757E-03    -226.321E-03     92.0181E-03
            1821     7.17263E-03     50.1023E-03    -55.2065E+06    -39.3921E+06     20.3012E+06     2.17153E+06    -228.673E-03     455.335E-03    -226.662E-03     90.6422E-03    -229.442E-03     455.709E-03    -226.424E-03     84.5178E-03
            1822     6.45936E-03     49.9738E-03    -64.9757E+06    -68.5111E+06     3.02034E+06     2.40587E+06    -229.851E-03     456.386E-03    -226.535E-03     82.2910E-03    -230.494E-03     456.547E-03    -226.327E-03     76.8806E-03
            1823     5.74418E-03     49.8621E-03    -76.4183E+06    -97.6990E+06    -14.2723E+06     203.445E+03    -227.829E-03     454.234E-03    -226.405E-03     74.9410E-03    -228.394E-03     454.223E-03    -226.224E-03     69.9860E-03
            1824     5.02716E-03     49.7622E-03    -82.1602E+06    -115.108E+06    -27.5975E+06     2.82717E+06    -225.594E-03     452.101E-03    -226.507E-03     68.5441E-03    -226.065E-03     451.952E-03    -226.359E-03     64.3694E-03
            1825     4.30500E-03     49.6672E-03    -86.7356E+06    -140.571E+06    -42.7919E+06     3.17550E+06    -224.960E-03     451.812E-03    -226.851E-03     61.4102E-03    -225.328E-03     451.497E-03    -226.736E-03     57.8840E-03
            1826     3.58476E-03     49.5895E-03    -98.6170E+06    -171.611E+06    -63.0853E+06     856.090E+03    -225.467E-03     452.756E-03    -227.289E-03     51.5533E-03    -225.767E-03     452.280E-03    -227.213E-03     48.4287E-03
            1827     2.86514E-03     49.5267E-03    -104.860E+06    -184.747E+06    -76.8867E+06    -1.00198E+06    -226.409E-03     454.100E-03    -227.691E-03     40.0667E-03    -226.646E-03     453.533E-03    -227.656E-03     37.4685E-03
            1828     2.14698E-03     49.4725E-03    -107.465E+06    -192.287E+06    -88.8009E+06     420.634E+03    -227.087E-03     455.121E-03    -228.034E-03     30.5409E-03    -227.260E-03     454.489E-03    -228.043E-03     28.6158E-03
            1829     1.43007E-03     49.4311E-03    -117.768E+06    -211.619E+06    -111.190E+06    -44.4148E+03    -227.485E-03     455.903E-03    -228.419E-03     21.7770E-03    -227.607E-03     455.185E-03    -228.497E-03     20.3298E-03
            1830     714.926E-06     49.4120E-03    -128.803E+06    -240.259E+06    -127.528E+06    -2.56718E+06    -229.055E-03     457.435E-03    -228.380E-03     13.3860E-03    -229.112E-03     456.600E-03    -228.482E-03     12.3954E-03
            1831     13.6483E-03     49.9980E-03    -5.02374E+06     64.8598E+06     83.7049E+06     542.778E+03    -225.286E-03     451.109E-03    -225.823E-03     105.271E-03    -226.539E-03     452.332E-03    -225.491E-03     95.7573E-03
            1832     12.9282E-03     49.8549E-03    -7.53225E+06     65.0666E+06     85.8719E+06     1.51387E+06    -223.754E-03     449.795E-03    -226.041E-03     111.546E-03    -225.215E-03     451.211E-03    -225.695E-03     101.025E-03
            1833     12.2044E-03     49.7066E-03    -11.8736E+06     60.3604E+06     83.6814E+06     674.179E+03    -226.920E-03     453.165E-03    -226.245E-03     120.292E-03    -228.457E-03     454.632E-03    -225.897E-03     109.691E-03
            1834     11.4845E-03     49.5353E-03    -23.8463E+06     46.3052E+06     69.7070E+06    -1.93232E+06    -230.225E-03     456.491E-03    -226.266E-03     121.531E-03    -231.719E-03     457.862E-03    -225.950E-03     111.289E-03
            1835     10.7686E-03     49.3652E-03    -32.6659E+06     35.1205E+06     58.1068E+06    -5.56826E+06    -229.315E-03     455.537E-03    -226.221E-03     118.260E-03    -230.731E-03     456.793E-03    -225.935E-03     108.485E-03
            1836     10.0500E-03     49.2078E-03    -36.9516E+06     27.4649E+06     53.6071E+06    -6.40073E+06    -228.436E-03     454.692E-03    -226.256E-03     116.236E-03    -229.728E-03     455.795E-03    -225.975E-03     107.288E-03
            1837     9.33489E-03     49.0447E-03    -40.0533E+06     24.7632E+06     49.6228E+06    -1.19273E+06    -227.944E-03     454.284E-03    -226.340E-03     112.336E-03    -229.088E-03     455.230E-03    -226.070E-03     104.448E-03
            1838     8.61258E-03     48.8937E-03    -43.9117E+06     16.8616E+06     40.1168E+06     2.09789E+06    -227.140E-03     453.593E-03    -226.453E-03     105.345E-03    -228.159E-03     454.400E-03    -226.214E-03     98.1409E-03
            1839     7.89558E-03     48.7494E-03    -52.0642E+06    -11.4282E+06     26.6807E+06     585.945E+03    -228.096E-03     454.661E-03    -226.565E-03     99.1295E-03    -229.002E-03     455.264E-03    -226.340E-03     92.3859E-03
            1840     7.18013E-03     48.6091E-03    -60.4369E+06    -44.0685E+06     16.4667E+06     1.47054E+06    -228.741E-03     455.354E-03    -226.613E-03     92.7027E-03    -229.527E-03     455.721E-03    -226.379E-03     86.6245E-03
            1841     6.46091E-03     48.4806E-03    -68.2946E+06    -68.5931E+06     2.57459E+06     4.83613E+06    -227.580E-03     454.213E-03    -226.633E-03     85.2200E-03    -228.266E-03     454.405E-03    -226.422E-03     79.7544E-03
            1842     5.74095E-03     48.3738E-03    -73.1011E+06    -93.7611E+06    -14.2546E+06     2.09204E+06    -226.843E-03     453.565E-03    -226.721E-03     78.5058E-03    -227.422E-03     453.593E-03    -226.551E-03     73.4553E-03
            1843     5.02062E-03     48.2724E-03    -82.7164E+06    -118.429E+06    -29.6234E+06    -1.48009E+06    -226.696E-03     453.576E-03    -226.880E-03     71.5129E-03    -227.187E-03     453.439E-03    -226.737E-03     67.0485E-03
            1844     4.30301E-03     48.1836E-03    -91.2362E+06    -140.496E+06    -42.6910E+06     1.83209E+06    -226.343E-03     453.440E-03    -227.097E-03     61.8063E-03    -226.740E-03     453.139E-03    -226.975E-03     58.1379E-03
            1845     3.58381E-03     48.0980E-03    -92.6955E+06    -158.321E+06    -53.4487E+06     3.17590E+06    -226.851E-03     454.161E-03    -227.310E-03     50.4752E-03    -227.146E-03     453.721E-03    -227.213E-03     47.4411E-03
            1846     2.86906E-03     48.0325E-03    -109.673E+06    -185.644E+06    -79.9506E+06     1.30656E+06    -228.130E-03     455.403E-03    -227.272E-03     39.1053E-03    -228.377E-03     454.834E-03    -227.244E-03     36.6249E-03
            1847     2.15398E-03     47.9795E-03    -118.573E+06    -202.318E+06    -98.0959E+06     1.42447E+06    -227.664E-03     454.732E-03    -227.068E-03     27.7841E-03    -227.856E-03     454.071E-03    -227.093E-03     26.0153E-03
            1848     1.43443E-03     47.9424E-03    -119.440E+06    -209.862E+06    -108.639E+06     1.95358E+06    -226.780E-03     453.802E-03    -227.022E-03     18.6336E-03    -226.909E-03     453.083E-03    -227.088E-03     17.4796E-03
            1849     715.856E-06     47.9086E-03    -124.272E+06    -236.053E+06    -123.566E+06     2.22068E+06    -226.904E-03     454.228E-03    -227.324E-03     10.4236E-03    -226.948E-03     453.402E-03    -227.419E-03     9.78218E-03
            1850     13.6510E-03     48.5192E-03    -4.05445E+06     65.9597E+06     86.3271E+06     1.07679E+06    -224.474E-03     450.402E-03    -225.929E-03     104.691E-03    -225.731E-03     451.629E-03    -225.587E-03     95.1646E-03
            1851     12.9220E-03     48.3804E-03    -11.4920E+06     62.1446E+06     84.6292E+06     709.096E+03    -224.665E-03     450.800E-03    -226.136E-03     110.392E-03    -226.137E-03     452.207E-03    -225.786E-03     99.7772E-03
            1852     12.2020E-03     48.2141E-03    -17.6467E+06     60.9457E+06     82.4342E+06     823.257E+03    -228.703E-03     454.951E-03    -226.248E-03     116.263E-03    -230.250E-03     456.413E-03    -225.898E-03     105.497E-03
            1853     11.4905E-03     48.0380E-03    -20.5640E+06     54.4177E+06     74.1917E+06    -46.2234E+03    -229.003E-03     455.234E-03    -226.231E-03     116.181E-03    -230.481E-03     456.617E-03    -225.909E-03     105.866E-03
            1854     10.7708E-03     47.8832E-03    -27.0588E+06     39.6242E+06     60.7048E+06    -2.18952E+06    -227.620E-03     453.871E-03    -226.251E-03     115.427E-03    -228.997E-03     455.116E-03    -225.965E-03     105.763E-03
            1855     10.0511E-03     47.7148E-03    -37.1653E+06     26.3390E+06     49.7003E+06    -3.26167E+06    -227.958E-03     454.298E-03    -226.340E-03     115.633E-03    -229.236E-03     455.393E-03    -226.075E-03     106.768E-03
            1856     9.32954E-03     47.5579E-03    -47.0357E+06     18.1363E+06     42.3020E+06    -5.29823E+06    -228.376E-03     454.801E-03    -226.426E-03     110.915E-03    -229.529E-03     455.729E-03    -226.172E-03     102.941E-03
            1857     8.61324E-03     47.4040E-03    -53.9837E+06     11.2169E+06     35.5110E+06    -3.36514E+06    -228.015E-03     454.514E-03    -226.499E-03     104.512E-03    -229.071E-03     455.315E-03    -226.259E-03     97.1702E-03
            1858     7.89379E-03     47.2586E-03    -60.3911E+06    -10.3830E+06     21.9342E+06     1.22759E+06    -227.238E-03     453.845E-03    -226.606E-03     101.434E-03    -228.180E-03     454.472E-03    -226.394E-03     94.8477E-03
            1859     7.17437E-03     47.1153E-03    -66.6754E+06    -47.6075E+06     7.68048E+06    -2.01305E+06    -226.427E-03     453.254E-03    -226.828E-03     97.2568E-03    -227.249E-03     453.649E-03    -226.624E-03     91.1348E-03
            1860     6.45488E-03     46.9977E-03    -70.3149E+06    -71.8823E+06     942.514E+03    -3.56312E+06    -226.515E-03     453.630E-03    -227.115E-03     88.5751E-03    -227.229E-03     453.837E-03    -226.904E-03     82.8587E-03
            1861     5.73549E-03     46.8803E-03    -75.5558E+06    -89.5874E+06    -10.8165E+06     635.183E+03    -227.491E-03     454.800E-03    -227.309E-03     78.2326E-03    -228.083E-03     454.838E-03    -227.124E-03     73.2387E-03
            1862     5.01942E-03     46.7838E-03    -85.8716E+06    -117.956E+06    -31.0395E+06     187.125E+03    -228.567E-03     455.904E-03    -227.337E-03     69.4782E-03    -229.059E-03     455.762E-03    -227.197E-03     65.0921E-03
            1863     4.30311E-03     46.6858E-03    -94.8018E+06    -142.562E+06    -45.5768E+06    -2.02437E+06    -229.036E-03     456.261E-03    -227.225E-03     60.6419E-03    -229.440E-03     455.955E-03    -227.109E-03     56.8869E-03
            1864     3.58802E-03     46.6114E-03    -101.516E+06    -161.173E+06    -57.3483E+06     2.47537E+06    -228.239E-03     455.297E-03    -227.058E-03     50.9337E-03    -228.566E-03     454.858E-03    -226.964E-03     47.9351E-03
            1865     2.86844E-03     46.5341E-03    -109.780E+06    -182.066E+06    -77.2903E+06     6.51470E+06    -227.434E-03     454.350E-03    -226.916E-03     41.4604E-03    -227.691E-03     453.795E-03    -226.879E-03     39.1495E-03
            1866     2.15229E-03     46.4887E-03    -119.490E+06    -201.597E+06    -100.696E+06     4.39593E+06    -228.132E-03     454.734E-03    -226.603E-03     31.9277E-03    -228.336E-03     454.092E-03    -226.640E-03     30.0872E-03
            1867     1.43823E-03     46.4506E-03    -119.642E+06    -209.984E+06    -111.351E+06     4.02253E+06    -228.428E-03     454.124E-03    -225.696E-03     22.3404E-03    -228.560E-03     453.415E-03    -225.775E-03     21.2254E-03
            1868     721.544E-06     46.4245E-03    -115.091E+06    -225.760E+06    -114.305E+06     2.90164E+06    -225.352E-03     450.200E-03    -224.848E-03     9.21368E-03    -225.378E-03     449.396E-03    -224.926E-03     8.79469E-03
            1869     13.6395E-03     47.0378E-03    -4.59472E+06     66.8707E+06     88.0986E+06     567.616E+03    -226.807E-03     452.784E-03    -225.977E-03     99.8579E-03    -228.093E-03     454.036E-03    -225.627E-03     89.8007E-03
            1870     12.9278E-03     46.8895E-03    -9.24882E+06     64.0736E+06     87.6367E+06     625.536E+03    -228.144E-03     454.150E-03    -226.005E-03     107.350E-03    -229.613E-03     455.559E-03    -225.647E-03     96.4281E-03
            1871     12.2149E-03     46.7227E-03    -14.4589E+06     57.9214E+06     83.6307E+06    -308.180E+03    -227.082E-03     453.137E-03    -226.055E-03     118.361E-03    -228.608E-03     454.575E-03    -225.700E-03     107.781E-03
            1872     11.4889E-03     46.5553E-03    -19.4900E+06     53.2016E+06     77.6252E+06     167.485E+03    -226.285E-03     452.477E-03    -226.192E-03     120.077E-03    -227.769E-03     453.856E-03    -225.853E-03     110.019E-03
            1873     10.7686E-03     46.3930E-03    -26.8978E+06     42.1642E+06     66.3312E+06     1.74727E+06    -227.381E-03     453.713E-03    -226.332E-03     118.496E-03    -228.774E-03     454.968E-03    -226.023E-03     109.024E-03
            1874     10.0491E-03     46.2300E-03    -34.2255E+06     28.9730E+06     54.3767E+06     2.56505E+06    -228.418E-03     454.838E-03    -226.420E-03     116.477E-03    -229.696E-03     455.939E-03    -226.141E-03     107.692E-03
            1875     9.33264E-03     46.0663E-03    -41.5428E+06     23.7697E+06     44.6528E+06     762.019E+03    -228.446E-03     454.921E-03    -226.475E-03     111.330E-03    -229.615E-03     455.898E-03    -226.226E-03     103.193E-03
            1876     8.61371E-03     45.9141E-03    -48.8251E+06     8.15763E+06     35.0629E+06    -3.05050E+06    -227.852E-03     454.410E-03    -226.558E-03     105.397E-03    -228.908E-03     455.221E-03    -226.324E-03     97.8421E-03
            1877     7.89496E-03     45.7729E-03    -56.0546E+06    -12.7159E+06     25.9972E+06    -2.08378E+06    -226.064E-03     452.819E-03    -226.756E-03     99.9887E-03    -226.980E-03     453.416E-03    -226.526E-03     93.3811E-03
            1878     7.17139E-03     45.6337E-03    -63.6540E+06    -41.7277E+06     10.9099E+06    -3.15550E+06    -225.491E-03     452.557E-03    -227.067E-03     93.7594E-03    -226.270E-03     452.932E-03    -226.859E-03     87.8826E-03
            1879     6.45127E-03     45.5028E-03    -72.9339E+06    -75.8602E+06    -4.16147E+06    -5.72330E+06    -226.684E-03     454.062E-03    -227.377E-03     84.0794E-03    -227.354E-03     454.215E-03    -227.182E-03     78.6081E-03
            1880     5.73553E-03     45.3897E-03    -83.1670E+06    -99.0120E+06    -16.5439E+06    -2.61252E+06    -227.883E-03     455.445E-03    -227.561E-03     76.0112E-03    -228.467E-03     455.429E-03    -227.380E-03     71.1799E-03
            1881     5.01804E-03     45.2862E-03    -87.6597E+06    -114.398E+06    -29.9304E+06     820.178E+03    -228.917E-03     456.491E-03    -227.574E-03     69.5305E-03    -229.407E-03     456.350E-03    -227.431E-03     65.3779E-03
            1882     4.30209E-03     45.1931E-03    -95.2310E+06    -141.548E+06    -49.2547E+06     212.627E+03    -229.174E-03     456.622E-03    -227.448E-03     62.3045E-03    -229.585E-03     456.335E-03    -227.350E-03     58.5199E-03
            1883     3.58601E-03     45.1125E-03    -106.911E+06    -173.361E+06    -69.9673E+06    -573.981E+03    -228.658E-03     455.927E-03    -227.269E-03     53.8809E-03    -228.996E-03     455.473E-03    -227.212E-03     50.6388E-03
            1884     2.87102E-03     45.0507E-03    -107.455E+06    -183.862E+06    -78.6092E+06     1.91155E+06    -227.459E-03     454.650E-03    -227.190E-03     43.5546E-03    -227.708E-03     454.093E-03    -227.161E-03     41.1096E-03
            1885     2.14971E-03     44.9936E-03    -108.306E+06    -191.630E+06    -90.4744E+06     1.37856E+06    -227.438E-03     454.599E-03    -227.161E-03     34.0089E-03    -227.625E-03     453.985E-03    -227.179E-03     31.9372E-03
            1886     1.43370E-03     44.9532E-03    -112.686E+06    -204.067E+06    -105.392E+06     273.074E+03    -227.824E-03     454.746E-03    -226.923E-03     23.6824E-03    -227.947E-03     454.059E-03    -226.990E-03     22.1431E-03
            1887     719.326E-06     44.9388E-03    -116.844E+06    -223.140E+06    -112.046E+06     793.715E+03    -226.513E-03     453.555E-03    -227.042E-03     12.7063E-03    -226.561E-03     452.770E-03    -227.109E-03     11.9259E-03
            1888     13.6519E-03     45.5367E-03    -4.63915E+06     66.6671E+06     87.2142E+06    -744.863E+03    -226.890E-03     452.741E-03    -225.850E-03     99.3583E-03    -228.157E-03     453.975E-03    -225.504E-03     89.3971E-03
            1889     12.9337E-03     45.4022E-03    -9.03298E+06     61.5353E+06     85.3443E+06     39.7038E+03    -226.408E-03     452.337E-03    -225.929E-03     112.601E-03    -227.873E-03     453.741E-03    -225.578E-03     101.994E-03
            1890     12.2050E-03     45.2412E-03    -13.5805E+06     57.5151E+06     83.2196E+06     1.04275E+06    -226.664E-03     452.730E-03    -226.066E-03     121.814E-03    -228.198E-03     454.178E-03    -225.713E-03     111.384E-03
            1891     11.4869E-03     45.0706E-03    -20.6198E+06     52.7755E+06     76.9536E+06     1.69330E+06    -226.354E-03     452.576E-03    -226.222E-03     118.714E-03    -227.834E-03     453.947E-03    -225.884E-03     108.670E-03
            1892     10.7667E-03     44.9052E-03    -27.0957E+06     40.8306E+06     67.4889E+06     1.43377E+06    -227.345E-03     453.709E-03    -226.364E-03     116.912E-03    -228.725E-03     454.941E-03    -226.046E-03     107.460E-03
            1893     10.0498E-03     44.7372E-03    -32.0668E+06     29.6334E+06     57.6928E+06     1.52879E+06    -227.942E-03     454.411E-03    -226.469E-03     115.184E-03    -229.204E-03     455.497E-03    -226.177E-03     106.426E-03
            1894     9.32977E-03     44.5787E-03    -37.0775E+06     27.8977E+06       49.01E+06     1.25670E+06    -227.240E-03     453.831E-03    -226.591E-03     112.710E-03    -228.391E-03     454.807E-03    -226.333E-03     104.745E-03
            1895     8.61029E-03     44.4241E-03    -42.7792E+06     12.2959E+06     39.1159E+06     116.489E+03    -227.749E-03     454.496E-03    -226.746E-03     107.179E-03    -228.782E-03     455.307E-03    -226.506E-03     99.7977E-03
            1896     7.89118E-03     44.2838E-03    -50.4305E+06    -13.5859E+06     30.1205E+06    -1.33928E+06    -228.253E-03     455.126E-03    -226.872E-03     98.3695E-03    -229.148E-03     455.705E-03    -226.629E-03     91.6391E-03
            1897     7.17508E-03     44.1484E-03    -59.3724E+06    -39.6749E+06     17.2207E+06     2.33260E+06    -227.188E-03     454.187E-03    -227.000E-03     92.3059E-03    -227.946E-03     454.544E-03    -226.770E-03     86.5400E-03
            1898     6.45704E-03     44.0119E-03    -70.9168E+06    -74.4813E+06    -3.74412E+06     1.27786E+06    -226.059E-03     453.279E-03    -227.220E-03     84.0242E-03    -226.708E-03     453.423E-03    -227.028E-03     78.8060E-03
            1899     5.73513E-03     43.9022E-03    -78.1852E+06    -101.532E+06    -19.1097E+06    -3.20385E+06    -226.936E-03     454.415E-03    -227.479E-03     77.0476E-03    -227.496E-03     454.392E-03    -227.314E-03     72.1595E-03
            1900     5.01743E-03     43.7883E-03    -87.7193E+06    -119.467E+06    -34.2323E+06    -2.00275E+06    -228.160E-03     455.769E-03    -227.609E-03     68.9624E-03    -228.646E-03     455.619E-03    -227.480E-03     64.6425E-03
            1901     4.30012E-03     43.7019E-03    -96.9547E+06    -145.638E+06    -52.6901E+06    -455.298E+03    -227.987E-03     455.637E-03    -227.650E-03     59.9001E-03    -228.396E-03     455.337E-03    -227.561E-03     56.0362E-03
            1902     3.58167E-03     43.6170E-03    -96.8853E+06    -166.817E+06    -64.3778E+06    -920.711E+03    -227.805E-03     455.519E-03    -227.714E-03     51.6140E-03    -228.108E-03     455.072E-03    -227.653E-03     48.3220E-03
            1903     2.86440E-03     43.5550E-03    -105.306E+06    -184.906E+06    -82.0380E+06    -3.65884E+06    -228.324E-03     456.013E-03    -227.689E-03     42.5847E-03    -228.560E-03     455.457E-03    -227.678E-03     39.9276E-03
            1904     2.15217E-03     43.5024E-03    -110.407E+06    -194.747E+06    -93.8733E+06    -3.10748E+06    -227.290E-03     455.034E-03    -227.744E-03     33.5263E-03    -227.476E-03     454.410E-03    -227.771E-03     31.4674E-03
            1905     1.43252E-03     43.4613E-03    -114.863E+06    -205.637E+06    -106.330E+06    -1.46893E+06    -225.811E-03     454.346E-03    -228.535E-03     21.8569E-03    -225.936E-03     453.651E-03    -228.602E-03     20.4357E-03
            1906     710.084E-06     43.4465E-03    -123.849E+06    -225.745E+06    -122.572E+06    -725.393E+03    -227.394E-03     458.502E-03    -231.108E-03     12.3267E-03    -227.458E-03     457.725E-03    -231.214E-03     11.5845E-03
            1907     13.6491E-03     44.0635E-03    -3.98333E+06     66.1453E+06     85.5310E+06    -1.66079E+06    -224.651E-03     450.506E-03    -225.855E-03     103.508E-03    -225.907E-03     451.735E-03    -225.518E-03     93.8774E-03
            1908     12.9192E-03     43.9171E-03    -10.6761E+06     58.8498E+06     83.5959E+06    -666.968E+03    -227.036E-03     453.028E-03    -225.992E-03     113.141E-03    -228.516E-03     454.436E-03    -225.644E-03     102.446E-03
            1909     12.2098E-03     43.7485E-03    -17.0368E+06     55.1746E+06     80.4466E+06     155.358E+03    -228.267E-03     454.310E-03    -226.043E-03     114.460E-03    -229.788E-03     455.733E-03    -225.696E-03     103.721E-03
            1910     11.4913E-03     43.5862E-03    -20.2043E+06     53.7450E+06     78.1439E+06     1.25845E+06    -226.075E-03     452.217E-03    -226.142E-03     116.501E-03    -227.534E-03     453.568E-03    -225.799E-03     106.493E-03
            1911     10.7715E-03     43.4196E-03    -25.2671E+06     42.5741E+06     69.1487E+06     1.28054E+06    -225.958E-03     452.298E-03    -226.340E-03     120.416E-03    -227.322E-03     453.523E-03    -226.020E-03     111.243E-03
            1912     10.0499E-03     43.2484E-03    -31.1683E+06     30.1259E+06     57.4782E+06    -951.884E+03    -226.619E-03     453.176E-03    -226.557E-03     117.915E-03    -227.860E-03     454.247E-03    -226.268E-03     109.410E-03
            1913     9.32908E-03     43.0962E-03    -37.8625E+06     26.8272E+06     50.3411E+06    -74.1374E+03    -227.757E-03     454.497E-03    -226.740E-03     112.812E-03    -228.878E-03     455.433E-03    -226.472E-03     105.088E-03
            1914     8.60831E-03     42.9328E-03    -46.8934E+06     14.1555E+06     38.4636E+06     1.57259E+06    -228.619E-03     455.455E-03    -226.835E-03     104.955E-03    -229.641E-03     456.249E-03    -226.596E-03     97.7496E-03
            1915     7.89256E-03     42.7905E-03    -54.0429E+06    -14.3261E+06     25.4522E+06    -241.999E+03    -228.830E-03     455.705E-03    -226.874E-03     97.1543E-03    -229.751E-03     456.309E-03    -226.648E-03     90.2311E-03
            1916     7.17548E-03     42.6546E-03    -60.3640E+06    -45.2369E+06     16.1042E+06     2.08646E+06    -227.905E-03     454.856E-03    -226.951E-03     92.4933E-03    -228.698E-03     455.227E-03    -226.717E-03     86.3577E-03
            1917     6.45427E-03     42.5305E-03    -64.9019E+06    -67.4496E+06     4.47987E+06     3.84824E+06    -226.767E-03     453.875E-03    -227.109E-03     85.9339E-03    -227.424E-03     454.050E-03    -226.894E-03     80.6461E-03
            1918     5.73688E-03     42.4077E-03    -74.2435E+06    -95.0921E+06    -15.8312E+06     1.98652E+06    -227.254E-03     454.531E-03    -227.277E-03     78.1221E-03    -227.816E-03     454.538E-03    -227.111E-03     73.2586E-03
            1919     5.01931E-03     42.2991E-03    -84.1801E+06    -121.341E+06    -35.5758E+06    -487.100E+03    -227.597E-03     454.988E-03    -227.391E-03     68.3728E-03    -228.074E-03     454.839E-03    -227.271E-03     63.8862E-03
            1920     4.30190E-03     42.2061E-03    -89.9781E+06    -146.456E+06    -48.7852E+06    -2.75581E+06    -227.656E-03     455.139E-03    -227.483E-03     58.2994E-03    -228.033E-03     454.819E-03    -227.384E-03     54.3769E-03
            1921     3.58553E-03     42.1281E-03    -99.8835E+06    -168.893E+06    -63.1830E+06    -1.64636E+06    -227.546E-03     455.103E-03    -227.557E-03     48.9121E-03    -227.853E-03     454.640E-03    -227.484E-03     45.6608E-03
            1922     2.86732E-03     42.0595E-03    -104.139E+06    -180.694E+06    -78.9334E+06    -693.986E+03    -227.356E-03     454.982E-03    -227.626E-03     39.7003E-03    -227.593E-03     454.437E-03    -227.608E-03     37.0455E-03
            1923     2.14815E-03     42.0048E-03    -111.567E+06    -196.767E+06    -96.5571E+06    -724.127E+03    -227.177E-03     454.953E-03    -227.777E-03     29.3891E-03    -227.353E-03     454.317E-03    -227.812E-03     27.4349E-03
            1924     1.43086E-03     41.9774E-03    -124.252E+06    -213.061E+06    -112.928E+06     185.761E+03    -227.486E-03     455.505E-03    -228.019E-03     19.4104E-03    -227.628E-03     454.785E-03    -228.094E-03     18.2166E-03
            1925     717.757E-06     41.9383E-03    -127.195E+06    -224.230E+06    -124.421E+06     900.517E+03    -227.797E-03     456.349E-03    -228.552E-03     10.2947E-03    -227.870E-03     455.578E-03    -228.664E-03     9.70061E-03
            1926     13.6414E-03     42.5839E-03    -6.77936E+06     65.5220E+06     84.6671E+06     158.409E+03    -226.761E-03     452.683E-03    -225.922E-03     101.762E-03    -228.015E-03     453.901E-03    -225.584E-03     92.0912E-03
            1927     12.9345E-03     42.4199E-03    -11.8305E+06     58.3013E+06     83.7324E+06    -1.35104E+06    -228.952E-03     454.899E-03    -225.947E-03     112.495E-03    -230.470E-03     456.340E-03    -225.596E-03     101.460E-03
            1928     12.2130E-03     42.2597E-03    -14.1616E+06     56.0980E+06     82.4749E+06    -2.28678E+06    -226.491E-03     452.487E-03    -225.996E-03     116.595E-03    -228.042E-03     453.948E-03    -225.645E-03     105.753E-03
            1929     11.4896E-03     42.1078E-03    -21.1267E+06     51.7958E+06     76.5455E+06    -1.39142E+06    -225.847E-03     452.008E-03    -226.161E-03     120.407E-03    -227.299E-03     453.347E-03    -225.823E-03     110.626E-03
            1930     10.7660E-03     41.9311E-03    -26.2493E+06     42.4437E+06     68.7561E+06    -411.076E+03    -226.463E-03     452.830E-03    -226.368E-03     120.326E-03    -227.809E-03     454.035E-03    -226.047E-03     111.273E-03
            1931     10.0443E-03     41.7685E-03    -32.6523E+06     29.5297E+06     56.1290E+06     588.873E+03    -227.640E-03     454.155E-03    -226.515E-03     113.861E-03    -228.855E-03     455.197E-03    -226.230E-03     105.402E-03
            1932     9.32637E-03     41.5976E-03    -39.9909E+06     24.3023E+06     47.4457E+06     671.994E+03    -228.724E-03     455.308E-03    -226.584E-03     107.635E-03    -229.830E-03     456.221E-03    -226.324E-03     99.8124E-03
            1933     8.61349E-03     41.4452E-03    -46.2802E+06     13.5950E+06     38.8174E+06     500.077E+03    -227.315E-03     453.980E-03    -226.665E-03     102.200E-03    -228.338E-03     454.774E-03    -226.424E-03     94.8590E-03
            1934     7.89243E-03     41.2990E-03    -53.3282E+06    -11.4906E+06     25.9415E+06     815.691E+03    -226.549E-03     453.392E-03    -226.844E-03     99.1351E-03    -227.497E-03     454.035E-03    -226.620E-03     92.1301E-03
            1935     7.17286E-03     41.1653E-03    -62.2578E+06    -45.8226E+06     12.0272E+06    -540.979E+03    -227.757E-03     454.782E-03    -227.025E-03     93.2512E-03    -228.585E-03     455.191E-03    -226.808E-03     86.8207E-03
            1936     6.45726E-03     41.0398E-03    -70.4650E+06    -71.2228E+06     846.260E+03     892.091E+03    -228.724E-03     455.824E-03    -227.100E-03     87.0673E-03    -229.411E-03     456.006E-03    -226.890E-03     81.6155E-03
            1937     5.73909E-03     40.9162E-03    -77.4702E+06    -92.7822E+06    -14.8153E+06     3.29335E+06    -228.371E-03     455.466E-03    -227.094E-03     79.0389E-03    -228.955E-03     455.488E-03    -226.922E-03     74.2290E-03
            1938     5.02081E-03     40.8091E-03    -82.6433E+06    -115.998E+06    -30.5282E+06     1.25775E+06    -227.097E-03     454.256E-03    -227.159E-03     69.2043E-03    -227.583E-03     454.126E-03    -227.024E-03     64.7863E-03
            1939     4.30260E-03     40.7132E-03    -91.1411E+06    -142.985E+06    -47.4774E+06     1.53011E+06    -227.177E-03     454.470E-03    -227.293E-03     60.8423E-03    -227.569E-03     454.168E-03    -227.190E-03     57.0879E-03
            1940     3.58514E-03     40.6347E-03    -101.759E+06    -169.735E+06    -67.9764E+06    -1.32818E+06    -228.003E-03     455.322E-03    -227.319E-03     51.6803E-03    -228.322E-03     454.874E-03    -227.265E-03     48.3434E-03
            1941     2.86954E-03     40.5673E-03    -109.476E+06    -184.939E+06    -81.5121E+06    -2.01425E+06    -227.482E-03     454.779E-03    -227.297E-03     41.3605E-03    -227.746E-03     454.234E-03    -227.277E-03     38.5747E-03
            1942     2.15167E-03     40.5175E-03    -117.870E+06    -199.521E+06    -97.6378E+06     2.87922E+06    -227.765E-03     454.968E-03    -227.203E-03     29.9792E-03    -227.968E-03     454.329E-03    -227.231E-03     28.0444E-03
            1943     1.43667E-03     40.4741E-03    -118.817E+06    -208.748E+06    -109.675E+06     2.61390E+06    -228.632E-03     455.244E-03    -226.612E-03     20.1173E-03    -228.758E-03     454.533E-03    -226.686E-03     18.8555E-03
            1944     719.533E-06     40.4526E-03    -119.387E+06    -220.754E+06    -114.121E+06     292.857E+03    -227.422E-03     452.338E-03    -224.916E-03     11.8963E-03    -227.474E-03     451.561E-03    -224.993E-03     11.1640E-03
            1945     13.6502E-03     41.0760E-03    -3.68168E+06     69.4511E+06     88.3956E+06    -9.91357E+03    -226.523E-03     452.406E-03    -225.883E-03     105.276E-03    -227.771E-03     453.631E-03    -225.537E-03     95.8249E-03
            1946     12.9268E-03     40.9368E-03    -8.33803E+06     60.4631E+06     86.1570E+06    -969.048E+03    -225.805E-03     451.818E-03    -226.013E-03     114.893E-03    -227.312E-03     453.260E-03    -225.658E-03     104.133E-03
            1947     12.2040E-03     40.7769E-03    -15.5395E+06     57.0674E+06     82.1824E+06    -638.559E+03    -225.634E-03     451.826E-03    -226.192E-03     120.078E-03    -227.231E-03     453.332E-03    -225.841E-03     109.237E-03
            1948     11.4861E-03     40.6183E-03    -21.8549E+06     51.3204E+06     74.4689E+06    -2.58845E+06    -228.862E-03     455.159E-03    -226.297E-03     120.673E-03    -230.346E-03     456.531E-03    -225.967E-03     110.549E-03
            1949     10.7710E-03     40.4461E-03    -28.6021E+06     36.2315E+06     64.3725E+06    -2.40350E+06    -230.434E-03     456.701E-03    -226.267E-03     117.754E-03    -231.812E-03     457.920E-03    -225.957E-03     108.174E-03
            1950     10.0556E-03     40.2785E-03    -34.5114E+06     28.4133E+06     55.8471E+06     631.623E+03    -229.482E-03     455.682E-03    -226.200E-03     112.815E-03    -230.734E-03     456.750E-03    -225.912E-03     104.048E-03
            1951     9.33910E-03     40.1094E-03    -40.6181E+06     23.8457E+06     45.3107E+06     985.455E+03    -226.727E-03     452.966E-03    -226.239E-03     108.623E-03    -227.873E-03     453.921E-03    -225.988E-03     100.600E-03
            1952     8.61347E-03     39.9607E-03    -47.7169E+06     12.3176E+06     35.7306E+06    -165.269E+03    -224.874E-03     451.355E-03    -226.481E-03     104.385E-03    -225.932E-03     452.184E-03    -226.251E-03     96.9142E-03
            1953     7.89189E-03     39.8159E-03    -54.8835E+06    -10.4699E+06     26.4519E+06     85.4465E+03    -225.864E-03     452.673E-03    -226.809E-03     100.327E-03    -226.807E-03     453.307E-03    -226.582E-03     93.5293E-03
            1954     7.17235E-03     39.6724E-03    -62.8803E+06    -41.7502E+06     11.9446E+06     1.83323E+06    -227.579E-03     454.603E-03    -227.025E-03     92.8382E-03    -228.397E-03     455.016E-03    -226.813E-03     86.5785E-03
            1955     6.45378E-03     39.5461E-03    -71.7528E+06    -73.1296E+06    -3.82176E+06     1.24836E+06    -229.101E-03     456.173E-03    -227.072E-03     87.1429E-03    -229.799E-03     456.368E-03    -226.881E-03     81.5456E-03
            1956     5.73860E-03     39.4223E-03    -79.1893E+06    -94.6625E+06    -16.1802E+06     390.028E+03    -228.645E-03     455.684E-03    -227.039E-03     78.9145E-03    -229.242E-03     455.711E-03    -226.868E-03     73.9503E-03
            1957     5.02178E-03     39.3199E-03    -87.4346E+06    -115.874E+06    -32.0634E+06     1.70326E+06    -227.193E-03     454.262E-03    -227.069E-03     69.4937E-03    -227.698E-03     454.139E-03    -226.935E-03     65.1456E-03
            1958     4.30204E-03     39.2251E-03    -94.3579E+06    -142.948E+06    -48.8435E+06     1.71977E+06    -226.875E-03     454.084E-03    -227.209E-03     61.6598E-03    -227.281E-03     453.788E-03    -227.109E-03     57.9409E-03
            1959     3.58452E-03     39.1383E-03    -99.1181E+06    -164.948E+06    -63.7015E+06     1.32812E+06    -227.087E-03     454.450E-03    -227.363E-03     51.7810E-03    -227.408E-03     454.019E-03    -227.299E-03     48.4641E-03
            1960     2.86686E-03     39.0760E-03    -110.319E+06    -187.125E+06    -85.4888E+06     500.379E+03    -227.828E-03     455.213E-03    -227.385E-03     42.5959E-03    -228.089E-03     454.666E-03    -227.381E-03     39.8588E-03
            1961     2.15167E-03     39.0216E-03    -114.832E+06    -199.712E+06    -100.146E+06    -1.87795E+06    -228.251E-03     455.456E-03    -227.205E-03     34.0478E-03    -228.444E-03     454.824E-03    -227.249E-03     32.0059E-03
            1962     1.43484E-03     38.9821E-03    -113.470E+06    -205.547E+06    -108.111E+06    -3.03123E+06    -227.414E-03     454.392E-03    -226.979E-03     23.4644E-03    -227.532E-03     453.698E-03    -227.057E-03     21.9857E-03
            1963     717.722E-06     38.9645E-03    -117.646E+06    -222.802E+06    -115.402E+06    -1.22160E+06    -227.198E-03     453.924E-03    -226.726E-03     13.9399E-03    -227.243E-03     453.148E-03    -226.809E-03     13.0758E-03
            1964     13.6463E-03     39.5994E-03    -3.10093E+06     70.3786E+06     88.3468E+06    -1.07635E+06    -224.069E-03     449.944E-03    -225.875E-03     106.800E-03    -225.353E-03     451.210E-03    -225.531E-03     97.2084E-03
            1965     12.9245E-03     39.4510E-03    -9.45841E+06     60.7185E+06     85.3733E+06    -470.720E+03    -223.671E-03     449.796E-03    -226.125E-03     111.363E-03    -225.160E-03     451.219E-03    -225.772E-03     100.663E-03
            1966     12.2053E-03     39.2944E-03    -16.5320E+06     57.3168E+06     82.5182E+06     16.5064E+03    -227.001E-03     453.323E-03    -226.323E-03     117.953E-03    -228.577E-03     454.805E-03    -225.970E-03     107.117E-03
            1967     11.4861E-03     39.1223E-03    -21.2175E+06     52.4192E+06     75.8249E+06    -75.2406E+03    -230.260E-03     456.607E-03    -226.347E-03     121.246E-03    -231.777E-03     458.015E-03    -226.013E-03     110.908E-03
            1968     10.7705E-03     38.9502E-03    -29.3178E+06     36.4681E+06     61.2090E+06    -91.8729E+03    -231.229E-03     457.469E-03    -226.240E-03     121.787E-03    -232.670E-03     458.757E-03    -225.944E-03     111.963E-03
            1969     10.0542E-03     38.7855E-03    -36.7419E+06     27.0487E+06     51.8407E+06    -1.25120E+06    -228.953E-03     455.147E-03    -226.194E-03     119.803E-03    -230.282E-03     456.291E-03    -225.920E-03     110.793E-03
            1970     9.33177E-03     38.6270E-03    -42.7818E+06     21.9858E+06     43.3117E+06    -2.83492E+03    -226.246E-03     452.567E-03    -226.321E-03     114.990E-03    -227.469E-03     453.591E-03    -226.074E-03     106.693E-03
            1971     8.61239E-03     38.4798E-03    -47.8035E+06     15.1053E+06     35.7129E+06     1.80121E+06    -226.601E-03     453.148E-03    -226.547E-03     108.653E-03    -227.700E-03     454.027E-03    -226.321E-03     101.067E-03
            1972     7.89385E-03     38.3240E-03    -57.0588E+06    -11.2099E+06     23.4080E+06     1.25629E+06    -227.849E-03     454.571E-03    -226.721E-03     101.112E-03    -228.787E-03     455.198E-03    -226.505E-03     94.4312E-03
            1973     7.17547E-03     38.1876E-03    -66.0913E+06    -48.1142E+06     7.59385E+06    -392.095E+03    -227.907E-03     454.733E-03    -226.826E-03     92.6685E-03    -228.702E-03     455.101E-03    -226.622E-03     86.5990E-03
            1974     6.45755E-03     38.0511E-03    -69.5905E+06    -71.3892E+06    -1.35758E+06     1.00764E+06    -227.730E-03     454.659E-03    -226.929E-03     86.5090E-03    -228.423E-03     454.856E-03    -226.732E-03     80.9070E-03
            1975     5.73909E-03     37.9314E-03    -75.8484E+06    -93.3552E+06    -14.2168E+06     1.42823E+06    -227.354E-03     454.388E-03    -227.034E-03     78.2446E-03    -227.951E-03     454.426E-03    -226.860E-03     73.1348E-03
            1976     5.01987E-03     37.8293E-03    -84.9708E+06    -115.102E+06    -31.1103E+06     895.458E+03    -227.504E-03     454.626E-03    -227.122E-03     70.4807E-03    -228.012E-03     454.514E-03    -226.988E-03     65.9863E-03
            1977     4.30474E-03     37.7320E-03    -93.4038E+06    -142.659E+06    -47.6952E+06     782.451E+03    -227.300E-03     454.519E-03    -227.219E-03     63.0366E-03    -227.717E-03     454.236E-03    -227.115E-03     59.1353E-03
            1978     3.58581E-03     37.6514E-03    -101.039E+06    -168.830E+06    -64.0153E+06     599.387E+03    -226.936E-03     454.301E-03    -227.365E-03     52.7436E-03    -227.258E-03     453.851E-03    -227.294E-03     49.5218E-03
            1979     2.86700E-03     37.5815E-03    -105.264E+06    -180.536E+06    -79.0770E+06     451.264E+03    -227.390E-03     454.869E-03    -227.479E-03     41.9786E-03    -227.634E-03     454.329E-03    -227.460E-03     39.4193E-03
            1980     2.14957E-03     37.5263E-03    -106.482E+06    -192.670E+06    -92.3905E+06    -1.35116E+06    -227.297E-03     454.876E-03    -227.579E-03     31.6477E-03    -227.464E-03     454.251E-03    -227.607E-03     29.6954E-03
            1981     1.43189E-03     37.4919E-03    -116.938E+06    -210.515E+06    -111.209E+06    -2.78223E+06    -227.116E-03     454.937E-03    -227.821E-03     20.5778E-03    -227.232E-03     454.222E-03    -227.903E-03     19.2735E-03
            1982     713.618E-06     37.4687E-03    -125.163E+06    -229.325E+06    -126.770E+06    -1.85763E+06    -227.443E-03     456.098E-03    -228.656E-03     11.3924E-03    -227.493E-03     455.308E-03    -228.776E-03     10.6703E-03
            1983     13.6492E-03     38.1146E-03    -6.34671E+06     68.1001E+06     85.2509E+06    -20.1597E+03    -224.832E-03     450.679E-03    -225.847E-03     101.798E-03    -226.116E-03     451.935E-03    -225.510E-03     92.0148E-03
            1984     12.9266E-03     37.9742E-03    -9.89468E+06     59.4498E+06     84.6328E+06     628.592E+03    -224.451E-03     450.498E-03    -226.046E-03     110.897E-03    -225.953E-03     451.929E-03    -225.695E-03     100.063E-03
            1985     12.2048E-03     37.8011E-03    -15.9410E+06     57.2662E+06     81.9042E+06     618.738E+03    -227.200E-03     453.410E-03    -226.210E-03     118.514E-03    -228.747E-03     454.866E-03    -225.861E-03     107.878E-03
            1986     11.4881E-03     37.6351E-03    -25.4400E+06     53.1199E+06     72.2922E+06     1.00189E+06    -228.250E-03     454.529E-03    -226.280E-03     120.977E-03    -229.764E-03     455.932E-03    -225.958E-03     110.863E-03
            1987     10.7676E-03     37.4566E-03    -30.5683E+06     40.0816E+06     61.3113E+06     1.18692E+06    -227.303E-03     453.679E-03    -226.376E-03     121.082E-03    -228.738E-03     454.969E-03    -226.083E-03     111.518E-03
            1988     10.0471E-03     37.2981E-03    -36.3340E+06     27.3884E+06     50.3235E+06     1.15776E+06    -227.095E-03     453.625E-03    -226.530E-03     117.892E-03    -228.420E-03     454.772E-03    -226.265E-03     108.903E-03
            1989     9.32873E-03     37.1411E-03    -43.5273E+06     21.5117E+06     42.5977E+06    -512.056E+03    -228.099E-03     454.771E-03    -226.672E-03     113.349E-03    -229.337E-03     455.807E-03    -226.427E-03     104.828E-03
            1990     8.61053E-03     36.9864E-03    -53.2261E+06     11.7914E+06     32.9681E+06    -381.802E+03    -229.076E-03     455.819E-03    -226.742E-03     109.544E-03    -230.200E-03     456.700E-03    -226.517E-03     101.850E-03
            1991     7.89364E-03     36.8343E-03    -58.8342E+06    -10.4711E+06     22.6786E+06     1.15350E+06    -229.377E-03     456.141E-03    -226.764E-03     103.655E-03    -230.336E-03     456.788E-03    -226.550E-03     96.9325E-03
            1992     7.17657E-03     36.6954E-03    -63.7719E+06    -45.3657E+06     9.82008E+06    -902.291E+03    -228.607E-03     455.397E-03    -226.790E-03     95.9741E-03    -229.411E-03     455.786E-03    -226.583E-03     89.9056E-03
            1993     6.45841E-03     36.5631E-03    -72.7058E+06    -74.8239E+06    -4.39159E+06    -2.79328E+06    -226.849E-03     453.768E-03    -226.918E-03     89.6980E-03    -227.561E-03     453.968E-03    -226.726E-03     84.0661E-03
            1994     5.73778E-03     36.4445E-03    -79.6138E+06    -95.1379E+06    -16.4588E+06    -1.01744E+06    -226.266E-03     453.441E-03    -227.174E-03     81.8690E-03    -226.891E-03     453.492E-03    -227.003E-03     76.7357E-03
            1995     5.02058E-03     36.3351E-03    -84.3331E+06    -115.316E+06    -29.9047E+06     692.208E+03    -227.500E-03     454.891E-03    -227.391E-03     73.5411E-03    -228.013E-03     454.782E-03    -227.251E-03     69.0562E-03
            1996     4.30063E-03     36.2421E-03    -91.2036E+06    -140.500E+06    -46.2554E+06     500.073E+03    -228.322E-03     455.775E-03    -227.453E-03     63.8379E-03    -228.731E-03     455.496E-03    -227.349E-03     59.9910E-03
            1997     3.58389E-03     36.1580E-03    -100.189E+06    -164.923E+06    -63.0578E+06    -484.490E+03    -228.460E-03     455.846E-03    -227.387E-03     53.2153E-03    -228.783E-03     455.411E-03    -227.318E-03     50.0222E-03
            1998     2.86902E-03     36.0881E-03    -106.651E+06    -179.855E+06    -77.0897E+06    -934.193E+03    -227.829E-03     455.111E-03    -227.283E-03     41.5345E-03    -228.085E-03     454.575E-03    -227.253E-03     38.9099E-03
            1999     2.15126E-03     36.0364E-03    -116.296E+06    -196.827E+06    -94.9779E+06     1.39188E+06    -227.152E-03     454.403E-03    -227.250E-03     29.9011E-03    -227.354E-03     453.770E-03    -227.271E-03     28.0027E-03
            2000     1.43394E-03     35.9967E-03    -123.417E+06    -213.446E+06    -112.459E+06     2.47843E+06    -227.554E-03     454.715E-03    -227.161E-03     19.0830E-03    -227.689E-03     453.989E-03    -227.235E-03     17.8933E-03
            2001     719.679E-06     35.9739E-03    -123.821E+06    -226.121E+06    -122.304E+06     1.31548E+06    -227.254E-03     454.198E-03    -226.945E-03     9.07103E-03    -227.298E-03     453.402E-03    -227.049E-03     8.50563E-03
            2002     13.6485E-03     36.6340E-03    -4.37791E+06     68.8672E+06     85.9993E+06     993.238E+03    -226.062E-03     451.905E-03    -225.843E-03     101.971E-03    -227.358E-03     453.181E-03    -225.507E-03     92.0816E-03
            2003     12.9291E-03     36.4882E-03    -10.4504E+06     58.0895E+06     83.3425E+06     1.09587E+06    -226.843E-03     452.787E-03    -225.943E-03     114.387E-03    -228.425E-03     454.296E-03    -225.595E-03     103.125E-03
            2004     12.2104E-03     36.3178E-03    -16.0290E+06     57.1160E+06     82.4058E+06     1.54281E+06    -227.124E-03     453.173E-03    -226.049E-03     119.441E-03    -228.686E-03     454.642E-03    -225.696E-03     108.792E-03
            2005     11.4891E-03     36.1442E-03    -21.0972E+06     51.8764E+06     75.2882E+06     1.50231E+06    -225.614E-03     451.818E-03    -226.204E-03     120.751E-03    -227.114E-03     453.210E-03    -225.873E-03     110.697E-03
            2006     10.7684E-03     35.9779E-03    -27.1083E+06     37.6429E+06     63.7590E+06     2.13543E+06    -224.953E-03     451.411E-03    -226.458E-03     120.128E-03    -226.374E-03     452.684E-03    -226.154E-03     110.595E-03
            2007     10.0455E-03     35.8109E-03    -34.1713E+06     28.9710E+06     55.3817E+06     3.27726E+06    -226.168E-03     452.905E-03    -226.737E-03     117.001E-03    -227.470E-03     454.028E-03    -226.453E-03     108.198E-03
            2008     9.32702E-03     35.6472E-03    -41.2289E+06     23.6945E+06     45.8240E+06     1.91568E+06    -228.400E-03     455.308E-03    -226.908E-03     113.692E-03    -229.612E-03     456.325E-03    -226.654E-03     105.388E-03
            2009     8.60969E-03     35.4969E-03    -49.2277E+06     13.7420E+06     34.7758E+06    -580.188E+03    -229.590E-03     456.551E-03    -226.961E-03     110.480E-03    -230.702E-03     457.436E-03    -226.736E-03     102.802E-03
            2010     7.89087E-03     35.3406E-03    -56.4552E+06    -9.06227E+06     26.2048E+06    -355.135E+03    -229.218E-03     456.225E-03    -227.006E-03     104.776E-03    -230.195E-03     456.893E-03    -226.780E-03     97.8757E-03
            2011     7.17332E-03     35.2033E-03    -62.0961E+06    -39.9262E+06     14.2153E+06     409.324E+03    -228.141E-03     455.233E-03    -227.092E-03     97.1389E-03    -228.976E-03     455.665E-03    -226.873E-03     90.8964E-03
            2012     6.45436E-03     35.0749E-03    -71.3550E+06    -71.4191E+06    -4.36662E+06    -997.755E+03    -227.035E-03     454.287E-03    -227.252E-03     90.3493E-03    -227.759E-03     454.516E-03    -227.066E-03     84.6312E-03
            2013     5.73582E-03     34.9565E-03    -82.4870E+06    -101.113E+06    -22.0967E+06    -3.09457E+06    -227.102E-03     454.586E-03    -227.484E-03     83.5331E-03    -227.722E-03     454.619E-03    -227.328E-03     78.4491E-03
            2014     5.01519E-03     34.8428E-03    -88.0945E+06    -122.022E+06    -33.5842E+06    -3.59890E+06    -228.679E-03     456.300E-03    -227.621E-03     73.3072E-03    -229.188E-03     456.160E-03    -227.484E-03     68.8460E-03
            2015     4.30105E-03     34.7464E-03    -92.2353E+06    -138.529E+06    -44.4109E+06    -1.23170E+06    -229.513E-03     457.034E-03    -227.522E-03     61.0697E-03    -229.927E-03     456.758E-03    -227.409E-03     57.1732E-03
            2016     3.58612E-03     34.6622E-03    -100.561E+06    -160.535E+06    -60.9242E+06     1.03878E+06    -228.793E-03     456.086E-03    -227.293E-03     51.3047E-03    -229.128E-03     455.671E-03    -227.219E-03     48.0046E-03
            2017     2.86835E-03     34.5957E-03    -109.438E+06    -182.414E+06    -80.0737E+06     1.50014E+06    -227.637E-03     454.764E-03    -227.127E-03     41.4106E-03    -227.904E-03     454.228E-03    -227.105E-03     38.7166E-03
            2018     2.15232E-03     34.5435E-03    -118.573E+06    -201.285E+06    -99.4753E+06     1.12875E+06    -227.081E-03     454.170E-03    -227.088E-03     32.4629E-03    -227.284E-03     453.528E-03    -227.122E-03     30.5428E-03
            2019     1.43591E-03     34.5055E-03    -121.877E+06    -211.740E+06    -110.686E+06     933.994E+03    -226.952E-03     454.136E-03    -227.185E-03     23.8615E-03    -227.094E-03     453.422E-03    -227.254E-03     22.5391E-03
            2020     716.752E-06     34.4811E-03    -123.505E+06    -222.154E+06    -116.444E+06     1.19780E+06    -227.481E-03     454.623E-03    -227.142E-03     13.1925E-03    -227.550E-03     453.853E-03    -227.223E-03     12.4553E-03
            2021     13.6455E-03     35.1510E-03    -5.83782E+06     67.5478E+06     85.0934E+06     745.885E+03    -226.320E-03     452.273E-03    -225.953E-03     104.973E-03    -227.667E-03     453.593E-03    -225.617E-03     94.8804E-03
            2022     12.9273E-03     34.9936E-03    -9.64219E+06     60.1534E+06     84.3396E+06     713.254E+03    -228.115E-03     454.143E-03    -226.028E-03     117.795E-03    -229.734E-03     455.697E-03    -225.680E-03     106.424E-03
            2023     12.2110E-03     34.8307E-03    -14.5413E+06     59.5382E+06     83.7121E+06     1.32081E+06    -226.473E-03     452.615E-03    -226.141E-03     124.860E-03    -228.104E-03     454.162E-03    -225.788E-03     114.056E-03
            2024     11.4895E-03     34.6655E-03    -20.0904E+06     47.8437E+06     75.7438E+06     2.07118E+06    -225.460E-03     451.821E-03    -226.361E-03     126.760E-03    -227.017E-03     453.256E-03    -226.022E-03     116.602E-03
            2025     10.7659E-03     34.4925E-03    -25.7664E+06     33.3523E+06     65.1620E+06     2.26544E+06    -226.520E-03     453.128E-03    -226.608E-03     124.276E-03    -227.956E-03     454.402E-03    -226.293E-03     114.731E-03
            2026     10.0472E-03     34.3261E-03    -32.4276E+06     29.8543E+06     56.8931E+06     2.95627E+06    -227.571E-03     454.373E-03    -226.802E-03     117.998E-03    -228.858E-03     455.486E-03    -226.513E-03     109.276E-03
            2027     9.32454E-03     34.1600E-03    -38.3728E+06     25.9464E+06     48.4131E+06     3.05140E+06    -228.093E-03     455.034E-03    -226.941E-03     111.916E-03    -229.255E-03     456.011E-03    -226.680E-03     103.911E-03
            2028     8.60589E-03     33.9997E-03    -42.5969E+06     19.8412E+06     42.1990E+06     3.78359E+06    -228.238E-03     455.304E-03    -227.066E-03     107.163E-03    -229.314E-03     456.177E-03    -226.822E-03     99.6164E-03
            2029     7.89008E-03     33.8513E-03    -51.9424E+06    -7.71950E+06     28.9609E+06     1.64395E+06    -227.678E-03     454.898E-03    -227.220E-03     103.236E-03    -228.661E-03     455.585E-03    -226.989E-03     96.1404E-03
            2030     7.17016E-03     33.7124E-03    -61.3320E+06    -43.5423E+06     13.5479E+06      561.19E+03    -228.146E-03     455.530E-03    -227.384E-03     96.1045E-03    -228.991E-03     455.964E-03    -227.164E-03     89.6555E-03
            2031     6.45215E-03     33.5838E-03    -66.2402E+06     -69.348E+06     1.04830E+06     427.891E+03    -228.864E-03     456.327E-03    -227.463E-03     86.0964E-03    -229.574E-03     456.553E-03    -227.262E-03     80.1996E-03
            2032     5.73343E-03     33.4661E-03    -71.3635E+06    -93.8759E+06    -11.9301E+06    -613.876E+03    -229.351E-03     456.787E-03    -227.436E-03     78.8059E-03    -229.930E-03     456.814E-03    -227.256E-03     73.6526E-03
            2033     5.01998E-03     33.3461E-03    -83.8887E+06    -119.686E+06    -29.9915E+06    -1.05001E+06    -228.992E-03     456.330E-03    -227.338E-03     69.4363E-03    -229.478E-03     456.180E-03    -227.193E-03     64.9977E-03
            2034     4.30341E-03     33.2503E-03    -96.3158E+06    -145.954E+06    -49.5586E+06    -2.34038E+06    -227.894E-03     455.169E-03    -227.276E-03     60.5756E-03    -228.312E-03     454.871E-03    -227.172E-03     56.6183E-03
            2035     3.58591E-03     33.1697E-03    -102.117E+06    -166.646E+06    -65.0225E+06    -1.32007E+06    -227.418E-03     454.723E-03    -227.305E-03     53.0479E-03    -227.751E-03     454.292E-03    -227.241E-03     49.7128E-03
            2036     2.86922E-03     33.1040E-03    -108.470E+06    -183.284E+06    -80.1278E+06     5.88053E+03    -227.026E-03     454.441E-03    -227.415E-03     43.2194E-03    -227.287E-03     453.899E-03    -227.392E-03     40.5546E-03
            2037     2.14987E-03     33.0528E-03    -109.424E+06    -194.412E+06    -91.8930E+06     642.512E+03    -226.719E-03     454.395E-03    -227.676E-03     33.7652E-03    -226.901E-03     453.767E-03    -227.695E-03     31.8464E-03
            2038     1.43074E-03     33.0128E-03    -114.374E+06    -207.959E+06    -107.662E+06     314.073E+03    -226.886E-03     455.084E-03    -228.198E-03     23.8151E-03    -227.005E-03     454.376E-03    -228.269E-03     22.6045E-03
            2039     714.068E-06     32.9889E-03    -122.394E+06    -225.358E+06    -122.030E+06    -799.197E+03    -227.458E-03     457.194E-03    -229.736E-03     13.8782E-03    -227.517E-03     456.425E-03    -229.842E-03     13.2267E-03
            2040     13.6423E-03     33.6514E-03    -5.47150E+06     66.1635E+06     83.5808E+06    -567.756E+03    -224.064E-03     450.032E-03    -225.968E-03     104.469E-03    -225.391E-03     451.333E-03    -225.638E-03     94.4561E-03
            2041     12.9265E-03     33.5082E-03    -10.1080E+06     57.5850E+06     82.2700E+06    -879.527E+03    -224.692E-03     450.893E-03    -226.201E-03     115.076E-03    -226.219E-03     452.350E-03    -225.858E-03     104.242E-03
            2042     12.2003E-03     33.3464E-03    -13.8518E+06     55.0492E+06     80.8085E+06     1.54932E+06    -225.676E-03     452.118E-03    -226.441E-03     124.615E-03    -227.275E-03     453.629E-03    -226.097E-03     113.964E-03
            2043     11.4797E-03     33.1766E-03    -18.8308E+06     50.2940E+06     75.1558E+06     4.33562E+06    -227.569E-03     454.198E-03    -226.630E-03     124.063E-03    -229.120E-03     455.644E-03    -226.300E-03     113.750E-03
            2044     10.7625E-03     33.0067E-03    -27.8881E+06     36.0574E+06     63.1699E+06     2.72697E+06    -228.371E-03     455.119E-03    -226.748E-03     122.497E-03    -229.802E-03     456.395E-03    -226.444E-03     112.930E-03
            2045     10.0443E-03     32.8303E-03    -33.5756E+06     28.8036E+06     54.3168E+06     9.35374E+03    -229.256E-03     456.077E-03    -226.821E-03     118.397E-03    -230.577E-03     457.224E-03    -226.542E-03     109.368E-03
            2046     9.33092E-03     32.6747E-03    -37.3389E+06     27.3393E+06     51.5781E+06     1.61481E+06    -228.569E-03     455.472E-03    -226.904E-03     113.214E-03    -229.772E-03     456.490E-03    -226.631E-03     104.963E-03
            2047     8.61203E-03     32.5087E-03    -44.6176E+06     18.1935E+06     44.0038E+06     3.58032E+06    -226.619E-03     453.703E-03    -227.084E-03     108.675E-03    -227.718E-03     454.581E-03    -226.826E-03     101.158E-03
            2048     7.88776E-03     32.3688E-03    -50.6322E+06    -5.59894E+06     30.4443E+06     2.65522E+06    -227.315E-03     454.638E-03    -227.323E-03     104.115E-03    -228.292E-03     455.327E-03    -227.089E-03     97.1328E-03
            2049     7.16947E-03     32.2152E-03    -57.1346E+06    -41.4900E+06     17.0093E+06     1.30865E+06    -229.308E-03     456.771E-03    -227.463E-03     95.7072E-03    -230.134E-03     457.198E-03    -227.235E-03     89.2897E-03
            2050     6.45446E-03     32.0920E-03    -65.2907E+06    -69.5682E+06     3.94027E+06    -42.4655E+03    -230.520E-03     457.918E-03    -227.398E-03     86.2026E-03    -231.225E-03     458.133E-03    -227.183E-03     80.3457E-03
            2051     5.74200E-03     31.9669E-03    -72.3376E+06    -91.2633E+06    -8.59150E+06     1.57753E+06    -230.544E-03     457.739E-03    -227.194E-03     81.1926E-03    -231.140E-03     457.779E-03    -227.000E-03     76.1234E-03
            2052     5.02402E-03     31.8563E-03    -80.8211E+06    -115.783E+06    -26.0116E+06     2.76030E+06    -228.167E-03     455.224E-03    -227.057E-03     71.9538E-03    -228.665E-03     455.099E-03    -226.902E-03     67.5064E-03
            2053     4.30305E-03     31.7630E-03    -91.6607E+06    -146.334E+06    -49.1603E+06     1.03880E+06    -226.141E-03     453.316E-03    -227.175E-03     62.1986E-03    -226.532E-03     453.004E-03    -227.075E-03     58.4604E-03
            2054     3.58326E-03     31.6774E-03    -100.950E+06    -170.420E+06    -67.7482E+06    -1.02847E+06    -226.064E-03     453.571E-03    -227.506E-03     53.0617E-03    -226.371E-03     453.111E-03    -227.452E-03     49.9296E-03
            2055     2.86466E-03     31.6117E-03    -105.078E+06    -182.257E+06    -80.3300E+06    -2.16780E+06    -226.926E-03     454.773E-03    -227.847E-03     42.8969E-03    -227.169E-03     454.229E-03    -227.832E-03     40.2253E-03
            2056     2.14901E-03     31.5594E-03    -110.331E+06    -195.351E+06    -93.5732E+06    -1.81633E+06    -228.012E-03     456.027E-03    -228.015E-03     32.5627E-03    -228.195E-03     455.398E-03    -228.040E-03     30.4967E-03
            2057     1.43323E-03     31.5194E-03    -118.370E+06    -209.894E+06    -109.353E+06     449.735E+03    -228.539E-03     456.411E-03    -227.872E-03     21.1786E-03    -228.669E-03     455.699E-03    -227.943E-03     19.8956E-03
            2058     717.130E-06     31.4892E-03    -117.205E+06    -222.544E+06    -120.428E+06     696.102E+03    -227.179E-03     455.523E-03    -228.344E-03     10.9164E-03    -227.210E-03     454.746E-03    -228.453E-03     10.2639E-03
            2059     13.6520E-03     32.1710E-03    -1.60278E+06     68.0188E+06     86.1609E+06       1.476E+06    -222.907E-03     448.818E-03    -225.910E-03     106.006E-03    -224.244E-03     450.140E-03    -225.576E-03     95.9954E-03
            2060     12.9210E-03     32.0314E-03    -10.2373E+06     55.4258E+06     80.5331E+06    -294.759E+03    -222.730E-03     448.942E-03    -226.211E-03     111.623E-03    -224.227E-03     450.365E-03    -225.874E-03     100.863E-03
            2061     12.2022E-03     31.8598E-03    -17.9265E+06     46.6642E+06     75.0651E+06    -1.42014E+06    -226.000E-03     452.475E-03    -226.475E-03     120.297E-03    -227.573E-03     453.932E-03    -226.142E-03     109.540E-03
            2062     11.4853E-03     31.6857E-03    -21.6522E+06     48.3064E+06     72.3342E+06     1.68003E+06    -228.001E-03     454.624E-03    -226.622E-03     120.209E-03    -229.570E-03     456.077E-03    -226.299E-03     109.588E-03
            2063     10.7664E-03     31.5180E-03    -25.1642E+06     43.8240E+06     67.3382E+06     3.57372E+06    -228.239E-03     454.962E-03    -226.723E-03     120.547E-03    -229.704E-03     456.298E-03    -226.413E-03     110.694E-03
            2064     10.0463E-03     31.3433E-03    -31.6741E+06     31.0665E+06     57.4551E+06     513.306E+03    -227.716E-03     454.572E-03    -226.855E-03     119.875E-03    -229.053E-03     455.739E-03    -226.567E-03     110.861E-03
            2065     9.32504E-03     31.1757E-03    -39.7840E+06     24.6297E+06     48.0986E+06    -933.699E+03    -227.378E-03     454.413E-03    -227.035E-03     115.143E-03    -228.602E-03     455.444E-03    -226.773E-03     106.855E-03
            2066     8.60401E-03     31.0308E-03    -45.1629E+06     15.4814E+06     41.9797E+06    -1.16509E+06    -227.846E-03     455.085E-03    -227.239E-03     110.615E-03    -228.962E-03     455.973E-03    -226.986E-03     102.935E-03
            2067     7.88776E-03     30.8709E-03    -51.3245E+06    -4.97835E+06     33.3637E+06     1.63777E+06    -228.988E-03     456.378E-03    -227.390E-03     105.442E-03    -229.975E-03     457.068E-03    -227.142E-03     98.4805E-03
            2068     7.17192E-03     30.7265E-03    -58.0604E+06    -36.4084E+06     19.3086E+06     2.06709E+06    -229.496E-03     456.941E-03    -227.445E-03     97.2129E-03    -230.358E-03     457.411E-03    -227.211E-03     90.6899E-03
            2069     6.45325E-03     30.5928E-03    -68.1938E+06    -68.3846E+06     1.60542E+06     2.43593E+06    -229.739E-03     457.150E-03    -227.411E-03     89.0525E-03    -230.470E-03     457.393E-03    -227.205E-03     83.2549E-03
            2070     5.73454E-03     30.4725E-03    -79.9201E+06    -99.2263E+06    -18.6465E+06     1.36238E+06    -229.225E-03     456.567E-03    -227.343E-03     82.8726E-03    -229.837E-03     456.598E-03    -227.176E-03     77.8432E-03
            2071     5.01839E-03     30.3634E-03    -83.2571E+06    -119.627E+06    -29.9646E+06    -1.87285E+06    -228.186E-03     455.533E-03    -227.347E-03     73.9113E-03    -228.708E-03     455.422E-03    -227.203E-03     69.1735E-03
            2072     4.30328E-03     30.2738E-03    -86.5189E+06    -138.416E+06    -39.6771E+06     2.11466E+06    -227.817E-03     455.228E-03    -227.411E-03     63.4838E-03    -228.220E-03     454.947E-03    -227.284E-03     59.6063E-03
            2073     3.58531E-03     30.1885E-03    -93.8308E+06    -161.687E+06    -58.1506E+06     3.43301E+06    -227.277E-03     454.770E-03    -227.494E-03     52.2123E-03    -227.580E-03     454.335E-03    -227.414E-03     48.9922E-03
            2074     2.86680E-03     30.1199E-03    -99.9373E+06    -177.583E+06    -76.7590E+06     472.558E+03    -227.408E-03     454.992E-03    -227.584E-03     40.6553E-03    -227.635E-03     454.457E-03    -227.566E-03     37.9991E-03
            2075     2.14911E-03     30.0612E-03    -116.441E+06    -202.352E+06    -100.101E+06    -1.44248E+06    -228.402E-03     455.875E-03    -227.472E-03     30.8236E-03    -228.593E-03     455.226E-03    -227.510E-03     28.7229E-03
            2076     1.43488E-03     30.0225E-03    -122.124E+06    -214.269E+06    -110.735E+06    -1.36151E+06    -228.453E-03     455.431E-03    -226.977E-03     21.4544E-03    -228.592E-03     454.705E-03    -227.043E-03     19.8651E-03
            2077     719.413E-06     29.9981E-03    -118.795E+06    -221.781E+06    -110.737E+06    -419.339E+03    -227.440E-03     453.348E-03    -225.908E-03     11.6768E-03    -227.486E-03     452.550E-03    -225.968E-03     10.8487E-03
            2078     13.6434E-03     30.6950E-03    -4.99003E+06     65.7295E+06     85.1007E+06     808.844E+03    -224.595E-03     450.493E-03    -225.898E-03     103.943E-03    -225.929E-03     451.796E-03    -225.561E-03     93.8723E-03
            2079     12.9286E-03     30.5471E-03    -5.60388E+06     62.4513E+06     88.0645E+06     3.97373E+06    -224.705E-03     450.817E-03    -226.112E-03     112.527E-03    -226.205E-03     452.263E-03    -225.754E-03     101.791E-03
            2080     12.2069E-03     30.3757E-03    -11.9582E+06     51.4075E+06     81.8196E+06     1.14521E+06    -225.650E-03     451.980E-03    -226.329E-03     122.808E-03    -227.229E-03     453.461E-03    -225.977E-03     112.123E-03
            2081     11.4837E-03     30.1982E-03    -19.6369E+06     40.7955E+06     75.0689E+06    -2.86115E+06    -226.817E-03     453.355E-03    -226.538E-03     124.325E-03    -228.391E-03     454.786E-03    -226.193E-03     113.758E-03
            2082     10.7645E-03     30.0274E-03    -22.7684E+06     39.5797E+06     72.6594E+06     180.316E+03    -227.557E-03     454.273E-03    -226.717E-03     121.967E-03    -229.030E-03     455.596E-03    -226.378E-03     112.055E-03
            2083     10.0456E-03     29.8575E-03    -28.6761E+06     34.8039E+06     60.1212E+06     3.34046E+06    -226.808E-03     453.688E-03    -226.881E-03     119.211E-03    -228.127E-03     454.855E-03    -226.589E-03     110.340E-03
            2084     9.32347E-03     29.6937E-03    -37.1136E+06     27.0674E+06     46.2144E+06     468.596E+03    -227.401E-03     454.466E-03    -227.065E-03     111.908E-03    -228.579E-03     455.474E-03    -226.819E-03     103.756E-03
            2085     8.60662E-03     29.5332E-03    -44.1726E+06     13.3080E+06     40.0666E+06    -1.59139E+06    -229.203E-03     456.400E-03    -227.197E-03     105.937E-03    -230.290E-03     457.261E-03    -226.952E-03     98.1662E-03
            2086     7.88937E-03     29.3808E-03    -51.8521E+06    -8.73949E+06     31.9559E+06     1.03207E+06    -228.821E-03     456.094E-03    -227.273E-03     102.372E-03    -229.799E-03     456.764E-03    -227.026E-03     95.3337E-03
            2087     7.16942E-03     29.2325E-03    -61.0232E+06    -38.8648E+06     14.8702E+06     897.716E+03    -228.137E-03     455.506E-03    -227.369E-03     97.2276E-03    -229.003E-03     455.974E-03    -227.150E-03     90.7501E-03
            2088     6.45339E-03     29.1005E-03    -65.4759E+06    -67.1721E+06     1.47646E+06     1.17932E+06    -228.572E-03     456.048E-03    -227.476E-03     88.8602E-03    -229.296E-03     456.297E-03    -227.277E-03     83.0090E-03
            2089     5.73712E-03     28.9801E-03    -69.4109E+06    -89.8293E+06    -10.5880E+06     766.725E+03    -228.118E-03     455.682E-03    -227.564E-03     79.7662E-03    -228.712E-03     455.741E-03    -227.386E-03     74.5170E-03
            2090     5.01750E-03     28.8727E-03    -79.6911E+06    -117.037E+06    -27.6462E+06    -132.747E+03    -228.209E-03     455.850E-03    -227.642E-03     71.5637E-03    -228.709E-03     455.732E-03    -227.495E-03     66.9057E-03
            2091     4.29911E-03     28.7754E-03    -87.7240E+06    -143.665E+06    -40.9834E+06    -178.372E+03    -229.277E-03     456.883E-03    -227.606E-03     62.0463E-03    -229.678E-03     456.582E-03    -227.475E-03     58.0034E-03
            2092     3.58510E-03     28.6957E-03    -92.6136E+06    -160.119E+06    -52.4835E+06     1.26114E+06    -229.078E-03     456.482E-03    -227.403E-03     52.4313E-03    -229.405E-03     456.064E-03    -227.299E-03     48.8482E-03
            2093     2.87014E-03     28.6260E-03    -105.594E+06    -179.757E+06    -74.8154E+06     6.04015E+06    -228.160E-03     455.311E-03    -227.151E-03     43.2355E-03    -228.423E-03     454.779E-03    -227.111E-03     40.5876E-03
            2094     2.15409E-03     28.5702E-03    -110.137E+06    -197.073E+06    -93.8822E+06     4.43166E+06    -227.185E-03     454.212E-03    -227.027E-03     33.3826E-03    -227.363E-03     453.574E-03    -227.051E-03     31.3836E-03
            2095     1.43470E-03     28.5287E-03    -110.076E+06    -207.979E+06    -105.176E+06    -1.35159E+06    -226.578E-03     453.782E-03    -227.203E-03     23.3662E-03    -226.672E-03     453.059E-03    -227.268E-03     21.7973E-03
            2096     715.687E-06     28.5097E-03    -118.952E+06    -229.068E+06    -115.601E+06    -3.06253E+06    -227.468E-03     454.909E-03    -227.441E-03     13.5773E-03    -227.496E-03     454.082E-03    -227.515E-03     12.7738E-03
            2097     13.6501E-03     29.2104E-03    -6.59705E+06     62.9629E+06     82.3960E+06    -651.204E+03    -225.429E-03     451.304E-03    -225.875E-03     103.742E-03    -226.734E-03     452.570E-03    -225.545E-03     93.8324E-03
            2098     12.9265E-03     29.0577E-03    -10.9079E+06     60.4873E+06     83.4042E+06    -83.9126E+03    -226.081E-03     452.103E-03    -226.022E-03     113.612E-03    -227.630E-03     453.586E-03    -225.677E-03     102.649E-03
            2099     12.2057E-03     28.8974E-03    -11.8256E+06     58.1188E+06     84.6875E+06    -173.405E+03    -225.830E-03     452.037E-03    -226.207E-03     122.744E-03    -227.435E-03     453.561E-03    -225.851E-03     111.984E-03
            2100     11.4856E-03     28.7106E-03    -16.6901E+06     44.0469E+06     77.4719E+06    -1.38958E+06    -226.038E-03     452.463E-03    -226.425E-03     123.583E-03    -227.559E-03     453.857E-03    -226.078E-03     113.357E-03
            2101     10.7656E-03     28.5407E-03    -24.7506E+06     31.6107E+06     67.1062E+06    -2.20573E+06    -226.406E-03     453.047E-03    -226.640E-03     119.455E-03    -227.815E-03     454.285E-03    -226.315E-03     109.831E-03
            2102     10.0447E-03     28.3702E-03    -29.5891E+06     31.8084E+06     59.2359E+06    -219.217E+03    -227.364E-03     454.188E-03    -226.824E-03     118.079E-03    -228.685E-03     455.345E-03    -226.531E-03     109.100E-03
            2103     9.32865E-03     28.2039E-03    -33.2455E+06     31.2018E+06     51.5869E+06     2.83935E+06    -228.792E-03     455.737E-03    -226.946E-03     114.651E-03    -229.994E-03     456.783E-03    -226.685E-03     106.434E-03
            2104     8.61047E-03     28.0404E-03    -41.8464E+06     14.8919E+06     39.6496E+06     3.12919E+06    -229.440E-03     456.437E-03    -226.997E-03     108.886E-03    -230.523E-03     457.310E-03    -226.760E-03     101.313E-03
            2105     7.89217E-03     27.8916E-03    -49.9532E+06    -11.8805E+06     27.7362E+06     75.5425E+03    -228.978E-03     456.017E-03    -227.039E-03     102.368E-03    -229.948E-03     456.688E-03    -226.811E-03     95.2269E-03
            2106     7.17348E-03     27.7461E-03    -55.3513E+06    -39.5580E+06     17.1831E+06    -783.452E+03    -227.830E-03     454.971E-03    -227.141E-03     95.2642E-03    -228.651E-03     455.406E-03    -226.917E-03     88.8853E-03
            2107     6.45264E-03     27.6062E-03    -62.8857E+06    -66.3951E+06     3.98810E+06     93.8989E+03    -227.299E-03     454.603E-03    -227.305E-03     87.0137E-03    -227.993E-03     454.827E-03    -227.098E-03     81.2913E-03
            2108     5.73429E-03     27.4876E-03    -68.9140E+06    -87.2439E+06    -8.07934E+06     1.68562E+06    -227.894E-03     455.340E-03    -227.447E-03     77.8691E-03    -228.492E-03     455.408E-03    -227.261E-03     72.5874E-03
            2109     5.01797E-03     27.3813E-03    -77.4211E+06    -111.103E+06    -23.6281E+06     4.48380E+06    -228.157E-03     455.668E-03    -227.512E-03     69.8979E-03    -228.641E-03     455.552E-03    -227.357E-03     65.5077E-03
            2110     4.30285E-03     27.2790E-03    -90.7474E+06    -145.425E+06    -45.1499E+06     2.19036E+06    -228.121E-03     455.654E-03    -227.533E-03     61.7908E-03    -228.533E-03     455.358E-03    -227.416E-03     57.7541E-03
            2111     3.58529E-03     27.2010E-03    -102.701E+06    -170.477E+06    -64.9208E+06     112.924E+03    -228.350E-03     455.835E-03    -227.484E-03     53.1360E-03    -228.705E-03     455.408E-03    -227.413E-03     49.4662E-03
            2112     2.86750E-03     27.1322E-03    -105.757E+06    -180.308E+06    -77.4722E+06     1.34863E+06    -228.176E-03     455.544E-03    -227.369E-03     44.9567E-03    -228.443E-03     455.021E-03    -227.341E-03     42.1540E-03
            2113     2.14987E-03     27.0784E-03    -102.031E+06    -187.898E+06    -86.0873E+06     1.76162E+06    -227.468E-03     454.775E-03    -227.307E-03     33.8720E-03    -227.631E-03     454.161E-03    -227.317E-03     31.8846E-03
            2114     1.43216E-03     27.0410E-03    -109.179E+06    -203.899E+06    -103.712E+06     1.89865E+06    -227.065E-03     454.460E-03    -227.395E-03     21.6636E-03    -227.155E-03     453.746E-03    -227.459E-03     20.4585E-03
            2115     715.486E-06     27.0115E-03    -117.988E+06    -230.370E+06    -119.772E+06     918.051E+03    -227.048E-03     455.106E-03    -228.058E-03     11.2220E-03    -227.063E-03     454.283E-03    -228.151E-03     10.5627E-03
            2116     13.6441E-03     27.7217E-03    -3.75691E+06     63.8612E+06     85.7583E+06     277.856E+03    -225.349E-03     451.178E-03    -225.829E-03     101.656E-03    -226.613E-03     452.406E-03    -225.487E-03     91.9548E-03
            2117     12.9282E-03     27.5732E-03    -10.9339E+06     61.5961E+06     82.8177E+06    -2.25688E+06    -225.307E-03     451.286E-03    -225.979E-03     114.142E-03    -226.890E-03     452.809E-03    -225.638E-03     103.017E-03
            2118     12.2100E-03     27.4094E-03    -18.1496E+06     57.0113E+06     78.1512E+06    -2.72633E+06    -226.932E-03     453.067E-03    -226.135E-03     124.253E-03    -228.592E-03     454.638E-03    -225.801E-03     113.291E-03
            2119     11.4897E-03     27.2295E-03    -24.7570E+06     46.5224E+06     68.8102E+06    -1.59310E+06    -226.378E-03     452.679E-03    -226.301E-03     126.560E-03    -227.968E-03     454.146E-03    -225.988E-03     116.257E-03
            2120     10.7674E-03     27.0554E-03    -29.6893E+06     34.6466E+06     59.5847E+06    -2.90859E+06    -226.624E-03     453.129E-03    -226.506E-03     122.766E-03    -228.108E-03     454.458E-03    -226.215E-03     112.935E-03
            2121     10.0478E-03     26.8846E-03    -35.1417E+06     26.8618E+06     53.8255E+06    -4.67954E+06    -227.503E-03     454.204E-03    -226.702E-03     119.434E-03    -228.884E-03     455.400E-03    -226.420E-03     110.139E-03
            2122     9.32582E-03     26.7114E-03    -40.0372E+06     24.4684E+06     47.1065E+06    -1.37202E+06    -227.735E-03     454.602E-03    -226.868E-03     116.903E-03    -228.983E-03     455.659E-03    -226.609E-03     108.564E-03
            2123     8.60748E-03     26.5502E-03    -45.5247E+06     15.5782E+06     36.4476E+06     950.683E+03    -229.251E-03     456.220E-03    -226.970E-03     111.867E-03    -230.371E-03     457.129E-03    -226.744E-03     104.224E-03
            2124     7.89070E-03     26.3967E-03    -50.6541E+06    -7.77049E+06     26.8202E+06    -1.23496E+06    -230.688E-03     457.640E-03    -226.952E-03     104.051E-03    -231.697E-03     458.364E-03    -226.733E-03     96.6670E-03
            2125     7.17607E-03     26.2538E-03    -58.3037E+06    -39.6573E+06     16.1216E+06     149.241E+03    -229.667E-03     456.544E-03    -226.878E-03     95.0210E-03    -230.526E-03     457.009E-03    -226.655E-03     88.4209E-03
            2126     6.45854E-03     26.1233E-03    -69.5609E+06    -69.1318E+06     288.475E+03     1.25758E+06    -227.694E-03     454.574E-03    -226.880E-03     86.2167E-03    -228.417E-03     454.804E-03    -226.677E-03     80.4681E-03
            2127     5.73886E-03     25.9941E-03    -80.2670E+06    -95.5649E+06    -17.0616E+06     1.86504E+06    -227.004E-03     453.985E-03    -226.981E-03     76.5578E-03    -227.628E-03     454.034E-03    -226.811E-03     71.3505E-03
            2128     5.02190E-03     25.8879E-03     -86.288E+06    -114.751E+06    -30.2088E+06     4.68348E+06    -226.833E-03     453.965E-03    -227.132E-03     69.2653E-03    -227.348E-03     453.854E-03    -226.992E-03     64.8631E-03
            2129     4.30110E-03     25.7903E-03    -90.1033E+06    -139.082E+06    -44.0445E+06     4.42173E+06    -226.936E-03     454.244E-03    -227.309E-03     62.0093E-03    -227.344E-03     453.967E-03    -227.197E-03     58.2246E-03
            2130     3.58261E-03     25.7067E-03    -96.8087E+06    -163.524E+06    -64.1690E+06     694.629E+03    -227.783E-03     455.159E-03    -227.376E-03     50.9615E-03    -228.097E-03     454.735E-03    -227.319E-03     47.6180E-03
            2131     2.86687E-03     25.6386E-03    -101.132E+06    -177.264E+06    -79.0225E+06    -4.95578E+06    -228.217E-03     455.487E-03    -227.270E-03     40.2122E-03    -228.450E-03     454.961E-03    -227.261E-03     37.4079E-03
            2132     2.15061E-03     25.5845E-03    -114.152E+06    -195.465E+06    -95.4252E+06    -2.27984E+06    -228.045E-03     455.057E-03    -227.011E-03     29.4345E-03    -228.238E-03     454.429E-03    -227.040E-03     27.4248E-03
            2133     1.43628E-03     25.5450E-03    -120.658E+06    -206.168E+06    -108.732E+06     3.55860E+06    -227.727E-03     454.275E-03    -226.548E-03     19.5809E-03    -227.862E-03     453.573E-03    -226.618E-03     18.4098E-03
            2134     719.786E-06     25.5226E-03    -119.105E+06    -221.435E+06    -113.347E+06     4.21090E+06    -226.609E-03     452.619E-03    -226.010E-03     10.9650E-03    -226.649E-03     451.830E-03    -226.083E-03     10.3811E-03
            2135     13.6560E-03     26.2442E-03    -2.85677E+06     64.1310E+06     88.1017E+06    -176.251E+03    -224.119E-03     449.962E-03    -225.843E-03     101.695E-03    -225.361E-03     451.166E-03    -225.491E-03     92.2848E-03
            2136     12.9266E-03     26.0924E-03    -9.07645E+06     62.9225E+06     85.5494E+06     2.22206E+06    -225.574E-03     451.610E-03    -226.036E-03     120.167E-03    -227.162E-03     453.140E-03    -225.686E-03     109.394E-03
            2137     12.2048E-03     25.9167E-03    -16.0948E+06     58.2294E+06     80.3313E+06     2.21558E+06    -227.642E-03     453.820E-03    -226.178E-03     123.799E-03    -229.281E-03     455.376E-03    -225.838E-03     112.973E-03
            2138     11.4852E-03     25.7477E-03    -23.7980E+06     50.4789E+06     71.2183E+06    -306.518E+03    -226.915E-03     453.215E-03    -226.300E-03     125.013E-03    -228.532E-03     454.721E-03    -225.983E-03     114.496E-03
            2139     10.7656E-03     25.5667E-03    -31.8729E+06     38.3434E+06     57.6960E+06    -2.43336E+06    -227.542E-03     453.978E-03    -226.436E-03     124.310E-03    -229.072E-03     455.364E-03    -226.157E-03     114.328E-03
            2140     10.0481E-03     25.3940E-03    -38.1476E+06     26.6058E+06     47.4616E+06    -3.82507E+06    -228.015E-03     454.576E-03    -226.561E-03     118.954E-03    -229.424E-03     455.807E-03    -226.307E-03     109.519E-03
            2141     9.32984E-03     25.2302E-03    -45.8812E+06     19.4840E+06     40.7655E+06    -4.87477E+06    -227.873E-03     454.567E-03    -226.694E-03     115.402E-03    -229.160E-03     455.642E-03    -226.452E-03     106.781E-03
            2142     8.60838E-03     25.0580E-03    -51.9267E+06     12.3264E+06     32.8063E+06    -3.89435E+06    -228.987E-03     455.769E-03    -226.782E-03     110.026E-03    -230.157E-03     456.703E-03    -226.560E-03     102.051E-03
            2143     7.89209E-03     24.9006E-03    -58.9096E+06    -7.72187E+06     22.2642E+06    -1.19140E+06    -229.867E-03     456.634E-03    -226.768E-03     101.109E-03    -230.903E-03     457.370E-03    -226.560E-03     93.7456E-03
            2144     7.17490E-03     24.7596E-03    -67.9592E+06    -42.4819E+06     8.56999E+06    -668.486E+03    -229.862E-03     456.538E-03    -226.676E-03     93.6790E-03    -230.751E-03     457.011E-03    -226.473E-03     87.0567E-03
            2145     6.45961E-03     24.6302E-03    -75.4004E+06    -70.6921E+06    -3.99062E+06     94.7645E+03    -229.040E-03     455.615E-03    -226.575E-03     87.6278E-03    -229.792E-03     455.860E-03    -226.383E-03     81.8608E-03
            2146     5.74337E-03     24.5079E-03    -84.7788E+06    -95.3698E+06    -21.1919E+06     1.30946E+06    -227.219E-03     453.774E-03    -226.555E-03     79.0232E-03    -227.860E-03     453.837E-03    -226.400E-03     73.9382E-03
            2147     5.02118E-03     24.4009E-03    -88.1022E+06    -116.663E+06    -35.1587E+06    -116.199E+03    -226.745E-03     453.390E-03    -226.645E-03     69.4427E-03    -227.253E-03     453.274E-03    -226.524E-03     65.0728E-03
            2148     4.30449E-03     24.2993E-03    -90.1371E+06    -137.911E+06    -47.2621E+06    -1.03743E+06    -227.788E-03     454.456E-03    -226.668E-03     59.4315E-03    -228.165E-03     454.160E-03    -226.573E-03     55.8913E-03
            2149     3.58847E-03     24.2138E-03    -96.6007E+06    -159.955E+06    -61.5148E+06    -2.37460E+06    -228.034E-03     454.539E-03    -226.504E-03     47.2913E-03    -228.335E-03     454.107E-03    -226.440E-03     44.0856E-03
            2150     2.87135E-03     24.1445E-03    -106.261E+06    -179.878E+06    -78.4498E+06    -1.23512E+06    -227.091E-03     453.370E-03    -226.279E-03     37.2301E-03    -227.339E-03     452.830E-03    -226.257E-03     34.5420E-03
            2151     2.15499E-03     24.0928E-03    -116.469E+06    -196.637E+06    -97.7769E+06     1.27951E+06    -226.390E-03     452.521E-03    -226.131E-03     29.8056E-03    -226.586E-03     451.892E-03    -226.166E-03     27.9324E-03
            2152     1.43531E-03     24.0547E-03    -118.003E+06    -203.647E+06    -106.980E+06     1.13300E+06    -226.379E-03     452.399E-03    -226.020E-03     21.1387E-03    -226.508E-03     451.704E-03    -226.089E-03     19.9075E-03
            2153     717.318E-06     24.0329E-03    -117.363E+06    -214.935E+06    -113.192E+06     836.301E+03    -226.444E-03     451.989E-03    -225.545E-03     11.4037E-03    -226.482E-03     451.225E-03    -225.629E-03     10.7687E-03
            2154     13.6383E-03     24.7668E-03    -4.90000E+06     61.6113E+06     83.1227E+06     2.00088E+06    -224.456E-03     450.428E-03    -225.972E-03     103.543E-03    -225.727E-03     451.659E-03    -225.639E-03     94.1117E-03
            2155     12.9239E-03     24.6011E-03    -12.2574E+06     59.8706E+06     82.0801E+06     2.23921E+06    -228.309E-03     454.407E-03    -226.099E-03     120.879E-03    -229.942E-03     455.972E-03    -225.757E-03     109.781E-03
            2156     12.2093E-03     24.4287E-03    -16.1230E+06     61.5274E+06     83.9105E+06     1.07508E+06    -228.712E-03     454.855E-03    -226.143E-03     119.664E-03    -230.356E-03     456.417E-03    -225.790E-03     108.609E-03
            2157     11.4901E-03     24.2632E-03    -20.0444E+06     53.3504E+06     77.8545E+06     631.363E+03    -228.115E-03     454.292E-03    -226.177E-03     121.074E-03    -229.730E-03     455.800E-03    -225.836E-03     110.333E-03
            2158     10.7700E-03     24.0802E-03    -25.3936E+06     39.9149E+06     65.3763E+06    -12.9217E+03    -227.938E-03     454.170E-03    -226.232E-03     120.927E-03    -229.414E-03     455.508E-03    -225.926E-03     111.058E-03
            2159     10.0491E-03     23.9059E-03    -33.7273E+06     29.3336E+06     52.0939E+06    -85.0230E+03    -228.617E-03     454.889E-03    -226.272E-03     115.333E-03    -229.974E-03     456.079E-03    -226.005E-03     106.099E-03
            2160     9.33064E-03     23.7390E-03    -43.0194E+06     21.3926E+06     42.4534E+06    -1.92199E+06    -229.889E-03     456.132E-03    -226.243E-03     110.935E-03    -231.128E-03     457.172E-03    -225.999E-03     102.429E-03
            2161     8.61623E-03     23.5699E-03    -51.1870E+06     12.6973E+06     34.3137E+06    -1.62477E+06    -228.734E-03     454.935E-03    -226.201E-03     106.339E-03    -229.868E-03     455.833E-03    -225.974E-03     98.5626E-03
            2162     7.89670E-03     23.4101E-03    -58.9269E+06    -8.90530E+06     23.6753E+06     19.2758E+03    -227.233E-03     453.485E-03    -226.252E-03     98.4981E-03    -228.235E-03     454.178E-03    -226.036E-03     91.4468E-03
            2163     7.17816E-03     23.2703E-03    -66.9499E+06    -42.4761E+06     8.92501E+06     384.934E+03    -227.496E-03     453.833E-03    -226.337E-03     91.5860E-03    -228.336E-03     454.259E-03    -226.133E-03     85.4045E-03
            2164     6.45937E-03     23.1356E-03    -74.4816E+06    -73.3256E+06    -6.86474E+06    -763.089E+03    -228.468E-03     454.802E-03    -226.334E-03     85.3572E-03    -229.172E-03     455.001E-03    -226.154E-03     79.8955E-03
            2165     5.74060E-03     23.0203E-03    -78.2918E+06    -93.3042E+06    -18.2567E+06    -2.80932E+06    -229.414E-03     455.587E-03    -226.173E-03     76.0981E-03    -230.011E-03     455.628E-03    -226.015E-03     71.0347E-03
            2166     5.02690E-03     22.9090E-03    -85.6179E+06    -114.959E+06    -34.5800E+06    -3.89698E+06    -229.483E-03     455.304E-03    -225.821E-03     65.6695E-03    -229.967E-03     455.177E-03    -225.703E-03     61.2578E-03
            2167     4.30965E-03     22.8091E-03    -95.1286E+06    -141.224E+06    -51.4402E+06    -2.76540E+06    -228.103E-03     453.529E-03    -225.426E-03     56.2109E-03    -228.491E-03     453.228E-03    -225.341E-03     52.5916E-03
            2168     3.59303E-03     22.7202E-03    -102.721E+06    -164.473E+06    -66.2033E+06    -1.06908E+06    -226.209E-03     451.372E-03    -225.163E-03     46.3096E-03    -226.527E-03     450.933E-03    -225.106E-03     43.1830E-03
            2169     2.87538E-03     22.6601E-03    -110.119E+06    -184.244E+06    -83.4005E+06    -1.53814E+06    -225.029E-03     450.115E-03    -225.086E-03     37.4048E-03    -225.284E-03     449.567E-03    -225.076E-03     34.7703E-03
            2170     2.15329E-03     22.6056E-03    -107.916E+06    -190.047E+06    -92.0384E+06    -1.72199E+06    -224.695E-03     449.892E-03    -225.196E-03     29.2255E-03    -224.864E-03     449.272E-03    -225.224E-03     27.3630E-03
            2171     1.43598E-03     22.5662E-03    -113.752E+06    -202.466E+06    -106.024E+06    -2.98838E+06    -224.855E-03     450.292E-03    -225.437E-03     19.3800E-03    -224.960E-03     449.589E-03    -225.508E-03     18.1703E-03
            2172     717.816E-06     22.5434E-03    -123.171E+06    -221.665E+06    -121.016E+06    -2.73118E+06    -225.350E-03     451.251E-03    -225.900E-03     10.0674E-03    -225.399E-03     450.474E-03    -226.005E-03     9.36637E-03
            2173     13.6486E-03     23.2817E-03    -5.23330E+06     62.0873E+06     84.1558E+06     2.28012E+06    -228.512E-03     454.472E-03    -225.960E-03     99.2042E-03    -229.792E-03     455.709E-03    -225.622E-03     89.3664E-03
            2174     12.9286E-03     23.1061E-03    -7.46326E+06     63.7517E+06     87.6865E+06     2.33912E+06    -228.800E-03     454.748E-03    -225.948E-03     114.837E-03    -230.403E-03     456.296E-03    -225.591E-03     103.573E-03
            2175     12.2081E-03     22.9425E-03    -13.4962E+06     62.1879E+06     85.3934E+06     555.903E+03    -227.627E-03     453.600E-03    -225.973E-03     118.873E-03    -229.258E-03     455.156E-03    -225.616E-03     107.862E-03
            2176     11.4910E-03     22.7701E-03    -20.4054E+06     52.8745E+06     75.6469E+06     124.727E+03    -229.148E-03     455.135E-03    -225.988E-03     123.716E-03    -230.793E-03     456.676E-03    -225.656E-03     112.895E-03
            2177     10.7748E-03     22.5955E-03    -27.0905E+06     38.9390E+06     63.6060E+06     794.741E+03    -229.707E-03     455.661E-03    -225.954E-03     122.922E-03    -231.208E-03     457.020E-03    -225.654E-03     113.010E-03
            2178     10.0567E-03     22.4199E-03    -32.7204E+06     30.6984E+06     55.5267E+06     1.44437E+06    -230.326E-03     456.215E-03    -225.889E-03     119.078E-03    -231.689E-03     457.410E-03    -225.608E-03     109.964E-03
            2179     9.34178E-03     22.2443E-03    -39.1200E+06     24.1756E+06     46.2163E+06     1.68534E+06    -231.102E-03     456.839E-03    -225.737E-03     113.215E-03    -232.314E-03     457.864E-03    -225.484E-03     104.977E-03
            2180     8.62311E-03     22.0838E-03    -44.8907E+06     13.6538E+06     38.1945E+06     884.258E+03    -229.526E-03     455.110E-03    -225.584E-03     106.558E-03    -230.615E-03     455.977E-03    -225.348E-03     98.9976E-03
            2181     7.90303E-03     21.9276E-03    -53.2011E+06    -11.7508E+06     27.2535E+06     506.760E+03    -227.563E-03     453.099E-03    -225.536E-03     97.6370E-03    -228.519E-03     453.746E-03    -225.306E-03     90.7321E-03
            2182     7.18217E-03     21.7826E-03    -59.6079E+06    -41.8321E+06     14.5934E+06     1.99673E+06    -227.545E-03     453.060E-03    -225.515E-03     86.7073E-03    -228.319E-03     453.432E-03    -225.295E-03     80.7280E-03
            2183     6.46267E-03     21.6501E-03    -64.4885E+06    -66.3090E+06     1.22516E+06     563.427E+03    -228.718E-03     454.070E-03    -225.351E-03     76.4905E-03    -229.348E-03     454.232E-03    -225.155E-03     71.1610E-03
            2184     5.74823E-03     21.5226E-03    -75.1922E+06    -94.5383E+06    -16.7569E+06    -3.82239E+06    -229.807E-03     454.750E-03    -224.943E-03     67.1578E-03    -230.344E-03     454.733E-03    -224.781E-03     62.2362E-03
            2185     5.03345E-03     21.4157E-03    -86.6240E+06    -119.762E+06    -32.9264E+06    -3.82382E+06    -229.401E-03     453.745E-03    -224.344E-03     59.3385E-03    -229.861E-03     453.567E-03    -224.210E-03     55.0489E-03
            2186     4.31932E-03     21.3206E-03    -91.0115E+06    -140.373E+06    -44.9127E+06    -146.471E+03    -226.381E-03     450.208E-03    -223.827E-03     51.8196E-03    -226.746E-03     449.882E-03    -223.716E-03     48.3256E-03
            2187     3.59818E-03     21.2409E-03    -95.4541E+06    -160.790E+06    -61.4979E+06     741.036E+03    -223.845E-03     447.458E-03    -223.613E-03     43.5624E-03    -224.119E-03     447.001E-03    -223.549E-03     40.7876E-03
            2188     2.87606E-03     21.1741E-03    -105.926E+06    -182.315E+06    -81.8476E+06    -1.59392E+06    -224.108E-03     447.621E-03    -223.513E-03     34.2090E-03    -224.327E-03     447.055E-03    -223.504E-03     31.9033E-03
            2189     2.16059E-03     21.1221E-03    -111.390E+06    -195.208E+06    -94.9234E+06    -3.30951E+06    -224.064E-03     447.370E-03    -223.306E-03     24.9607E-03    -224.230E-03     446.726E-03    -223.336E-03     23.1349E-03
            2190     1.43901E-03     21.0823E-03    -115.887E+06    -204.523E+06    -108.626E+06    -2.03394E+06    -223.173E-03     446.322E-03    -223.150E-03     16.2593E-03    -223.277E-03     445.611E-03    -223.228E-03     15.0586E-03
            2191     718.868E-06     21.0576E-03    -124.475E+06    -227.797E+06    -121.883E+06    -2.37781E+06    -222.875E-03     446.346E-03    -223.471E-03     8.17726E-03    -222.920E-03     445.540E-03    -223.569E-03     7.50798E-03
            2192     13.6469E-03     21.7766E-03    -6.43206E+06     59.9418E+06     83.6214E+06    -2.25413E+06    -228.824E-03     454.650E-03    -225.826E-03     104.172E-03    -230.167E-03     455.940E-03    -225.486E-03     94.0657E-03
            2193     12.9350E-03     21.6247E-03    -7.29877E+06     62.1172E+06     87.4426E+06    -456.614E+03    -229.112E-03     454.915E-03    -225.803E-03     118.103E-03    -230.751E-03     456.495E-03    -225.445E-03     106.751E-03
            2194     12.2130E-03     21.4604E-03    -11.8429E+06     62.7514E+06     86.4866E+06     2.91765E+06    -228.220E-03     454.024E-03    -225.804E-03     119.696E-03    -229.826E-03     455.561E-03    -225.446E-03     108.906E-03
            2195     11.4914E-03     21.2795E-03    -18.3184E+06     52.7868E+06     76.9717E+06     3.09248E+06    -228.824E-03     454.628E-03    -225.803E-03     122.056E-03    -230.413E-03     456.116E-03    -225.468E-03     111.551E-03
            2196     10.7725E-03     21.1043E-03    -24.8617E+06     38.4032E+06     64.1814E+06     3.75876E+06    -230.525E-03     456.256E-03    -225.731E-03     121.602E-03    -232.001E-03     457.594E-03    -225.429E-03     111.756E-03
            2197     10.0567E-03     20.9270E-03    -31.6724E+06     31.6102E+06     53.0769E+06     819.851E+03    -231.645E-03     457.200E-03    -225.555E-03     119.651E-03    -232.998E-03     458.399E-03    -225.290E-03     110.528E-03
            2198     9.33808E-03     20.7527E-03    -37.1032E+06     27.2282E+06     47.6493E+06     1.05012E+06    -231.837E-03     457.154E-03    -225.317E-03     112.769E-03    -233.041E-03     458.185E-03    -225.065E-03     104.525E-03
            2199     8.62314E-03     20.5917E-03    -45.2714E+06     13.6951E+06     38.5247E+06     2.08209E+06    -231.826E-03     456.815E-03    -224.988E-03     102.589E-03    -232.900E-03     457.664E-03    -224.750E-03     94.9917E-03
            2200     7.90913E-03     20.4401E-03    -52.2798E+06    -13.0088E+06     26.2617E+06    -508.968E+03    -231.308E-03     455.879E-03    -224.571E-03     92.5204E-03    -232.222E-03     456.486E-03    -224.345E-03     85.6252E-03
            2201     7.19448E-03     20.2967E-03    -58.1288E+06    -41.8434E+06     17.3737E+06    -1.29416E+06    -231.083E-03     455.155E-03    -224.072E-03     82.2923E-03    -231.836E-03     455.504E-03    -223.840E-03     76.1776E-03
            2202     6.48174E-03     20.1586E-03    -66.0342E+06    -64.9450E+06     4.74233E+06     1.05992E+06    -230.333E-03     453.766E-03    -223.432E-03     71.3298E-03    -230.951E-03     453.905E-03    -223.219E-03     66.0800E-03
            2203     5.76405E-03     20.0386E-03    -73.1605E+06    -90.0436E+06    -12.4512E+06     1.39056E+06    -228.108E-03     450.863E-03    -222.755E-03     61.9131E-03    -228.601E-03     450.812E-03    -222.581E-03     57.4995E-03
            2204     5.04537E-03     19.9274E-03    -76.6565E+06    -116.339E+06    -25.0915E+06    -880.862E+03    -225.684E-03     447.897E-03    -222.213E-03     53.8830E-03    -226.075E-03     447.674E-03    -222.058E-03     49.9943E-03
            2205     4.32459E-03     19.8392E-03    -85.9741E+06    -140.843E+06    -41.3163E+06    -3.01375E+06    -224.196E-03     445.972E-03    -221.776E-03     46.1620E-03    -224.516E-03     445.607E-03    -221.653E-03     42.8037E-03
            2206     3.60517E-03     19.7647E-03    -97.0369E+06    -162.556E+06    -58.7778E+06    -2.70838E+06    -223.594E-03     444.932E-03    -221.338E-03     38.7245E-03    -223.860E-03     444.448E-03    -221.255E-03     35.9646E-03
            2207     2.88721E-03     19.6921E-03    -101.628E+06    -178.399E+06    -71.8937E+06     1.60501E+06    -222.683E-03     443.541E-03    -220.858E-03     29.6238E-03    -222.886E-03     442.958E-03    -220.811E-03     27.5095E-03
            2208     2.16461E-03     19.6427E-03    -115.403E+06    -201.129E+06    -96.4178E+06     822.384E+03    -221.775E-03     442.087E-03    -220.312E-03     21.5131E-03    -221.938E-03     441.408E-03    -220.335E-03     19.8844E-03
            2209     1.44580E-03     19.6067E-03    -118.336E+06    -209.329E+06    -107.501E+06    -688.216E+03    -220.850E-03     440.606E-03    -219.755E-03     14.8337E-03    -220.954E-03     439.864E-03    -219.818E-03     13.6760E-03
            2210     723.848E-06     19.5823E-03    -114.343E+06    -220.960E+06    -111.484E+06     860.041E+03    -219.882E-03     439.025E-03    -219.143E-03     7.96068E-03    -219.897E-03     438.218E-03    -219.214E-03     7.39136E-03
            2211     13.6488E-03     20.2953E-03    -2.99091E+06     60.1331E+06     83.0387E+06     131.830E+03    -226.220E-03     452.075E-03    -225.855E-03     109.309E-03    -227.561E-03     453.378E-03    -225.522E-03     99.4633E-03
            2212     12.9236E-03     20.1269E-03    -12.1164E+06     57.6926E+06     80.0250E+06    -3.14281E+06    -230.362E-03     456.230E-03    -225.868E-03     120.866E-03    -232.072E-03     457.870E-03    -225.534E-03     109.123E-03
            2213     12.2137E-03     19.9678E-03    -17.0494E+06     60.1946E+06     81.9860E+06    -2.84863E+06    -232.201E-03     457.937E-03    -225.736E-03     121.004E-03    -233.884E-03     459.536E-03    -225.389E-03     109.640E-03
            2214     11.4984E-03     19.7969E-03    -18.5741E+06     49.5456E+06     78.5267E+06     347.678E+03    -231.883E-03     457.420E-03    -225.538E-03     121.684E-03    -233.454E-03     458.874E-03    -225.190E-03     111.151E-03
            2215     10.7801E-03     19.6140E-03    -21.5698E+06     37.7670E+06     70.4055E+06     2.88284E+06    -232.254E-03     457.547E-03    -225.293E-03     117.713E-03    -233.668E-03     458.814E-03    -224.964E-03     108.009E-03
            2216     10.0631E-03     19.4358E-03    -27.9744E+06     34.3217E+06     59.6981E+06     4.78606E+06    -233.067E-03     458.001E-03    -224.933E-03     111.361E-03    -234.339E-03     459.122E-03    -224.644E-03     102.463E-03
            2217     9.34937E-03     19.2632E-03    -37.4786E+06     26.6882E+06     47.2417E+06     4.04903E+06    -233.497E-03     457.941E-03    -224.444E-03     102.992E-03    -234.633E-03     458.902E-03    -224.192E-03     94.8637E-03
            2218     8.63460E-03     19.0970E-03    -45.3893E+06     17.1350E+06     39.9550E+06     1.15266E+06    -233.770E-03     457.596E-03    -223.826E-03     92.5145E-03    -234.790E-03     458.401E-03    -223.585E-03     84.9409E-03
            2219     7.92057E-03     18.9487E-03    -51.8133E+06    -5.93273E+06     30.3358E+06    -84.7382E+03    -233.803E-03     456.843E-03    -223.040E-03     83.4509E-03    -234.673E-03     457.420E-03    -222.804E-03     76.6642E-03
            2220     7.20777E-03     18.8032E-03    -59.7816E+06    -40.7035E+06     15.2965E+06    -2.10540E+06    -232.728E-03     454.838E-03    -222.110E-03     76.6400E-03    -233.446E-03     455.156E-03    -221.888E-03     70.6942E-03
            2221     6.49244E-03     18.6713E-03    -65.8283E+06    -68.4655E+06     3.56774E+06    -3.61769E+06    -230.498E-03     451.634E-03    -221.136E-03     67.8053E-03    -231.085E-03     451.735E-03    -220.924E-03     62.6402E-03
            2222     5.77794E-03     18.5559E-03    -69.3306E+06    -88.1435E+06    -5.49721E+06    -1.03114E+06    -227.165E-03     447.395E-03    -220.230E-03     57.7748E-03    -227.641E-03     447.329E-03    -220.029E-03     53.3397E-03
            2223     5.05890E-03     18.4535E-03    -75.6676E+06    -112.658E+06    -20.8278E+06     1.13329E+06    -223.688E-03     443.180E-03    -219.492E-03     48.1738E-03    -224.068E-03     442.952E-03    -219.323E-03     44.3749E-03
            2224     4.33743E-03     18.3664E-03    -86.7651E+06    -142.029E+06    -41.2018E+06    -639.634E+03    -222.723E-03     441.548E-03    -218.824E-03     39.9771E-03    -223.026E-03     441.157E-03    -218.699E-03     36.8053E-03
            2225     3.61864E-03     18.2835E-03    -96.3296E+06    -165.191E+06    -58.8783E+06    -2.78878E+06    -221.969E-03     440.019E-03    -218.050E-03     32.5978E-03    -222.215E-03     439.507E-03    -217.965E-03     29.8819E-03
            2226     2.89697E-03     18.2248E-03    -102.832E+06    -182.810E+06    -73.1433E+06    -1.87570E+06    -219.455E-03     436.787E-03    -217.332E-03     26.1600E-03    -219.649E-03     436.179E-03    -217.283E-03     24.0206E-03
            2227     2.17445E-03     18.1734E-03    -109.519E+06    -198.004E+06    -88.8411E+06     509.508E+03    -217.700E-03     434.559E-03    -216.858E-03     20.0723E-03    -217.837E-03     433.863E-03    -216.857E-03     18.6302E-03
            2228     1.44920E-03     18.1387E-03    -115.190E+06    -211.266E+06    -103.741E+06    -164.414E+03    -216.982E-03     433.544E-03    -216.561E-03     14.3137E-03    -217.066E-03     432.774E-03    -216.607E-03     13.3146E-03
            2229     724.749E-06     18.1193E-03    -115.868E+06    -224.515E+06    -111.110E+06     754.960E+03    -216.522E-03     432.961E-03    -216.440E-03     9.07073E-03    -216.539E-03     432.140E-03    -216.502E-03     8.53928E-03
            2230     13.6432E-03     18.8111E-03    -2.67809E+06     61.6230E+06     84.4260E+06     852.268E+03    -227.167E-03     453.012E-03    -225.845E-03     106.542E-03    -228.489E-03     454.299E-03    -225.509E-03     96.6722E-03
            2231     12.9310E-03     18.6346E-03    -6.64824E+06     64.1142E+06     85.7479E+06     1.20620E+06    -229.505E-03     455.361E-03    -225.856E-03     119.319E-03    -231.176E-03     456.987E-03    -225.511E-03     107.795E-03
            2232     12.2103E-03     18.4705E-03    -15.7285E+06     61.0587E+06     81.3891E+06    -1.29854E+06    -233.810E-03     459.486E-03    -225.676E-03     120.112E-03    -235.505E-03     461.106E-03    -225.335E-03     108.546E-03
            2233     11.4977E-03     18.2975E-03    -24.6470E+06     44.0151E+06     70.3656E+06    -3.47949E+06    -237.338E-03     462.563E-03    -225.225E-03     120.344E-03    -238.943E-03     464.032E-03    -224.901E-03     109.350E-03
            2234     10.7875E-03     18.1223E-03    -28.8992E+06     32.9704E+06     63.6250E+06    -2.52785E+06    -238.145E-03     462.726E-03    -224.580E-03     115.443E-03    -239.554E-03     463.965E-03    -224.268E-03     105.562E-03
            2235     10.0757E-03     17.9416E-03    -33.2978E+06     31.1609E+06     59.5938E+06     1.50262E+06    -237.689E-03     461.494E-03    -223.805E-03     105.875E-03    -238.936E-03     462.561E-03    -223.504E-03     96.9379E-03
            2236     9.36291E-03     17.7696E-03    -35.8143E+06     28.1877E+06     52.4782E+06     2.68431E+06    -236.513E-03     459.420E-03    -222.907E-03     95.6487E-03    -237.598E-03     460.326E-03    -222.633E-03     87.5717E-03
            2237     8.65126E-03     17.6058E-03    -39.6633E+06     22.1369E+06     44.8914E+06     1.73021E+06    -235.373E-03     457.283E-03    -221.911E-03     85.3013E-03    -236.317E-03     458.036E-03    -221.661E-03     77.9744E-03
            2238     7.93985E-03     17.4559E-03    -46.2396E+06    -3.15395E+06     34.4296E+06    -535.120E+03    -234.541E-03     455.338E-03    -220.796E-03     75.7035E-03    -235.345E-03     455.866E-03    -220.553E-03     69.0481E-03
            2239     7.22672E-03     17.3169E-03    -51.5285E+06    -35.6425E+06     22.1345E+06    -1.55286E+06    -232.319E-03     451.895E-03    -219.576E-03     66.8100E-03    -232.973E-03     452.176E-03    -219.339E-03     60.9474E-03
            2240     6.51182E-03     17.1901E-03    -60.6683E+06    -66.7712E+06     7.72259E+06    -2.31977E+06    -228.449E-03     446.839E-03    -218.390E-03     58.0851E-03    -228.987E-03     446.903E-03    -218.167E-03     53.0147E-03
            2241     5.79414E-03     17.0758E-03    -72.9205E+06    -94.7493E+06    -8.66487E+06    -2.51417E+06    -225.323E-03     442.631E-03    -217.308E-03     50.2101E-03    -225.785E-03     442.522E-03    -217.108E-03     45.7462E-03
            2242     5.07541E-03     16.9862E-03    -83.8177E+06    -116.997E+06    -25.1711E+06    -246.747E+03    -223.849E-03     440.060E-03    -216.211E-03     42.7859E-03    -224.238E-03     439.809E-03    -216.045E-03     39.1040E-03
            2243     4.35640E-03     16.8941E-03    -87.4596E+06    -138.674E+06    -39.7296E+06     1.82286E+06    -221.580E-03     436.635E-03    -215.055E-03     35.2119E-03    -221.871E-03     436.239E-03    -214.926E-03     32.3780E-03
            2244     3.63341E-03     16.8215E-03    -91.6452E+06    -161.823E+06    -58.0435E+06     947.875E+03    -218.097E-03     432.105E-03    -214.009E-03     27.1056E-03    -218.308E-03     431.584E-03    -213.931E-03     24.7663E-03
            2245     2.90813E-03     16.7640E-03    -100.867E+06    -185.484E+06    -78.0429E+06    -2.72597E+06    -215.609E-03     428.811E-03    -213.201E-03     21.2351E-03    -215.768E-03     428.180E-03    -213.176E-03     19.2483E-03
            2246     2.18137E-03     16.7170E-03    -102.095E+06    -194.760E+06    -86.7094E+06    -3.80893E+06    -213.759E-03     426.406E-03    -212.647E-03     15.6960E-03    -213.861E-03     425.707E-03    -212.650E-03     14.2040E-03
            2247     1.45389E-03     16.6844E-03    -111.481E+06    -210.045E+06    -103.662E+06    -2.63499E+06    -212.522E-03     424.859E-03    -212.337E-03     9.63515E-03    -212.596E-03     424.095E-03    -212.389E-03     8.63209E-03
            2248     726.108E-06     16.6608E-03    -125.046E+06    -236.821E+06    -123.413E+06    -3.14939E+06    -212.038E-03     424.515E-03    -212.477E-03     5.12041E-03    -212.076E-03     423.675E-03    -212.569E-03     4.45719E-03
            2249     13.6552E-03     17.3182E-03    -5.05586E+06     60.8385E+06     83.2260E+06    -2.08179E+06    -229.353E-03     455.077E-03    -225.724E-03     106.820E-03    -230.734E-03     456.415E-03    -225.389E-03     96.4971E-03
            2250     12.9295E-03     17.1549E-03    -8.62885E+06     62.1118E+06     84.8378E+06     784.288E+03    -231.589E-03     457.203E-03    -225.615E-03     120.365E-03    -233.241E-03     458.799E-03    -225.268E-03     109.034E-03
            2251     12.2146E-03     16.9702E-03    -12.2063E+06     63.0532E+06     84.4933E+06     3.43832E+06    -236.297E-03     461.584E-03    -225.287E-03     116.415E-03    -237.912E-03     463.135E-03    -224.939E-03     105.123E-03
            2252     11.5039E-03     16.7958E-03    -18.1807E+06     48.6563E+06     74.5635E+06     897.184E+03    -240.763E-03     465.354E-03    -224.591E-03     111.689E-03    -242.308E-03     466.791E-03    -224.262E-03     100.458E-03
            2253     10.7955E-03     16.6152E-03    -27.4261E+06     32.3028E+06     62.1554E+06    -1.80326E+06    -243.077E-03     466.638E-03    -223.561E-03     107.170E-03    -244.451E-03     467.849E-03    -223.257E-03     96.9324E-03
            2254     10.0906E-03     16.4414E-03    -34.2342E+06     29.3515E+06     56.0542E+06    -4.48594E+06    -242.500E-03     464.816E-03    -222.316E-03     99.0833E-03    -243.721E-03     465.858E-03    -222.029E-03     89.8178E-03
            2255     9.38392E-03     16.2744E-03    -35.9488E+06     28.6807E+06     53.8441E+06    -4.89329E+06    -240.364E-03     461.320E-03    -220.957E-03     89.4308E-03    -241.422E-03     462.198E-03    -220.677E-03     81.1714E-03
            2256     8.67359E-03     16.1154E-03    -39.9002E+06     22.7977E+06     46.3456E+06    -3.20319E+06    -238.046E-03     457.538E-03    -219.493E-03     78.5468E-03    -238.949E-03     458.248E-03    -219.236E-03     71.2660E-03
            2257     7.96149E-03     15.9674E-03    -46.9620E+06    -3.46114E+06     33.6949E+06    -4.11992E+06    -235.262E-03     453.217E-03    -217.955E-03     67.5126E-03    -236.022E-03     453.702E-03    -217.714E-03     60.9777E-03
            2258     7.25004E-03     15.8324E-03    -55.5823E+06    -38.3903E+06     21.6638E+06    -1.37418E+06    -231.247E-03     447.679E-03    -216.431E-03     57.9357E-03    -231.886E-03     447.921E-03    -216.187E-03     52.1639E-03
            2259     6.53532E-03     15.7162E-03    -63.9259E+06    -67.1249E+06     6.84719E+06     2.38567E+06    -226.637E-03     441.635E-03    -214.998E-03     49.4748E-03    -227.158E-03     441.671E-03    -214.773E-03     44.6330E-03
            2260     5.81396E-03     15.6133E-03    -69.9244E+06    -92.1741E+06    -9.57025E+06     1.05480E+06    -223.747E-03     437.384E-03    -213.636E-03     41.7661E-03    -224.154E-03     437.243E-03    -213.449E-03     37.7182E-03
            2261     5.09363E-03     15.5135E-03    -79.7951E+06    -118.157E+06    -26.5439E+06    -1.71265E+06    -221.886E-03     434.105E-03    -212.219E-03     34.4595E-03    -222.220E-03     433.813E-03    -212.065E-03     30.9806E-03
            2262     4.37421E-03     15.4347E-03    -89.7971E+06    -140.853E+06    -42.2614E+06    -1.33903E+06    -218.421E-03     429.211E-03    -210.790E-03     27.9758E-03    -218.705E-03     428.798E-03    -210.667E-03     25.0791E-03
            2263     3.64956E-03     15.3704E-03    -91.5770E+06    -156.291E+06    -54.0074E+06     3.01519E+06    -214.736E-03     424.261E-03    -209.525E-03     21.9798E-03    -214.948E-03     423.750E-03    -209.436E-03     19.7385E-03
            2264     2.92302E-03     15.3149E-03    -99.3233E+06    -180.312E+06    -75.2492E+06     2.63673E+06    -212.154E-03     420.557E-03    -208.403E-03     16.2912E-03    -212.307E-03     419.935E-03    -208.374E-03     14.4723E-03
            2265     2.19512E-03     15.2737E-03    -112.054E+06    -203.281E+06    -96.5008E+06    -1.56841E+06    -209.896E-03     417.293E-03    -207.398E-03     11.3311E-03    -210.020E-03     416.579E-03    -207.423E-03     9.84807E-03
            2266     1.46560E-03     15.2410E-03    -117.194E+06    -213.680E+06    -105.563E+06    -261.078E+03    -207.954E-03     414.505E-03    -206.551E-03     7.15026E-03    -208.049E-03     413.734E-03    -206.599E-03     6.22514E-03
            2267     734.423E-06     15.2234E-03    -125.068E+06    -233.583E+06    -120.644E+06     2.16162E+06    -206.429E-03     412.289E-03    -205.860E-03     3.87765E-03    -206.476E-03     411.460E-03    -205.943E-03     3.41198E-03
            2268     13.6444E-03     15.8327E-03    -5.52264E+06     60.8114E+06     82.3853E+06    -476.227E+03    -233.165E-03     458.771E-03    -225.606E-03     107.647E-03    -234.593E-03     460.156E-03    -225.274E-03     96.9264E-03
            2269     12.9369E-03     15.6549E-03    -12.4084E+06     59.1400E+06     80.9460E+06    -672.870E+03    -238.827E-03     463.995E-03    -225.168E-03     118.549E-03    -240.534E-03     465.633E-03    -224.831E-03     106.541E-03
            2270     12.2281E-03     15.4722E-03    -15.0843E+06     60.8521E+06     83.6364E+06    -2.42887E+06    -242.124E-03     466.553E-03    -224.429E-03     112.529E-03    -243.725E-03     468.075E-03    -224.077E-03     100.955E-03
            2271     11.5198E-03     15.2896E-03    -19.6017E+06     49.5150E+06      77.382E+06    -1.19278E+06    -244.669E-03     468.031E-03    -223.362E-03     105.351E-03    -246.164E-03     469.409E-03    -223.019E-03     94.1460E-03
            2272     10.8150E-03     15.1099E-03    -23.1263E+06     37.6460E+06     67.7815E+06    -879.975E+03    -245.761E-03     467.748E-03    -221.986E-03     97.4193E-03    -247.072E-03     468.915E-03    -221.669E-03     87.1162E-03
            2273     10.1083E-03     14.9363E-03    -26.3104E+06     35.8511E+06     62.1850E+06    -3.07631E+06    -244.853E-03     465.241E-03    -220.388E-03     88.6696E-03    -245.994E-03     466.236E-03    -220.090E-03     79.4063E-03
            2274     9.40198E-03     14.7754E-03    -35.3333E+06     29.0570E+06     52.0526E+06    -5.33851E+06    -243.235E-03     461.837E-03    -218.603E-03     79.9426E-03    -244.245E-03     462.675E-03    -218.333E-03     71.5932E-03
            2275     8.69703E-03     14.6215E-03    -44.7428E+06     18.1163E+06     42.7302E+06    -5.63596E+06    -240.109E-03     456.807E-03    -216.698E-03     70.5376E-03    -240.996E-03     457.477E-03    -216.446E-03     63.1701E-03
            2276     7.99059E-03     14.4820E-03    -52.5332E+06    -4.46353E+06     30.0522E+06    -2.09066E+06    -235.442E-03     450.211E-03    -214.768E-03     60.6382E-03    -236.192E-03     450.672E-03    -214.536E-03     54.2921E-03
            2277     7.27650E-03     14.3586E-03    -60.3552E+06    -42.5324E+06     12.0328E+06    -2.06301E+06    -230.631E-03     443.523E-03    -212.892E-03     50.3145E-03    -231.238E-03     443.731E-03    -212.683E-03     44.7822E-03
            2278     6.55759E-03     14.2499E-03    -65.0078E+06    -70.0751E+06     1.20805E+06    -3.12370E+06    -227.191E-03     438.234E-03    -211.043E-03     40.1917E-03    -227.668E-03     438.230E-03    -210.841E-03     35.4327E-03
            2279     5.84235E-03     14.1496E-03    -69.6125E+06    -88.8832E+06    -10.0122E+06     254.931E+03    -223.246E-03     432.400E-03    -209.155E-03     31.7321E-03    -223.626E-03     432.248E-03    -208.975E-03     27.7247E-03
            2280     5.12262E-03     14.0598E-03    -77.5064E+06    -115.110E+06    -28.9055E+06    -451.867E+03    -217.607E-03     424.999E-03    -207.392E-03     25.1784E-03    -217.915E-03     424.706E-03    -207.257E-03     21.7376E-03
            2281     4.39451E-03     13.9884E-03    -85.8483E+06    -141.946E+06    -44.1803E+06    -2.59743E+06    -213.294E-03     419.204E-03    -205.910E-03     20.1115E-03    -213.547E-03     418.775E-03    -205.801E-03     17.1169E-03
            2282     3.66754E-03     13.9272E-03    -96.2706E+06    -163.855E+06    -56.1144E+06     800.633E+03    -210.469E-03     415.055E-03    -204.586E-03     16.3172E-03    -210.686E-03     414.510E-03    -204.489E-03     13.9233E-03
            2283     2.93828E-03     13.8799E-03    -102.842E+06    -176.988E+06    -69.1502E+06     7.25331E+06    -207.540E-03     410.877E-03    -203.336E-03     12.9786E-03    -207.723E-03     410.265E-03    -203.276E-03     11.2735E-03
            2284     2.20628E-03     13.8417E-03    -112.488E+06    -197.798E+06    -92.3001E+06     8.72749E+06    -204.892E-03     407.107E-03    -202.216E-03     10.1470E-03    -205.028E-03     406.411E-03    -202.227E-03     9.00485E-03
            2285     1.47179E-03     13.8173E-03    -120.208E+06    -215.994E+06    -109.095E+06     5.40316E+06    -202.778E-03     404.090E-03    -201.312E-03     7.46968E-03    -202.869E-03     403.308E-03    -201.370E-03     6.71627E-03
            2286     735.659E-06     13.7993E-03    -116.277E+06    -223.468E+06    -110.406E+06     3.35471E+06    -201.380E-03     401.892E-03    -200.512E-03     4.07843E-03    -201.406E-03     401.076E-03    -200.572E-03     3.70690E-03
            2287     13.6552E-03     14.3275E-03    -6.80290E+06     61.8152E+06     82.6666E+06    -794.530E+03    -240.596E-03     465.859E-03    -225.263E-03     104.670E-03    -242.043E-03     467.261E-03    -224.929E-03     93.5011E-03
            2288     12.9457E-03     14.1473E-03    -10.8467E+06     63.1914E+06     84.6013E+06    -2.67802E+06    -245.539E-03     469.940E-03    -224.402E-03     113.525E-03    -247.294E-03     471.636E-03    -224.055E-03     100.685E-03
            2289     12.2408E-03     13.9629E-03    -14.2475E+06     61.5256E+06     85.4893E+06    -3.08321E+06    -247.771E-03     470.999E-03    -223.228E-03     108.425E-03    -249.369E-03     472.517E-03    -222.869E-03     96.5320E-03
            2290     11.5391E-03     13.7806E-03    -19.3956E+06     48.2267E+06     78.9402E+06    -4.65430E+06    -249.017E-03     470.779E-03    -221.762E-03     101.961E-03    -250.476E-03     472.112E-03    -221.409E-03     90.7718E-03
            2291     10.8374E-03     13.6001E-03    -22.8747E+06     39.5167E+06     70.6966E+06    -5.61883E+06    -248.924E-03     468.943E-03    -220.019E-03     93.0240E-03    -250.211E-03     470.085E-03    -219.690E-03     82.6912E-03
            2292     10.1356E-03     13.4377E-03    -28.4816E+06     35.3842E+06     60.6759E+06    -3.92837E+06    -247.849E-03     465.872E-03    -218.023E-03     82.5315E-03    -248.964E-03     466.838E-03    -217.730E-03     73.2675E-03
            2293     9.43253E-03     13.2743E-03    -36.8740E+06     27.1451E+06     48.0763E+06    -3.11388E+06    -245.271E-03     461.094E-03    -215.822E-03     71.3638E-03    -246.239E-03     461.890E-03    -215.568E-03     63.0840E-03
            2294     8.72591E-03     13.1334E-03    -43.5098E+06     14.8207E+06     38.8108E+06    -2.02320E+06    -240.675E-03     454.214E-03    -213.539E-03     60.3308E-03    -241.508E-03     454.834E-03    -213.303E-03     53.0398E-03
            2295     8.01337E-03     13.0006E-03    -47.7933E+06    -7.08107E+06     29.7554E+06    -749.965E+03    -235.634E-03     446.890E-03    -211.256E-03     49.5475E-03    -236.325E-03     447.301E-03    -211.027E-03     43.1739E-03
            2296     7.30154E-03     12.8892E-03    -54.3786E+06    -36.5152E+06     14.6026E+06    -102.592E+03    -231.443E-03     440.371E-03    -208.928E-03     38.7105E-03    -231.999E-03     440.563E-03    -208.723E-03     33.1701E-03
            2297     6.59066E-03     12.7838E-03    -64.1075E+06    -67.9305E+06    -2.73504E+06    -1.44900E+06    -226.782E-03     433.337E-03    -206.555E-03     30.7033E-03    -227.228E-03     433.323E-03    -206.377E-03     25.9065E-03
            2298     5.87271E-03     12.6938E-03    -74.0980E+06    -94.3361E+06    -18.1373E+06    -1.33424E+06    -220.449E-03     424.737E-03    -204.288E-03     24.7346E-03    -220.830E-03     424.572E-03    -204.134E-03     20.5222E-03
            2299     5.14719E-03     12.6225E-03    -79.6456E+06    -112.541E+06    -32.8254E+06     3.02529E+06    -214.294E-03     416.559E-03    -202.265E-03     19.6413E-03    -214.608E-03     416.286E-03    -202.151E-03     16.2411E-03
            2300     4.42026E-03     12.5555E-03    -84.5685E+06    -139.771E+06    -48.7187E+06     2.25762E+06    -209.128E-03     409.671E-03    -200.542E-03     14.2489E-03    -209.360E-03     409.247E-03    -200.460E-03     11.4270E-03
            2301     3.68780E-03     12.5014E-03    -98.2825E+06    -170.128E+06    -69.1484E+06    -1.35140E+06    -204.879E-03     403.975E-03    -199.096E-03     10.3331E-03    -205.071E-03     403.413E-03    -199.053E-03     7.92795E-03
            2302     2.95305E-03     12.4587E-03    -105.601E+06    -183.236E+06    -79.1465E+06     588.920E+03    -201.678E-03     399.599E-03    -197.921E-03     7.44542E-03    -201.849E-03     398.972E-03    -197.897E-03     5.60701E-03
            2303     2.21605E-03     12.4273E-03    -102.813E+06    -190.403E+06    -83.1307E+06     5.84984E+06    -199.147E-03     396.130E-03    -196.984E-03     4.88368E-03    -199.260E-03     395.444E-03    -196.974E-03     3.64813E-03
            2304     1.47852E-03     12.4039E-03    -106.057E+06    -202.941E+06    -98.7985E+06     4.54686E+06    -197.305E-03     393.547E-03    -196.241E-03     3.08223E-03    -197.364E-03     392.798E-03    -196.287E-03     2.20870E-03
            2305     740.122E-06     12.3917E-03    -110.344E+06    -218.933E+06    -109.694E+06    -833.783E+03    -196.324E-03     391.904E-03    -195.580E-03     1.20491E-03    -196.334E-03     391.105E-03    -195.651E-03     636.338E-06
            2306     13.6622E-03     12.8142E-03    -3.69039E+06     67.1564E+06     88.5122E+06     136.136E+03    -247.815E-03     472.550E-03    -224.735E-03     106.634E-03    -249.310E-03     474.014E-03    -224.384E-03     95.0553E-03
            2307     12.9619E-03     12.6358E-03    -8.01924E+06     65.6964E+06     88.1262E+06    -3.62952E+06    -250.983E-03     474.486E-03    -223.503E-03     116.625E-03    -252.789E-03     476.241E-03    -223.146E-03     103.448E-03
            2308     12.2613E-03     12.4479E-03    -14.2947E+06     60.6206E+06     85.1756E+06    -4.41848E+06    -253.991E-03     475.935E-03    -221.944E-03     110.332E-03    -255.643E-03     477.504E-03    -221.585E-03     98.0116E-03
            2309     11.5601E-03     12.2685E-03    -18.7459E+06     52.7937E+06     79.3182E+06    -3.46121E+06    -254.509E-03     474.545E-03    -220.036E-03     99.2347E-03    -255.997E-03     475.926E-03    -219.689E-03     87.6581E-03
            2310     10.8586E-03     12.0919E-03    -27.5188E+06     38.4044E+06     64.8783E+06    -5.59016E+06    -253.433E-03     471.252E-03    -217.819E-03     86.7554E-03    -254.712E-03     472.383E-03    -217.510E-03     76.2904E-03
            2311     10.1586E-03     11.9283E-03    -35.0108E+06     28.6537E+06     51.4006E+06    -6.30011E+06    -251.695E-03     467.032E-03    -215.337E-03     73.9847E-03    -252.789E-03     467.956E-03    -215.070E-03     64.5719E-03
            2312     9.45839E-03     11.7772E-03    -38.7498E+06     24.2881E+06     42.7776E+06    -4.85464E+06    -247.752E-03     460.413E-03    -212.660E-03     60.3968E-03    -248.691E-03     461.179E-03    -212.425E-03     51.8831E-03
            2313     8.75489E-03     11.6459E-03    -43.8283E+06     13.0603E+06     34.3311E+06    -4.06494E+06    -241.989E-03     451.901E-03    -209.912E-03     47.0865E-03    -242.787E-03     452.494E-03    -209.696E-03     39.4974E-03
            2314     8.05040E-03     11.5266E-03    -51.9660E+06    -9.78796E+06     24.2421E+06    -1.61811E+06    -235.963E-03     443.140E-03    -207.177E-03     36.7339E-03    -236.637E-03     443.527E-03    -206.966E-03     30.1388E-03
            2315     7.33959E-03     11.4210E-03    -59.5132E+06    -38.4603E+06     10.6181E+06     2.02320E+06    -229.837E-03     434.312E-03    -204.476E-03     29.3802E-03    -230.394E-03     434.492E-03    -204.280E-03     23.7002E-03
            2316     6.62185E-03     11.3282E-03    -61.6099E+06    -63.5222E+06    -3.06375E+06     3.31936E+06    -222.973E-03     424.865E-03    -201.892E-03     23.6497E-03    -223.417E-03     424.875E-03    -201.726E-03     18.6547E-03
            2317     5.89802E-03     11.2571E-03    -72.1617E+06    -92.3500E+06    -21.5840E+06     3.09695E+06    -216.672E-03     416.170E-03    -199.499E-03     18.2943E-03    -217.043E-03     416.021E-03    -199.368E-03     14.0345E-03
            2318     5.17340E-03     11.1883E-03    -85.3901E+06    -116.129E+06    -38.4272E+06     4.84132E+06    -211.456E-03     408.722E-03    -197.266E-03     13.5426E-03    -211.783E-03     408.445E-03    -197.166E-03     10.0547E-03
            2319     4.44403E-03     11.1363E-03    -87.4082E+06    -134.256E+06    -50.1622E+06     6.02949E+06    -205.837E-03     401.061E-03    -195.224E-03     9.15972E-03    -206.086E-03     400.668E-03    -195.153E-03     6.25509E-03
            2320     3.70982E-03     11.0920E-03    -90.5752E+06    -157.851E+06    -69.3291E+06     2.14947E+06    -200.542E-03     394.012E-03    -193.470E-03     6.07353E-03    -200.708E-03     393.497E-03    -193.456E-03     3.66564E-03
            2321     2.97162E-03     11.0544E-03    -101.556E+06    -185.805E+06    -89.1196E+06    -5.11078E+06    -196.568E-03     388.633E-03    -192.065E-03     3.20895E-03    -196.698E-03     388.000E-03    -192.094E-03     1.15971E-03
            2322     2.23191E-03     11.0274E-03    -106.658E+06    -199.896E+06    -93.6741E+06    -6.48033E+06    -193.596E-03     384.587E-03    -190.990E-03     979.078E-06    -193.699E-03     383.874E-03    -191.014E-03    -635.145E-06
            2323     1.48870E-03     11.0086E-03    -104.647E+06    -198.683E+06    -94.5072E+06    -1.48810E+06    -191.290E-03     381.499E-03    -190.210E-03     66.3014E-06    -191.356E-03     380.764E-03    -190.242E-03    -969.782E-06
            2324     744.315E-06     10.9968E-03    -111.336E+06    -216.982E+06    -108.872E+06     1.34757E+06    -189.850E-03     379.768E-03    -189.918E-03    -104.639E-06    -189.878E-03     378.988E-03    -189.986E-03    -639.437E-06
            2325     13.6704E-03     11.2981E-03    -4.56366E+06     69.5790E+06     90.5692E+06    -1.55472E+06    -253.864E-03     478.146E-03    -224.282E-03     109.583E-03    -255.471E-03     479.721E-03    -223.924E-03     97.1962E-03
            2326     12.9667E-03     11.1137E-03    -6.63722E+06     68.6806E+06     91.4130E+06    -607.716E+03    -257.699E-03     480.386E-03    -222.687E-03     117.504E-03    -259.550E-03     482.193E-03    -222.320E-03     104.007E-03
            2327     12.2697E-03     10.9230E-03    -13.4297E+06     61.1149E+06      85.186E+06    -2.13131E+06    -260.743E-03     481.424E-03    -220.681E-03     108.608E-03    -262.407E-03     483.011E-03    -220.324E-03     95.9993E-03
            2328     11.5789E-03     10.7439E-03    -23.9777E+06     52.9126E+06     72.3347E+06    -4.29550E+06    -262.072E-03     480.292E-03    -218.220E-03     94.4851E-03    -263.599E-03     481.713E-03    -217.900E-03     82.3250E-03
            2329     10.8881E-03     10.5798E-03    -29.8692E+06     41.6492E+06     59.9402E+06    -4.77757E+06    -260.283E-03     475.677E-03    -215.393E-03     78.9746E-03    -261.578E-03     476.842E-03    -215.111E-03     67.9711E-03
            2330     10.1935E-03     10.4198E-03    -34.3049E+06     29.6103E+06     48.2618E+06    -5.14823E+06    -255.401E-03     467.753E-03    -212.352E-03     64.3105E-03    -256.470E-03     468.669E-03    -212.104E-03     54.6254E-03
            2331     9.49566E-03     10.2815E-03    -41.0960E+06     20.5871E+06     36.6623E+06    -5.35895E+06    -249.279E-03     458.499E-03    -209.219E-03     51.0744E-03    -250.208E-03     459.251E-03    -209.006E-03     42.2659E-03
            2332     8.79429E-03     10.1597E-03    -48.8438E+06     9.46447E+06     26.5093E+06    -3.53456E+06    -242.534E-03     448.615E-03    -206.081E-03     40.3454E-03    -243.350E-03     449.217E-03    -205.892E-03     32.4300E-03
            2333     8.08482E-03     10.0575E-03    -55.7934E+06    -11.9161E+06     14.7395E+06    -665.856E+03    -234.968E-03     437.984E-03    -203.016E-03     32.5707E-03    -235.654E-03     438.390E-03    -202.844E-03     25.7797E-03
            2334     7.37044E-03     9.96436E-03    -61.8827E+06    -42.2802E+06     3.21353E+06     4.93337E+03    -226.847E-03     426.983E-03    -200.135E-03     25.6602E-03    -227.410E-03     427.168E-03    -199.968E-03     19.7894E-03
            2335     6.65062E-03     9.89060E-03    -69.9525E+06    -69.3432E+06    -9.28037E+06     2.46027E+06    -219.680E-03     417.132E-03    -197.452E-03     18.3567E-03    -220.156E-03     417.142E-03    -197.297E-03     13.2055E-03
            2336     5.92776E-03     9.82396E-03    -75.2076E+06    -88.4098E+06    -21.4175E+06     6.27136E+06    -213.526E-03     408.445E-03    -194.919E-03     12.7744E-03    -213.920E-03     408.322E-03    -194.789E-03     8.43939E-03
            2337     5.19906E-03     9.77075E-03    -82.0457E+06    -111.539E+06    -35.6549E+06     4.11498E+06    -207.174E-03     399.750E-03    -192.576E-03     9.22627E-03    -207.499E-03     399.492E-03    -192.474E-03     5.50341E-03
            2338     4.46530E-03     9.72725E-03    -93.4873E+06    -135.247E+06    -52.2725E+06     3.16768E+06    -201.541E-03     392.016E-03    -190.476E-03     6.94957E-03    -201.824E-03     391.639E-03    -190.405E-03     3.80782E-03
            2339     3.72898E-03     9.69334E-03    -95.6467E+06    -149.085E+06    -61.5642E+06     7.52459E+06    -196.731E-03     385.356E-03    -188.625E-03     5.55183E-03    -196.956E-03     384.890E-03    -188.578E-03     3.12218E-03
            2340     2.98863E-03     9.66534E-03    -98.5931E+06    -173.937E+06    -78.6247E+06     5.26447E+06    -192.081E-03     379.143E-03    -187.062E-03     4.33140E-03    -192.234E-03     378.557E-03    -187.060E-03     2.44215E-03
            2341     2.24368E-03     9.64383E-03    -110.817E+06    -201.978E+06    -101.873E+06    -3.24743E+06    -188.542E-03     374.420E-03    -185.878E-03     3.39590E-03    -188.651E-03     373.716E-03    -185.933E-03     1.85097E-03
            2342     1.49782E-03     9.63055E-03    -119.086E+06    -210.461E+06    -109.459E+06    -5.33986E+06    -186.244E-03     371.341E-03    -185.097E-03     2.32712E-03    -186.343E-03     370.589E-03    -185.166E-03     1.22726E-03
            2343     749.207E-06     9.62177E-03    -121.000E+06    -216.579E+06    -114.918E+06    -332.898E+03    -184.752E-03     369.562E-03    -184.810E-03     1.17214E-03    -184.821E-03     368.811E-03    -184.895E-03     632.446E-06
            2344     13.6710E-03     9.76712E-03    -3.39150E+06     71.6747E+06     90.3956E+06    -2.00280E+06    -262.178E-03     486.082E-03    -223.905E-03     112.554E-03    -263.872E-03     487.756E-03    -223.552E-03     99.3914E-03
            2345     12.9834E-03     9.58188E-03    -9.57595E+06     67.7425E+06     88.4113E+06    -1.92002E+06    -267.864E-03     489.647E-03    -221.783E-03     114.441E-03    -269.786E-03     491.520E-03    -221.425E-03     100.043E-03
            2346     12.2936E-03     9.39468E-03    -13.5165E+06     61.3383E+06     85.1879E+06    -839.404E+03    -269.080E-03     488.261E-03    -219.181E-03     100.567E-03    -270.730E-03     489.836E-03    -218.824E-03     87.4853E-03
            2347     11.6015E-03     9.21227E-03    -18.2988E+06     56.9414E+06     77.0530E+06    -1.94017E+06    -268.242E-03     484.402E-03    -216.160E-03     84.5807E-03    -269.714E-03     485.790E-03    -215.831E-03     72.1335E-03
            2348     10.9137E-03     9.05053E-03    -24.9803E+06     44.4155E+06     63.2855E+06    -3.70782E+06    -264.670E-03     477.488E-03    -212.818E-03     69.3785E-03    -265.957E-03     478.662E-03    -212.529E-03     57.6852E-03
            2349     10.2234E-03     8.91288E-03    -32.4928E+06     31.3056E+06     48.0930E+06    -1.92455E+06    -257.667E-03     467.002E-03    -209.335E-03     57.3066E-03    -258.755E-03     467.949E-03    -209.092E-03     47.0449E-03
            2350     9.52542E-03     8.78586E-03    -41.2261E+06     19.0063E+06     31.5346E+06    -440.992E+03    -249.072E-03     454.956E-03    -205.883E-03     45.7829E-03    -249.995E-03     455.712E-03    -205.694E-03     36.8703E-03
            2351     8.82074E-03     8.68251E-03    -46.6847E+06     7.42917E+06     21.4153E+06    -164.659E+03    -240.797E-03     443.363E-03    -202.567E-03     35.9885E-03    -241.591E-03     443.958E-03    -202.403E-03     28.0570E-03
            2352     8.11332E-03     8.59248E-03    -54.9406E+06    -14.7194E+06     11.1649E+06     468.859E+03    -232.809E-03     432.201E-03    -199.392E-03     27.9384E-03    -233.488E-03     432.603E-03    -199.236E-03     20.9497E-03
            2353     7.39878E-03     8.52062E-03    -64.5550E+06    -41.6307E+06     981.660E+03     2.62669E+06    -224.539E-03     420.937E-03    -196.398E-03     21.0396E-03    -225.121E-03     421.141E-03    -196.239E-03     15.0375E-03
            2354     6.67823E-03     8.45572E-03    -74.9961E+06    -69.8584E+06    -10.3088E+06     3.90305E+06    -216.497E-03     410.136E-03    -193.638E-03     16.4617E-03    -217.004E-03     410.159E-03    -193.480E-03     11.3205E-03
            2355     5.95201E-03     8.40506E-03    -82.8666E+06    -93.2853E+06    -24.0178E+06     2.61076E+06    -208.930E-03     400.078E-03    -191.148E-03     13.8919E-03    -209.365E-03     399.958E-03    -191.013E-03     9.44003E-03
            2356     5.21970E-03     8.36453E-03    -84.1770E+06    -109.018E+06    -33.2760E+06     2.46605E+06    -202.280E-03     391.264E-03    -188.984E-03     12.1424E-03    -202.638E-03     391.033E-03    -188.870E-03     8.38163E-03
            2357     4.48266E-03     8.33272E-03    -93.0968E+06    -132.752E+06    -47.5183E+06     2.86522E+06    -196.856E-03     383.979E-03    -187.123E-03     10.8893E-03    -197.163E-03     383.623E-03    -187.033E-03     7.80199E-03
            2358     3.74115E-03     8.30551E-03    -102.234E+06    -151.187E+06    -59.8164E+06     3.76796E+06    -192.288E-03     377.832E-03    -185.544E-03     9.85742E-03    -192.560E-03     377.378E-03    -185.475E-03     7.41691E-03
            2359     2.99684E-03     8.28753E-03    -102.756E+06    -169.097E+06    -67.5774E+06     6.81705E+06    -188.434E-03     372.702E-03    -184.268E-03     8.56345E-03    -188.642E-03     372.141E-03    -184.211E-03     6.72641E-03
            2360     2.24963E-03     8.27354E-03    -107.109E+06    -191.117E+06    -85.1443E+06     7.23385E+06    -185.383E-03     368.674E-03    -183.291E-03     7.00121E-03    -185.524E-03     368.006E-03    -183.285E-03     5.69950E-03
            2361     1.49965E-03     8.26157E-03    -117.567E+06    -208.566E+06    -108.187E+06     1.94063E+06    -183.531E-03     366.135E-03    -182.604E-03     4.90710E-03    -183.633E-03     365.399E-03    -182.672E-03     3.98315E-03
            2362     750.436E-06     8.25723E-03    -122.707E+06    -221.788E+06    -119.996E+06    -2.90091E+06    -182.960E-03     364.710E-03    -181.750E-03     3.07348E-03    -183.016E-03     363.938E-03    -181.851E-03     2.53208E-03
            2363     13.6780E-03     8.22118E-03    -2.23533E+06     74.1462E+06     90.7554E+06    -1.35691E+06    -273.203E-03     496.684E-03    -223.482E-03     113.996E-03    -274.936E-03     498.409E-03    -223.132E-03     100.323E-03
            2364     12.9916E-03     8.02776E-03    -9.27948E+06     70.4700E+06     86.7680E+06    -3.12022E+06    -278.753E-03     499.491E-03    -220.738E-03     111.508E-03    -280.760E-03     501.464E-03    -220.393E-03     95.9407E-03
            2365     12.3124E-03     7.84955E-03    -15.0632E+06     60.6328E+06     82.1084E+06    -5.70838E+06    -278.822E-03     496.302E-03    -217.480E-03     95.8919E-03    -280.548E-03     497.954E-03    -217.135E-03     81.5830E-03
            2366     11.6344E-03     7.67633E-03    -18.5307E+06     55.1651E+06     76.6938E+06    -2.38141E+06    -273.960E-03     487.854E-03    -213.894E-03     78.5465E-03    -275.432E-03     489.238E-03    -213.564E-03     65.6361E-03
            2367     10.9466E-03     7.52972E-03    -25.0022E+06     42.6458E+06     63.0887E+06     1.65158E+06    -266.571E-03     476.719E-03    -210.148E-03     60.0366E-03    -267.815E-03     477.847E-03    -209.858E-03     48.2374E-03
            2368     10.2534E-03     7.40305E-03    -32.4065E+06     29.7960E+06     47.5210E+06     2.97204E+06    -257.357E-03     463.760E-03    -206.403E-03     45.5887E-03    -258.410E-03     464.670E-03    -206.162E-03     35.0234E-03
            2369     9.55625E-03     7.29979E-03    -40.3266E+06     18.3721E+06     31.7612E+06     6.02226E+06    -247.128E-03     449.930E-03    -202.802E-03     35.4035E-03    -248.003E-03     450.638E-03    -202.611E-03     26.5410E-03
            2370     8.85176E-03     7.21111E-03    -48.5525E+06     5.41276E+06     21.3328E+06     7.40454E+06    -237.388E-03     436.839E-03    -199.450E-03     27.8608E-03    -238.147E-03     437.385E-03    -199.281E-03     20.1817E-03
            2371     8.13875E-03     7.13788E-03    -57.2703E+06    -11.7900E+06     15.0947E+06     5.65561E+06    -228.117E-03     424.494E-03    -196.377E-03     23.0203E-03    -228.802E-03     424.891E-03    -196.202E-03     16.1691E-03
            2372     7.42137E-03     7.08009E-03    -67.3120E+06    -38.9305E+06     3.99824E+06     3.52670E+06    -219.346E-03     412.931E-03    -193.584E-03     21.0647E-03    -219.954E-03     413.151E-03    -193.410E-03     15.1857E-03
            2373     6.69717E-03     7.03450E-03    -74.7379E+06    -68.5486E+06    -7.13956E+06     1.32193E+06    -210.977E-03     402.110E-03    -191.132E-03     20.4047E-03    -211.498E-03     402.144E-03    -190.960E-03     15.4238E-03
            2374     5.96442E-03     6.99838E-03    -79.6454E+06    -91.3198E+06    -16.0850E+06     295.884E+03    -203.655E-03     392.709E-03    -189.054E-03     19.3683E-03    -204.096E-03     392.591E-03    -188.887E-03     15.1182E-03
            2375     5.22748E-03     6.96873E-03    -84.1585E+06    -109.982E+06    -26.2522E+06     364.308E+03    -197.908E-03     385.217E-03    -187.309E-03     18.1254E-03    -198.283E-03     384.980E-03    -187.159E-03     14.5782E-03
            2376     4.48723E-03     6.94574E-03    -87.9188E+06    -128.342E+06    -37.0127E+06    -425.359E+03    -193.245E-03     379.101E-03    -185.857E-03     16.7493E-03    -193.554E-03     378.751E-03    -185.728E-03     13.8399E-03
            2377     3.74362E-03     6.92853E-03    -96.1827E+06    -150.234E+06    -54.5484E+06    -2.21215E+06    -189.430E-03     374.095E-03    -184.665E-03     14.5999E-03    -189.682E-03     373.631E-03    -184.580E-03     12.2220E-03
            2378     2.99692E-03     6.91489E-03    -103.115E+06    -173.216E+06    -68.4444E+06    -2.75131E+06    -186.754E-03     370.483E-03    -183.730E-03     12.1406E-03    -186.953E-03     369.901E-03    -183.671E-03     10.2598E-03
            2379     2.24981E-03     6.90510E-03    -105.324E+06    -189.049E+06    -77.5421E+06     1.22044E+06    -184.886E-03     367.844E-03    -182.957E-03     9.28551E-03    -185.029E-03     367.169E-03    -182.918E-03     7.97286E-03
            2380     1.50127E-03     6.89903E-03    -107.740E+06    -200.067E+06    -94.0039E+06     3.68771E+06    -183.298E-03     365.577E-03    -182.278E-03     6.08443E-03    -183.384E-03     364.849E-03    -182.302E-03     5.27002E-03
            2381     750.526E-06     6.89202E-03    -111.763E+06    -223.016E+06    -109.829E+06     1.23476E+06    -182.300E-03     364.001E-03    -181.700E-03     3.17760E-03    -182.308E-03     363.183E-03    -181.764E-03     2.69565E-03
            2382     13.6861E-03     6.65982E-03    -3.43659E+06     75.2633E+06     89.2617E+06    -2.46054E+06    -287.889E-03     510.924E-03    -223.035E-03     117.446E-03    -289.698E-03     512.728E-03    -222.692E-03     103.000E-03
            2383     13.0112E-03     6.46631E-03    -10.6090E+06     72.3268E+06     85.4226E+06    -3.86349E+06    -290.862E-03     510.424E-03    -219.561E-03     105.880E-03    -292.924E-03     512.459E-03    -219.224E-03     89.2050E-03
            2384     12.3356E-03     6.28725E-03    -14.9131E+06     62.6931E+06     79.9261E+06    -3.74594E+06    -286.290E-03     501.943E-03    -215.653E-03     83.3470E-03    -288.008E-03     503.604E-03    -215.323E-03     68.0125E-03
            2385     11.6547E-03     6.13561E-03    -20.3893E+06     48.1918E+06     70.3980E+06    -501.936E+03    -277.289E-03     488.888E-03    -211.599E-03     66.2287E-03    -278.682E-03     490.180E-03    -211.287E-03     53.0338E-03
            2386     10.9732E-03     6.00225E-03    -29.2466E+06     33.9360E+06     54.7427E+06     3.46844E+06    -266.516E-03     474.103E-03    -207.587E-03     51.2149E-03    -267.652E-03     475.101E-03    -207.320E-03     39.9404E-03
            2387     10.2849E-03     5.90193E-03    -34.8715E+06     25.4725E+06     44.4823E+06     5.07360E+06    -254.984E-03     458.763E-03    -203.779E-03     39.6645E-03    -255.955E-03     459.575E-03    -203.542E-03     29.6880E-03
            2388     9.58341E-03     5.81924E-03    -40.7680E+06     17.8801E+06     38.6419E+06      9.3082E+06    -243.281E-03     443.558E-03    -200.277E-03     33.0144E-03    -244.116E-03     444.203E-03    -200.050E-03     24.6198E-03
            2389     8.87489E-03     5.74871E-03    -50.0321E+06     6.22349E+06     30.5146E+06     10.3862E+06    -231.662E-03     428.810E-03    -197.149E-03     28.8475E-03    -232.408E-03     429.315E-03    -196.932E-03     21.7398E-03
            2390     8.15885E-03     5.69787E-03    -53.9781E+06    -2.91133E+06     27.4374E+06     7.95160E+06    -220.785E-03     415.265E-03    -194.480E-03     26.7982E-03    -221.457E-03     415.657E-03    -194.260E-03     20.6750E-03
            2391     7.43205E-03     5.65447E-03    -57.0363E+06    -29.2430E+06     19.4137E+06     2.13496E+06    -211.901E-03     404.160E-03    -192.260E-03     26.3855E-03    -212.474E-03     404.372E-03    -192.038E-03     21.1100E-03
            2392     6.69969E-03     5.62449E-03    -64.8263E+06    -64.3286E+06     4.57311E+06    -3.03308E+06    -205.169E-03     395.569E-03    -190.399E-03     25.7791E-03    -205.650E-03     395.579E-03    -190.189E-03     21.2733E-03
            2393     5.96549E-03     5.59817E-03    -70.0548E+06    -89.0219E+06    -3.88895E+06    -5.12660E+06    -199.710E-03     388.563E-03    -188.853E-03     24.8092E-03    -200.113E-03     388.414E-03    -188.642E-03     21.0145E-03
            2394     5.22667E-03     5.57983E-03    -76.7359E+06    -110.317E+06    -15.4816E+06    -4.80295E+06    -195.174E-03     382.734E-03    -187.560E-03     23.0153E-03    -195.516E-03     382.458E-03    -187.366E-03     19.8386E-03
            2395     4.48387E-03     5.56315E-03    -84.3502E+06    -130.890E+06    -36.0953E+06    -4.18403E+06    -191.632E-03     378.102E-03    -186.470E-03     20.4642E-03    -191.910E-03     377.721E-03    -186.338E-03     17.8611E-03
            2396     3.73958E-03     5.55191E-03    -86.9712E+06    -150.833E+06    -53.6302E+06    -5.08616E+06    -189.036E-03     374.629E-03    -185.593E-03     17.5277E-03    -189.235E-03     374.140E-03    -185.516E-03     15.3961E-03
            2397     2.99402E-03     5.54289E-03    -91.6297E+06    -174.468E+06    -69.9859E+06    -5.48330E+06    -187.158E-03     372.045E-03    -184.887E-03     14.5467E-03    -187.281E-03     371.428E-03    -184.851E-03     12.8805E-03
            2398     2.24622E-03     5.53561E-03    -97.5867E+06    -196.901E+06    -83.3376E+06    -6.28380E+06    -185.815E-03     370.115E-03    -184.300E-03     11.2213E-03    -185.881E-03     369.379E-03    -184.290E-03     9.94984E-03
            2399     1.49860E-03     5.53126E-03    -100.355E+06    -204.865E+06    -89.2020E+06    -2.73459E+06    -184.684E-03     368.476E-03    -183.792E-03     7.89240E-03    -184.730E-03     367.700E-03    -183.796E-03     7.06049E-03
            2400     750.306E-06     5.53034E-03    -100.636E+06    -218.138E+06    -94.3215E+06     1.46484E+06    -183.150E-03     367.133E-03    -183.983E-03     4.33561E-03    -183.137E-03     366.313E-03    -183.992E-03     3.88971E-03
            2401     13.6866E-03     5.06710E-03    -487.370E+03     78.8517E+06     87.5421E+06    -1.14649E+06    -303.506E-03     526.320E-03    -222.814E-03     125.947E-03    -305.419E-03     528.255E-03    -222.490E-03     110.730E-03
            2402     13.0265E-03     4.87396E-03    -9.63078E+06     72.1359E+06     80.3987E+06    -2.40651E+06    -304.871E-03     523.460E-03    -218.590E-03     107.807E-03    -306.959E-03     525.541E-03    -218.278E-03     90.5967E-03
            2403     12.3626E-03     4.72462E-03    -18.4754E+06     58.3769E+06     73.0930E+06     809.631E+03    -295.065E-03     509.094E-03    -214.029E-03     78.9501E-03    -296.722E-03     510.688E-03    -213.721E-03     63.5917E-03
            2404     11.6898E-03     4.59290E-03    -25.7813E+06     41.6753E+06     65.1992E+06     6.00749E+06    -279.337E-03     488.926E-03    -209.589E-03     57.8531E-03    -280.585E-03     490.050E-03    -209.286E-03     45.4106E-03
            2405     11.0008E-03     4.48836E-03    -31.7901E+06     33.4036E+06     55.9831E+06     7.24970E+06    -262.791E-03     468.329E-03    -205.538E-03     43.9292E-03    -263.772E-03     469.158E-03    -205.260E-03     33.9328E-03
            2406     10.3005E-03     4.40639E-03    -38.1312E+06     24.0950E+06     47.7497E+06     4.41604E+06    -248.792E-03     450.754E-03    -201.962E-03     36.1873E-03    -249.640E-03     451.418E-03    -201.703E-03     27.5363E-03
            2407     9.59761E-03     4.34707E-03    -41.3089E+06     16.7608E+06     45.1557E+06     1.77125E+06    -235.769E-03     434.644E-03    -198.874E-03     32.9490E-03    -236.522E-03     435.182E-03    -198.613E-03     25.4770E-03
            2408     8.88255E-03     4.30148E-03    -42.9483E+06     12.1670E+06     43.8469E+06     1.38784E+06    -223.479E-03     419.789E-03    -196.311E-03     32.8788E-03    -224.142E-03     420.219E-03    -196.047E-03     26.8176E-03
            2409     8.15763E-03     4.26733E-03    -44.8551E+06     1.39025E+06     40.4863E+06     727.984E+03    -214.103E-03     408.353E-03    -194.250E-03     32.5912E-03    -214.684E-03     408.664E-03    -193.984E-03     27.5966E-03
            2410     7.42864E-03     4.24204E-03    -48.5326E+06    -24.0913E+06     30.6251E+06    -301.319E+03    -207.067E-03     399.645E-03    -192.578E-03     31.2805E-03    -207.556E-03     399.789E-03    -192.320E-03     27.0876E-03
            2411     6.69498E-03     4.21865E-03    -53.7745E+06    -54.7017E+06     15.3810E+06    -2.58886E+06    -201.693E-03     392.897E-03    -191.204E-03     29.1125E-03    -202.091E-03     392.866E-03    -190.970E-03     25.5753E-03
            2412     5.95611E-03     4.20335E-03    -60.9714E+06    -87.6971E+06    -6.69759E+06    -6.63545E+06    -197.691E-03     387.739E-03    -190.048E-03     26.7256E-03    -198.003E-03     387.543E-03    -189.866E-03     23.6754E-03
            2413     5.21565E-03     4.18930E-03    -68.8024E+06    -116.635E+06    -27.1262E+06    -9.20431E+06    -194.498E-03     383.592E-03    -189.094E-03     24.4306E-03    -194.741E-03     383.256E-03    -188.961E-03     21.8197E-03
            2414     4.47451E-03     4.18012E-03    -71.5644E+06    -134.420E+06    -40.1306E+06    -8.15028E+06    -191.981E-03     380.313E-03    -188.331E-03     21.6438E-03    -192.160E-03     379.877E-03    -188.233E-03     19.4786E-03
            2415     3.73046E-03     4.17191E-03    -73.7103E+06    -154.869E+06    -55.1471E+06    -6.44510E+06    -190.168E-03     377.876E-03    -187.708E-03     18.5452E-03    -190.278E-03     377.335E-03    -187.652E-03     16.7878E-03
            2416     2.98553E-03     4.16583E-03    -77.7869E+06    -179.902E+06    -67.3965E+06    -4.14880E+06    -188.821E-03     376.043E-03    -187.222E-03     15.2174E-03    -188.867E-03     375.371E-03    -187.186E-03     13.8486E-03
            2417     2.24048E-03     4.16177E-03    -82.1404E+06    -201.034E+06    -75.8992E+06    -2.44913E+06    -187.627E-03     374.510E-03    -186.882E-03     11.6605E-03    -187.618E-03     373.717E-03    -186.851E-03     10.6425E-03
            2418     1.49323E-03     4.15917E-03    -85.8241E+06    -211.871E+06    -82.4887E+06    -3.17842E+06    -186.882E-03     373.582E-03    -186.700E-03     7.92918E-03    -186.856E-03     372.738E-03    -186.681E-03     7.20120E-03
            2419     745.986E-06     4.15833E-03    -87.8334E+06    -223.038E+06    -87.2318E+06    -3.33350E+06    -186.206E-03     373.365E-03    -187.159E-03     4.21226E-03    -186.130E-03     372.511E-03    -187.145E-03     3.77542E-03
            2420     13.6872E-03     3.45321E-03    -948.406E+03     77.8190E+06     83.5354E+06     911.588E+03    -325.595E-03     548.524E-03    -222.929E-03     127.943E-03    -327.547E-03     550.506E-03    -222.623E-03     112.136E-03
            2421     13.0275E-03     3.26290E-03    -9.40543E+06     65.4975E+06     73.4370E+06     3.62661E+06    -317.112E-03     534.946E-03    -217.834E-03     87.8963E-03    -318.816E-03     536.646E-03    -217.548E-03     71.9013E-03
            2422     12.3680E-03     3.13618E-03    -18.9551E+06     51.1299E+06     67.3014E+06     5.51211E+06    -298.085E-03     510.897E-03    -212.813E-03     58.4119E-03    -299.361E-03     512.102E-03    -212.523E-03     44.5449E-03
            2423     11.6975E-03     3.04647E-03    -24.0739E+06     46.0523E+06     69.9602E+06     7.30110E+06    -277.690E-03     485.995E-03    -208.305E-03     45.9235E-03    -278.666E-03     486.854E-03    -207.987E-03     35.2792E-03
            2424     11.0129E-03     2.98263E-03    -26.5346E+06     46.4344E+06     71.9409E+06     5.09216E+06    -257.945E-03     462.388E-03    -204.443E-03     38.2049E-03    -258.722E-03     463.034E-03    -204.112E-03     30.1690E-03
            2425     10.3144E-03     2.92602E-03    -31.3493E+06     33.0785E+06     62.6212E+06     1.87892E+06    -240.397E-03     441.667E-03    -201.270E-03     34.2593E-03    -241.045E-03     442.144E-03    -200.959E-03     27.8637E-03
            2426     9.59889E-03     2.89045E-03    -35.9973E+06     19.2053E+06     47.2074E+06    -3.55750E+06    -226.957E-03     425.691E-03    -198.734E-03     32.2212E-03    -227.521E-03     426.061E-03    -198.474E-03     26.8090E-03
            2427     8.87560E-03     2.86793E-03    -39.2971E+06     12.0725E+06     34.9572E+06    -7.02958E+06    -217.245E-03     413.976E-03    -196.731E-03     31.7657E-03    -217.735E-03     414.270E-03    -196.517E-03     27.3984E-03
            2428     8.14760E-03     2.84450E-03    -45.5473E+06    -3.27803E+06     23.9980E+06    -6.87790E+06    -210.198E-03     405.342E-03    -195.144E-03     30.4038E-03    -210.629E-03     405.531E-03    -194.953E-03     26.8846E-03
            2429     7.41576E-03     2.82866E-03    -49.5192E+06    -23.5879E+06     11.5648E+06    -5.44174E+06    -205.119E-03     398.957E-03    -193.838E-03     28.3467E-03    -205.485E-03     399.031E-03    -193.674E-03     25.4215E-03
            2430     6.68026E-03     2.81584E-03    -49.9382E+06    -50.7616E+06    -1.63907E+06    -5.24378E+06    -201.154E-03     393.904E-03    -192.750E-03     26.0860E-03    -201.432E-03     393.829E-03    -192.612E-03     23.6498E-03
            2431     5.94385E-03     2.80500E-03    -51.2306E+06    -85.0771E+06    -18.0288E+06    -6.49076E+06    -197.876E-03     389.722E-03    -191.846E-03     22.6577E-03    -198.062E-03     389.477E-03    -191.739E-03     20.4861E-03
            2432     5.20457E-03     2.79783E-03    -54.6400E+06    -116.729E+06    -35.4922E+06    -7.88684E+06    -195.140E-03     386.262E-03    -191.122E-03     20.0366E-03    -195.251E-03     385.868E-03    -191.051E-03     18.1629E-03
            2433     4.46221E-03     2.79096E-03    -60.7484E+06    -142.458E+06    -47.1299E+06    -7.73282E+06    -193.302E-03     383.879E-03    -190.578E-03     17.6746E-03    -193.371E-03     383.364E-03    -190.519E-03     16.1117E-03
            2434     3.72047E-03     2.78643E-03    -65.9664E+06    -162.492E+06    -56.1578E+06    -3.91345E+06    -192.008E-03     382.147E-03    -190.139E-03     14.8440E-03    -192.045E-03     381.536E-03    -190.089E-03     13.5779E-03
            2435     2.97736E-03     2.78235E-03    -69.4114E+06    -184.881E+06    -62.3573E+06    -1.31490E+06    -190.824E-03     380.644E-03    -189.820E-03     11.8298E-03    -190.822E-03     379.921E-03    -189.763E-03     10.8226E-03
            2436     2.23283E-03     2.78031E-03    -72.0142E+06    -202.091E+06    -65.9906E+06    -703.321E+03    -190.015E-03     379.645E-03    -189.630E-03     8.87416E-03    -189.976E-03     378.826E-03    -189.562E-03     8.11340E-03
            2437     1.48903E-03     2.77890E-03    -74.7006E+06    -212.421E+06    -69.4956E+06    -551.442E+03    -189.614E-03     379.156E-03    -189.542E-03     5.91408E-03    -189.555E-03     378.282E-03    -189.473E-03     5.39408E-03
            2438     744.869E-06     2.77743E-03    -78.5107E+06    -229.559E+06    -76.9241E+06    -150.616E+03    -189.624E-03     379.099E-03    -189.475E-03     2.85626E-03    -189.493E-03     378.192E-03    -189.412E-03     2.57815E-03
            2439     13.6812E-03     1.77411E-03    -10.1766E+06     72.2268E+06     81.8076E+06     2.38969E+06    -375.783E-03     599.534E-03    -223.751E-03     113.424E-03    -377.480E-03     601.234E-03    -223.432E-03     98.0492E-03
            2440     13.0555E-03     1.63800E-03    -11.0005E+06     62.1692E+06     79.7430E+06     4.18697E+06    -331.125E-03     548.260E-03    -217.135E-03     51.5270E-03    -332.041E-03     549.152E-03    -216.811E-03     40.9378E-03
            2441     12.3944E-03     1.56605E-03    -12.2549E+06     58.4920E+06     81.6316E+06     3.31428E+06    -294.422E-03     506.220E-03    -211.798E-03     27.4303E-03    -295.067E-03     506.806E-03    -211.457E-03     19.0467E-03
            2442     11.7098E-03     1.51380E-03    -14.0876E+06     56.9714E+06     81.3257E+06     2.46162E+06    -268.530E-03     476.102E-03    -207.571E-03     22.6722E-03    -269.058E-03     476.553E-03    -207.227E-03     16.5477E-03
            2443     11.0144E-03     1.47773E-03    -18.3882E+06     47.9350E+06     67.9534E+06    -449.100E+03    -249.068E-03     453.240E-03    -204.172E-03     23.6425E-03    -249.516E-03     453.602E-03    -203.875E-03     18.9907E-03
            2444     10.3045E-03     1.46340E-03    -23.1001E+06     36.6865E+06     50.9380E+06    -938.534E+03    -233.736E-03     435.218E-03    -201.482E-03     25.1505E-03    -234.118E-03     435.504E-03    -201.247E-03     21.7397E-03
            2445     9.58607E-03     1.44509E-03    -27.4982E+06     26.2287E+06     34.3875E+06    -2.54990E+06    -222.954E-03     422.317E-03    -199.363E-03     23.3010E-03    -223.282E-03     422.542E-03    -199.189E-03     20.6585E-03
            2446     8.86373E-03     1.43485E-03    -34.2298E+06     12.6792E+06     13.4765E+06    -2.94612E+06    -215.706E-03     413.324E-03    -197.618E-03     20.7052E-03    -215.991E-03     413.494E-03    -197.519E-03     18.5021E-03
            2447     8.13605E-03     1.42375E-03    -41.1581E+06    -1.82683E+06    -6.10497E+06    -5.03678E+06    -209.752E-03     405.922E-03    -196.170E-03     18.6925E-03    -209.999E-03     406.035E-03    -196.138E-03     16.9007E-03
            2448     7.40366E-03     1.41617E-03    -44.7243E+06    -21.1009E+06    -19.8389E+06    -9.07514E+06    -205.009E-03     400.016E-03    -195.006E-03     16.2895E-03    -205.213E-03     400.044E-03    -195.010E-03     14.7063E-03
            2449     6.66997E-03     1.40761E-03    -46.6185E+06    -54.0015E+06    -28.0572E+06    -8.92344E+06    -201.448E-03     395.545E-03    -194.097E-03     14.7128E-03    -201.589E-03     395.411E-03    -194.091E-03     13.3821E-03
            2450     5.93300E-03     1.40346E-03    -50.7871E+06    -90.5855E+06    -33.2168E+06    -6.43414E+06    -198.631E-03     392.013E-03    -193.382E-03     12.9521E-03    -198.724E-03     391.701E-03    -193.343E-03     11.7468E-03
            2451     5.19404E-03     1.40118E-03    -55.6386E+06    -119.386E+06    -40.3764E+06    -2.60351E+06    -196.499E-03     389.287E-03    -192.789E-03     11.4614E-03    -196.558E-03     388.842E-03    -192.737E-03     10.4906E-03
            2452     4.45475E-03     1.39767E-03    -59.4348E+06    -146.464E+06    -49.6741E+06    -1.01691E+06    -194.840E-03     387.138E-03    -192.298E-03     9.85038E-03    -194.858E-03     386.570E-03    -192.248E-03     9.09560E-03
            2453     3.71325E-03     1.39420E-03    -62.9952E+06    -168.597E+06    -54.7818E+06    -927.224E+03    -193.526E-03     385.456E-03    -191.930E-03     7.86531E-03    -193.511E-03     384.779E-03    -191.868E-03     7.19341E-03
            2454     2.97140E-03     1.39344E-03    -65.2668E+06    -186.755E+06    -57.8759E+06    -350.721E+03    -192.569E-03     384.232E-03    -191.663E-03     6.08696E-03    -192.519E-03     383.457E-03    -191.587E-03     5.51802E-03
            2455     2.22926E-03     1.39202E-03    -67.4740E+06    -202.111E+06    -61.9857E+06    -292.966E+03    -191.986E-03     383.452E-03    -191.466E-03     4.46713E-03    -191.904E-03     382.594E-03    -191.385E-03     4.04711E-03
            2456     1.48611E-03     1.39094E-03    -70.8442E+06    -213.029E+06    -63.8659E+06     72.1362E+03    -191.632E-03     382.942E-03    -191.310E-03     2.88828E-03    -191.540E-03     382.033E-03    -191.217E-03     2.61596E-03
            2457     742.916E-06     1.39042E-03    -74.1118E+06    -230.206E+06    -68.4448E+06     81.7724E+03    -191.573E-03     382.537E-03    -190.963E-03     1.81774E-03    -191.409E-03     381.589E-03    -190.864E-03     1.71149E-03


