********************************************************************************
Field Output Report, written Tue May 28 23:57:02 2024

Source 1
---------

   ODB: G:/Abaqus_calc_2019/1740/Vel_5/odb/zeides_2a_16_red_1500_cal_10_vel_5_fric_025.odb
   Step: Step-1
   Frame: Increment  21654343: Step Time =    2.476

Loc 1 : Nodal values from source 1

Output sorted by column "Nodal Label".

Field Output reported at nodes for region: DIE_2A_16_D0_36-1.Region_1
   Computation algorithm: EXTRAPOLATE_COMPUTE_AVERAGE
   Averaged at nodes
   Averaging regions: ODB_REGIONS

      Node Label     COORD.COOR1     COORD.COOR2
                          @Loc 1          @Loc 1
-------------------------------------------------
               1     17.4293E-03     159.029E-03


Field Output reported at nodes for region: DIE_2A_16_D0_36-1.Region_2
   Computation algorithm: EXTRAPOLATE_COMPUTE_AVERAGE
   Averaged at nodes
   Averaging regions: ODB_REGIONS

      Node Label     COORD.COOR1     COORD.COOR2
                          @Loc 1          @Loc 1
-------------------------------------------------
               1     17.4293E-03     159.029E-03


Field Output reported at nodes for part: WIRE-1
   Computation algorithm: EXTRAPOLATE_COMPUTE_AVERAGE
   Averaged at nodes
   Averaging regions: ODB_REGIONS

      Node Label     COORD.COOR1     COORD.COOR2           S.S11           S.S22           S.S33           S.S12         PE.PE11         PE.PE22         PE.PE33         PE.PE12         LE.LE11         LE.LE22         LE.LE33         LE.LE12
                          @Loc 1          @Loc 1          @Loc 1          @Loc 1          @Loc 1          @Loc 1          @Loc 1          @Loc 1          @Loc 1          @Loc 1          @Loc 1          @Loc 1          @Loc 1          @Loc 1
-------------------------------------------------------------------------------------------------------------------------------------------------------------------------------------------------------------------------------------------------
               1     148.831E-09     75.1827E-03    -146.801E+06    -288.083E+06    -146.892E+06    -76.2505E+03    -163.574E-03     326.711E-03    -163.137E-03     8.48056E-03    -163.683E-03     325.702E-03    -163.241E-03     8.03631E-03
               2     15.2966E-03     76.7412E-03    -1.08538E+06     111.984E+06     105.004E+06    -1.08187E+06    -161.950E-03     325.129E-03    -163.179E-03     19.9000E-03    -162.568E-03     325.836E-03    -162.815E-03     14.9693E-03
               3     15.3026E-03     153.364E-03    -34.0678E+06     26.3217E+06     29.9415E+06    -21.2845E+06    -132.748E-03     295.557E-03    -162.809E-03     8.99985E-03    -132.985E-03     295.715E-03    -162.648E-03     8.61032E-03
               4    -5.80905E-06     150.788E-03     41.4248E+06    -13.9874E+06     32.4226E+06    -4.77026E+06    -174.395E-03     353.635E-03    -179.240E-03    -19.8794E-03    -174.294E-03     353.370E-03    -179.118E-03    -20.2130E-03
               5    -469.692E-09    -9.17322E-15    -79.1952E+06    -248.092E+06    -79.4584E+06     1.10119E+06    -159.347E-03     319.897E-03    -160.550E-03     840.441E-06    -159.268E-03     318.887E-03    -160.472E-03     810.958E-06
               6     15.1580E-03    -9.17322E-15     605.407E+03     118.851E+06     112.641E+06     2.54723E+06    -235.940E-03     403.601E-03    -167.662E-03     112.879E-03    -237.283E-03     405.033E-03    -167.272E-03     105.388E-03
               7     764.291E-06     75.1930E-03    -145.040E+06    -281.798E+06    -141.033E+06    -56.6067E+03    -163.468E-03     326.717E-03    -163.250E-03     13.9416E-03    -163.598E-03     325.741E-03    -163.336E-03     13.2063E-03
               8     1.52857E-03     75.2169E-03    -139.386E+06    -265.401E+06    -125.207E+06    -81.1077E+03    -163.384E-03     326.761E-03    -163.376E-03     25.2835E-03    -163.569E-03     325.872E-03    -163.416E-03     23.9350E-03
               9     2.29297E-03     75.2551E-03    -131.079E+06    -243.391E+06    -103.672E+06    -16.5479E+03    -163.451E-03     326.857E-03    -163.407E-03     36.8486E-03    -163.717E-03     326.095E-03    -163.382E-03     34.8542E-03
              10     3.05744E-03     75.3073E-03    -121.583E+06    -218.723E+06    -80.5850E+06     147.975E+03    -163.553E-03     326.988E-03    -163.435E-03     47.8323E-03    -163.923E-03     326.384E-03    -163.345E-03     45.1946E-03
              11     3.82201E-03     75.3724E-03    -111.339E+06    -194.306E+06    -58.8802E+06     58.9201E+03    -163.691E-03     327.144E-03    -163.453E-03     57.9656E-03    -164.176E-03     326.715E-03    -163.305E-03     54.6979E-03
              12     4.58656E-03     75.4492E-03    -100.897E+06    -171.173E+06    -39.8527E+06    -100.487E+03    -163.853E-03     327.313E-03    -163.460E-03     67.0425E-03    -164.458E-03     327.068E-03    -163.265E-03     63.1755E-03
              13     5.35126E-03     75.5363E-03    -90.6306E+06    -148.358E+06    -23.1093E+06    -33.2922E+03    -164.024E-03     327.482E-03    -163.458E-03     74.9028E-03    -164.752E-03     327.429E-03    -163.227E-03     70.4879E-03
              14     6.11588E-03     75.6324E-03    -81.4808E+06    -127.084E+06    -8.78413E+06    -5.34551E+03    -164.168E-03     327.620E-03    -163.451E-03     81.3845E-03    -165.016E-03     327.753E-03    -163.193E-03     76.4812E-03
              15     6.88060E-03     75.7352E-03    -72.8576E+06    -106.588E+06     3.82876E+06    -47.2623E+03    -164.261E-03     327.700E-03    -163.440E-03     86.4486E-03    -165.218E-03     328.009E-03    -163.160E-03     81.1265E-03
              16     7.64530E-03     75.8434E-03    -64.6508E+06    -85.4843E+06     15.1416E+06    -27.5612E+03    -164.293E-03     327.715E-03    -163.421E-03     90.0441E-03    -165.344E-03     328.188E-03    -163.128E-03     84.3793E-03
              17     8.41016E-03     75.9547E-03    -56.8781E+06    -63.6976E+06     25.5526E+06     14.7944E+03    -164.272E-03     327.671E-03    -163.398E-03     92.2177E-03    -165.399E-03     328.295E-03    -163.096E-03     86.2764E-03
              18     9.17498E-03     76.0678E-03    -49.7429E+06    -39.9587E+06     35.4235E+06    -204.444E+03    -164.217E-03     327.589E-03    -163.372E-03     93.0464E-03    -165.408E-03     328.359E-03    -163.065E-03     86.8723E-03
              19     9.93979E-03     76.1806E-03    -42.9475E+06    -14.1631E+06     44.7646E+06    -458.614E+03    -164.062E-03     327.405E-03    -163.343E-03     92.4975E-03    -165.303E-03     328.313E-03    -163.036E-03     86.1308E-03
              20     10.7047E-03     76.2916E-03    -35.9300E+06     19.1867E+06     55.3972E+06     56.6190E+03    -163.771E-03     327.077E-03    -163.306E-03     90.4496E-03    -165.055E-03     328.141E-03    -163.005E-03     83.9382E-03
              21     11.4698E-03     76.3986E-03    -28.8387E+06     62.9318E+06     66.8545E+06     654.810E+03    -163.374E-03     326.629E-03    -163.255E-03     86.4254E-03    -164.696E-03     327.878E-03    -162.970E-03     79.7960E-03
              22     12.2348E-03     76.4987E-03    -22.5597E+06     90.7465E+06     75.9777E+06     721.940E+03    -162.925E-03     326.139E-03    -163.214E-03     80.1264E-03    -164.239E-03     327.475E-03    -162.933E-03     73.3968E-03
              23     13.0004E-03     76.5886E-03    -17.2829E+06     96.2157E+06     81.1055E+06     593.479E+03    -162.464E-03     325.650E-03    -163.186E-03     69.8114E-03    -163.686E-03     326.916E-03    -162.894E-03     63.0902E-03
              24     13.7656E-03     76.6611E-03    -12.1131E+06     105.676E+06     92.8912E+06     231.164E+03    -162.028E-03     325.214E-03    -163.187E-03     59.2818E-03    -163.207E-03     326.457E-03    -162.858E-03     52.3822E-03
              25     14.5300E-03     76.7224E-03    -5.39193E+06     112.889E+06     104.046E+06    -549.986E+03    -161.887E-03     325.080E-03    -163.192E-03     37.6221E-03    -162.801E-03     326.072E-03    -162.828E-03     31.5919E-03
              26     15.2943E-03     78.0561E-03    -3.56963E+06     110.058E+06     102.772E+06     180.631E+03    -162.396E-03     325.589E-03    -163.193E-03     19.0401E-03    -163.017E-03     326.290E-03    -162.833E-03     14.1189E-03
              27     15.2953E-03     79.3691E-03    -3.46666E+06     109.946E+06     102.458E+06     1.19212E+06    -161.703E-03     324.919E-03    -163.216E-03     19.1849E-03    -162.320E-03     325.617E-03    -162.858E-03     14.3206E-03
              28     15.2953E-03     80.6808E-03    -2.27727E+06     111.182E+06     103.704E+06     58.3197E+03    -161.427E-03     324.626E-03    -163.199E-03     19.3806E-03    -162.043E-03     325.328E-03    -162.838E-03     14.5008E-03
              29     15.2960E-03     81.9950E-03    -1.41811E+06     111.856E+06     104.721E+06    -733.677E+03    -161.805E-03     324.975E-03    -163.170E-03     19.6092E-03    -162.423E-03     325.681E-03    -162.806E-03     14.6796E-03
              30     15.2959E-03     83.3081E-03    -3.09394E+06     111.349E+06     103.799E+06    -344.910E+03    -162.217E-03     325.400E-03    -163.183E-03     18.4329E-03    -162.838E-03     326.104E-03    -162.821E-03     13.4837E-03
              31     15.2937E-03     84.6223E-03    -3.97595E+06     110.123E+06     101.925E+06     150.793E+03    -161.855E-03     325.071E-03    -163.216E-03     18.6228E-03    -162.474E-03     325.771E-03    -162.860E-03     13.7226E-03
              32     15.2964E-03     85.9343E-03    -1.32430E+06     110.766E+06     103.690E+06    -1.38470E+06    -161.173E-03     324.369E-03    -163.196E-03     20.4637E-03    -161.789E-03     325.073E-03    -162.836E-03     15.5708E-03
              33     15.2958E-03     87.2480E-03    -2.36499E+06     110.498E+06     104.069E+06    -535.905E+03    -162.081E-03     325.256E-03    -163.175E-03     19.5530E-03    -162.699E-03     325.956E-03    -162.812E-03     14.6485E-03
              34     15.2943E-03     88.5628E-03    -4.08931E+06     109.801E+06     102.456E+06     1.92077E+06    -162.372E-03     325.575E-03    -163.203E-03     19.1939E-03    -162.992E-03     326.273E-03    -162.844E-03     14.3324E-03
              35     15.2955E-03     89.8746E-03    -3.01277E+06     110.436E+06     102.886E+06     898.078E+03    -161.733E-03     324.947E-03    -163.214E-03     19.5984E-03    -162.352E-03     325.649E-03    -162.855E-03     14.7227E-03
              36     15.2949E-03     91.1890E-03    -1.39779E+06     111.717E+06     104.467E+06    -193.163E+03    -161.622E-03     324.817E-03    -163.195E-03     19.8825E-03    -162.241E-03     325.525E-03    -162.833E-03     14.9587E-03
              37     15.2964E-03     92.5010E-03    -1.31338E+06     112.625E+06     105.026E+06    -836.555E+03    -161.790E-03     324.961E-03    -163.171E-03     19.8123E-03    -162.410E-03     325.671E-03    -162.807E-03     14.8872E-03
              38     15.2953E-03     93.8152E-03    -2.29053E+06     111.771E+06     104.335E+06    -789.009E+03    -162.105E-03     325.264E-03    -163.158E-03     19.3276E-03    -162.725E-03     325.970E-03    -162.796E-03     14.4031E-03
              39     15.2963E-03     95.1282E-03    -4.11910E+06     110.758E+06     103.205E+06     789.156E+03    -162.231E-03     325.404E-03    -163.173E-03     18.6833E-03    -162.856E-03     326.108E-03    -162.812E-03     13.7636E-03
              40     15.2943E-03     96.4426E-03    -4.22999E+06     111.127E+06     102.740E+06     902.061E+03    -162.167E-03     325.373E-03    -163.206E-03     18.5975E-03    -162.790E-03     326.078E-03    -162.847E-03     13.6983E-03
              41     15.2952E-03     97.7561E-03    -1.57739E+06     112.897E+06     104.462E+06     462.883E+03    -161.318E-03     324.527E-03    -163.209E-03     19.8310E-03    -161.940E-03     325.241E-03    -162.848E-03     14.9273E-03
              42     15.2966E-03     99.0671E-03    -1.10435E+06     114.704E+06     106.304E+06    -723.841E+03    -161.553E-03     324.737E-03    -163.185E-03     19.2494E-03    -162.175E-03     325.455E-03    -162.818E-03     14.3186E-03
              43     15.2943E-03     100.382E-03    -4.27510E+06     113.211E+06     103.805E+06      97.432E+03    -162.414E-03     325.605E-03    -163.191E-03     18.2865E-03    -163.039E-03     326.316E-03    -162.830E-03     13.3796E-03
              44     15.2955E-03     101.696E-03    -3.82941E+06     112.462E+06     103.204E+06     893.203E+03    -161.820E-03     325.029E-03    -163.209E-03     19.2445E-03    -162.443E-03     325.738E-03    -162.850E-03     14.3808E-03
              45     15.2951E-03     103.009E-03    -1.09393E+06     114.207E+06     105.343E+06     313.103E+03    -160.968E-03     324.160E-03    -163.192E-03     19.5893E-03    -161.588E-03     324.876E-03    -162.829E-03     14.6974E-03
              46     15.2973E-03     104.319E-03    -4.71301E+06     113.585E+06     103.277E+06    -1.98267E+06    -161.979E-03     325.143E-03    -163.164E-03     19.2464E-03    -162.612E-03     325.863E-03    -162.805E-03     14.3134E-03
              47     15.2932E-03     105.637E-03    -5.17225E+06     113.770E+06     103.050E+06     157.621E+03    -162.405E-03     325.585E-03    -163.181E-03     19.2372E-03    -163.035E-03     326.303E-03    -162.823E-03     14.3721E-03
              48     15.2975E-03     106.948E-03     1.90476E+06     120.246E+06     110.048E+06     1.91780E+06    -160.777E-03     323.979E-03    -163.202E-03     20.1942E-03    -161.397E-03     324.713E-03    -162.829E-03     15.3769E-03
              49     15.2952E-03     108.259E-03    -991.001E+03     121.129E+06     108.988E+06    -132.924E+03    -161.646E-03     324.832E-03    -163.186E-03     18.8017E-03    -162.279E-03     325.575E-03    -162.815E-03     13.8854E-03
              50     15.2950E-03     109.575E-03    -5.41491E+06     117.326E+06     104.238E+06     57.9309E+03    -162.121E-03     325.317E-03    -163.196E-03     18.4516E-03    -162.763E-03     326.054E-03    -162.837E-03     13.5103E-03
              51     15.2957E-03     110.886E-03    -2.09383E+06     119.831E+06     107.666E+06    -220.472E+03    -161.256E-03     324.451E-03    -163.194E-03     20.3958E-03    -161.895E-03     325.195E-03    -162.827E-03     15.5154E-03
              52     15.2964E-03     112.201E-03    -1.55205E+06     123.046E+06     109.496E+06     623.623E+03    -161.623E-03     324.805E-03    -163.181E-03     19.4356E-03    -162.263E-03     325.557E-03    -162.810E-03     14.5612E-03
              53     15.2947E-03     113.513E-03    -2.02926E+06     123.965E+06     108.709E+06     266.181E+03    -160.928E-03     324.128E-03    -163.199E-03     18.8838E-03    -161.567E-03     324.884E-03    -162.833E-03     14.0252E-03
              54     15.2971E-03     114.823E-03    -2.89870E+06     124.092E+06     108.388E+06    -302.257E+03    -160.769E-03     323.970E-03    -163.201E-03     19.0589E-03    -161.410E-03     324.727E-03    -162.835E-03     14.2196E-03
              55     15.2941E-03     116.138E-03    -1.61978E+06     125.053E+06     106.523E+06     2.67955E+06    -160.540E-03     323.716E-03    -163.176E-03     19.2803E-03    -161.174E-03     324.479E-03    -162.823E-03     14.4883E-03
              56     15.2988E-03     117.447E-03    -9.41608E+06     118.016E+06     98.3984E+06    -4.12246E+06    -161.442E-03     324.649E-03    -163.207E-03     17.6758E-03    -162.090E-03     325.397E-03    -162.872E-03     12.7277E-03
              57     15.2880E-03     118.764E-03    -11.3060E+06     115.906E+06     100.208E+06     2.17118E+06    -161.316E-03     324.650E-03    -163.334E-03     17.1812E-03    -161.972E-03     325.387E-03    -162.985E-03     12.3235E-03
              58     15.2983E-03     120.072E-03     5.43961E+06     131.298E+06     117.502E+06     5.15787E+06    -157.049E-03     320.402E-03    -163.353E-03     20.5210E-03    -157.677E-03     321.175E-03    -162.964E-03     15.8607E-03
              59     15.2964E-03     121.375E-03     2.95548E+06     134.616E+06     118.485E+06    -3.18598E+06    -157.974E-03     321.213E-03    -163.239E-03     18.3939E-03    -158.615E-03     321.999E-03    -162.846E-03     13.5553E-03
              60     15.2955E-03     122.691E-03    -5.57622E+06     129.470E+06     111.792E+06     1.24669E+06    -159.491E-03     322.719E-03    -163.227E-03     16.7713E-03    -160.151E-03     323.494E-03    -162.848E-03     11.9555E-03
              61     15.2967E-03     123.997E-03    -2.58103E+06     131.548E+06     114.303E+06     1.70581E+06    -157.300E-03     320.552E-03    -163.252E-03     18.9131E-03    -157.958E-03     321.336E-03    -162.867E-03     14.1954E-03
              62     15.2974E-03     125.305E-03    -3.55879E+06     133.614E+06     115.698E+06    -123.210E+03    -156.975E-03     320.176E-03    -163.201E-03     19.5614E-03    -157.643E-03     320.971E-03    -162.811E-03     14.8507E-03
              63     15.2986E-03     126.612E-03       -2.12E+03     134.819E+06     116.739E+06     982.913E+03    -156.664E-03     319.782E-03    -163.118E-03     20.0279E-03    -157.313E-03     320.571E-03    -162.730E-03     15.3984E-03
              64     15.3009E-03     127.918E-03    -8.99429E+06     125.696E+06     107.437E+06    -4.59217E+06    -158.733E-03     321.787E-03    -163.054E-03     19.0908E-03    -159.397E-03     322.554E-03    -162.686E-03     14.3306E-03
              65     15.2945E-03     129.232E-03    -22.8689E+06     114.086E+06     96.3225E+06    -2.77654E+06    -161.809E-03     324.890E-03    -163.080E-03     19.3007E-03    -162.510E-03     325.634E-03    -162.731E-03     14.5272E-03
              66     15.2976E-03     130.547E-03     -2.4415E+06     131.357E+06     108.763E+06     9.24240E+06    -158.749E-03     321.817E-03    -163.069E-03     23.4591E-03    -159.401E-03     322.611E-03    -162.712E-03     18.9838E-03
              67     15.3038E-03     131.849E-03     16.2405E+06     147.085E+06     128.584E+06    -909.821E+03    -157.720E-03     320.636E-03    -162.916E-03     25.8220E-03    -158.340E-03     321.463E-03    -162.510E-03     21.2105E-03
              68     15.3019E-03     133.162E-03     1.64778E+06     133.676E+06     122.002E+06    -4.42459E+06    -163.322E-03     326.040E-03    -162.717E-03     24.3403E-03    -163.982E-03     326.826E-03    -162.303E-03     19.5306E-03
              69     15.3031E-03     134.482E-03    -4.42898E+06     126.283E+06     115.492E+06     1.53473E+06    -166.620E-03     329.209E-03    -162.589E-03     25.3116E-03    -167.290E-03     329.977E-03    -162.189E-03     20.5351E-03
              70     15.3045E-03     135.801E-03    -1.40636E+06     127.939E+06     119.916E+06    -1.82754E+06    -169.059E-03     331.550E-03    -162.491E-03     27.3284E-03    -169.729E-03     332.322E-03    -162.075E-03     22.4755E-03
              71     15.3037E-03     137.128E-03    -3.91421E+06     122.845E+06     114.748E+06    -1.02439E+06    -173.479E-03     335.834E-03    -162.355E-03     28.4773E-03    -174.150E-03     336.594E-03    -161.953E-03     23.5562E-03
              72     15.3045E-03     138.458E-03    -4.89609E+06     114.244E+06     108.902E+06    -2.43008E+06    -177.706E-03     339.928E-03    -162.222E-03     30.1037E-03    -178.363E-03     340.657E-03    -161.836E-03     25.1043E-03
              73     15.3044E-03     139.795E-03    -1.16534E+06     107.374E+06     107.981E+06    -3.50844E+06    -181.996E-03     344.100E-03    -162.105E-03     31.6871E-03    -182.627E-03     344.796E-03    -161.719E-03     26.5910E-03
              74     15.3044E-03     141.138E-03    -4.31883E+06     95.8527E+06     102.985E+06    -1.92247E+06    -186.560E-03     348.544E-03    -161.984E-03     33.4900E-03    -187.188E-03     349.198E-03    -161.602E-03     28.3285E-03
              75     15.3047E-03     142.485E-03    -860.284E+03     82.8914E+06     100.388E+06    -3.08008E+06    -191.831E-03     353.663E-03    -161.832E-03     35.5405E-03    -192.419E-03     354.252E-03    -161.449E-03     30.3211E-03
              76     15.3055E-03     143.842E-03    -2.68091E+06     70.3420E+06     98.5322E+06    -6.64759E+06    -197.620E-03     359.289E-03    -161.669E-03     37.3113E-03    -198.194E-03     359.818E-03    -161.274E-03     32.0253E-03
              77     15.3056E-03     145.206E-03    -1.21283E+06     51.4777E+06     96.1263E+06    -6.35960E+06    -202.500E-03     364.020E-03    -161.520E-03     38.7580E-03    -203.031E-03     364.450E-03    -161.112E-03     33.4980E-03
              78     15.3072E-03     146.573E-03    -2.45689E+06     31.3029E+06     96.4634E+06    -4.57463E+06    -206.849E-03     368.241E-03    -161.391E-03     39.7088E-03    -207.347E-03     368.562E-03    -160.951E-03     34.5395E-03
              79     15.3072E-03     147.948E-03     381.241E+03     25.3424E+06     102.115E+06     5.65013E+06    -210.497E-03     371.769E-03    -161.272E-03     40.1213E-03    -210.960E-03     372.028E-03    -160.799E-03     35.2703E-03
              80     15.3095E-03     149.326E-03    -9.85948E+06     29.1633E+06     102.825E+06    -624.319E+03    -211.440E-03     372.621E-03    -161.181E-03     41.5677E-03    -211.921E-03     372.873E-03    -160.695E-03     37.1990E-03
              81     15.3098E-03     150.707E-03     7.51865E+06     30.1148E+06     103.634E+06    -207.666E+03    -207.167E-03     368.309E-03    -161.142E-03     46.9011E-03    -207.476E-03     368.453E-03    -160.678E-03     44.0643E-03
              82     15.3147E-03     152.082E-03     10.8428E+06     28.8227E+06     71.4592E+06    -1.20868E+06    -168.043E-03     330.015E-03    -161.972E-03     29.9962E-03    -168.172E-03     330.097E-03    -161.673E-03     29.0660E-03
              83     14.4717E-03     153.260E-03    -24.0469E+06    -11.6198E+06     42.0664E+06    -9.65198E+06    -127.175E-03     290.855E-03    -163.679E-03    -11.0640E-03    -127.306E-03     290.786E-03    -163.417E-03    -11.6430E-03
              84     13.6530E-03     153.102E-03    -1.07758E+06    -8.45325E+06     80.0786E+06     1.58825E+06    -116.592E-03     282.081E-03    -165.489E-03    -48.7882E-03    -116.637E-03     281.914E-03    -165.075E-03    -49.5513E-03
              85     12.8495E-03     152.925E-03     11.8404E+06     8.34320E+06     99.8703E+06    -970.240E+03    -109.360E-03     276.783E-03    -167.423E-03    -77.0760E-03    -109.371E-03     276.615E-03    -166.953E-03    -77.8609E-03
              86     12.0528E-03     152.745E-03     12.5473E+06    -4.06673E+06     99.1889E+06    -2.35387E+06    -107.727E-03     277.156E-03    -169.430E-03    -95.2997E-03    -107.703E-03     276.905E-03    -168.946E-03    -96.0948E-03
              87     11.2633E-03     152.560E-03     13.2413E+06     1.25099E+06     103.953E+06    -1.34560E+06    -110.285E-03     281.655E-03    -171.370E-03    -109.377E-03    -110.262E-03     281.402E-03    -170.871E-03    -110.174E-03
              88     10.4826E-03     152.375E-03     13.1168E+06    -802.967E+03     104.855E+06    -1.51679E+06    -114.919E-03     288.017E-03    -173.098E-03    -120.726E-03    -114.886E-03     287.732E-03    -172.591E-03    -121.570E-03
              89     9.70949E-03     152.191E-03     12.4763E+06     576.624E+03     105.450E+06    -2.08157E+06    -120.551E-03     295.117E-03    -174.565E-03    -128.953E-03    -120.518E-03     294.822E-03    -174.057E-03    -129.854E-03
              90     8.94306E-03     152.012E-03     11.6192E+06    -475.445E+03     104.785E+06    -3.10836E+06    -126.711E-03     302.471E-03    -175.760E-03    -134.481E-03    -126.675E-03     302.158E-03    -175.253E-03    -135.450E-03
              91     8.18249E-03     151.839E-03     11.2272E+06     234.752E+03     104.180E+06    -4.89195E+06    -133.213E-03     309.889E-03    -176.676E-03    -137.516E-03    -133.178E-03     309.568E-03    -176.172E-03    -138.564E-03
              92     7.42723E-03     151.675E-03     11.7571E+06    -1.03085E+06     102.472E+06    -6.69399E+06    -139.800E-03     317.110E-03    -177.310E-03    -137.789E-03    -139.762E-03     316.776E-03    -176.813E-03    -138.902E-03
              93     6.67632E-03     151.520E-03     13.4022E+06    -1.69304E+06     99.5642E+06    -8.12831E+06    -146.128E-03     323.802E-03    -177.675E-03    -135.111E-03    -146.085E-03     323.464E-03    -177.194E-03    -136.267E-03
              94     5.92901E-03     151.378E-03     15.8958E+06    -2.25784E+06     94.9370E+06    -9.17557E+06    -152.009E-03     329.814E-03    -177.804E-03    -129.477E-03    -151.962E-03     329.477E-03    -177.349E-03    -130.648E-03
              95     5.18420E-03     151.248E-03     19.0075E+06    -3.05783E+06     89.3948E+06    -9.64991E+06    -157.295E-03     335.045E-03    -177.750E-03    -121.089E-03    -157.243E-03     334.717E-03    -177.326E-03    -122.245E-03
              96     4.44111E-03     151.132E-03     22.3971E+06    -2.83608E+06     82.8635E+06    -9.98633E+06    -161.848E-03     339.417E-03    -177.569E-03    -110.259E-03    -161.793E-03     339.106E-03    -177.183E-03    -111.372E-03
              97     3.69898E-03     151.032E-03     26.3857E+06    -3.05687E+06     75.1578E+06    -10.8247E+06    -165.807E-03     343.124E-03    -177.317E-03    -97.2211E-03    -165.746E-03     342.831E-03    -176.975E-03    -98.2691E-03
              98     2.95777E-03     150.948E-03     30.8578E+06    -3.98692E+06     67.0031E+06    -11.0028E+06    -169.159E-03     346.204E-03    -177.045E-03    -82.1086E-03    -169.090E-03     345.927E-03    -176.749E-03    -83.0534E-03
              99     2.21708E-03     150.881E-03     35.2247E+06    -4.89062E+06     58.0091E+06    -10.3614E+06    -171.799E-03     348.619E-03    -176.820E-03    -65.1026E-03    -171.721E-03     348.358E-03    -176.574E-03    -65.9082E-03
             100     1.47667E-03     150.832E-03     38.9029E+06    -6.13535E+06     49.6106E+06    -9.10426E+06    -173.775E-03     350.542E-03    -176.767E-03    -46.5421E-03    -173.689E-03     350.294E-03    -176.567E-03    -47.1751E-03
             101     736.526E-06     150.801E-03     40.9368E+06    -9.96576E+06     39.3309E+06    -6.47545E+06    -174.498E-03     352.521E-03    -178.023E-03    -28.3991E-03    -174.404E-03     352.268E-03    -177.871E-03    -28.8335E-03
             102     2.46476E-06     149.435E-03     9.55535E+06    -23.5834E+06     9.40046E+06    -4.99606E+06    -158.884E-03     318.641E-03    -159.757E-03    -10.4315E-03    -158.866E-03     318.440E-03    -159.690E-03    -10.6618E-03
             103     93.6922E-09     148.178E-03    -52.9992E+06    -50.5033E+06    -50.2051E+06    -6.64584E+06    -133.962E-03     265.957E-03    -131.994E-03     1.46684E-03    -134.095E-03     265.841E-03    -132.095E-03     1.29793E-03
             104     578.638E-09     146.964E-03    -117.637E+06    -84.2114E+06    -116.973E+06    -7.17667E+06    -121.080E-03     241.158E-03    -120.078E-03     6.18113E-03    -121.379E-03     241.075E-03    -120.370E-03     6.01284E-03
             105     360.960E-09     145.767E-03    -181.022E+06    -116.408E+06    -178.670E+06    -6.83430E+06    -117.527E-03     234.012E-03    -116.485E-03     9.59027E-03    -118.005E-03     233.952E-03    -116.947E-03     9.46455E-03
             106     348.298E-09     144.569E-03    -223.559E+06    -146.807E+06     -223.42E+06    -6.57878E+06    -119.580E-03     238.274E-03    -118.694E-03     11.2837E-03    -120.162E-03     238.188E-03    -119.274E-03     11.1681E-03
             107     302.880E-09     143.361E-03    -218.391E+06    -171.232E+06    -218.804E+06    -4.29555E+06    -124.991E-03     249.239E-03    -124.248E-03     11.8402E-03    -125.520E-03     249.016E-03    -124.777E-03     11.7430E-03
             108     168.461E-09     142.137E-03    -176.992E+06    -183.773E+06    -177.520E+06    -1.19739E+06    -132.011E-03     263.483E-03    -131.473E-03     11.6682E-03    -132.375E-03     263.077E-03    -131.837E-03     11.5833E-03
             109     156.193E-09     140.894E-03    -145.823E+06    -186.857E+06    -145.684E+06    -56.6620E+03    -139.577E-03     278.590E-03    -139.013E-03     11.2095E-03    -139.827E-03     278.078E-03    -139.259E-03     11.1049E-03
             110     359.630E-09     139.633E-03    -134.412E+06    -189.127E+06    -134.450E+06    -773.835E+03    -146.928E-03     293.326E-03    -146.398E-03     11.0010E-03    -147.135E-03     292.770E-03    -146.601E-03     10.8492E-03
             111    -91.5879E-09     138.353E-03    -131.830E+06    -194.072E+06    -131.975E+06    -1.30852E+06    -153.686E-03     307.048E-03    -153.361E-03     10.5559E-03    -153.877E-03     306.461E-03    -153.549E-03     10.3520E-03
             112     285.687E-09     137.056E-03    -133.222E+06    -201.165E+06    -133.640E+06    -1.50787E+06    -159.675E-03     318.980E-03    -159.306E-03     9.95008E-03    -159.859E-03     318.363E-03    -159.489E-03     9.69522E-03
             113     45.8185E-09     135.745E-03    -134.464E+06    -208.500E+06    -136.374E+06    -1.32240E+06    -164.422E-03     328.508E-03    -164.087E-03     9.52764E-03    -164.598E-03     327.862E-03    -164.271E-03     9.20960E-03
             114     81.9149E-09     134.423E-03    -138.046E+06    -215.870E+06    -137.717E+06    -1.26621E+06    -167.762E-03     335.282E-03    -167.520E-03     8.95743E-03    -167.944E-03     334.606E-03    -167.695E-03     8.57424E-03
             115     130.868E-09     133.094E-03    -140.852E+06    -223.716E+06    -140.903E+06    -1.66542E+06    -169.793E-03     339.241E-03    -169.448E-03     8.46936E-03    -169.974E-03     338.536E-03    -169.624E-03     8.03024E-03
             116     152.550E-09     131.762E-03    -142.833E+06    -231.048E+06    -143.369E+06    -1.29887E+06    -170.588E-03     340.818E-03    -170.231E-03     8.16884E-03    -170.764E-03     340.083E-03    -170.406E-03     7.69734E-03
             117     75.3748E-09     130.429E-03    -143.374E+06    -236.710E+06    -142.996E+06    -951.609E+03    -170.491E-03     340.705E-03    -170.214E-03     7.96788E-03    -170.663E-03     339.943E-03    -170.378E-03     7.48232E-03
             118     97.6657E-09     129.097E-03    -143.725E+06    -243.799E+06    -144.825E+06    -1.63089E+06    -169.950E-03     339.560E-03    -169.610E-03     7.82799E-03    -170.111E-03     338.765E-03    -169.772E-03     7.32382E-03
             119     214.395E-09     127.767E-03    -146.457E+06    -251.865E+06    -146.085E+06    -1.33379E+06    -169.148E-03     337.871E-03    -168.723E-03     7.83657E-03    -169.309E-03     337.041E-03    -168.875E-03     7.33347E-03
             120     103.714E-09     126.440E-03    -147.664E+06    -257.799E+06    -147.602E+06    -1.16104E+06    -168.157E-03     335.905E-03    -167.748E-03     7.89065E-03    -168.313E-03     335.050E-03    -167.898E-03     7.39531E-03
             121     180.737E-09     125.116E-03    -149.205E+06    -263.802E+06    -149.511E+06    -1.18058E+06    -167.167E-03     333.924E-03    -166.757E-03     7.97755E-03    -167.319E-03     333.044E-03    -166.906E-03     7.48592E-03
             122     133.749E-09     123.794E-03    -150.960E+06    -269.909E+06    -151.010E+06    -993.599E+03    -166.281E-03     332.164E-03    -165.884E-03     8.11215E-03    -166.431E-03     331.259E-03    -166.028E-03     7.62279E-03
             123     133.553E-09     122.475E-03    -152.758E+06    -274.486E+06    -152.655E+06    -712.533E+03    -165.511E-03     330.708E-03    -165.197E-03     8.21806E-03    -165.661E-03     329.784E-03    -165.341E-03     7.74170E-03
             124     53.6557E-09     121.157E-03    -153.904E+06    -277.850E+06    -153.252E+06    -634.518E+03    -164.930E-03     329.582E-03    -164.651E-03     8.29993E-03    -165.081E-03     328.644E-03    -164.792E-03     7.83004E-03
             125     166.872E-09     119.840E-03    -153.614E+06    -281.749E+06    -153.835E+06    -787.850E+03    -164.532E-03     328.814E-03    -164.282E-03     8.45275E-03    -164.674E-03     327.857E-03    -164.420E-03     7.98036E-03
             126    -33.5415E-09     118.524E-03    -152.258E+06    -284.145E+06    -152.356E+06    -222.277E+03    -164.345E-03     328.300E-03    -163.955E-03     8.48921E-03    -164.479E-03     327.327E-03    -164.084E-03     8.02360E-03
             127     467.974E-09     117.209E-03    -151.837E+06    -286.094E+06    -151.737E+06    -594.196E+03    -164.184E-03     327.860E-03    -163.676E-03     8.60746E-03    -164.314E-03     326.876E-03    -163.800E-03     8.13845E-03
             128    -152.169E-09     115.895E-03    -151.126E+06    -288.766E+06    -151.504E+06    -311.307E+03    -163.914E-03     327.512E-03    -163.598E-03     8.47439E-03    -164.037E-03     326.513E-03    -163.717E-03     8.01567E-03
             129     290.464E-09     114.581E-03    -150.215E+06    -290.208E+06    -149.867E+06    -158.008E+03    -163.815E-03     327.312E-03    -163.497E-03     8.27311E-03    -163.934E-03     326.302E-03    -163.608E-03     7.81922E-03
             130     36.1492E-09     113.267E-03    -149.148E+06    -290.964E+06    -149.408E+06    -117.208E+03    -163.799E-03     327.154E-03    -163.356E-03     8.28369E-03    -163.911E-03     326.138E-03    -163.465E-03     7.83033E-03
             131     286.251E-09     111.953E-03    -148.365E+06    -290.332E+06    -148.249E+06     308.527E+03    -163.726E-03     326.984E-03    -163.258E-03     8.36437E-03    -163.838E-03     325.969E-03    -163.363E-03     7.91628E-03
             132     83.1610E-09     110.639E-03    -148.192E+06    -290.510E+06    -148.169E+06    -235.465E+03    -163.573E-03     326.820E-03    -163.247E-03     8.53790E-03    -163.683E-03     325.803E-03    -163.352E-03     8.08236E-03
             133     18.1646E-09     109.326E-03    -147.251E+06    -290.857E+06    -147.591E+06     62.2223E+03    -163.469E-03     326.698E-03    -163.229E-03     8.50343E-03    -163.576E-03     325.677E-03    -163.331E-03     8.04717E-03
             134     218.639E-09     108.013E-03    -147.537E+06    -290.366E+06    -147.379E+06     11.6455E+03    -163.574E-03     326.725E-03    -163.152E-03     8.55149E-03    -163.682E-03     325.707E-03    -163.254E-03     8.09545E-03
             135     163.795E-09     106.699E-03    -147.436E+06    -290.568E+06    -147.606E+06     16.6342E+03    -163.548E-03     326.728E-03    -163.180E-03     8.54481E-03    -163.656E-03     325.709E-03    -163.283E-03     8.09331E-03
             136    -12.0862E-09     105.386E-03    -146.632E+06    -290.466E+06    -146.621E+06    -64.7492E+03    -163.456E-03     326.664E-03    -163.208E-03     8.47816E-03    -163.561E-03     325.642E-03    -163.307E-03     8.02573E-03
             137     212.519E-09     104.073E-03    -146.681E+06    -290.390E+06    -146.968E+06     22.3202E+03    -163.517E-03     326.667E-03    -163.150E-03     8.52011E-03    -163.622E-03     325.647E-03    -163.251E-03     8.06846E-03
             138     117.730E-09     102.759E-03    -146.992E+06    -290.150E+06    -146.922E+06     233.795E+03    -163.438E-03     326.544E-03    -163.106E-03     8.59175E-03    -163.545E-03     325.525E-03    -163.207E-03     8.14185E-03
             139     32.1255E-09     101.446E-03    -146.500E+06    -289.540E+06    -146.746E+06     56.0352E+03    -163.367E-03     326.407E-03    -163.041E-03     8.54072E-03    -163.472E-03     325.391E-03    -163.142E-03     8.09064E-03
             140     286.436E-09     100.134E-03    -146.469E+06    -288.655E+06    -146.457E+06     160.094E+03    -163.476E-03     326.498E-03    -163.023E-03     8.58897E-03    -163.583E-03     325.486E-03    -163.124E-03     8.13689E-03
             141     59.7892E-09     98.8202E-03    -146.996E+06    -288.754E+06    -146.843E+06    -168.532E+03    -163.506E-03     326.585E-03    -163.079E-03     8.58709E-03    -163.615E-03     325.573E-03    -163.182E-03     8.13201E-03
             142     219.988E-09     97.5072E-03    -147.131E+06    -289.096E+06    -147.264E+06     1.37589E+03    -163.446E-03     326.517E-03    -163.071E-03     8.47125E-03    -163.554E-03     325.504E-03    -163.175E-03     8.02211E-03
             143     44.5759E-09     96.1943E-03    -147.195E+06    -288.976E+06    -147.439E+06     141.681E+03    -163.454E-03     326.567E-03    -163.113E-03     8.47785E-03    -163.563E-03     325.555E-03    -163.218E-03     8.03007E-03
             144     183.825E-09     94.8810E-03    -146.940E+06    -288.681E+06    -146.988E+06     147.627E+03    -163.531E-03     326.687E-03    -163.156E-03     8.40701E-03    -163.639E-03     325.675E-03    -163.259E-03     7.95923E-03
             145     134.458E-09     93.5677E-03    -146.700E+06    -288.236E+06    -146.438E+06    -65.2504E+03    -163.475E-03     326.619E-03    -163.144E-03     8.44549E-03    -163.584E-03     325.609E-03    -163.245E-03     7.99350E-03
             146     30.6691E-09     92.2545E-03    -146.812E+06    -288.582E+06    -147.333E+06    -61.5225E+03    -163.374E-03     326.526E-03    -163.152E-03     8.51687E-03    -163.481E-03     325.515E-03    -163.257E-03     8.06221E-03
             147     111.028E-09     90.9413E-03    -146.982E+06    -288.389E+06    -146.969E+06     204.214E+03    -163.389E-03     326.536E-03    -163.147E-03     8.53007E-03    -163.498E-03     325.527E-03    -163.251E-03     8.07744E-03
             148     89.8592E-09     89.6284E-03    -146.942E+06    -288.224E+06    -146.862E+06    -166.946E+03    -163.430E-03     326.528E-03    -163.097E-03     8.39687E-03    -163.540E-03     325.518E-03    -163.201E-03     7.94653E-03
             149     192.963E-09     88.3154E-03    -146.738E+06    -288.327E+06    -146.984E+06     141.023E+03    -163.446E-03     326.482E-03    -163.036E-03     8.34320E-03    -163.554E-03     325.472E-03    -163.140E-03     7.90165E-03
             150     123.074E-09     87.0023E-03    -147.104E+06    -288.237E+06    -146.878E+06    -46.4204E+03    -163.442E-03     326.538E-03    -163.096E-03     8.44721E-03    -163.552E-03     325.529E-03    -163.199E-03     7.99892E-03
             151     64.4782E-09     85.6891E-03    -147.171E+06    -288.471E+06    -147.482E+06    -200.831E+03    -163.497E-03     326.609E-03    -163.112E-03     8.38416E-03    -163.606E-03     325.600E-03    -163.218E-03     7.92935E-03
             152     306.665E-09     84.3758E-03    -146.891E+06    -288.312E+06    -146.735E+06     308.412E+03    -163.578E-03     326.623E-03    -163.045E-03     8.42459E-03    -163.687E-03     325.613E-03    -163.148E-03     7.97748E-03
             153     112.068E-09     83.0627E-03    -146.640E+06    -287.931E+06    -146.323E+06    -166.278E+03    -163.554E-03     326.650E-03    -163.096E-03     8.41700E-03    -163.663E-03     325.641E-03    -163.197E-03     7.96464E-03
             154     147.384E-09     81.7495E-03    -146.725E+06    -288.348E+06    -147.121E+06    -105.914E+03    -163.529E-03     326.704E-03    -163.175E-03     8.38223E-03    -163.637E-03     325.694E-03    -163.280E-03     7.92987E-03
             155     104.462E-09     80.4360E-03    -147.195E+06    -288.508E+06    -146.935E+06     316.028E+03    -163.566E-03     326.750E-03    -163.183E-03     8.40499E-03    -163.677E-03     325.740E-03    -163.286E-03     7.95879E-03
             156     205.804E-09     79.1226E-03    -146.890E+06    -288.057E+06    -147.022E+06    -12.3554E+03    -163.557E-03     326.708E-03    -163.151E-03     8.37809E-03    -163.666E-03     325.700E-03    -163.255E-03     7.93182E-03
             157     78.0874E-09     77.8095E-03    -146.714E+06    -288.036E+06    -146.991E+06    -96.7758E+03    -163.506E-03     326.680E-03    -163.174E-03     8.42973E-03    -163.614E-03     325.671E-03    -163.279E-03     7.98500E-03
             158     115.739E-09     76.4959E-03    -147.090E+06    -288.330E+06    -147.009E+06     71.1069E+03    -163.509E-03     326.702E-03    -163.192E-03     8.46407E-03    -163.619E-03     325.692E-03    -163.296E-03     8.02319E-03
             159     227.152E-09     73.8693E-03    -146.864E+06    -287.968E+06    -146.839E+06    -107.072E+03    -163.464E-03     326.640E-03    -163.176E-03     8.49857E-03    -163.574E-03     325.632E-03    -163.280E-03     8.04949E-03
             160    -188.676E-09     72.5562E-03    -147.093E+06    -288.648E+06    -147.437E+06     4.80162E+03    -163.377E-03     326.574E-03    -163.197E-03     8.36414E-03    -163.485E-03     325.564E-03    -163.303E-03     7.91662E-03
             161     395.490E-09     71.2432E-03    -147.068E+06    -288.245E+06    -146.886E+06     131.205E+03    -163.545E-03     326.637E-03    -163.093E-03     8.30599E-03    -163.655E-03     325.628E-03    -163.196E-03     7.86207E-03
             162     65.4431E-09     69.9297E-03    -147.102E+06    -287.952E+06    -147.095E+06      40.713E+03    -163.569E-03     326.649E-03    -163.080E-03     8.42304E-03    -163.679E-03     325.641E-03    -163.184E-03     7.98016E-03
             163     195.850E-09     68.6164E-03    -147.021E+06    -288.312E+06    -147.012E+06    -133.836E+03    -163.537E-03     326.650E-03    -163.113E-03     8.48424E-03    -163.647E-03     325.641E-03    -163.217E-03     8.03701E-03
             164     164.567E-09     67.3032E-03    -146.970E+06    -288.610E+06    -147.150E+06    -40.0315E+03    -163.617E-03     326.757E-03    -163.140E-03     8.51975E-03    -163.726E-03     325.746E-03    -163.244E-03     8.07421E-03
             165     175.739E-09     65.9896E-03    -147.179E+06    -288.453E+06    -147.235E+06     58.7936E+03    -163.525E-03     326.729E-03    -163.204E-03     8.45390E-03    -163.635E-03     325.719E-03    -163.308E-03     8.00851E-03
             166    -51.5535E-09     64.6766E-03    -147.001E+06    -288.306E+06    -146.938E+06    -83.1036E+03    -163.343E-03     326.571E-03    -163.228E-03     8.36123E-03    -163.453E-03     325.562E-03    -163.332E-03     7.91189E-03
             167     78.3457E-09     63.3636E-03    -146.985E+06    -288.626E+06    -147.313E+06     128.540E+03    -163.360E-03     326.575E-03    -163.215E-03     8.33409E-03    -163.468E-03     325.564E-03    -163.320E-03     7.89073E-03
             168     88.3826E-09     62.0502E-03    -146.976E+06    -288.262E+06    -146.808E+06     130.245E+03    -163.495E-03     326.575E-03    -163.080E-03     8.24571E-03    -163.604E-03     325.565E-03    -163.183E-03     7.80174E-03
             169     355.155E-09     60.7373E-03    -146.852E+06    -288.280E+06    -146.988E+06    -155.470E+03    -163.505E-03     326.467E-03    -162.962E-03     8.25210E-03    -163.613E-03     325.457E-03    -163.066E-03     7.80331E-03
             170     4.44036E-09     59.4244E-03    -146.682E+06    -288.154E+06    -146.814E+06     125.545E+03    -163.353E-03     326.499E-03    -163.145E-03     8.37657E-03    -163.461E-03     325.489E-03    -163.249E-03     7.93040E-03
             171    -73.4287E-09     58.1109E-03    -146.815E+06    -287.903E+06    -146.853E+06    -117.573E+03    -163.304E-03     326.477E-03    -163.173E-03     8.29406E-03    -163.413E-03     325.469E-03    -163.277E-03     7.85001E-03
             172     316.076E-09     56.7981E-03    -147.128E+06    -288.399E+06    -147.188E+06     60.0311E+03    -163.360E-03     326.387E-03    -163.027E-03     8.45724E-03    -163.469E-03     325.377E-03    -163.131E-03     8.02227E-03
             173    -77.2841E-09     55.4852E-03    -146.930E+06    -288.180E+06    -147.059E+06     134.603E+03    -163.304E-03     326.408E-03    -163.103E-03     8.50817E-03    -163.414E-03     325.399E-03    -163.208E-03     8.06856E-03
             174     117.847E-09     54.1721E-03    -146.982E+06    -288.181E+06    -146.984E+06    -121.138E+03    -163.323E-03     326.420E-03    -163.097E-03     8.46631E-03    -163.433E-03     325.411E-03    -163.201E-03     8.02005E-03
             175     160.471E-09     52.8593E-03    -147.142E+06    -288.282E+06    -147.057E+06    -52.4070E+03    -163.471E-03     326.445E-03    -162.974E-03     8.44376E-03    -163.580E-03     325.436E-03    -163.078E-03     8.00034E-03
             176     294.219E-09     51.5464E-03    -146.779E+06    -287.880E+06    -147.010E+06     86.7692E+03    -163.476E-03     326.470E-03    -162.994E-03     8.39449E-03    -163.585E-03     325.463E-03    -163.099E-03     7.95107E-03
             177    -40.6171E-09     50.2333E-03    -146.889E+06    -287.889E+06    -146.704E+06     55.1924E+03    -163.323E-03     326.434E-03    -163.110E-03     8.39078E-03    -163.433E-03     325.426E-03    -163.213E-03     7.94393E-03
             178     88.9535E-09     48.9204E-03    -146.436E+06    -287.764E+06    -146.957E+06    -279.655E+03    -163.300E-03     326.322E-03    -163.023E-03     8.27115E-03    -163.407E-03     325.315E-03    -163.128E-03     7.81952E-03
             179     256.601E-09     47.6077E-03    -147.197E+06    -288.222E+06    -147.082E+06     230.197E+03    -163.281E-03     326.256E-03    -162.975E-03     8.32473E-03    -163.391E-03     325.247E-03    -163.079E-03     7.88102E-03
             180    -158.399E-09     46.2952E-03    -146.756E+06    -287.904E+06    -146.749E+06     31.0078E+03    -163.270E-03     326.374E-03    -163.104E-03     8.31673E-03    -163.379E-03     325.366E-03    -163.207E-03     7.87043E-03
             181     289.197E-09     44.9817E-03    -146.727E+06    -288.194E+06    -147.098E+06    -246.633E+03    -163.543E-03     326.640E-03    -163.097E-03     8.41916E-03    -163.651E-03     325.631E-03    -163.202E-03     7.97070E-03
             182     231.374E-09     43.6685E-03    -147.954E+06    -288.939E+06    -147.628E+06     162.250E+03    -163.756E-03     326.981E-03    -163.225E-03     8.53722E-03    -163.868E-03     325.971E-03    -163.330E-03     8.09507E-03
             183     34.9708E-09     42.3545E-03    -147.367E+06    -288.031E+06    -147.393E+06     124.741E+03    -163.868E-03     327.308E-03    -163.440E-03     8.40803E-03    -163.979E-03     326.301E-03    -163.546E-03     7.96177E-03
             184     325.745E-09     41.0401E-03    -147.227E+06    -288.098E+06    -147.067E+06    -104.450E+03    -163.993E-03     327.449E-03    -163.456E-03     8.39561E-03    -164.104E-03     326.441E-03    -163.560E-03     7.94552E-03
             185     109.814E-09     39.7258E-03    -147.231E+06    -288.428E+06    -147.280E+06    -75.9419E+03    -163.947E-03     327.399E-03    -163.453E-03     8.43661E-03    -164.057E-03     326.390E-03    -163.557E-03     7.98752E-03
             186     182.961E-09     38.4117E-03    -147.352E+06    -287.932E+06    -147.481E+06     357.063E+03    -163.865E-03     327.347E-03    -163.482E-03     8.39762E-03    -163.976E-03     326.340E-03    -163.588E-03     7.95332E-03
             187     81.7836E-09     37.0975E-03    -146.742E+06    -286.764E+06    -146.603E+06     283.376E+03    -163.853E-03     327.345E-03    -163.492E-03     8.40944E-03    -163.964E-03     326.343E-03    -163.596E-03     7.96622E-03
             188     181.080E-09     35.7833E-03    -146.863E+06    -286.671E+06    -146.744E+06    -327.847E+03    -163.871E-03     327.355E-03    -163.484E-03     8.41013E-03    -163.983E-03     326.353E-03    -163.589E-03     7.96031E-03
             189     122.739E-09     34.4692E-03    -146.475E+06    -287.467E+06    -146.658E+06    -106.190E+03    -163.824E-03     327.285E-03    -163.461E-03     8.36430E-03    -163.933E-03     326.279E-03    -163.565E-03     7.91697E-03
             190     101.558E-09     33.1551E-03    -145.661E+06    -287.477E+06    -145.798E+06     87.2121E+03    -163.683E-03     327.046E-03    -163.363E-03     8.30580E-03    -163.788E-03     326.037E-03    -163.464E-03     7.86320E-03
             191     135.596E-09     31.8416E-03    -145.301E+06    -287.123E+06    -145.335E+06    -115.122E+03    -163.488E-03     326.655E-03    -163.167E-03     8.26517E-03    -163.593E-03     325.646E-03    -163.266E-03     7.82374E-03
             192     93.7700E-09     30.5286E-03    -145.090E+06    -287.299E+06    -145.088E+06     221.330E+03    -163.215E-03     326.117E-03    -162.902E-03     8.19172E-03    -163.319E-03     325.107E-03    -163.000E-03     7.75824E-03
             193     131.866E-09     29.2165E-03    -144.864E+06    -287.210E+06    -144.974E+06     72.6522E+03    -162.867E-03     325.426E-03    -162.559E-03     8.11432E-03    -162.970E-03     324.416E-03    -162.657E-03     7.68307E-03
             194     89.3728E-09     27.9054E-03    -144.753E+06    -286.689E+06    -144.855E+06    -45.4974E+03    -162.437E-03     324.574E-03    -162.137E-03     8.01293E-03    -162.540E-03     323.566E-03    -162.236E-03     7.58521E-03
             195     123.591E-09     26.5956E-03    -144.736E+06    -286.431E+06    -144.815E+06     118.337E+03    -161.916E-03     323.532E-03    -161.617E-03     7.87543E-03    -162.019E-03     322.525E-03    -161.716E-03     7.45626E-03
             196     97.8353E-09     25.2872E-03    -144.536E+06    -286.013E+06    -144.595E+06     36.4579E+03    -161.274E-03     322.249E-03    -160.975E-03     7.69699E-03    -161.377E-03     321.243E-03    -161.073E-03     7.28489E-03
             197     117.561E-09     23.9808E-03    -144.247E+06    -285.752E+06    -144.375E+06     44.4710E+03    -160.469E-03     320.661E-03    -160.192E-03     7.47029E-03    -160.572E-03     319.656E-03    -160.290E-03     7.06817E-03
             198     71.7715E-09     22.6766E-03    -143.782E+06    -285.432E+06    -143.878E+06     69.3263E+03    -159.434E-03     318.652E-03    -159.218E-03     7.15923E-03    -159.535E-03     317.647E-03    -159.315E-03     6.77062E-03
             199     52.1798E-09     21.3755E-03    -143.159E+06    -285.084E+06    -143.316E+06     47.4711E+03    -158.044E-03     315.982E-03    -157.938E-03     6.72476E-03    -158.143E-03     314.976E-03    -158.033E-03     6.35381E-03
             200    -28.7564E-09     20.0784E-03    -142.398E+06    -284.807E+06    -142.559E+06     42.3736E+03    -156.132E-03     312.320E-03    -156.188E-03     6.14403E-03    -156.228E-03     311.312E-03    -156.281E-03     5.79664E-03
             201    -93.9145E-09     18.7868E-03    -141.532E+06    -284.411E+06    -141.738E+06     85.2452E+03    -153.527E-03     307.263E-03    -153.736E-03     5.36325E-03    -153.619E-03     306.254E-03    -153.827E-03     5.04718E-03
             202    -115.601E-09     17.5028E-03    -140.468E+06    -283.713E+06    -140.639E+06     152.893E+03    -150.129E-03     300.504E-03    -150.375E-03     4.44853E-03    -150.219E-03     299.494E-03    -150.463E-03     4.16854E-03
             203    -57.5080E-09     16.2287E-03    -139.012E+06    -282.692E+06    -139.199E+06     201.732E+03    -145.944E-03     292.059E-03    -146.114E-03     3.51589E-03    -146.030E-03     291.049E-03    -146.199E-03     3.26974E-03
             204    -30.0248E-09     14.9664E-03    -137.440E+06    -281.352E+06    -137.605E+06     298.933E+03    -141.064E-03     282.198E-03    -141.134E-03     2.58740E-03    -141.146E-03     281.190E-03    -141.214E-03     2.37103E-03
             205     16.9576E-09     13.7174E-03    -135.742E+06    -279.571E+06    -135.851E+06     387.250E+03    -135.668E-03     271.277E-03    -135.609E-03     1.64967E-03    -135.747E-03     270.273E-03    -135.686E-03     1.45646E-03
             206     100.769E-09     12.4825E-03    -134.268E+06    -277.556E+06    -134.205E+06     344.455E+03    -130.106E-03     259.956E-03    -129.850E-03     845.287E-06    -130.183E-03     258.958E-03    -129.924E-03     659.360E-06
             207     201.303E-09     11.2618E-03    -133.743E+06    -276.121E+06    -133.256E+06     95.2310E+03    -125.209E-03     249.980E-03    -124.772E-03     611.833E-06    -125.285E-03     248.987E-03    -124.843E-03     415.669E-06
             208     205.218E-09     10.0517E-03    -134.180E+06    -276.188E+06    -133.307E+06    -106.186E+03    -122.458E-03     244.463E-03    -122.005E-03     1.39791E-03    -122.537E-03     243.471E-03    -122.076E-03     1.19240E-03
             209     123.167E-09     8.84428E-03    -134.376E+06    -277.201E+06    -133.504E+06    -102.632E+03    -123.200E-03     246.085E-03    -122.886E-03     2.83457E-03    -123.278E-03     245.089E-03    -122.956E-03     2.62973E-03
             210     60.8834E-09     7.62981E-03    -130.285E+06    -277.785E+06    -129.907E+06     156.407E+03    -127.466E-03     254.797E-03    -127.331E-03     4.04380E-03    -127.529E-03     253.786E-03    -127.389E-03     3.84302E-03
             211    -17.6937E-09     6.40053E-03    -120.159E+06    -276.292E+06    -120.132E+06     650.749E+03    -134.028E-03     268.115E-03    -134.087E-03     4.61210E-03    -134.058E-03     267.082E-03    -134.113E-03     4.41481E-03
             212    -103.518E-09     5.15289E-03    -108.807E+06    -271.762E+06    -109.065E+06     1.31072E+06    -141.396E-03     283.093E-03    -141.696E-03     4.55998E-03    -141.392E-03     282.049E-03    -141.690E-03     4.37151E-03
             213    -232.214E-09     3.88605E-03    -98.0653E+06    -264.404E+06    -98.3302E+06     1.74523E+06    -148.413E-03     297.419E-03    -149.005E-03     4.00750E-03    -148.381E-03     296.381E-03    -148.971E-03     3.84005E-03
             214    -340.998E-09     2.60197E-03    -88.0159E+06    -256.708E+06    -88.2997E+06     1.38867E+06    -154.197E-03     309.283E-03    -155.086E-03     3.00218E-03    -154.138E-03     308.255E-03    -155.028E-03     2.86992E-03
             215    -453.849E-09     1.30457E-03    -81.3706E+06    -250.754E+06    -81.8326E+06     1.05596E+06    -158.012E-03     317.141E-03    -159.129E-03     1.61377E-03    -157.937E-03     316.124E-03    -159.057E-03     1.54401E-03
             216     766.474E-06    -9.17322E-15    -79.2289E+06    -248.051E+06    -78.4900E+06     959.872E+03    -159.559E-03     319.783E-03    -160.224E-03     1.39755E-03    -159.481E-03     318.771E-03    -160.142E-03     1.33640E-03
             217     1.53310E-03    -9.17322E-15    -79.0089E+06    -246.924E+06    -75.9059E+06     1.01453E+06    -159.626E-03     319.479E-03    -159.853E-03     2.56283E-03    -159.553E-03     318.470E-03    -159.760E-03     2.44114E-03
             218     2.29997E-03    -9.17322E-15    -78.5095E+06    -243.950E+06    -71.9962E+06     1.52560E+06    -159.303E-03     319.053E-03    -159.750E-03     3.79515E-03    -159.239E-03     318.053E-03    -159.642E-03     3.61870E-03
             219     3.06708E-03    -9.17322E-15    -77.9869E+06    -235.783E+06    -67.5885E+06     1.76921E+06    -158.927E-03     318.543E-03    -159.616E-03     5.03265E-03    -158.879E-03     317.577E-03    -159.499E-03     4.80033E-03
             220     3.83456E-03    -9.17322E-15    -77.2649E+06    -221.049E+06    -63.1406E+06     1.75951E+06    -158.546E-03     318.004E-03    -159.458E-03     6.27269E-03    -158.523E-03     317.105E-03    -159.341E-03     5.98395E-03
             221     4.60221E-03    -9.17322E-15    -75.9913E+06    -202.389E+06    -58.6393E+06     1.08288E+06    -158.219E-03     317.511E-03    -159.292E-03     7.54537E-03    -158.225E-03     316.698E-03    -159.181E-03     7.19398E-03
             222     5.37016E-03    -9.17322E-15    -73.9267E+06    -180.894E+06    -54.0677E+06     417.943E+03    -158.010E-03     317.142E-03    -159.132E-03     8.85066E-03    -158.045E-03     316.429E-03    -159.033E-03     8.43801E-03
             223     6.13808E-03    -9.17322E-15    -70.8236E+06    -157.278E+06    -49.8464E+06    -837.117E+03    -157.984E-03     316.976E-03    -158.992E-03     10.2696E-03    -158.045E-03     316.372E-03    -158.910E-03     9.78844E-03
             224     6.90590E-03    -9.17322E-15    -66.3403E+06    -130.833E+06    -45.6896E+06    -2.47718E+06    -158.203E-03     317.089E-03    -158.886E-03     11.7840E-03    -158.289E-03     316.607E-03    -158.829E-03     11.2255E-03
             225     7.67349E-03    -9.17322E-15    -60.7119E+06    -101.392E+06    -42.2725E+06    -3.23631E+06    -158.742E-03     317.569E-03    -158.827E-03     13.5185E-03    -158.850E-03     317.224E-03    -158.803E-03     12.8893E-03
             226     8.44010E-03    -9.17322E-15    -53.6628E+06    -67.9621E+06    -39.2115E+06    -5.91066E+06    -159.667E-03     318.499E-03    -158.832E-03     15.5451E-03    -159.796E-03     318.309E-03    -158.851E-03     14.8098E-03
             227     9.20623E-03    -9.17322E-15    -44.7296E+06    -28.0086E+06    -35.7972E+06    -7.27132E+06    -161.080E-03     319.997E-03    -158.917E-03     17.8171E-03    -161.232E-03     319.994E-03    -158.990E-03     16.9685E-03
             228     9.97039E-03    -9.17322E-15    -35.9964E+06     20.7825E+06    -33.2232E+06    -6.05518E+06    -163.093E-03     322.190E-03    -159.098E-03     20.9422E-03    -163.282E-03     322.422E-03    -159.242E-03     20.0021E-03
             229     10.7323E-03    -9.17322E-15    -30.0129E+06     57.8392E+06    -16.7852E+06    -3.18022E+06    -165.919E-03     325.428E-03    -159.509E-03     24.7602E-03    -166.167E-03     325.823E-03    -159.633E-03     23.6888E-03
             230     11.4923E-03    -9.17322E-15    -25.1575E+06     73.2083E+06     1.84423E+06    -1.78481E+06    -169.955E-03     330.097E-03    -160.142E-03     29.5616E-03    -170.246E-03     330.553E-03    -160.203E-03     28.2532E-03
             231     12.2466E-03    -9.17322E-15    -17.9056E+06     88.1385E+06     17.8142E+06    -4.00824E+06    -175.485E-03     336.472E-03    -160.988E-03     38.5138E-03    -175.816E-03     337.000E-03    -161.000E-03     36.8587E-03
             232     12.9933E-03    -9.17322E-15    -10.7387E+06     102.934E+06     63.1099E+06    -1.81943E+06    -182.627E-03     344.887E-03    -162.261E-03     50.9378E-03    -183.063E-03     345.466E-03    -162.079E-03     48.8694E-03
             233     13.7361E-03    -9.17322E-15    -5.91649E+06     110.653E+06     103.497E+06     846.164E+03    -195.335E-03     359.281E-03    -163.946E-03     65.7479E-03    -195.974E-03     359.994E-03    -163.581E-03     62.4118E-03
             234     14.4685E-03    -9.17322E-15    -1.55638E+06     116.049E+06     111.932E+06     1.38813E+06    -219.998E-03     386.260E-03    -166.263E-03     93.5408E-03    -221.054E-03     387.397E-03    -165.869E-03     87.6034E-03
             235     15.2458E-03     1.45477E-03    -2.13782E+06     117.634E+06     108.276E+06     3.45229E+06    -221.698E-03     387.613E-03    -165.915E-03     102.135E-03    -223.072E-03     389.078E-03    -165.541E-03     94.4213E-03
             236     15.2822E-03     2.82505E-03    -3.94444E+06     117.993E+06     104.119E+06     3.24870E+06    -207.228E-03     370.622E-03    -163.394E-03     71.5644E-03    -208.451E-03     371.946E-03    -163.038E-03     63.6557E-03
             237     15.2917E-03     4.19495E-03    -2.64669E+06     119.026E+06     105.068E+06     828.613E+03    -206.403E-03     368.851E-03    -162.447E-03     43.8669E-03    -207.377E-03     369.932E-03    -162.091E-03     36.0250E-03
             238     15.2934E-03     5.56482E-03    -2.34626E+06     117.507E+06     105.883E+06    -380.354E+03    -203.528E-03     365.816E-03    -162.288E-03     34.2071E-03    -204.408E-03     366.797E-03    -161.925E-03     26.6049E-03
             239     15.2944E-03     6.92880E-03    -2.70737E+06     115.853E+06     105.326E+06     -319.41E+03    -198.737E-03     361.078E-03    -162.341E-03     31.2872E-03    -199.568E-03     362.004E-03    -161.978E-03     24.0631E-03
             240     15.2947E-03     8.28598E-03    -2.62896E+06     114.661E+06     104.320E+06    -377.123E+03    -193.961E-03     356.393E-03    -162.431E-03     29.1733E-03    -194.750E-03     357.276E-03    -162.072E-03     22.2991E-03
             241     15.2947E-03     9.63696E-03    -2.46083E+06     113.613E+06     103.587E+06    -276.178E+03    -189.430E-03     351.966E-03    -162.536E-03     27.2136E-03    -190.180E-03     352.810E-03    -162.179E-03     20.6748E-03
             242     15.2948E-03     10.9821E-03    -2.58027E+06     112.807E+06     103.197E+06    -154.192E+03    -184.837E-03     347.482E-03    -162.645E-03     25.3634E-03    -185.556E-03     348.293E-03    -162.289E-03     19.1361E-03
             243     15.2949E-03     12.3211E-03    -2.63538E+06     112.197E+06     103.018E+06    -167.602E+03    -180.286E-03     343.041E-03    -162.755E-03     23.6931E-03    -180.980E-03     343.825E-03    -162.398E-03     17.7422E-03
             244     15.2949E-03     13.6545E-03    -2.67172E+06     111.542E+06     102.757E+06    -171.684E+03    -176.068E-03     338.929E-03    -162.860E-03     22.3339E-03    -176.742E-03     339.691E-03    -162.504E-03     16.6135E-03
             245     15.2948E-03     14.9828E-03    -2.68675E+06     110.897E+06     102.498E+06    -144.804E+03    -172.412E-03     335.367E-03    -162.955E-03     21.4128E-03    -173.073E-03     336.114E-03    -162.599E-03     15.8728E-03
             246     15.2948E-03     16.3071E-03    -2.68355E+06     110.399E+06     102.301E+06    -73.9205E+03    -169.462E-03     332.493E-03    -163.030E-03     20.9011E-03    -170.115E-03     333.231E-03    -162.675E-03     15.4938E-03
             247     15.2948E-03     17.6283E-03    -2.67718E+06     110.204E+06     102.314E+06     25.6931E+03    -167.257E-03     330.342E-03    -163.085E-03     20.7199E-03    -167.906E-03     331.076E-03    -162.729E-03     15.4044E-03
             248     15.2949E-03     18.9472E-03    -2.65194E+06     110.289E+06     102.518E+06     98.6259E+03    -165.677E-03     328.797E-03    -163.121E-03     20.6546E-03    -166.324E-03     329.529E-03    -162.764E-03     15.4024E-03
             249     15.2950E-03     20.2645E-03    -2.69253E+06     110.507E+06     102.653E+06     37.9338E+03    -164.479E-03     327.624E-03    -163.146E-03     20.4972E-03    -165.124E-03     328.355E-03    -162.789E-03     15.2946E-03
             250     15.2951E-03     21.5804E-03    -2.62813E+06     110.613E+06     102.805E+06    -23.3918E+03    -163.462E-03     326.629E-03    -163.167E-03     20.1728E-03    -164.104E-03     327.356E-03    -162.810E-03     15.0184E-03
             251     15.2951E-03     22.8949E-03    -2.72262E+06     110.549E+06     102.718E+06    -51.4657E+03    -162.625E-03     325.810E-03    -163.186E-03     19.7010E-03    -163.262E-03     326.533E-03    -162.829E-03     14.5959E-03
             252     15.2951E-03     24.2083E-03    -2.69867E+06     110.130E+06     102.658E+06    -208.053E+03    -162.004E-03     325.204E-03    -163.200E-03     19.2076E-03    -162.635E-03     325.918E-03    -162.842E-03     14.1446E-03
             253     15.2953E-03     25.5211E-03    -2.44016E+06     110.019E+06     102.704E+06     235.429E+03    -161.691E-03     324.898E-03    -163.207E-03     18.6920E-03    -162.315E-03     325.607E-03    -162.850E-03     13.6675E-03
             254     15.2950E-03     26.8341E-03    -2.64528E+06     111.353E+06     103.233E+06     496.702E+03    -161.491E-03     324.701E-03    -163.210E-03     18.3769E-03    -162.116E-03     325.412E-03    -162.852E-03     13.3748E-03
             255     15.2956E-03     28.1463E-03    -3.47640E+06     111.634E+06     102.458E+06    -210.565E+03    -161.653E-03     324.870E-03    -163.217E-03     17.9344E-03    -162.278E-03     325.582E-03    -162.862E-03     12.9419E-03
             256     15.2938E-03     29.4611E-03    -3.06002E+06     109.421E+06     100.611E+06    -1.77865E+06    -161.799E-03     325.020E-03    -163.220E-03     18.6619E-03    -162.414E-03     325.720E-03    -162.871E-03     13.7035E-03
             257     15.2960E-03     30.7729E-03     596.555E+03     110.314E+06     103.194E+06    -389.861E+03    -161.031E-03     324.212E-03    -163.181E-03     20.2739E-03    -161.633E-03     324.909E-03    -162.826E-03     15.4107E-03
             258     15.2974E-03     32.0860E-03    -7.57788E+06     104.652E+06     96.8261E+06    -2.55638E+06    -162.405E-03     325.572E-03    -163.167E-03     18.2340E-03    -163.022E-03     326.253E-03    -162.824E-03     13.3144E-03
             259     15.2904E-03     33.4030E-03    -15.6788E+06     98.3665E+06     90.1786E+06     260.972E+03    -163.549E-03     326.820E-03    -163.271E-03     17.3582E-03    -164.184E-03     327.487E-03    -162.940E-03     12.4680E-03
             260     15.2943E-03     34.7160E-03    -1.13295E+06     110.451E+06     103.459E+06     6.44038E+06    -159.942E-03     323.295E-03    -163.352E-03     19.4383E-03    -160.548E-03     323.988E-03    -162.993E-03     14.7270E-03
             261     15.2959E-03     36.0232E-03     8.11387E+06     119.681E+06     112.415E+06    -436.548E+03    -158.842E-03     322.118E-03    -163.276E-03     20.4932E-03    -159.436E-03     322.839E-03    -162.899E-03     15.6702E-03
             262     15.2961E-03     37.3344E-03     2.13666E+06     114.829E+06     107.911E+06    -3.34641E+06    -161.969E-03     325.136E-03    -163.167E-03     19.4817E-03    -162.577E-03     325.847E-03    -162.797E-03     14.5218E-03
             263     15.2954E-03     38.6521E-03    -3.18967E+06     109.264E+06     102.976E+06     55.9633E+03    -162.636E-03     325.784E-03    -163.148E-03     18.8234E-03    -163.252E-03     326.479E-03    -162.787E-03     13.8941E-03
             264     15.2961E-03     39.9638E-03    -2.30958E+06     110.353E+06     103.879E+06    -15.3449E+03    -161.927E-03     325.094E-03    -163.167E-03     19.6115E-03    -162.546E-03     325.795E-03    -162.804E-03     14.6978E-03
             265     15.2954E-03     41.2782E-03    -2.20702E+06     111.068E+06     103.971E+06    -233.855E+03    -162.508E-03     325.684E-03    -163.175E-03     19.1402E-03    -163.127E-03     326.387E-03    -162.813E-03     14.1986E-03
             266     15.2946E-03     42.5928E-03    -4.59847E+06     108.604E+06     101.294E+06     558.034E+03    -162.497E-03     325.685E-03    -163.189E-03     19.3070E-03    -163.121E-03     326.385E-03    -162.833E-03     14.3766E-03
             267     15.2958E-03     43.9058E-03    -2.90814E+06     109.803E+06     102.978E+06     680.332E+03    -162.073E-03     325.270E-03    -163.197E-03     19.5773E-03    -162.692E-03     325.969E-03    -162.837E-03     14.6802E-03
             268     15.2947E-03     45.2206E-03    -3.03848E+06     109.915E+06     102.885E+06    -155.486E+03    -162.227E-03     325.427E-03    -163.200E-03     19.5527E-03    -162.846E-03     326.127E-03    -162.841E-03     14.6453E-03
             269     15.2952E-03     46.5338E-03    -1.90260E+06     111.024E+06     103.921E+06    -885.993E+03    -161.985E-03     325.177E-03    -163.192E-03     20.4176E-03    -162.604E-03     325.882E-03    -162.831E-03     15.5172E-03
             270     15.2962E-03     47.8471E-03    -847.920E+03     112.153E+06     105.169E+06    -919.682E+03    -161.834E-03     324.993E-03    -163.158E-03     20.6785E-03    -162.450E-03     325.698E-03    -162.794E-03     15.8121E-03
             271     15.2962E-03     49.1613E-03    -2.27785E+06     110.177E+06     103.694E+06    -441.027E+03    -162.190E-03     325.331E-03    -163.141E-03     20.4484E-03    -162.807E-03     326.030E-03    -162.779E-03     15.5850E-03
             272     15.2956E-03     50.4753E-03    -3.73127E+06     108.800E+06     102.288E+06     1.31389E+06    -162.433E-03     325.595E-03    -163.161E-03     19.8435E-03    -163.056E-03     326.293E-03    -162.802E-03     14.9447E-03
             273     15.2950E-03     51.7881E-03    -2.57038E+06     109.941E+06     102.968E+06     706.697E+03    -161.855E-03     325.036E-03    -163.182E-03     18.8467E-03    -162.473E-03     325.737E-03    -162.822E-03     13.9076E-03
             274     15.2964E-03     53.0991E-03    -1.26614E+06     110.946E+06     104.432E+06    -875.465E+03    -161.745E-03     324.917E-03    -163.172E-03     18.8618E-03    -162.359E-03     325.617E-03    -162.809E-03     13.9208E-03
             275     15.2952E-03     54.4155E-03    -4.78521E+06     108.521E+06     101.707E+06     329.710E+03    -162.524E-03     325.699E-03    -163.176E-03     18.3996E-03    -163.142E-03     326.391E-03    -162.818E-03     13.5007E-03
             276     15.2945E-03     55.7291E-03    -3.53460E+06     109.157E+06     101.813E+06     947.776E+03    -161.844E-03     325.048E-03    -163.203E-03     19.0797E-03    -162.459E-03     325.742E-03    -162.847E-03     14.2110E-03
             277     15.2964E-03     57.0403E-03    -1.67104E+06     110.647E+06     103.683E+06    -643.586E+03    -161.695E-03     324.889E-03    -163.195E-03     19.6238E-03    -162.310E-03     325.591E-03    -162.834E-03     14.7122E-03
             278     15.2943E-03     58.3565E-03    -2.36657E+06     110.077E+06     103.488E+06     132.961E+03    -162.080E-03     325.265E-03    -163.185E-03     19.2291E-03    -162.696E-03     325.964E-03    -162.824E-03     14.3125E-03
             279     15.2967E-03     59.6676E-03    -2.37108E+06     110.890E+06     103.814E+06     492.212E+03    -161.718E-03     324.912E-03    -163.195E-03     19.1530E-03    -162.334E-03     325.613E-03    -162.833E-03     14.2667E-03
             280     15.2941E-03     60.9822E-03    -4.08601E+06     110.096E+06     102.377E+06    -948.613E+03    -161.976E-03     325.179E-03    -163.203E-03     18.9292E-03    -162.594E-03     325.876E-03    -162.845E-03     14.0475E-03
             281     15.2957E-03     62.2955E-03    -1.70568E+06     110.613E+06     103.733E+06    -540.674E+03    -161.552E-03     324.743E-03    -163.191E-03     20.2732E-03    -162.167E-03     325.444E-03    -162.831E-03     15.4001E-03
             282     15.2965E-03     63.6074E-03    -755.161E+03     111.031E+06     105.167E+06    -172.926E+03    -161.685E-03     324.842E-03    -163.156E-03     19.9867E-03    -162.298E-03     325.541E-03    -162.790E-03     15.1054E-03
             283     15.2955E-03     64.9224E-03    -3.97608E+06     109.176E+06     102.403E+06     498.045E+03    -162.490E-03     325.664E-03    -163.173E-03     18.2991E-03    -163.105E-03     326.355E-03    -162.814E-03     13.4084E-03
             284     15.2942E-03     66.2354E-03    -4.30671E+06     108.589E+06     101.082E+06     1.23153E+06    -162.073E-03     325.290E-03    -163.217E-03     18.6377E-03    -162.690E-03     325.984E-03    -162.863E-03     13.7471E-03
             285     15.2955E-03     67.5482E-03    -2.23505E+06     110.584E+06     103.363E+06     750.524E+03    -161.165E-03     324.374E-03    -163.209E-03     19.3890E-03    -161.780E-03     325.074E-03    -162.849E-03     14.5201E-03
             286     15.2963E-03     68.8606E-03    -1.30214E+06     111.899E+06     104.950E+06    -1.54281E+06    -161.524E-03     324.712E-03    -163.188E-03     18.9476E-03    -162.137E-03     325.413E-03    -162.823E-03     14.0416E-03
             287     15.2944E-03     70.1745E-03    -3.77676E+06     108.815E+06     102.149E+06    -64.9386E+03    -162.284E-03     325.473E-03    -163.188E-03     18.7089E-03    -162.900E-03     326.165E-03    -162.830E-03     13.8122E-03
             288     15.2959E-03     71.4882E-03    -3.57903E+06     108.636E+06     102.219E+06     960.582E+03    -161.973E-03     325.172E-03    -163.199E-03     19.1854E-03    -162.589E-03     325.865E-03    -162.840E-03     14.3128E-03
             289     15.2947E-03     72.8023E-03    -2.29004E+06     110.005E+06     103.266E+06    -84.1380E+03    -161.796E-03     325.004E-03    -163.208E-03     19.5857E-03    -162.413E-03     325.704E-03    -162.848E-03     14.6779E-03
             290     15.2954E-03     74.1152E-03    -3.32428E+06     109.739E+06     102.519E+06     558.401E+03    -161.879E-03     325.089E-03    -163.210E-03     19.8190E-03    -162.501E-03     325.792E-03    -162.852E-03     14.9156E-03
             291     15.2948E-03     75.4285E-03    -2.06925E+06     110.850E+06     103.788E+06    -70.5313E+03    -161.649E-03     324.846E-03    -163.197E-03     19.9953E-03    -162.268E-03     325.550E-03    -162.835E-03     15.0926E-03
             292     764.288E-06     76.5064E-03    -144.919E+06    -281.737E+06    -140.979E+06     8.27253E+03    -163.428E-03     326.701E-03    -163.273E-03     13.9210E-03    -163.558E-03     325.725E-03    -163.359E-03     13.1863E-03
             293     1.52869E-03     76.5301E-03    -139.373E+06    -265.341E+06    -125.013E+06     8.84127E+03    -163.379E-03     326.749E-03    -163.370E-03     25.2930E-03    -163.565E-03     325.860E-03    -163.408E-03     23.9438E-03
             294     2.29306E-03     76.5685E-03    -131.346E+06    -243.381E+06    -103.484E+06    -26.6331E+03    -163.454E-03     326.857E-03    -163.403E-03     36.8678E-03    -163.723E-03     326.095E-03    -163.377E-03     34.8715E-03
             295     3.05749E-03     76.6206E-03    -121.375E+06    -218.832E+06    -80.5453E+06    -108.916E+03    -163.558E-03     326.990E-03    -163.432E-03     47.8348E-03    -163.927E-03     326.385E-03    -163.342E-03     45.1925E-03
             296     3.82199E-03     76.6857E-03    -110.950E+06    -194.366E+06    -58.9114E+06     45.6570E+03    -163.703E-03     327.155E-03    -163.452E-03     57.9351E-03    -164.186E-03     326.725E-03    -163.304E-03     54.6667E-03
             297     4.58661E-03     76.7625E-03    -100.787E+06    -170.771E+06    -39.7597E+06     9.24408E+03    -163.891E-03     327.355E-03    -163.464E-03     66.9895E-03    -164.497E-03     327.112E-03    -163.269E-03     63.1221E-03
             298     5.35112E-03     76.8497E-03    -90.9111E+06    -148.658E+06    -23.3681E+06    -5.09213E+03    -164.055E-03     327.522E-03    -163.467E-03     74.8475E-03    -164.784E-03     327.468E-03    -163.236E-03     70.4298E-03
             299     6.11581E-03     76.9457E-03    -81.5923E+06    -127.251E+06    -8.89754E+06     253.611E+03    -164.166E-03     327.627E-03    -163.461E-03     81.3639E-03    -165.014E-03     327.760E-03    -163.203E-03     76.4633E-03
             300     6.88047E-03     77.0485E-03    -72.9194E+06    -106.195E+06     3.93198E+06     137.159E+03    -164.251E-03     327.699E-03    -163.448E-03     86.5012E-03    -165.209E-03     328.010E-03    -163.168E-03     81.1830E-03
             301     7.64528E-03     77.1566E-03    -64.6588E+06    -85.4386E+06     15.1342E+06    -105.635E+03    -164.288E-03     327.716E-03    -163.427E-03     90.1059E-03    -165.339E-03     328.189E-03    -163.134E-03     84.4425E-03
             302     8.41007E-03     77.2680E-03    -56.9684E+06    -63.9852E+06     25.3741E+06      49.483E+03    -164.261E-03     327.664E-03    -163.403E-03     92.2678E-03    -165.388E-03     328.287E-03    -163.100E-03     86.3302E-03
             303     9.17495E-03     77.3811E-03    -49.8487E+06     -39.634E+06     35.4671E+06     231.757E+03    -164.156E-03     327.529E-03    -163.373E-03     93.1379E-03    -165.348E-03     328.300E-03    -163.066E-03     86.9775E-03
             304     9.93987E-03     77.4940E-03    -43.1316E+06    -13.4379E+06     45.0862E+06    -81.5359E+03    -163.988E-03     327.327E-03    -163.339E-03     92.6286E-03    -165.231E-03     328.239E-03    -163.031E-03     86.2755E-03
             305     10.7049E-03     77.6048E-03     -36.344E+06     18.8175E+06     55.3340E+06    -700.048E+03    -163.731E-03     327.028E-03    -163.298E-03     90.5930E-03    -165.016E-03     328.091E-03    -162.996E-03     84.0785E-03
             306     11.4699E-03     77.7119E-03    -29.4146E+06     61.5549E+06     66.0773E+06    -480.282E+03    -163.318E-03     326.560E-03    -163.242E-03     86.5064E-03    -164.640E-03     327.804E-03    -162.958E-03     79.8673E-03
             307     12.2353E-03     77.8117E-03    -23.0173E+06     89.8223E+06     75.4662E+06     475.968E+03    -162.882E-03     326.081E-03    -163.199E-03     79.9405E-03    -164.196E-03     327.413E-03    -162.918E-03     73.2068E-03
             308     13.0003E-03     77.9014E-03    -16.7689E+06     96.4512E+06     81.6942E+06     725.786E+03    -162.450E-03     325.623E-03    -163.173E-03     69.1914E-03    -163.668E-03     326.887E-03    -162.880E-03     62.4578E-03
             309     13.7657E-03     77.9741E-03    -10.5861E+06     107.516E+06     94.8279E+06    -1.54048E+03    -162.182E-03     325.365E-03    -163.183E-03     58.3813E-03    -163.357E-03     326.610E-03    -162.850E-03     51.4434E-03
             310     14.5317E-03     78.0358E-03    -5.58261E+06     113.506E+06     104.473E+06    -183.664E+03    -162.276E-03     325.477E-03    -163.201E-03     36.7250E-03    -163.188E-03     326.470E-03    -162.836E-03     30.6734E-03
             311     764.297E-06     77.8196E-03    -144.793E+06    -281.816E+06    -140.952E+06     17.8445E+03    -163.438E-03     326.703E-03    -163.265E-03     13.9017E-03    -163.567E-03     325.726E-03    -163.351E-03     13.1660E-03
             312     1.52860E-03     77.8435E-03    -139.424E+06    -265.466E+06    -124.947E+06     94.3691E+03    -163.392E-03     326.766E-03    -163.374E-03     25.2507E-03    -163.577E-03     325.876E-03    -163.411E-03     23.9017E-03
             313     2.29300E-03     77.8817E-03    -131.219E+06    -243.131E+06    -103.443E+06     23.7717E+03    -163.455E-03     326.863E-03    -163.408E-03     36.7952E-03    -163.724E-03     326.103E-03    -163.382E-03     34.7990E-03
             314     3.05748E-03     77.9339E-03    -121.477E+06    -218.740E+06    -80.6698E+06    -35.9611E+03    -163.577E-03     327.015E-03    -163.439E-03     47.7659E-03    -163.946E-03     326.411E-03    -163.349E-03     45.1240E-03
             315     3.82199E-03     77.9990E-03    -111.081E+06    -194.634E+06    -59.1255E+06    -11.1966E+03    -163.736E-03     327.199E-03    -163.463E-03     57.8772E-03    -164.219E-03     326.768E-03    -163.315E-03     54.6066E-03
             316     4.58646E-03     78.0759E-03    -100.655E+06    -170.825E+06    -39.8344E+06     234.264E+03    -163.891E-03     327.367E-03    -163.475E-03     66.9830E-03    -164.496E-03     327.124E-03    -163.281E-03     63.1186E-03
             317     5.35110E-03     78.1631E-03    -91.1328E+06    -148.542E+06    -23.2935E+06     194.311E+03    -164.025E-03     327.501E-03    -163.476E-03     74.8791E-03    -164.756E-03     327.448E-03    -163.245E-03     70.4650E-03
             318     6.11573E-03     78.2589E-03    -81.6785E+06    -127.518E+06    -8.91797E+06    -11.6722E+03    -164.135E-03     327.600E-03    -163.465E-03     81.4435E-03    -164.983E-03     327.731E-03    -163.206E-03     76.5420E-03
             319     6.88056E-03     78.3619E-03    -72.5592E+06    -106.094E+06     4.01283E+06     117.589E+03    -164.226E-03     327.672E-03    -163.447E-03     86.5883E-03    -165.182E-03     327.983E-03    -163.168E-03     81.2750E-03
             320     7.64530E-03     78.4699E-03    -64.4471E+06    -85.1060E+06     15.4279E+06     133.967E+03    -164.280E-03     327.706E-03    -163.425E-03     90.1838E-03    -165.331E-03     328.180E-03    -163.131E-03     84.5274E-03
             321     8.41010E-03     78.5813E-03    -56.7201E+06    -64.2742E+06     25.6082E+06     55.0832E+03    -164.248E-03     327.647E-03    -163.400E-03     92.3558E-03    -165.373E-03     328.269E-03    -163.096E-03     86.4196E-03
             322     9.17498E-03     78.6942E-03    -49.4162E+06    -39.9934E+06     35.5957E+06     194.476E+03    -164.119E-03     327.486E-03    -163.367E-03     93.1766E-03    -165.308E-03     328.255E-03    -163.060E-03     87.0180E-03
             323     9.94008E-03     78.8071E-03    -42.6577E+06    -12.7220E+06     45.5437E+06     232.608E+03    -163.959E-03     327.290E-03    -163.331E-03     92.5868E-03    -165.201E-03     328.203E-03    -163.023E-03     86.2387E-03
             324     10.7050E-03     78.9181E-03    -36.3540E+06     19.7840E+06     55.8635E+06     37.8774E+03    -163.731E-03     327.021E-03    -163.291E-03     90.4095E-03    -165.018E-03     328.088E-03    -162.987E-03     83.8962E-03
             325     11.4702E-03     79.0250E-03    -30.2559E+06     61.2850E+06     65.9763E+06    -402.264E+03    -163.385E-03     326.623E-03    -163.238E-03     86.2064E-03    -164.711E-03     327.868E-03    -162.953E-03     79.5499E-03
             326     12.2351E-03     79.1248E-03    -24.0725E+06     88.8895E+06     74.9762E+06    -825.603E+03    -163.054E-03     326.258E-03    -163.204E-03     79.6082E-03    -164.373E-03     327.590E-03    -162.923E-03     72.8270E-03
             327     13.0002E-03     79.2149E-03    -17.0911E+06     96.4458E+06     81.7146E+06    -644.060E+03    -162.734E-03     325.926E-03    -163.193E-03     68.8092E-03    -163.956E-03     327.193E-03    -162.899E-03     62.0210E-03
             328     13.7650E-03     79.2870E-03    -10.5006E+06     107.891E+06     95.2157E+06    -91.8853E+03    -162.441E-03     325.660E-03    -163.218E-03     58.4198E-03    -163.620E-03     326.908E-03    -162.884E-03     51.4584E-03
             329     14.5284E-03     79.3506E-03    -5.60611E+06     113.354E+06     104.401E+06     693.818E+03    -162.018E-03     325.252E-03    -163.234E-03     37.0487E-03    -162.932E-03     326.245E-03    -162.868E-03     31.0253E-03
             330     764.316E-06     79.1330E-03    -145.015E+06    -281.933E+06    -141.002E+06     27.4556E+03    -163.472E-03     326.734E-03    -163.261E-03     13.8840E-03    -163.602E-03     325.757E-03    -163.347E-03     13.1478E-03
             331     1.52861E-03     79.1569E-03    -139.347E+06    -265.443E+06    -125.044E+06     20.1066E+03    -163.411E-03     326.800E-03    -163.389E-03     25.2593E-03    -163.596E-03     325.910E-03    -163.427E-03     23.9099E-03
             332     2.29298E-03     79.1950E-03    -131.066E+06    -243.188E+06    -103.574E+06     48.0983E+03    -163.482E-03     326.907E-03    -163.425E-03     36.7971E-03    -163.749E-03     326.146E-03    -163.400E-03     34.8008E-03
             333     3.05739E-03     79.2473E-03    -121.484E+06    -218.726E+06    -80.5891E+06     134.201E+03    -163.586E-03     327.043E-03    -163.457E-03     47.7693E-03    -163.956E-03     326.439E-03    -163.367E-03     45.1292E-03
             334     3.82183E-03     79.3124E-03    -111.217E+06    -194.522E+06    -58.9524E+06     56.7906E+03    -163.710E-03     327.187E-03    -163.477E-03     57.9297E-03    -164.194E-03     326.757E-03    -163.328E-03     54.6603E-03
             335     4.58644E-03     79.3892E-03    -100.844E+06    -171.273E+06    -39.9457E+06     19.8546E+03    -163.840E-03     327.319E-03    -163.480E-03     67.0743E-03    -164.445E-03     327.075E-03    -163.285E-03     63.2096E-03
             336     5.35109E-03     79.4764E-03    -90.7074E+06    -148.455E+06    -23.1359E+06     142.216E+03    -163.978E-03     327.449E-03    -163.471E-03     74.9703E-03    -164.707E-03     327.396E-03    -163.240E-03     70.5599E-03
             337     6.11587E-03     79.5722E-03    -81.4610E+06    -127.188E+06    -8.63032E+06     71.8182E+03    -164.126E-03     327.584E-03    -163.457E-03     81.4956E-03    -164.974E-03     327.716E-03    -163.198E-03     76.5978E-03
             338     6.88056E-03     79.6750E-03    -72.6174E+06    -106.312E+06     4.02517E+06    -20.9524E+03    -164.225E-03     327.664E-03    -163.439E-03     86.6107E-03    -165.181E-03     327.973E-03    -163.159E-03     81.2969E-03
             339     7.64539E-03     79.7833E-03    -64.3108E+06    -85.2520E+06     15.4788E+06     148.426E+03    -164.249E-03     327.665E-03    -163.416E-03     90.2003E-03    -165.299E-03     328.139E-03    -163.122E-03     84.5444E-03
             340     8.41025E-03     79.8945E-03    -56.6704E+06    -64.1114E+06     25.7844E+06     209.346E+03    -164.235E-03     327.625E-03    -163.390E-03     92.3375E-03    -165.361E-03     328.247E-03    -163.086E-03     86.3999E-03
             341     9.17518E-03     80.0074E-03    -49.1056E+06    -40.1479E+06     35.7690E+06     161.375E+03    -164.180E-03     327.540E-03    -163.361E-03     93.1085E-03    -165.368E-03     328.308E-03    -163.052E-03     86.9397E-03
             342     9.93996E-03     80.1202E-03    -42.1329E+06    -12.9675E+06     45.6463E+06     429.559E+03    -164.037E-03     327.367E-03    -163.330E-03     92.4787E-03    -165.278E-03     328.279E-03    -163.022E-03     86.1211E-03
             343     10.7050E-03     80.2314E-03    -35.5066E+06     20.5288E+06     56.4002E+06     322.318E+03    -163.816E-03     327.112E-03    -163.296E-03     90.2662E-03    -165.102E-03     328.182E-03    -162.993E-03     83.7443E-03
             344     11.4698E-03     80.3382E-03    -28.6685E+06     61.9934E+06     66.8322E+06    -3.99502E+03    -163.493E-03     326.744E-03    -163.251E-03     86.0808E-03    -164.813E-03     327.989E-03    -162.965E-03     79.4189E-03
             345     12.2348E-03     80.4384E-03    -22.1672E+06     89.9455E+06     76.1806E+06    -578.107E+03    -163.112E-03     326.333E-03    -163.221E-03     79.7430E-03    -164.425E-03     327.666E-03    -162.939E-03     72.9680E-03
             346     12.9995E-03     80.5282E-03    -17.3958E+06     96.2284E+06     81.3369E+06    -953.788E+03    -162.769E-03     325.978E-03    -163.208E-03     69.4212E-03    -163.993E-03     327.245E-03    -162.916E-03     62.6486E-03
             347     13.7643E-03     80.6013E-03    -11.9462E+06     105.965E+06     92.9191E+06     422.149E+03    -162.221E-03     325.442E-03    -163.221E-03     59.3902E-03    -163.402E-03     326.687E-03    -162.893E-03     52.4827E-03
             348     14.5308E-03     80.6637E-03    -5.26456E+06     113.239E+06     103.920E+06     810.393E+03    -161.631E-03     324.853E-03    -163.222E-03     37.6761E-03    -162.543E-03     325.847E-03    -162.859E-03     31.6876E-03
             349     764.224E-06     80.4464E-03    -145.036E+06    -281.988E+06    -140.916E+06     154.594E+03    -163.472E-03     326.755E-03    -163.282E-03     13.9030E-03    -163.602E-03     325.777E-03    -163.368E-03     13.1670E-03
             350     1.52858E-03     80.4701E-03    -139.316E+06    -265.443E+06    -125.004E+06     48.0079E+03    -163.412E-03     326.810E-03    -163.398E-03     25.2948E-03    -163.597E-03     325.920E-03    -163.436E-03     23.9469E-03
             351     2.29292E-03     80.5085E-03    -131.216E+06    -243.301E+06    -103.495E+06     55.6200E+03    -163.481E-03     326.912E-03    -163.431E-03     36.8689E-03    -163.749E-03     326.151E-03    -163.406E-03     34.8735E-03
             352     3.05732E-03     80.5606E-03    -121.445E+06    -218.796E+06    -80.4790E+06     17.6377E+03    -163.555E-03     327.013E-03    -163.457E-03     47.8783E-03    -163.925E-03     326.408E-03    -163.366E-03     45.2376E-03
             353     3.82193E-03     80.6257E-03    -111.081E+06    -194.490E+06    -58.8206E+06     94.7958E+03    -163.663E-03     327.131E-03    -163.468E-03     58.0447E-03    -164.147E-03     326.701E-03    -163.319E-03     54.7783E-03
             354     4.58655E-03     80.7025E-03    -100.864E+06    -171.084E+06    -39.7718E+06     11.6208E+03    -163.814E-03     327.281E-03    -163.466E-03     67.1275E-03    -164.420E-03     327.036E-03    -163.271E-03     63.2643E-03
             355     5.35125E-03     80.7896E-03    -90.7643E+06    -148.661E+06    -23.2017E+06    -84.2425E+03    -163.983E-03     327.440E-03    -163.457E-03     74.9878E-03    -164.712E-03     327.386E-03    -163.226E-03     70.5748E-03
             356     6.11591E-03     80.8855E-03    -81.2553E+06    -127.186E+06    -8.65315E+06     49.9967E+03    -164.136E-03     327.582E-03    -163.446E-03     81.4904E-03    -164.984E-03     327.714E-03    -163.187E-03     76.5912E-03
             357     6.88067E-03     80.9884E-03    -72.7163E+06    -106.322E+06     4.02797E+06     154.263E+03    -164.223E-03     327.652E-03    -163.430E-03     86.5708E-03    -165.180E-03     327.962E-03    -163.150E-03     81.2557E-03
             358     7.64544E-03     81.0964E-03    -64.5872E+06    -85.3342E+06     15.4057E+06     35.8142E+03    -164.250E-03     327.658E-03    -163.408E-03     90.1556E-03    -165.301E-03     328.132E-03    -163.114E-03     84.4941E-03
             359     8.41033E-03     81.2077E-03    -56.7740E+06    -64.1477E+06     25.6660E+06    -25.4265E+03    -164.264E-03     327.648E-03    -163.384E-03     92.2838E-03    -165.391E-03     328.272E-03    -163.080E-03     86.3386E-03
             360     9.17508E-03     81.3207E-03    -49.4886E+06    -40.1793E+06     35.5166E+06     44.9299E+03    -164.221E-03     327.579E-03    -163.358E-03     93.0855E-03    -165.411E-03     328.348E-03    -163.050E-03     86.9118E-03
             361     9.93999E-03     81.4336E-03    -42.1893E+06    -13.3533E+06     45.4097E+06    -57.8765E+03    -164.094E-03     327.425E-03    -163.331E-03     92.5515E-03    -165.334E-03     328.336E-03    -163.024E-03     86.1872E-03
             362     10.7047E-03     81.5446E-03    -34.9410E+06     20.8520E+06     56.3709E+06    -54.6305E+03    -163.850E-03     327.149E-03    -163.299E-03     90.5111E-03    -165.134E-03     328.220E-03    -162.997E-03     83.9933E-03
             363     11.4697E-03     81.6519E-03    -28.6675E+06     62.5111E+06     66.7380E+06    -212.307E+03    -163.441E-03     326.693E-03    -163.252E-03     86.4773E-03    -164.763E-03     327.941E-03    -162.967E-03     79.8289E-03
             364     12.2348E-03     81.7515E-03    -22.5879E+06     89.4912E+06     75.4049E+06     598.283E+03    -162.950E-03     326.163E-03    -163.213E-03     80.2418E-03    -164.264E-03     327.495E-03    -162.933E-03     73.5065E-03
             365     13.0002E-03     81.8420E-03    -17.0005E+06     96.5856E+06     81.3435E+06     1.38979E+06    -162.467E-03     325.653E-03    -163.186E-03     70.0933E-03    -163.690E-03     326.922E-03    -162.895E-03     63.3861E-03
             366     13.7655E-03     81.9144E-03    -12.0210E+06     105.840E+06     93.0572E+06     348.816E+03    -161.984E-03     325.170E-03    -163.186E-03     59.5809E-03    -163.166E-03     326.415E-03    -162.857E-03     52.6840E-03
             367     14.5301E-03     81.9759E-03    -5.36623E+06     113.000E+06     103.988E+06    -577.559E+03    -161.770E-03     324.956E-03    -163.186E-03     37.5919E-03    -162.684E-03     325.950E-03    -162.822E-03     31.5588E-03
             368     764.326E-06     81.7597E-03    -144.926E+06    -282.053E+06    -141.199E+06    -19.3523E+03    -163.455E-03     326.725E-03    -163.270E-03     13.9258E-03    -163.584E-03     325.748E-03    -163.357E-03     13.1869E-03
             369     1.52860E-03     81.7836E-03    -139.487E+06    -265.608E+06    -125.137E+06     66.5926E+03    -163.392E-03     326.773E-03    -163.382E-03     25.3576E-03    -163.577E-03     325.884E-03    -163.420E-03     24.0107E-03
             370     2.29299E-03     81.8218E-03    -131.162E+06    -243.215E+06    -103.387E+06     55.7544E+03    -163.429E-03     326.838E-03    -163.409E-03     36.9277E-03    -163.697E-03     326.077E-03    -163.383E-03     34.9341E-03
             371     3.05753E-03     81.8739E-03    -121.428E+06    -218.735E+06    -80.4280E+06     6.88689E+03    -163.526E-03     326.956E-03    -163.430E-03     47.9120E-03    -163.896E-03     326.351E-03    -163.339E-03     45.2723E-03
             372     3.82204E-03     81.9389E-03    -110.975E+06    -194.572E+06    -58.8810E+06    -57.5927E+03    -163.678E-03     327.122E-03    -163.444E-03     58.0208E-03    -164.162E-03     326.691E-03    -163.295E-03     54.7515E-03
             373     4.58665E-03     82.0157E-03    -100.632E+06    -171.056E+06    -39.7925E+06     26.5123E+03    -163.839E-03     327.288E-03    -163.449E-03     67.0634E-03    -164.444E-03     327.044E-03    -163.254E-03     63.1979E-03
             374     5.35126E-03     82.1028E-03    -90.8294E+06    -148.561E+06    -23.1638E+06     107.183E+03    -163.998E-03     327.445E-03    -163.447E-03     74.9437E-03    -164.727E-03     327.391E-03    -163.215E-03     70.5301E-03
             375     6.11596E-03     82.1988E-03    -81.4666E+06    -127.321E+06    -8.75166E+06     53.2395E+03    -164.131E-03     327.568E-03    -163.437E-03     81.4750E-03    -164.979E-03     327.701E-03    -163.178E-03     76.5736E-03
             376     6.88069E-03     82.3016E-03    -72.7423E+06    -106.506E+06     3.90988E+06     65.7394E+03    -164.220E-03     327.642E-03    -163.422E-03     86.5332E-03    -165.177E-03     327.951E-03    -163.142E-03     81.2149E-03
             377     7.64551E-03     82.4096E-03    -64.4690E+06    -85.1072E+06     15.4143E+06     125.842E+03    -164.279E-03     327.682E-03    -163.402E-03     90.1554E-03    -165.330E-03     328.157E-03    -163.108E-03     84.4941E-03
             378     8.41024E-03     82.5210E-03    -56.8301E+06    -64.0457E+06     25.6134E+06     13.3822E+03    -164.280E-03     327.660E-03    -163.380E-03     92.3438E-03    -165.407E-03     328.284E-03    -163.077E-03     86.4022E-03
             379     9.17515E-03     82.6340E-03    -49.5688E+06    -40.2381E+06     35.3453E+06    -96.7945E+03    -164.201E-03     327.555E-03    -163.354E-03     93.1971E-03    -165.391E-03     328.323E-03    -163.047E-03     87.0293E-03
             380     9.93999E-03     82.7469E-03    -42.8277E+06    -13.1931E+06     45.0749E+06    -116.829E+03    -164.042E-03     327.365E-03    -163.324E-03     92.7170E-03    -165.285E-03     328.279E-03    -163.017E-03     86.3618E-03
             381     10.7050E-03     82.8581E-03    -36.7595E+06     20.6366E+06     55.5507E+06       1.448E+03    -163.740E-03     327.026E-03    -163.286E-03     90.6940E-03    -165.031E-03     328.098E-03    -162.985E-03     84.1894E-03
             382     11.4701E-03     82.9649E-03    -30.9658E+06     62.6410E+06     66.0092E+06     445.374E+03    -163.333E-03     326.566E-03    -163.233E-03     86.6102E-03    -164.665E-03     327.818E-03    -162.949E-03     79.9807E-03
             383     12.2354E-03     83.0649E-03    -25.0686E+06     88.5457E+06     74.1912E+06     375.986E+03    -162.948E-03     326.139E-03    -163.191E-03     80.0473E-03    -164.271E-03     327.472E-03    -162.912E-03     73.2977E-03
             384     13.0006E-03     83.1543E-03    -17.8486E+06     95.7765E+06     80.1621E+06     225.612E+03    -162.476E-03     325.641E-03    -163.165E-03     69.2632E-03    -163.698E-03     326.907E-03    -162.877E-03     62.5161E-03
             385     13.7660E-03     83.2276E-03    -10.7026E+06     107.200E+06     93.9954E+06    -29.4049E+03    -162.118E-03     325.294E-03    -163.176E-03     58.4769E-03    -163.292E-03     326.538E-03    -162.846E-03     51.5425E-03
             386     14.5316E-03     83.2894E-03    -5.38488E+06     113.546E+06     104.589E+06    -414.375E+03    -162.136E-03     325.329E-03    -163.193E-03     36.5008E-03    -163.049E-03     326.322E-03    -162.826E-03     30.4358E-03
             387     764.284E-06     83.0730E-03    -144.617E+06    -282.067E+06    -140.452E+06    -19.4957E+03    -163.452E-03     326.669E-03    -163.217E-03     13.9446E-03    -163.580E-03     325.690E-03    -163.301E-03     13.2059E-03
             388     1.52866E-03     83.0969E-03    -139.008E+06    -265.692E+06    -124.740E+06     87.7495E+03    -163.359E-03     326.711E-03    -163.352E-03     25.3273E-03    -163.542E-03     325.820E-03    -163.389E-03     23.9802E-03
             389     2.29311E-03     83.1350E-03    -130.849E+06    -243.059E+06    -103.387E+06    -20.4974E+03    -163.416E-03     326.796E-03    -163.380E-03     36.8519E-03    -163.683E-03     326.035E-03    -163.354E-03     34.8569E-03
             390     3.05758E-03     83.1871E-03    -121.135E+06    -218.747E+06    -80.5064E+06    -19.5581E+03    -163.538E-03     326.946E-03    -163.407E-03     47.8181E-03    -163.907E-03     326.341E-03    -163.317E-03     45.1772E-03
             391     3.82210E-03     83.2522E-03    -110.916E+06    -194.559E+06    -58.9356E+06     83.7392E+03    -163.689E-03     327.118E-03    -163.429E-03     57.9464E-03    -164.172E-03     326.687E-03    -163.281E-03     54.6767E-03
             392     4.58663E-03     83.3290E-03    -100.763E+06    -171.188E+06    -39.8826E+06     74.7367E+03    -163.840E-03     327.278E-03    -163.438E-03     67.0525E-03    -164.445E-03     327.034E-03    -163.244E-03     63.1853E-03
             393     5.35131E-03     83.4161E-03    -90.9157E+06    -148.686E+06    -23.3256E+06     110.213E+03    -163.983E-03     327.419E-03    -163.436E-03     74.9805E-03    -164.713E-03     327.366E-03    -163.205E-03     70.5668E-03
             394     6.11601E-03     83.5120E-03    -81.6304E+06    -127.202E+06    -8.86493E+06     145.000E+03    -164.116E-03     327.542E-03    -163.426E-03     81.5271E-03    -164.966E-03     327.676E-03    -163.167E-03     76.6284E-03
             395     6.88077E-03     83.6148E-03    -72.7390E+06    -106.491E+06     3.90559E+06     47.6174E+03    -164.232E-03     327.643E-03    -163.411E-03     86.5981E-03    -165.189E-03     327.952E-03    -163.132E-03     81.2817E-03
             396     7.64551E-03     83.7228E-03    -64.3221E+06    -85.3993E+06     15.3076E+06     181.128E+03    -164.288E-03     327.682E-03    -163.393E-03     90.2299E-03    -165.338E-03     328.155E-03    -163.100E-03     84.5726E-03
             397     8.41039E-03     83.8343E-03    -56.6606E+06    -63.7164E+06     25.7423E+06     293.656E+03    -164.264E-03     327.636E-03    -163.372E-03     92.3972E-03    -165.391E-03     328.261E-03    -163.068E-03     86.4627E-03
             398     9.17523E-03     83.9472E-03    -49.5798E+06    -40.2138E+06     35.5408E+06     345.730E+03    -164.167E-03     327.512E-03    -163.345E-03     93.2415E-03    -165.357E-03     328.280E-03    -163.037E-03     87.0815E-03
             399     9.94019E-03     84.0603E-03    -42.8274E+06    -13.3212E+06     45.2366E+06     607.450E+03    -163.988E-03     327.300E-03    -163.312E-03     92.6958E-03    -165.231E-03     328.212E-03    -163.004E-03     86.3488E-03
             400     10.7052E-03     84.1710E-03    -36.5472E+06     20.5040E+06     55.8732E+06     697.775E+03    -163.736E-03     327.010E-03    -163.274E-03     90.4890E-03    -165.027E-03     328.082E-03    -162.971E-03     83.9817E-03
             401     11.4703E-03     84.2782E-03    -29.9770E+06     62.1732E+06     66.3911E+06     526.570E+03    -163.436E-03     326.662E-03    -163.225E-03     86.2202E-03    -164.764E-03     327.911E-03    -162.940E-03     79.5705E-03
             402     12.2353E-03     84.3779E-03    -23.0486E+06     89.8280E+06     76.0319E+06     89.3601E+03    -163.178E-03     326.377E-03    -163.199E-03     79.5899E-03    -164.496E-03     327.712E-03    -162.916E-03     72.8089E-03
             403     12.9999E-03     84.4683E-03    -17.2295E+06     96.5861E+06     81.1826E+06    -934.009E+03    -162.855E-03     326.046E-03    -163.191E-03     68.7334E-03    -164.078E-03     327.315E-03    -162.900E-03     61.9275E-03
             404     13.7647E-03     84.5400E-03    -11.5198E+06     107.122E+06     93.7245E+06    -863.110E+03    -162.397E-03     325.614E-03    -163.217E-03     58.1576E-03    -163.576E-03     326.860E-03    -162.887E-03     51.1818E-03
             405     14.5291E-03     84.6038E-03    -6.13123E+06     113.248E+06     103.927E+06     35.8249E+03    -162.009E-03     325.243E-03    -163.234E-03     36.5847E-03    -162.923E-03     326.236E-03    -162.870E-03     30.5438E-03
             406     764.352E-06     84.3863E-03    -144.706E+06    -282.148E+06    -140.557E+06     140.814E+03    -163.449E-03     326.632E-03    -163.183E-03     13.9077E-03    -163.577E-03     325.653E-03    -163.267E-03     13.1703E-03
             407     1.52871E-03     84.4100E-03    -138.941E+06    -265.690E+06    -124.726E+06     11.4486E+03    -163.344E-03     326.679E-03    -163.335E-03     25.2667E-03    -163.527E-03     325.787E-03    -163.372E-03     23.9173E-03
             408     2.29310E-03     84.4483E-03    -130.888E+06    -243.082E+06    -103.526E+06     107.402E+03    -163.421E-03     326.787E-03    -163.366E-03     36.8397E-03    -163.688E-03     326.026E-03    -163.341E-03     34.8456E-03
             409     3.05754E-03     84.5004E-03    -121.450E+06    -218.775E+06    -80.6492E+06     98.4038E+03    -163.533E-03     326.930E-03    -163.397E-03     47.8490E-03    -163.903E-03     326.326E-03    -163.307E-03     45.2098E-03
             410     3.82207E-03     84.5654E-03    -111.145E+06    -194.742E+06    -59.0538E+06     88.4158E+03    -163.659E-03     327.077E-03    -163.418E-03     57.9888E-03    -164.143E-03     326.646E-03    -163.270E-03     54.7208E-03
             411     4.58675E-03     84.6422E-03    -100.791E+06    -171.067E+06    -39.8816E+06     100.834E+03    -163.813E-03     327.237E-03    -163.424E-03     67.0924E-03    -164.419E-03     326.993E-03    -163.229E-03     63.2287E-03
             412     5.35140E-03     84.7293E-03    -90.9423E+06    -148.740E+06    -23.3586E+06     29.5514E+03    -163.973E-03     327.394E-03    -163.421E-03     74.9892E-03    -164.702E-03     327.340E-03    -163.190E-03     70.5769E-03
             413     6.11615E-03     84.8252E-03    -81.3982E+06    -127.358E+06    -8.82155E+06     122.091E+03    -164.110E-03     327.522E-03    -163.411E-03     81.5278E-03    -164.958E-03     327.654E-03    -163.153E-03     76.6312E-03
             414     6.88089E-03     84.9281E-03    -72.6490E+06    -106.369E+06     4.07551E+06     234.655E+03    -164.229E-03     327.628E-03    -163.398E-03     86.6216E-03    -165.186E-03     327.937E-03    -163.119E-03     81.3102E-03
             415     7.64568E-03     85.0361E-03    -64.4183E+06    -85.4412E+06     15.4270E+06     84.8951E+03    -164.292E-03     327.673E-03    -163.382E-03     90.2242E-03    -165.342E-03     328.147E-03    -163.087E-03     84.5655E-03
             416     8.41046E-03     85.1475E-03    -56.4881E+06    -64.1254E+06     25.7989E+06     190.600E+03    -164.272E-03     327.634E-03    -163.362E-03     92.3621E-03    -165.398E-03     328.257E-03    -163.058E-03     86.4225E-03
             417     9.17535E-03     85.2605E-03    -49.2223E+06    -40.3006E+06     35.7536E+06     393.131E+03    -164.183E-03     327.520E-03    -163.337E-03     93.1367E-03    -165.373E-03     328.288E-03    -163.028E-03     86.9687E-03
             418     9.94030E-03     85.3732E-03    -41.9921E+06    -13.7364E+06     45.4658E+06     460.945E+03    -164.053E-03     327.361E-03    -163.308E-03     92.5120E-03    -165.292E-03     328.271E-03    -163.000E-03     86.1512E-03
             419     10.7052E-03     85.4845E-03    -34.6253E+06     20.2364E+06     56.4180E+06     824.490E+03    -163.872E-03     327.149E-03    -163.278E-03     90.2997E-03    -165.154E-03     328.217E-03    -162.975E-03     83.7807E-03
             420     11.4700E-03     85.5914E-03    -27.8179E+06     63.0816E+06     67.6491E+06     548.527E+03    -163.565E-03     326.804E-03    -163.240E-03     86.1893E-03    -164.886E-03     328.054E-03    -162.952E-03     79.5286E-03
             421     12.2347E-03     85.6919E-03    -21.8505E+06     90.5598E+06     76.9446E+06    -315.399E+03    -163.177E-03     326.392E-03    -163.216E-03     79.9368E-03    -164.492E-03     327.729E-03    -162.931E-03     73.1575E-03
             422     12.9998E-03     85.7818E-03    -16.2007E+06     97.4463E+06     83.3041E+06    -307.483E+03    -162.888E-03     326.099E-03    -163.212E-03     69.6452E-03    -164.113E-03     327.371E-03    -162.913E-03     62.8682E-03
             423     13.7643E-03     85.8546E-03    -11.8558E+06     106.572E+06     93.7796E+06     792.170E+03    -162.296E-03     325.523E-03    -163.227E-03     59.3438E-03    -163.482E-03     326.773E-03    -162.895E-03     52.4200E-03
             424     14.5297E-03     85.9166E-03    -5.83207E+06     112.378E+06     102.925E+06     80.4936E+03    -161.486E-03     324.706E-03    -163.220E-03     38.0658E-03    -162.402E-03     325.702E-03    -162.860E-03     32.0593E-03
             425     764.298E-06     85.6994E-03    -145.138E+06    -282.147E+06    -141.330E+06    -116.969E+03    -163.397E-03     326.607E-03    -163.210E-03     13.8756E-03    -163.526E-03     325.629E-03    -163.297E-03     13.1341E-03
             426     1.52867E-03     85.7232E-03    -139.527E+06    -265.684E+06    -125.169E+06    -42.7526E+03    -163.323E-03     326.645E-03    -163.321E-03     25.2935E-03    -163.509E-03     325.755E-03    -163.360E-03     23.9441E-03
             427     2.29313E-03     85.7614E-03    -131.252E+06    -243.348E+06    -103.548E+06     46.4090E+03    -163.395E-03     326.746E-03    -163.351E-03     36.9002E-03    -163.663E-03     325.985E-03    -163.325E-03     34.9065E-03
             428     3.05766E-03     85.8136E-03    -121.510E+06    -218.787E+06    -80.4710E+06     152.703E+03    -163.499E-03     326.878E-03    -163.379E-03     47.8870E-03    -163.869E-03     326.274E-03    -163.288E-03     45.2507E-03
             429     3.82223E-03     85.8786E-03    -111.131E+06    -194.583E+06    -58.8687E+06    -7.35640E+03    -163.640E-03     327.037E-03    -163.397E-03     58.0198E-03    -164.124E-03     326.607E-03    -163.248E-03     54.7535E-03
             430     4.58681E-03     85.9553E-03    -100.709E+06    -171.162E+06    -39.8576E+06    -51.1531E+03    -163.814E-03     327.219E-03    -163.405E-03     67.1176E-03    -164.419E-03     326.974E-03    -163.210E-03     63.2539E-03
             431     5.35150E-03     86.0425E-03    -90.7582E+06    -148.761E+06    -23.1788E+06     147.871E+03    -163.991E-03     327.397E-03    -163.406E-03     74.9768E-03    -164.720E-03     327.343E-03    -163.175E-03     70.5654E-03
             432     6.11616E-03     86.1383E-03    -81.5084E+06    -127.492E+06    -8.72305E+06     183.928E+03    -164.132E-03     327.534E-03    -163.401E-03     81.4779E-03    -164.980E-03     327.665E-03    -163.142E-03     76.5797E-03
             433     6.88095E-03     86.2413E-03    -72.5747E+06     -106.27E+06     4.14127E+06     78.3256E+03    -164.237E-03     327.628E-03    -163.391E-03     86.5654E-03    -165.193E-03     327.937E-03    -163.111E-03     81.2500E-03
             434     7.64571E-03     86.3493E-03    -64.3949E+06    -85.3664E+06     15.4211E+06     69.8518E+03    -164.298E-03     327.674E-03    -163.376E-03     90.1223E-03    -165.348E-03     328.148E-03    -163.082E-03     84.4589E-03
             435     8.41053E-03     86.4607E-03    -56.8795E+06    -64.5415E+06     25.5490E+06     166.421E+03    -164.299E-03     327.657E-03    -163.359E-03     92.2528E-03    -165.426E-03     328.279E-03    -163.055E-03     86.3074E-03
             436     9.17534E-03     86.5736E-03    -49.2373E+06    -40.0670E+06     35.7294E+06     43.9264E+03    -164.251E-03     327.589E-03    -163.338E-03     93.0434E-03    -165.441E-03     328.358E-03    -163.030E-03     86.8662E-03
             437     9.94010E-03     86.6867E-03    -42.2435E+06    -13.5096E+06     45.3916E+06    -378.068E+03    -164.138E-03     327.453E-03    -163.316E-03     92.4854E-03    -165.378E-03     328.365E-03    -163.008E-03     86.1110E-03
             438     10.7049E-03     86.7978E-03    -35.3553E+06     19.4733E+06     55.8686E+06    -557.233E+03    -163.879E-03     327.167E-03    -163.288E-03     90.4373E-03    -165.163E-03     328.232E-03    -162.985E-03     83.9059E-03
             439     11.4698E-03     86.9052E-03    -28.2863E+06     62.8428E+06     67.2187E+06     8.25886E+03    -163.436E-03     326.680E-03    -163.244E-03     86.4920E-03    -164.758E-03     327.929E-03    -162.958E-03     79.8423E-03
             440     12.2351E-03     87.0050E-03    -21.8391E+06     91.0779E+06     76.7848E+06     670.153E+03    -162.978E-03     326.185E-03    -163.208E-03     80.2901E-03    -164.293E-03     327.523E-03    -162.924E-03     73.5506E-03
             441     13.0003E-03     87.0953E-03    -17.1241E+06     96.3369E+06     81.1633E+06     1.48167E+06    -162.536E-03     325.717E-03    -163.181E-03     70.0807E-03    -163.758E-03     326.985E-03    -162.890E-03     63.3785E-03
             442     13.7655E-03     87.1685E-03    -11.4137E+06     106.714E+06     93.0659E+06     958.439E+03    -161.993E-03     325.175E-03    -163.181E-03     59.1000E-03    -163.173E-03     326.423E-03    -162.854E-03     52.1902E-03
             443     14.5313E-03     87.2278E-03    -4.87526E+06     113.700E+06     104.404E+06    -367.069E+03    -161.888E-03     325.076E-03    -163.188E-03     37.0891E-03    -162.801E-03     326.073E-03    -162.824E-03     31.0405E-03
             444     764.354E-06     87.0126E-03    -145.068E+06    -282.007E+06    -140.944E+06    -80.3710E+03    -163.364E-03     326.552E-03    -163.188E-03     13.9159E-03    -163.493E-03     325.574E-03    -163.274E-03     13.1775E-03
             445     1.52877E-03     87.0363E-03    -139.450E+06    -265.661E+06    -125.042E+06    -65.0988E+03    -163.315E-03     326.613E-03    -163.298E-03     25.3086E-03    -163.501E-03     325.723E-03    -163.335E-03     23.9604E-03
             446     2.29321E-03     87.0746E-03    -131.215E+06    -243.456E+06    -103.452E+06    -59.9123E+03    -163.381E-03     326.713E-03    -163.332E-03     36.8733E-03    -163.649E-03     325.950E-03    -163.306E-03     34.8790E-03
             447     3.05768E-03     87.1267E-03    -121.322E+06    -218.890E+06    -80.3840E+06    -28.6152E+03    -163.478E-03     326.839E-03    -163.361E-03     47.8299E-03    -163.847E-03     326.233E-03    -163.269E-03     45.1919E-03
             448     3.82229E-03     87.1917E-03    -111.039E+06    -194.492E+06    -58.8027E+06     153.364E+03    -163.636E-03     327.017E-03    -163.380E-03     57.9655E-03    -164.120E-03     326.586E-03    -163.231E-03     54.7020E-03
             449     4.58694E-03     87.2685E-03    -100.929E+06    -171.190E+06    -39.7887E+06     215.784E+03    -163.830E-03     327.222E-03    -163.392E-03     67.0592E-03    -164.436E-03     326.978E-03    -163.197E-03     63.1972E-03
             450     5.35156E-03     87.3557E-03    -91.0313E+06    -148.852E+06    -23.2652E+06     67.5997E+03    -164.006E-03     327.404E-03    -163.398E-03     74.9252E-03    -164.736E-03     327.350E-03    -163.166E-03     70.5106E-03
             451     6.11625E-03     87.4516E-03    -81.4797E+06    -127.428E+06    -8.82424E+06    -17.1397E+03    -164.163E-03     327.560E-03    -163.397E-03     81.4412E-03    -165.011E-03     327.692E-03    -163.138E-03     76.5374E-03
             452     6.88091E-03     87.5544E-03    -72.6634E+06    -106.361E+06     3.95281E+06     183.305E+03    -164.264E-03     327.654E-03    -163.390E-03     86.5364E-03    -165.221E-03     327.965E-03    -163.111E-03     81.2177E-03
             453     7.64567E-03     87.6627E-03    -64.7838E+06    -85.4222E+06     15.2866E+06     277.173E+03    -164.307E-03     327.685E-03    -163.378E-03     90.1128E-03    -165.359E-03     328.159E-03    -163.084E-03     84.4510E-03
             454     8.41044E-03     87.7739E-03    -56.9389E+06    -64.2307E+06     25.6856E+06    -8.65228E+03    -164.328E-03     327.690E-03    -163.363E-03     92.2728E-03    -165.456E-03     328.314E-03    -163.058E-03     86.3265E-03
             455     9.17521E-03     87.8871E-03    -49.6354E+06    -39.9693E+06     35.5095E+06    -132.903E+03    -164.274E-03     327.616E-03    -163.343E-03     93.1243E-03    -165.465E-03     328.387E-03    -163.035E-03     86.9491E-03
             456     9.94005E-03     88.0000E-03    -43.1251E+06    -12.7140E+06     45.2937E+06    -308.339E+03    -164.099E-03     327.419E-03    -163.319E-03     92.6554E-03    -165.345E-03     328.335E-03    -163.012E-03     86.2908E-03
             457     10.7049E-03     88.1113E-03    -37.1362E+06     19.6476E+06     55.4808E+06    -774.898E+03    -163.775E-03     327.061E-03    -163.287E-03     90.6110E-03    -165.067E-03     328.131E-03    -162.984E-03     84.0843E-03
             458     11.4701E-03     88.2180E-03    -30.9441E+06     61.4281E+06     65.5277E+06    -640.818E+03    -163.350E-03     326.583E-03    -163.233E-03     86.5014E-03    -164.680E-03     327.832E-03    -162.950E-03     79.8466E-03
             459     12.2353E-03     88.3183E-03    -24.6563E+06     88.9187E+06     74.1633E+06     849.389E+03    -162.957E-03     326.149E-03    -163.192E-03     79.9936E-03    -164.278E-03     327.483E-03    -162.915E-03     73.2530E-03
             460     13.0004E-03     88.4083E-03    -17.2410E+06     96.4128E+06     80.3298E+06     1.22459E+06    -162.485E-03     325.652E-03    -163.167E-03     69.2104E-03    -163.704E-03     326.919E-03    -162.880E-03     62.4787E-03
             461     13.7661E-03     88.4807E-03    -10.0436E+06     108.942E+06     95.1465E+06    -782.365E+03    -162.260E-03     325.445E-03    -163.186E-03     57.9747E-03    -163.437E-03     326.698E-03    -162.853E-03     50.9912E-03
             462     14.5303E-03     88.5425E-03    -5.76746E+06     114.002E+06     105.011E+06    -52.2614E+03    -162.350E-03     325.562E-03    -163.212E-03     36.4195E-03    -163.267E-03     326.558E-03    -162.844E-03     30.3518E-03
             463     764.409E-06     88.3256E-03    -144.851E+06    -281.901E+06    -140.947E+06     49.0693E+03    -163.371E-03     326.521E-03    -163.150E-03     13.8504E-03    -163.500E-03     325.544E-03    -163.236E-03     13.1158E-03
             464     1.52876E-03     88.3494E-03    -139.392E+06    -265.606E+06    -125.022E+06    -42.2088E+03    -163.314E-03     326.599E-03    -163.285E-03     25.2652E-03    -163.499E-03     325.709E-03    -163.323E-03     23.9166E-03
             465     2.29318E-03     88.3877E-03    -131.202E+06    -243.494E+06    -103.565E+06    -2.23750E+03    -163.374E-03     326.696E-03    -163.322E-03     36.8342E-03    -163.641E-03     325.934E-03    -163.297E-03     34.8402E-03
             466     3.05775E-03     88.4397E-03    -121.503E+06    -218.953E+06    -80.5748E+06     77.9776E+03    -163.493E-03     326.848E-03    -163.354E-03     47.7947E-03    -163.863E-03     326.242E-03    -163.264E-03     45.1569E-03
             467     3.82229E-03     88.5048E-03    -111.219E+06    -194.769E+06    -58.9582E+06     166.473E+03    -163.657E-03     327.036E-03    -163.379E-03     57.9144E-03    -164.141E-03     326.605E-03    -163.230E-03     54.6490E-03
             468     4.58687E-03     88.5817E-03    -100.872E+06    -171.208E+06    -39.8278E+06     163.781E+03    -163.832E-03     327.226E-03    -163.394E-03     67.0095E-03    -164.437E-03     326.981E-03    -163.199E-03     63.1459E-03
             469     5.35151E-03     88.6689E-03    -90.8308E+06    -148.580E+06    -23.1888E+06     65.5917E+03    -164.007E-03     327.407E-03    -163.400E-03     74.8889E-03    -164.736E-03     327.353E-03    -163.168E-03     70.4740E-03
             470     6.11619E-03     88.7647E-03    -81.5356E+06    -127.518E+06    -8.81695E+06     84.5353E+03    -164.159E-03     327.558E-03    -163.399E-03     81.4342E-03    -165.007E-03     327.690E-03    -163.140E-03     76.5326E-03
             471     6.88090E-03     88.8678E-03    -72.9103E+06    -106.799E+06     3.83259E+06     158.812E+03    -164.262E-03     327.654E-03    -163.392E-03     86.5447E-03    -165.220E-03     327.962E-03    -163.112E-03     81.2268E-03
             472     7.64567E-03     88.9757E-03    -64.3157E+06    -85.3094E+06     15.5541E+06     190.270E+03    -164.323E-03     327.703E-03    -163.380E-03     90.1712E-03    -165.373E-03     328.177E-03    -163.085E-03     84.5117E-03
             473     8.41045E-03     89.0874E-03    -56.5675E+06    -63.8825E+06     25.9404E+06     180.483E+03    -164.335E-03     327.700E-03    -163.365E-03     92.3575E-03    -165.462E-03     328.324E-03    -163.060E-03     86.4182E-03
             474     9.17525E-03     89.2003E-03    -49.5886E+06    -40.1955E+06     35.5283E+06     280.228E+03    -164.241E-03     327.585E-03    -163.344E-03     93.1763E-03    -165.432E-03     328.354E-03    -163.036E-03     87.0079E-03
             475     9.94013E-03     89.3135E-03    -43.0247E+06    -12.6971E+06     45.3330E+06     656.424E+03    -164.035E-03     327.351E-03    -163.316E-03     92.6264E-03    -165.281E-03     328.267E-03    -163.008E-03     86.2738E-03
             476     10.7052E-03     89.4243E-03    -36.6000E+06     20.9999E+06     56.1190E+06     515.362E+03    -163.801E-03     327.083E-03    -163.283E-03     90.4343E-03    -165.094E-03     328.159E-03    -162.979E-03     83.9161E-03
             477     11.4702E-03     89.5314E-03    -30.3765E+06     60.9995E+06     65.8704E+06     213.845E+03    -163.524E-03     326.762E-03    -163.238E-03     86.1770E-03    -164.852E-03     328.008E-03    -162.953E-03     79.5144E-03
             478     12.2350E-03     89.6314E-03    -24.0886E+06     88.1732E+06     74.7870E+06    -588.663E+03    -163.144E-03     326.355E-03    -163.211E-03     79.5555E-03    -164.462E-03     327.684E-03    -162.930E-03     72.7700E-03
             479     13.0001E-03     89.7216E-03    -17.0078E+06     96.8871E+06     82.2132E+06    -1.50770E+06    -162.746E-03     325.951E-03    -163.204E-03     68.8312E-03    -163.970E-03     327.219E-03    -162.909E-03     62.0284E-03
             480     13.7643E-03     89.7943E-03    -10.7017E+06     108.397E+06     95.3084E+06    -104.161E+03    -162.324E-03     325.549E-03    -163.225E-03     58.3959E-03    -163.504E-03     326.800E-03    -162.890E-03     51.4455E-03
             481     14.5293E-03     89.8573E-03    -5.48367E+06     114.070E+06     104.475E+06     1.11591E+06    -161.909E-03     325.142E-03    -163.233E-03     37.1830E-03    -162.823E-03     326.138E-03    -162.868E-03     31.1748E-03
             482     764.330E-06     89.6387E-03    -144.969E+06    -282.036E+06    -140.955E+06     19.4145E+03    -163.360E-03     326.548E-03    -163.188E-03     13.8777E-03    -163.489E-03     325.570E-03    -163.273E-03     13.1399E-03
             483     1.52875E-03     89.6626E-03    -139.395E+06    -265.552E+06    -124.947E+06     136.772E+03    -163.306E-03     326.600E-03    -163.294E-03     25.2395E-03    -163.491E-03     325.710E-03    -163.332E-03     23.8918E-03
             484     2.29324E-03     89.7007E-03    -131.263E+06    -243.521E+06    -103.414E+06     74.3547E+03    -163.379E-03     326.708E-03    -163.328E-03     36.7973E-03    -163.647E-03     325.945E-03    -163.302E-03     34.8035E-03
             485     3.05770E-03     89.7529E-03    -121.526E+06    -219.163E+06    -80.5152E+06     120.544E+03    -163.513E-03     326.875E-03    -163.362E-03     47.7802E-03    -163.882E-03     326.268E-03    -163.271E-03     45.1426E-03
             486     3.82221E-03     89.8180E-03    -111.033E+06    -194.659E+06    -58.8440E+06     45.4555E+03    -163.667E-03     327.055E-03    -163.388E-03     57.9265E-03    -164.150E-03     326.624E-03    -163.239E-03     54.6578E-03
             487     4.58683E-03     89.8949E-03    -100.592E+06    -171.205E+06    -39.7514E+06    -23.0138E+03    -163.833E-03     327.235E-03    -163.402E-03     67.0423E-03    -164.437E-03     326.990E-03    -163.207E-03     63.1761E-03
             488     5.35151E-03     89.9821E-03    -90.7218E+06    -148.765E+06    -23.1391E+06     159.989E+03    -164.002E-03     327.408E-03    -163.406E-03     74.9167E-03    -164.731E-03     327.354E-03    -163.175E-03     70.5045E-03
             489     6.11616E-03     90.0781E-03    -81.5715E+06    -127.522E+06    -8.71311E+06     207.750E+03    -164.145E-03     327.548E-03    -163.403E-03     81.4371E-03    -164.993E-03     327.680E-03    -163.144E-03     76.5390E-03
             490     6.88094E-03     90.1809E-03    -72.5766E+06    -106.740E+06     4.06588E+06     51.0019E+03    -164.269E-03     327.664E-03    -163.395E-03     86.5321E-03    -165.225E-03     327.972E-03    -163.115E-03     81.2140E-03
             491     7.64566E-03     90.2892E-03    -64.1321E+06    -85.6398E+06     15.4920E+06     168.337E+03    -164.339E-03     327.723E-03    -163.384E-03     90.1119E-03    -165.388E-03     328.195E-03    -163.089E-03     84.4500E-03
             492     8.41044E-03     90.4005E-03    -56.5219E+06    -64.0683E+06     25.8709E+06     534.418E+03    -164.312E-03     327.681E-03    -163.368E-03     92.2785E-03    -165.438E-03     328.303E-03    -163.064E-03     86.3419E-03
             493     9.17525E-03     90.5138E-03    -49.3271E+06    -40.2859E+06     35.7597E+06     591.273E+03    -164.218E-03     327.564E-03    -163.346E-03     93.0671E-03    -165.408E-03     328.333E-03    -163.038E-03     86.8981E-03
             494     9.94016E-03     90.6264E-03    -41.8356E+06    -13.2073E+06     45.7612E+06     523.004E+03    -164.100E-03     327.421E-03    -163.321E-03     92.4619E-03    -165.340E-03     328.333E-03    -163.012E-03     86.0980E-03
             495     10.7050E-03     90.7378E-03    -34.6760E+06     20.9189E+06     56.7893E+06     906.940E+03    -163.935E-03     327.229E-03    -163.294E-03     90.3083E-03    -165.219E-03     328.299E-03    -162.990E-03     83.7883E-03
             496     11.4697E-03     90.8449E-03    -28.1154E+06     62.3125E+06     67.4264E+06     458.889E+03    -163.610E-03     326.868E-03    -163.258E-03     86.1949E-03    -164.931E-03     328.115E-03    -162.970E-03     79.5312E-03
             497     12.2345E-03     90.9452E-03    -21.8137E+06     90.0434E+06     76.9112E+06    -562.427E+03    -163.148E-03     326.382E-03    -163.234E-03     79.8826E-03    -164.463E-03     327.716E-03    -162.948E-03     73.0997E-03
             498     12.9993E-03     91.0351E-03    -17.7007E+06     96.2669E+06     81.7837E+06    -344.917E+03    -162.625E-03     325.841E-03    -163.216E-03     69.7376E-03    -163.852E-03     327.110E-03    -162.921E-03     62.9824E-03
             499     13.7647E-03     91.1081E-03    -12.6515E+06     106.492E+06     93.1643E+06     511.153E+03    -162.041E-03     325.259E-03    -163.218E-03     59.3777E-03    -163.227E-03     326.508E-03    -162.888E-03     52.4757E-03
             500     14.5307E-03     91.1691E-03    -5.11865E+06     114.249E+06     104.436E+06     355.663E+03    -161.678E-03     324.894E-03    -163.216E-03     37.6634E-03    -162.594E-03     325.894E-03    -162.852E-03     31.6406E-03
             501     764.362E-06     90.9519E-03    -145.046E+06    -282.166E+06    -140.909E+06     56.8887E+03    -163.343E-03     326.559E-03    -163.216E-03     13.9384E-03    -163.472E-03     325.581E-03    -163.301E-03     13.1979E-03
             502     1.52873E-03     90.9756E-03    -139.326E+06    -265.718E+06    -124.899E+06     39.7704E+03    -163.324E-03     326.626E-03    -163.302E-03     25.2500E-03    -163.508E-03     325.735E-03    -163.340E-03     23.9018E-03
             503     2.29312E-03     91.0139E-03    -131.169E+06    -243.563E+06    -103.299E+06     170.184E+03    -163.401E-03     326.742E-03    -163.341E-03     36.8275E-03    -163.669E-03     325.979E-03    -163.314E-03     34.8350E-03
             504     3.05764E-03     91.0660E-03    -121.437E+06    -219.095E+06    -80.3215E+06     54.0514E+03    -163.515E-03     326.890E-03    -163.375E-03     47.8112E-03    -163.885E-03     326.283E-03    -163.282E-03     45.1724E-03
             505     3.82223E-03     91.1312E-03    -110.875E+06    -194.672E+06    -58.8108E+06     22.4649E+03    -163.668E-03     327.066E-03    -163.398E-03     57.9371E-03    -164.151E-03     326.634E-03    -163.249E-03     54.6683E-03
             506     4.58682E-03     91.2080E-03    -100.667E+06    -171.203E+06    -39.7124E+06     134.197E+03    -163.842E-03     327.253E-03    -163.411E-03     67.0258E-03    -164.447E-03     327.008E-03    -163.215E-03     63.1620E-03
             507     5.35142E-03     91.2953E-03    -90.8392E+06    -148.937E+06    -23.1638E+06     97.0016E+03    -164.005E-03     327.420E-03    -163.415E-03     74.8915E-03    -164.734E-03     327.365E-03    -163.183E-03     70.4785E-03
             508     6.11617E-03     91.3912E-03    -81.2004E+06    -127.494E+06    -8.60128E+06     135.965E+03    -164.167E-03     327.579E-03    -163.412E-03     81.3900E-03    -165.013E-03     327.710E-03    -163.153E-03     76.4890E-03
             509     6.88082E-03     91.4943E-03    -72.5116E+06    -106.625E+06     4.15248E+06     231.184E+03    -164.293E-03     327.699E-03    -163.406E-03     86.4786E-03    -165.249E-03     328.007E-03    -163.126E-03     81.1596E-03
             510     7.64554E-03     91.6024E-03    -64.4730E+06    -85.8962E+06     15.3840E+06     219.129E+03    -164.334E-03     327.730E-03    -163.395E-03     90.0610E-03    -165.384E-03     328.201E-03    -163.100E-03     84.3963E-03
             511     8.41029E-03     91.7139E-03    -56.5004E+06    -64.4361E+06     25.7655E+06     173.298E+03    -164.297E-03     327.675E-03    -163.378E-03     92.2257E-03    -165.423E-03     328.297E-03    -163.074E-03     86.2813E-03
             512     9.17518E-03     91.8269E-03    -48.9835E+06    -40.3470E+06     35.7568E+06     111.446E+03    -164.240E-03     327.595E-03    -163.355E-03     93.0545E-03    -165.428E-03     328.363E-03    -163.047E-03     86.8783E-03
             513     9.93996E-03     91.9400E-03    -42.0364E+06    -13.5400E+06     45.5356E+06     290.021E+03    -164.156E-03     327.488E-03    -163.332E-03     92.5368E-03    -165.397E-03     328.399E-03    -163.023E-03     86.1719E-03
             514     10.7047E-03     92.0513E-03    -35.5425E+06     20.4247E+06     56.3044E+06     260.207E+03    -163.874E-03     327.177E-03    -163.303E-03     90.5669E-03    -165.161E-03     328.247E-03    -163.000E-03     84.0512E-03
             515     11.4697E-03     92.1586E-03    -29.1819E+06     63.2415E+06     67.1278E+06     242.915E+03    -163.376E-03     326.630E-03    -163.255E-03     86.6845E-03    -164.703E-03     327.884E-03    -162.969E-03     80.0439E-03
             516     12.2348E-03     92.2585E-03    -23.6973E+06     89.8432E+06     75.2906E+06     757.861E+03    -162.870E-03     326.080E-03    -163.210E-03     80.4787E-03    -164.192E-03     327.418E-03    -162.929E-03     73.7426E-03
             517     13.0004E-03     92.3483E-03    -17.9130E+06     96.0250E+06     80.6462E+06     1.14625E+06    -162.427E-03     325.605E-03    -163.178E-03     70.0944E-03    -163.652E-03     326.873E-03    -162.888E-03     63.3859E-03
             518     13.7657E-03     92.4207E-03    -12.2223E+06     106.885E+06     93.0725E+06     514.010E+03    -162.052E-03     325.232E-03    -163.179E-03     59.3942E-03    -163.236E-03     326.481E-03    -162.851E-03     52.4926E-03
             519     14.5300E-03     92.4831E-03    -5.62383E+06     114.191E+06     104.258E+06    -519.744E+03    -161.842E-03     325.027E-03    -163.185E-03     37.5891E-03    -162.761E-03     326.028E-03    -162.821E-03     31.5461E-03
             520     764.365E-06     92.2649E-03    -144.718E+06    -281.992E+06    -140.973E+06    -112.788E+03    -163.338E-03     326.555E-03    -163.217E-03     13.9495E-03    -163.466E-03     325.578E-03    -163.303E-03     13.2089E-03
             521     1.52874E-03     92.2888E-03    -139.174E+06    -265.889E+06    -124.814E+06    -95.3676E+03    -163.342E-03     326.646E-03    -163.305E-03     25.2819E-03    -163.525E-03     325.754E-03    -163.341E-03     23.9329E-03
             522     2.29319E-03     92.3270E-03    -130.926E+06    -243.759E+06    -103.286E+06     25.3911E+03    -163.422E-03     326.770E-03    -163.348E-03     36.8566E-03    -163.689E-03     326.006E-03    -163.321E-03     34.8619E-03
             523     3.05764E-03     92.3792E-03    -121.156E+06    -218.897E+06    -80.3152E+06     90.4505E+03    -163.535E-03     326.919E-03    -163.384E-03     47.8154E-03    -163.903E-03     326.313E-03    -163.293E-03     45.1762E-03
             524     3.82215E-03     92.4443E-03    -110.999E+06    -194.817E+06    -58.8922E+06     90.0715E+03    -163.689E-03     327.099E-03    -163.410E-03     57.9326E-03    -164.172E-03     326.667E-03    -163.261E-03     54.6639E-03
             525     4.58671E-03     92.5213E-03    -100.739E+06    -171.395E+06    -39.8187E+06     126.639E+03    -163.856E-03     327.280E-03    -163.424E-03     67.0085E-03    -164.461E-03     327.035E-03    -163.229E-03     63.1430E-03
             526     5.35141E-03     92.6084E-03    -90.8012E+06    -148.805E+06    -23.1321E+06     199.928E+03    -164.029E-03     327.458E-03    -163.429E-03     74.8725E-03    -164.758E-03     327.404E-03    -163.197E-03     70.4581E-03
             527     6.11599E-03     92.7046E-03    -81.5157E+06    -127.541E+06    -8.71420E+06     149.604E+03    -164.187E-03     327.615E-03    -163.428E-03     81.4071E-03    -165.036E-03     327.747E-03    -163.168E-03     76.5035E-03
             528     6.88069E-03     92.8075E-03    -72.7224E+06    -106.834E+06     3.97816E+06     116.907E+03    -164.279E-03     327.699E-03    -163.420E-03     86.5127E-03    -165.236E-03     328.007E-03    -163.140E-03     81.1919E-03
             529     7.64544E-03     92.9158E-03    -64.4531E+06    -85.7760E+06     15.3199E+06     125.224E+03    -164.305E-03     327.710E-03    -163.405E-03     90.1241E-03    -165.355E-03     328.182E-03    -163.111E-03     84.4612E-03
             530     8.41027E-03     93.0271E-03    -56.6893E+06    -64.4043E+06     25.5593E+06     82.9568E+03    -164.293E-03     327.677E-03    -163.384E-03     92.3009E-03    -165.419E-03     328.299E-03    -163.081E-03     86.3575E-03
             531     9.17504E-03     93.1402E-03    -49.4897E+06    -40.3051E+06     35.4627E+06     88.1974E+03    -164.219E-03     327.579E-03    -163.359E-03     93.2444E-03    -165.409E-03     328.347E-03    -163.052E-03     87.0765E-03
             532     9.93987E-03     93.2535E-03    -42.8443E+06    -13.9457E+06     45.0055E+06     58.8558E+03    -164.009E-03     327.337E-03    -163.328E-03     92.8632E-03    -165.251E-03     328.247E-03    -163.021E-03     86.5129E-03
             533     10.7049E-03     93.3646E-03    -36.1631E+06     20.3726E+06     55.8770E+06     303.570E+03    -163.620E-03     326.904E-03    -163.284E-03     90.9252E-03    -164.909E-03     327.975E-03    -162.982E-03     84.4321E-03
             534     11.4702E-03     93.4715E-03    -29.9193E+06     62.3982E+06     66.3509E+06     848.612E+03    -163.148E-03     326.367E-03    -163.219E-03     86.9403E-03    -164.475E-03     327.617E-03    -162.934E-03     80.3303E-03
             535     12.2357E-03     93.5714E-03    -23.5068E+06     89.1668E+06     75.0510E+06     1.33059E+06    -162.791E-03     325.958E-03    -163.167E-03     80.4646E-03    -164.110E-03     327.292E-03    -162.887E-03     73.7463E-03
             536     13.0007E-03     93.6612E-03    -16.9687E+06     97.0822E+06     81.4278E+06     999.122E+03    -162.509E-03     325.647E-03    -163.139E-03     69.8999E-03    -163.732E-03     326.919E-03    -162.848E-03     63.1786E-03
             537     13.7656E-03     93.7343E-03    -11.2290E+06     108.030E+06     94.2204E+06     71.5851E+03    -162.206E-03     325.357E-03    -163.151E-03     59.2766E-03    -163.390E-03     326.611E-03    -162.820E-03     52.3476E-03
             538     14.5317E-03     93.7958E-03    -5.38972E+06     114.436E+06     104.731E+06    -543.827E+03    -162.085E-03     325.252E-03    -163.168E-03     37.3418E-03    -163.003E-03     326.254E-03    -162.802E-03     31.2881E-03
             539     764.343E-06     93.5780E-03    -144.762E+06    -282.040E+06    -140.574E+06     109.335E+03    -163.392E-03     326.621E-03    -163.229E-03     13.8820E-03    -163.521E-03     325.643E-03    -163.313E-03     13.1448E-03
             540     1.52874E-03     93.6019E-03    -139.323E+06    -265.902E+06    -124.785E+06     182.529E+03    -163.338E-03     326.668E-03    -163.331E-03     25.2200E-03    -163.522E-03     325.776E-03    -163.367E-03     23.8739E-03
             541     2.29310E-03     93.6402E-03    -131.097E+06    -243.677E+06    -103.346E+06     10.6207E+03    -163.421E-03     326.785E-03    -163.364E-03     36.8176E-03    -163.688E-03     326.021E-03    -163.337E-03     34.8224E-03
             542     3.05759E-03     93.6924E-03    -121.292E+06    -219.086E+06    -80.5274E+06         525.782    -163.549E-03     326.947E-03    -163.397E-03     47.8188E-03    -163.918E-03     326.340E-03    -163.306E-03     45.1777E-03
             543     3.82210E-03     93.7576E-03    -111.066E+06    -194.834E+06    -59.0115E+06     109.365E+03    -163.704E-03     327.127E-03    -163.423E-03     57.9540E-03    -164.187E-03     326.696E-03    -163.275E-03     54.6843E-03
             544     4.58669E-03     93.8345E-03    -100.819E+06    -171.479E+06    -39.9242E+06     157.970E+03    -163.869E-03     327.307E-03    -163.438E-03     67.0379E-03    -164.475E-03     327.061E-03    -163.242E-03     63.1711E-03
             545     5.35123E-03     93.9218E-03    -90.9903E+06    -148.969E+06    -23.3573E+06     173.780E+03    -164.034E-03     327.475E-03    -163.441E-03     74.9488E-03    -164.763E-03     327.421E-03    -163.210E-03     70.5334E-03
             546     6.11594E-03     94.0178E-03    -81.7444E+06    -127.551E+06    -8.93567E+06     208.877E+03    -164.159E-03     327.596E-03    -163.436E-03     81.5148E-03    -165.009E-03     327.728E-03    -163.178E-03     76.6141E-03
             547     6.88065E-03     94.1209E-03    -72.9882E+06    -106.837E+06     3.79747E+06     247.986E+03    -164.231E-03     327.655E-03    -163.423E-03     86.6291E-03    -165.189E-03     327.963E-03    -163.144E-03     81.3154E-03
             548     7.64545E-03     94.2289E-03    -64.6954E+06    -85.5895E+06     15.1958E+06     162.489E+03    -164.263E-03     327.666E-03    -163.403E-03     90.2728E-03    -165.314E-03     328.139E-03    -163.109E-03     84.6172E-03
             549     8.41025E-03     94.3405E-03    -57.0630E+06    -64.4671E+06     25.3419E+06     82.3520E+03    -164.242E-03     327.619E-03    -163.377E-03     92.5090E-03    -165.369E-03     328.242E-03    -163.074E-03     86.5727E-03
             550     9.17514E-03     94.4535E-03    -49.8594E+06    -40.2864E+06     35.3204E+06     158.396E+03    -164.100E-03     327.445E-03    -163.345E-03     93.4737E-03    -165.292E-03     328.215E-03    -163.038E-03     87.3182E-03
             551     9.94023E-03     94.5666E-03    -42.9321E+06    -13.7874E+06     45.1089E+06     115.566E+03    -163.835E-03     327.138E-03    -163.303E-03     92.9664E-03    -165.078E-03     328.049E-03    -162.995E-03     86.6264E-03
             552     10.7056E-03     94.6774E-03    -36.3314E+06     19.2181E+06     55.5381E+06     510.855E+03    -163.530E-03     326.781E-03    -163.251E-03     90.7581E-03    -164.817E-03     327.846E-03    -162.949E-03     84.2675E-03
             553     11.4709E-03     94.7844E-03    -29.8616E+06     61.8086E+06     66.4603E+06     1.02377E+06    -163.226E-03     326.416E-03    -163.190E-03     86.5004E-03    -164.552E-03     327.663E-03    -162.904E-03     79.8787E-03
             554     12.2359E-03     94.8842E-03    -23.4024E+06     89.5756E+06     75.7517E+06     513.868E+03    -162.954E-03     326.104E-03    -163.150E-03     79.9425E-03    -164.272E-03     327.437E-03    -162.867E-03     73.1932E-03
             555     13.0011E-03     94.9747E-03    -16.6092E+06     97.5284E+06     82.1224E+06     67.1127E+03    -162.646E-03     325.780E-03    -163.134E-03     69.2899E-03    -163.869E-03     327.052E-03    -162.840E-03     62.5274E-03
             556     13.7665E-03     95.0471E-03    -10.0816E+06     109.142E+06     95.4237E+06    -191.339E+03    -162.364E-03     325.520E-03    -163.156E-03     58.6865E-03    -163.546E-03     326.777E-03    -162.823E-03     51.7152E-03
             557     14.5302E-03     95.1103E-03    -5.58917E+06     114.577E+06     104.898E+06     126.232E+03    -162.248E-03     325.429E-03    -163.180E-03     36.7924E-03    -163.168E-03     326.431E-03    -162.814E-03     30.7210E-03
             558     764.244E-06     94.8913E-03    -145.013E+06    -282.477E+06    -140.975E+06     128.797E+03    -163.431E-03     326.682E-03    -163.251E-03     13.8906E-03    -163.560E-03     325.702E-03    -163.336E-03     13.1522E-03
             559     1.52856E-03     94.9151E-03    -139.453E+06    -266.001E+06    -125.115E+06     167.099E+03    -163.351E-03     326.708E-03    -163.356E-03     25.2861E-03    -163.536E-03     325.816E-03    -163.394E-03     23.9374E-03
             560     2.29309E-03     94.9534E-03    -131.293E+06    -243.529E+06    -103.597E+06     200.528E+03    -163.421E-03     326.804E-03    -163.383E-03     36.8687E-03    -163.689E-03     326.042E-03    -163.357E-03     34.8753E-03
             561     3.05753E-03     95.0057E-03    -121.682E+06    -219.178E+06    -80.6174E+06     157.545E+03    -163.538E-03     326.950E-03    -163.411E-03     47.8524E-03    -163.909E-03     326.344E-03    -163.320E-03     45.2133E-03
             562     3.82207E-03     95.0709E-03    -111.344E+06    -194.987E+06    -59.1036E+06     164.498E+03    -163.688E-03     327.120E-03    -163.432E-03     58.0078E-03    -164.173E-03     326.688E-03    -163.283E-03     54.7400E-03
             563     4.58660E-03     95.1478E-03    -100.953E+06    -171.490E+06    -40.0300E+06     163.078E+03    -163.852E-03     327.293E-03    -163.441E-03     67.1303E-03    -164.458E-03     327.048E-03    -163.246E-03     63.2656E-03
             564     5.35130E-03     95.2350E-03    -91.0168E+06    -149.079E+06    -23.4739E+06     195.973E+03    -163.997E-03     327.437E-03    -163.440E-03     75.0662E-03    -164.727E-03     327.382E-03    -163.209E-03     70.6549E-03
             565     6.11596E-03     95.3311E-03    -81.7681E+06    -127.707E+06    -8.99756E+06     290.447E+03    -164.102E-03     327.531E-03    -163.429E-03     81.6216E-03    -164.951E-03     327.663E-03    -163.170E-03     76.7274E-03
             566     6.88077E-03     95.4340E-03    -73.0195E+06    -106.816E+06     3.82926E+06     296.060E+03    -164.176E-03     327.586E-03    -163.410E-03     86.7516E-03    -165.134E-03     327.894E-03    -163.130E-03     81.4437E-03
             567     7.64560E-03     95.5422E-03    -64.7433E+06    -85.4610E+06     15.2628E+06     299.929E+03    -164.207E-03     327.592E-03    -163.384E-03     90.4109E-03    -165.259E-03     328.066E-03    -163.090E-03     84.7618E-03
             568     8.41053E-03     95.6536E-03    -57.1390E+06    -64.3215E+06     25.4828E+06     172.611E+03    -164.171E-03     327.525E-03    -163.354E-03     92.6083E-03    -165.300E-03     328.149E-03    -163.051E-03     86.6774E-03
             569     9.17554E-03     95.7666E-03    -49.9411E+06    -40.7362E+06     35.3008E+06     358.707E+03    -164.050E-03     327.369E-03    -163.319E-03     93.3829E-03    -165.242E-03     328.137E-03    -163.011E-03     87.2258E-03
             570     9.94063E-03     95.8794E-03    -43.4132E+06    -13.7925E+06     45.1046E+06     748.026E+03    -163.887E-03     327.167E-03    -163.280E-03     92.6675E-03    -165.133E-03     328.079E-03    -162.972E-03     86.3220E-03
             571     10.7056E-03     95.9904E-03    -36.9379E+06     19.1358E+06     55.5638E+06     524.947E+03    -163.715E-03     326.956E-03    -163.241E-03     90.3672E-03    -165.006E-03     328.022E-03    -162.937E-03     83.8525E-03
             572     11.4705E-03     96.0973E-03    -30.0121E+06     61.7003E+06     66.2220E+06     19.6476E+03    -163.449E-03     326.643E-03    -163.194E-03     86.1406E-03    -164.776E-03     327.891E-03    -162.909E-03     79.4773E-03
             573     12.2355E-03     96.1977E-03    -23.1104E+06     90.4870E+06     75.9879E+06    -246.982E+03    -163.172E-03     326.340E-03    -163.169E-03     79.6377E-03    -164.491E-03     327.679E-03    -162.887E-03     72.8549E-03
             574     13.0004E-03     96.2877E-03    -16.8260E+06     97.2001E+06     81.4559E+06    -225.774E+03    -162.876E-03     326.039E-03    -163.163E-03     68.8930E-03    -164.098E-03     327.310E-03    -162.873E-03     62.1036E-03
             575     13.7647E-03     96.3611E-03    -10.8842E+06     108.648E+06     94.6306E+06     57.2457E+03    -162.441E-03     325.635E-03    -163.194E-03     58.3697E-03    -163.623E-03     326.889E-03    -162.863E-03     51.4047E-03
             576     14.5308E-03     96.4236E-03    -5.98295E+06     115.022E+06     104.916E+06     596.492E+03    -162.182E-03     325.401E-03    -163.219E-03     36.6667E-03    -163.100E-03     326.402E-03    -162.852E-03     30.6257E-03
             577     764.358E-06     96.2046E-03    -145.169E+06    -282.604E+06    -141.337E+06     48.2116E+03    -163.402E-03     326.614E-03    -163.212E-03     13.9809E-03    -163.531E-03     325.635E-03    -163.298E-03     13.2423E-03
             578     1.52874E-03     96.2283E-03    -139.531E+06    -266.185E+06    -125.323E+06    -4.20860E+03    -163.386E-03     326.721E-03    -163.335E-03     25.3824E-03    -163.571E-03     325.829E-03    -163.374E-03     24.0321E-03
             579     2.29301E-03     96.2667E-03    -131.221E+06    -243.792E+06    -103.691E+06     151.167E+03    -163.447E-03     326.827E-03    -163.380E-03     36.9426E-03    -163.714E-03     326.063E-03    -163.354E-03     34.9484E-03
             580     3.05752E-03     96.3189E-03    -121.623E+06    -219.194E+06    -80.5890E+06     252.179E+03    -163.524E-03     326.935E-03    -163.411E-03     47.9219E-03    -163.895E-03     326.329E-03    -163.320E-03     45.2848E-03
             581     3.82206E-03     96.3841E-03    -111.323E+06    -195.007E+06    -58.9927E+06     194.532E+03    -163.651E-03     327.077E-03    -163.426E-03     58.0937E-03    -164.135E-03     326.645E-03    -163.277E-03     54.8288E-03
             582     4.58674E-03     96.4610E-03    -100.959E+06    -171.592E+06    -39.9737E+06     212.921E+03    -163.804E-03     327.233E-03    -163.429E-03     67.2206E-03    -164.410E-03     326.987E-03    -163.233E-03     63.3603E-03
             583     5.35135E-03     96.5483E-03    -91.1384E+06    -149.231E+06    -23.3970E+06     329.219E+03    -163.944E-03     327.366E-03    -163.422E-03     75.1330E-03    -164.674E-03     327.310E-03    -163.190E-03     70.7271E-03
             584     6.11615E-03     96.6442E-03    -81.6995E+06    -127.797E+06    -8.82927E+06     358.495E+03    -164.058E-03     327.464E-03    -163.407E-03     81.6794E-03    -164.907E-03     327.595E-03    -163.147E-03     76.7883E-03
             585     6.88096E-03     96.7471E-03    -72.7126E+06    -106.640E+06     4.10291E+06     266.627E+03    -164.156E-03     327.542E-03    -163.386E-03     86.7794E-03    -165.114E-03     327.851E-03    -163.105E-03     81.4698E-03
             586     7.64586E-03     96.8553E-03    -64.5964E+06    -85.8514E+06     15.2808E+06     330.079E+03    -164.198E-03     327.560E-03    -163.361E-03     90.3275E-03    -165.249E-03     328.032E-03    -163.067E-03     84.6729E-03
             587     8.41077E-03     96.9666E-03    -57.1841E+06    -64.3061E+06     25.6137E+06     629.273E+03    -164.185E-03     327.520E-03    -163.335E-03     92.4091E-03    -165.314E-03     328.143E-03    -163.031E-03     86.4769E-03
             588     9.17567E-03     97.0796E-03    -49.9988E+06    -40.8886E+06     35.4581E+06     546.642E+03    -164.144E-03     327.452E-03    -163.307E-03     93.0984E-03    -165.337E-03     328.219E-03    -162.998E-03     86.9287E-03
             589     9.94052E-03     97.1924E-03    -42.5020E+06    -14.2603E+06     45.2893E+06     443.772E+03    -164.070E-03     327.351E-03    -163.281E-03     92.4264E-03    -165.312E-03     328.260E-03    -162.972E-03     86.0584E-03
             590     10.7054E-03     97.3036E-03    -35.4955E+06     19.4753E+06     56.0211E+06     658.344E+03    -163.904E-03     327.158E-03    -163.254E-03     90.2594E-03    -165.190E-03     328.225E-03    -162.951E-03     83.7316E-03
             591     11.4703E-03     97.4108E-03    -29.1517E+06     62.7818E+06     66.7016E+06     376.660E+03    -163.610E-03     326.828E-03    -163.218E-03     86.1540E-03    -164.937E-03     328.081E-03    -162.933E-03     79.4849E-03
             592     12.2352E-03     97.5110E-03    -22.9652E+06     91.1718E+06     76.1197E+06    -194.509E+03    -163.297E-03     326.497E-03    -163.200E-03     79.8668E-03    -164.618E-03     327.840E-03    -162.918E-03     73.0821E-03
             593     12.9997E-03     97.6021E-03    -17.2910E+06     96.8688E+06     82.1122E+06    -431.638E+03    -162.934E-03     326.136E-03    -163.202E-03     69.3879E-03    -164.163E-03     327.409E-03    -162.907E-03     62.5930E-03
             594     13.7650E-03     97.6743E-03    -12.1250E+06     107.453E+06     94.2707E+06     126.933E+03    -162.371E-03     325.598E-03    -163.227E-03     58.9002E-03    -163.559E-03     326.851E-03    -162.894E-03     51.9522E-03
             595     14.5289E-03     97.7374E-03    -5.68673E+06     114.743E+06     104.546E+06     581.334E+03    -161.675E-03     324.906E-03    -163.231E-03     37.5039E-03    -162.594E-03     325.909E-03    -162.867E-03     31.4821E-03
             596     764.410E-06     97.5176E-03    -145.080E+06    -282.635E+06    -141.140E+06     64.3924E+03    -163.393E-03     326.574E-03    -163.181E-03     13.9532E-03    -163.522E-03     325.594E-03    -163.267E-03     13.2169E-03
             597     1.52869E-03     97.5416E-03    -139.426E+06    -266.147E+06    -125.054E+06     61.7384E+03    -163.362E-03     326.678E-03    -163.316E-03     25.3476E-03    -163.546E-03     325.785E-03    -163.353E-03     24.0007E-03
             598     2.29315E-03     97.5800E-03    -131.208E+06    -244.103E+06    -103.580E+06     57.0183E+03    -163.418E-03     326.776E-03    -163.358E-03     36.9600E-03    -163.685E-03     326.011E-03    -163.332E-03     34.9657E-03
             599     3.05758E-03     97.6321E-03    -121.372E+06    -219.440E+06    -80.4958E+06     196.346E+03    -163.504E-03     326.891E-03    -163.387E-03     47.9861E-03    -163.873E-03     326.284E-03    -163.296E-03     45.3492E-03
             600     3.82219E-03     97.6972E-03    -111.141E+06    -195.064E+06    -58.8010E+06     319.861E+03    -163.625E-03     327.027E-03    -163.403E-03     58.1504E-03    -164.109E-03     326.595E-03    -163.253E-03     54.8879E-03
             601     4.58679E-03     97.7742E-03    -100.964E+06    -171.616E+06    -39.7387E+06     295.157E+03    -163.767E-03     327.171E-03    -163.404E-03     67.2567E-03    -164.373E-03     326.925E-03    -163.208E-03     63.3977E-03
             602     5.35159E-03     97.8614E-03    -90.9192E+06    -149.321E+06    -23.1526E+06     206.751E+03    -163.920E-03     327.316E-03    -163.396E-03     75.1218E-03    -164.650E-03     327.260E-03    -163.163E-03     70.7120E-03
             603     6.11634E-03     97.9573E-03    -81.4592E+06    -128.029E+06    -8.75320E+06     284.083E+03    -164.075E-03     327.459E-03    -163.383E-03     81.6118E-03    -164.924E-03     327.589E-03    -163.123E-03     76.7138E-03
             604     6.88115E-03     98.0602E-03    -72.7434E+06    -106.719E+06     4.04035E+06     491.553E+03    -164.200E-03     327.569E-03    -163.369E-03     86.6434E-03    -165.158E-03     327.878E-03    -163.088E-03     81.3289E-03
             605     7.64591E-03     98.1684E-03    -64.7338E+06    -86.0124E+06     15.3343E+06     486.548E+03    -164.266E-03     327.619E-03    -163.353E-03     90.1224E-03    -165.318E-03     328.092E-03    -163.058E-03     84.4600E-03
             606     8.41072E-03     98.2797E-03    -56.7854E+06    -64.7372E+06     25.7127E+06     508.893E+03    -164.274E-03     327.610E-03    -163.336E-03     92.2039E-03    -165.401E-03     328.231E-03    -163.031E-03     86.2608E-03
             607     9.17555E-03     98.3928E-03    -49.1045E+06    -40.3583E+06     35.9282E+06     401.986E+03    -164.250E-03     327.567E-03    -163.317E-03     92.9834E-03    -165.440E-03     328.335E-03    -163.007E-03     86.8066E-03
             608     9.94035E-03     98.5058E-03    -41.9651E+06    -14.1974E+06     45.4797E+06     49.9862E+03    -164.180E-03     327.478E-03    -163.298E-03     92.4275E-03    -165.420E-03     328.386E-03    -162.989E-03     86.0518E-03
             609     10.7051E-03     98.6171E-03    -34.9818E+06     19.0048E+06     55.9855E+06    -8.25299E+03    -163.980E-03     327.256E-03    -163.276E-03     90.3263E-03    -165.263E-03     328.320E-03    -162.973E-03     83.7906E-03
             610     11.4699E-03     98.7242E-03    -28.1774E+06     62.8865E+06     67.3386E+06     278.749E+03    -163.633E-03     326.876E-03    -163.243E-03     86.3354E-03    -164.956E-03     328.127E-03    -162.956E-03     79.6717E-03
             611     12.2346E-03     98.8250E-03    -21.9854E+06     91.4743E+06     77.0854E+06     654.378E+03    -163.167E-03     326.388E-03    -163.220E-03     80.1601E-03    -164.485E-03     327.728E-03    -162.936E-03     73.4050E-03
             612     12.9999E-03     98.9151E-03    -17.2844E+06     97.1673E+06     82.0938E+06     953.541E+03    -162.603E-03     325.806E-03    -163.203E-03     69.9109E-03    -163.830E-03     327.079E-03    -162.909E-03     63.1782E-03
             613     13.7644E-03     98.9887E-03    -12.4885E+06     106.506E+06     92.8406E+06     1.00540E+06    -162.020E-03     325.223E-03    -163.203E-03     59.6606E-03    -163.207E-03     326.474E-03    -162.875E-03     52.7666E-03
             614     14.5308E-03     99.0497E-03    -5.32964E+06     114.910E+06     104.661E+06      85.401E+03    -161.645E-03     324.847E-03    -163.202E-03     37.6087E-03    -162.563E-03     325.850E-03    -162.837E-03     31.5867E-03
             615     764.270E-06     98.8309E-03    -144.895E+06    -282.569E+06    -140.921E+06    -157.312E+03    -163.395E-03     326.581E-03    -163.186E-03     14.0402E-03    -163.523E-03     325.601E-03    -163.271E-03     13.2988E-03
             616     1.52872E-03     98.8548E-03    -139.231E+06    -266.325E+06    -124.998E+06    -1.34274E+03    -163.296E-03     326.600E-03    -163.304E-03     25.3863E-03    -163.480E-03     325.707E-03    -163.341E-03     24.0383E-03
             617     2.29317E-03     98.8931E-03    -131.085E+06    -244.258E+06    -103.340E+06     155.372E+03    -163.357E-03     326.686E-03    -163.329E-03     36.9682E-03    -163.624E-03     325.920E-03    -163.301E-03     34.9753E-03
             618     3.05776E-03     98.9452E-03    -121.284E+06    -219.725E+06    -80.2469E+06     240.342E+03    -163.476E-03     326.830E-03    -163.354E-03     47.9737E-03    -163.844E-03     326.221E-03    -163.261E-03     45.3366E-03
             619     3.82231E-03     99.0104E-03    -110.929E+06    -195.263E+06    -58.6401E+06     302.988E+03    -163.622E-03     326.995E-03    -163.372E-03     58.1192E-03    -164.106E-03     326.561E-03    -163.222E-03     54.8535E-03
             620     4.58701E-03     99.0872E-03    -100.669E+06    -171.755E+06    -39.6089E+06     411.468E+03    -163.788E-03     327.169E-03    -163.380E-03     67.1810E-03    -164.394E-03     326.922E-03    -163.183E-03     63.3187E-03
             621     5.35167E-03     99.1744E-03    -90.8922E+06    -149.244E+06    -23.0775E+06     473.846E+03    -163.969E-03     327.350E-03    -163.381E-03     74.9815E-03    -164.698E-03     327.294E-03    -163.148E-03     70.5687E-03
             622     6.11639E-03     99.2704E-03    -81.5983E+06    -128.036E+06    -8.71838E+06     337.101E+03    -164.136E-03     327.515E-03    -163.378E-03     81.4456E-03    -164.985E-03     327.645E-03    -163.118E-03     76.5418E-03
             623     6.88106E-03     99.3734E-03    -72.8179E+06    -107.211E+06     3.88368E+06     338.958E+03    -164.255E-03     327.627E-03    -163.372E-03     86.4928E-03    -165.213E-03     327.934E-03    -163.091E-03     81.1700E-03
             624     7.64583E-03     99.4816E-03    -64.4786E+06      -85.97E+06     15.4414E+06     424.808E+03    -164.324E-03     327.686E-03    -163.362E-03     90.0329E-03    -165.375E-03     328.158E-03    -163.067E-03     84.3671E-03
             625     8.41055E-03     99.5930E-03    -56.6136E+06    -64.7136E+06     25.8691E+06     302.578E+03    -164.348E-03     327.698E-03    -163.351E-03     92.1789E-03    -165.474E-03     328.319E-03    -163.045E-03     86.2318E-03
             626     9.17533E-03     99.7060E-03    -49.3124E+06    -40.4758E+06     35.8275E+06     398.110E+03    -164.298E-03     327.633E-03    -163.335E-03     93.0375E-03    -165.488E-03     328.401E-03    -163.026E-03     86.8639E-03
             627     9.94010E-03     99.8193E-03    -42.7614E+06    -13.3711E+06     45.6299E+06     298.694E+03    -164.177E-03     327.494E-03    -163.317E-03     92.5439E-03    -165.421E-03     328.406E-03    -163.007E-03     86.1789E-03
             628     10.7050E-03     99.9305E-03    -36.4491E+06     19.3544E+06     55.9109E+06    -415.864E+03    -163.941E-03     327.234E-03    -163.293E-03     90.5348E-03    -165.232E-03     328.301E-03    -162.988E-03     83.9996E-03
             629     11.4697E-03     100.038E-03    -30.3703E+06     61.7368E+06     66.2547E+06    -439.999E+03    -163.513E-03     326.764E-03    -163.251E-03     86.6123E-03    -164.844E-03     328.014E-03    -162.965E-03     79.9490E-03
             630     12.2350E-03     100.138E-03    -24.5077E+06     89.7285E+06      74.964E+06     827.854E+03    -162.974E-03     326.188E-03    -163.214E-03     80.2538E-03    -164.298E-03     327.527E-03    -162.934E-03     73.5117E-03
             631     13.0000E-03     100.229E-03    -17.6314E+06     97.0460E+06     80.3713E+06     1.63806E+06    -162.371E-03     325.553E-03    -163.182E-03     69.6112E-03    -163.596E-03     326.827E-03    -162.895E-03     62.8900E-03
             632     13.7665E-03     100.301E-03    -10.8483E+06     108.849E+06     94.3709E+06     574.728E+03    -162.001E-03     325.186E-03    -163.186E-03     58.8193E-03    -163.185E-03     326.445E-03    -162.856E-03     51.8807E-03
             633     14.5311E-03     100.363E-03    -6.01809E+06     115.721E+06     105.393E+06    -151.536E+03    -162.186E-03     325.388E-03    -163.202E-03     36.5536E-03    -163.108E-03     326.393E-03    -162.834E-03     30.4980E-03
             634     764.397E-06     100.144E-03    -144.654E+06    -282.647E+06    -140.469E+06     182.663E+03    -163.362E-03     326.502E-03    -163.139E-03     14.0507E-03    -163.490E-03     325.520E-03    -163.222E-03     13.3114E-03
             635     1.52879E-03     100.168E-03    -139.317E+06    -266.650E+06    -124.624E+06     236.524E+03    -163.275E-03     326.545E-03    -163.270E-03     25.3969E-03    -163.459E-03     325.649E-03    -163.304E-03     24.0492E-03
             636     2.29330E-03     100.206E-03    -131.104E+06    -244.313E+06    -103.152E+06     209.224E+03    -163.351E-03     326.652E-03    -163.301E-03     36.9500E-03    -163.618E-03     325.885E-03    -163.272E-03     34.9554E-03
             637     3.05780E-03     100.258E-03    -121.301E+06    -219.795E+06    -80.3106E+06     111.298E+03    -163.482E-03     326.814E-03    -163.333E-03     47.9089E-03    -163.850E-03     326.205E-03    -163.240E-03     45.2672E-03
             638     3.82242E-03     100.323E-03    -110.884E+06    -195.621E+06    -58.8368E+06     242.541E+03    -163.655E-03     327.014E-03    -163.359E-03     57.9899E-03    -164.137E-03     326.578E-03    -163.209E-03     54.7201E-03
             639     4.58698E-03     100.400E-03    -100.678E+06    -172.080E+06    -39.7412E+06     412.624E+03    -163.845E-03     327.223E-03    -163.378E-03     67.0396E-03    -164.450E-03     326.975E-03    -163.181E-03     63.1731E-03
             640     5.35161E-03     100.488E-03    -90.7362E+06    -149.467E+06    -23.0699E+06     492.277E+03    -164.026E-03     327.415E-03    -163.388E-03     74.8871E-03    -164.755E-03     327.358E-03    -163.155E-03     70.4705E-03
             641     6.11622E-03     100.584E-03    -81.3269E+06    -127.919E+06    -8.50704E+06     564.862E+03    -164.173E-03     327.565E-03    -163.391E-03     81.4030E-03    -165.021E-03     327.695E-03    -163.131E-03     76.5006E-03
             642     6.88095E-03     100.687E-03    -72.6279E+06    -107.220E+06     4.20351E+06     453.384E+03    -164.282E-03     327.669E-03    -163.388E-03     86.4942E-03    -165.238E-03     327.975E-03    -163.106E-03     81.1744E-03
             643     7.64566E-03     100.795E-03    -64.3095E+06    -85.9944E+06     15.6924E+06     403.695E+03    -164.348E-03     327.727E-03    -163.379E-03     90.0709E-03    -165.398E-03     328.198E-03    -163.082E-03     84.4081E-03
             644     8.41046E-03     100.906E-03    -56.6333E+06    -64.6188E+06     26.0438E+06     399.334E+03    -164.365E-03     327.731E-03    -163.367E-03     92.2475E-03    -165.491E-03     328.352E-03    -163.061E-03     86.3034E-03
             645     9.17517E-03     101.019E-03    -49.4895E+06    -40.9719E+06     35.7050E+06     424.762E+03    -164.302E-03     327.652E-03    -163.350E-03     93.1443E-03    -165.493E-03     328.418E-03    -163.040E-03     86.9716E-03
             646     9.94003E-03     101.133E-03    -42.6383E+06    -13.3256E+06     45.6296E+06     738.162E+03    -164.140E-03     327.468E-03    -163.328E-03     92.6721E-03    -165.384E-03     328.381E-03    -163.019E-03     86.3155E-03
             647     10.7048E-03     101.244E-03    -36.8167E+06     19.8328E+06     55.9915E+06     1.18230E+06    -163.858E-03     327.157E-03    -163.299E-03     90.5670E-03    -165.152E-03     328.228E-03    -162.995E-03     84.0545E-03
             648     11.4700E-03     101.351E-03    -31.1840E+06     61.9429E+06     66.0374E+06     1.20526E+06    -163.446E-03     326.698E-03    -163.252E-03     86.4485E-03    -164.781E-03     327.951E-03    -162.966E-03     79.8047E-03
             649     12.2349E-03     101.452E-03    -24.7753E+06     89.6879E+06     74.8688E+06    -41.7389E+03    -162.998E-03     326.213E-03    -163.215E-03     79.8452E-03    -164.325E-03     327.553E-03    -162.935E-03     73.0725E-03
             650     13.0004E-03     101.541E-03    -17.7070E+06     96.8405E+06     81.3347E+06    -1.48732E+06    -162.635E-03     325.832E-03    -163.198E-03     68.9765E-03    -163.863E-03     327.105E-03    -162.906E-03     62.1706E-03
             651     13.7644E-03     101.614E-03    -10.9643E+06     109.490E+06     95.1040E+06    -318.669E+03    -162.287E-03     325.502E-03    -163.216E-03     58.4828E-03    -163.473E-03     326.762E-03    -162.883E-03     51.5120E-03
             652     14.5293E-03     101.677E-03    -5.95894E+06     115.933E+06     104.831E+06     1.06679E+06    -161.955E-03     325.182E-03    -163.226E-03     37.0590E-03    -162.876E-03     326.189E-03    -162.862E-03     31.0418E-03
             653     764.420E-06     101.457E-03    -144.641E+06    -283.310E+06    -140.579E+06     209.544E+03    -163.318E-03     326.455E-03    -163.137E-03     13.9734E-03    -163.445E-03     325.470E-03    -163.219E-03     13.2351E-03
             654     1.52886E-03     101.481E-03    -139.086E+06    -266.783E+06    -124.483E+06     276.615E+03    -163.301E-03     326.557E-03    -163.257E-03     25.2902E-03    -163.483E-03     325.660E-03    -163.291E-03     23.9414E-03
             655     2.29328E-03     101.519E-03    -130.847E+06    -244.501E+06    -103.110E+06     311.220E+03    -163.385E-03     326.688E-03    -163.303E-03     36.8328E-03    -163.650E-03     325.920E-03    -163.274E-03     34.8381E-03
             656     3.05781E-03     101.571E-03    -121.268E+06    -220.007E+06    -80.2251E+06     530.475E+03    -163.516E-03     326.860E-03    -163.344E-03     47.7967E-03    -163.884E-03     326.249E-03    -163.250E-03     45.1593E-03
             657     3.82229E-03     101.637E-03    -111.051E+06    -195.666E+06    -58.6460E+06     445.368E+03    -163.687E-03     327.063E-03    -163.376E-03     57.9177E-03    -164.170E-03     326.627E-03    -163.225E-03     54.6492E-03
             658     4.58687E-03     101.714E-03    -100.653E+06    -172.209E+06    -39.6117E+06     269.542E+03    -163.866E-03     327.263E-03    -163.397E-03     67.0144E-03    -164.470E-03     327.013E-03    -163.199E-03     63.1454E-03
             659     5.35148E-03     101.801E-03    -90.6645E+06    -149.743E+06    -23.0302E+06     269.577E+03    -164.035E-03     327.441E-03    -163.407E-03     74.9037E-03    -164.763E-03     327.383E-03    -163.173E-03     70.4856E-03
             660     6.11618E-03     101.897E-03    -81.2921E+06    -128.346E+06    -8.51543E+06     451.726E+03    -164.181E-03     327.590E-03    -163.408E-03     81.4185E-03    -165.028E-03     327.717E-03    -163.147E-03     76.5160E-03
             661     6.88086E-03     102.000E-03    -72.3691E+06    -107.048E+06     4.49872E+06     611.075E+03    -164.293E-03     327.697E-03    -163.404E-03     86.5147E-03    -165.249E-03     328.003E-03    -163.121E-03     81.1990E-03
             662     7.64560E-03     102.108E-03    -64.0267E+06    -86.1177E+06     15.8989E+06     618.237E+03    -164.358E-03     327.752E-03    -163.394E-03     90.1083E-03    -165.406E-03     328.221E-03    -163.097E-03     84.4483E-03
             663     8.41029E-03     102.220E-03    -56.2560E+06    -64.7144E+06     26.1992E+06     760.486E+03    -164.362E-03     327.743E-03    -163.381E-03     92.2906E-03    -165.487E-03     328.362E-03    -163.074E-03     86.3504E-03
             664     9.17516E-03     102.333E-03    -49.0188E+06    -40.8658E+06     36.0472E+06     744.393E+03    -164.297E-03     327.660E-03    -163.362E-03     93.1428E-03    -165.486E-03     328.425E-03    -163.052E-03     86.9715E-03
             665     9.93992E-03     102.446E-03    -42.0775E+06    -14.2553E+06     45.6275E+06     877.246E+03    -164.125E-03     327.464E-03    -163.339E-03     92.5969E-03    -165.366E-03     328.372E-03    -163.029E-03     86.2359E-03
             666     10.7049E-03     102.557E-03    -34.7199E+06     19.0628E+06     56.5910E+06     1.24286E+06    -163.867E-03     327.176E-03    -163.309E-03     90.4558E-03    -165.150E-03     328.239E-03    -163.004E-03     83.9410E-03
             667     11.4696E-03     102.665E-03    -26.8400E+06     62.3122E+06     67.8107E+06     1.38417E+06    -163.508E-03     326.772E-03    -163.264E-03     86.2722E-03    -164.824E-03     328.018E-03    -162.977E-03     79.6232E-03
             668     12.2348E-03     102.765E-03    -20.1295E+06     92.2206E+06     78.1046E+06     950.281E+03    -163.129E-03     326.365E-03    -163.236E-03     79.7612E-03    -164.440E-03     327.706E-03    -162.950E-03     72.9938E-03
             669     12.9993E-03     102.855E-03    -16.5949E+06     97.6652E+06     83.3003E+06     467.369E+03    -162.756E-03     325.981E-03    -163.225E-03     69.3661E-03    -163.981E-03     327.253E-03    -162.926E-03     62.6053E-03
             670     13.7647E-03     102.928E-03    -12.6174E+06     107.345E+06     93.4583E+06    -44.3362E+03    -162.129E-03     325.359E-03    -163.230E-03     59.1359E-03    -163.316E-03     326.612E-03    -162.900E-03     52.2131E-03
             671     14.5304E-03     102.990E-03    -5.26728E+06     115.895E+06     104.492E+06    -111.693E+03    -161.342E-03     324.561E-03    -163.219E-03     37.5207E-03    -162.260E-03     325.568E-03    -162.857E-03     31.5020E-03
             672     764.388E-06     102.770E-03    -144.718E+06    -283.780E+06    -140.706E+06     143.871E+03    -163.367E-03     326.563E-03    -163.196E-03     13.9601E-03    -163.493E-03     325.576E-03    -163.279E-03     13.2211E-03
             673     1.52872E-03     102.794E-03    -138.900E+06    -267.194E+06    -124.558E+06     252.867E+03    -163.327E-03     326.632E-03    -163.305E-03     25.2217E-03    -163.508E-03     325.733E-03    -163.339E-03     23.8742E-03
             674     2.29317E-03     102.832E-03    -130.906E+06    -244.872E+06    -103.046E+06     423.059E+03    -163.413E-03     326.757E-03    -163.344E-03     36.7926E-03    -163.678E-03     325.987E-03    -163.315E-03     34.8002E-03
             675     3.05760E-03     102.884E-03    -121.159E+06    -220.325E+06    -80.0609E+06     351.361E+03    -163.533E-03     326.914E-03    -163.381E-03     47.7793E-03    -163.900E-03     326.301E-03    -163.287E-03     45.1403E-03
             676     3.82220E-03     102.950E-03    -110.631E+06    -195.846E+06    -58.3607E+06     522.024E+03    -163.678E-03     327.085E-03    -163.407E-03     57.9302E-03    -164.159E-03     326.647E-03    -163.255E-03     54.6644E-03
             677     4.58676E-03     103.027E-03    -100.492E+06    -172.137E+06    -39.2677E+06     649.186E+03    -163.853E-03     327.274E-03    -163.421E-03     67.0425E-03    -164.457E-03     327.024E-03    -163.222E-03     63.1808E-03
             678     5.35141E-03     103.114E-03    -90.6641E+06    -149.701E+06    -22.7370E+06     548.549E+03    -164.036E-03     327.462E-03    -163.426E-03     74.9274E-03    -164.764E-03     327.403E-03    -163.191E-03     70.5151E-03
             679     6.11603E-03     103.210E-03    -81.2660E+06    -128.428E+06    -8.37838E+06     321.271E+03    -164.196E-03     327.622E-03    -163.426E-03     81.4315E-03    -165.043E-03     327.749E-03    -163.163E-03     76.5274E-03
             680     6.88074E-03     103.313E-03    -72.4283E+06    -107.411E+06     4.28047E+06     291.713E+03    -164.304E-03     327.724E-03    -163.420E-03     86.5197E-03    -165.260E-03     328.028E-03    -163.137E-03     81.1976E-03
             681     7.64544E-03     103.422E-03    -64.2687E+06    -86.7061E+06     15.6083E+06     644.957E+03    -164.354E-03     327.763E-03    -163.409E-03     90.1130E-03    -165.403E-03     328.231E-03    -163.112E-03     84.4514E-03
             682     8.41027E-03     103.533E-03    -56.5638E+06    -64.9363E+06     26.0316E+06     797.442E+03    -164.367E-03     327.761E-03    -163.394E-03     92.3047E-03    -165.493E-03     328.380E-03    -163.088E-03     86.3644E-03
             683     9.17493E-03     103.646E-03    -49.0776E+06    -40.4523E+06     36.0937E+06     579.491E+03    -164.302E-03     327.677E-03    -163.375E-03     93.1453E-03    -165.492E-03     328.445E-03    -163.065E-03     86.9715E-03
             684     9.93979E-03     103.759E-03    -41.7769E+06    -14.5215E+06     45.7227E+06     240.938E+03    -164.134E-03     327.485E-03    -163.352E-03     92.5760E-03    -165.373E-03     328.392E-03    -163.041E-03     86.2060E-03
             685     10.7045E-03     103.871E-03    -34.3961E+06     19.1081E+06     56.6383E+06    -207.108E+03    -163.836E-03     327.155E-03    -163.319E-03     90.5460E-03    -165.116E-03     328.217E-03    -163.014E-03     84.0213E-03
             686     11.4697E-03     103.978E-03    -27.8810E+06     61.3376E+06     67.2586E+06    -160.153E+03    -163.407E-03     326.676E-03    -163.269E-03     86.5816E-03    -164.725E-03     327.918E-03    -162.981E-03     79.9341E-03
             687     12.2344E-03     104.078E-03    -21.8468E+06     89.8491E+06     76.1994E+06     2.11486E+06    -162.906E-03     326.131E-03    -163.225E-03     80.4432E-03    -164.220E-03     327.465E-03    -162.943E-03     73.7281E-03
             688     12.9999E-03     104.168E-03    -15.9290E+06     98.3655E+06     82.2920E+06     3.80220E+06    -162.393E-03     325.585E-03    -163.192E-03     70.3895E-03    -163.616E-03     326.861E-03    -162.900E-03     63.7246E-03
             689     13.7648E-03     104.241E-03    -10.4009E+06     110.060E+06     95.9211E+06     1.95903E+06    -161.890E-03     325.081E-03    -163.191E-03     60.0200E-03    -163.076E-03     326.343E-03    -162.856E-03     53.1546E-03
             690     14.5298E-03     104.303E-03    -6.16087E+06     116.858E+06     105.638E+06    -818.168E+03    -161.808E-03     324.995E-03    -163.187E-03     37.6800E-03    -162.735E-03     326.009E-03    -162.820E-03     31.6497E-03
             691     764.220E-06     104.083E-03    -144.609E+06    -283.895E+06    -140.750E+06     68.4371E+03    -163.421E-03     326.665E-03    -163.243E-03     13.9923E-03    -163.546E-03     325.677E-03    -163.326E-03     13.2531E-03
             692     1.52864E-03     104.107E-03    -139.038E+06    -267.718E+06    -124.576E+06     159.206E+03    -163.360E-03     326.712E-03    -163.352E-03     25.3364E-03    -163.541E-03     325.811E-03    -163.385E-03     23.9875E-03
             693     2.29304E-03     104.145E-03    -130.650E+06    -245.218E+06    -103.013E+06     241.648E+03    -163.436E-03     326.820E-03    -163.384E-03     36.8837E-03    -163.700E-03     326.048E-03    -163.354E-03     34.8889E-03
             694     3.05755E-03     104.198E-03    -120.984E+06    -220.399E+06    -80.0918E+06     307.934E+03    -163.538E-03     326.952E-03    -163.413E-03     47.8494E-03    -163.905E-03     326.338E-03    -163.319E-03     45.2106E-03
             695     3.82204E-03     104.263E-03    -110.880E+06    -196.458E+06    -58.5616E+06     387.344E+03    -163.678E-03     327.112E-03    -163.433E-03     57.9769E-03    -164.159E-03     326.671E-03    -163.280E-03     54.7096E-03
             696     4.58670E-03     104.340E-03    -100.342E+06    -172.437E+06    -39.3629E+06     566.048E+03    -163.859E-03     327.301E-03    -163.442E-03     67.0770E-03    -164.462E-03     327.050E-03    -163.243E-03     63.2148E-03
             697     5.35129E-03     104.427E-03    -90.3944E+06    -149.719E+06    -22.7279E+06     670.882E+03    -164.050E-03     327.495E-03    -163.445E-03     74.9298E-03    -164.776E-03     327.435E-03    -163.211E-03     70.5192E-03
             698     6.11598E-03     104.523E-03    -81.0445E+06    -128.085E+06    -8.22891E+06     573.778E+03    -164.204E-03     327.648E-03    -163.444E-03     81.4401E-03    -165.050E-03     327.775E-03    -163.182E-03     76.5394E-03
             699     6.88061E-03     104.627E-03    -72.3834E+06    -107.876E+06     4.21870E+06     638.880E+03    -164.310E-03     327.746E-03    -163.437E-03     86.5220E-03    -165.264E-03     328.049E-03    -163.154E-03     81.2037E-03
             700     7.64537E-03     104.735E-03    -64.2835E+06    -87.0396E+06     15.5131E+06     717.291E+03    -164.363E-03     327.787E-03    -163.425E-03     90.1331E-03    -165.411E-03     328.253E-03    -163.128E-03     84.4733E-03
             701     8.41003E-03     104.846E-03    -56.3515E+06    -64.7118E+06     26.0380E+06     483.173E+03    -164.349E-03     327.755E-03    -163.407E-03     92.3523E-03    -165.474E-03     328.375E-03    -163.101E-03     86.4110E-03
             702     9.17492E-03     104.960E-03    -49.0565E+06    -40.5247E+06     35.9551E+06     490.168E+03    -164.247E-03     327.630E-03    -163.383E-03     93.2446E-03    -165.436E-03     328.397E-03    -163.074E-03     87.0776E-03
             703     9.93967E-03     105.073E-03    -42.7186E+06    -13.9032E+06     45.5897E+06     494.506E+03    -164.056E-03     327.409E-03    -163.354E-03     92.7837E-03    -165.299E-03     328.320E-03    -163.044E-03     86.4301E-03
             704     10.7047E-03     105.184E-03    -37.1089E+06     19.8499E+06     55.9453E+06     375.863E+03    -163.704E-03     327.017E-03    -163.313E-03     90.7734E-03    -164.998E-03     328.088E-03    -163.009E-03     84.2692E-03
             705     11.4698E-03     105.291E-03    -32.2116E+06     60.4168E+06     65.5524E+06     493.192E+03    -163.193E-03     326.445E-03    -163.252E-03     86.7592E-03    -164.529E-03     327.690E-03    -162.965E-03     80.1328E-03
             706     12.2355E-03     105.391E-03    -26.0179E+06     87.0259E+06     73.7338E+06     93.3675E+03    -162.727E-03     325.923E-03    -163.196E-03     80.2548E-03    -164.054E-03     327.253E-03    -162.916E-03     73.5049E-03
             707     13.0011E-03     105.481E-03    -17.1892E+06     97.2973E+06     81.1414E+06     273.979E+03    -162.415E-03     325.576E-03    -163.162E-03     69.4700E-03    -163.641E-03     326.852E-03    -162.872E-03     62.7102E-03
             708     13.7670E-03     105.554E-03    -9.25569E+06     112.079E+06     97.2187E+06     1.95875E+06    -162.153E-03     325.331E-03    -163.178E-03     58.0421E-03    -163.337E-03     326.598E-03    -162.841E-03     51.0856E-03
             709     14.5329E-03     105.615E-03    -5.67068E+06     118.508E+06     106.658E+06     1.58034E+06    -162.209E-03     325.405E-03    -163.196E-03     36.3599E-03    -163.134E-03     326.421E-03    -162.826E-03     30.3245E-03
             710     764.402E-06     105.396E-03    -144.877E+06    -284.130E+06    -140.916E+06     45.6688E+03    -163.411E-03     326.688E-03    -163.277E-03     13.9710E-03    -163.537E-03     325.700E-03    -163.360E-03     13.2312E-03
             711     1.52867E-03     105.420E-03    -139.350E+06    -267.774E+06    -125.034E+06     54.8140E+03    -163.392E-03     326.758E-03    -163.367E-03     25.3552E-03    -163.574E-03     325.858E-03    -163.401E-03     24.0043E-03
             712     2.29304E-03     105.459E-03    -131.056E+06    -245.623E+06    -103.500E+06     157.912E+03    -163.449E-03     326.851E-03    -163.402E-03     36.9034E-03    -163.714E-03     326.079E-03    -163.373E-03     34.9068E-03
             713     3.05747E-03     105.511E-03    -121.392E+06    -220.805E+06    -80.4993E+06     448.182E+03    -163.546E-03     326.975E-03    -163.429E-03     47.8773E-03    -163.913E-03     326.361E-03    -163.336E-03     45.2390E-03
             714     3.82205E-03     105.576E-03    -111.078E+06    -196.434E+06    -58.7890E+06     399.764E+03    -163.713E-03     327.162E-03    -163.450E-03     58.0220E-03    -164.195E-03     326.723E-03    -163.298E-03     54.7531E-03
             715     4.58655E-03     105.653E-03    -100.672E+06    -172.861E+06    -39.8297E+06     317.279E+03    -163.897E-03     327.359E-03    -163.461E-03     67.1077E-03    -164.501E-03     327.106E-03    -163.264E-03     63.2409E-03
             716     5.35120E-03     105.741E-03    -90.6823E+06    -150.002E+06    -23.1843E+06     418.824E+03    -164.054E-03     327.518E-03    -163.464E-03     74.9549E-03    -164.781E-03     327.458E-03    -163.231E-03     70.5410E-03
             717     6.11578E-03     105.837E-03    -81.4667E+06    -128.454E+06    -8.57254E+06     699.453E+03    -164.187E-03     327.648E-03    -163.460E-03     81.4709E-03    -165.035E-03     327.775E-03    -163.199E-03     76.5736E-03
             718     6.88054E-03     105.940E-03    -72.6557E+06    -108.123E+06     4.16519E+06     890.974E+03    -164.303E-03     327.754E-03    -163.451E-03     86.5778E-03    -165.258E-03     328.055E-03    -163.168E-03     81.2653E-03
             719     7.64518E-03     106.048E-03    -64.0629E+06    -86.5149E+06     15.7233E+06     590.490E+03    -164.368E-03     327.805E-03    -163.436E-03     90.2048E-03    -165.416E-03     328.272E-03    -163.140E-03     84.5452E-03
             720     8.41004E-03     106.160E-03    -56.5249E+06    -64.9524E+06     25.8811E+06     618.271E+03    -164.314E-03     327.730E-03    -163.416E-03     92.3632E-03    -165.439E-03     328.349E-03    -163.111E-03     86.4258E-03
             721     9.17482E-03     106.273E-03    -49.7846E+06    -41.0487E+06     35.5566E+06     1.05490E+06    -164.153E-03     327.540E-03    -163.387E-03     93.2101E-03    -165.344E-03     328.305E-03    -163.077E-03     87.0551E-03
             722     9.93994E-03     106.386E-03    -43.0772E+06    -13.9081E+06     45.4182E+06     1.34076E+06    -163.943E-03     327.292E-03    -163.349E-03     92.6700E-03    -165.187E-03     328.202E-03    -163.039E-03     86.3302E-03
             723     10.7050E-03     106.497E-03    -36.6869E+06     19.1808E+06     55.7150E+06     1.87073E+06    -163.657E-03     326.961E-03    -163.304E-03     90.4363E-03    -164.948E-03     328.028E-03    -163.000E-03     83.9388E-03
             724     11.4702E-03     106.604E-03    -29.8540E+06     61.5355E+06     66.5379E+06     1.58957E+06    -163.314E-03     326.561E-03    -163.247E-03     86.1165E-03    -164.642E-03     327.809E-03    -162.960E-03     79.4716E-03
             725     12.2352E-03     106.704E-03    -23.5140E+06     89.4163E+06     76.0712E+06    -2.05403E+03    -163.065E-03     326.277E-03    -163.213E-03     79.3807E-03    -164.387E-03     327.613E-03    -162.928E-03     72.5853E-03
             726     12.9998E-03     106.794E-03    -18.8141E+06     95.9271E+06     81.3135E+06    -882.652E+03    -162.816E-03     326.019E-03    -163.202E-03     68.7223E-03    -164.047E-03     327.288E-03    -162.908E-03     61.9200E-03
             727     13.7636E-03     106.867E-03    -13.3009E+06     107.526E+06     92.4544E+06    -2.06656E+03    -162.290E-03     325.507E-03    -163.217E-03     58.0354E-03    -163.481E-03     326.764E-03    -162.891E-03     51.0461E-03
             728     14.5270E-03     106.930E-03    -3.97410E+06     119.267E+06     106.373E+06     1.37916E+06    -161.355E-03     324.575E-03    -163.220E-03     37.1133E-03    -162.276E-03     325.596E-03    -162.855E-03     31.0845E-03
             729     764.213E-06     106.710E-03    -145.318E+06    -284.339E+06    -141.517E+06     5.34315E+03    -163.460E-03     326.735E-03    -163.276E-03     13.9780E-03    -163.587E-03     325.748E-03    -163.360E-03     13.2372E-03
             730     1.52858E-03     106.734E-03    -139.584E+06    -267.939E+06    -125.346E+06     165.129E+03    -163.381E-03     326.765E-03    -163.384E-03     25.3401E-03    -163.564E-03     325.864E-03    -163.420E-03     23.9901E-03
             731     2.29299E-03     106.772E-03    -131.630E+06    -245.898E+06    -103.793E+06     246.961E+03    -163.445E-03     326.856E-03    -163.411E-03     36.9269E-03    -163.711E-03     326.083E-03    -163.382E-03     34.9301E-03
             732     3.05748E-03     106.824E-03    -121.746E+06    -221.146E+06    -80.8223E+06     181.410E+03    -163.582E-03     327.022E-03    -163.439E-03     47.9072E-03    -163.950E-03     326.407E-03    -163.346E-03     45.2642E-03
             733     3.82195E-03     106.890E-03    -111.136E+06    -196.435E+06    -59.1408E+06     258.788E+03    -163.755E-03     327.219E-03    -163.464E-03     58.0424E-03    -164.237E-03     326.780E-03    -163.314E-03     54.7718E-03
             734     4.58650E-03     106.967E-03    -101.027E+06    -173.026E+06    -40.0702E+06     344.886E+03    -163.917E-03     327.397E-03    -163.480E-03     67.1124E-03    -164.522E-03     327.145E-03    -163.283E-03     63.2455E-03
             735     5.35104E-03     107.054E-03    -91.2004E+06    -150.427E+06    -23.4265E+06     509.737E+03    -164.048E-03     327.529E-03    -163.482E-03     74.9736E-03    -164.776E-03     327.469E-03    -163.249E-03     70.5599E-03
             736     6.11580E-03     107.150E-03    -81.8586E+06    -129.076E+06    -8.89773E+06     715.816E+03    -164.178E-03     327.652E-03    -163.474E-03     81.5007E-03    -165.026E-03     327.777E-03    -163.213E-03     76.6034E-03
             737     6.88045E-03     107.253E-03    -72.8952E+06    -108.049E+06     3.91538E+06     649.020E+03    -164.308E-03     327.770E-03    -163.462E-03     86.6023E-03    -165.264E-03     328.073E-03    -163.180E-03     81.2867E-03
             738     7.64525E-03     107.362E-03    -64.7111E+06    -86.4729E+06     15.3459E+06     762.439E+03    -164.356E-03     327.802E-03    -163.446E-03     90.1597E-03    -165.407E-03     328.272E-03    -163.150E-03     84.5007E-03
             739     8.40990E-03     107.473E-03    -57.3293E+06    -65.5244E+06     25.4987E+06     936.530E+03    -164.306E-03     327.732E-03    -163.426E-03     92.2367E-03    -165.434E-03     328.350E-03    -163.120E-03     86.2974E-03
             740     9.17487E-03     107.586E-03    -49.8386E+06    -41.6604E+06     35.2757E+06     1.08680E+06    -164.174E-03     327.571E-03    -163.397E-03     92.9739E-03    -165.364E-03     328.334E-03    -163.088E-03     86.8077E-03
             741     9.93971E-03     107.699E-03    -42.7034E+06    -14.4668E+06     45.1861E+06     1.24655E+06    -163.978E-03     327.339E-03    -163.361E-03     92.3082E-03    -165.219E-03     328.247E-03    -163.052E-03     85.9543E-03
             742     10.7047E-03     107.810E-03    -35.4665E+06     18.3518E+06     55.8911E+06     1.14138E+06    -163.767E-03     327.090E-03    -163.323E-03     90.0208E-03    -165.051E-03     328.150E-03    -163.018E-03     83.5011E-03
             743     11.4695E-03     107.917E-03    -28.2844E+06     61.9041E+06     67.1922E+06     1.39653E+06    -163.490E-03     326.765E-03    -163.275E-03     85.9137E-03    -164.810E-03     328.009E-03    -162.988E-03     79.2638E-03
             744     12.2342E-03     108.018E-03    -22.9832E+06     90.5756E+06     76.2610E+06     1.99331E+06    -163.096E-03     326.339E-03    -163.243E-03     79.8251E-03    -164.414E-03     327.676E-03    -162.960E-03     73.0884E-03
             745     12.9993E-03     108.108E-03    -18.0862E+06     96.7743E+06     80.6938E+06     1.83603E+06    -162.476E-03     325.691E-03    -163.215E-03     69.9847E-03    -163.702E-03     326.963E-03    -162.926E-03     63.2886E-03
             746     13.7651E-03     108.181E-03    -12.7964E+06     107.827E+06     92.3850E+06     158.200E+03    -161.794E-03     325.000E-03    -163.206E-03     59.8071E-03    -162.983E-03     326.258E-03    -162.882E-03     52.9137E-03
             747     14.5329E-03     108.241E-03    -5.64151E+06     119.176E+06     106.104E+06    -594.278E+03    -161.579E-03     324.781E-03    -163.202E-03     37.3538E-03    -162.508E-03     325.805E-03    -162.836E-03     31.3141E-03
             748     764.301E-06     108.023E-03    -145.555E+06    -284.201E+06    -141.458E+06    -77.7170E+03    -163.474E-03     326.736E-03    -163.262E-03     14.0132E-03    -163.603E-03     325.750E-03    -163.346E-03     13.2687E-03
             749     1.52862E-03     108.047E-03    -140.004E+06    -268.390E+06    -125.706E+06    -32.6826E+03    -163.395E-03     326.781E-03    -163.387E-03     25.3577E-03    -163.578E-03     325.880E-03    -163.423E-03     24.0047E-03
             750     2.29305E-03     108.085E-03    -131.699E+06    -246.136E+06    -104.004E+06     196.881E+03    -163.475E-03     326.894E-03    -163.420E-03     36.9140E-03    -163.741E-03     326.121E-03    -163.392E-03     34.9169E-03
             751     3.05744E-03     108.138E-03    -121.882E+06    -221.040E+06    -80.8868E+06     224.715E+03    -163.619E-03     327.073E-03    -163.455E-03     47.9026E-03    -163.988E-03     326.459E-03    -163.362E-03     45.2602E-03
             752     3.82187E-03     108.203E-03    -111.451E+06    -196.724E+06    -59.3310E+06     214.510E+03    -163.773E-03     327.256E-03    -163.483E-03     58.0479E-03    -164.256E-03     326.816E-03    -163.332E-03     54.7756E-03
             753     4.58639E-03     108.280E-03    -101.210E+06    -173.329E+06    -40.2935E+06     371.801E+03    -163.919E-03     327.415E-03    -163.496E-03     67.1123E-03    -164.524E-03     327.162E-03    -163.300E-03     63.2434E-03
             754     5.35104E-03     108.367E-03    -91.4622E+06    -150.886E+06    -23.8315E+06     548.579E+03    -164.071E-03     327.569E-03    -163.497E-03     74.9268E-03    -164.800E-03     327.507E-03    -163.265E-03     70.5096E-03
             755     6.11563E-03     108.463E-03    -81.7966E+06    -129.366E+06    -9.15001E+06     688.815E+03    -164.227E-03     327.720E-03    -163.493E-03     81.4258E-03    -165.074E-03     327.844E-03    -163.232E-03     76.5233E-03
             756     6.88037E-03     108.567E-03    -72.9038E+06    -108.084E+06     3.67333E+06     809.847E+03    -164.337E-03     327.820E-03    -163.483E-03     86.4713E-03    -165.293E-03     328.123E-03    -163.202E-03     81.1521E-03
             757     7.64495E-03     108.675E-03    -64.8455E+06    -87.1468E+06     14.9664E+06     930.948E+03    -164.353E-03     327.821E-03    -163.468E-03     89.9607E-03    -165.403E-03     328.288E-03    -163.173E-03     84.2972E-03
             758     8.40988E-03     108.786E-03    -57.0097E+06    -65.5934E+06     25.5565E+06     984.072E+03    -164.333E-03     327.781E-03    -163.448E-03     92.0442E-03    -165.459E-03     328.398E-03    -163.143E-03     86.0999E-03
             759     9.17451E-03     108.900E-03    -49.6670E+06    -41.9402E+06     35.3555E+06     890.234E+03    -164.256E-03     327.679E-03    -163.423E-03     92.7629E-03    -165.445E-03     328.440E-03    -163.113E-03     86.5868E-03
             760     9.93939E-03     109.012E-03    -42.7554E+06    -15.0955E+06     45.1559E+06     1.14010E+06    -164.064E-03     327.457E-03    -163.393E-03     92.1741E-03    -165.304E-03     328.361E-03    -163.084E-03     85.8165E-03
             761     10.7042E-03     109.124E-03    -36.8057E+06     19.6465E+06     56.1232E+06     497.761E+03    -163.776E-03     327.132E-03    -163.356E-03     90.1788E-03    -165.066E-03     328.199E-03    -163.051E-03     83.6632E-03
             762     11.4692E-03     109.231E-03    -30.5813E+06     59.8665E+06     66.0167E+06     346.359E+03    -163.340E-03     326.641E-03    -163.301E-03     86.2558E-03    -164.666E-03     327.879E-03    -163.013E-03     79.6141E-03
             763     12.2347E-03     109.331E-03    -22.9497E+06     88.5085E+06     75.1796E+06     1.84237E+06    -162.782E-03     326.031E-03    -163.249E-03     79.9882E-03    -164.095E-03     327.359E-03    -162.968E-03     73.2668E-03
             764     13.0002E-03     109.421E-03    -16.0759E+06     98.9753E+06     82.1970E+06     1.98227E+06    -162.236E-03     325.445E-03    -163.209E-03     69.1669E-03    -163.457E-03     326.722E-03    -162.918E-03     62.4441E-03
             765     13.7662E-03     109.493E-03    -10.5932E+06     111.490E+06     96.5418E+06     834.446E+03    -161.932E-03     325.141E-03    -163.210E-03     57.8769E-03    -163.116E-03     326.404E-03    -162.873E-03     50.9376E-03
             766     14.5292E-03     109.556E-03    -6.73400E+06     119.791E+06     106.585E+06     138.295E+03    -162.003E-03     325.218E-03    -163.215E-03     36.0534E-03    -162.934E-03     326.241E-03    -162.846E-03     29.9886E-03
             767     764.318E-06     109.336E-03    -145.390E+06    -284.205E+06    -141.494E+06     100.029E+03    -163.436E-03     326.737E-03    -163.300E-03     13.9518E-03    -163.564E-03     325.750E-03    -163.385E-03     13.2114E-03
             768     1.52862E-03     109.360E-03    -140.183E+06    -268.502E+06    -125.505E+06     104.785E+03    -163.443E-03     326.842E-03    -163.398E-03     25.2902E-03    -163.627E-03     325.939E-03    -163.433E-03     23.9402E-03
             769     2.29290E-03     109.399E-03    -131.940E+06    -246.354E+06    -104.096E+06     52.8731E+03    -163.529E-03     326.974E-03    -163.445E-03     36.8885E-03    -163.795E-03     326.199E-03    -163.417E-03     34.8874E-03
             770     3.05731E-03     109.451E-03    -121.954E+06    -221.052E+06    -81.3049E+06     90.4958E+03    -163.634E-03     327.115E-03    -163.481E-03     47.8822E-03    -164.002E-03     326.502E-03    -163.390E-03     45.2353E-03
             771     3.82181E-03     109.516E-03    -111.640E+06    -197.159E+06    -59.7644E+06     312.873E+03    -163.775E-03     327.282E-03    -163.506E-03     57.9901E-03    -164.258E-03     326.841E-03    -163.357E-03     54.7162E-03
             772     4.58636E-03     109.593E-03    -101.350E+06    -173.513E+06    -40.5712E+06     395.613E+03    -163.949E-03     327.469E-03    -163.519E-03     67.0350E-03    -164.554E-03     327.215E-03    -163.324E-03     63.1624E-03
             773     5.35087E-03     109.681E-03    -91.3724E+06    -151.148E+06    -23.9571E+06     326.487E+03    -164.145E-03     327.671E-03    -163.525E-03     74.8307E-03    -164.874E-03     327.608E-03    -163.294E-03     70.4041E-03
             774     6.11548E-03     109.777E-03    -81.9313E+06    -129.755E+06    -9.44931E+06     431.888E+03    -164.302E-03     327.829E-03    -163.527E-03     81.3094E-03    -165.150E-03     327.952E-03    -163.267E-03     76.3953E-03
             775     6.87998E-03     109.880E-03    -73.1768E+06    -108.559E+06     3.34818E+06     599.524E+03    -164.365E-03     327.886E-03    -163.520E-03     86.3395E-03    -165.322E-03     328.187E-03    -163.240E-03     81.0116E-03
             776     7.64479E-03     109.988E-03    -64.8674E+06    -87.4985E+06     14.8817E+06     711.860E+03    -164.379E-03     327.885E-03    -163.506E-03     89.8280E-03    -165.428E-03     328.350E-03    -163.210E-03     84.1586E-03
             777     8.40936E-03     110.100E-03    -57.0514E+06    -65.8610E+06     25.4290E+06     806.815E+03    -164.352E-03     327.837E-03    -163.485E-03     91.9476E-03    -165.477E-03     328.452E-03    -163.179E-03     86.0036E-03
             778     9.17426E-03     110.213E-03    -49.8450E+06    -41.9972E+06     35.3397E+06     832.209E+03    -164.249E-03     327.706E-03    -163.458E-03     92.7232E-03    -165.437E-03     328.466E-03    -163.148E-03     86.5521E-03
             779     9.93899E-03     110.326E-03    -42.5339E+06    -15.5274E+06     45.1117E+06     654.792E+03    -164.048E-03     327.472E-03    -163.424E-03     92.2087E-03    -165.286E-03     328.373E-03    -163.114E-03     85.8487E-03
             780     10.7040E-03     110.437E-03    -35.0677E+06     19.1206E+06     56.2293E+06     1.87991E+06    -163.704E-03     327.084E-03    -163.380E-03     90.1848E-03    -164.984E-03     328.145E-03    -163.076E-03     83.6932E-03
             781     11.4693E-03     110.544E-03    -29.4182E+06     60.6826E+06     66.5261E+06     2.08354E+06    -163.268E-03     326.587E-03    -163.319E-03     85.9935E-03    -164.590E-03     327.826E-03    -163.032E-03     79.3686E-03
             782     12.2343E-03     110.644E-03    -24.1038E+06     88.5524E+06     75.4331E+06     42.8780E+03    -162.836E-03     326.106E-03    -163.270E-03     79.3482E-03    -164.156E-03     327.436E-03    -162.986E-03     72.5747E-03
             783     12.9995E-03     110.734E-03    -17.4482E+06     97.9781E+06     82.1881E+06     159.941E+03    -162.435E-03     325.674E-03    -163.239E-03     68.7405E-03    -163.661E-03     326.948E-03    -162.944E-03     61.9772E-03
             784     13.7633E-03     110.807E-03    -11.0051E+06     110.964E+06     95.5835E+06     1.86801E+06    -161.869E-03     325.104E-03    -163.235E-03     58.7054E-03    -163.053E-03     326.366E-03    -162.902E-03     51.8179E-03
             785     14.5301E-03     110.869E-03    -5.00724E+06     120.959E+06     107.383E+06     1.18164E+06    -161.373E-03     324.595E-03    -163.222E-03     37.8650E-03    -162.302E-03     325.624E-03    -162.853E-03     31.8823E-03
             786     764.240E-06     110.650E-03    -146.111E+06    -284.324E+06    -142.125E+06    -63.5979E+03    -163.499E-03     326.833E-03    -163.334E-03     13.9675E-03    -163.629E-03     325.847E-03    -163.420E-03     13.2261E-03
             787     1.52853E-03     110.674E-03    -140.351E+06    -268.634E+06    -125.925E+06     104.275E+03    -163.472E-03     326.915E-03    -163.443E-03     25.2979E-03    -163.657E-03     326.013E-03    -163.479E-03     23.9457E-03
             788     2.29287E-03     110.712E-03    -131.938E+06    -246.242E+06    -104.373E+06     48.3332E+03    -163.566E-03     327.050E-03    -163.485E-03     36.8805E-03    -163.832E-03     326.277E-03    -163.458E-03     34.8766E-03
             789     3.05722E-03     110.764E-03    -122.243E+06    -221.228E+06    -81.6629E+06     30.8564E+03    -163.675E-03     327.196E-03    -163.521E-03     47.8331E-03    -164.045E-03     326.583E-03    -163.431E-03     45.1815E-03
             790     3.82165E-03     110.830E-03    -112.041E+06    -197.437E+06    -60.1773E+06     40.9586E+03    -163.826E-03     327.374E-03    -163.548E-03     57.8953E-03    -164.310E-03     326.934E-03    -163.400E-03     54.6130E-03
             791     4.58612E-03     110.907E-03    -101.580E+06    -173.813E+06    -40.9545E+06     176.757E+03    -164.018E-03     327.582E-03    -163.564E-03     66.9101E-03    -164.623E-03     327.328E-03    -163.370E-03     63.0300E-03
             792     5.35064E-03     110.994E-03    -91.6158E+06    -151.146E+06    -24.0881E+06     257.205E+03    -164.208E-03     327.783E-03    -163.575E-03     74.7212E-03    -164.938E-03     327.721E-03    -163.344E-03     70.2892E-03
             793     6.11506E-03     111.091E-03    -82.2635E+06    -130.031E+06    -9.66476E+06     237.494E+03    -164.332E-03     327.909E-03    -163.577E-03     81.1895E-03    -165.180E-03     328.032E-03    -163.318E-03     76.2691E-03
             794     6.87976E-03     111.194E-03    -73.3769E+06    -108.883E+06     3.12493E+06     345.662E+03    -164.391E-03     327.959E-03    -163.569E-03     86.2261E-03    -165.347E-03     328.259E-03    -163.289E-03     80.8929E-03
             795     7.64430E-03     111.302E-03    -65.2331E+06    -87.9006E+06     14.4982E+06     439.118E+03    -164.406E-03     327.958E-03    -163.552E-03     89.7430E-03    -165.455E-03     328.421E-03    -163.257E-03     84.0695E-03
             796     8.40914E-03     111.413E-03    -57.3291E+06    -66.0482E+06     25.0386E+06     502.019E+03    -164.345E-03     327.873E-03    -163.528E-03     91.8534E-03    -165.470E-03     328.487E-03    -163.224E-03     85.9057E-03
             797     9.17385E-03     111.526E-03    -49.6835E+06    -42.2184E+06     35.1064E+06     466.169E+03    -164.208E-03     327.704E-03    -163.496E-03     92.6125E-03    -165.394E-03     328.462E-03    -163.187E-03     86.4379E-03
             798     9.93887E-03     111.639E-03    -42.6841E+06    -15.4256E+06     44.8697E+06     571.877E+03    -164.016E-03     327.473E-03    -163.457E-03     91.9882E-03    -165.253E-03     328.374E-03    -163.148E-03     85.6258E-03
             799     10.7038E-03     111.750E-03    -35.3185E+06     17.1709E+06     55.3483E+06     405.294E+03    -163.719E-03     327.130E-03    -163.411E-03     89.8421E-03    -164.996E-03     328.181E-03    -163.108E-03     83.3247E-03
             800     11.4687E-03     111.857E-03    -26.5969E+06     59.5966E+06     66.9044E+06     1.69329E+06    -163.276E-03     326.625E-03    -163.349E-03     85.7570E-03    -164.580E-03     327.853E-03    -163.063E-03     79.1288E-03
             801     12.2338E-03     111.957E-03    -20.4724E+06     90.8899E+06     77.4554E+06     3.00342E+06    -162.775E-03     326.073E-03    -163.298E-03     79.5419E-03    -164.080E-03     327.404E-03    -163.013E-03     72.8341E-03
             802     12.9987E-03     112.047E-03    -17.5628E+06     97.9691E+06     81.7228E+06     1.55427E+06    -162.103E-03     325.351E-03    -163.248E-03     69.4238E-03    -163.328E-03     326.625E-03    -162.956E-03     62.7220E-03
             803     13.7658E-03     112.119E-03    -12.3697E+06     109.483E+06     93.7706E+06     755.766E+03    -161.462E-03     324.682E-03    -163.220E-03     58.9920E-03    -162.648E-03     325.941E-03    -162.892E-03     52.1135E-03
             804     14.5311E-03     112.180E-03    -5.13115E+06     121.927E+06     107.738E+06     863.217E+03    -161.435E-03     324.639E-03    -163.203E-03     37.2359E-03    -162.363E-03     325.668E-03    -162.834E-03     31.2477E-03
             805     764.183E-06     111.963E-03    -146.657E+06    -284.225E+06    -142.454E+06     84.0846E+03    -163.607E-03     326.984E-03    -163.377E-03     13.8786E-03    -163.739E-03     326.000E-03    -163.465E-03     13.1365E-03
             806     1.52845E-03     111.987E-03    -140.933E+06    -268.484E+06    -126.650E+06    -215.595E+03    -163.523E-03     327.035E-03    -163.512E-03     25.2757E-03    -163.709E-03     326.136E-03    -163.552E-03     23.9163E-03
             807     2.29269E-03     112.026E-03    -132.344E+06    -246.326E+06    -105.072E+06    -157.538E+03    -163.612E-03     327.159E-03    -163.547E-03     36.8007E-03    -163.879E-03     326.387E-03    -163.523E-03     34.7926E-03
             808     3.05704E-03     112.078E-03    -122.679E+06    -221.334E+06    -81.9851E+06    -26.3773E+03    -163.742E-03     327.326E-03    -163.584E-03     47.7275E-03    -164.113E-03     326.714E-03    -163.495E-03     45.0720E-03
             809     3.82140E-03     112.143E-03    -112.387E+06    -197.293E+06    -60.2776E+06    -79.5753E+03    -163.914E-03     327.528E-03    -163.615E-03     57.8018E-03    -164.399E-03     327.089E-03    -163.467E-03     54.5133E-03
             810     4.58579E-03     112.221E-03    -102.008E+06    -173.973E+06    -41.3123E+06    -183.420E+03    -164.085E-03     327.718E-03    -163.633E-03     66.8404E-03    -164.691E-03     327.465E-03    -163.440E-03     62.9512E-03
             811     5.35018E-03     112.308E-03    -91.9227E+06    -151.308E+06    -24.6696E+06    -126.498E+03    -164.228E-03     327.868E-03    -163.640E-03     74.6697E-03    -164.958E-03     327.806E-03    -163.410E-03     70.2310E-03
             812     6.11479E-03     112.404E-03    -82.5070E+06    -130.252E+06    -10.1065E+06     32.1127E+03    -164.348E-03     327.985E-03    -163.637E-03     81.1003E-03    -165.196E-03     328.107E-03    -163.379E-03     76.1754E-03
             813     6.87926E-03     112.507E-03    -73.6033E+06    -109.244E+06     2.70072E+06     197.975E+03    -164.422E-03     328.047E-03    -163.625E-03     86.1178E-03    -165.378E-03     328.346E-03    -163.347E-03     80.7795E-03
             814     7.64399E-03     112.616E-03    -65.0103E+06    -87.8239E+06     14.3376E+06     172.621E+03    -164.431E-03     328.037E-03    -163.606E-03     89.6225E-03    -165.479E-03     328.500E-03    -163.313E-03     83.9426E-03
             815     8.40859E-03     112.727E-03    -57.1102E+06    -66.6309E+06     24.7003E+06     357.750E+03    -164.363E-03     327.942E-03    -163.579E-03     91.6586E-03    -165.485E-03     328.553E-03    -163.276E-03     85.7031E-03
             816     9.17348E-03     112.840E-03    -50.2332E+06    -42.5458E+06     34.6012E+06     868.429E+03    -164.223E-03     327.769E-03    -163.545E-03     92.3758E-03    -165.410E-03     328.525E-03    -163.238E-03     86.2028E-03
             817     9.93821E-03     112.953E-03    -43.8064E+06    -15.2953E+06     44.2965E+06     833.200E+03    -164.028E-03     327.533E-03    -163.505E-03     91.7498E-03    -165.268E-03     328.434E-03    -163.197E-03     85.3922E-03
             818     10.7031E-03     113.064E-03    -38.2821E+06     18.8247E+06     54.6035E+06    -164.074E+03    -163.670E-03     327.125E-03    -163.455E-03     89.6257E-03    -164.961E-03     328.188E-03    -163.154E-03     83.1051E-03
             819     11.4683E-03     113.170E-03    -33.2271E+06     57.1229E+06     63.5118E+06    -1.31620E+06    -163.104E-03     326.487E-03    -163.383E-03     85.6289E-03    -164.431E-03     327.715E-03    -163.100E-03     78.9724E-03
             820     12.2338E-03     113.270E-03    -25.0107E+06     86.3397E+06     73.2157E+06     1.00054E+06    -162.435E-03     325.746E-03    -163.311E-03     79.2309E-03    -163.747E-03     327.064E-03    -163.034E-03     72.5099E-03
             821     13.0000E-03     113.359E-03    -16.1219E+06     99.8428E+06     82.4686E+06     3.72296E+06    -161.972E-03     325.226E-03    -163.255E-03     68.5117E-03    -163.190E-03     326.503E-03    -162.964E-03     61.8255E-03
             822     13.7646E-03     113.431E-03    -11.8666E+06     111.752E+06     95.8059E+06     2.07007E+06    -161.830E-03     325.071E-03    -163.241E-03     57.8424E-03    -163.018E-03     326.336E-03    -162.907E-03     50.9345E-03
             823     14.5298E-03     113.494E-03    -6.54670E+06     122.678E+06     107.534E+06     325.502E+03    -161.366E-03     324.594E-03    -163.228E-03     36.4478E-03    -162.299E-03     325.628E-03    -162.859E-03     30.4345E-03
             824     764.120E-06     113.277E-03    -146.866E+06    -284.066E+06    -143.100E+06    -81.5208E+03    -163.693E-03     327.164E-03    -163.471E-03     13.8310E-03    -163.826E-03     326.182E-03    -163.561E-03     13.0872E-03
             825     1.52824E-03     113.301E-03    -141.159E+06    -267.933E+06    -126.752E+06    -164.623E+03    -163.612E-03     327.215E-03    -163.603E-03     25.2564E-03    -163.800E-03     326.318E-03    -163.644E-03     23.8973E-03
             826     2.29250E-03     113.339E-03    -133.130E+06    -246.158E+06    -105.438E+06    -451.619E+03    -163.692E-03     327.328E-03    -163.637E-03     36.7832E-03    -163.963E-03     326.559E-03    -163.614E-03     34.7693E-03
             827     3.05673E-03     113.392E-03    -123.405E+06    -221.342E+06    -82.7662E+06    -565.528E+03    -163.826E-03     327.496E-03    -163.670E-03     47.6959E-03    -164.199E-03     326.886E-03    -163.584E-03     45.0306E-03
             828     3.82104E-03     113.457E-03    -112.845E+06    -197.128E+06    -61.0521E+06    -557.800E+03    -163.983E-03     327.682E-03    -163.699E-03     57.7546E-03    -164.469E-03     327.245E-03    -163.554E-03     54.4569E-03
             829     4.58537E-03     113.534E-03    -102.344E+06    -173.723E+06    -41.8615E+06    -615.489E+03    -164.126E-03     327.839E-03    -163.713E-03     66.7777E-03    -164.733E-03     327.588E-03    -163.522E-03     62.8798E-03
             830     5.34988E-03     113.622E-03    -92.2298E+06    -151.539E+06    -25.1651E+06    -582.278E+03    -164.259E-03     327.973E-03    -163.715E-03     74.5863E-03    -164.989E-03     327.911E-03    -163.487E-03     70.1384E-03
             831     6.11428E-03     113.718E-03    -82.4695E+06    -130.422E+06    -10.5297E+06    -550.373E+03    -164.392E-03     328.100E-03    -163.707E-03     80.9994E-03    -165.239E-03     328.221E-03    -163.451E-03     76.0624E-03
             832     6.87889E-03     113.821E-03    -73.1669E+06    -109.523E+06     2.31006E+06    -525.234E+03    -164.480E-03     328.173E-03    -163.693E-03     85.9463E-03    -165.432E-03     328.470E-03    -163.417E-03     80.5915E-03
             833     7.64340E-03     113.929E-03    -64.6139E+06    -88.3968E+06     13.8743E+06     17.8492E+03    -164.475E-03     328.148E-03    -163.673E-03     89.3924E-03    -165.518E-03     328.608E-03    -163.382E-03     83.7039E-03
             834     8.40814E-03     114.041E-03    -57.0925E+06    -67.4297E+06     24.3339E+06     648.535E+03    -164.406E-03     328.052E-03    -163.647E-03     91.3996E-03    -165.525E-03     328.659E-03    -163.344E-03     85.4426E-03
             835     9.17278E-03     114.153E-03    -49.5608E+06    -43.4953E+06     34.3978E+06     1.16016E+06    -164.259E-03     327.870E-03    -163.611E-03     92.1247E-03    -165.439E-03     328.620E-03    -163.304E-03     85.9533E-03
             836     9.93768E-03     114.266E-03    -42.9882E+06    -15.6691E+06     44.2904E+06     1.86102E+06    -163.974E-03     327.539E-03    -163.565E-03     91.5331E-03    -165.207E-03     328.435E-03    -163.259E-03     85.1933E-03
             837     10.7027E-03     114.377E-03    -38.0858E+06     18.4548E+06     54.6154E+06     3.43147E+06    -163.530E-03     327.036E-03    -163.506E-03     89.3719E-03    -164.817E-03     328.094E-03    -163.204E-03     82.9050E-03
             838     11.4678E-03     114.483E-03    -34.4654E+06     61.1399E+06     64.3526E+06     2.89301E+06    -162.968E-03     326.391E-03    -163.423E-03     85.2903E-03    -164.307E-03     327.638E-03    -163.140E-03     78.6897E-03
             839     12.2332E-03     114.582E-03    -30.8133E+06     87.2305E+06     71.7881E+06    -2.21298E+06    -162.495E-03     325.843E-03    -163.348E-03     78.8072E-03    -163.837E-03     327.177E-03    -163.071E-03     72.0197E-03
             840     12.9983E-03     114.672E-03    -22.7058E+06     94.4083E+06     77.1966E+06    -3.13456E+06    -162.149E-03     325.438E-03    -163.290E-03     68.3540E-03    -163.385E-03     326.706E-03    -163.008E-03     61.5576E-03
             841     13.7640E-03     114.745E-03    -11.8722E+06     112.127E+06     93.3756E+06     1.28883E+06    -161.512E-03     324.779E-03    -163.267E-03     58.3830E-03    -162.699E-03     326.052E-03    -162.946E-03     51.4823E-03
             842     14.5291E-03     114.807E-03    -4.85826E+06     125.028E+06     107.903E+06     1.51005E+06    -160.909E-03     324.148E-03    -163.239E-03     37.0015E-03    -161.840E-03     325.193E-03    -162.874E-03     31.0327E-03
             843     764.035E-06     114.591E-03    -148.142E+06    -283.615E+06    -144.039E+06    -225.239E+03    -163.758E-03     327.345E-03    -163.586E-03     13.8311E-03    -163.897E-03     326.368E-03    -163.680E-03     13.0843E-03
             844     1.52815E-03     114.615E-03    -142.319E+06    -267.328E+06    -128.048E+06    -414.869E+03    -163.727E-03     327.425E-03    -163.698E-03     25.2369E-03    -163.920E-03     326.535E-03    -163.744E-03     23.8717E-03
             845     2.29225E-03     114.653E-03    -134.100E+06    -245.244E+06    -106.349E+06    -720.804E+03    -163.797E-03     327.535E-03    -163.738E-03     36.7425E-03    -164.073E-03     326.773E-03    -163.720E-03     34.7225E-03
             846     3.05645E-03     114.706E-03    -124.271E+06    -220.800E+06    -83.4771E+06    -1.08723E+06    -163.908E-03     327.679E-03    -163.772E-03     47.6681E-03    -164.285E-03     327.074E-03    -163.689E-03     44.9932E-03
             847     3.82064E-03     114.771E-03    -113.489E+06    -196.758E+06    -61.9206E+06    -1.28859E+06    -164.045E-03     327.839E-03    -163.794E-03     57.7090E-03    -164.534E-03     327.406E-03    -163.654E-03     54.3978E-03
             848     4.58501E-03     114.848E-03    -102.867E+06    -173.406E+06    -42.6580E+06    -1.35821E+06    -164.195E-03     327.999E-03    -163.804E-03     66.6755E-03    -164.804E-03     327.751E-03    -163.617E-03     62.7615E-03
             849     5.34931E-03     114.936E-03    -92.5162E+06    -151.327E+06    -25.8084E+06    -1.48584E+06    -164.354E-03     328.159E-03    -163.805E-03     74.4181E-03    -165.084E-03     328.099E-03    -163.581E-03     69.9498E-03
             850     6.11383E-03     115.032E-03    -82.4186E+06    -130.300E+06    -11.1602E+06    -1.53799E+06    -164.492E-03     328.291E-03    -163.800E-03     80.7624E-03    -165.337E-03     328.414E-03    -163.547E-03     75.8042E-03
             851     6.87820E-03     115.135E-03    -73.1157E+06    -109.888E+06     1.66700E+06    -1.26900E+06    -164.562E-03     328.350E-03    -163.787E-03     85.6111E-03    -165.512E-03     328.645E-03    -163.514E-03     80.2378E-03
             852     7.64275E-03     115.243E-03    -64.5549E+06    -89.6066E+06     13.1697E+06    -839.714E+03    -164.538E-03     328.306E-03    -163.768E-03     88.9963E-03    -165.577E-03     328.759E-03    -163.478E-03     83.2869E-03
             853     8.40732E-03     115.354E-03    -56.0017E+06    -68.6033E+06     24.0190E+06    -219.152E+03    -164.440E-03     328.179E-03    -163.739E-03     91.0010E-03    -165.549E-03     328.776E-03    -163.438E-03     85.0273E-03
             854     9.17206E-03     115.467E-03    -48.0395E+06    -44.8803E+06     34.3033E+06     577.582E+03    -164.233E-03     327.932E-03    -163.698E-03     91.7023E-03    -165.401E-03     328.670E-03    -163.392E-03     85.5219E-03
             855     9.93686E-03     115.580E-03    -40.5941E+06    -18.8958E+06     44.2970E+06     2.33552E+06    -163.872E-03     327.516E-03    -163.644E-03     91.0362E-03    -165.086E-03     328.390E-03    -163.336E-03     84.7031E-03
             856     10.7020E-03     115.690E-03    -32.5927E+06     15.3444E+06     55.9624E+06     3.99386E+06    -163.406E-03     326.979E-03    -163.573E-03     88.8509E-03    -164.660E-03     328.009E-03    -163.268E-03     82.3928E-03
             857     11.4674E-03     115.796E-03    -23.9391E+06     62.3423E+06     68.9023E+06     5.22448E+06    -162.916E-03     326.397E-03    -163.481E-03     84.8077E-03    -164.208E-03     327.625E-03    -163.192E-03     78.2374E-03
             858     12.2329E-03     115.896E-03    -18.4160E+06     95.0855E+06     80.1141E+06     5.39734E+06    -162.503E-03     325.910E-03    -163.406E-03     78.7383E-03    -163.805E-03     327.251E-03    -163.117E-03     72.0585E-03
             859     12.9981E-03     115.985E-03    -19.4443E+06     98.7178E+06     82.1867E+06    -125.324E+03    -161.955E-03     325.295E-03    -163.340E-03     68.7661E-03    -163.190E-03     326.573E-03    -163.044E-03     62.0278E-03
             860     13.7636E-03     116.057E-03    -16.2462E+06     108.315E+06     90.6765E+06    -5.30469E+06    -161.077E-03     324.360E-03    -163.283E-03     58.1045E-03    -162.280E-03     325.626E-03    -162.963E-03     51.1000E-03
             861     14.5314E-03     116.118E-03    -6.29897E+06     123.116E+06     104.256E+06    -1.53919E+06    -160.558E-03     323.780E-03    -163.222E-03     36.5891E-03    -161.490E-03     324.824E-03    -162.870E-03     30.5567E-03
             862     764.015E-06     115.905E-03    -149.069E+06    -282.520E+06    -145.408E+06     -508.89E+03    -163.880E-03     327.574E-03    -163.694E-03     13.8988E-03    -164.023E-03     326.607E-03    -163.795E-03     13.1462E-03
             863     1.52792E-03     115.929E-03    -143.405E+06    -266.131E+06    -129.343E+06    -967.975E+03    -163.860E-03     327.676E-03    -163.815E-03     25.1734E-03    -164.059E-03     326.795E-03    -163.868E-03     23.7979E-03
             864     2.29195E-03     115.968E-03    -135.031E+06    -244.066E+06    -107.586E+06    -1.36455E+06    -163.909E-03     327.768E-03    -163.859E-03     36.6753E-03    -164.190E-03     327.015E-03    -163.847E-03     34.6420E-03
             865     3.05603E-03     116.020E-03    -125.001E+06    -219.708E+06    -84.3542E+06    -1.63926E+06    -164.004E-03     327.894E-03    -163.890E-03     47.5740E-03    -164.385E-03     327.296E-03    -163.812E-03     44.8864E-03
             866     3.82028E-03     116.086E-03    -114.346E+06    -195.657E+06    -62.7491E+06    -2.08609E+06    -164.155E-03     328.065E-03    -163.910E-03     57.5522E-03    -164.649E-03     327.641E-03    -163.774E-03     54.2230E-03
             867     4.58443E-03     116.163E-03    -103.474E+06    -172.665E+06    -43.6087E+06    -2.53395E+06    -164.342E-03     328.265E-03    -163.923E-03     66.4436E-03    -164.954E-03     328.023E-03    -163.741E-03     62.5037E-03
             868     5.34876E-03     116.250E-03    -92.8728E+06    -150.634E+06    -26.7788E+06    -2.73476E+06    -164.517E-03     328.448E-03    -163.931E-03     74.1086E-03    -165.249E-03     328.392E-03    -163.711E-03     69.6112E-03
             869     6.11290E-03     116.346E-03    -83.0681E+06    -130.184E+06    -12.2162E+06    -2.69778E+06    -164.626E-03     328.557E-03    -163.931E-03     80.3871E-03    -165.473E-03     328.682E-03    -163.682E-03     75.4002E-03
             870     6.87729E-03     116.449E-03    -73.9504E+06    -110.229E+06     600.753E+03    -2.62094E+06    -164.650E-03     328.569E-03    -163.920E-03     85.2028E-03    -165.600E-03     328.864E-03    -163.649E-03     79.8000E-03
             871     7.64169E-03     116.557E-03    -64.7638E+06    -89.8810E+06     12.4355E+06    -2.58529E+06    -164.614E-03     328.512E-03    -163.898E-03     88.5645E-03    -165.651E-03     328.964E-03    -163.611E-03     82.8230E-03
             872     8.40622E-03     116.668E-03    -56.0170E+06    -69.9327E+06     22.9988E+06    -2.25306E+06    -164.467E-03     328.331E-03    -163.864E-03     90.5102E-03    -165.571E-03     328.921E-03    -163.566E-03     84.5022E-03
             873     9.17093E-03     116.781E-03    -47.8979E+06    -46.9578E+06     33.1369E+06    -1.30448E+06    -164.163E-03     327.976E-03    -163.813E-03     91.1291E-03    -165.323E-03     328.703E-03    -163.510E-03     84.9194E-03
             874     9.93592E-03     116.893E-03    -39.2527E+06    -21.7233E+06     43.5055E+06    -693.922E+03    -163.779E-03     327.525E-03    -163.746E-03     90.4382E-03    -164.977E-03     328.381E-03    -163.440E-03     84.0642E-03
             875     10.7010E-03     117.003E-03    -30.0981E+06     12.3011E+06     55.3391E+06     182.462E+03    -163.318E-03     326.981E-03    -163.662E-03     88.2723E-03    -164.550E-03     327.989E-03    -163.360E-03     81.7680E-03
             876     11.4664E-03     117.109E-03    -23.0612E+06     56.0125E+06     66.9586E+06     3.31252E+06    -162.754E-03     326.312E-03    -163.558E-03     84.3038E-03    -164.024E-03     327.504E-03    -163.271E-03     77.7225E-03
             877     12.2318E-03     117.208E-03    -16.6106E+06     92.3415E+06     78.2327E+06     7.41659E+06    -162.055E-03     325.509E-03    -163.453E-03     78.2432E-03    -163.334E-03     326.829E-03    -163.172E-03     71.6275E-03
             878     12.9981E-03     117.297E-03    -8.94268E+06     109.578E+06     89.7640E+06     8.43404E+06    -161.415E-03     324.784E-03    -163.369E-03     68.2396E-03    -162.615E-03     326.081E-03    -163.066E-03     61.6699E-03
             879     13.7640E-03     117.369E-03    -8.05822E+06     117.754E+06     101.591E+06     2.63265E+06    -161.195E-03     324.514E-03    -163.319E-03     58.0107E-03    -162.378E-03     325.792E-03    -162.970E-03     51.1689E-03
             880     14.5277E-03     117.429E-03    -10.1053E+06     120.665E+06     103.355E+06    -3.19827E+06    -161.331E-03     324.587E-03    -163.256E-03     35.9435E-03    -162.272E-03     325.621E-03    -162.900E-03     29.8856E-03
             881     763.816E-06     117.220E-03    -149.867E+06    -280.304E+06    -145.961E+06    -962.651E+03    -164.080E-03     327.893E-03    -163.813E-03     13.9396E-03    -164.229E-03     326.939E-03    -163.919E-03     13.1767E-03
             882     1.52770E-03     117.244E-03    -144.234E+06    -264.460E+06    -130.275E+06    -1.42679E+06    -163.994E-03     327.963E-03    -163.969E-03     25.1138E-03    -164.198E-03     327.094E-03    -164.028E-03     23.7286E-03
             883     2.29161E-03     117.282E-03    -135.922E+06    -242.362E+06    -108.541E+06    -1.82174E+06    -164.060E-03     328.069E-03    -164.008E-03     36.5650E-03    -164.347E-03     327.327E-03    -164.002E-03     34.5198E-03
             884     3.05564E-03     117.335E-03    -125.782E+06    -217.953E+06    -85.3645E+06    -2.52495E+06    -164.182E-03     328.225E-03    -164.043E-03     47.3846E-03    -164.568E-03     327.639E-03    -163.972E-03     44.6765E-03
             885     3.81960E-03     117.400E-03    -115.118E+06    -194.031E+06    -63.8544E+06    -3.09118E+06    -164.352E-03     328.423E-03    -164.072E-03     57.2999E-03    -164.850E-03     328.009E-03    -163.943E-03     53.9454E-03
             886     4.58369E-03     117.477E-03    -104.594E+06    -171.147E+06    -44.7391E+06    -3.55638E+06    -164.547E-03     328.640E-03    -164.094E-03     66.1376E-03    -165.165E-03     328.409E-03    -163.917E-03     62.1703E-03
             887     5.34763E-03     117.565E-03    -94.2188E+06    -149.602E+06    -28.0358E+06    -3.98398E+06    -164.694E-03     328.801E-03    -164.107E-03     73.7437E-03    -165.431E-03     328.754E-03    -163.893E-03     69.2146E-03
             888     6.11185E-03     117.661E-03    -84.4766E+06    -129.641E+06    -13.5447E+06    -4.26001E+06    -164.758E-03     328.865E-03    -164.107E-03     79.9786E-03    -165.610E-03     328.996E-03    -163.865E-03     74.9560E-03
             889     6.87604E-03     117.764E-03    -74.9192E+06    -109.599E+06    -602.599E+03    -4.51740E+06    -164.771E-03     328.864E-03    -164.093E-03     84.7507E-03    -165.724E-03     329.164E-03    -163.829E-03     79.3085E-03
             890     7.64041E-03     117.872E-03    -66.0669E+06    -89.8854E+06     10.8605E+06    -4.47707E+06    -164.691E-03     328.758E-03    -164.066E-03     88.0249E-03    -165.731E-03     329.212E-03    -163.786E-03     82.2456E-03
             891     8.40486E-03     117.983E-03    -57.8878E+06    -70.2733E+06     21.2648E+06    -4.34441E+06    -164.484E-03     328.509E-03    -164.025E-03     89.8723E-03    -165.591E-03     329.099E-03    -163.733E-03     83.8272E-03
             892     9.16954E-03     118.095E-03    -49.7391E+06    -48.4294E+06     31.1994E+06    -4.20965E+06    -164.146E-03     328.111E-03    -163.965E-03     90.3697E-03    -165.306E-03     328.831E-03    -163.666E-03     84.1150E-03
             893     9.93450E-03     118.206E-03    -42.1040E+06    -22.4686E+06     41.3124E+06    -3.58571E+06    -163.723E-03     327.610E-03    -163.887E-03     89.5827E-03    -164.926E-03     328.463E-03    -163.586E-03     83.1672E-03
             894     10.6997E-03     118.316E-03    -36.2194E+06     8.24456E+06     51.4556E+06    -1.84736E+06    -163.250E-03     327.043E-03    -163.794E-03     87.3247E-03    -164.495E-03     328.040E-03    -163.496E-03     80.7863E-03
             895     11.4651E-03     118.422E-03    -29.6505E+06     48.5356E+06     61.4442E+06     1.36326E+06    -162.665E-03     326.341E-03    -163.677E-03     83.1212E-03    -163.944E-03     327.510E-03    -163.397E-03     76.4964E-03
             896     12.2313E-03     118.520E-03    -21.6118E+06     88.7609E+06     73.9694E+06     2.92491E+06    -162.071E-03     325.637E-03    -163.566E-03     76.3757E-03    -163.359E-03     326.949E-03    -163.294E-03     69.6457E-03
             897     12.9973E-03     118.609E-03    -13.1377E+06     107.611E+06     84.4803E+06     3.64323E+06    -161.489E-03     324.965E-03    -163.476E-03     65.1738E-03    -162.695E-03     326.262E-03    -163.191E-03     58.4233E-03
             898     13.7639E-03     118.681E-03    -4.73622E+06     123.864E+06     104.286E+06     5.59083E+06    -161.107E-03     324.551E-03    -163.444E-03     54.3918E-03    -162.276E-03     325.841E-03    -163.096E-03     47.4783E-03
             899     14.5312E-03     118.743E-03    -6.20512E+06     126.754E+06     110.577E+06     4.30261E+06    -161.180E-03     324.576E-03    -163.396E-03     33.9467E-03    -162.113E-03     325.616E-03    -163.018E-03     27.9544E-03
             900     763.685E-06     118.535E-03    -150.624E+06    -277.766E+06    -146.378E+06    -639.779E+03    -164.240E-03     328.294E-03    -164.054E-03     13.8395E-03    -164.396E-03     327.354E-03    -164.165E-03     13.0770E-03
             901     1.52741E-03     118.559E-03    -145.465E+06    -261.913E+06    -130.786E+06    -1.60996E+06    -164.181E-03     328.351E-03    -164.170E-03     25.0046E-03    -164.394E-03     327.497E-03    -164.233E-03     23.6111E-03
             902     2.29118E-03     118.598E-03    -136.845E+06    -240.018E+06    -109.510E+06    -2.52742E+06    -164.292E-03     328.503E-03    -164.211E-03     36.3922E-03    -164.585E-03     327.775E-03    -164.212E-03     34.3294E-03
             903     3.05490E-03     118.650E-03    -126.662E+06    -215.569E+06    -86.4696E+06    -3.16850E+06    -164.440E-03     328.697E-03    -164.257E-03     47.1458E-03    -164.832E-03     328.125E-03    -164.193E-03     44.4174E-03
             904     3.81876E-03     118.716E-03    -116.252E+06    -191.940E+06    -64.8153E+06    -3.85430E+06    -164.614E-03     328.912E-03    -164.298E-03     57.0142E-03    -165.120E-03     328.512E-03    -164.175E-03     53.6347E-03
             905     4.58252E-03     118.793E-03    -105.638E+06    -169.159E+06    -45.6192E+06    -4.51466E+06    -164.775E-03     329.101E-03    -164.326E-03     65.7982E-03    -165.399E-03     328.883E-03    -164.156E-03     61.8016E-03
             906     5.34650E-03     118.880E-03    -95.5637E+06    -147.903E+06    -29.0737E+06    -5.09634E+06    -164.885E-03     329.225E-03    -164.340E-03     73.3015E-03    -165.630E-03     329.189E-03    -164.132E-03     68.7398E-03
             907     6.11041E-03     118.976E-03    -85.7524E+06    -127.907E+06    -14.5900E+06    -5.77080E+06    -164.948E-03     329.286E-03    -164.338E-03     79.4203E-03    -165.806E-03     329.428E-03    -164.101E-03     74.3591E-03
             908     6.87452E-03     119.079E-03    -76.5087E+06    -108.641E+06    -1.95261E+06    -6.09917E+06    -164.938E-03     329.261E-03    -164.322E-03     84.0816E-03    -165.897E-03     329.568E-03    -164.064E-03     78.6012E-03
             909     7.63863E-03     119.186E-03    -67.9827E+06    -89.5092E+06     9.32174E+06    -6.08977E+06    -164.811E-03     329.103E-03    -164.292E-03     87.2029E-03    -165.856E-03     329.561E-03    -164.017E-03     81.3842E-03
             910     8.40306E-03     119.297E-03    -59.8510E+06    -69.9922E+06     19.6444E+06    -5.98870E+06    -164.578E-03     328.823E-03    -164.245E-03     88.8658E-03    -165.689E-03     329.416E-03    -163.958E-03     82.7808E-03
             911     9.16768E-03     119.409E-03    -52.6334E+06    -48.7189E+06     29.0215E+06    -5.61193E+06    -164.270E-03     328.450E-03    -164.180E-03     89.1204E-03    -165.435E-03     329.171E-03    -163.888E-03     82.8245E-03
             912     9.93247E-03     119.520E-03    -46.2955E+06    -24.4746E+06     37.8910E+06    -4.31888E+06    -163.861E-03     327.962E-03    -164.100E-03     88.0626E-03    -165.072E-03     328.811E-03    -163.808E-03     81.6053E-03
             913     10.6975E-03     119.629E-03    -39.5736E+06     4.68051E+06     47.6747E+06    -2.48618E+06    -163.341E-03     327.347E-03    -164.006E-03     85.5459E-03    -164.585E-03     328.330E-03    -163.717E-03     78.9649E-03
             914     11.4628E-03     119.735E-03    -32.0835E+06     43.9489E+06     57.6666E+06    -1.12057E+06    -162.761E-03     326.650E-03    -163.888E-03     81.2641E-03    -164.033E-03     327.796E-03    -163.617E-03     74.5720E-03
             915     12.2277E-03     119.833E-03    -25.9448E+06     85.0396E+06     70.0961E+06     1.60614E+06    -162.140E-03     325.915E-03    -163.775E-03     75.1440E-03    -163.433E-03     327.215E-03    -163.511E-03     68.3762E-03
             916     12.9923E-03     119.922E-03    -21.8957E+06     106.876E+06     78.8422E+06     2.92600E+06    -161.435E-03     325.105E-03    -163.670E-03     65.3521E-03    -162.677E-03     326.420E-03    -163.399E-03     58.6003E-03
             917     13.7566E-03     119.993E-03    -16.5520E+06     118.233E+06     92.1682E+06     2.90706E+06    -160.236E-03     323.816E-03    -163.580E-03     56.4482E-03    -161.443E-03     325.117E-03    -163.267E-03     49.5829E-03
             918     14.5211E-03     120.056E-03    -3.69477E+06     128.665E+06     111.075E+06     4.44836E+06    -158.231E-03     321.683E-03    -163.452E-03     37.1618E-03    -159.162E-03     322.736E-03    -163.078E-03     31.3235E-03
             919     763.460E-06     119.851E-03    -151.505E+06    -275.282E+06    -147.658E+06    -987.886E+03    -164.486E-03     328.839E-03    -164.353E-03     13.7543E-03    -164.648E-03     327.914E-03    -164.473E-03     12.9857E-03
             920     1.52700E-03     119.875E-03    -145.711E+06    -258.690E+06    -131.305E+06    -1.74016E+06    -164.486E-03     328.936E-03    -164.450E-03     24.8411E-03    -164.704E-03     328.098E-03    -164.520E-03     23.4407E-03
             921     2.29049E-03     119.913E-03    -137.358E+06    -236.824E+06    -109.731E+06    -2.85941E+06    -164.598E-03     329.100E-03    -164.502E-03     36.1538E-03    -164.897E-03     328.389E-03    -164.508E-03     34.0771E-03
             922     3.05408E-03     119.966E-03    -127.456E+06    -212.930E+06    -86.9056E+06    -3.83962E+06    -164.755E-03     329.310E-03    -164.556E-03     46.8492E-03    -165.154E-03     328.754E-03    -164.497E-03     44.0971E-03
             923     3.81755E-03     120.032E-03    -116.727E+06    -189.239E+06    -65.0990E+06    -4.61382E+06    -164.926E-03     329.529E-03    -164.603E-03     56.6376E-03    -165.437E-03     329.142E-03    -164.485E-03     53.2305E-03
             924     4.58119E-03     120.109E-03    -106.292E+06    -166.821E+06    -45.9719E+06    -5.32819E+06    -165.062E-03     329.696E-03    -164.634E-03     65.2827E-03    -165.692E-03     329.490E-03    -164.468E-03     61.2552E-03
             925     5.34480E-03     120.196E-03    -96.1100E+06    -145.544E+06    -29.3791E+06    -6.02852E+06    -165.176E-03     329.825E-03    -164.649E-03     72.6433E-03    -165.926E-03     329.802E-03    -164.445E-03     68.0458E-03
             926     6.10857E-03     120.292E-03    -86.5208E+06    -125.829E+06    -15.1119E+06    -6.52991E+06    -165.239E-03     329.889E-03    -164.650E-03     78.5898E-03    -166.101E-03     330.041E-03    -164.418E-03     73.4916E-03
             927     6.87232E-03     120.394E-03    -77.8352E+06    -107.077E+06     -2.8931E+06    -7.00713E+06    -165.190E-03     329.825E-03    -164.635E-03     83.0702E-03    -166.154E-03     330.141E-03    -164.381E-03     77.5501E-03
             928     7.63639E-03     120.502E-03    -69.3960E+06    -88.6704E+06     7.90767E+06    -7.27353E+06    -165.055E-03     329.658E-03    -164.603E-03     85.9932E-03    -166.101E-03     330.120E-03    -164.334E-03     80.1298E-03
             929     8.40045E-03     120.612E-03    -61.4211E+06    -69.9360E+06     17.6992E+06    -6.84861E+06    -164.823E-03     329.378E-03    -164.556E-03     87.4396E-03    -165.934E-03     329.971E-03    -164.277E-03     81.3128E-03
             930     9.16472E-03     120.723E-03    -54.0658E+06    -49.1504E+06     26.8959E+06    -6.10493E+06    -164.473E-03     328.964E-03    -164.490E-03     87.6278E-03    -165.635E-03     329.681E-03    -164.206E-03     81.3018E-03
             931     9.92912E-03     120.834E-03    -46.9564E+06    -27.0395E+06     35.4780E+06    -5.03259E+06    -163.971E-03     328.375E-03    -164.405E-03     86.6835E-03    -165.168E-03     329.208E-03    -164.120E-03     80.2072E-03
             932     10.6937E-03     120.943E-03    -39.9710E+06     1.86242E+06     45.0486E+06    -3.28318E+06    -163.225E-03     327.517E-03    -164.291E-03     84.6728E-03    -164.454E-03     328.480E-03    -164.011E-03     78.1059E-03
             933     11.4587E-03     121.048E-03    -34.9877E+06     39.7059E+06     54.1415E+06    -489.629E+03    -162.224E-03     326.358E-03    -164.134E-03     81.4274E-03    -163.489E-03     327.483E-03    -163.870E-03     74.8237E-03
             934     12.2246E-03     121.146E-03    -30.5439E+06     79.6597E+06     64.6453E+06     1.93293E+06    -160.953E-03     324.896E-03    -163.943E-03     76.6283E-03    -162.243E-03     326.173E-03    -163.691E-03     70.0212E-03
             935     12.9922E-03     121.234E-03    -23.5234E+06     106.121E+06      74.043E+06     4.02170E+06    -159.570E-03     323.293E-03    -163.723E-03     68.3033E-03    -160.803E-03     324.604E-03    -163.472E-03     61.8023E-03
             936     13.7608E-03     121.305E-03    -15.3048E+06     119.857E+06     90.5458E+06     3.74463E+06    -158.312E-03     321.836E-03    -163.524E-03     59.7400E-03    -159.513E-03     323.145E-03    -163.222E-03     53.1048E-03
             937     14.5325E-03     121.362E-03    -4.16657E+06     130.838E+06     111.472E+06    -562.974E+03    -157.849E-03     321.192E-03    -163.342E-03     37.5351E-03    -158.786E-03     322.255E-03    -162.969E-03     31.6808E-03
             938     763.231E-06     121.167E-03    -151.678E+06    -271.752E+06    -147.367E+06    -1.28937E+06    -164.892E-03     329.628E-03    -164.736E-03     13.6106E-03    -165.061E-03     328.721E-03    -164.859E-03     12.8359E-03
             939     1.52635E-03     121.191E-03    -145.397E+06    -255.434E+06    -131.189E+06    -2.29569E+06    -164.900E-03     329.749E-03    -164.849E-03     24.6507E-03    -165.120E-03     328.927E-03    -164.924E-03     23.2354E-03
             940     2.28959E-03     121.230E-03    -136.858E+06    -233.231E+06    -109.177E+06    -3.20727E+06    -165.010E-03     329.919E-03    -164.910E-03     35.8435E-03    -165.312E-03     329.225E-03    -164.919E-03     33.7488E-03
             941     3.05276E-03     121.283E-03    -127.111E+06    -209.484E+06    -86.1264E+06    -4.32990E+06    -165.156E-03     330.124E-03    -164.968E-03     46.4189E-03    -165.560E-03     329.583E-03    -164.910E-03     43.6431E-03
             942     3.81606E-03     121.348E-03    -116.625E+06    -186.477E+06    -64.7260E+06    -5.19903E+06    -165.313E-03     330.328E-03    -165.015E-03     56.0535E-03    -165.827E-03     329.953E-03    -164.899E-03     52.6169E-03
             943     4.57930E-03     121.426E-03    -106.110E+06    -164.059E+06    -45.8206E+06    -5.88388E+06    -165.468E-03     330.515E-03    -165.047E-03     64.5473E-03    -166.100E-03     330.321E-03    -164.885E-03     60.4849E-03
             944     5.34265E-03     121.513E-03    -96.0760E+06    -142.986E+06     -29.514E+06    -6.56483E+06    -165.593E-03     330.659E-03    -165.066E-03     71.7629E-03    -166.344E-03     330.647E-03    -164.867E-03     67.1272E-03
             945     6.10594E-03     121.609E-03    -86.6502E+06    -123.872E+06    -15.6296E+06    -7.08928E+06    -165.626E-03     330.696E-03    -165.071E-03     77.5172E-03    -166.487E-03     330.856E-03    -164.843E-03     72.3790E-03
             946     6.86948E-03     121.711E-03    -77.6124E+06    -105.111E+06    -3.34774E+06    -7.32439E+06    -165.549E-03     330.606E-03    -165.057E-03     81.8339E-03    -166.509E-03     330.927E-03    -164.809E-03     76.2771E-03
             947     7.63297E-03     121.818E-03    -69.4367E+06    -87.2443E+06     7.30859E+06    -7.52956E+06    -165.344E-03     330.366E-03    -165.022E-03     84.7099E-03    -166.386E-03     330.831E-03    -164.759E-03     78.8182E-03
             948     8.39676E-03     121.928E-03    -61.6156E+06     -69.882E+06     16.6234E+06    -7.53597E+06    -164.962E-03     329.923E-03    -164.962E-03     86.2750E-03    -166.064E-03     330.511E-03    -164.688E-03     80.1338E-03
             949     9.16079E-03     122.039E-03    -54.1775E+06    -49.8493E+06     25.7732E+06    -6.93135E+06    -164.356E-03     329.224E-03    -164.868E-03     86.8523E-03    -165.504E-03     329.929E-03    -164.589E-03     80.5437E-03
             950     9.92535E-03     122.149E-03    -47.1113E+06    -28.4320E+06     34.6892E+06    -6.12085E+06    -163.506E-03     328.241E-03    -164.735E-03     86.4537E-03    -164.690E-03     329.056E-03    -164.452E-03     80.0282E-03
             951     10.6908E-03     122.257E-03    -39.9594E+06    -1.81607E+06     44.0082E+06    -4.56293E+06    -162.381E-03     326.933E-03    -164.551E-03     84.9847E-03    -163.592E-03     327.868E-03    -164.271E-03     78.4935E-03
             952     11.4573E-03     122.360E-03    -32.6637E+06     32.0370E+06     52.9818E+06    -609.259E+03    -161.025E-03     325.331E-03    -164.307E-03     81.9222E-03    -162.255E-03     326.406E-03    -164.041E-03     75.4226E-03
             953     12.2250E-03     122.456E-03    -25.3481E+06     77.9500E+06     66.4387E+06     2.47052E+06    -159.561E-03     323.584E-03    -164.023E-03     76.4088E-03    -160.816E-03     324.833E-03    -163.767E-03     69.8898E-03
             954     12.9931E-03     122.542E-03    -18.8985E+06     106.809E+06     76.4511E+06     400.274E+03    -158.286E-03     322.006E-03    -163.720E-03     66.1859E-03    -159.490E-03     323.300E-03    -163.465E-03     59.6489E-03
             955     13.7627E-03     122.611E-03    -10.0898E+06     122.559E+06     96.4605E+06    -1.64199E+06    -157.926E-03     321.419E-03    -163.493E-03     55.2985E-03    -159.101E-03     322.714E-03    -163.174E-03     48.4944E-03
             956     14.5283E-03     122.671E-03    -4.88147E+06     133.584E+06     113.880E+06    -37.2951E+03    -158.794E-03     322.119E-03    -163.325E-03     33.9828E-03    -159.732E-03     323.184E-03    -162.943E-03     28.0355E-03
             957     762.725E-06     122.485E-03    -150.514E+06    -267.585E+06    -146.265E+06    -1.28990E+06    -165.449E-03     330.736E-03    -165.287E-03     13.4703E-03    -165.619E-03     329.846E-03    -165.412E-03     12.6881E-03
             958     1.52558E-03     122.509E-03    -144.813E+06    -251.241E+06    -130.119E+06    -2.64023E+06    -165.435E-03     330.837E-03    -165.402E-03     24.3794E-03    -165.660E-03     330.034E-03    -165.478E-03     22.9476E-03
             959     2.28832E-03     122.548E-03    -136.282E+06    -229.705E+06    -108.655E+06    -3.80376E+06    -165.555E-03     331.015E-03    -165.459E-03     35.4474E-03    -165.861E-03     330.336E-03    -165.472E-03     33.3278E-03
             960     3.05115E-03     122.601E-03    -126.355E+06    -205.903E+06     -85.642E+06    -4.58912E+06    -165.691E-03     331.209E-03    -165.518E-03     45.8425E-03    -166.096E-03     330.683E-03    -165.465E-03     43.0407E-03
             961     3.81393E-03     122.667E-03    -115.961E+06    -183.119E+06    -64.2194E+06    -5.60046E+06    -165.837E-03     331.403E-03    -165.566E-03     55.3029E-03    -166.352E-03     331.043E-03    -165.453E-03     51.8329E-03
             962     4.57682E-03     122.744E-03    -105.232E+06    -161.307E+06    -45.4908E+06    -6.45897E+06    -165.987E-03     331.586E-03    -165.598E-03     63.6571E-03    -166.617E-03     331.401E-03    -165.439E-03     59.5566E-03
             963     5.33962E-03     122.831E-03    -94.9442E+06    -140.418E+06    -29.2171E+06    -6.98127E+06    -166.065E-03     331.680E-03    -165.615E-03     70.7366E-03    -166.811E-03     331.675E-03    -165.420E-03     66.0666E-03
             964     6.10261E-03     122.927E-03    -85.2853E+06    -121.456E+06    -15.1385E+06    -7.57559E+06    -166.024E-03     331.636E-03    -165.612E-03     76.4407E-03    -166.879E-03     331.801E-03    -165.388E-03     71.2726E-03
             965     6.86561E-03     123.029E-03    -76.3458E+06    -103.674E+06    -2.92593E+06    -7.91812E+06    -165.816E-03     331.398E-03    -165.582E-03     80.8101E-03    -166.766E-03     331.717E-03    -165.335E-03     75.2354E-03
             966     7.62902E-03     123.135E-03    -67.8514E+06    -85.9123E+06     8.08867E+06    -7.91178E+06    -165.381E-03     330.897E-03    -165.516E-03     83.8842E-03    -166.410E-03     331.356E-03    -165.252E-03     78.0003E-03
             967     8.39280E-03     123.244E-03    -60.2416E+06    -69.0107E+06     17.5546E+06    -7.89824E+06    -164.708E-03     330.112E-03    -165.405E-03     85.7024E-03    -165.795E-03     330.690E-03    -165.129E-03     79.5947E-03
             968     9.15735E-03     123.354E-03    -52.9845E+06    -49.9295E+06     26.5205E+06    -7.77421E+06    -163.772E-03     329.013E-03    -165.241E-03     86.4312E-03    -164.904E-03     329.703E-03    -164.959E-03     80.1704E-03
             969     9.92280E-03     123.463E-03    -45.8581E+06    -29.0614E+06     35.3084E+06     -7.3784E+06    -162.630E-03     327.654E-03    -165.024E-03     86.0118E-03    -163.795E-03     328.450E-03    -164.738E-03     79.6420E-03
             970     10.6891E-03     123.569E-03    -38.9570E+06    -4.01551E+06     44.1837E+06    -6.75393E+06    -161.404E-03     326.158E-03    -164.754E-03     84.1588E-03    -162.594E-03     327.068E-03    -164.471E-03     77.7009E-03
             971     11.4562E-03     123.671E-03    -30.2897E+06     26.2327E+06     52.9415E+06    -5.92328E+06    -160.207E-03     324.648E-03    -164.441E-03     80.4593E-03    -161.406E-03     325.679E-03    -164.170E-03     73.9196E-03
             972     12.2237E-03     123.766E-03    -19.7079E+06     71.6125E+06     68.1318E+06    -2.49766E+06    -159.113E-03     323.229E-03    -164.117E-03     74.3909E-03    -160.323E-03     324.427E-03    -163.851E-03     67.8011E-03
             973     12.9921E-03     123.851E-03    -11.9279E+06     109.128E+06     82.1808E+06     1.56506E+06    -158.468E-03     322.277E-03    -163.809E-03     64.3813E-03    -159.640E-03     323.556E-03    -163.539E-03     57.8399E-03
             974     13.7586E-03     123.920E-03    -10.2287E+06     124.128E+06     97.2054E+06     1.50133E+06    -158.148E-03     321.725E-03    -163.577E-03     55.4845E-03    -159.319E-03     323.018E-03    -163.256E-03     48.7834E-03
             975     14.5276E-03     123.981E-03    -6.72018E+06     131.719E+06     111.862E+06     1.02484E+06    -157.626E-03     320.999E-03    -163.373E-03     35.9129E-03    -158.566E-03     322.058E-03    -162.995E-03     30.0950E-03
             976     762.241E-06     123.805E-03    -149.011E+06    -263.122E+06    -145.196E+06    -1.54052E+06    -166.195E-03     332.186E-03    -165.991E-03     13.2967E-03    -166.366E-03     331.315E-03    -166.119E-03     12.5021E-03
             977     1.52440E-03     123.829E-03    -143.429E+06    -246.570E+06    -129.090E+06    -2.69513E+06    -166.144E-03     332.268E-03    -166.124E-03     24.0591E-03    -166.371E-03     331.485E-03    -166.204E-03     22.6127E-03
             978     2.28670E-03     123.868E-03    -135.297E+06    -225.517E+06    -107.545E+06    -4.02308E+06    -166.236E-03     332.413E-03    -166.177E-03     34.9788E-03    -166.544E-03     331.752E-03    -166.191E-03     32.8372E-03
             979     3.04891E-03     123.921E-03    -125.141E+06    -202.332E+06    -84.8854E+06    -5.28775E+06    -166.358E-03     332.585E-03    -166.227E-03     45.2126E-03    -166.762E-03     332.073E-03    -166.177E-03     42.3783E-03
             980     3.81124E-03     123.986E-03    -114.294E+06    -179.450E+06    -63.3849E+06    -6.22491E+06    -166.476E-03     332.743E-03    -166.268E-03     54.5592E-03    -166.988E-03     332.396E-03    -166.159E-03     51.0559E-03
             981     4.57350E-03     124.063E-03    -103.743E+06    -158.041E+06    -44.5062E+06    -7.19817E+06    -166.532E-03     332.821E-03    -166.288E-03     62.8377E-03    -167.158E-03     332.646E-03    -166.131E-03     58.7063E-03
             982     5.33598E-03     124.151E-03    -93.2684E+06    -137.865E+06    -28.1678E+06    -7.96771E+06    -166.469E-03     332.749E-03    -166.280E-03     69.8901E-03    -167.207E-03     332.748E-03    -166.086E-03     65.1943E-03
             983     6.09856E-03     124.246E-03    -83.6268E+06    -119.256E+06    -13.9889E+06    -8.31953E+06    -166.248E-03     332.487E-03    -166.238E-03     75.6654E-03    -167.093E-03     332.652E-03    -166.014E-03     70.4892E-03
             984     6.86159E-03     124.347E-03    -74.6465E+06    -101.708E+06    -1.57955E+06    -8.77127E+06    -165.810E-03     331.965E-03    -166.155E-03     80.0927E-03    -166.747E-03     332.281E-03    -165.907E-03     74.5248E-03
             985     7.62509E-03     124.453E-03    -66.1294E+06    -85.0257E+06     9.15225E+06    -8.92030E+06    -165.111E-03     331.132E-03    -166.021E-03     83.1668E-03    -166.123E-03     331.581E-03    -165.756E-03     77.3044E-03
             986     8.38938E-03     124.561E-03    -58.2249E+06    -68.2616E+06     18.8358E+06     -8.4516E+06    -164.194E-03     330.025E-03    -165.831E-03     84.8960E-03    -165.261E-03     330.589E-03    -165.554E-03     78.8305E-03
             987     9.15436E-03     124.669E-03    -50.8911E+06    -49.1883E+06     27.9935E+06    -8.11733E+06    -163.090E-03     328.676E-03    -165.586E-03     85.3719E-03    -164.200E-03     329.349E-03    -165.301E-03     79.1611E-03
             988     9.92019E-03     124.776E-03    -44.2342E+06    -29.1538E+06     36.3726E+06    -7.78579E+06    -161.884E-03     327.174E-03    -165.290E-03     84.6845E-03    -163.025E-03     327.949E-03    -165.002E-03     78.3676E-03
             989     10.6869E-03     124.881E-03    -38.7213E+06    -4.74492E+06     44.7488E+06    -7.08011E+06    -160.703E-03     325.657E-03    -164.954E-03     82.7609E-03    -161.874E-03     326.544E-03    -164.667E-03     76.3635E-03
             990     11.4541E-03     124.981E-03    -35.0159E+06     27.1080E+06     52.3851E+06    -7.30197E+06    -159.616E-03     324.203E-03    -164.587E-03     79.4102E-03    -160.822E-03     325.229E-03    -164.313E-03     72.9294E-03
             991     12.2221E-03     125.075E-03    -31.1534E+06     66.4494E+06     62.9794E+06    -7.93288E+06    -158.690E-03     322.910E-03    -164.220E-03     74.2187E-03    -159.928E-03     324.091E-03    -163.957E-03     67.6476E-03
             992     12.9900E-03     125.159E-03    -22.8255E+06     99.1328E+06      70.389E+06    -3.43654E+06    -157.881E-03     321.731E-03    -163.850E-03     65.4552E-03    -159.067E-03     322.984E-03    -163.609E-03     58.9628E-03
             993     13.7597E-03     125.229E-03    -12.4033E+06     122.948E+06     89.9838E+06     3.38493E+06    -157.087E-03     320.650E-03    -163.563E-03     57.0060E-03    -158.250E-03     321.945E-03    -163.273E-03     50.4571E-03
             994     14.5287E-03     125.287E-03    -5.67929E+06     134.928E+06     112.622E+06     2.77870E+06    -156.831E-03     320.166E-03    -163.335E-03     36.8725E-03    -157.770E-03     321.237E-03    -162.960E-03     31.1527E-03
             995     761.491E-06     125.127E-03    -147.308E+06    -257.982E+06    -143.777E+06    -1.80603E+06    -167.077E-03     333.945E-03    -166.868E-03     13.1247E-03    -167.249E-03     333.095E-03    -166.999E-03     12.3210E-03
             996     1.52310E-03     125.151E-03    -141.673E+06    -241.969E+06    -127.801E+06    -3.11071E+06    -167.002E-03     334.002E-03    -167.000E-03     23.7858E-03    -167.228E-03     333.237E-03    -167.082E-03     22.3210E-03
             997     2.28461E-03     125.190E-03    -133.137E+06    -220.521E+06    -105.959E+06    -4.54319E+06    -167.037E-03     334.076E-03    -167.039E-03     34.5815E-03    -167.342E-03     333.433E-03    -167.056E-03     32.4179E-03
             998     3.04633E-03     125.242E-03    -123.363E+06    -198.012E+06    -83.3549E+06    -5.90792E+06    -167.085E-03     334.154E-03    -167.069E-03     44.7394E-03    -167.487E-03     333.657E-03    -167.020E-03     41.8818E-03
             999     3.80796E-03     125.308E-03    -112.705E+06    -175.676E+06    -62.1132E+06    -7.08234E+06    -167.099E-03     334.178E-03    -167.079E-03     54.0361E-03    -167.607E-03     333.843E-03    -166.971E-03     50.5098E-03
            1000     4.56988E-03     125.385E-03    -101.883E+06    -154.316E+06    -43.1482E+06    -8.05040E+06    -166.995E-03     334.053E-03    -167.058E-03     62.2774E-03    -167.615E-03     333.888E-03    -166.902E-03     58.1301E-03
            1001     5.33198E-03     125.472E-03    -91.9615E+06    -134.780E+06    -26.9757E+06    -8.93317E+06    -166.735E-03     333.731E-03    -166.996E-03     69.3011E-03    -167.467E-03     333.736E-03    -166.802E-03     64.5970E-03
            1002     6.09458E-03     125.566E-03    -82.2064E+06    -116.884E+06    -12.8759E+06    -9.66853E+06    -166.282E-03     333.169E-03    -166.887E-03     75.0122E-03    -167.117E-03     333.334E-03    -166.662E-03     69.8364E-03
            1003     6.85764E-03     125.667E-03    -72.9254E+06    -99.8180E+06    -486.657E+03    -9.86085E+06    -165.605E-03     332.330E-03    -166.725E-03     79.3149E-03    -166.528E-03     332.641E-03    -166.477E-03     73.7654E-03
            1004     7.62138E-03     125.771E-03    -64.4451E+06    -83.5413E+06     10.3335E+06    -9.91181E+06    -164.722E-03     331.230E-03    -166.508E-03     82.2548E-03    -165.716E-03     331.668E-03    -166.241E-03     76.4266E-03
            1005     8.38584E-03     125.877E-03    -56.2245E+06    -68.1280E+06     19.7071E+06    -9.76203E+06    -163.643E-03     329.877E-03    -166.234E-03     83.8579E-03    -164.685E-03     330.420E-03    -165.955E-03     77.8400E-03
            1006     9.15127E-03     125.984E-03    -48.4149E+06    -49.3170E+06     28.7820E+06    -8.87317E+06    -162.419E-03     328.325E-03    -165.905E-03     84.2960E-03    -163.498E-03     328.973E-03    -165.620E-03     78.1622E-03
            1007     9.91757E-03     126.089E-03    -41.8938E+06    -30.5552E+06     36.9504E+06    -7.04253E+06    -161.133E-03     326.665E-03    -165.532E-03     83.8025E-03    -162.240E-03     327.407E-03    -165.242E-03     77.6045E-03
            1008     10.6847E-03     126.192E-03    -36.3695E+06    -5.21240E+06     45.7240E+06    -5.51353E+06    -159.820E-03     324.940E-03    -165.120E-03     82.3987E-03    -160.956E-03     325.796E-03    -164.831E-03     76.1632E-03
            1009     11.4530E-03     126.291E-03    -31.6018E+06     24.6989E+06     53.4516E+06    -2.41312E+06    -158.650E-03     323.329E-03    -164.679E-03     79.7435E-03    -159.814E-03     324.313E-03    -164.401E-03     73.4947E-03
            1010     12.2216E-03     126.383E-03    -30.0703E+06     69.2858E+06     63.9527E+06    -564.576E+03    -157.703E-03     321.938E-03    -164.235E-03     75.4366E-03    -158.922E-03     323.111E-03    -163.973E-03     69.1436E-03
            1011     12.9911E-03     126.467E-03    -30.0004E+06     100.230E+06     67.7223E+06    -6.22474E+06    -157.103E-03     320.908E-03    -163.804E-03     66.8917E-03    -158.312E-03     322.170E-03    -163.568E-03     60.5037E-03
            1012     13.7603E-03     126.534E-03    -22.0904E+06     114.642E+06     78.4360E+06    -7.79256E+06    -156.799E-03     320.260E-03    -163.461E-03     57.5557E-03    -157.982E-03     321.544E-03    -163.203E-03     50.8889E-03
            1013     14.5301E-03     126.595E-03    -7.36300E+06     132.715E+06     105.142E+06    -1.82403E+06    -156.660E-03     319.885E-03    -163.225E-03     37.1055E-03    -157.592E-03     320.957E-03    -162.881E-03     31.3416E-03
            1014     760.784E-06     126.451E-03    -145.676E+06    -251.995E+06    -141.641E+06    -2.06928E+06    -168.040E-03     335.892E-03    -167.852E-03     13.0101E-03    -168.215E-03     335.066E-03    -167.983E-03     12.1961E-03
            1015     1.52151E-03     126.475E-03    -139.851E+06    -236.487E+06    -126.104E+06    -3.73476E+06    -167.915E-03     335.877E-03    -167.962E-03     23.6108E-03    -168.142E-03     335.133E-03    -168.047E-03     22.1302E-03
            1016     2.28246E-03     126.514E-03    -131.598E+06    -215.463E+06    -104.950E+06    -5.09284E+06    -167.875E-03     335.847E-03    -167.972E-03     34.3148E-03    -168.181E-03     335.225E-03    -167.993E-03     32.1369E-03
            1017     3.04343E-03     126.566E-03    -121.875E+06    -193.023E+06    -82.0450E+06    -6.49832E+06    -167.784E-03     335.747E-03    -167.964E-03     44.4154E-03    -168.186E-03     335.269E-03    -167.917E-03     41.5453E-03
            1018     3.80475E-03     126.631E-03    -111.214E+06    -171.141E+06    -60.7204E+06    -7.90359E+06    -167.620E-03     335.540E-03    -167.920E-03     53.6613E-03    -168.127E-03     335.220E-03    -167.814E-03     50.1270E-03
            1019     4.56623E-03     126.708E-03    -100.761E+06    -150.387E+06    -42.0984E+06    -9.05068E+06    -167.335E-03     335.167E-03    -167.832E-03     61.8234E-03    -167.951E-03     335.013E-03    -167.678E-03     57.6737E-03
            1020     5.32823E-03     126.794E-03    -90.4691E+06    -131.142E+06    -25.8654E+06    -9.99308E+06    -166.868E-03     334.563E-03    -167.695E-03     68.7679E-03    -167.592E-03     334.575E-03    -167.503E-03     64.0724E-03
            1021     6.09064E-03     126.887E-03    -80.8771E+06    -113.913E+06    -11.8993E+06    -10.6766E+06    -166.176E-03     333.679E-03    -167.503E-03     74.3928E-03    -166.999E-03     333.844E-03    -167.280E-03     69.2439E-03
            1022     6.85384E-03     126.986E-03    -71.9023E+06    -97.7506E+06     147.399E+03    -11.2266E+06    -165.267E-03     332.516E-03    -167.249E-03     78.6755E-03    -166.174E-03     332.821E-03    -167.003E-03     73.1730E-03
            1023     7.61787E-03     127.089E-03    -62.9712E+06    -81.7601E+06     10.9236E+06    -11.4771E+06    -164.184E-03     331.119E-03    -166.936E-03     81.6640E-03    -165.155E-03     331.545E-03    -166.671E-03     75.9092E-03
            1024     8.38282E-03     127.194E-03    -54.5583E+06    -67.0736E+06     20.1532E+06    -11.5382E+06    -162.919E-03     329.484E-03    -166.565E-03     83.3889E-03    -163.932E-03     330.007E-03    -166.288E-03     77.4719E-03
            1025     9.14877E-03     127.298E-03    -46.3561E+06    -50.1289E+06     28.7188E+06    -11.1374E+06    -161.488E-03     327.625E-03    -166.137E-03     84.1534E-03    -162.529E-03     328.240E-03    -165.853E-03     78.1484E-03
            1026     9.91584E-03     127.402E-03    -37.5581E+06    -33.7381E+06     37.1719E+06    -9.61125E+06    -160.026E-03     325.690E-03    -165.664E-03     84.1084E-03    -161.079E-03     326.382E-03    -165.375E-03     78.0656E-03
            1027     10.6842E-03     127.502E-03    -28.5053E+06    -8.10731E+06     47.3308E+06    -6.63283E+06    -158.669E-03     323.824E-03    -165.156E-03     83.1565E-03    -159.736E-03     324.625E-03    -164.866E-03     77.1120E-03
            1028     11.4533E-03     127.599E-03    -19.5579E+06     16.8872E+06     55.9175E+06    -2.57064E+06    -157.581E-03     322.214E-03    -164.633E-03     80.8197E-03    -158.652E-03     323.114E-03    -164.350E-03     74.7683E-03
            1029     12.2235E-03     127.690E-03    -10.4463E+06     63.7727E+06     68.9245E+06     4.03625E+06    -156.803E-03     320.922E-03    -164.119E-03     76.5600E-03    -157.903E-03     322.011E-03    -163.852E-03     70.5116E-03
            1030     12.9936E-03     127.774E-03    -6.32862E+06     114.129E+06     85.0407E+06     5.86905E+06    -156.758E-03     320.433E-03    -163.675E-03     68.4834E-03    -157.878E-03     321.689E-03    -163.406E-03     62.4304E-03
            1031     13.7623E-03     127.842E-03    -10.9002E+06     122.422E+06     92.7013E+06    -4.48268E+06    -157.449E-03     320.801E-03    -163.352E-03     59.5574E-03    -158.602E-03     322.081E-03    -163.050E-03     53.0386E-03
            1032     14.5305E-03     127.900E-03    -12.0103E+06     123.623E+06     101.115E+06    -8.39423E+06    -158.291E-03     321.428E-03    -163.136E-03     37.5945E-03    -159.227E-03     322.467E-03    -162.793E-03     31.7342E-03
            1033     759.924E-06     127.778E-03    -144.007E+06    -245.396E+06    -139.901E+06    -2.18110E+06    -169.004E-03     337.826E-03    -168.823E-03     12.9350E-03    -169.182E-03     337.029E-03    -168.958E-03     12.1175E-03
            1034     1.52010E-03     127.802E-03    -138.431E+06    -230.122E+06    -124.488E+06    -3.92684E+06    -168.801E-03     337.714E-03    -168.913E-03     23.4957E-03    -169.031E-03     336.998E-03    -169.002E-03     22.0129E-03
            1035     2.28025E-03     127.840E-03    -130.400E+06    -210.055E+06    -103.710E+06    -5.60762E+06    -168.637E-03     337.519E-03    -168.882E-03     34.1572E-03    -168.945E-03     336.919E-03    -168.907E-03     31.9735E-03
            1036     3.04077E-03     127.892E-03    -120.405E+06    -187.582E+06    -80.8292E+06    -7.07475E+06    -168.387E-03     337.205E-03    -168.818E-03     44.2273E-03    -168.789E-03     336.747E-03    -168.775E-03     41.3581E-03
            1037     3.80154E-03     127.957E-03    -110.316E+06    -165.995E+06    -59.7827E+06    -8.56612E+06    -168.025E-03     336.729E-03    -168.704E-03     53.4189E-03    -168.531E-03     336.427E-03    -168.603E-03     49.8967E-03
            1038     4.56288E-03     128.032E-03    -99.9279E+06    -145.829E+06    -41.3541E+06    -9.95890E+06    -167.506E-03     336.040E-03    -168.534E-03     61.5492E-03    -168.118E-03     335.900E-03    -168.385E-03     57.4259E-03
            1039     5.32466E-03     128.117E-03    -89.9293E+06    -127.474E+06    -25.4679E+06    -10.8875E+06    -166.779E-03     335.082E-03    -168.303E-03     68.5088E-03    -167.495E-03     335.100E-03    -168.115E-03     63.8654E-03
            1040     6.08734E-03     128.209E-03    -80.5650E+06    -110.514E+06    -11.6891E+06    -11.6274E+06    -165.818E-03     333.823E-03    -168.005E-03     74.2073E-03    -166.629E-03     333.990E-03    -167.786E-03     69.1406E-03
            1041     6.85088E-03     128.306E-03    -71.4281E+06    -94.1979E+06     428.392E+03    -12.6070E+06    -164.665E-03     332.304E-03    -167.640E-03     78.6719E-03    -165.555E-03     332.605E-03    -167.397E-03     73.2813E-03
            1042     7.61542E-03     128.407E-03    -62.8016E+06    -79.6159E+06     10.5240E+06    -13.3481E+06    -163.320E-03     330.529E-03    -167.208E-03     81.8755E-03    -164.268E-03     330.941E-03    -166.949E-03     76.2637E-03
            1043     8.38116E-03     128.509E-03    -54.6870E+06    -65.0455E+06     19.5692E+06    -13.6589E+06    -161.804E-03     328.520E-03    -166.717E-03     83.8810E-03    -162.791E-03     329.026E-03    -166.445E-03     78.1391E-03
            1044     9.14817E-03     128.611E-03    -47.0156E+06    -48.9535E+06     28.0424E+06    -14.0479E+06    -160.229E-03     326.400E-03    -166.172E-03     84.9277E-03    -161.243E-03     326.993E-03    -165.892E-03     79.1104E-03
            1045     9.91662E-03     128.712E-03    -39.2290E+06    -34.3676E+06     35.9051E+06    -14.2849E+06    -158.812E-03     324.406E-03    -165.594E-03     85.0629E-03    -159.838E-03     325.067E-03    -165.308E-03     79.1892E-03
            1046     10.6859E-03     128.810E-03    -30.7786E+06    -13.6420E+06     44.6988E+06    -12.5930E+06    -157.715E-03     322.723E-03    -165.008E-03     84.0455E-03    -158.752E-03     323.473E-03    -164.720E-03     78.1319E-03
            1047     11.4562E-03     128.906E-03    -22.0325E+06     11.3351E+06     53.3347E+06    -9.75107E+06    -157.088E-03     321.530E-03    -164.442E-03     81.4011E-03    -158.134E-03     322.384E-03    -164.160E-03     75.4134E-03
            1048     12.2264E-03     128.996E-03    -12.6835E+06     49.5880E+06     64.8996E+06    -4.98805E+06    -157.003E-03     320.935E-03    -163.932E-03     76.4782E-03    -158.071E-03     321.946E-03    -163.661E-03     70.3772E-03
            1049     12.9967E-03     129.079E-03    -751.074E+03     107.337E+06     81.2755E+06     4.43871E+06    -157.296E-03     320.796E-03    -163.499E-03     67.2895E-03    -158.363E-03     322.005E-03    -163.248E-03     61.1898E-03
            1050     13.7670E-03     129.150E-03     4.09243E+06     138.838E+06     106.057E+06     8.85698E+06    -158.397E-03     321.662E-03    -163.266E-03     57.4420E-03    -159.504E-03     322.969E-03    -162.943E-03     51.0594E-03
            1051     14.5340E-03     129.211E-03    -10.3975E+06     127.138E+06     109.330E+06     2.34247E+06    -160.546E-03     323.700E-03    -163.153E-03     36.4908E-03    -161.481E-03     324.732E-03    -162.776E-03     30.7445E-03
            1052     759.349E-06     129.107E-03    -142.214E+06    -238.394E+06    -138.897E+06    -2.36200E+06    -169.813E-03     339.497E-03    -169.683E-03     12.9410E-03    -169.995E-03     338.730E-03    -169.826E-03     12.1250E-03
            1053     1.51865E-03     129.131E-03    -137.211E+06    -223.641E+06    -123.323E+06    -4.03019E+06    -169.541E-03     339.270E-03    -169.729E-03     23.5084E-03    -169.776E-03     338.582E-03    -169.822E-03     22.0330E-03
            1054     2.27841E-03     129.169E-03    -129.288E+06    -203.762E+06    -102.521E+06    -5.85972E+06    -169.223E-03     338.871E-03    -169.648E-03     34.1741E-03    -169.534E-03     338.297E-03    -169.678E-03     32.0077E-03
            1055     3.03847E-03     129.220E-03    -119.694E+06    -182.073E+06    -80.3304E+06    -7.43827E+06    -168.788E-03     338.302E-03    -169.513E-03     44.2637E-03    -169.191E-03     337.865E-03    -169.477E-03     41.4283E-03
            1056     3.79905E-03     129.284E-03    -109.473E+06    -160.364E+06    -59.3283E+06    -8.89771E+06    -168.177E-03     337.490E-03    -169.313E-03     53.5135E-03    -168.680E-03     337.208E-03    -169.219E-03     50.0480E-03
            1057     4.56022E-03     129.358E-03    -99.5458E+06    -140.998E+06    -40.9669E+06    -10.2060E+06    -167.351E-03     336.390E-03    -169.039E-03     61.7828E-03    -167.957E-03     336.261E-03    -168.895E-03     57.7489E-03
            1058     5.32237E-03     129.441E-03    -90.0553E+06    -123.247E+06    -25.3095E+06    -11.3523E+06    -166.312E-03     334.998E-03    -168.687E-03     68.9199E-03    -167.018E-03     335.021E-03    -168.504E-03     64.4017E-03
            1059     6.08542E-03     129.531E-03    -80.7792E+06    -106.145E+06    -11.6908E+06    -12.6112E+06    -165.082E-03     333.340E-03    -168.258E-03     74.8401E-03    -165.879E-03     333.507E-03    -168.045E-03     69.9312E-03
            1060     6.84967E-03     129.626E-03    -71.9664E+06    -90.2182E+06     214.447E+03    -13.5903E+06    -163.671E-03     331.431E-03    -167.760E-03     79.5435E-03    -164.542E-03     331.726E-03    -167.524E-03     74.3485E-03
            1061     7.61521E-03     129.724E-03    -64.0704E+06    -76.1683E+06     10.1456E+06    -14.4170E+06    -162.111E-03     329.309E-03    -167.198E-03     82.9315E-03    -163.038E-03     329.710E-03    -166.944E-03     77.5429E-03
            1062     8.38213E-03     129.823E-03    -56.8924E+06    -62.5412E+06     18.7254E+06    -15.0084E+06    -160.525E-03     327.111E-03    -166.585E-03     85.0074E-03    -161.492E-03     327.599E-03    -166.319E-03     79.5001E-03
            1063     9.15047E-03     129.923E-03    -50.5508E+06    -46.0106E+06     26.9712E+06    -15.3962E+06    -159.161E-03     325.106E-03    -165.945E-03     85.9028E-03    -160.160E-03     325.684E-03    -165.670E-03     80.3122E-03
            1064     9.91963E-03     130.021E-03    -45.2681E+06    -32.7148E+06     33.3770E+06    -15.4465E+06    -158.207E-03     323.521E-03    -165.314E-03     85.6229E-03    -159.228E-03     324.168E-03    -165.034E-03     79.9420E-03
            1065     10.6895E-03     130.118E-03    -40.7055E+06    -14.1953E+06     39.8852E+06    -15.6399E+06    -157.681E-03     322.401E-03    -164.719E-03     84.0364E-03    -158.729E-03     323.138E-03    -164.440E-03     78.2351E-03
            1066     11.4593E-03     130.212E-03    -35.8029E+06     7.74330E+06     45.4196E+06    -14.6800E+06    -157.738E-03     321.927E-03    -164.189E-03     80.9249E-03    -158.812E-03     322.770E-03    -163.921E-03     74.9567E-03
            1067     12.2286E-03     130.303E-03    -30.1070E+06     40.8692E+06     55.6086E+06    -11.4377E+06    -158.375E-03     322.142E-03    -163.767E-03     75.8726E-03    -159.489E-03     323.132E-03    -163.504E-03     69.6964E-03
            1068     12.9961E-03     130.387E-03    -23.5358E+06     91.2376E+06     63.7580E+06    -6.71830E+06    -159.108E-03     322.528E-03    -163.419E-03     66.5575E-03    -160.236E-03     323.711E-03    -163.199E-03     60.2289E-03
            1069     13.7622E-03     130.458E-03    -14.7227E+06     126.751E+06     80.1942E+06     4.02677E+06    -159.377E-03     322.595E-03    -163.218E-03     57.1672E-03    -160.522E-03     323.905E-03    -162.979E-03     50.6507E-03
            1070     14.5287E-03     130.524E-03    -5.97430E+06     134.429E+06     103.023E+06     10.5713E+06    -159.041E-03     322.168E-03    -163.128E-03     38.7441E-03    -159.958E-03     323.243E-03    -162.799E-03     33.1740E-03
            1071     758.779E-06     130.439E-03    -141.544E+06    -231.570E+06    -137.322E+06    -1.99943E+06    -170.324E-03     340.580E-03    -170.257E-03     13.0741E-03    -170.513E-03     339.843E-03    -170.402E-03     12.2810E-03
            1072     1.51788E-03     130.462E-03    -136.157E+06    -216.959E+06    -122.135E+06    -3.96863E+06    -169.955E-03     340.199E-03    -170.244E-03     23.6742E-03    -170.195E-03     339.539E-03    -170.342E-03     22.2342E-03
            1073     2.27720E-03     130.499E-03    -128.153E+06    -197.363E+06    -101.451E+06    -5.74858E+06    -169.472E-03     339.572E-03    -170.100E-03     34.4836E-03    -169.784E-03     339.023E-03    -170.135E-03     32.3759E-03
            1074     3.03709E-03     130.550E-03    -118.761E+06    -176.217E+06    -79.5647E+06    -7.42934E+06    -168.779E-03     338.657E-03    -169.878E-03     44.7480E-03    -169.179E-03     338.241E-03    -169.848E-03     41.9996E-03
            1075     3.79772E-03     130.612E-03    -108.775E+06    -154.837E+06    -58.8160E+06    -8.88250E+06    -167.851E-03     337.416E-03    -169.565E-03     54.2186E-03    -168.349E-03     337.149E-03    -169.477E-03     50.8770E-03
            1076     4.55939E-03     130.684E-03    -99.0975E+06    -135.855E+06    -40.3105E+06    -10.2388E+06    -166.715E-03     335.877E-03    -169.162E-03     62.7232E-03    -167.312E-03     335.757E-03    -169.023E-03     58.8546E-03
            1077     5.32209E-03     130.764E-03    -89.6407E+06    -118.295E+06    -24.4899E+06    -11.5671E+06    -165.393E-03     334.064E-03    -168.671E-03     70.1093E-03    -166.084E-03     334.088E-03    -168.492E-03     65.7958E-03
            1078     6.08615E-03     130.852E-03    -80.5296E+06    -101.375E+06    -10.9197E+06    -12.6522E+06    -163.941E-03     332.045E-03    -168.104E-03     76.2762E-03    -164.717E-03     332.207E-03    -167.895E-03     71.6115E-03
            1079     6.85146E-03     130.944E-03    -72.3654E+06    -86.1909E+06     569.366E+03    -13.5165E+06    -162.413E-03     329.890E-03    -167.477E-03     81.0913E-03    -163.261E-03     330.173E-03    -167.244E-03     76.1668E-03
            1080     7.61820E-03     131.039E-03    -65.1724E+06    -72.4415E+06     10.2347E+06    -14.0603E+06    -160.921E-03     327.730E-03    -166.809E-03     84.3888E-03    -161.823E-03     328.114E-03    -166.559E-03     79.2825E-03
            1081     8.38620E-03     131.136E-03    -58.6779E+06    -59.1474E+06     18.4704E+06    -14.5351E+06    -159.667E-03     325.795E-03    -166.128E-03     86.1899E-03    -160.609E-03     326.265E-03    -165.865E-03     80.9509E-03
            1082     9.15496E-03     131.233E-03    -52.4957E+06    -43.5881E+06     26.0007E+06    -14.6416E+06    -158.820E-03     324.286E-03    -165.466E-03     86.8212E-03    -159.793E-03     324.842E-03    -165.196E-03     81.4734E-03
            1083     9.92419E-03     131.329E-03    -46.7346E+06    -31.1808E+06     32.0171E+06    -14.3540E+06    -158.443E-03     323.302E-03    -164.859E-03     86.3735E-03    -159.436E-03     323.925E-03    -164.586E-03     80.9055E-03
            1084     10.6931E-03     131.425E-03    -41.4169E+06    -11.9407E+06     38.4569E+06    -13.8606E+06    -158.469E-03     322.794E-03    -164.325E-03     84.9975E-03    -159.491E-03     323.515E-03    -164.055E-03     79.3848E-03
            1085     11.4618E-03     131.520E-03    -37.4346E+06     4.82982E+06     42.6413E+06    -11.9610E+06    -158.843E-03     322.721E-03    -163.879E-03     82.7728E-03    -159.890E-03     323.529E-03    -163.618E-03     77.0012E-03
            1086     12.2293E-03     131.611E-03    -34.3811E+06     38.9477E+06     50.1229E+06    -10.6942E+06    -159.303E-03     322.822E-03    -163.518E-03     79.5631E-03    -160.406E-03     323.795E-03    -163.274E-03     73.6031E-03
            1087     12.9967E-03     131.698E-03    -30.9528E+06     80.0750E+06     56.2067E+06    -6.56338E+06    -159.738E-03     322.963E-03    -163.225E-03     72.8693E-03    -160.865E-03     324.101E-03    -163.015E-03     66.8172E-03
            1088     13.7635E-03     131.770E-03    -23.5722E+06     108.162E+06     60.9558E+06    -338.080E+03    -159.491E-03     322.485E-03    -162.994E-03     64.8685E-03    -160.636E-03     323.753E-03    -162.812E-03     58.5306E-03
            1089     14.5321E-03     131.830E-03    -872.015E+03     137.600E+06     97.8088E+06     313.028E+03    -158.355E-03     321.260E-03    -162.905E-03     43.7733E-03    -159.261E-03     322.368E-03    -162.614E-03     38.1494E-03
            1090     758.737E-06     131.772E-03    -140.678E+06    -225.075E+06    -137.033E+06    -2.10796E+06    -170.342E-03     340.614E-03    -170.272E-03     13.3453E-03    -170.536E-03     339.908E-03    -170.427E-03     12.5852E-03
            1091     1.51765E-03     131.794E-03    -135.022E+06    -210.114E+06    -121.176E+06    -3.90490E+06    -169.811E-03     340.036E-03    -170.225E-03     24.1555E-03    -170.053E-03     339.404E-03    -170.330E-03     22.7857E-03
            1092     2.27718E-03     131.830E-03    -126.745E+06    -191.193E+06    -100.315E+06    -5.64797E+06    -169.100E-03     339.098E-03    -169.998E-03     35.2696E-03    -169.410E-03     338.571E-03    -170.039E-03     33.2698E-03
            1093     3.03747E-03     131.879E-03    -117.482E+06    -170.152E+06    -78.0929E+06    -7.22907E+06    -168.125E-03     337.793E-03    -169.667E-03     45.8536E-03    -168.521E-03     337.394E-03    -169.641E-03     43.2563E-03
            1094     3.79879E-03     131.939E-03    -107.748E+06    -149.425E+06    -57.3262E+06    -8.70690E+06    -166.931E-03     336.161E-03    -169.230E-03     55.6308E-03    -167.419E-03     335.902E-03    -169.144E-03     52.4860E-03
            1095     4.56124E-03     132.008E-03    -97.8122E+06    -130.642E+06    -38.9012E+06    -9.95820E+06    -165.565E-03     334.262E-03    -168.697E-03     64.4044E-03    -166.144E-03     334.143E-03    -168.560E-03     60.7772E-03
            1096     5.32507E-03     132.086E-03    -88.5366E+06    -113.039E+06    -23.1344E+06    -11.2177E+06    -164.095E-03     332.178E-03    -168.083E-03     72.0070E-03    -164.763E-03     332.197E-03    -167.906E-03     67.9731E-03
            1097     6.09023E-03     132.171E-03    -79.6835E+06    -97.0908E+06    -9.91955E+06    -12.1543E+06    -162.606E-03     330.015E-03    -167.409E-03     78.2613E-03    -163.352E-03     330.162E-03    -167.202E-03     73.9049E-03
            1098     6.85679E-03     132.260E-03    -71.6401E+06    -82.3552E+06     1.30817E+06    -12.6302E+06    -161.224E-03     327.927E-03    -166.703E-03     83.0276E-03    -162.036E-03     328.189E-03    -166.473E-03     78.4259E-03
            1099     7.62441E-03     132.352E-03    -64.0683E+06    -68.9001E+06     11.0131E+06    -13.2125E+06    -160.113E-03     326.111E-03    -165.998E-03     86.2748E-03    -160.975E-03     326.469E-03    -165.751E-03     81.4847E-03
            1100     8.39273E-03     132.447E-03    -56.6965E+06    -55.7734E+06     19.2910E+06    -13.8414E+06    -159.363E-03     324.689E-03    -165.326E-03     88.1543E-03    -160.259E-03     325.130E-03    -165.066E-03     83.2142E-03
            1101     9.16147E-03     132.542E-03    -49.6753E+06    -41.6297E+06     26.8540E+06    -13.9961E+06    -158.951E-03     323.662E-03    -164.711E-03     89.1092E-03    -159.873E-03     324.182E-03    -164.444E-03     84.0458E-03
            1102     9.93027E-03     132.638E-03    -42.7724E+06    -29.6536E+06     33.7126E+06    -13.7022E+06    -158.868E-03     323.039E-03    -164.172E-03     89.3647E-03    -159.807E-03     323.624E-03    -163.898E-03     84.1786E-03
            1103     10.6991E-03     132.734E-03    -36.3035E+06    -11.2378E+06     40.9648E+06    -13.2370E+06    -159.047E-03     322.757E-03    -163.710E-03     89.0414E-03    -160.014E-03     323.436E-03    -163.436E-03     83.7103E-03
            1104     11.4676E-03     132.828E-03    -29.6316E+06     939.035E+03     46.1550E+06    -11.3412E+06    -159.344E-03     322.674E-03    -163.330E-03     87.8505E-03    -160.326E-03     323.420E-03    -163.057E-03     82.3551E-03
            1105     12.2365E-03     132.920E-03    -23.3163E+06     38.3786E+06     54.9706E+06    -8.14072E+06    -159.532E-03     322.536E-03    -163.004E-03     85.0428E-03    -160.568E-03     323.466E-03    -162.751E-03     79.3693E-03
            1106     13.0054E-03     133.006E-03    -17.6932E+06     71.9301E+06     61.2104E+06    -5.47723E+06    -159.745E-03     322.484E-03    -162.739E-03     77.4138E-03    -160.791E-03     323.545E-03    -162.512E-03     71.5861E-03
            1107     13.7743E-03     133.079E-03    -8.21739E+06     106.673E+06     73.8081E+06    -4.94125E+06    -160.464E-03     323.041E-03    -162.578E-03     66.7655E-03    -161.548E-03     324.261E-03    -162.351E-03     60.4057E-03
            1108     14.5410E-03     133.139E-03    -31.8855E+03     140.245E+06     104.969E+06    -4.96292E+06    -162.157E-03     324.777E-03    -162.620E-03     43.0996E-03    -163.074E-03     325.888E-03    -162.299E-03     37.2797E-03
            1109     759.197E-06     133.103E-03    -138.603E+06    -218.075E+06    -135.119E+06    -2.45321E+06    -169.498E-03     338.963E-03    -169.465E-03     13.8347E-03    -169.693E-03     338.284E-03    -169.624E-03     13.1264E-03
            1110     1.51886E-03     133.125E-03    -132.883E+06    -203.664E+06    -119.692E+06    -3.95758E+06    -168.815E-03     338.171E-03    -169.357E-03     25.0647E-03    -169.055E-03     337.564E-03    -169.467E-03     23.7973E-03
            1111     2.27915E-03     133.159E-03    -125.336E+06    -184.966E+06    -99.1262E+06    -5.59491E+06    -167.904E-03     336.950E-03    -169.046E-03     36.5846E-03    -168.211E-03     336.443E-03    -169.092E-03     34.7435E-03
            1112     3.04047E-03     133.206E-03    -116.063E+06    -164.193E+06    -76.8672E+06    -7.23639E+06    -166.739E-03     335.359E-03    -168.620E-03     47.5181E-03    -167.126E-03     334.973E-03    -168.598E-03     45.1329E-03
            1113     3.80293E-03     133.263E-03    -106.015E+06    -144.050E+06    -55.7753E+06    -8.56890E+06    -165.386E-03     333.473E-03    -168.086E-03     57.6253E-03    -165.856E-03     333.217E-03    -168.003E-03     54.7436E-03
            1114     4.56674E-03     133.330E-03    -96.0932E+06    -125.594E+06    -37.5224E+06    -9.73898E+06    -163.958E-03     331.422E-03    -167.464E-03     66.7227E-03    -164.512E-03     331.298E-03    -167.331E-03     63.4013E-03
            1115     5.33188E-03     133.405E-03    -86.2989E+06    -108.259E+06    -21.7864E+06    -10.6463E+06    -162.566E-03     329.349E-03    -166.783E-03     74.5528E-03    -163.198E-03     329.354E-03    -166.610E-03     70.8616E-03
            1116     6.09829E-03     133.487E-03    -77.4574E+06    -92.7147E+06    -8.50874E+06    -11.5990E+06    -161.291E-03     327.367E-03    -166.076E-03     80.9531E-03    -161.995E-03     327.492E-03    -165.872E-03     76.9561E-03
            1117     6.86574E-03     133.573E-03    -68.8953E+06    -78.6134E+06     2.95901E+06    -12.6821E+06    -160.246E-03     325.620E-03    -165.374E-03     85.9313E-03    -161.009E-03     325.850E-03    -165.145E-03     81.6860E-03
            1118     7.63401E-03     133.663E-03    -60.3147E+06    -65.3457E+06     13.1623E+06    -13.4552E+06    -159.537E-03     324.243E-03    -164.706E-03     89.5532E-03    -160.343E-03     324.565E-03    -164.458E-03     85.1147E-03
            1119     8.40275E-03     133.756E-03    -52.4453E+06    -52.5042E+06     22.0317E+06    -14.1383E+06    -159.167E-03     323.265E-03    -164.098E-03     91.9768E-03    -160.005E-03     323.667E-03    -163.836E-03     87.3817E-03
            1120     9.17173E-03     133.851E-03    -45.1253E+06    -39.5281E+06     30.0591E+06    -14.4896E+06    -159.065E-03     322.630E-03    -163.565E-03     93.4674E-03    -159.929E-03     323.107E-03    -163.292E-03     88.7323E-03
            1121     9.94093E-03     133.946E-03    -38.3856E+06    -28.1724E+06     37.0594E+06    -14.4032E+06    -159.200E-03     322.313E-03    -163.113E-03     94.1475E-03    -160.087E-03     322.856E-03    -162.831E-03     89.2615E-03
            1122     10.7099E-03     134.042E-03    -32.0750E+06    -10.3316E+06     44.5600E+06    -13.9444E+06    -159.545E-03     322.284E-03    -162.739E-03     93.8293E-03    -160.467E-03     322.926E-03    -162.454E-03     88.7565E-03
            1123     11.4789E-03     134.136E-03    -25.8462E+06    -72.5899E+03     49.8525E+06    -13.8933E+06    -160.198E-03     322.653E-03    -162.455E-03     91.8863E-03    -161.145E-03     323.364E-03    -162.169E-03     86.5390E-03
            1124     12.2469E-03     134.228E-03    -17.9709E+06     33.3197E+06     58.8694E+06    -11.5741E+06    -161.076E-03     323.329E-03    -162.252E-03     87.5183E-03    -162.076E-03     324.212E-03    -161.980E-03     81.8607E-03
            1125     13.0136E-03     134.316E-03    -10.5149E+06     69.7471E+06     67.8832E+06    -8.58737E+06    -162.201E-03     324.351E-03    -162.150E-03     77.6801E-03    -163.214E-03     325.378E-03    -161.897E-03     71.7505E-03
            1126     13.7785E-03     134.389E-03    -7.89427E+06     106.315E+06     82.0228E+06    -6.23462E+06    -163.852E-03     326.051E-03    -162.199E-03     65.9957E-03    -164.944E-03     327.254E-03    -161.931E-03     59.4929E-03
            1127     14.5408E-03     134.457E-03    -6.17819E+06     134.513E+06     105.399E+06    -1.32748E+06    -165.720E-03     328.146E-03    -162.425E-03     43.2935E-03    -166.659E-03     329.234E-03    -162.084E-03     37.4334E-03
            1128     760.709E-06     134.432E-03    -136.059E+06    -210.801E+06    -132.315E+06    -2.21971E+06    -167.466E-03     334.967E-03    -167.501E-03     14.5398E-03    -167.663E-03     334.315E-03    -167.659E-03     13.9156E-03
            1129     1.52180E-03     134.452E-03    -130.986E+06    -197.299E+06    -117.740E+06    -3.94963E+06    -166.750E-03     334.089E-03    -167.339E-03     26.2600E-03    -166.988E-03     333.502E-03    -167.451E-03     25.1354E-03
            1130     2.28377E-03     134.485E-03    -123.324E+06    -178.699E+06    -97.5290E+06    -5.55245E+06    -165.776E-03     332.768E-03    -166.991E-03     38.2995E-03    -166.075E-03     332.277E-03    -167.041E-03     36.6671E-03
            1131     3.04668E-03     134.529E-03    -113.869E+06    -158.299E+06    -75.5077E+06    -7.10459E+06    -164.566E-03     331.093E-03    -166.527E-03     49.7118E-03    -164.936E-03     330.715E-03    -166.510E-03     47.5962E-03
            1132     3.81088E-03     134.583E-03    -103.961E+06    -138.495E+06    -54.6033E+06    -8.61303E+06    -163.245E-03     329.209E-03    -165.964E-03     60.2716E-03    -163.691E-03     328.952E-03    -165.886E-03     57.7088E-03
            1133     4.57639E-03     134.648E-03    -93.7116E+06    -120.318E+06    -36.0905E+06    -10.0650E+06    -161.978E-03     327.313E-03    -165.334E-03     69.7723E-03    -162.499E-03     327.177E-03    -165.204E-03     66.8094E-03
            1134     5.34305E-03     134.720E-03    -83.6091E+06    -103.915E+06    -20.1538E+06    -11.1948E+06    -160.835E-03     325.509E-03    -164.674E-03     77.9596E-03    -161.425E-03     325.491E-03    -164.503E-03     74.6509E-03
            1135     6.11074E-03     134.799E-03    -74.0125E+06    -88.2127E+06    -6.20859E+06    -12.1059E+06    -159.906E-03     323.922E-03    -164.015E-03     84.8066E-03    -160.560E-03     324.017E-03    -163.811E-03     81.2061E-03
            1136     6.87925E-03     134.883E-03    -65.2039E+06    -73.9692E+06     5.86118E+06    -13.2056E+06    -159.287E-03     322.677E-03    -163.390E-03     90.3009E-03    -159.996E-03     322.875E-03    -163.159E-03     86.4516E-03
            1137     7.64830E-03     134.972E-03    -57.1332E+06    -61.6384E+06     15.9886E+06    -14.2239E+06    -158.983E-03     321.806E-03    -162.823E-03     94.4003E-03    -159.737E-03     322.092E-03    -162.571E-03     90.3410E-03
            1138     8.41770E-03     135.064E-03    -49.5809E+06    -49.0981E+06     25.0042E+06    -14.7568E+06    -159.018E-03     321.350E-03    -162.332E-03     97.1349E-03    -159.808E-03     321.717E-03    -162.064E-03     92.8951E-03
            1139     9.18707E-03     135.158E-03    -42.8392E+06    -37.1393E+06     32.8029E+06    -15.0134E+06    -159.416E-03     321.349E-03    -161.933E-03     98.6020E-03    -160.238E-03     321.792E-03    -161.653E-03     94.1782E-03
            1140     9.95601E-03     135.253E-03    -36.6647E+06    -26.1034E+06     39.3156E+06    -15.1721E+06    -160.145E-03     321.779E-03    -161.634E-03     98.8434E-03    -160.998E-03     322.295E-03    -161.346E-03     94.2001E-03
            1141     10.7244E-03     135.349E-03    -30.8623E+06    -9.49167E+06     46.1711E+06    -14.7701E+06    -161.163E-03     322.602E-03    -161.439E-03     97.6439E-03    -162.058E-03     323.220E-03    -161.150E-03     92.7334E-03
            1142     11.4916E-03     135.445E-03    -25.7940E+06     1.43832E+06     51.3325E+06    -13.9407E+06    -162.590E-03     323.953E-03    -161.363E-03     94.7617E-03    -163.523E-03     324.651E-03    -161.071E-03     89.5132E-03
            1143     12.2573E-03     135.539E-03    -22.2620E+06     31.0886E+06     57.9625E+06    -13.5711E+06    -164.215E-03     325.606E-03    -161.392E-03     89.7857E-03    -165.220E-03     326.475E-03    -161.115E-03     84.1362E-03
            1144     13.0213E-03     135.629E-03    -19.1540E+06     62.6055E+06     64.1865E+06    -9.57138E+06    -165.974E-03     327.510E-03    -161.536E-03     80.3817E-03    -167.012E-03     328.516E-03    -161.278E-03     74.4326E-03
            1145     13.7830E-03     135.707E-03    -14.2744E+06     98.7210E+06     74.6017E+06    -3.02861E+06    -167.610E-03     329.409E-03    -161.799E-03     69.8081E-03    -168.715E-03     330.598E-03    -161.548E-03     63.3441E-03
            1146     14.5442E-03     135.776E-03    -6.32548E+06     130.483E+06     101.981E+06    -1.15240E+06    -168.661E-03     330.882E-03    -162.221E-03     46.4404E-03    -169.596E-03     331.962E-03    -161.891E-03     40.5700E-03
            1147     763.249E-06     135.753E-03    -133.298E+06    -203.809E+06    -130.446E+06    -2.13533E+06    -164.139E-03     328.241E-03    -164.102E-03     15.4023E-03    -164.333E-03     327.615E-03    -164.265E-03     14.8795E-03
            1148     1.52695E-03     135.772E-03    -128.557E+06    -190.612E+06    -115.517E+06    -3.97657E+06    -163.493E-03     327.483E-03    -163.991E-03     27.7477E-03    -163.727E-03     326.918E-03    -164.105E-03     26.7967E-03
            1149     2.29125E-03     135.803E-03    -120.784E+06    -172.215E+06    -95.6481E+06    -5.85587E+06    -162.610E-03     326.287E-03    -163.678E-03     40.4152E-03    -162.897E-03     325.811E-03    -163.731E-03     39.0263E-03
            1150     3.05667E-03     135.845E-03    -111.583E+06    -152.302E+06    -73.8741E+06    -7.49968E+06    -161.551E-03     324.806E-03    -163.255E-03     52.4415E-03    -161.902E-03     324.433E-03    -163.242E-03     50.6330E-03
            1151     3.82316E-03     135.897E-03    -101.527E+06    -132.647E+06    -52.9974E+06    -8.95832E+06    -160.517E-03     323.272E-03    -162.754E-03     63.6036E-03    -160.935E-03     323.011E-03    -162.680E-03     61.4005E-03
            1152     4.59064E-03     135.959E-03    -91.5314E+06    -114.365E+06    -34.2657E+06    -10.4919E+06    -159.576E-03     321.789E-03    -162.213E-03     73.6789E-03    -160.062E-03     321.643E-03    -162.086E-03     71.1120E-03
            1153     5.35909E-03     136.029E-03    -81.8960E+06    -98.7512E+06    -18.2941E+06    -12.1143E+06    -158.816E-03     320.478E-03    -161.662E-03     82.4533E-03    -159.367E-03     320.440E-03    -161.492E-03     79.5529E-03
            1154     6.12836E-03     136.106E-03    -72.6696E+06    -83.9722E+06    -4.61503E+06    -13.0660E+06    -158.364E-03     319.499E-03    -161.134E-03     89.8749E-03    -158.975E-03     319.566E-03    -160.930E-03     86.6861E-03
            1155     6.89812E-03     136.189E-03    -64.1477E+06    -69.4952E+06     7.52348E+06    -13.6538E+06    -158.291E-03     318.953E-03    -160.663E-03     95.8235E-03    -158.958E-03     319.125E-03    -160.431E-03     92.3788E-03
            1156     7.66800E-03     136.277E-03    -56.5792E+06    -57.4326E+06     17.5744E+06    -14.4217E+06    -158.634E-03     318.910E-03    -160.275E-03     100.165E-03    -159.350E-03     319.170E-03    -160.022E-03     96.4799E-03
            1157     8.43764E-03     136.369E-03    -49.5885E+06    -45.7427E+06     26.0086E+06    -15.0086E+06    -159.402E-03     319.392E-03    -159.991E-03     102.858E-03    -160.158E-03     319.735E-03    -159.722E-03     98.9463E-03
            1158     9.20667E-03     136.464E-03    -43.0391E+06    -34.6453E+06     33.3213E+06    -15.1076E+06    -160.608E-03     320.434E-03    -159.826E-03     103.980E-03    -161.401E-03     320.855E-03    -159.547E-03     99.8310E-03
            1159     9.97465E-03     136.560E-03    -37.2610E+06    -23.7179E+06     39.5283E+06    -14.9094E+06    -162.210E-03     322.001E-03    -159.791E-03     103.675E-03    -163.040E-03     322.501E-03    -159.505E-03     99.2516E-03
            1160     10.7410E-03     136.658E-03    -32.0544E+06    -8.50757E+06     45.7525E+06    -14.5962E+06    -164.089E-03     323.975E-03    -159.886E-03     101.972E-03    -164.967E-03     324.576E-03    -159.598E-03     97.2279E-03
            1161     11.5058E-03     136.756E-03    -26.9610E+06     900.909E+03     50.3349E+06    -13.5289E+06    -166.107E-03     326.217E-03    -160.110E-03     98.7747E-03    -167.022E-03     326.894E-03    -159.820E-03     93.6655E-03
            1162     12.2688E-03     136.853E-03    -22.7855E+06     29.9473E+06     57.5119E+06    -10.6394E+06    -168.011E-03     328.443E-03    -160.431E-03     93.5580E-03    -168.999E-03     329.289E-03    -160.154E-03     88.0492E-03
            1163     13.0302E-03     136.946E-03    -18.4872E+06     55.8607E+06     62.9523E+06    -8.11972E+06    -169.767E-03     330.610E-03    -160.843E-03     84.0934E-03    -170.781E-03     331.574E-03    -160.583E-03     78.2224E-03
            1164     13.7902E-03     137.027E-03    -11.6788E+06     93.0694E+06     74.3255E+06    -6.55811E+06    -171.388E-03     332.731E-03    -161.344E-03     72.9408E-03    -172.472E-03     333.889E-03    -161.090E-03     66.4168E-03
            1165     14.5481E-03     137.099E-03    -5.71657E+06     127.969E+06     100.439E+06    -3.24626E+06    -172.807E-03     334.789E-03    -161.982E-03     48.2624E-03    -173.736E-03     335.861E-03    -161.657E-03     42.2916E-03
            1166     766.984E-06     137.064E-03    -131.436E+06    -196.702E+06    -128.252E+06    -2.42919E+06    -159.444E-03     318.791E-03    -159.347E-03     16.2594E-03    -159.641E-03     318.192E-03    -159.512E-03     15.8363E-03
            1167     1.53417E-03     137.082E-03    -126.244E+06    -183.669E+06    -113.800E+06    -4.30672E+06    -158.951E-03     318.245E-03    -159.295E-03     29.4115E-03    -159.180E-03     317.702E-03    -159.414E-03     28.6398E-03
            1168     2.30199E-03     137.112E-03    -118.757E+06    -165.410E+06    -94.0309E+06    -6.10533E+06    -158.357E-03     317.425E-03    -159.068E-03     42.8221E-03    -158.635E-03     316.965E-03    -159.127E-03     41.6900E-03
            1169     3.07052E-03     137.152E-03    -110.051E+06    -145.895E+06    -72.5223E+06    -7.77771E+06    -157.707E-03     316.478E-03    -158.771E-03     55.6164E-03    -158.043E-03     316.114E-03    -158.763E-03     54.1273E-03
            1170     3.83980E-03     137.202E-03    -100.503E+06    -126.642E+06    -51.8565E+06    -9.34896E+06    -157.114E-03     315.539E-03    -158.425E-03     67.5348E-03    -157.510E-03     315.278E-03    -158.355E-03     65.6974E-03
            1171     4.60984E-03     137.262E-03    -90.8469E+06    -108.276E+06    -33.2592E+06    -10.6982E+06    -156.665E-03     314.723E-03    -158.059E-03     78.3044E-03    -157.124E-03     314.571E-03    -157.936E-03     76.1355E-03
            1172     5.38054E-03     137.331E-03    -81.8330E+06    -93.3464E+06    -17.5307E+06    -11.7957E+06    -156.521E-03     314.227E-03    -157.706E-03     87.7438E-03    -157.041E-03     314.175E-03    -157.540E-03     85.2615E-03
            1173     6.15146E-03     137.407E-03    -73.5604E+06    -79.3284E+06    -4.34086E+06    -12.7626E+06    -156.771E-03     314.174E-03    -157.403E-03     95.6869E-03    -157.352E-03     314.224E-03    -157.203E-03     92.9087E-03
            1174     6.92237E-03     137.490E-03    -65.9084E+06    -65.4077E+06     7.03195E+06    -13.5238E+06    -157.481E-03     314.663E-03    -157.182E-03     102.031E-03    -158.121E-03     314.816E-03    -156.957E-03     98.9747E-03
            1175     7.69280E-03     137.579E-03    -58.9660E+06    -53.6551E+06     16.5417E+06    -13.9776E+06    -158.752E-03     315.829E-03    -157.076E-03     106.583E-03    -159.444E-03     316.072E-03    -156.830E-03     103.261E-03
            1176     8.46219E-03     137.672E-03    -52.6037E+06    -41.9594E+06     24.6951E+06    -14.4383E+06    -160.533E-03     317.641E-03    -157.108E-03     109.273E-03    -161.271E-03     317.972E-03    -156.847E-03     105.684E-03
            1177     9.23009E-03     137.769E-03    -46.7283E+06    -32.3100E+06     31.3232E+06    -14.7143E+06    -162.714E-03     320.001E-03    -157.287E-03     110.284E-03    -163.492E-03     320.409E-03    -157.016E-03     106.410E-03
            1178     9.99618E-03     137.868E-03    -41.2136E+06    -21.6953E+06     37.3024E+06    -14.6008E+06    -165.205E-03     322.819E-03    -157.614E-03     109.779E-03    -166.026E-03     323.309E-03    -157.336E-03     105.592E-03
            1179     10.7604E-03     137.969E-03    -35.6949E+06    -6.87804E+06     43.4450E+06    -14.5490E+06    -167.848E-03     325.925E-03    -158.077E-03     107.761E-03    -168.716E-03     326.517E-03    -157.798E-03     103.213E-03
            1180     11.5223E-03     138.071E-03    -30.0185E+06     630.692E+03     47.6097E+06    -14.3826E+06    -170.388E-03     329.052E-03    -158.663E-03     103.911E-03    -171.293E-03     329.714E-03    -158.383E-03     98.9368E-03
            1181     12.2824E-03     138.171E-03    -22.8405E+06     26.5934E+06     55.4102E+06    -13.0305E+06    -172.570E-03     331.903E-03    -159.333E-03     97.9186E-03    -173.534E-03     332.720E-03    -159.061E-03     92.4661E-03
            1182     13.0406E-03     138.268E-03    -14.8447E+06     52.1622E+06     62.3262E+06    -9.89209E+06    -174.410E-03     334.474E-03    -160.064E-03     87.3885E-03    -175.391E-03     335.407E-03    -159.807E-03     81.5061E-03
            1183     13.7966E-03     138.352E-03    -10.4815E+06     90.8299E+06     75.7509E+06    -6.41748E+06    -175.989E-03     336.852E-03    -160.863E-03     75.5911E-03    -177.063E-03     337.991E-03    -160.601E-03     69.0360E-03
            1184     14.5508E-03     138.429E-03    -7.35294E+06     122.322E+06     98.8845E+06    -3.68637E+06    -177.204E-03     338.953E-03    -161.749E-03     50.4412E-03    -178.131E-03     340.002E-03    -161.422E-03     44.4185E-03
            1185     771.554E-06     138.361E-03    -130.317E+06    -189.368E+06    -126.856E+06    -2.31516E+06    -153.535E-03     306.947E-03    -153.412E-03     17.1853E-03    -153.737E-03     306.379E-03    -153.583E-03     16.8539E-03
            1186     1.54340E-03     138.378E-03    -125.965E+06    -176.693E+06    -113.276E+06    -4.13464E+06    -153.281E-03     306.698E-03    -153.417E-03     31.0179E-03    -153.515E-03     306.183E-03    -153.545E-03     30.4167E-03
            1187     2.31555E-03     138.407E-03    -119.207E+06    -158.894E+06    -94.2808E+06    -5.73150E+06    -153.108E-03     306.423E-03    -153.315E-03     45.2137E-03    -153.386E-03     305.985E-03    -153.384E-03     44.3229E-03
            1188     3.08796E-03     138.447E-03    -110.867E+06    -139.556E+06    -73.0126E+06    -7.21720E+06    -152.999E-03     306.195E-03    -153.196E-03     58.8535E-03    -153.329E-03     305.845E-03    -153.198E-03     57.6656E-03
            1189     3.86074E-03     138.496E-03    -102.107E+06    -120.601E+06    -52.6540E+06    -8.59001E+06    -153.017E-03     306.084E-03    -153.067E-03     71.6016E-03    -153.404E-03     305.831E-03    -153.008E-03     70.1132E-03
            1190     4.63383E-03     138.556E-03    -93.6333E+06    -103.096E+06    -34.7824E+06    -9.61175E+06    -153.309E-03     306.259E-03    -152.950E-03     83.1215E-03    -153.757E-03     306.108E-03    -152.839E-03     81.3347E-03
            1191     5.40684E-03     138.624E-03    -85.6275E+06    -88.5731E+06    -19.6868E+06    -10.3296E+06    -154.001E-03     306.882E-03    -152.881E-03     93.2753E-03    -154.508E-03     306.827E-03    -152.727E-03     91.1957E-03
            1192     6.17956E-03     138.701E-03    -78.1969E+06    -74.5038E+06    -6.83610E+06    -11.1679E+06    -155.188E-03     308.081E-03    -152.894E-03     101.873E-03    -155.756E-03     308.127E-03    -152.706E-03     99.4983E-03
            1193     6.95148E-03     138.786E-03    -71.3531E+06    -61.1629E+06     4.09734E+06    -11.9153E+06    -156.968E-03     309.991E-03    -153.023E-03     108.757E-03    -157.597E-03     310.138E-03    -152.811E-03     106.091E-03
            1194     7.72210E-03     138.877E-03    -64.7116E+06    -49.3945E+06     13.3281E+06    -12.8018E+06    -159.344E-03     312.643E-03    -153.299E-03     113.711E-03    -160.027E-03     312.883E-03    -153.067E-03     110.753E-03
            1195     8.49085E-03     138.973E-03    -58.1776E+06    -38.1125E+06     21.2882E+06    -13.7667E+06    -162.215E-03     315.952E-03    -153.737E-03     116.628E-03    -162.945E-03     316.279E-03    -153.491E-03     113.365E-03
            1196     9.25740E-03     139.073E-03    -51.7663E+06    -28.8793E+06     27.9897E+06    -14.8072E+06    -165.472E-03     319.814E-03    -154.342E-03     117.721E-03    -166.244E-03     320.219E-03    -154.085E-03     114.125E-03
            1197     10.0215E-03     139.177E-03    -44.5171E+06    -18.6443E+06     34.3737E+06    -15.9973E+06    -168.967E-03     324.073E-03    -155.105E-03     117.018E-03    -169.777E-03     324.559E-03    -154.842E-03     113.047E-03
            1198     10.7828E-03     139.283E-03    -37.0679E+06    -4.69763E+06     40.9915E+06    -16.6736E+06    -172.420E-03     328.428E-03    -156.008E-03     114.340E-03    -173.272E-03     329.014E-03    -155.742E-03     109.946E-03
            1199     11.5414E-03     139.390E-03    -30.0700E+06     1.86410E+06     45.6981E+06    -16.7860E+06    -175.580E-03     332.606E-03    -157.025E-03     109.473E-03    -176.466E-03     333.260E-03    -156.756E-03     104.586E-03
            1200     12.2973E-03     139.494E-03    -23.9116E+06     25.5910E+06     52.8749E+06    -15.9238E+06    -178.095E-03     336.200E-03    -158.105E-03     102.387E-03    -179.046E-03     337.005E-03    -157.844E-03     96.9484E-03
            1201     13.0512E-03     139.595E-03    -18.9496E+06     45.3422E+06     57.0501E+06    -12.7496E+06    -179.991E-03     339.204E-03    -159.213E-03     91.0207E-03    -180.968E-03     340.111E-03    -158.966E-03     85.0941E-03
            1202     13.8034E-03     139.683E-03    -12.6845E+06     83.8015E+06     69.9872E+06    -8.01649E+06    -181.177E-03     341.514E-03    -160.337E-03     78.4817E-03    -182.240E-03     342.628E-03    -160.091E-03     71.8573E-03
            1203     14.5548E-03     139.763E-03    -4.97487E+06     117.372E+06     96.2371E+06    -4.58162E+06    -181.744E-03     343.246E-03    -161.502E-03     52.4554E-03    -182.649E-03     344.271E-03    -161.184E-03     46.3474E-03
            1204     777.035E-06     139.641E-03    -132.980E+06    -183.550E+06    -129.393E+06    -1.40315E+06    -146.818E-03     293.346E-03    -146.528E-03     17.9289E-03    -147.037E-03     292.813E-03    -146.716E-03     17.6850E-03
            1205     1.55403E-03     139.658E-03    -128.922E+06    -170.875E+06    -115.843E+06    -2.68830E+06    -146.811E-03     293.489E-03    -146.678E-03     32.4540E-03    -147.060E-03     293.005E-03    -146.823E-03     32.0079E-03
            1206     2.33102E-03     139.687E-03    -122.902E+06    -153.437E+06     -97.275E+06    -3.95800E+06    -147.087E-03     293.814E-03    -146.727E-03     47.4340E-03    -147.378E-03     293.403E-03    -146.813E-03     46.7624E-03
            1207     3.10805E-03     139.727E-03    -115.818E+06    -134.001E+06    -76.9989E+06    -5.19569E+06    -147.568E-03     294.373E-03    -146.805E-03     61.8373E-03    -147.910E-03     294.048E-03    -146.828E-03     60.9266E-03
            1208     3.88492E-03     139.777E-03    -108.210E+06    -115.614E+06    -57.2260E+06    -6.15307E+06    -148.368E-03     295.293E-03    -146.925E-03     75.3727E-03    -148.764E-03     295.058E-03    -146.887E-03     74.2127E-03
            1209     4.66131E-03     139.838E-03    -100.499E+06    -98.7621E+06    -39.5392E+06    -6.84625E+06    -149.580E-03     296.689E-03    -147.109E-03     87.7364E-03    -150.033E-03     296.547E-03    -147.018E-03     86.3180E-03
            1210     5.43705E-03     139.908E-03    -92.9960E+06    -83.7972E+06    -24.5585E+06    -7.84917E+06    -151.295E-03     298.679E-03    -147.383E-03     98.7055E-03    -151.805E-03     298.631E-03    -147.250E-03     97.0117E-03
            1211     6.21168E-03     139.987E-03    -85.4736E+06    -69.6390E+06    -11.6076E+06    -9.18712E+06    -153.642E-03     301.423E-03    -147.781E-03     108.095E-03    -154.209E-03     301.472E-03    -147.614E-03     106.108E-03
            1212     6.98460E-03     140.075E-03    -77.5744E+06    -56.5190E+06    -234.690E+03    -10.5895E+06    -156.670E-03     305.004E-03    -148.334E-03     115.660E-03    -157.292E-03     305.150E-03    -148.140E-03     113.367E-03
            1213     7.75524E-03     140.170E-03    -69.6444E+06    -43.8402E+06     9.64095E+06    -12.3815E+06    -160.267E-03     309.328E-03    -149.062E-03     121.138E-03    -160.939E-03     309.570E-03    -148.849E-03     118.521E-03
            1214     8.52328E-03     140.272E-03    -61.8351E+06    -32.8374E+06     17.9685E+06    -14.8291E+06    -164.356E-03     314.329E-03    -149.973E-03     124.356E-03    -165.073E-03     314.658E-03    -149.746E-03     121.381E-03
            1215     9.28822E-03     140.378E-03    -53.3658E+06       -23.7E+06     25.3866E+06    -17.1911E+06    -168.864E-03     319.933E-03    -151.070E-03     125.389E-03    -169.617E-03     320.341E-03    -150.831E-03     122.022E-03
            1216     10.0496E-03     140.488E-03    -45.1197E+06    -13.7574E+06     32.1771E+06    -19.1798E+06    -173.465E-03     325.803E-03    -152.338E-03     124.207E-03    -174.257E-03     326.294E-03    -152.091E-03     120.399E-03
            1217     10.8074E-03     140.601E-03    -37.3834E+06    -2.24794E+06     38.5518E+06    -20.1227E+06    -177.741E-03     331.484E-03    -153.743E-03     120.742E-03    -178.574E-03     332.066E-03    -153.493E-03     116.454E-03
            1218     11.5619E-03     140.713E-03    -30.2964E+06     3.04076E+06     43.3720E+06    -20.0280E+06    -181.422E-03     336.667E-03    -155.245E-03     115.007E-03    -182.289E-03     337.313E-03    -154.989E-03     110.184E-03
            1219     12.3136E-03     140.824E-03    -23.7025E+06     24.2058E+06     50.3931E+06    -18.7283E+06    -184.223E-03     341.001E-03    -156.778E-03     106.981E-03    -185.152E-03     341.787E-03    -156.527E-03     101.563E-03
            1220     13.0632E-03     140.929E-03    -16.9168E+06     39.1910E+06     54.1594E+06    -15.7607E+06    -186.083E-03     344.382E-03    -158.298E-03     94.8575E-03    -187.031E-03     345.252E-03    -158.060E-03     88.8780E-03
            1221     13.8107E-03     141.021E-03    -10.6103E+06     77.5361E+06     67.6482E+06    -11.8196E+06    -186.882E-03     346.665E-03    -159.783E-03     81.3313E-03    -187.924E-03     347.749E-03    -159.542E-03     74.5651E-03
            1222     14.5575E-03     141.102E-03    -5.95306E+06     109.321E+06     92.9089E+06    -5.75832E+06    -186.756E-03     348.004E-03    -161.248E-03     54.4210E-03    -187.654E-03     349.000E-03    -160.933E-03     48.1924E-03
            1223     782.711E-06     140.902E-03    -144.531E+06    -180.606E+06    -141.075E+06    -371.068E+03    -139.568E-03     278.752E-03    -139.184E-03     18.5362E-03    -139.831E-03     278.265E-03    -139.418E-03     18.3667E-03
            1224     1.56541E-03     140.921E-03    -140.636E+06    -167.253E+06    -127.572E+06    -1.05527E+06    -139.847E-03     279.285E-03    -139.439E-03     33.7983E-03    -140.138E-03     278.850E-03    -139.630E-03     33.4859E-03
            1225     2.34782E-03     140.950E-03    -134.414E+06    -149.749E+06    -108.094E+06    -1.73066E+06    -140.602E-03     280.249E-03    -139.646E-03     49.4583E-03    -140.932E-03     279.880E-03    -139.775E-03     48.9829E-03
            1226     3.12974E-03     140.991E-03    -126.685E+06    -129.782E+06    -86.5361E+06    -2.57128E+06    -141.774E-03     281.716E-03    -139.942E-03     64.5634E-03    -142.149E-03     281.428E-03    -140.003E-03     63.9049E-03
            1227     3.91089E-03     141.043E-03    -118.130E+06    -111.484E+06    -65.5857E+06    -3.72263E+06    -143.441E-03     283.782E-03    -140.341E-03     78.8102E-03    -143.860E-03     283.573E-03    -140.336E-03     77.9463E-03
            1228     4.69105E-03     141.106E-03    -108.868E+06    -94.5903E+06    -46.8334E+06    -4.99850E+06    -145.679E-03     286.536E-03    -140.857E-03     91.8912E-03    -146.141E-03     286.409E-03    -140.796E-03     90.7999E-03
            1229     5.46964E-03     141.180E-03    -99.0782E+06    -78.5460E+06    -30.3471E+06    -6.72303E+06    -148.602E-03     290.117E-03    -141.515E-03     103.573E-03    -149.107E-03     290.078E-03    -141.409E-03     102.221E-03
            1230     6.24614E-03     141.264E-03    -89.2675E+06    -64.0457E+06    -16.2605E+06    -8.91237E+06    -152.260E-03     294.605E-03    -142.345E-03     113.654E-03    -152.810E-03     294.657E-03    -142.204E-03     112.007E-03
            1231     7.02001E-03     141.357E-03    -79.5869E+06    -50.1548E+06    -4.02945E+06    -11.5639E+06    -156.586E-03     299.953E-03    -143.366E-03     121.780E-03    -157.182E-03     300.100E-03    -143.198E-03     119.805E-03
            1232     7.79074E-03     141.459E-03    -69.9475E+06    -37.1282E+06     6.74813E+06    -14.5676E+06    -161.500E-03     306.090E-03    -144.590E-03     127.638E-03    -162.140E-03     306.332E-03    -144.401E-03     125.299E-03
            1233     8.55777E-03     141.568E-03    -60.6810E+06    -25.9860E+06     16.1806E+06    -17.2699E+06    -166.961E-03     312.985E-03    -146.023E-03     131.116E-03    -167.646E-03     313.316E-03    -145.817E-03     128.380E-03
            1234     9.32052E-03     141.683E-03    -52.2707E+06    -16.3216E+06     24.2259E+06    -20.1457E+06    -172.729E-03     320.388E-03    -147.659E-03     132.169E-03    -173.458E-03     320.805E-03    -147.438E-03     128.989E-03
            1235     10.0788E-03     141.802E-03    -44.3007E+06    -7.82784E+06     30.9302E+06    -22.8530E+06    -178.330E-03     327.797E-03    -149.467E-03     130.711E-03    -179.101E-03     328.295E-03    -149.237E-03     127.035E-03
            1236     10.8330E-03     141.923E-03    -36.8788E+06     119.323E+03     36.6921E+06    -23.8733E+06    -183.360E-03     334.760E-03    -151.399E-03     126.729E-03    -184.172E-03     335.337E-03    -151.163E-03     122.529E-03
            1237     11.5834E-03     142.043E-03    -29.8215E+06     5.01071E+06     41.7625E+06    -24.1211E+06    -187.525E-03     340.928E-03    -153.403E-03     120.162E-03    -188.371E-03     341.567E-03    -153.158E-03     115.393E-03
            1238     12.3308E-03     142.159E-03    -22.8794E+06     22.1522E+06     48.1840E+06    -23.1934E+06    -190.498E-03     345.899E-03    -155.401E-03     111.103E-03    -191.396E-03     346.657E-03    -155.159E-03     105.713E-03
            1239     13.0755E-03     142.270E-03    -16.6923E+06     32.7363E+06     51.0748E+06    -19.1314E+06    -192.161E-03     349.499E-03    -157.338E-03     98.1355E-03    -193.076E-03     350.324E-03    -157.106E-03     92.1584E-03
            1240     13.8190E-03     142.365E-03    -10.8173E+06     70.1299E+06     65.7460E+06    -13.3733E+06    -192.524E-03     351.711E-03    -159.187E-03     84.1489E-03    -193.543E-03     352.750E-03    -158.944E-03     77.3566E-03
            1241     14.5619E-03     142.450E-03    -4.35629E+06     97.9040E+06     90.9294E+06    -6.77249E+06    -192.099E-03     353.058E-03    -160.959E-03     56.7871E-03    -192.965E-03     353.993E-03    -160.640E-03     50.5090E-03
            1242     788.732E-06     142.145E-03    -174.404E+06    -177.265E+06    -171.326E+06    -1.78731E+06    -132.147E-03     263.830E-03    -131.683E-03     19.2484E-03    -132.519E-03     263.446E-03    -132.029E-03     19.1167E-03
            1243     1.57708E-03     142.165E-03    -167.080E+06    -163.539E+06    -154.319E+06    -3.15608E+06    -132.792E-03     264.849E-03    -132.057E-03     35.0117E-03    -133.178E-03     264.505E-03    -132.349E-03     34.7731E-03
            1244     2.36491E-03     142.196E-03    -156.082E+06    -145.943E+06    -130.364E+06    -4.64896E+06    -134.098E-03     266.553E-03    -132.455E-03     51.1972E-03    -134.501E-03     266.259E-03    -132.669E-03     50.8306E-03
            1245     3.15181E-03     142.239E-03    -142.613E+06    -126.102E+06    -103.815E+06    -5.83897E+06    -136.034E-03     269.038E-03    -133.004E-03     66.8426E-03    -136.454E-03     268.802E-03    -133.133E-03     66.3341E-03
            1246     3.93737E-03     142.295E-03    -128.239E+06    -107.581E+06    -78.3777E+06    -6.77555E+06    -138.674E-03     272.389E-03    -133.715E-03     81.5835E-03    -139.109E-03     272.212E-03    -133.765E-03     80.9152E-03
            1247     4.72101E-03     142.362E-03    -114.372E+06    -90.0066E+06    -56.2262E+06    -8.06369E+06    -142.073E-03     276.675E-03    -134.601E-03     95.1060E-03    -142.528E-03     276.565E-03    -134.586E-03     94.2428E-03
            1248     5.50228E-03     142.441E-03    -101.424E+06    -72.8891E+06    -37.3042E+06    -9.92208E+06    -146.281E-03     281.965E-03    -135.684E-03     107.213E-03    -146.762E-03     281.935E-03    -135.618E-03     106.110E-03
            1249     6.28048E-03     142.532E-03    -89.1637E+06    -57.3009E+06    -21.2243E+06    -12.5051E+06    -151.260E-03     288.242E-03    -136.982E-03     117.637E-03    -151.773E-03     288.298E-03    -136.876E-03     116.242E-03
            1250     7.05506E-03     142.633E-03    -77.4726E+06    -42.3751E+06    -7.18608E+06    -15.6728E+06    -156.893E-03     295.396E-03    -138.504E-03     125.994E-03    -157.445E-03     295.545E-03    -138.366E-03     124.257E-03
            1251     7.82546E-03     142.744E-03    -66.7502E+06    -29.6244E+06     5.11569E+06    -18.6903E+06    -163.111E-03     303.363E-03    -140.252E-03     132.050E-03    -163.706E-03     303.603E-03    -140.086E-03     129.927E-03
            1252     8.59118E-03     142.863E-03    -56.6134E+06    -19.4167E+06     15.7531E+06    -20.9861E+06    -169.763E-03     311.982E-03    -142.220E-03     135.796E-03    -170.401E-03     312.307E-03    -142.031E-03     133.254E-03
            1253     9.35181E-03     142.988E-03    -47.2893E+06    -8.28490E+06     25.3360E+06    -23.2945E+06    -176.471E-03     320.854E-03    -144.383E-03     137.084E-03    -177.156E-03     321.271E-03    -144.176E-03     134.074E-03
            1254     10.1074E-03     143.117E-03    -39.7756E+06    -1.54473E+06     32.3000E+06    -25.5200E+06    -182.861E-03     329.564E-03    -146.703E-03     135.742E-03    -183.593E-03     330.058E-03    -146.482E-03     132.217E-03
            1255     10.8582E-03     143.248E-03    -32.9784E+06     3.17752E+06     37.8061E+06    -26.3780E+06    -188.596E-03     337.724E-03    -149.128E-03     131.691E-03    -189.369E-03     338.284E-03    -148.896E-03     127.627E-03
            1256     11.6046E-03     143.377E-03    -26.7715E+06     8.48236E+06     43.3668E+06    -26.6170E+06    -193.303E-03     344.904E-03    -151.601E-03     124.785E-03    -194.115E-03     345.528E-03    -151.358E-03     120.138E-03
            1257     12.3473E-03     143.502E-03    -21.4553E+06     21.0851E+06     48.2867E+06    -25.8498E+06    -196.434E-03     350.471E-03    -154.037E-03     114.943E-03    -197.295E-03     351.193E-03    -153.795E-03     109.660E-03
            1258     13.0882E-03     143.617E-03    -16.3843E+06     24.9351E+06     50.1838E+06    -21.9293E+06    -197.903E-03     354.274E-03    -156.371E-03     101.155E-03    -198.775E-03     355.032E-03    -156.133E-03     95.2739E-03
            1259     13.8277E-03     143.717E-03    -11.4534E+06     58.4651E+06     64.0404E+06    -14.6802E+06    -198.033E-03     356.598E-03    -158.565E-03     86.2077E-03    -199.008E-03     357.556E-03    -158.313E-03     79.4819E-03
            1260     14.5672E-03     143.803E-03    -5.82626E+06     84.7505E+06     88.4602E+06    -8.52015E+06    -197.697E-03     358.342E-03    -160.644E-03     58.3467E-03    -198.533E-03     359.202E-03    -160.316E-03     52.0549E-03
            1261     794.393E-06     143.370E-03    -214.832E+06    -165.704E+06    -211.396E+06    -6.61528E+06    -125.209E-03     249.763E-03    -124.555E-03     19.5367E-03    -125.740E-03     249.553E-03    -125.060E-03     19.3860E-03
            1262     1.58832E-03     143.391E-03    -204.728E+06    -152.832E+06    -191.268E+06    -11.4768E+06    -126.190E-03     251.301E-03    -125.111E-03     35.5638E-03    -126.723E-03     251.116E-03    -125.549E-03     35.2951E-03
            1263     2.38121E-03     143.425E-03    -189.549E+06    -136.189E+06    -163.428E+06    -16.1048E+06    -128.121E-03     253.840E-03    -125.719E-03     52.0156E-03    -128.650E-03     253.684E-03    -126.064E-03     51.6155E-03
            1264     3.17267E-03     143.472E-03    -170.770E+06    -118.181E+06    -132.666E+06    -19.7978E+06    -130.895E-03     257.443E-03    -126.548E-03     67.8342E-03    -131.412E-03     257.317E-03    -126.792E-03     67.2964E-03
            1265     3.96208E-03     143.532E-03    -149.491E+06    -101.565E+06    -102.589E+06    -22.2158E+06    -134.576E-03     262.181E-03    -127.605E-03     82.6666E-03    -135.072E-03     262.082E-03    -127.754E-03     81.9827E-03
            1266     4.74881E-03     143.606E-03    -127.246E+06    -85.3883E+06    -74.9727E+06    -23.0915E+06    -139.186E-03     268.086E-03    -128.900E-03     96.2476E-03    -139.660E-03     268.022E-03    -128.966E-03     95.4019E-03
            1267     5.53208E-03     143.692E-03    -105.847E+06    -67.8376E+06    -49.9944E+06    -23.4207E+06    -144.654E-03     275.095E-03    -130.441E-03     108.359E-03    -145.115E-03     275.085E-03    -130.439E-03     107.315E-03
            1268     6.31137E-03     143.792E-03    -86.5243E+06    -51.4728E+06    -28.2733E+06    -24.0421E+06    -150.858E-03     283.087E-03    -132.229E-03     118.721E-03    -151.320E-03     283.143E-03    -132.171E-03     117.425E-03
            1269     7.08610E-03     143.903E-03    -70.4362E+06    -37.6784E+06    -9.95986E+06    -23.8550E+06    -157.659E-03     291.918E-03    -134.259E-03     127.020E-03    -158.140E-03     292.045E-03    -134.152E-03     125.427E-03
            1270     7.85581E-03     144.024E-03    -58.1440E+06    -24.4142E+06     5.69776E+06    -23.1229E+06    -164.880E-03     301.394E-03    -136.515E-03     133.217E-03    -165.399E-03     301.606E-03    -136.366E-03     131.284E-03
            1271     8.62004E-03     144.155E-03    -49.2288E+06    -12.6672E+06     18.2394E+06    -24.0287E+06    -172.252E-03     311.221E-03    -138.969E-03     137.272E-03    -172.825E-03     311.524E-03    -138.788E-03     134.931E-03
            1272     9.37894E-03     144.293E-03    -42.1220E+06    -1.37784E+06     28.3643E+06    -25.8823E+06    -179.458E-03     321.043E-03    -141.584E-03     138.936E-03    -180.091E-03     321.442E-03    -141.380E-03     136.132E-03
            1273     10.1324E-03     144.434E-03    -35.3181E+06     4.88601E+06     36.3881E+06    -27.7462E+06    -186.316E-03     330.640E-03    -144.324E-03     138.093E-03    -187.000E-03     331.112E-03    -144.098E-03     134.783E-03
            1274     10.8807E-03     144.577E-03    -27.8617E+06     6.97410E+06     42.4564E+06    -29.0362E+06    -192.549E-03     339.689E-03    -147.140E-03     134.550E-03    -193.266E-03     340.211E-03    -146.897E-03     130.703E-03
            1275     11.6242E-03     144.717E-03    -20.5722E+06     10.3388E+06     48.2031E+06    -28.3867E+06    -197.660E-03     347.639E-03    -149.979E-03     127.996E-03    -198.407E-03     348.212E-03    -149.723E-03     123.594E-03
            1276     12.3640E-03     144.849E-03    -15.3100E+06     18.3470E+06      52.756E+06    -25.1737E+06    -201.228E-03     353.994E-03    -152.766E-03     117.953E-03    -202.014E-03     354.639E-03    -152.506E-03     112.958E-03
            1277     13.1010E-03     144.970E-03    -13.1345E+06     18.6065E+06     54.3694E+06    -20.5479E+06    -203.271E-03     358.718E-03    -155.447E-03     103.585E-03    -204.080E-03     359.391E-03    -155.183E-03     97.9558E-03
            1278     13.8367E-03     145.074E-03    -11.2639E+06     50.1261E+06     65.9061E+06    -16.5852E+06    -203.842E-03     361.815E-03    -157.973E-03     87.5453E-03    -204.767E-03     362.688E-03    -157.700E-03     80.9351E-03
            1279     14.5711E-03     145.163E-03    -5.36349E+06     69.7131E+06     86.8282E+06    -10.6149E+06    -203.113E-03     363.466E-03    -160.353E-03     59.3228E-03    -203.899E-03     364.230E-03    -160.012E-03     53.0607E-03
            1280     799.074E-06     144.579E-03     -220.72E+06    -142.489E+06    -216.686E+06    -10.5993E+06    -119.861E-03     238.931E-03    -119.070E-03     18.7199E-03    -120.446E-03     238.854E-03    -119.626E-03     18.5350E-03
            1281     1.59745E-03     144.602E-03    -212.977E+06    -130.886E+06    -198.513E+06    -18.9134E+06    -121.134E-03     240.898E-03    -119.764E-03     34.1668E-03    -121.727E-03     240.844E-03    -120.258E-03     33.8342E-03
            1282     2.39455E-03     144.639E-03    -200.664E+06    -115.789E+06    -173.159E+06    -27.3478E+06    -123.634E-03     244.185E-03    -120.551E-03     49.9906E-03    -124.229E-03     244.158E-03    -120.958E-03     49.4954E-03
            1283     3.18949E-03     144.691E-03    -184.709E+06    -100.620E+06    -145.383E+06    -34.8022E+06    -127.181E-03     248.815E-03    -121.634E-03     65.2487E-03    -127.767E-03     248.810E-03    -121.948E-03     64.5864E-03
            1284     3.98164E-03     144.758E-03    -167.030E+06    -87.5637E+06    -118.936E+06    -40.7780E+06    -131.778E-03     254.787E-03    -123.009E-03     79.5729E-03    -132.347E-03     254.797E-03    -123.235E-03     78.7376E-03
            1285     4.77022E-03     144.839E-03    -147.515E+06    -75.7234E+06    -94.1651E+06    -45.1126E+06    -137.351E-03     262.024E-03    -124.673E-03     92.6952E-03    -137.896E-03     262.050E-03    -124.820E-03     91.6764E-03
            1286     5.55461E-03     144.935E-03    -126.315E+06    -61.2167E+06    -69.4174E+06    -47.2413E+06    -143.756E-03     270.375E-03    -126.619E-03     104.426E-03    -144.278E-03     270.434E-03    -126.694E-03     103.214E-03
            1287     6.33419E-03     145.045E-03    -104.865E+06    -48.3278E+06    -45.2727E+06    -46.6377E+06    -150.842E-03     279.676E-03    -128.834E-03     114.524E-03    -151.346E-03     279.769E-03    -128.838E-03     113.107E-03
            1288     7.10852E-03     145.168E-03    -84.0485E+06    -38.6201E+06    -22.4475E+06    -43.7016E+06    -158.388E-03     289.681E-03    -131.293E-03     122.738E-03    -158.878E-03     289.803E-03    -131.227E-03     121.095E-03
            1289     7.87725E-03     145.302E-03    -63.8091E+06    -26.7048E+06    -978.509E+03    -39.1013E+06    -166.100E-03     300.052E-03    -133.953E-03     129.085E-03    -166.587E-03     300.224E-03    -133.826E-03     127.187E-03
            1290     8.64052E-03     145.445E-03    -45.4088E+06    -12.1530E+06     18.4408E+06    -34.0406E+06    -173.708E-03     310.474E-03    -136.766E-03     133.510E-03    -174.208E-03     310.719E-03    -136.591E-03     131.318E-03
            1291     9.39808E-03     145.596E-03    -31.1872E+06     852.308E+03     34.3396E+06    -30.3124E+06    -181.018E-03     320.710E-03    -139.692E-03     135.837E-03    -181.547E-03     321.034E-03    -139.476E-03     133.290E-03
            1292     10.1504E-03     145.750E-03    -21.6026E+06     8.09842E+06     45.6550E+06    -27.5563E+06    -187.930E-03     330.621E-03    -142.691E-03     136.037E-03    -188.497E-03     331.010E-03    -142.443E-03     133.084E-03
            1293     10.8974E-03     145.905E-03    -17.7116E+06     11.9582E+06     52.3405E+06    -26.4364E+06    -194.253E-03     339.979E-03    -145.726E-03     133.686E-03    -194.871E-03     340.427E-03    -145.456E-03     130.272E-03
            1294     11.6397E-03     146.057E-03    -16.6421E+06     12.5107E+06     55.8625E+06    -26.5985E+06    -199.679E-03     348.441E-03    -148.761E-03     128.083E-03    -200.348E-03     348.935E-03    -148.476E-03     124.137E-03
            1295     12.3780E-03     146.199E-03    -14.3752E+06     12.4803E+06     58.1349E+06    -23.9583E+06    -204.102E-03     355.859E-03    -151.757E-03     118.592E-03    -204.808E-03     356.392E-03    -151.464E-03     114.069E-03
            1296     13.1128E-03     146.329E-03    -9.08514E+06     10.7121E+06     60.8752E+06    -19.1044E+06    -207.409E-03     362.092E-03    -154.682E-03     104.511E-03    -208.124E-03     362.637E-03    -154.380E-03     99.3431E-03
            1297     13.8439E-03     146.439E-03    -4.25510E+06     45.0047E+06     72.0637E+06    -15.3281E+06    -208.648E-03     366.113E-03    -157.465E-03     88.3647E-03    -209.473E-03     366.875E-03    -157.164E-03     82.1488E-03
            1298     14.5748E-03     146.531E-03    -2.89727E+06     56.7920E+06     88.9002E+06    -9.21115E+06    -207.700E-03     367.798E-03    -160.098E-03     60.1073E-03    -208.421E-03     368.453E-03    -159.732E-03     54.0653E-03
            1299     801.338E-06     145.777E-03    -178.025E+06    -112.566E+06    -172.454E+06    -11.5364E+06    -117.870E-03     234.814E-03    -116.944E-03     15.8996E-03    -118.349E-03     234.761E-03    -117.385E-03     15.6875E-03
            1300     1.60188E-03     145.803E-03    -170.367E+06    -101.632E+06    -155.793E+06    -21.2737E+06    -119.348E-03     237.134E-03    -117.786E-03     29.0295E-03    -119.832E-03     237.104E-03    -118.170E-03     28.6346E-03
            1301     2.40065E-03     145.844E-03    -160.408E+06    -87.8844E+06    -133.881E+06    -30.8699E+06    -122.206E-03     240.931E-03    -118.725E-03     42.4691E-03    -122.698E-03     240.930E-03    -119.035E-03     41.8805E-03
            1302     3.19702E-03     145.902E-03    -149.415E+06    -75.6656E+06    -111.826E+06    -39.2576E+06    -126.196E-03     246.201E-03    -120.005E-03     55.3908E-03    -126.692E-03     246.222E-03    -120.238E-03     54.6072E-03
            1303     3.99002E-03     145.976E-03    -137.777E+06    -65.1174E+06    -91.7973E+06    -46.6568E+06    -131.193E-03     252.799E-03    -121.606E-03     67.5985E-03    -131.689E-03     252.842E-03    -121.771E-03     66.6130E-03
            1304     4.77890E-03     146.067E-03    -126.268E+06    -55.7919E+06    -73.8278E+06    -53.7115E+06    -137.048E-03     260.554E-03    -123.506E-03     79.0145E-03    -137.544E-03     260.618E-03    -123.611E-03     77.8127E-03
            1305     5.56309E-03     146.173E-03    -114.877E+06    -47.2942E+06    -56.9316E+06    -58.8221E+06    -143.599E-03     269.278E-03    -125.678E-03     89.5150E-03    -144.096E-03     269.365E-03    -125.728E-03     88.1038E-03
            1306     6.34217E-03     146.294E-03    -102.881E+06    -40.8653E+06    -40.4334E+06    -60.8137E+06    -150.649E-03     278.741E-03    -128.092E-03     99.0020E-03    -151.144E-03     278.845E-03    -128.086E-03     97.4019E-03
            1307     7.11573E-03     146.429E-03    -89.6631E+06    -35.4382E+06    -23.6351E+06    -61.1131E+06    -158.000E-03     288.707E-03    -130.708E-03     107.402E-03    -158.489E-03     288.824E-03    -130.645E-03     105.615E-03
            1308     7.88381E-03     146.576E-03    -75.1765E+06    -29.4376E+06    -7.23699E+06    -59.4964E+06    -165.432E-03     298.910E-03    -133.477E-03     114.557E-03    -165.915E-03     299.044E-03    -133.362E-03     112.583E-03
            1309     8.64631E-03     146.732E-03    -59.2659E+06    -18.6477E+06     10.1366E+06    -54.9037E+06    -172.693E-03     309.050E-03    -136.357E-03     120.253E-03    -173.173E-03     309.226E-03    -136.194E-03     118.098E-03
            1310     9.40389E-03     146.896E-03    -42.9422E+06    -7.69328E+06     29.1565E+06    -47.1362E+06    -179.706E-03     319.026E-03    -139.320E-03     124.232E-03    -180.188E-03     319.246E-03    -139.100E-03     121.893E-03
            1311     10.1563E-03     147.063E-03    -29.1322E+06    -1.15657E+06     45.6215E+06    -37.2702E+06    -186.396E-03     328.721E-03    -142.325E-03     126.235E-03    -186.887E-03     328.975E-03    -142.053E-03     123.681E-03
            1312     10.9041E-03     147.231E-03    -17.5687E+06     7.55652E+06     58.6647E+06    -27.6580E+06    -192.586E-03     337.921E-03    -145.334E-03     125.762E-03    -193.098E-03     338.229E-03    -145.027E-03     122.933E-03
            1313     11.6473E-03     147.395E-03    -9.31875E+06     14.2895E+06     67.5706E+06    -22.3021E+06    -198.330E-03     346.664E-03    -148.334E-03     122.248E-03    -198.872E-03     347.030E-03    -148.003E-03     119.008E-03
            1314     12.3857E-03     147.549E-03    -4.83332E+06     9.31192E+06     69.6250E+06    -20.0643E+06    -203.686E-03     355.002E-03    -151.316E-03     115.275E-03    -204.250E-03     355.381E-03    -150.974E-03     111.489E-03
            1315     13.1193E-03     147.690E-03    -2.19579E+06     6.48939E+06     70.6556E+06    -18.6418E+06    -208.120E-03     362.389E-03    -154.268E-03     103.723E-03    -208.706E-03     362.786E-03    -153.921E-03     99.2890E-03
            1316     13.8499E-03     147.808E-03     897.768E+03     34.2602E+06     79.2534E+06    -13.6043E+06    -210.639E-03     367.775E-03    -157.135E-03     88.3466E-03    -211.331E-03     368.363E-03    -156.790E-03     82.8813E-03
            1317     14.5795E-03     147.903E-03     1.78888E+06     41.8362E+06     94.0192E+06     -1.4916E+06    -210.896E-03     370.799E-03    -159.904E-03     60.1222E-03    -211.517E-03     371.303E-03    -159.497E-03     54.6270E-03
            1318     799.278E-06     146.976E-03    -115.015E+06    -80.5527E+06    -110.489E+06    -12.0380E+06    -121.494E-03     242.071E-03    -120.577E-03     10.1340E-03    -121.796E-03     241.995E-03    -120.846E-03     9.86019E-03
            1319     1.59740E-03     147.004E-03    -108.339E+06    -70.7573E+06    -94.7543E+06    -21.5640E+06    -123.081E-03     244.606E-03    -121.525E-03     18.3150E-03    -123.392E-03     244.550E-03    -121.739E-03     17.8195E-03
            1320     2.39381E-03     147.050E-03    -99.4995E+06    -59.6485E+06    -75.1114E+06    -30.0330E+06    -125.944E-03     248.547E-03    -122.603E-03     26.5173E-03    -126.262E-03     248.512E-03    -122.748E-03     25.7867E-03
            1321     3.18725E-03     147.114E-03    -89.3852E+06    -49.9838E+06    -55.3810E+06    -37.3441E+06    -129.695E-03     253.713E-03    -124.018E-03     34.2567E-03    -130.015E-03     253.693E-03    -124.093E-03     33.2835E-03
            1322     3.97721E-03     147.195E-03    -79.0053E+06    -41.1801E+06    -37.8969E+06    -43.7695E+06    -134.097E-03     259.811E-03    -125.713E-03     41.6564E-03    -134.416E-03     259.808E-03    -125.728E-03     40.4427E-03
            1323     4.76332E-03     147.294E-03    -69.9384E+06    -33.6222E+06    -22.7093E+06    -48.6807E+06    -139.004E-03     266.645E-03    -127.642E-03     48.9387E-03    -139.325E-03     266.661E-03    -127.605E-03     47.5051E-03
            1324     5.54507E-03     147.410E-03    -63.2291E+06    -29.4165E+06    -10.7471E+06    -51.8686E+06    -144.272E-03     274.029E-03    -129.757E-03     56.2506E-03    -144.600E-03     274.057E-03    -129.676E-03     54.6293E-03
            1325     6.32228E-03     147.541E-03    -58.7877E+06    -26.4214E+06    -1.61299E+06    -54.0361E+06    -149.731E-03     281.741E-03    -132.009E-03     63.6806E-03    -150.070E-03     281.781E-03    -131.894E-03     61.9074E-03
            1326     7.09520E-03     147.687E-03    -56.2164E+06    -22.9619E+06     6.11671E+06    -55.7046E+06    -155.324E-03     289.683E-03    -134.359E-03     71.3095E-03    -155.682E-03     289.743E-03    -134.214E-03     69.4165E-03
            1327     7.86354E-03     147.845E-03    -55.1287E+06    -21.2620E+06     12.9233E+06    -56.8260E+06    -161.051E-03     297.829E-03    -136.778E-03     78.9548E-03    -161.430E-03     297.902E-03    -136.603E-03     76.9705E-03
            1328     8.62756E-03     148.014E-03    -54.5557E+06    -16.6639E+06     20.6438E+06    -56.7443E+06    -166.849E-03     306.092E-03    -139.243E-03     86.3786E-03    -167.258E-03     306.191E-03    -139.036E-03     84.3292E-03
            1329     9.38694E-03     148.189E-03    -52.5836E+06    -13.7137E+06     30.0716E+06    -53.9842E+06    -172.713E-03     314.456E-03    -141.743E-03     93.3610E-03    -173.145E-03     314.570E-03    -141.497E-03     91.2704E-03
            1330     10.1420E-03     148.369E-03    -46.8496E+06    -12.3876E+06     40.7378E+06    -48.5809E+06    -178.642E-03     322.905E-03    -144.263E-03     99.4657E-03    -179.083E-03     323.022E-03    -143.973E-03     97.3294E-03
            1331     10.8925E-03     148.549E-03    -37.5776E+06    -7.11912E+06     52.1769E+06    -40.8526E+06    -184.571E-03     331.360E-03    -146.789E-03     103.913E-03    -185.016E-03     331.499E-03    -146.464E-03     101.692E-03
            1332     11.6390E-03     148.726E-03    -27.4294E+06     4.04893E+06     65.7922E+06    -30.9235E+06    -190.612E-03     339.951E-03    -149.339E-03     105.999E-03    -191.076E-03     340.144E-03    -148.976E-03     103.614E-03
            1333     12.3812E-03     148.894E-03    -19.1088E+06     4.12971E+06     75.3609E+06    -23.1144E+06    -196.844E-03     348.773E-03    -151.928E-03     104.719E-03    -197.325E-03     348.985E-03    -151.530E-03     101.980E-03
            1334     13.1192E-03     149.046E-03    -13.8884E+06     2.75239E+06     77.3265E+06    -17.3648E+06    -202.748E-03     357.289E-03    -154.541E-03     98.0078E-03    -203.254E-03     357.534E-03    -154.138E-03     94.6820E-03
            1335     13.8524E-03     149.176E-03    -13.4945E+06     17.8697E+06     80.5191E+06    -7.35660E+06    -207.591E-03     364.769E-03    -157.178E-03     85.9256E-03    -208.197E-03     365.158E-03    -156.781E-03     81.6565E-03
            1336     14.5807E-03     149.279E-03    -12.4033E+06     27.6057E+06     93.1470E+06    -632.065E+03    -210.558E-03     370.402E-03    -159.845E-03     60.2206E-03    -211.137E-03     370.767E-03    -159.401E-03     55.6004E-03
            1337     790.246E-06     148.192E-03    -51.6990E+06    -48.2869E+06    -47.0249E+06    -11.0890E+06    -134.221E-03     267.052E-03    -132.830E-03     819.498E-06    -134.356E-03     266.939E-03    -132.921E-03     506.910E-06
            1338     1.57933E-03     148.222E-03    -47.5939E+06    -41.2311E+06    -35.6672E+06    -19.7383E+06    -135.363E-03     269.547E-03    -134.184E-03    -231.454E-06    -135.505E-03     269.447E-03    -134.233E-03    -845.606E-06
            1339     2.36604E-03     148.272E-03    -40.9908E+06    -33.8735E+06    -18.9316E+06    -27.3102E+06    -137.310E-03     272.639E-03    -135.329E-03    -926.207E-06    -137.454E-03     272.544E-03    -135.315E-03    -1.85220E-03
            1340     3.15018E-03     148.341E-03    -33.8547E+06    -27.2475E+06    -2.58116E+06    -33.0119E+06    -139.556E-03     276.231E-03    -136.675E-03    -1.37452E-03    -139.698E-03     276.137E-03    -136.599E-03    -2.59074E-03
            1341     3.93139E-03     148.428E-03    -28.0649E+06    -21.2348E+06     11.5345E+06    -36.8588E+06    -141.980E-03     280.161E-03    -138.181E-03    -1.37935E-03    -142.123E-03     280.072E-03    -138.052E-03    -2.84976E-03
            1342     4.70943E-03     148.533E-03    -24.0579E+06    -17.4661E+06     22.8546E+06    -38.7235E+06    -144.386E-03     284.185E-03    -139.799E-03    -665.020E-06    -144.533E-03     284.098E-03    -139.624E-03    -2.34076E-03
            1343     5.48458E-03     148.655E-03    -21.7209E+06    -15.6730E+06     31.5871E+06    -38.8981E+06    -146.659E-03     288.130E-03    -141.471E-03     1.02942E-03    -146.812E-03     288.043E-03    -141.258E-03    -795.566E-06
            1344     6.25711E-03     148.793E-03    -20.6255E+06    -13.3703E+06     38.7892E+06    -38.7151E+06    -148.821E-03     291.971E-03    -143.150E-03     3.81493E-03    -148.987E-03     291.892E-03    -142.906E-03     1.88754E-03
            1345     7.02700E-03     148.945E-03    -20.5325E+06    -10.8567E+06     44.8772E+06    -38.1930E+06    -150.891E-03     295.693E-03    -144.802E-03     7.78857E-03    -151.073E-03     295.626E-03    -144.532E-03     5.80743E-03
            1346     7.79486E-03     149.110E-03    -21.3946E+06    -9.42902E+06     50.4089E+06    -37.4047E+06    -152.950E-03     299.354E-03    -146.404E-03     12.9945E-03    -153.152E-03     299.298E-03    -146.108E-03     11.0065E-03
            1347     8.56057E-03     149.286E-03    -23.5816E+06    -7.38388E+06     54.8744E+06    -36.4509E+06    -155.159E-03     303.094E-03    -147.935E-03     19.4934E-03    -155.387E-03     303.055E-03    -147.616E-03     17.5392E-03
            1348     9.32448E-03     149.470E-03    -27.1496E+06    -7.37620E+06     57.0722E+06    -35.4654E+06    -157.679E-03     307.065E-03    -149.386E-03     27.4846E-03    -157.935E-03     307.038E-03    -149.051E-03     25.5972E-03
            1349     10.0864E-03     149.660E-03    -30.9710E+06    -9.41111E+06     57.8564E+06    -34.7111E+06    -160.688E-03     311.451E-03    -150.763E-03     36.9197E-03    -160.970E-03     311.431E-03    -150.415E-03     35.1171E-03
            1350     10.8463E-03     149.851E-03    -35.1829E+06    -9.45110E+06     59.4738E+06    -33.9386E+06    -164.521E-03     316.615E-03    -152.094E-03     47.4170E-03    -164.837E-03     316.612E-03    -151.732E-03     45.6865E-03
            1351     11.6030E-03     150.039E-03    -37.2017E+06    -6.51969E+06     64.5587E+06    -30.6292E+06    -169.479E-03     322.909E-03    -153.430E-03     58.5423E-03    -169.834E-03     322.934E-03    -153.044E-03     56.8594E-03
            1352     12.3557E-03     150.221E-03    -34.5611E+06    -3.69044E+06     72.0880E+06    -24.3888E+06    -175.622E-03     330.442E-03    -154.820E-03     69.2137E-03    -176.005E-03     330.492E-03    -154.404E-03     67.5149E-03
            1353     13.1027E-03     150.389E-03    -27.4428E+06    -1.70302E+06     75.6009E+06    -20.9094E+06    -183.328E-03     339.635E-03    -156.307E-03     77.1926E-03    -183.721E-03     339.714E-03    -155.887E-03     75.2432E-03
            1354     13.8439E-03     150.534E-03    -14.4580E+06    -1.62856E+06     82.1494E+06    -14.4186E+06    -192.842E-03     350.870E-03    -158.027E-03     79.2001E-03    -193.245E-03     350.982E-03    -157.593E-03     76.5905E-03
            1355     14.5810E-03     150.649E-03     586.678E+03     13.8582E+06     96.3695E+06    -4.18208E+06    -202.591E-03     362.649E-03    -160.058E-03     62.5579E-03    -202.952E-03     362.785E-03    -159.597E-03     59.6113E-03
            1356     771.631E-06     149.452E-03     9.56848E+06    -21.1654E+06     12.4771E+06    -7.98738E+06    -158.962E-03     318.705E-03    -159.743E-03    -16.5706E-03    -158.947E-03     318.512E-03    -159.664E-03    -16.9398E-03
            1357     1.54089E-03     149.486E-03     10.3420E+06    -16.5873E+06     21.3186E+06    -13.5575E+06    -158.923E-03     318.910E-03    -159.987E-03    -29.1716E-03    -158.911E-03     318.722E-03    -159.871E-03    -29.8236E-03
            1358     2.30908E-03     149.537E-03     11.3061E+06    -13.2276E+06     33.0929E+06    -17.8856E+06    -158.506E-03     319.091E-03    -160.585E-03    -41.4966E-03    -158.495E-03     318.893E-03    -160.417E-03    -42.4147E-03
            1359     3.07592E-03     149.608E-03     11.2740E+06    -10.4111E+06     44.5732E+06    -20.3602E+06    -157.733E-03     319.045E-03    -161.313E-03    -52.6206E-03    -157.725E-03     318.836E-03    -161.091E-03    -53.7576E-03
            1360     3.84126E-03     149.697E-03     10.4333E+06    -7.82771E+06     54.7239E+06    -21.2566E+06    -156.580E-03     318.685E-03    -162.105E-03    -62.3181E-03    -156.577E-03     318.465E-03    -161.835E-03    -63.6281E-03
            1361     4.60521E-03     149.803E-03     8.92371E+06    -6.93021E+06     63.1067E+06    -21.0988E+06    -154.984E-03     317.893E-03    -162.909E-03    -70.3736E-03    -154.984E-03     317.659E-03    -162.596E-03    -71.8104E-03
            1362     5.36811E-03     149.925E-03     7.30329E+06    -6.71673E+06      70.103E+06    -20.4827E+06    -152.899E-03     316.570E-03    -163.671E-03    -76.6379E-03    -152.903E-03     316.323E-03    -163.321E-03    -78.1598E-03
            1363     6.13023E-03     150.063E-03     5.76184E+06    -5.29783E+06     76.3878E+06    -19.7566E+06    -150.315E-03     314.656E-03    -164.341E-03    -80.9585E-03    -150.326E-03     314.406E-03    -163.960E-03    -82.5304E-03
            1364     6.89224E-03     150.215E-03     4.16184E+06    -4.04044E+06     81.7381E+06    -18.5466E+06    -147.315E-03     312.192E-03    -164.876E-03    -83.1394E-03    -147.336E-03     311.944E-03    -164.468E-03    -84.7220E-03
            1365     7.65441E-03     150.379E-03     2.49446E+06    -2.92178E+06     85.8416E+06    -16.9639E+06    -144.004E-03     309.240E-03    -165.236E-03    -82.9823E-03    -144.037E-03     309.000E-03    -164.806E-03    -84.5392E-03
            1366     8.41784E-03     150.555E-03     619.992E+03    -1.61121E+06     88.3157E+06    -15.2783E+06    -140.576E-03     305.966E-03    -165.390E-03    -80.3837E-03    -140.625E-03     305.742E-03    -164.947E-03    -81.8848E-03
            1367     9.18296E-03     150.739E-03    -1.01496E+06    -1.45441E+06     89.3276E+06    -13.0463E+06    -137.357E-03     302.684E-03    -165.327E-03    -75.2557E-03    -137.421E-03     302.476E-03    -164.876E-03    -76.6681E-03
            1368     9.95051E-03     150.929E-03    -2.60002E+06    -1.93582E+06     89.2268E+06    -11.5340E+06    -134.630E-03     299.682E-03    -165.052E-03    -67.5900E-03    -134.709E-03     299.491E-03    -164.599E-03    -68.9019E-03
            1369     10.7207E-03     151.123E-03    -3.56198E+06    -2.67128E+06     88.8520E+06    -10.5776E+06    -132.783E-03     297.369E-03    -164.586E-03    -57.1212E-03    -132.875E-03     297.194E-03    -164.133E-03    -58.3284E-03
            1370     11.4938E-03     151.318E-03    -3.98554E+06    -2.96353E+06     88.1574E+06    -11.0069E+06    -132.325E-03     296.289E-03    -163.965E-03    -43.4860E-03    -132.429E-03     296.134E-03    -163.514E-03    -44.6039E-03
            1371     12.2689E-03     151.508E-03    -4.62580E+06    -5.28950E+06     85.8452E+06    -10.6363E+06    -133.838E-03     297.085E-03    -163.248E-03    -26.9830E-03    -133.950E-03     296.938E-03    -162.804E-03    -28.0013E-03
            1372     13.0457E-03     151.690E-03    -6.63464E+06     3.78868E+06     86.7972E+06    -12.0579E+06    -138.895E-03     301.460E-03    -162.565E-03    -7.91592E-03    -139.045E-03     301.376E-03    -162.127E-03    -8.91044E-03
            1373     13.8177E-03     151.857E-03    -3.62468E+06    -10.7109E+06     81.9710E+06    -13.8241E+06    -148.941E-03     311.049E-03    -162.109E-03     12.8874E-03    -149.083E-03     310.935E-03    -161.678E-03     11.6507E-03
            1374     14.5733E-03     152.001E-03     5.99488E+06    -3.95482E+06     73.0212E+06    -6.88748E+06    -161.652E-03     323.619E-03    -161.967E-03     26.7414E-03    -161.765E-03     323.554E-03    -161.605E-03     25.5591E-03
            1375     14.5306E-03     75.4096E-03    -5.29581E+06     112.965E+06     104.108E+06     164.935E+03    -161.753E-03     324.970E-03    -163.217E-03     37.4530E-03    -162.666E-03     325.963E-03    -162.852E-03     31.4283E-03
            1376     13.7644E-03     75.3477E-03    -12.0502E+06     106.060E+06     92.8859E+06     6.07828E+03    -162.139E-03     325.350E-03    -163.212E-03     58.8127E-03    -163.317E-03     326.593E-03    -162.884E-03     51.8915E-03
            1377     12.9994E-03     75.2753E-03    -17.7748E+06     95.9992E+06     80.6056E+06    -423.666E+03    -162.652E-03     325.853E-03    -163.201E-03     69.3542E-03    -163.874E-03     327.119E-03    -162.911E-03     62.5957E-03
            1378     12.2348E-03     75.1853E-03    -23.6577E+06     89.8781E+06     75.5638E+06     41.9413E+03    -163.045E-03     326.267E-03    -163.222E-03     79.8121E-03    -164.365E-03     327.602E-03    -162.940E-03     73.0505E-03
            1379     11.4698E-03     75.0853E-03    -30.2385E+06     62.8511E+06     66.5708E+06     682.863E+03    -163.429E-03     326.685E-03    -163.256E-03     86.2190E-03    -164.757E-03     327.936E-03    -162.971E-03     79.5789E-03
            1380     10.7048E-03     74.9783E-03    -36.2422E+06     20.7506E+06     55.8876E+06     553.893E+03    -163.810E-03     327.113E-03    -163.303E-03     90.2821E-03    -165.099E-03     328.184E-03    -163.001E-03     83.7704E-03
            1381     9.93992E-03     74.8673E-03    -42.5548E+06    -13.6180E+06     45.0684E+06    -78.1342E+03    -164.060E-03     327.396E-03    -163.336E-03     92.3911E-03    -165.300E-03     328.306E-03    -163.030E-03     86.0273E-03
            1382     9.17505E-03     74.7544E-03    -49.4792E+06    -40.5041E+06     35.3988E+06    -370.761E+03    -164.204E-03     327.570E-03    -163.366E-03     92.9806E-03    -165.393E-03     328.337E-03    -163.058E-03     86.8022E-03
            1383     8.41018E-03     74.6415E-03    -56.6707E+06    -63.8959E+06     25.7244E+06    -164.412E+03    -164.284E-03     327.676E-03    -163.392E-03     92.2229E-03    -165.410E-03     328.300E-03    -163.088E-03     86.2765E-03
            1384     7.64546E-03     74.5300E-03    -64.4148E+06    -85.4306E+06     15.2941E+06    -48.7818E+03    -164.295E-03     327.708E-03    -163.413E-03     90.0866E-03    -165.344E-03     328.181E-03    -163.119E-03     84.4228E-03
            1385     6.88065E-03     74.4220E-03    -72.7184E+06    -106.508E+06     3.80117E+06    -165.553E+03    -164.242E-03     327.673E-03    -163.431E-03     86.5126E-03    -165.198E-03     327.982E-03    -163.152E-03     81.1934E-03
            1386     6.11592E-03     74.3190E-03    -81.5404E+06    -127.332E+06    -8.84222E+06    -251.691E+03    -164.145E-03     327.591E-03    -163.446E-03     81.4491E-03    -164.993E-03     327.723E-03    -163.187E-03     76.5463E-03
            1387     5.35119E-03     74.2231E-03    -91.1476E+06    -148.614E+06    -23.2663E+06    -29.2438E+03    -164.000E-03     327.456E-03    -163.455E-03     74.9020E-03    -164.730E-03     327.402E-03    -163.224E-03     70.4888E-03
            1388     4.58655E-03     74.1359E-03    -100.983E+06    -171.034E+06    -39.8897E+06     103.283E+03    -163.843E-03     327.301E-03    -163.458E-03     67.0112E-03    -164.449E-03     327.057E-03    -163.263E-03     63.1487E-03
            1389     3.82195E-03     74.0591E-03    -111.363E+06    -194.561E+06    -59.1135E+06     31.2839E+03    -163.706E-03     327.155E-03    -163.450E-03     57.9140E-03    -164.190E-03     326.725E-03    -163.302E-03     54.6462E-03
            1390     3.05750E-03     73.9940E-03    -121.495E+06    -218.582E+06    -80.6498E+06     65.4318E+03    -163.568E-03     326.995E-03    -163.427E-03     47.7644E-03    -163.938E-03     326.392E-03    -163.337E-03     45.1254E-03
            1391     2.29305E-03     73.9418E-03    -131.078E+06    -243.092E+06    -103.616E+06        -640.114    -163.449E-03     326.842E-03    -163.394E-03     36.7625E-03    -163.716E-03     326.082E-03    -163.369E-03     34.7687E-03
            1392     1.52866E-03     73.9036E-03    -139.442E+06    -265.638E+06    -125.231E+06    -84.9171E+03    -163.380E-03     326.737E-03    -163.357E-03     25.2011E-03    -163.565E-03     325.847E-03    -163.396E-03     23.8526E-03
            1393     764.281E-06     73.8797E-03    -144.929E+06    -281.917E+06    -140.991E+06    -91.7571E+03    -163.413E-03     326.670E-03    -163.257E-03     13.9155E-03    -163.542E-03     325.693E-03    -163.343E-03     13.1775E-03
            1394     14.5295E-03     74.0961E-03    -5.65149E+06     112.704E+06     103.856E+06     341.707E+03    -161.989E-03     325.216E-03    -163.227E-03     37.1671E-03    -162.902E-03     326.207E-03    -162.862E-03     31.1351E-03
            1395     13.7654E-03     74.0346E-03    -10.4733E+06     107.531E+06     94.5721E+06     286.747E+03    -162.257E-03     325.473E-03    -163.216E-03     58.5313E-03    -163.431E-03     326.717E-03    -162.884E-03     51.6049E-03
            1396     13.0003E-03     73.9616E-03    -17.3719E+06     96.0338E+06     81.1659E+06     216.211E+03    -162.650E-03     325.850E-03    -163.201E-03     69.2481E-03    -163.871E-03     327.115E-03    -162.909E-03     62.4958E-03
            1397     12.2350E-03     73.8721E-03    -24.3970E+06     89.0100E+06     74.8794E+06     2.58641E+03    -163.079E-03     326.296E-03    -163.216E-03     79.8039E-03    -164.400E-03     327.629E-03    -162.936E-03     73.0401E-03
            1398     11.4699E-03     73.7719E-03    -29.7368E+06     62.9002E+06     66.7074E+06    -312.373E+03    -163.472E-03     326.721E-03    -163.249E-03     86.2368E-03    -164.799E-03     327.972E-03    -162.964E-03     79.5784E-03
            1399     10.7049E-03     73.6650E-03    -35.6496E+06     20.5173E+06     56.1474E+06    -370.514E+03    -163.805E-03     327.100E-03    -163.295E-03     90.3198E-03    -165.092E-03     328.170E-03    -162.992E-03     83.7914E-03
            1400     9.94005E-03     73.5540E-03    -42.2418E+06    -13.2841E+06     45.4088E+06     75.5959E+03    -164.023E-03     327.353E-03    -163.330E-03     92.4660E-03    -165.263E-03     328.264E-03    -163.022E-03     86.1028E-03
            1401     9.17511E-03     73.4412E-03    -49.1163E+06    -40.2442E+06     35.6883E+06     75.2106E+03    -164.174E-03     327.536E-03    -163.362E-03     93.0658E-03    -165.362E-03     328.303E-03    -163.054E-03     86.8955E-03
            1402     8.41029E-03     73.3282E-03    -56.5733E+06    -64.1619E+06     25.7154E+06    -50.7824E+03    -164.268E-03     327.658E-03    -163.390E-03     92.3239E-03    -165.393E-03     328.280E-03    -163.086E-03     86.3820E-03
            1403     7.64540E-03     73.2168E-03    -64.4924E+06    -85.3811E+06     15.2305E+06    -49.0743E+03    -164.294E-03     327.706E-03    -163.412E-03     90.1826E-03    -165.344E-03     328.180E-03    -163.118E-03     84.5221E-03
            1404     6.88065E-03     73.1087E-03    -72.7703E+06    -106.360E+06     3.88530E+06    -71.6524E+03    -164.261E-03     327.691E-03    -163.429E-03     86.5487E-03    -165.218E-03     328.000E-03    -163.150E-03     81.2331E-03
            1405     6.11591E-03     73.0058E-03    -81.7111E+06    -127.453E+06    -8.90049E+06     6.12292E+03    -164.157E-03     327.599E-03    -163.442E-03     81.4113E-03    -165.005E-03     327.730E-03    -163.183E-03     76.5134E-03
            1406     5.35125E-03     72.9098E-03    -91.1858E+06    -148.851E+06    -23.4781E+06    -42.8253E+03    -164.016E-03     327.464E-03    -163.448E-03     74.8346E-03    -164.745E-03     327.409E-03    -163.217E-03     70.4212E-03
            1407     4.58663E-03     72.8227E-03    -100.921E+06    -171.014E+06    -39.9983E+06    -56.2317E+03    -163.864E-03     327.310E-03    -163.446E-03     66.9548E-03    -164.469E-03     327.066E-03    -163.252E-03     63.0889E-03
            1408     3.82207E-03     72.7458E-03    -110.974E+06    -194.446E+06    -59.0705E+06    -100.872E+03    -163.705E-03     327.138E-03    -163.433E-03     57.8668E-03    -164.187E-03     326.708E-03    -163.286E-03     54.5958E-03
            1409     3.05753E-03     72.6807E-03    -121.474E+06    -218.791E+06    -80.6088E+06    -169.134E+03    -163.554E-03     326.962E-03    -163.409E-03     47.7348E-03    -163.923E-03     326.358E-03    -163.319E-03     45.0905E-03
            1410     2.29310E-03     72.6286E-03    -131.380E+06    -243.153E+06    -103.456E+06     62.8346E+03    -163.435E-03     326.809E-03    -163.375E-03     36.7945E-03    -163.704E-03     326.049E-03    -163.349E-03     34.7988E-03
            1411     1.52870E-03     72.5903E-03    -139.356E+06    -265.437E+06    -124.961E+06     113.468E+03    -163.368E-03     326.702E-03    -163.334E-03     25.2685E-03    -163.553E-03     325.812E-03    -163.372E-03     23.9203E-03
            1412     764.406E-06     72.5665E-03    -144.914E+06    -282.098E+06    -141.144E+06     2.93891E+03    -163.362E-03     326.617E-03    -163.255E-03     13.8777E-03    -163.491E-03     325.639E-03    -163.342E-03     13.1403E-03
            1413     14.5305E-03     72.7823E-03    -5.89373E+06     112.539E+06     103.741E+06    -219.469E+03    -161.885E-03     325.110E-03    -163.225E-03     37.2363E-03    -162.797E-03     326.101E-03    -162.861E-03     31.2086E-03
            1414     13.7648E-03     72.7210E-03    -12.1022E+06     106.215E+06     93.8339E+06     357.288E+03    -162.261E-03     325.480E-03    -163.219E-03     58.8444E-03    -163.442E-03     326.723E-03    -162.886E-03     51.9214E-03
            1415     12.9996E-03     72.6486E-03    -16.5303E+06     96.9647E+06     82.4039E+06     868.039E+03    -162.744E-03     325.948E-03    -163.203E-03     69.3989E-03    -163.966E-03     327.216E-03    -162.908E-03     62.6493E-03
            1416     12.2348E-03     72.5584E-03    -21.5252E+06     90.3225E+06     76.6396E+06    -191.891E+03    -163.123E-03     326.337E-03    -163.214E-03     79.7661E-03    -164.434E-03     327.671E-03    -162.931E-03     72.9944E-03
            1417     11.4700E-03     72.4586E-03    -28.0880E+06     62.2123E+06     67.0995E+06    -415.035E+03    -163.434E-03     326.679E-03    -163.245E-03     86.1893E-03    -164.754E-03     327.926E-03    -162.959E-03     79.5217E-03
            1418     10.7050E-03     72.3517E-03    -35.0061E+06     20.2167E+06     56.2081E+06     240.677E+03    -163.713E-03     327.008E-03    -163.295E-03     90.4480E-03    -164.997E-03     328.076E-03    -162.992E-03     83.9299E-03
            1419     9.93996E-03     72.2408E-03    -41.9914E+06    -13.3391E+06     45.4768E+06     152.830E+03    -163.993E-03     327.329E-03    -163.336E-03     92.7009E-03    -165.233E-03     328.240E-03    -163.028E-03     86.3443E-03
            1420     9.17508E-03     72.1279E-03    -49.2466E+06    -40.1673E+06     35.6902E+06     141.775E+03    -164.198E-03     327.568E-03    -163.369E-03     93.2591E-03    -165.387E-03     328.336E-03    -163.061E-03     87.0932E-03
            1421     8.41013E-03     72.0150E-03    -56.7586E+06    -64.1369E+06     25.6123E+06     200.230E+03    -164.307E-03     327.703E-03    -163.395E-03     92.4006E-03    -165.433E-03     328.325E-03    -163.092E-03     86.4639E-03
            1422     7.64537E-03     71.9035E-03    -64.4696E+06    -85.1977E+06     15.3151E+06     98.1112E+03    -164.341E-03     327.756E-03    -163.414E-03     90.1626E-03    -165.391E-03     328.230E-03    -163.121E-03     84.5044E-03
            1423     6.88064E-03     71.7954E-03    -72.7606E+06    -106.456E+06     3.92983E+06     102.905E+03    -164.306E-03     327.733E-03    -163.427E-03     86.4923E-03    -165.262E-03     328.042E-03    -163.148E-03     81.1768E-03
            1424     6.11600E-03     71.6925E-03    -81.5115E+06    -127.384E+06    -8.82124E+06     87.1095E+03    -164.195E-03     327.628E-03    -163.433E-03     81.3471E-03    -165.043E-03     327.760E-03    -163.174E-03     76.4460E-03
            1425     5.35133E-03     71.5966E-03    -90.7433E+06    -148.577E+06    -23.2859E+06    -71.5672E+03    -164.035E-03     327.468E-03    -163.434E-03     74.8053E-03    -164.763E-03     327.415E-03    -163.203E-03     70.3882E-03
            1426     4.58671E-03     71.5094E-03    -100.803E+06    -171.208E+06    -39.9746E+06    -185.123E+03    -163.867E-03     327.295E-03    -163.428E-03     66.9517E-03    -164.472E-03     327.051E-03    -163.233E-03     63.0811E-03
            1427     3.82215E-03     71.4325E-03    -111.264E+06    -194.511E+06    -59.0840E+06    -70.3575E+03    -163.680E-03     327.094E-03    -163.414E-03     57.8697E-03    -164.164E-03     326.664E-03    -163.266E-03     54.5974E-03
            1428     3.05762E-03     71.3675E-03    -121.484E+06    -218.814E+06    -80.6597E+06     28.2157E+03    -163.509E-03     326.902E-03    -163.393E-03     47.7566E-03    -163.879E-03     326.298E-03    -163.303E-03     45.1153E-03
            1429     2.29309E-03     71.3154E-03    -131.262E+06    -243.397E+06    -103.627E+06    -69.7034E+03    -163.402E-03     326.768E-03    -163.367E-03     36.8200E-03    -163.670E-03     326.007E-03    -163.342E-03     34.8222E-03
            1430     1.52867E-03     71.2771E-03    -139.590E+06    -265.423E+06    -125.012E+06     28.0335E+03    -163.341E-03     326.680E-03    -163.339E-03     25.2995E-03    -163.527E-03     325.791E-03    -163.377E-03     23.9495E-03
            1431     764.265E-06     71.2533E-03    -145.126E+06    -281.860E+06    -140.857E+06     149.858E+03    -163.433E-03     326.642E-03    -163.209E-03     13.8677E-03    -163.563E-03     325.665E-03    -163.294E-03     13.1329E-03
            1432     14.5297E-03     71.4701E-03    -5.72017E+06     112.716E+06     104.003E+06     550.886E+03    -161.973E-03     325.189E-03    -163.216E-03     36.9042E-03    -162.883E-03     326.178E-03    -162.851E-03     30.8881E-03
            1433     13.7647E-03     71.4072E-03    -11.3362E+06     106.973E+06     94.3428E+06    -794.216E+03    -162.244E-03     325.450E-03    -163.206E-03     58.2083E-03    -163.423E-03     326.695E-03    -162.873E-03     51.2432E-03
            1434     13.0003E-03     71.3349E-03    -16.5648E+06     96.9018E+06     82.2326E+06    -1.41344E+06    -162.648E-03     325.838E-03    -163.190E-03     68.7763E-03    -163.869E-03     327.106E-03    -162.896E-03     61.9801E-03
            1435     12.2352E-03     71.2450E-03    -21.7201E+06     89.9088E+06     76.4293E+06    -130.016E+03    -162.908E-03     326.118E-03    -163.210E-03     79.7446E-03    -164.218E-03     327.449E-03    -162.927E-03     72.9838E-03
            1436     11.4700E-03     71.1453E-03    -29.2975E+06     61.2788E+06     66.1489E+06     813.727E+03    -163.275E-03     326.527E-03    -163.252E-03     86.4446E-03    -164.598E-03     327.771E-03    -162.967E-03     79.8090E-03
            1437     10.7048E-03     71.0388E-03    -36.2916E+06     20.7090E+06     55.7732E+06     683.717E+03    -163.708E-03     327.017E-03    -163.310E-03     90.6782E-03    -164.997E-03     328.089E-03    -163.008E-03     84.1798E-03
            1438     9.93970E-03     70.9275E-03    -42.6636E+06    -12.6719E+06     45.3758E+06     317.199E+03    -164.044E-03     327.395E-03    -163.351E-03     92.7790E-03    -165.286E-03     328.309E-03    -163.044E-03     86.4339E-03
            1439     9.17478E-03     70.8146E-03    -49.8277E+06    -40.4356E+06     35.2366E+06     48.3182E+03    -164.291E-03     327.670E-03    -163.379E-03     93.1872E-03    -165.481E-03     328.438E-03    -163.072E-03     87.0186E-03
            1440     8.41012E-03     70.7016E-03    -56.9043E+06    -64.0187E+06     25.5488E+06     25.1411E+03    -164.406E-03     327.803E-03    -163.397E-03     92.2419E-03    -165.533E-03     328.427E-03    -163.094E-03     86.2957E-03
            1441     7.64542E-03     70.5901E-03    -64.3973E+06    -85.2020E+06     15.3772E+06     73.7306E+03    -164.389E-03     327.798E-03    -163.408E-03     90.0153E-03    -165.439E-03     328.271E-03    -163.115E-03     84.3512E-03
            1442     6.88073E-03     70.4820E-03    -72.5951E+06    -106.405E+06     3.96178E+06     44.9880E+03    -164.306E-03     327.723E-03    -163.417E-03     86.4024E-03    -165.261E-03     328.031E-03    -163.138E-03     81.0825E-03
            1443     6.11604E-03     70.3791E-03    -81.4904E+06    -127.377E+06    -8.80610E+06    -61.9946E+03    -164.181E-03     327.603E-03    -163.423E-03     81.3257E-03    -165.028E-03     327.735E-03    -163.164E-03     76.4194E-03
            1444     5.35144E-03     70.2834E-03    -90.9869E+06    -148.538E+06    -23.1772E+06     46.8063E+03    -164.025E-03     327.449E-03    -163.424E-03     74.8490E-03    -164.755E-03     327.396E-03    -163.192E-03     70.4314E-03
            1445     4.58681E-03     70.1961E-03    -100.915E+06    -171.041E+06    -39.8876E+06     82.7244E+03    -163.836E-03     327.256E-03    -163.420E-03     67.0253E-03    -164.442E-03     327.012E-03    -163.225E-03     63.1586E-03
            1446     3.82221E-03     70.1194E-03    -111.269E+06    -194.716E+06    -59.1465E+06    -66.6466E+03    -163.646E-03     327.057E-03    -163.411E-03     57.9618E-03    -164.131E-03     326.627E-03    -163.263E-03     54.6907E-03
            1447     3.05760E-03     70.0543E-03    -121.461E+06    -218.801E+06    -80.5502E+06    -50.9125E+03    -163.502E-03     326.898E-03    -163.395E-03     47.8601E-03    -163.872E-03     326.293E-03    -163.305E-03     45.2186E-03
            1448     2.29312E-03     70.0022E-03    -131.143E+06    -243.320E+06    -103.581E+06    -43.4584E+03    -163.407E-03     326.777E-03    -163.370E-03     36.8726E-03    -163.674E-03     326.015E-03    -163.345E-03     34.8765E-03
            1449     1.52867E-03     69.9640E-03    -139.488E+06    -265.681E+06    -125.136E+06    -133.369E+03    -163.345E-03     326.687E-03    -163.342E-03     25.2864E-03    -163.530E-03     325.796E-03    -163.380E-03     23.9359E-03
            1450     764.326E-06     69.9401E-03    -145.125E+06    -281.831E+06    -141.026E+06     -56.576E+03    -163.444E-03     326.648E-03    -163.204E-03     13.9036E-03    -163.574E-03     325.672E-03    -163.290E-03     13.1678E-03
            1451     14.5310E-03     70.1561E-03    -5.28595E+06     112.827E+06     104.585E+06    -287.819E+03    -162.152E-03     325.355E-03    -163.202E-03     36.7786E-03    -163.065E-03     326.346E-03    -162.835E-03     30.7298E-03
            1452     13.7662E-03     70.0939E-03    -9.56719E+06     108.180E+06     94.9334E+06    -235.866E+03    -162.036E-03     325.226E-03    -163.190E-03     58.8414E-03    -163.213E-03     326.477E-03    -162.858E-03     51.8946E-03
            1453     13.0004E-03     70.0218E-03    -17.2577E+06     95.9331E+06     80.1002E+06     454.141E+03    -162.293E-03     325.478E-03    -163.185E-03     69.6950E-03    -163.513E-03     326.745E-03    -162.899E-03     62.9689E-03
            1454     12.2349E-03     69.9323E-03    -25.6701E+06     88.3407E+06     73.5699E+06     855.242E+03    -162.776E-03     326.000E-03    -163.224E-03     80.4004E-03    -164.099E-03     327.332E-03    -162.947E-03     73.6834E-03
            1455     11.4693E-03     69.8324E-03    -31.4312E+06     62.5059E+06     65.4523E+06     93.9742E+03    -163.354E-03     326.628E-03    -163.274E-03     86.7158E-03    -164.687E-03     327.881E-03    -162.992E-03     80.0852E-03
            1456     10.7044E-03     69.7252E-03    -36.9249E+06     20.5763E+06     55.5396E+06    -631.656E+03    -163.906E-03     327.231E-03    -163.325E-03     90.5392E-03    -165.197E-03     328.303E-03    -163.024E-03     84.0175E-03
            1457     9.93968E-03     69.6143E-03    -43.2894E+06    -13.0326E+06     45.0973E+06    -178.966E+03    -164.215E-03     327.567E-03    -163.352E-03     92.4635E-03    -165.459E-03     328.481E-03    -163.045E-03     86.0988E-03
            1458     9.17495E-03     69.5010E-03    -49.7045E+06    -40.0218E+06     35.3105E+06    -64.7850E+03    -164.354E-03     327.723E-03    -163.369E-03     92.8801E-03    -165.544E-03     328.492E-03    -163.062E-03     86.7025E-03
            1459     8.41026E-03     69.3880E-03    -56.7785E+06    -64.2407E+06     25.5187E+06    -262.993E+03    -164.393E-03     327.776E-03    -163.383E-03     92.0277E-03    -165.519E-03     328.398E-03    -163.080E-03     86.0727E-03
            1460     7.64558E-03     69.2767E-03    -64.5297E+06    -85.3648E+06     15.3601E+06    -93.3165E+03    -164.354E-03     327.749E-03    -163.395E-03     89.9501E-03    -165.404E-03     328.222E-03    -163.101E-03     84.2802E-03
            1461     6.88087E-03     69.1687E-03    -72.8403E+06    -106.356E+06     3.99636E+06     7.42361E+03    -164.253E-03     327.660E-03    -163.407E-03     86.4124E-03    -165.210E-03     327.969E-03    -163.127E-03     81.0917E-03
            1462     6.11612E-03     69.0659E-03    -81.6572E+06    -127.312E+06    -8.80241E+06     17.9028E+03    -164.120E-03     327.538E-03    -163.418E-03     81.3919E-03    -164.969E-03     327.670E-03    -163.159E-03     76.4902E-03
            1463     5.35137E-03     68.9700E-03    -91.0003E+06    -148.741E+06    -23.2023E+06    -38.0770E+03    -163.978E-03     327.405E-03    -163.427E-03     74.9356E-03    -164.708E-03     327.351E-03    -163.195E-03     70.5208E-03
            1464     4.58673E-03     68.8830E-03    -100.784E+06    -171.010E+06    -39.6987E+06     26.3819E+03    -163.806E-03     327.236E-03    -163.430E-03     67.0881E-03    -164.412E-03     326.992E-03    -163.235E-03     63.2235E-03
            1465     3.82204E-03     68.8062E-03    -110.848E+06    -194.413E+06    -58.8469E+06    -11.7277E+03    -163.640E-03     327.068E-03    -163.428E-03     58.0197E-03    -164.123E-03     326.637E-03    -163.279E-03     54.7523E-03
            1466     3.05752E-03     68.7411E-03    -121.395E+06    -219.042E+06    -80.4960E+06    -155.843E+03    -163.515E-03     326.931E-03    -163.416E-03     47.9146E-03    -163.884E-03     326.325E-03    -163.325E-03     45.2732E-03
            1467     2.29304E-03     68.6890E-03    -131.306E+06    -243.400E+06    -103.434E+06    -53.9430E+03    -163.429E-03     326.822E-03    -163.392E-03     36.9519E-03    -163.698E-03     326.060E-03    -163.366E-03     34.9557E-03
            1468     1.52869E-03     68.6507E-03    -139.411E+06    -265.617E+06    -125.075E+06     11.3027E+03    -163.380E-03     326.739E-03    -163.359E-03     25.3604E-03    -163.565E-03     325.849E-03    -163.397E-03     24.0109E-03
            1469     764.326E-06     68.6269E-03    -145.006E+06    -282.101E+06    -141.057E+06    -92.0370E+03    -163.448E-03     326.675E-03    -163.227E-03     13.9626E-03    -163.578E-03     325.698E-03    -163.313E-03     13.2247E-03
            1470     14.5303E-03     68.8422E-03    -5.25397E+06     112.372E+06     103.722E+06    -701.242E+03    -161.511E-03     324.720E-03    -163.210E-03     37.3077E-03    -162.421E-03     325.710E-03    -162.846E-03     31.2903E-03
            1471     13.7645E-03     68.7816E-03    -12.3117E+06     105.011E+06     91.8983E+06     1.18949E+06    -161.797E-03     325.017E-03    -163.220E-03     59.6154E-03    -162.975E-03     326.258E-03    -162.895E-03     52.7502E-03
            1472     12.9991E-03     68.7089E-03    -17.9630E+06     95.8005E+06     80.3250E+06     2.03402E+06    -162.482E-03     325.711E-03    -163.229E-03     70.0078E-03    -163.703E-03     326.975E-03    -162.940E-03     63.3269E-03
            1473     12.2340E-03     68.6192E-03    -22.9271E+06     90.5128E+06     75.8924E+06     612.851E+03    -163.165E-03     326.420E-03    -163.255E-03     80.0512E-03    -164.481E-03     327.755E-03    -162.973E-03     73.3077E-03
            1474     11.4694E-03     68.5187E-03    -28.6095E+06     63.7915E+06     67.2829E+06    -686.356E+03    -163.667E-03     326.947E-03    -163.280E-03     86.1225E-03    -164.989E-03     328.199E-03    -162.995E-03     79.4526E-03
            1475     10.7046E-03     68.4117E-03    -35.1745E+06     20.0217E+06     56.0886E+06    -478.871E+03    -164.048E-03     327.360E-03    -163.312E-03     90.0399E-03    -165.331E-03     328.426E-03    -163.010E-03     83.4974E-03
            1476     9.93999E-03     68.3004E-03    -41.9486E+06    -13.6310E+06     45.4730E+06    -269.344E+03    -164.257E-03     327.586E-03    -163.329E-03     92.1226E-03    -165.495E-03     328.495E-03    -163.021E-03     85.7412E-03
            1477     9.17535E-03     68.1876E-03    -49.0081E+06    -39.8236E+06     35.8982E+06    -145.269E+03    -164.270E-03     327.616E-03    -163.346E-03     92.7822E-03    -165.458E-03     328.384E-03    -163.038E-03     86.6019E-03
            1478     8.41049E-03     68.0747E-03    -56.5182E+06    -64.2531E+06     25.8504E+06    -53.9349E+03    -164.265E-03     327.632E-03    -163.367E-03     92.1065E-03    -165.390E-03     328.253E-03    -163.063E-03     86.1614E-03
            1479     7.64565E-03     67.9635E-03    -64.5083E+06    -85.6183E+06     15.4213E+06    -116.617E+03    -164.257E-03     327.646E-03    -163.389E-03     90.0608E-03    -165.307E-03     328.118E-03    -163.094E-03     84.3971E-03
            1480     6.88083E-03     67.8555E-03    -72.7445E+06    -106.480E+06     4.06229E+06    -63.9557E+03    -164.200E-03     327.608E-03    -163.408E-03     86.5317E-03    -165.156E-03     327.916E-03    -163.128E-03     81.2155E-03
            1481     6.11605E-03     67.7528E-03    -81.3681E+06    -127.262E+06    -8.61513E+06    -19.0422E+03    -164.094E-03     327.520E-03    -163.426E-03     81.4818E-03    -164.941E-03     327.651E-03    -163.166E-03     76.5846E-03
            1482     5.35133E-03     67.6569E-03    -90.6987E+06    -148.621E+06    -23.1730E+06    -65.9231E+03    -163.946E-03     327.386E-03    -163.440E-03     74.9796E-03    -164.674E-03     327.331E-03    -163.208E-03     70.5690E-03
            1483     4.58660E-03     67.5698E-03    -100.872E+06    -171.271E+06    -39.8701E+06    -130.442E+03    -163.802E-03     327.251E-03    -163.449E-03     67.1017E-03    -164.407E-03     327.006E-03    -163.254E-03     63.2373E-03
            1484     3.82205E-03     67.4930E-03    -111.189E+06    -194.445E+06    -58.8479E+06     83.3416E+03    -163.665E-03     327.113E-03    -163.449E-03     58.0211E-03    -164.149E-03     326.683E-03    -163.300E-03     54.7553E-03
            1485     3.05745E-03     67.4279E-03    -121.358E+06    -218.805E+06    -80.4776E+06     123.462E+03    -163.534E-03     326.969E-03    -163.436E-03     47.8916E-03    -163.903E-03     326.364E-03    -163.345E-03     45.2549E-03
            1486     2.29297E-03     67.3757E-03    -131.247E+06    -243.593E+06    -103.600E+06    -81.8580E+03    -163.435E-03     326.850E-03    -163.415E-03     36.9236E-03    -163.703E-03     326.087E-03    -163.389E-03     34.9279E-03
            1487     1.52854E-03     67.3374E-03    -139.525E+06    -265.635E+06    -125.179E+06    -58.9847E+03    -163.384E-03     326.776E-03    -163.392E-03     25.3486E-03    -163.569E-03     325.886E-03    -163.430E-03     23.9979E-03
            1488     764.266E-06     67.3136E-03    -145.016E+06    -282.165E+06    -141.139E+06    -9.58964E+03    -163.495E-03     326.755E-03    -163.260E-03     13.9838E-03    -163.624E-03     325.777E-03    -163.347E-03     13.2467E-03
            1489     14.5296E-03     67.5309E-03    -5.86042E+06     111.628E+06     102.835E+06     903.870E+03    -161.400E-03     324.637E-03    -163.237E-03     37.2754E-03    -162.310E-03     325.624E-03    -162.876E-03     31.2818E-03
            1490     13.7640E-03     67.4682E-03    -12.6459E+06     104.902E+06     92.8481E+06     269.365E+03    -162.145E-03     325.394E-03    -163.249E-03     58.6685E-03    -163.324E-03     326.631E-03    -162.918E-03     51.7522E-03
            1491     12.9991E-03     67.3956E-03    -17.2806E+06     96.7963E+06     82.6795E+06    -1.02195E+06    -162.940E-03     326.177E-03    -163.236E-03     68.7523E-03    -164.162E-03     327.441E-03    -162.938E-03     61.9665E-03
            1492     12.2347E-03     67.3048E-03    -21.2421E+06     91.6361E+06     77.5712E+06    -929.973E+03    -163.369E-03     326.602E-03    -163.233E-03     79.1098E-03    -164.680E-03     327.938E-03    -162.947E-03     72.3088E-03
            1493     11.4700E-03     67.2051E-03    -27.2847E+06     63.0749E+06     67.8176E+06     195.864E+03    -163.672E-03     326.917E-03    -163.245E-03     85.6175E-03    -164.987E-03     328.162E-03    -162.958E-03     78.9464E-03
            1494     10.7052E-03     67.0980E-03    -34.5364E+06     19.9954E+06     56.5869E+06     518.548E+03    -163.914E-03     327.192E-03    -163.278E-03     89.9686E-03    -165.193E-03     328.256E-03    -162.974E-03     83.4449E-03
            1495     9.94043E-03     66.9870E-03    -41.8078E+06    -13.2977E+06     45.8280E+06     196.622E+03    -164.038E-03     327.344E-03    -163.306E-03     92.2620E-03    -165.275E-03     328.253E-03    -162.997E-03     85.9003E-03
            1496     9.17541E-03     66.8745E-03    -49.0831E+06    -40.1481E+06     35.9899E+06     160.954E+03    -164.128E-03     327.465E-03    -163.337E-03     93.0118E-03    -165.316E-03     328.232E-03    -163.027E-03     86.8468E-03
            1497     8.41045E-03     66.7616E-03    -56.5092E+06    -64.0328E+06     25.9985E+06     202.789E+03    -164.196E-03     327.563E-03    -163.367E-03     92.3226E-03    -165.321E-03     328.185E-03    -163.062E-03     86.3918E-03
            1498     7.64555E-03     66.6503E-03    -64.2280E+06    -85.5049E+06     15.4658E+06     43.5978E+03    -164.207E-03     327.602E-03    -163.395E-03     90.1547E-03    -165.255E-03     328.074E-03    -163.100E-03     84.5016E-03
            1499     6.88069E-03     66.5423E-03    -72.5361E+06    -106.514E+06     3.95474E+06    -90.1270E+03    -164.173E-03     327.593E-03    -163.420E-03     86.5803E-03    -165.128E-03     327.901E-03    -163.140E-03     81.2689E-03
            1500     6.11594E-03     66.4395E-03    -81.4518E+06    -127.442E+06    -8.75277E+06    -21.9660E+03    -164.085E-03     327.527E-03    -163.442E-03     81.5059E-03    -164.932E-03     327.658E-03    -163.183E-03     76.6112E-03
            1501     5.35120E-03     66.3437E-03    -90.9104E+06    -148.529E+06    -23.2306E+06     102.480E+03    -163.958E-03     327.416E-03    -163.458E-03     75.0135E-03    -164.687E-03     327.362E-03    -163.227E-03     70.6061E-03
            1502     4.58653E-03     66.2565E-03    -100.950E+06    -171.207E+06    -40.0729E+06     33.7215E+03    -163.828E-03     327.295E-03    -163.467E-03     67.1362E-03    -164.434E-03     327.051E-03    -163.273E-03     63.2738E-03
            1503     3.82189E-03     66.1797E-03    -111.445E+06    -194.806E+06    -59.1842E+06    -61.9540E+03    -163.703E-03     327.167E-03    -163.464E-03     58.0208E-03    -164.188E-03     326.736E-03    -163.316E-03     54.7515E-03
            1504     3.05743E-03     66.1146E-03    -121.643E+06    -218.680E+06    -80.4984E+06     116.924E+03    -163.582E-03     327.026E-03    -163.444E-03     47.8581E-03    -163.952E-03     326.422E-03    -163.353E-03     45.2196E-03
            1505     2.29300E-03     66.0624E-03    -131.147E+06    -243.317E+06    -103.598E+06     155.006E+03    -163.465E-03     326.876E-03    -163.412E-03     36.8283E-03    -163.732E-03     326.115E-03    -163.387E-03     34.8356E-03
            1506     1.52862E-03     66.0241E-03    -139.455E+06    -265.762E+06    -125.257E+06     2.13342E+03    -163.382E-03     326.763E-03    -163.381E-03     25.2533E-03    -163.567E-03     325.872E-03    -163.420E-03     23.9056E-03
            1507     764.223E-06     66.0002E-03    -145.160E+06    -282.148E+06    -141.156E+06     15.3644E+03    -163.442E-03     326.728E-03    -163.286E-03     13.9156E-03    -163.572E-03     325.751E-03    -163.372E-03     13.1800E-03
            1508     14.5295E-03     66.2176E-03    -6.68533E+06     111.686E+06     103.125E+06     609.385E+03    -162.286E-03     325.514E-03    -163.229E-03     36.3658E-03    -163.201E-03     326.503E-03    -162.865E-03     30.3073E-03
            1509     13.7651E-03     66.1546E-03    -10.3682E+06     107.552E+06     95.3502E+06    -518.102E+03    -162.562E-03     325.767E-03    -163.205E-03     57.8643E-03    -163.739E-03     327.013E-03    -162.869E-03     50.8752E-03
            1510     13.0007E-03     66.0812E-03    -15.8448E+06     97.5614E+06     82.6474E+06    -1.22787E+06    -162.804E-03     325.977E-03    -163.172E-03     68.4826E-03    -164.019E-03     327.242E-03    -162.878E-03     61.6857E-03
            1511     12.2357E-03     65.9917E-03    -23.9449E+06     89.3427E+06     75.1426E+06    -758.788E+03    -163.083E-03     326.260E-03    -163.177E-03     79.2644E-03    -164.399E-03     327.590E-03    -162.896E-03     72.4885E-03
            1512     11.4705E-03     65.8915E-03    -30.7027E+06     62.0512E+06     66.1701E+06     78.8504E+03    -163.359E-03     326.568E-03    -163.210E-03     86.0013E-03    -164.685E-03     327.814E-03    -162.924E-03     79.3615E-03
            1513     10.7055E-03     65.7849E-03    -36.5757E+06     20.3572E+06     55.9785E+06     186.528E+03    -163.650E-03     326.913E-03    -163.263E-03     90.3822E-03    -164.938E-03     327.980E-03    -162.959E-03     83.8832E-03
            1514     9.94020E-03     65.6741E-03    -42.8093E+06    -13.2830E+06     45.3299E+06     166.995E+03    -163.882E-03     327.189E-03    -163.307E-03     92.5991E-03    -165.123E-03     328.099E-03    -162.999E-03     86.2574E-03
            1515     9.17518E-03     65.5613E-03    -49.4338E+06    -40.1617E+06     35.6065E+06     164.786E+03    -164.097E-03     327.443E-03    -163.346E-03     93.1655E-03    -165.285E-03     328.210E-03    -163.038E-03     87.0097E-03
            1516     8.41031E-03     65.4484E-03    -56.5988E+06    -64.0262E+06     25.7542E+06     148.295E+03    -164.209E-03     327.588E-03    -163.379E-03     92.3465E-03    -165.333E-03     328.209E-03    -163.075E-03     86.4176E-03
            1517     7.64545E-03     65.3372E-03    -64.3358E+06    -85.2391E+06     15.3819E+06     136.098E+03    -164.213E-03     327.621E-03    -163.407E-03     90.1748E-03    -165.261E-03     328.093E-03    -163.114E-03     84.5252E-03
            1518     6.88065E-03     65.2292E-03    -72.6471E+06    -106.422E+06     3.88534E+06     71.4377E+03    -164.169E-03     327.603E-03    -163.434E-03     86.5991E-03    -165.124E-03     327.912E-03    -163.155E-03     81.2906E-03
            1519     6.11581E-03     65.1263E-03    -81.6972E+06    -127.606E+06    -8.96961E+06     46.9636E+03    -164.096E-03     327.554E-03    -163.457E-03     81.5066E-03    -164.944E-03     327.684E-03    -163.199E-03     76.6118E-03
            1520     5.35108E-03     65.0305E-03    -91.2959E+06    -148.787E+06    -23.3817E+06     156.900E+03    -164.005E-03     327.477E-03    -163.472E-03     74.9549E-03    -164.735E-03     327.423E-03    -163.241E-03     70.5454E-03
            1521     4.58644E-03     64.9432E-03    -101.050E+06    -170.901E+06    -39.9886E+06     282.814E+03    -163.876E-03     327.350E-03    -163.474E-03     67.0399E-03    -164.482E-03     327.107E-03    -163.280E-03     63.1794E-03
            1522     3.82193E-03     64.8664E-03    -111.085E+06    -194.486E+06     -59.167E+06     117.549E+03    -163.736E-03     327.198E-03    -163.462E-03     57.9180E-03    -164.219E-03     326.768E-03    -163.315E-03     54.6516E-03
            1523     3.05742E-03     64.8012E-03    -121.488E+06    -218.967E+06    -80.6192E+06    -81.7574E+03    -163.601E-03     327.038E-03    -163.436E-03     47.7825E-03    -163.970E-03     326.432E-03    -163.346E-03     45.1416E-03
            1524     2.29306E-03     64.7490E-03    -131.380E+06    -243.255E+06    -103.607E+06     42.0734E+03    -163.481E-03     326.876E-03    -163.395E-03     36.7964E-03    -163.750E-03     326.115E-03    -163.370E-03     34.8015E-03
            1525     1.52869E-03     64.7108E-03    -139.494E+06    -265.615E+06    -125.184E+06     89.4881E+03    -163.400E-03     326.745E-03    -163.345E-03     25.2801E-03    -163.585E-03     325.855E-03    -163.384E-03     23.9329E-03
            1526     764.409E-06     64.6868E-03    -144.993E+06    -282.136E+06    -140.986E+06    -41.3745E+03    -163.357E-03     326.630E-03    -163.274E-03     13.8960E-03    -163.486E-03     325.652E-03    -163.359E-03     13.1583E-03
            1527     14.5309E-03     64.9021E-03    -5.60097E+06     112.910E+06     104.301E+06    -735.123E+03    -162.393E-03     325.571E-03    -163.178E-03     36.0908E-03    -163.304E-03     326.560E-03    -162.812E-03     30.0173E-03
            1528     13.7667E-03     64.8411E-03    -10.7662E+06     107.007E+06     94.1373E+06    -1.08412E+06    -162.297E-03     325.447E-03    -163.149E-03     58.3437E-03    -163.472E-03     326.689E-03    -162.818E-03     51.3872E-03
            1529     13.0010E-03     64.7685E-03    -16.9068E+06     96.1777E+06     80.7684E+06     821.853E+03    -162.467E-03     325.599E-03    -163.132E-03     69.4239E-03    -163.680E-03     326.860E-03    -162.843E-03     62.7203E-03
            1530     12.2356E-03     64.6783E-03    -22.8698E+06     89.5816E+06     75.1937E+06     1.05758E+06    -162.805E-03     325.966E-03    -163.161E-03     79.9172E-03    -164.115E-03     327.295E-03    -162.882E-03     73.2023E-03
            1531     11.4704E-03     64.5789E-03    -29.4646E+06     62.4910E+06     66.3730E+06    -76.1825E+03    -163.183E-03     326.393E-03    -163.210E-03     86.4689E-03    -164.504E-03     327.639E-03    -162.926E-03     79.8485E-03
            1532     10.7050E-03     64.4718E-03    -36.0061E+06     20.0673E+06     55.7347E+06    -381.563E+03    -163.596E-03     326.869E-03    -163.273E-03     90.5588E-03    -164.880E-03     327.934E-03    -162.971E-03     84.0612E-03
            1533     9.94005E-03     64.3611E-03    -42.6297E+06    -13.7039E+06     45.0704E+06    -194.627E+03    -163.930E-03     327.249E-03    -163.319E-03     92.5839E-03    -165.168E-03     328.157E-03    -163.012E-03     86.2375E-03
            1534     9.17511E-03     64.2480E-03    -49.6455E+06    -40.2342E+06     35.3860E+06    -10.6223E+03    -164.120E-03     327.476E-03    -163.357E-03     93.1012E-03    -165.308E-03     328.243E-03    -163.049E-03     86.9417E-03
            1535     8.41022E-03     64.1353E-03    -56.9249E+06    -64.0623E+06     25.5545E+06     108.043E+03    -164.205E-03     327.595E-03    -163.390E-03     92.2861E-03    -165.331E-03     328.217E-03    -163.086E-03     86.3547E-03
            1536     7.64534E-03     64.0239E-03    -64.5750E+06    -85.1397E+06     15.3549E+06     170.243E+03    -164.230E-03     327.648E-03    -163.419E-03     90.1416E-03    -165.279E-03     328.122E-03    -163.125E-03     84.4902E-03
            1537     6.88048E-03     63.9160E-03    -73.0078E+06    -106.445E+06     3.85205E+06     225.957E+03    -164.216E-03     327.659E-03    -163.443E-03     86.5189E-03    -165.173E-03     327.967E-03    -163.164E-03     81.2093E-03
            1538     6.11575E-03     63.8131E-03    -81.8946E+06    -127.486E+06    -9.00018E+06     245.812E+03    -164.162E-03     327.621E-03    -163.459E-03     81.3778E-03    -165.011E-03     327.752E-03    -163.200E-03     76.4826E-03
            1539     5.35113E-03     63.7171E-03    -91.0794E+06    -148.731E+06    -23.4336E+06     112.889E+03    -164.053E-03     327.517E-03    -163.464E-03     74.8022E-03    -164.782E-03     327.462E-03    -163.233E-03     70.3900E-03
            1540     4.58658E-03     63.6299E-03    -100.822E+06    -170.889E+06    -40.0210E+06     10.5719E+03    -163.898E-03     327.356E-03    -163.458E-03     66.9220E-03    -164.502E-03     327.112E-03    -163.265E-03     63.0579E-03
            1541     3.82201E-03     63.5530E-03    -110.930E+06    -194.229E+06    -58.8555E+06     62.8625E+03    -163.728E-03     327.172E-03    -163.444E-03     57.8577E-03    -164.211E-03     326.742E-03    -163.295E-03     54.5918E-03
            1542     3.05756E-03     63.4879E-03    -121.494E+06    -218.966E+06    -80.3946E+06     93.7274E+03    -163.564E-03     326.982E-03    -163.418E-03     47.7361E-03    -163.933E-03     326.376E-03    -163.327E-03     45.0981E-03
            1543     2.29304E-03     63.4358E-03    -131.477E+06    -243.431E+06    -103.569E+06     61.1465E+03    -163.448E-03     326.830E-03    -163.382E-03     36.7913E-03    -163.717E-03     326.068E-03    -163.356E-03     34.7968E-03
            1544     1.52868E-03     63.3975E-03    -139.528E+06    -265.378E+06    -125.129E+06     88.5623E+03    -163.380E-03     326.717E-03    -163.337E-03     25.2851E-03    -163.566E-03     325.828E-03    -163.375E-03     23.9369E-03
            1545     764.322E-06     63.3737E-03    -145.060E+06    -282.137E+06    -141.254E+06     116.665E+03    -163.354E-03     326.617E-03    -163.263E-03     13.8764E-03    -163.483E-03     325.640E-03    -163.350E-03     13.1413E-03
            1546     14.5318E-03     63.5891E-03    -4.37439E+06     112.848E+06     103.965E+06    -201.604E+03    -161.772E-03     324.940E-03    -163.168E-03     37.8185E-03    -162.680E-03     325.932E-03    -162.806E-03     31.8004E-03
            1547     13.7653E-03     63.5283E-03    -11.8921E+06     105.420E+06     92.1180E+06    -228.293E+03    -162.145E-03     325.305E-03    -163.160E-03     59.4922E-03    -163.323E-03     326.548E-03    -162.835E-03     52.5797E-03
            1548     13.0007E-03     63.4552E-03    -18.2005E+06     95.1855E+06     80.5636E+06    -163.549E+03    -162.516E-03     325.673E-03    -163.157E-03     69.9300E-03    -163.739E-03     326.935E-03    -162.866E-03     63.2121E-03
            1549     12.2354E-03     63.3658E-03    -22.7886E+06     90.6246E+06     75.9811E+06     95.6954E+03    -162.821E-03     326.007E-03    -163.186E-03     80.2751E-03    -164.136E-03     327.342E-03    -162.904E-03     73.5502E-03
            1550     11.4699E-03     63.2656E-03    -28.6080E+06     63.2015E+06     66.9287E+06     160.031E+03    -163.303E-03     326.533E-03    -163.231E-03     86.5120E-03    -164.624E-03     327.783E-03    -162.946E-03     79.8811E-03
            1551     10.7051E-03     63.1590E-03    -35.3940E+06     19.8822E+06     56.0220E+06     201.912E+03    -163.720E-03     327.006E-03    -163.286E-03     90.4603E-03    -165.002E-03     328.071E-03    -162.984E-03     83.9557E-03
            1552     9.94002E-03     63.0476E-03    -42.4484E+06    -13.5952E+06     45.2645E+06     152.236E+03    -163.969E-03     327.296E-03    -163.327E-03     92.5381E-03    -165.207E-03     328.204E-03    -163.019E-03     86.1905E-03
            1553     9.17511E-03     62.9351E-03    -49.6881E+06    -40.4904E+06     35.2797E+06    -8.29234E+03    -164.133E-03     327.495E-03    -163.362E-03     93.0919E-03    -165.321E-03     328.260E-03    -163.055E-03     86.9311E-03
            1554     8.41014E-03     62.8220E-03    -56.9853E+06    -64.1742E+06     25.5148E+06     37.6138E+03    -164.242E-03     327.635E-03    -163.393E-03     92.2192E-03    -165.367E-03     328.256E-03    -163.090E-03     86.2847E-03
            1555     7.64530E-03     62.7108E-03    -64.9772E+06    -85.4187E+06     15.1648E+06     228.134E+03    -164.290E-03     327.707E-03    -163.417E-03     89.9771E-03    -165.340E-03     328.179E-03    -163.123E-03     84.3219E-03
            1556     6.88058E-03     62.6026E-03    -73.1021E+06    -106.308E+06     3.80667E+06     382.633E+03    -164.287E-03     327.719E-03    -163.432E-03     86.3510E-03    -165.243E-03     328.028E-03    -163.153E-03     81.0407E-03
            1557     6.11597E-03     62.4997E-03    -81.4598E+06    -127.073E+06    -8.86867E+06     173.193E+03    -164.207E-03     327.645E-03    -163.438E-03     81.2461E-03    -165.053E-03     327.777E-03    -163.180E-03     76.3489E-03
            1558     5.35132E-03     62.4037E-03    -90.7513E+06    -148.524E+06    -23.3270E+06    -35.2923E+03    -164.050E-03     327.488E-03    -163.438E-03     74.7287E-03    -164.777E-03     327.433E-03    -163.207E-03     70.3157E-03
            1559     4.58669E-03     62.3166E-03    -100.695E+06    -170.944E+06    -39.8512E+06    -49.9595E+03    -163.873E-03     327.304E-03    -163.431E-03     66.8875E-03    -164.477E-03     327.059E-03    -163.236E-03     63.0239E-03
            1560     3.82215E-03     62.2397E-03    -111.205E+06    -194.480E+06    -58.8207E+06     60.6919E+03    -163.688E-03     327.105E-03    -163.417E-03     57.8227E-03    -164.172E-03     326.674E-03    -163.268E-03     54.5572E-03
            1561     3.05756E-03     62.1747E-03    -121.835E+06    -218.906E+06    -80.5252E+06     156.302E+03    -163.528E-03     326.921E-03    -163.392E-03     47.6947E-03    -163.899E-03     326.316E-03    -163.301E-03     45.0582E-03
            1562     2.29313E-03     62.1225E-03    -131.228E+06    -243.223E+06    -103.503E+06     78.9476E+03    -163.419E-03     326.777E-03    -163.357E-03     36.7393E-03    -163.687E-03     326.015E-03    -163.332E-03     34.7460E-03
            1563     1.52868E-03     62.0842E-03    -139.355E+06    -265.435E+06    -125.181E+06     52.4130E+03    -163.341E-03     326.659E-03    -163.318E-03     25.1704E-03    -163.526E-03     325.770E-03    -163.357E-03     23.8231E-03
            1564     764.304E-06     62.0606E-03    -145.048E+06    -281.885E+06    -141.074E+06     128.056E+03    -163.401E-03     326.591E-03    -163.190E-03     13.7521E-03    -163.531E-03     325.614E-03    -163.276E-03     13.0177E-03
            1565     14.5288E-03     62.2768E-03    -5.26833E+06     112.208E+06     103.457E+06     293.146E+03    -161.780E-03     324.989E-03    -163.209E-03     37.7677E-03    -162.690E-03     325.978E-03    -162.847E-03     31.7649E-03
            1566     13.7651E-03     62.2137E-03    -11.1685E+06     106.370E+06     93.1025E+06     654.707E+03    -162.211E-03     325.414E-03    -163.203E-03     58.9909E-03    -163.390E-03     326.660E-03    -162.875E-03     52.0626E-03
            1567     12.9999E-03     62.1425E-03    -17.2309E+06     96.3569E+06     81.4985E+06    -671.772E+03    -162.636E-03     325.831E-03    -163.194E-03     69.5713E-03    -163.861E-03     327.100E-03    -162.902E-03     62.7999E-03
            1568     12.2347E-03     62.0523E-03    -24.2201E+06     89.5192E+06     75.7584E+06    -1.12063E+06    -163.042E-03     326.256E-03    -163.215E-03     80.1283E-03    -164.364E-03     327.590E-03    -162.931E-03     73.3606E-03
            1569     11.4700E-03     61.9525E-03    -30.1571E+06     62.2389E+06     66.4270E+06    -48.4506E+03    -163.439E-03     326.686E-03    -163.247E-03     86.4166E-03    -164.766E-03     327.935E-03    -162.961E-03     79.7688E-03
            1570     10.7049E-03     61.8454E-03    -36.2935E+06     19.9553E+06     55.7441E+06     512.765E+03    -163.787E-03     327.082E-03    -163.295E-03     90.4528E-03    -165.075E-03     328.150E-03    -162.992E-03     83.9449E-03
            1571     9.94000E-03     61.7348E-03    -42.8072E+06    -13.0445E+06     45.2933E+06     415.953E+03    -164.014E-03     327.345E-03    -163.331E-03     92.5334E-03    -165.255E-03     328.257E-03    -163.024E-03     86.1864E-03
            1572     9.17497E-03     61.6217E-03    -49.5953E+06    -40.1172E+06     35.3325E+06     175.327E+03    -164.199E-03     327.561E-03    -163.362E-03     93.0328E-03    -165.387E-03     328.328E-03    -163.055E-03     86.8718E-03
            1573     8.41023E-03     61.5088E-03    -57.2606E+06    -64.4785E+06     25.2138E+06     55.3162E+03    -164.332E-03     327.717E-03    -163.385E-03     92.1145E-03    -165.458E-03     328.337E-03    -163.082E-03     86.1761E-03
            1574     7.64553E-03     61.3974E-03    -64.8468E+06    -85.6222E+06     14.9853E+06     128.005E+03    -164.370E-03     327.769E-03    -163.399E-03     89.8915E-03    -165.419E-03     328.240E-03    -163.106E-03     84.2323E-03
            1575     6.88083E-03     61.2894E-03    -72.5201E+06    -106.031E+06     3.95771E+06    -46.5338E+03    -164.317E-03     327.723E-03    -163.406E-03     86.3056E-03    -165.271E-03     328.032E-03    -163.127E-03     80.9894E-03
            1576     6.11612E-03     61.1863E-03    -81.4237E+06    -127.058E+06    -8.80899E+06    -87.4649E+03    -164.189E-03     327.598E-03    -163.409E-03     81.2148E-03    -165.035E-03     327.729E-03    -163.151E-03     76.3155E-03
            1577     5.35147E-03     61.0906E-03    -90.9240E+06    -148.529E+06    -23.2645E+06     40.0987E+03    -164.029E-03     327.436E-03    -163.407E-03     74.6936E-03    -164.757E-03     327.382E-03    -163.176E-03     70.2827E-03
            1578     4.58685E-03     61.0033E-03    -100.838E+06    -171.070E+06    -39.7558E+06     147.723E+03    -163.850E-03     327.249E-03    -163.398E-03     66.8258E-03    -164.455E-03     327.003E-03    -163.203E-03     62.9651E-03
            1579     3.82223E-03     60.9266E-03    -111.183E+06    -194.613E+06    -58.9085E+06     261.430E+03    -163.662E-03     327.043E-03    -163.381E-03     57.7204E-03    -164.145E-03     326.611E-03    -163.232E-03     54.4584E-03
            1580     3.05772E-03     60.8615E-03    -121.030E+06    -218.424E+06    -80.4036E+06     44.0256E+03    -163.502E-03     326.854E-03    -163.353E-03     47.6213E-03    -163.869E-03     326.250E-03    -163.262E-03     44.9854E-03
            1581     2.29321E-03     60.8093E-03    -130.901E+06    -243.323E+06    -103.307E+06    -143.888E+03    -163.382E-03     326.699E-03    -163.318E-03     36.6879E-03    -163.648E-03     325.936E-03    -163.291E-03     34.6928E-03
            1582     1.52880E-03     60.7712E-03    -139.245E+06    -265.587E+06    -124.790E+06     18.5977E+03    -163.306E-03     326.584E-03    -163.277E-03     25.1594E-03    -163.491E-03     325.693E-03    -163.314E-03     23.8118E-03
            1583     764.427E-06     60.7474E-03    -144.687E+06    -281.654E+06    -140.830E+06    -30.3167E+03    -163.394E-03     326.502E-03    -163.109E-03     13.7692E-03    -163.522E-03     325.526E-03    -163.195E-03     13.0325E-03
            1584     14.5313E-03     60.9626E-03    -5.85722E+06     112.512E+06     103.939E+06    -36.5049E+03    -161.918E-03     325.140E-03    -163.222E-03     37.0222E-03    -162.829E-03     326.128E-03    -162.857E-03     31.0124E-03
            1585     13.7648E-03     60.9013E-03    -10.8670E+06     106.714E+06     94.1085E+06     506.243E+03    -162.154E-03     325.370E-03    -163.216E-03     58.6296E-03    -163.329E-03     326.612E-03    -162.884E-03     51.7079E-03
            1586     12.9996E-03     60.8285E-03    -16.5472E+06     97.0689E+06     81.6728E+06     255.434E+03    -162.676E-03     325.878E-03    -163.202E-03     68.9407E-03    -163.893E-03     327.144E-03    -162.910E-03     62.1863E-03
            1587     12.2350E-03     60.7390E-03    -22.6740E+06     89.0878E+06     75.6372E+06     335.644E+03    -163.073E-03     326.292E-03    -163.219E-03     79.6788E-03    -164.384E-03     327.619E-03    -162.937E-03     72.9269E-03
            1588     11.4697E-03     60.6391E-03    -29.9474E+06     61.4614E+06     65.9362E+06      46.961E+03    -163.437E-03     326.688E-03    -163.250E-03     86.2360E-03    -164.760E-03     327.931E-03    -162.966E-03     79.5930E-03
            1589     10.7048E-03     60.5322E-03    -36.8264E+06     19.8895E+06     55.2171E+06    -237.285E+03    -163.811E-03     327.108E-03    -163.297E-03     90.3064E-03    -165.099E-03     328.175E-03    -162.996E-03     83.7896E-03
            1590     9.93989E-03     60.4213E-03    -43.3396E+06    -13.4088E+06     44.9230E+06     16.4423E+03    -164.111E-03     327.441E-03    -163.330E-03     92.3929E-03    -165.354E-03     328.352E-03    -163.023E-03     86.0359E-03
            1591     9.17520E-03     60.3085E-03    -50.0034E+06    -39.6401E+06     35.4909E+06     345.598E+03    -164.292E-03     327.644E-03    -163.352E-03     92.9214E-03    -165.483E-03     328.414E-03    -163.045E-03     86.7584E-03
            1592     8.41038E-03     60.1954E-03    -56.9091E+06    -64.1282E+06       25.36E+06     32.4202E+03    -164.384E-03     327.751E-03    -163.367E-03     92.0497E-03    -165.508E-03     328.371E-03    -163.064E-03     86.1109E-03
            1593     7.64566E-03     60.0841E-03    -64.4147E+06    -85.5236E+06     15.0881E+06    -433.191E+03    -164.406E-03     327.780E-03    -163.374E-03     89.8624E-03    -165.452E-03     328.250E-03    -163.081E-03     84.1972E-03
            1594     6.88100E-03     59.9760E-03    -72.9005E+06    -106.388E+06     3.82568E+06    -271.778E+03    -164.326E-03     327.703E-03    -163.377E-03     86.2354E-03    -165.281E-03     328.010E-03    -163.098E-03     80.9158E-03
            1595     6.11633E-03     59.8732E-03    -81.6829E+06    -127.224E+06    -8.85684E+06     62.2244E+03    -164.174E-03     327.549E-03    -163.376E-03     81.1241E-03    -165.020E-03     327.680E-03    -163.117E-03     76.2276E-03
            1596     5.35165E-03     59.7773E-03    -90.8678E+06    -148.448E+06    -23.2692E+06     30.9005E+03    -164.009E-03     327.379E-03    -163.370E-03     74.6187E-03    -164.736E-03     327.325E-03    -163.140E-03     70.2095E-03
            1597     4.58704E-03     59.6902E-03    -100.715E+06    -171.231E+06    -39.9546E+06    -72.2695E+03    -163.825E-03     327.184E-03    -163.358E-03     66.7637E-03    -164.429E-03     326.937E-03    -163.164E-03     62.9012E-03
            1598     3.82247E-03     59.6134E-03    -110.804E+06    -194.535E+06    -58.8584E+06    -216.401E+03    -163.630E-03     326.969E-03    -163.339E-03     57.7139E-03    -164.111E-03     326.537E-03    -163.191E-03     54.4470E-03
            1599     3.05788E-03     59.5484E-03    -121.245E+06    -218.428E+06    -80.2437E+06    -99.5405E+03    -163.453E-03     326.765E-03    -163.313E-03     47.6484E-03    -163.821E-03     326.161E-03    -163.221E-03     45.0115E-03
            1600     2.29333E-03     59.4964E-03    -131.108E+06    -243.447E+06    -103.202E+06     131.779E+03    -163.319E-03     326.602E-03    -163.283E-03     36.7271E-03    -163.586E-03     325.839E-03    -163.256E-03     34.7369E-03
            1601     1.52881E-03     59.4582E-03    -139.344E+06    -265.566E+06    -124.735E+06     10.0327E+03    -163.245E-03     326.502E-03    -163.257E-03     25.2377E-03    -163.430E-03     325.611E-03    -163.294E-03     23.8904E-03
            1602     764.364E-06     59.4344E-03    -144.875E+06    -281.637E+06    -140.794E+06     16.6692E+03    -163.287E-03     326.482E-03    -163.196E-03     13.8889E-03    -163.417E-03     325.506E-03    -163.281E-03     13.1520E-03
            1603     14.5291E-03     59.6507E-03    -5.44257E+06     112.461E+06     104.030E+06    -95.3863E+03    -161.869E-03     325.080E-03    -163.211E-03     37.0365E-03    -162.781E-03     326.070E-03    -162.846E-03     31.0006E-03
            1604     13.7650E-03     59.5871E-03    -11.1672E+06     106.142E+06     93.7220E+06    -348.702E+03    -162.176E-03     325.380E-03    -163.204E-03     58.4861E-03    -163.351E-03     326.620E-03    -162.873E-03     51.5512E-03
            1605     13.0005E-03     59.5155E-03    -17.2556E+06     96.2130E+06     80.8833E+06     520.512E+03    -162.583E-03     325.773E-03    -163.190E-03     68.9591E-03    -163.798E-03     327.034E-03    -162.901E-03     62.2303E-03
            1606     12.2348E-03     59.4257E-03    -23.9458E+06     89.3174E+06     74.7060E+06     817.269E+03    -163.031E-03     326.241E-03    -163.209E-03     79.6805E-03    -164.345E-03     327.570E-03    -162.930E-03     72.9460E-03
            1607     11.4700E-03     59.3257E-03    -30.1431E+06     62.5520E+06     66.2966E+06     267.512E+03    -163.431E-03     326.677E-03    -163.245E-03     86.0722E-03    -164.755E-03     327.924E-03    -162.961E-03     79.4347E-03
            1608     10.7049E-03     59.2190E-03    -36.3549E+06     20.2177E+06     55.6548E+06    -193.423E+03    -163.846E-03     327.136E-03    -163.291E-03     90.2038E-03    -165.130E-03     328.202E-03    -162.989E-03     83.6912E-03
            1609     9.94012E-03     59.1078E-03    -43.0420E+06    -13.9990E+06     44.8573E+06    -394.767E+03    -164.182E-03     327.499E-03    -163.317E-03     92.3166E-03    -165.421E-03     328.405E-03    -163.010E-03     85.9538E-03
            1610     9.17529E-03     58.9950E-03    -49.5708E+06    -40.1100E+06     35.5896E+06    -229.116E+03    -164.358E-03     327.692E-03    -163.334E-03     92.8152E-03    -165.545E-03     328.457E-03    -163.026E-03     86.6432E-03
            1611     8.41061E-03     58.8820E-03    -56.4566E+06    -63.4153E+06     25.9132E+06     -73.829E+03    -164.419E-03     327.760E-03    -163.342E-03     91.9470E-03    -165.541E-03     328.382E-03    -163.038E-03     86.0069E-03
            1612     7.64591E-03     58.7707E-03    -64.4118E+06    -85.3581E+06     15.2349E+06    -170.141E+03    -164.397E-03     327.741E-03    -163.344E-03     89.7297E-03    -165.443E-03     328.211E-03    -163.051E-03     84.0680E-03
            1613     6.88124E-03     58.6627E-03    -72.9066E+06    -106.926E+06     3.61282E+06    -240.027E+03    -164.305E-03     327.649E-03    -163.344E-03     86.1318E-03    -165.258E-03     327.953E-03    -163.065E-03     80.8131E-03
            1614     6.11658E-03     58.5600E-03    -81.4195E+06    -127.363E+06    -8.79411E+06    -176.247E+03    -164.161E-03     327.502E-03    -163.341E-03     81.0940E-03    -165.007E-03     327.632E-03    -163.082E-03     76.1946E-03
            1615     5.35192E-03     58.4642E-03    -90.6130E+06    -148.386E+06    -23.0836E+06    -64.6849E+03    -163.970E-03     327.304E-03    -163.334E-03     74.6277E-03    -164.696E-03     327.249E-03    -163.103E-03     70.2195E-03
            1616     4.58723E-03     58.3772E-03    -100.544E+06    -171.045E+06    -39.7552E+06    -164.111E+03    -163.760E-03     327.085E-03    -163.326E-03     66.8061E-03    -164.362E-03     326.839E-03    -163.131E-03     62.9456E-03
            1617     3.82254E-03     58.3004E-03    -111.040E+06    -194.573E+06    -58.7892E+06    -217.294E+03    -163.569E-03     326.882E-03    -163.313E-03     57.8002E-03    -164.051E-03     326.451E-03    -163.164E-03     54.5348E-03
            1618     3.05792E-03     58.2355E-03    -121.831E+06    -219.058E+06    -80.5791E+06    -80.9444E+03    -163.409E-03     326.702E-03    -163.293E-03     47.7264E-03    -163.780E-03     326.096E-03    -163.202E-03     45.0898E-03
            1619     2.29334E-03     58.1834E-03    -131.397E+06    -243.363E+06    -103.484E+06        -757.680    -163.294E-03     326.561E-03    -163.267E-03     36.7823E-03    -163.563E-03     325.799E-03    -163.241E-03     34.7904E-03
            1620     1.52882E-03     58.1453E-03    -139.357E+06    -265.438E+06    -124.984E+06    -27.9460E+03    -163.228E-03     326.471E-03    -163.243E-03     25.2265E-03    -163.413E-03     325.581E-03    -163.281E-03     23.8795E-03
            1621     764.320E-06     58.1214E-03    -144.899E+06    -281.765E+06    -140.960E+06    -87.3210E+03    -163.255E-03     326.459E-03    -163.203E-03     13.8185E-03    -163.385E-03     325.482E-03    -163.289E-03     13.0835E-03
            1622     14.5313E-03     58.3356E-03    -5.12271E+06     112.953E+06     104.255E+06     106.180E+03    -161.930E-03     325.131E-03    -163.200E-03     36.9003E-03    -162.840E-03     326.121E-03    -162.836E-03     30.8659E-03
            1623     13.7658E-03     58.2749E-03    -11.6844E+06     105.940E+06     93.1076E+06     319.727E+03    -161.988E-03     325.182E-03    -163.194E-03     58.7355E-03    -163.162E-03     326.421E-03    -162.865E-03     51.8360E-03
            1624     12.9995E-03     58.2021E-03    -18.0012E+06     95.1785E+06     80.5308E+06     372.852E+03    -162.585E-03     325.775E-03    -163.190E-03     69.4007E-03    -163.803E-03     327.033E-03    -162.899E-03     62.6783E-03
            1625     12.2352E-03     58.1122E-03    -23.1470E+06     89.7776E+06     75.7819E+06     158.390E+03    -163.122E-03     326.331E-03    -163.209E-03     79.6849E-03    -164.436E-03     327.661E-03    -162.926E-03     72.9316E-03
            1626     11.4700E-03     58.0125E-03    -28.7775E+06     63.0064E+06     67.0941E+06     312.754E+03    -163.513E-03     326.750E-03    -163.237E-03     86.0914E-03    -164.832E-03     327.996E-03    -162.951E-03     79.4509E-03
            1627     10.7051E-03     57.9056E-03    -35.1136E+06     20.9343E+06     56.4998E+06     295.380E+03    -163.946E-03     327.221E-03    -163.275E-03     90.1568E-03    -165.227E-03     328.287E-03    -162.972E-03     83.6481E-03
            1628     9.94025E-03     57.7944E-03    -41.7288E+06    -13.4234E+06     45.5272E+06    -245.301E+03    -164.225E-03     327.519E-03    -163.294E-03     92.1629E-03    -165.458E-03     328.424E-03    -162.986E-03     85.8000E-03
            1629     9.17560E-03     57.6816E-03    -49.0503E+06    -40.7537E+06     35.5397E+06    -581.311E+03    -164.374E-03     327.679E-03    -163.305E-03     92.6675E-03    -165.556E-03     328.439E-03    -162.997E-03     86.4886E-03
            1630     8.41091E-03     57.5686E-03    -56.6124E+06    -63.9360E+06     25.8819E+06    -187.488E+03    -164.415E-03     327.725E-03    -163.310E-03     91.8387E-03    -165.537E-03     328.344E-03    -163.006E-03     85.8961E-03
            1631     7.64624E-03     57.4574E-03    -64.1078E+06    -85.0857E+06     15.5601E+06     123.628E+03    -164.347E-03     327.659E-03    -163.312E-03     89.6829E-03    -165.392E-03     328.129E-03    -163.018E-03     84.0280E-03
            1632     6.88149E-03     57.3496E-03    -72.2333E+06    -106.545E+06     3.95112E+06    -163.078E+03    -164.243E-03     327.557E-03    -163.314E-03     86.1554E-03    -165.194E-03     327.861E-03    -163.035E-03     80.8421E-03
            1633     6.11672E-03     57.2468E-03    -81.3279E+06    -127.744E+06    -8.80450E+06    -328.309E+03    -164.106E-03     327.421E-03    -163.315E-03     81.1459E-03    -164.950E-03     327.548E-03    -163.056E-03     76.2477E-03
            1634     5.35203E-03     57.1512E-03    -90.7934E+06    -148.616E+06    -23.0597E+06    -129.964E+03    -163.915E-03     327.229E-03    -163.313E-03     74.6898E-03    -164.643E-03     327.173E-03    -163.081E-03     70.2821E-03
            1635     4.58727E-03     57.0642E-03    -100.724E+06    -170.942E+06    -39.5581E+06     61.8090E+03    -163.711E-03     327.021E-03    -163.310E-03     66.8632E-03    -164.315E-03     326.776E-03    -163.114E-03     63.0075E-03
            1636     3.82257E-03     56.9876E-03    -111.367E+06    -194.758E+06    -58.8486E+06     170.325E+03    -163.531E-03     326.834E-03    -163.303E-03     57.8118E-03    -164.015E-03     326.401E-03    -163.153E-03     54.5526E-03
            1637     3.05790E-03     56.9226E-03    -121.448E+06    -218.880E+06    -80.5080E+06     85.7515E+03    -163.391E-03     326.676E-03    -163.285E-03     47.7213E-03    -163.760E-03     326.071E-03    -163.194E-03     45.0873E-03
            1638     2.29334E-03     56.8705E-03    -131.065E+06    -243.380E+06    -103.536E+06    -136.150E+03    -163.298E-03     326.557E-03    -163.259E-03     36.7859E-03    -163.564E-03     325.794E-03    -163.234E-03     34.7915E-03
            1639     1.52887E-03     56.8323E-03    -139.384E+06    -265.518E+06    -125.032E+06    -111.725E+03    -163.243E-03     326.470E-03    -163.227E-03     25.2694E-03    -163.428E-03     325.580E-03    -163.265E-03     23.9208E-03
            1640     764.502E-06     56.8085E-03    -145.033E+06    -281.913E+06    -141.060E+06     19.7076E+03    -163.293E-03     326.411E-03    -163.118E-03     13.9337E-03    -163.422E-03     325.434E-03    -163.205E-03     13.2036E-03
            1641     14.5302E-03     57.0236E-03    -6.11600E+06     111.921E+06     102.911E+06     47.8086E+03    -161.807E-03     325.018E-03    -163.211E-03     37.5947E-03    -162.721E-03     326.009E-03    -162.850E-03     31.5745E-03
            1642     13.7643E-03     56.9620E-03    -12.3800E+06     105.490E+06     93.3284E+06     763.139E+03    -162.291E-03     325.499E-03    -163.207E-03     59.1215E-03    -163.472E-03     326.739E-03    -162.876E-03     52.2182E-03
            1643     13.0004E-03     56.8884E-03    -16.5469E+06     96.7170E+06     82.5888E+06     111.971E+03    -162.763E-03     325.956E-03    -163.192E-03     69.1669E-03    -163.981E-03     327.218E-03    -162.896E-03     62.4225E-03
            1644     12.2349E-03     56.7988E-03    -22.3008E+06     89.4387E+06     75.8995E+06    -382.262E+03    -163.126E-03     326.325E-03    -163.199E-03     79.5314E-03    -164.436E-03     327.653E-03    -162.917E-03     72.7653E-03
            1645     11.4701E-03     56.6991E-03    -28.8169E+06     62.2267E+06     66.8770E+06    -23.5099E+03    -163.645E-03     326.866E-03    -163.222E-03     85.9981E-03    -164.964E-03     328.110E-03    -162.936E-03     79.3397E-03
            1646     10.7054E-03     56.5919E-03    -35.0018E+06     21.3364E+06     56.8417E+06     241.933E+03    -164.039E-03     327.291E-03    -163.251E-03     90.0335E-03    -165.321E-03     328.359E-03    -162.947E-03     83.5139E-03
            1647     9.94076E-03     56.4810E-03    -41.7783E+06    -12.7125E+06     45.9046E+06     312.709E+03    -164.244E-03     327.508E-03    -163.264E-03     92.0675E-03    -165.479E-03     328.416E-03    -162.955E-03     85.7116E-03
            1648     9.17592E-03     56.3682E-03    -48.9317E+06    -40.3084E+06     35.7644E+06     91.8042E+03    -164.331E-03     327.603E-03    -163.272E-03     92.6207E-03    -165.513E-03     328.365E-03    -162.964E-03     86.4549E-03
            1649     8.41121E-03     56.2553E-03    -56.3137E+06    -64.4284E+06     25.7839E+06    -241.319E+03    -164.329E-03     327.608E-03    -163.280E-03     91.8302E-03    -165.448E-03     328.224E-03    -162.976E-03     85.8938E-03
            1650     7.64639E-03     56.1443E-03    -64.1623E+06    -85.3510E+06     15.4665E+06    -253.830E+03    -164.268E-03     327.555E-03    -163.287E-03     89.7221E-03    -165.313E-03     328.024E-03    -162.993E-03     84.0682E-03
            1651     6.88159E-03     56.0365E-03    -72.4661E+06    -106.390E+06     4.10532E+06     23.0142E+03    -164.176E-03     327.471E-03    -163.295E-03     86.2181E-03    -165.128E-03     327.777E-03    -163.015E-03     80.9115E-03
            1652     6.11684E-03     55.9339E-03    -81.3308E+06    -127.591E+06    -8.77921E+06     67.5168E+03    -164.032E-03     327.334E-03    -163.302E-03     81.1881E-03    -164.876E-03     327.462E-03    -163.043E-03     76.2989E-03
            1653     5.35201E-03     55.8383E-03    -90.9440E+06    -148.923E+06    -23.2179E+06    -59.0937E+03    -163.864E-03     327.172E-03    -163.308E-03     74.7398E-03    -164.591E-03     327.115E-03    -163.076E-03     70.3354E-03
            1654     4.58730E-03     55.7513E-03    -101.082E+06    -171.238E+06    -39.7664E+06     122.337E+03    -163.701E-03     327.010E-03    -163.309E-03     66.9263E-03    -164.306E-03     326.764E-03    -163.113E-03     63.0716E-03
            1655     3.82261E-03     55.6747E-03    -111.224E+06    -194.540E+06    -58.9740E+06     114.332E+03    -163.538E-03     326.839E-03    -163.301E-03     57.8803E-03    -164.021E-03     326.408E-03    -163.153E-03     54.6212E-03
            1656     3.05797E-03     55.6097E-03    -121.463E+06    -218.720E+06    -80.5205E+06    -1.85284E+03    -163.397E-03     326.681E-03    -163.284E-03     47.7864E-03    -163.767E-03     326.076E-03    -163.193E-03     45.1526E-03
            1657     2.29338E-03     55.5576E-03    -131.158E+06    -243.249E+06    -103.488E+06     82.1338E+03    -163.298E-03     326.554E-03    -163.257E-03     36.8222E-03    -163.565E-03     325.793E-03    -163.231E-03     34.8329E-03
            1658     1.52884E-03     55.5194E-03    -139.440E+06    -265.632E+06    -125.091E+06     6.72356E+03    -163.234E-03     326.460E-03    -163.226E-03     25.2922E-03    -163.419E-03     325.570E-03    -163.264E-03     23.9471E-03
            1659     764.320E-06     55.4955E-03    -145.029E+06    -281.964E+06    -141.035E+06     32.9712E+03    -163.257E-03     326.415E-03    -163.157E-03     13.9703E-03    -163.387E-03     325.438E-03    -163.243E-03     13.2380E-03
            1660     14.5290E-03     55.7105E-03    -6.27275E+06     111.981E+06     103.356E+06     360.714E+03    -162.151E-03     325.367E-03    -163.217E-03     36.6540E-03    -163.063E-03     326.355E-03    -162.853E-03     30.6131E-03
            1661     13.7656E-03     55.6469E-03    -11.3337E+06     106.640E+06     94.0605E+06    -797.629E+03    -162.483E-03     325.678E-03    -163.195E-03     58.0992E-03    -163.660E-03     326.921E-03    -162.863E-03     51.1259E-03
            1662     13.0002E-03     55.5755E-03    -16.9480E+06     96.4955E+06     81.4785E+06    -642.179E+03    -162.710E-03     325.879E-03    -163.169E-03     68.8347E-03    -163.928E-03     327.142E-03    -162.877E-03     62.0651E-03
            1663     12.2354E-03     55.4855E-03    -22.8903E+06     89.3886E+06     75.6229E+06    -80.8757E+03    -163.184E-03     326.361E-03    -163.177E-03     79.5084E-03    -164.495E-03     327.689E-03    -162.896E-03     72.7458E-03
            1664     11.4705E-03     55.3852E-03    -29.1286E+06     61.8152E+06     66.6480E+06    -242.779E+03    -163.676E-03     326.872E-03    -163.196E-03     85.8811E-03    -164.994E-03     328.112E-03    -162.910E-03     79.2224E-03
            1665     10.7057E-03     55.2785E-03    -35.7721E+06     20.6403E+06     56.4205E+06     180.259E+03    -164.020E-03     327.242E-03    -163.223E-03     89.9639E-03    -165.302E-03     328.308E-03    -162.919E-03     83.4490E-03
            1666     9.94089E-03     55.1674E-03    -42.1688E+06    -12.4020E+06     45.8981E+06     417.916E+03    -164.207E-03     327.442E-03    -163.235E-03     92.0677E-03    -165.443E-03     328.352E-03    -162.926E-03     85.7198E-03
            1667     9.17626E-03     55.0550E-03    -48.9560E+06    -39.8052E+06     35.9316E+06     283.102E+03    -164.257E-03     327.503E-03    -163.246E-03     92.6212E-03    -165.440E-03     328.266E-03    -162.937E-03     86.4648E-03
            1668     8.41134E-03     54.9422E-03    -56.3282E+06    -63.9669E+06     25.8741E+06     148.333E+03    -164.230E-03     327.489E-03    -163.259E-03     91.8573E-03    -165.350E-03     328.106E-03    -162.955E-03     85.9322E-03
            1669     7.64651E-03     54.8313E-03    -64.3190E+06    -85.5160E+06     15.2701E+06    -48.9480E+03    -164.193E-03     327.466E-03    -163.273E-03     89.7632E-03    -165.237E-03     327.934E-03    -162.979E-03     84.1155E-03
            1670     6.88167E-03     54.7235E-03    -72.8008E+06    -106.778E+06     3.77319E+06    -53.0474E+03    -164.104E-03     327.392E-03    -163.287E-03     86.2624E-03    -165.057E-03     327.696E-03    -163.008E-03     80.9585E-03
            1671     6.11680E-03     54.6210E-03    -81.6717E+06    -127.570E+06    -8.86268E+06     72.5456E+03    -163.971E-03     327.274E-03    -163.303E-03     81.2559E-03    -164.817E-03     327.402E-03    -163.043E-03     76.3703E-03
            1672     5.35200E-03     54.5254E-03    -91.0316E+06    -148.896E+06    -23.2066E+06     195.915E+03    -163.832E-03     327.147E-03    -163.316E-03     74.8149E-03    -164.559E-03     327.090E-03    -163.084E-03     70.4170E-03
            1673     4.58720E-03     54.4384E-03    -100.893E+06    -171.288E+06    -39.8048E+06     99.3979E+03    -163.684E-03     327.007E-03    -163.323E-03     67.0109E-03    -164.288E-03     326.760E-03    -163.127E-03     63.1588E-03
            1674     3.82250E-03     54.3618E-03    -110.961E+06    -194.265E+06    -58.7828E+06     45.4879E+03    -163.550E-03     326.869E-03    -163.319E-03     57.9814E-03    -164.033E-03     326.439E-03    -163.170E-03     54.7234E-03
            1675     3.05788E-03     54.2968E-03    -121.360E+06    -218.759E+06    -80.4749E+06     15.4710E+03    -163.429E-03     326.730E-03    -163.301E-03     47.8711E-03    -163.798E-03     326.125E-03    -163.210E-03     45.2395E-03
            1676     2.29333E-03     54.2447E-03    -131.303E+06    -243.296E+06    -103.519E+06    -3.88220E+03    -163.321E-03     326.592E-03    -163.271E-03     36.8841E-03    -163.589E-03     325.831E-03    -163.246E-03     34.8955E-03
            1677     1.52887E-03     54.2065E-03    -139.466E+06    -265.524E+06    -125.059E+06     62.2933E+03    -163.252E-03     326.490E-03    -163.238E-03     25.3184E-03    -163.437E-03     325.600E-03    -163.276E-03     23.9751E-03
            1678     764.472E-06     54.1827E-03    -144.978E+06    -281.994E+06    -141.001E+06    -27.5434E+03    -163.276E-03     326.435E-03    -163.159E-03     13.9476E-03    -163.405E-03     325.458E-03    -163.245E-03     13.2131E-03
            1679     14.5319E-03     54.3951E-03    -5.20166E+06     112.762E+06     104.291E+06     101.978E+03    -162.199E-03     325.386E-03    -163.187E-03     36.5268E-03    -163.108E-03     326.374E-03    -162.822E-03     30.4906E-03
            1680     13.7658E-03     54.3348E-03    -10.1455E+06     107.137E+06     94.3144E+06    -63.4969E+03    -162.132E-03     325.302E-03    -163.170E-03     58.6046E-03    -163.304E-03     326.545E-03    -162.839E-03     51.6751E-03
            1681     13.0006E-03     54.2619E-03    -17.9385E+06     95.5019E+06     80.3258E+06    -229.652E+03    -162.764E-03     325.914E-03    -163.150E-03     69.2541E-03    -163.983E-03     327.176E-03    -162.861E-03     62.5042E-03
            1682     12.2358E-03     54.1719E-03    -23.8517E+06     89.7538E+06     75.1454E+06    -188.992E+03    -163.320E-03     326.474E-03    -163.154E-03     79.6883E-03    -164.635E-03     327.805E-03    -162.874E-03     72.9314E-03
            1683     11.4708E-03     54.0718E-03    -29.7313E+06     62.1754E+06     66.2160E+06    -235.030E+03    -163.675E-03     326.842E-03    -163.167E-03     85.9231E-03    -164.994E-03     328.084E-03    -162.883E-03     79.2802E-03
            1684     10.7060E-03     53.9650E-03    -36.0785E+06     19.5593E+06     55.7403E+06    -484.670E+03    -163.956E-03     327.151E-03    -163.195E-03     89.9070E-03    -165.236E-03     328.211E-03    -162.892E-03     83.3903E-03
            1685     9.94127E-03     53.8542E-03    -42.4449E+06    -12.7373E+06     45.6954E+06    -67.6287E+03    -164.096E-03     327.309E-03    -163.213E-03     92.0377E-03    -165.332E-03     328.217E-03    -162.904E-03     85.6867E-03
            1686     9.17629E-03     53.7417E-03    -49.5119E+06    -39.7566E+06     35.6528E+06     150.482E+03    -164.162E-03     327.391E-03    -163.229E-03     92.6234E-03    -165.347E-03     328.156E-03    -162.922E-03     86.4674E-03
            1687     8.41148E-03     53.6294E-03    -56.7660E+06    -63.8469E+06     25.7797E+06     178.383E+03    -164.164E-03     327.413E-03    -163.249E-03     91.8809E-03    -165.286E-03     328.032E-03    -162.945E-03     85.9569E-03
            1688     7.64653E-03     53.5183E-03    -64.4619E+06    -85.2423E+06     15.4287E+06     280.317E+03    -164.106E-03     327.376E-03    -163.270E-03     89.8430E-03    -165.152E-03     327.846E-03    -162.976E-03     84.2053E-03
            1689     6.88163E-03     53.4107E-03    -72.8290E+06    -106.692E+06     3.76164E+06      174.55E+03    -164.036E-03     327.330E-03    -163.293E-03     86.3529E-03    -164.989E-03     327.634E-03    -163.014E-03     81.0578E-03
            1690     6.11672E-03     53.3082E-03    -81.6592E+06    -127.749E+06    -8.91208E+06     78.2064E+03    -163.946E-03     327.261E-03    -163.316E-03     81.3559E-03    -164.791E-03     327.389E-03    -163.057E-03     76.4749E-03
            1691     5.35187E-03     53.2125E-03    -91.0738E+06    -148.915E+06    -23.2894E+06     81.4449E+03    -163.830E-03     327.163E-03    -163.333E-03     74.8788E-03    -164.557E-03     327.106E-03    -163.101E-03     70.4825E-03
            1692     4.58711E-03     53.1256E-03    -100.760E+06    -170.988E+06    -39.7738E+06     54.9061E+03    -163.694E-03     327.036E-03    -163.342E-03     67.0312E-03    -164.297E-03     326.790E-03    -163.147E-03     63.1816E-03
            1693     3.82238E-03     53.0488E-03    -111.128E+06    -194.385E+06    -58.8539E+06     28.0752E+03    -163.561E-03     326.902E-03    -163.341E-03     57.9729E-03    -164.044E-03     326.472E-03    -163.193E-03     54.7168E-03
            1694     3.05779E-03     52.9838E-03    -121.509E+06    -218.665E+06    -80.4681E+06     123.251E+03    -163.443E-03     326.769E-03    -163.326E-03     47.8430E-03    -163.813E-03     326.164E-03    -163.235E-03     45.2135E-03
            1695     2.29327E-03     52.9317E-03    -131.156E+06    -243.271E+06    -103.556E+06     93.5938E+03    -163.345E-03     326.642E-03    -163.297E-03     36.8789E-03    -163.613E-03     325.881E-03    -163.272E-03     34.8911E-03
            1696     1.52877E-03     52.8935E-03    -139.422E+06    -265.478E+06    -125.163E+06     41.0209E+03    -163.286E-03     326.548E-03    -163.261E-03     25.3390E-03    -163.471E-03     325.658E-03    -163.300E-03     23.9947E-03
            1697     764.331E-06     52.8697E-03    -145.094E+06    -281.903E+06    -141.081E+06     3.96182E+03    -163.370E-03     326.478E-03    -163.108E-03     13.9511E-03    -163.500E-03     325.502E-03    -163.195E-03     13.2177E-03
            1698     14.5301E-03     53.0839E-03    -5.66141E+06     111.713E+06     103.407E+06    -261.678E+03    -161.845E-03     325.031E-03    -163.186E-03     37.2525E-03    -162.754E-03     326.016E-03    -162.823E-03     31.2319E-03
            1699     13.7651E-03     53.0209E-03    -11.8764E+06     105.571E+06     93.1618E+06     982.745E+03    -162.389E-03     325.562E-03    -163.173E-03     59.0763E-03    -163.563E-03     326.799E-03    -162.843E-03     52.1890E-03
            1700     13.0005E-03     52.9484E-03    -16.3288E+06     97.3196E+06     81.9694E+06     789.608E+03    -163.045E-03     326.188E-03    -163.143E-03     69.1450E-03    -164.260E-03     327.452E-03    -162.850E-03     62.4037E-03
            1701     12.2357E-03     52.8581E-03    -22.8710E+06     90.0218E+06     75.5450E+06    -492.597E+03    -163.384E-03     326.516E-03    -163.132E-03     79.4297E-03    -164.694E-03     327.845E-03    -162.852E-03     72.6619E-03
            1702     11.4711E-03     52.7584E-03    -29.1702E+06     62.2939E+06     66.6689E+06    -724.139E+03    -163.631E-03     326.774E-03    -163.143E-03     85.7288E-03    -164.948E-03     328.015E-03    -162.858E-03     79.0727E-03
            1703     10.7063E-03     52.6516E-03    -35.5300E+06     19.2685E+06     55.8519E+06    -576.362E+03    -163.839E-03     327.012E-03    -163.174E-03     89.8770E-03    -165.116E-03     328.070E-03    -162.871E-03     83.3601E-03
            1704     9.94131E-03     52.5412E-03    -42.8327E+06    -13.9573E+06     45.2217E+06    -204.740E+03    -163.964E-03     327.164E-03    -163.199E-03     92.0771E-03    -165.201E-03     328.067E-03    -162.891E-03     85.7285E-03
            1705     9.17640E-03     52.4288E-03    -49.5034E+06    -39.4468E+06     35.7765E+06     125.706E+03    -164.047E-03     327.273E-03    -163.226E-03     92.7283E-03    -165.233E-03     328.039E-03    -162.918E-03     86.5799E-03
            1706     8.41143E-03     52.3163E-03    -56.9892E+06    -64.1435E+06     25.5830E+06     70.8231E+03    -164.085E-03     327.338E-03    -163.254E-03     91.9953E-03    -165.207E-03     327.956E-03    -162.950E-03     86.0765E-03
            1707     7.64648E-03     52.2057E-03    -64.7151E+06    -85.2950E+06     15.4015E+06     328.800E+03    -164.057E-03     327.340E-03    -163.283E-03     89.9800E-03    -165.103E-03     327.810E-03    -162.989E-03     84.3494E-03
            1708     6.88144E-03     52.0978E-03    -72.6579E+06    -106.210E+06     4.01225E+06     334.231E+03    -164.028E-03     327.340E-03    -163.312E-03     86.4611E-03    -164.981E-03     327.646E-03    -163.032E-03     81.1733E-03
            1709     6.11657E-03     51.9953E-03    -81.5124E+06    -127.634E+06    -8.93102E+06     152.364E+03    -163.977E-03     327.312E-03    -163.335E-03     81.3836E-03    -164.821E-03     327.439E-03    -163.076E-03     76.5056E-03
            1710     5.35175E-03     51.8996E-03    -90.8712E+06    -148.852E+06    -23.3760E+06     5.90537E+03    -163.872E-03     327.222E-03    -163.349E-03     74.8579E-03    -164.598E-03     327.164E-03    -163.119E-03     70.4613E-03
            1711     4.58701E-03     51.8126E-03    -100.913E+06    -171.071E+06    -39.9706E+06    -8.66953E+03    -163.743E-03     327.096E-03    -163.354E-03     66.9685E-03    -164.347E-03     326.851E-03    -163.159E-03     63.1167E-03
            1712     3.82238E-03     51.7358E-03    -111.358E+06    -194.505E+06    -59.1771E+06     145.352E+03    -163.586E-03     326.933E-03    -163.347E-03     57.8830E-03    -164.069E-03     326.502E-03    -163.199E-03     54.6274E-03
            1713     3.05775E-03     51.6708E-03    -121.513E+06    -218.610E+06    -80.7557E+06     122.259E+03    -163.439E-03     326.768E-03    -163.329E-03     47.7474E-03    -163.808E-03     326.164E-03    -163.240E-03     45.1172E-03
            1714     2.29319E-03     51.6187E-03    -131.148E+06    -243.101E+06    -103.705E+06     105.140E+03    -163.344E-03     326.647E-03    -163.303E-03     36.7809E-03    -163.611E-03     325.886E-03    -163.279E-03     34.7928E-03
            1715     1.52877E-03     51.5805E-03    -139.442E+06    -265.479E+06    -125.202E+06     86.6357E+03    -163.291E-03     326.560E-03    -163.270E-03     25.2639E-03    -163.476E-03     325.671E-03    -163.309E-03     23.9198E-03
            1716     764.422E-06     51.5566E-03    -144.881E+06    -281.699E+06    -141.017E+06     66.0324E+03    -163.374E-03     326.497E-03    -163.123E-03     13.9013E-03    -163.503E-03     325.521E-03    -163.210E-03     13.1674E-03
            1717     14.5302E-03     51.7698E-03    -6.12987E+06     111.593E+06     103.109E+06     214.347E+03    -162.271E-03     325.458E-03    -163.187E-03     36.5745E-03    -163.180E-03     326.442E-03    -162.824E-03     30.5178E-03
            1718     13.7658E-03     51.7070E-03    -11.7565E+06     106.001E+06     93.4255E+06    -850.653E+03    -162.766E-03     325.918E-03    -163.152E-03     58.0881E-03    -163.939E-03     327.154E-03    -162.821E-03     51.1289E-03
            1719     13.0011E-03     51.6342E-03    -16.2401E+06     97.4169E+06     82.3932E+06    -761.179E+03    -163.016E-03     326.126E-03    -163.109E-03     68.5165E-03    -164.231E-03     327.389E-03    -162.815E-03     61.7339E-03
            1720     12.2366E-03     51.5445E-03    -21.2588E+06     90.3878E+06     76.6916E+06     55.5879E+03    -163.216E-03     326.318E-03    -163.102E-03     79.0723E-03    -164.519E-03     327.644E-03    -162.819E-03     72.3119E-03
            1721     11.4715E-03     51.4450E-03    -28.0084E+06     62.0730E+06     67.1332E+06     312.104E+03    -163.387E-03     326.510E-03    -163.123E-03     85.7295E-03    -164.698E-03     327.747E-03    -162.837E-03     79.0986E-03
            1722     10.7064E-03     51.3387E-03    -35.6044E+06     19.4826E+06     55.9604E+06     400.054E+03    -163.662E-03     326.829E-03    -163.167E-03     90.0382E-03    -164.940E-03     327.887E-03    -162.864E-03     83.5491E-03
            1723     9.94138E-03     51.2282E-03    -42.5699E+06    -14.0896E+06     45.1446E+06     20.9997E+03    -163.864E-03     327.068E-03    -163.203E-03     92.2709E-03    -165.098E-03     327.969E-03    -162.895E-03     85.9391E-03
            1724     9.17628E-03     51.1159E-03    -49.6323E+06    -39.8669E+06     35.6992E+06     76.7236E+03    -163.957E-03     327.197E-03    -163.240E-03     92.9138E-03    -165.142E-03     327.961E-03    -162.932E-03     86.7772E-03
            1725     8.41117E-03     51.0035E-03    -56.9720E+06    -63.9165E+06     25.5291E+06     298.956E+03    -164.038E-03     327.314E-03    -163.275E-03     92.1510E-03    -165.160E-03     327.932E-03    -162.972E-03     86.2454E-03
            1726     7.64617E-03     50.8928E-03    -64.6372E+06    -85.5377E+06     15.1979E+06     87.8736E+03    -164.116E-03     327.423E-03    -163.307E-03     90.0312E-03    -165.162E-03     327.891E-03    -163.013E-03     84.3978E-03
            1727     6.88131E-03     50.7850E-03    -72.9158E+06    -106.127E+06     3.90110E+06     211.802E+03    -164.111E-03     327.442E-03    -163.330E-03     86.4376E-03    -165.065E-03     327.749E-03    -163.051E-03     81.1457E-03
            1728     6.11647E-03     50.6823E-03    -81.7230E+06    -127.398E+06    -9.08225E+06     217.539E+03    -164.050E-03     327.395E-03    -163.345E-03     81.2899E-03    -164.895E-03     327.524E-03    -163.087E-03     76.4091E-03
            1729     5.35174E-03     50.5866E-03    -90.9848E+06    -148.691E+06    -23.5201E+06     143.455E+03    -163.935E-03     327.285E-03    -163.350E-03     74.7294E-03    -164.661E-03     327.229E-03    -163.120E-03     70.3301E-03
            1730     4.58707E-03     50.4995E-03    -100.913E+06    -171.170E+06    -40.2496E+06     123.793E+03    -163.773E-03     327.119E-03    -163.346E-03     66.8557E-03    -164.377E-03     326.874E-03    -163.153E-03     63.0019E-03
            1731     3.82243E-03     50.4228E-03    -110.981E+06    -194.408E+06    -59.2070E+06    -18.5834E+03    -163.600E-03     326.933E-03    -163.333E-03     57.7936E-03    -164.082E-03     326.503E-03    -163.186E-03     54.5324E-03
            1732     3.05786E-03     50.3578E-03    -121.450E+06    -218.652E+06    -80.7591E+06    -56.7057E+03    -163.441E-03     326.752E-03    -163.311E-03     47.6952E-03    -163.810E-03     326.147E-03    -163.222E-03     45.0603E-03
            1733     2.29332E-03     50.3057E-03    -131.329E+06    -243.199E+06    -103.671E+06     34.8639E+03    -163.331E-03     326.611E-03    -163.281E-03     36.7457E-03    -163.599E-03     325.850E-03    -163.256E-03     34.7552E-03
            1734     1.52881E-03     50.2674E-03    -139.333E+06    -265.297E+06    -124.987E+06     38.5977E+03    -163.264E-03     326.510E-03    -163.246E-03     25.2214E-03    -163.449E-03     325.621E-03    -163.284E-03     23.8760E-03
            1735     764.341E-06     50.2436E-03    -144.907E+06    -281.676E+06    -140.784E+06     16.9900E+03    -163.280E-03     326.449E-03    -163.170E-03     13.8758E-03    -163.409E-03     325.473E-03    -163.255E-03     13.1397E-03
            1736     14.5312E-03     50.4544E-03    -4.83464E+06     112.956E+06     104.407E+06    -111.946E+03    -162.578E-03     325.738E-03    -163.160E-03     36.9472E-03    -163.489E-03     326.731E-03    -162.795E-03     30.8687E-03
            1737     13.7669E-03     50.3937E-03    -10.3727E+06     107.247E+06     94.5598E+06    -1.54653E+06    -162.676E-03     325.793E-03    -163.117E-03     58.3248E-03    -163.850E-03     327.037E-03    -162.785E-03     51.3329E-03
            1738     13.0020E-03     50.3205E-03    -17.6425E+06     95.7453E+06     80.7232E+06    -948.348E+03    -162.709E-03     325.789E-03    -163.080E-03     69.1853E-03    -163.928E-03     327.051E-03    -162.789E-03     62.4254E-03
            1739     12.2366E-03     50.2315E-03    -24.3138E+06     88.9908E+06     74.5666E+06     135.717E+03    -162.922E-03     326.013E-03    -163.091E-03     79.7115E-03    -164.235E-03     327.340E-03    -162.812E-03     72.9802E-03
            1740     11.4714E-03     50.1322E-03    -30.7454E+06     61.7930E+06     65.9186E+06     717.197E+03    -163.240E-03     326.370E-03    -163.130E-03     86.2588E-03    -164.562E-03     327.611E-03    -162.845E-03     79.6553E-03
            1741     10.7062E-03     50.0258E-03    -36.3853E+06     20.2557E+06     55.8557E+06     497.206E+03    -163.579E-03     326.764E-03    -163.185E-03     90.3681E-03    -164.861E-03     327.827E-03    -162.882E-03     83.8965E-03
            1742     9.94099E-03     49.9153E-03    -42.8364E+06    -13.4548E+06     45.1521E+06     82.2498E+03    -163.822E-03     327.051E-03    -163.228E-03     92.4711E-03    -165.058E-03     327.956E-03    -162.921E-03     86.1500E-03
            1743     9.17594E-03     49.8032E-03    -50.0388E+06    -40.6464E+06     35.1578E+06     25.5989E+03    -163.988E-03     327.256E-03    -163.268E-03     92.9943E-03    -165.174E-03     328.018E-03    -162.960E-03     86.8581E-03
            1744     8.41090E-03     49.6907E-03    -57.1319E+06    -63.6736E+06     25.4634E+06     165.248E+03    -164.132E-03     327.433E-03    -163.301E-03     92.1549E-03    -165.255E-03     328.053E-03    -162.998E-03     86.2446E-03
            1745     7.64602E-03     49.5797E-03    -64.7372E+06    -85.3510E+06     15.0540E+06     145.285E+03    -164.229E-03     327.553E-03    -163.324E-03     89.9230E-03    -165.276E-03     328.023E-03    -163.031E-03     84.2828E-03
            1746     6.88126E-03     49.4719E-03    -73.0404E+06    -106.523E+06     3.57345E+06     146.752E+03    -164.219E-03     327.555E-03    -163.336E-03     86.2945E-03    -165.173E-03     327.861E-03    -163.058E-03     80.9916E-03
            1747     6.11654E-03     49.3692E-03    -81.5466E+06    -127.018E+06    -9.01188E+06     198.096E+03    -164.116E-03     327.456E-03    -163.340E-03     81.2008E-03    -164.962E-03     327.588E-03    -163.082E-03     76.3126E-03
            1748     5.35187E-03     49.2735E-03    -90.9065E+06    -148.712E+06    -23.5322E+06     81.3737E+03    -163.964E-03     327.302E-03    -163.338E-03     74.6608E-03    -164.691E-03     327.246E-03    -163.108E-03     70.2543E-03
            1749     4.58719E-03     49.1866E-03    -100.612E+06    -170.909E+06    -39.9680E+06    -52.1562E+03    -163.775E-03     327.104E-03    -163.329E-03     66.8262E-03    -164.379E-03     326.860E-03    -163.135E-03     62.9650E-03
            1750     3.82253E-03     49.1098E-03    -111.053E+06    -194.444E+06    -58.9973E+06    -112.882E+03    -163.593E-03     326.906E-03    -163.313E-03     57.7759E-03    -164.076E-03     326.475E-03    -163.165E-03     54.5088E-03
            1751     3.05791E-03     49.0449E-03    -121.638E+06    -218.870E+06    -80.5836E+06     20.9292E+03    -163.443E-03     326.729E-03    -163.286E-03     47.6802E-03    -163.814E-03     326.124E-03    -163.195E-03     45.0421E-03
            1752     2.29335E-03     48.9927E-03    -131.216E+06    -243.115E+06    -103.438E+06     7.71422E+03    -163.323E-03     326.569E-03    -163.246E-03     36.7247E-03    -163.592E-03     325.809E-03    -163.220E-03     34.7307E-03
            1753     1.52889E-03     48.9545E-03    -139.368E+06    -265.303E+06    -125.006E+06     5.13760E+03    -163.235E-03     326.437E-03    -163.202E-03     25.1754E-03    -163.420E-03     325.548E-03    -163.240E-03     23.8281E-03
            1754     764.470E-06     48.9307E-03    -144.689E+06    -281.659E+06    -140.980E+06    -80.9571E+03    -163.251E-03     326.352E-03    -163.101E-03     13.7885E-03    -163.379E-03     325.376E-03    -163.188E-03     13.0509E-03
            1755     14.5311E-03     49.1405E-03    -4.68872E+06     113.149E+06     104.380E+06    -531.188E+03    -162.144E-03     325.292E-03    -163.148E-03     37.5370E-03    -163.053E-03     326.283E-03    -162.784E-03     31.5104E-03
            1756     13.7662E-03     49.0795E-03    -10.6283E+06     106.847E+06     93.7097E+06     319.398E+03    -162.267E-03     325.394E-03    -163.126E-03     58.8904E-03    -163.440E-03     326.636E-03    -162.797E-03     51.9726E-03
            1757     13.0011E-03     49.0079E-03    -17.7747E+06     95.6423E+06     80.3449E+06     786.309E+03    -162.571E-03     325.680E-03    -163.109E-03     69.8047E-03    -163.789E-03     326.941E-03    -162.820E-03     63.1043E-03
            1758     12.2359E-03     48.9184E-03    -24.0740E+06     88.3278E+06     74.4453E+06     36.1599E+03    -162.925E-03     326.055E-03    -163.130E-03     80.1537E-03    -164.237E-03     327.379E-03    -162.851E-03     73.4324E-03
            1759     11.4707E-03     48.8192E-03    -29.9303E+06     61.6612E+06     66.1272E+06    -331.865E+03    -163.334E-03     326.503E-03    -163.169E-03     86.4175E-03    -164.655E-03     327.744E-03    -162.884E-03     79.7944E-03
            1760     10.7057E-03     48.7128E-03    -36.4159E+06     20.2677E+06     55.8272E+06    -169.592E+03    -163.654E-03     326.875E-03    -163.221E-03     90.4139E-03    -164.938E-03     327.939E-03    -162.918E-03     83.9280E-03
            1761     9.94065E-03     48.6025E-03    -43.1541E+06    -13.4592E+06     44.9732E+06     179.051E+03    -163.903E-03     327.164E-03    -163.260E-03     92.4144E-03    -165.141E-03     328.070E-03    -162.953E-03     86.0868E-03
            1762     9.17560E-03     48.4901E-03    -49.8552E+06    -40.3791E+06     35.0650E+06     49.5317E+03    -164.134E-03     327.426E-03    -163.292E-03     92.8692E-03    -165.320E-03     328.189E-03    -162.985E-03     86.7214E-03
            1763     8.41082E-03     48.3776E-03    -56.9004E+06    -63.9802E+06     25.3876E+06    -55.4792E+03    -164.283E-03     327.596E-03    -163.314E-03     92.0227E-03    -165.405E-03     328.216E-03    -163.011E-03     86.0955E-03
            1764     7.64606E-03     48.2665E-03    -64.5932E+06    -85.3045E+06     15.0332E+06     94.0789E+03    -164.310E-03     327.635E-03    -163.325E-03     89.8257E-03    -165.357E-03     328.107E-03    -163.033E-03     84.1740E-03
            1765     6.88133E-03     48.1588E-03    -72.6048E+06    -106.447E+06     3.69669E+06    -6.94852E+03    -164.255E-03     327.586E-03    -163.331E-03     86.2365E-03    -165.209E-03     327.894E-03    -163.053E-03     80.9221E-03
            1766     6.11664E-03     48.0561E-03    -81.3109E+06    -127.137E+06    -8.79580E+06    -23.0996E+03    -164.123E-03     327.456E-03    -163.333E-03     81.2197E-03    -164.970E-03     327.588E-03    -163.074E-03     76.3207E-03
            1767     5.35191E-03     47.9605E-03    -90.6633E+06    -148.471E+06    -23.1744E+06    -17.2425E+03    -163.954E-03     327.284E-03    -163.330E-03     74.7347E-03    -164.682E-03     327.230E-03    -163.099E-03     70.3204E-03
            1768     4.58724E-03     47.8735E-03    -100.690E+06    -170.945E+06    -39.6319E+06    -9.69851E+03    -163.781E-03     327.102E-03    -163.321E-03     66.8940E-03    -164.386E-03     326.858E-03    -163.125E-03     63.0267E-03
            1769     3.82260E-03     47.7969E-03    -111.277E+06    -194.651E+06    -58.8873E+06     208.517E+03    -163.607E-03     326.908E-03    -163.301E-03     57.8293E-03    -164.092E-03     326.477E-03    -163.152E-03     54.5606E-03
            1770     3.05801E-03     47.7319E-03    -121.334E+06    -218.616E+06    -80.3990E+06     112.359E+03    -163.453E-03     326.719E-03    -163.266E-03     47.7148E-03    -163.823E-03     326.115E-03    -163.175E-03     45.0740E-03
            1771     2.29351E-03     47.6798E-03    -130.979E+06    -243.041E+06    -103.426E+06    -78.5648E+03    -163.313E-03     326.532E-03    -163.220E-03     36.7383E-03    -163.580E-03     325.772E-03    -163.194E-03     34.7409E-03
            1772     1.52897E-03     47.6417E-03    -139.331E+06    -265.435E+06    -125.121E+06    -109.911E+03    -163.210E-03     326.383E-03    -163.172E-03     25.2316E-03    -163.395E-03     325.493E-03    -163.211E-03     23.8805E-03
            1773     764.463E-06     47.6179E-03    -144.998E+06    -281.799E+06    -140.982E+06     41.2224E+03    -163.229E-03     326.292E-03    -163.062E-03     13.8645E-03    -163.359E-03     325.315E-03    -163.148E-03     13.1279E-03
            1774     14.5313E-03     47.8278E-03    -5.35891E+06     112.062E+06     103.302E+06    -238.287E+03    -161.800E-03     324.970E-03    -163.170E-03     37.9469E-03    -162.707E-03     325.956E-03    -162.808E-03     31.9603E-03
            1775     13.7655E-03     47.7665E-03    -12.1883E+06     104.950E+06     92.2691E+06     556.974E+03    -162.100E-03     325.264E-03    -163.165E-03     58.9210E-03    -163.272E-03     326.498E-03    -162.838E-03     52.0351E-03
            1776     13.0002E-03     47.6944E-03    -16.8265E+06     96.7787E+06     82.0970E+06     620.991E+03    -162.663E-03     325.822E-03    -163.159E-03     69.2640E-03    -163.879E-03     327.083E-03    -162.864E-03     62.5470E-03
            1777     12.2354E-03     47.6052E-03    -22.2663E+06     89.6398E+06     76.1538E+06     205.670E+03    -163.054E-03     326.227E-03    -163.172E-03     79.6879E-03    -164.360E-03     327.551E-03    -162.889E-03     72.9568E-03
            1778     11.4704E-03     47.5058E-03    -29.0046E+06     61.5821E+06     66.4319E+06    -75.4112E+03    -163.409E-03     326.611E-03    -163.203E-03     86.0289E-03    -164.724E-03     327.849E-03    -162.918E-03     79.3983E-03
            1779     10.7053E-03     47.3997E-03    -36.0123E+06     19.7848E+06     55.6841E+06     79.3132E+03    -163.770E-03     327.019E-03    -163.248E-03     90.0976E-03    -165.051E-03     328.080E-03    -162.946E-03     83.5988E-03
            1780     9.94038E-03     47.2893E-03    -42.6602E+06    -13.4701E+06     44.9582E+06     68.9436E+03    -164.061E-03     327.339E-03    -163.278E-03     92.1877E-03    -165.297E-03     328.245E-03    -162.972E-03     85.8420E-03
            1781     9.17564E-03     47.1769E-03    -49.2879E+06    -39.9965E+06     35.4061E+06     36.7055E+03    -164.254E-03     327.554E-03    -163.299E-03     92.7050E-03    -165.439E-03     328.319E-03    -162.993E-03     86.5436E-03
            1782     8.41085E-03     47.0642E-03    -56.5279E+06    -64.1200E+06     25.5647E+06     23.3796E+03    -164.331E-03     327.645E-03    -163.314E-03     91.9171E-03    -165.453E-03     328.264E-03    -163.011E-03     85.9798E-03
            1783     7.64612E-03     46.9533E-03    -64.3399E+06    -85.3878E+06     15.2077E+06    -72.0971E+03    -164.297E-03     327.621E-03    -163.324E-03     89.8310E-03    -165.344E-03     328.092E-03    -163.030E-03     84.1697E-03
            1784     6.88137E-03     46.8455E-03    -72.5807E+06    -106.244E+06     3.89480E+06    -102.939E+03    -164.212E-03     327.544E-03    -163.333E-03     86.3412E-03    -165.168E-03     327.854E-03    -163.054E-03     81.0205E-03
            1785     6.11659E-03     46.7431E-03    -81.3707E+06    -127.376E+06    -8.74922E+06    -105.354E+03    -164.089E-03     327.429E-03    -163.340E-03     81.3362E-03    -164.937E-03     327.561E-03    -163.081E-03     76.4299E-03
            1786     5.35187E-03     46.6474E-03    -90.8566E+06    -148.507E+06    -23.1554E+06     5.94252E+03    -163.933E-03     327.275E-03    -163.342E-03     74.8846E-03    -164.664E-03     327.223E-03    -163.111E-03     70.4656E-03
            1787     4.58718E-03     46.5605E-03    -100.904E+06    -171.228E+06    -39.8014E+06     170.269E+03    -163.780E-03     327.118E-03    -163.337E-03     67.0650E-03    -164.388E-03     326.874E-03    -163.142E-03     63.1953E-03
            1788     3.82257E-03     46.4839E-03    -110.988E+06    -194.504E+06    -58.8381E+06     99.4081E+03    -163.626E-03     326.945E-03    -163.319E-03     58.0274E-03    -164.111E-03     326.516E-03    -163.170E-03     54.7534E-03
            1789     3.05801E-03     46.4189E-03    -121.180E+06    -218.367E+06    -80.3126E+06     22.4277E+03    -163.457E-03     326.745E-03    -163.288E-03     47.9225E-03    -163.827E-03     326.143E-03    -163.197E-03     45.2774E-03
            1790     2.29342E-03     46.3669E-03    -131.002E+06    -243.055E+06    -103.388E+06     45.8810E+03    -163.317E-03     326.568E-03    -163.251E-03     36.9294E-03    -163.585E-03     325.808E-03    -163.225E-03     34.9306E-03
            1791     1.52890E-03     46.3290E-03    -139.393E+06    -265.488E+06    -125.089E+06    -52.8591E+03    -163.232E-03     326.446E-03    -163.214E-03     25.3785E-03    -163.418E-03     325.557E-03    -163.252E-03     24.0255E-03
            1792     764.448E-06     46.3050E-03    -144.939E+06    -281.868E+06    -140.888E+06    -51.1967E+03    -163.236E-03     326.386E-03    -163.150E-03     13.9150E-03    -163.365E-03     325.409E-03    -163.236E-03     13.1760E-03
            1793     14.5297E-03     46.5150E-03    -5.14604E+06     112.247E+06     103.897E+06     385.414E+03    -162.053E-03     325.257E-03    -163.204E-03     37.4839E-03    -162.960E-03     326.242E-03    -162.839E-03     31.4768E-03
            1794     13.7651E-03     46.4530E-03    -11.5938E+06     105.567E+06     92.9082E+06     388.783E+03    -162.290E-03     325.476E-03    -163.186E-03     58.3864E-03    -163.459E-03     326.709E-03    -162.858E-03     51.4777E-03
            1795     13.0004E-03     46.3810E-03    -17.4561E+06     95.9643E+06     81.0400E+06    -423.186E+03    -162.691E-03     325.860E-03    -163.169E-03     68.8272E-03    -163.906E-03     327.119E-03    -162.878E-03     62.0760E-03
            1796     12.2353E-03     46.2918E-03    -23.5120E+06     89.9534E+06     75.6206E+06     341.329E+03    -163.064E-03     326.247E-03    -163.183E-03     79.2805E-03    -164.375E-03     327.575E-03    -162.901E-03     72.5397E-03
            1797     11.4702E-03     46.1926E-03    -30.1970E+06     61.8526E+06     65.9725E+06     377.274E+03    -163.443E-03     326.654E-03    -163.211E-03     85.7105E-03    -164.763E-03     327.895E-03    -162.927E-03     79.0805E-03
            1798     10.7053E-03     46.0864E-03    -36.3196E+06     19.8159E+06     55.5175E+06     72.1563E+03    -163.854E-03     327.106E-03    -163.252E-03     89.7909E-03    -165.135E-03     328.168E-03    -162.951E-03     83.2812E-03
            1799     9.94052E-03     45.9759E-03    -42.4881E+06    -13.0574E+06     45.1566E+06    -126.578E+03    -164.108E-03     327.385E-03    -163.277E-03     91.9762E-03    -165.345E-03     328.293E-03    -162.970E-03     85.6198E-03
            1800     9.17569E-03     45.8635E-03    -49.3932E+06    -40.3722E+06     35.4182E+06    -149.994E+03    -164.236E-03     327.533E-03    -163.297E-03     92.6663E-03    -165.422E-03     328.297E-03    -162.989E-03     86.4972E-03
            1801     8.41092E-03     45.7510E-03    -56.6552E+06    -64.0655E+06     25.7012E+06    -21.6854E+03    -164.255E-03     327.570E-03    -163.315E-03     91.9572E-03    -165.380E-03     328.192E-03    -163.011E-03     86.0148E-03
            1802     7.64608E-03     45.6402E-03    -64.3169E+06    -85.2981E+06     15.3504E+06    -32.2819E+03    -164.198E-03     327.532E-03    -163.334E-03     89.9595E-03    -165.248E-03     328.006E-03    -163.040E-03     84.2966E-03
            1803     6.88120E-03     45.5325E-03    -72.5802E+06    -106.299E+06     3.95841E+06    -50.7447E+03    -164.131E-03     327.485E-03    -163.354E-03     86.5504E-03    -165.089E-03     327.797E-03    -163.075E-03     81.2282E-03
            1804     6.11642E-03     45.4299E-03    -81.5921E+06    -127.508E+06    -8.88087E+06     24.8249E+03    -164.035E-03     327.409E-03    -163.373E-03     81.5673E-03    -164.886E-03     327.543E-03    -163.114E-03     76.6596E-03
            1805     5.35166E-03     45.3344E-03    -91.0580E+06    -148.696E+06    -23.3930E+06     100.723E+03    -163.905E-03     327.292E-03    -163.387E-03     75.1558E-03    -164.637E-03     327.241E-03    -163.157E-03     70.7366E-03
            1806     4.58693E-03     45.2474E-03    -100.845E+06    -171.169E+06    -39.9877E+06    -16.7933E+03    -163.766E-03     327.162E-03    -163.396E-03     67.3698E-03    -164.374E-03     326.920E-03    -163.201E-03     63.4977E-03
            1807     3.82227E-03     45.1708E-03    -110.946E+06    -194.373E+06    -58.8402E+06    -113.356E+03    -163.623E-03     327.017E-03    -163.394E-03     58.3121E-03    -164.108E-03     326.589E-03    -163.246E-03     55.0355E-03
            1808     3.05767E-03     45.1059E-03    -121.430E+06    -218.573E+06    -80.3155E+06    -77.8860E+03    -163.479E-03     326.862E-03    -163.383E-03     48.1549E-03    -163.851E-03     326.260E-03    -163.292E-03     45.5082E-03
            1809     2.29314E-03     45.0540E-03    -131.354E+06    -243.132E+06    -103.340E+06     57.0025E+03    -163.384E-03     326.748E-03    -163.364E-03     37.1315E-03    -163.654E-03     325.988E-03    -163.337E-03     35.1331E-03
            1810     1.52871E-03     45.0158E-03    -139.467E+06    -265.291E+06    -125.065E+06     115.769E+03    -163.340E-03     326.678E-03    -163.338E-03     25.5009E-03    -163.526E-03     325.790E-03    -163.377E-03     24.1500E-03
            1811     764.306E-06     44.9922E-03    -144.903E+06    -281.901E+06    -141.175E+06    -85.2711E+03    -163.434E-03     326.645E-03    -163.211E-03     13.9901E-03    -163.563E-03     325.668E-03    -163.298E-03     13.2505E-03
            1812     14.5307E-03     45.2004E-03    -5.81576E+06     112.198E+06     103.691E+06    -11.3160E+03    -162.195E-03     325.405E-03    -163.210E-03     36.9044E-03    -163.103E-03     326.390E-03    -162.846E-03     30.8779E-03
            1813     13.7657E-03     45.1399E-03    -10.7118E+06     106.518E+06     94.0309E+06     701.120E+03    -162.356E-03     325.545E-03    -163.189E-03     58.2958E-03    -163.523E-03     326.780E-03    -162.858E-03     51.3899E-03
            1814     13.0002E-03     45.0675E-03    -17.4955E+06     95.6654E+06     80.9800E+06     552.139E+03    -162.729E-03     325.896E-03    -163.167E-03     68.7644E-03    -163.943E-03     327.153E-03    -162.875E-03     62.0286E-03
            1815     12.2354E-03     44.9785E-03    -24.3166E+06     89.4186E+06     74.9462E+06     58.0009E+03    -163.085E-03     326.262E-03    -163.176E-03     79.0551E-03    -164.398E-03     327.588E-03    -162.896E-03     72.3048E-03
            1816     11.4703E-03     44.8793E-03    -29.4632E+06     62.6461E+06     66.4315E+06    -21.3310E+03    -163.485E-03     326.688E-03    -163.203E-03     85.5570E-03    -164.803E-03     327.931E-03    -162.919E-03     78.9154E-03
            1817     10.7056E-03     44.7729E-03     -35.792E+06     19.9199E+06     55.8169E+06    -380.272E+03    -163.837E-03     327.080E-03    -163.243E-03     89.7150E-03    -165.118E-03     328.142E-03    -162.940E-03     83.1950E-03
            1818     9.94063E-03     44.6627E-03    -42.3404E+06    -13.0903E+06     45.4424E+06    -180.863E+03    -164.025E-03     327.296E-03    -163.271E-03     91.9863E-03    -165.262E-03     328.204E-03    -162.963E-03     85.6284E-03
            1819     9.17572E-03     44.5503E-03    -49.2154E+06    -40.4216E+06     35.5500E+06    -133.818E+03    -164.096E-03     327.395E-03    -163.299E-03     92.7506E-03    -165.282E-03     328.159E-03    -162.991E-03     86.5839E-03
            1820     8.41079E-03     44.4379E-03    -56.6165E+06    -64.4157E+06     25.5957E+06    -192.992E+03    -164.096E-03     327.427E-03    -163.331E-03     92.1174E-03    -165.221E-03     328.048E-03    -163.028E-03     86.1747E-03
            1821     7.64581E-03     44.3272E-03    -64.3381E+06    -85.3296E+06     15.3557E+06    -18.9777E+03    -164.071E-03     327.438E-03    -163.367E-03     90.2003E-03    -165.123E-03     327.914E-03    -163.073E-03     84.5381E-03
            1822     6.88090E-03     44.2194E-03    -72.7596E+06    -106.516E+06     3.85710E+06     119.970E+03    -164.026E-03     327.432E-03    -163.406E-03     86.8516E-03    -164.986E-03     327.744E-03    -163.127E-03     81.5334E-03
            1823     6.11597E-03     44.1169E-03    -81.6486E+06    -127.550E+06    -8.96206E+06     152.929E+03    -163.963E-03     327.407E-03    -163.444E-03     81.9081E-03    -164.815E-03     327.543E-03    -163.185E-03     77.0043E-03
            1824     5.35114E-03     44.0213E-03    -90.8511E+06    -148.568E+06    -23.2859E+06     42.6355E+03    -163.883E-03     327.360E-03    -163.477E-03     75.4825E-03    -164.615E-03     327.311E-03    -163.247E-03     71.0642E-03
            1825     4.58641E-03     43.9343E-03    -100.832E+06    -171.025E+06    -39.8859E+06    -31.3932E+03    -163.772E-03     327.277E-03    -163.505E-03     67.6607E-03    -164.381E-03     327.036E-03    -163.310E-03     63.7913E-03
            1826     3.82174E-03     43.8576E-03    -111.280E+06    -194.529E+06    -58.8892E+06    -13.8744E+03    -163.651E-03     327.175E-03    -163.524E-03     58.5333E-03    -164.138E-03     326.747E-03    -163.375E-03     55.2613E-03
            1827     3.05718E-03     43.7927E-03    -121.713E+06    -218.569E+06    -80.5457E+06       3.371E+03    -163.561E-03     327.092E-03    -163.531E-03     48.3171E-03    -163.934E-03     326.491E-03    -163.441E-03     45.6747E-03
            1828     2.29274E-03     43.7406E-03    -131.504E+06    -243.250E+06    -103.769E+06    -127.844E+03    -163.515E-03     327.040E-03    -163.526E-03     37.2570E-03    -163.785E-03     326.281E-03    -163.501E-03     35.2587E-03
            1829     1.52839E-03     43.7025E-03    -139.674E+06    -265.331E+06    -125.308E+06    -75.8182E+03    -163.503E-03     327.013E-03    -163.510E-03     25.5764E-03    -163.689E-03     326.125E-03    -163.550E-03     24.2245E-03
            1830     764.198E-06     43.6787E-03    -145.612E+06    -282.023E+06    -141.426E+06     111.999E+03    -163.631E-03     326.994E-03    -163.363E-03     14.0702E-03    -163.763E-03     326.018E-03    -163.450E-03     13.3341E-03
            1831     14.5301E-03     43.8877E-03    -5.92076E+06     111.947E+06     103.525E+06     435.063E+03    -162.164E-03     325.371E-03    -163.206E-03     36.9962E-03    -163.072E-03     326.354E-03    -162.842E-03     30.9801E-03
            1832     13.7648E-03     43.8259E-03    -11.8527E+06     105.557E+06     93.8727E+06     204.914E+03    -162.461E-03     325.647E-03    -163.186E-03     58.0673E-03    -163.632E-03     326.878E-03    -162.852E-03     51.1458E-03
            1833     13.0006E-03     43.7540E-03    -16.7801E+06     96.4768E+06     82.1969E+06     458.264E+03    -162.784E-03     325.943E-03    -163.159E-03     68.3636E-03    -163.997E-03     327.200E-03    -162.863E-03     61.6148E-03
            1834     12.2355E-03     43.6652E-03    -22.1281E+06     90.3743E+06     76.1517E+06    -10.3133E+03    -163.094E-03     326.257E-03    -163.163E-03     78.9237E-03    -164.399E-03     327.584E-03    -162.881E-03     72.1689E-03
            1835     11.4707E-03     43.5658E-03    -28.6207E+06     62.7232E+06     66.8972E+06    -503.185E+03    -163.423E-03     326.613E-03    -163.190E-03     85.5141E-03    -164.738E-03     327.855E-03    -162.905E-03     78.8641E-03
            1836     10.7056E-03     43.4598E-03    -35.0679E+06     19.8962E+06     56.1298E+06    -291.979E+03    -163.687E-03     326.923E-03    -163.236E-03     89.7968E-03    -164.965E-03     327.984E-03    -162.933E-03     83.2856E-03
            1837     9.94060E-03     43.3495E-03    -41.7661E+06    -13.6952E+06     45.5667E+06    -156.330E+03    -163.855E-03     327.132E-03    -163.277E-03     92.1455E-03    -165.090E-03     328.038E-03    -162.969E-03     85.7921E-03
            1838     9.17560E-03     43.2374E-03    -48.8441E+06    -40.2382E+06     35.8166E+06     125.636E+03    -163.894E-03     327.216E-03    -163.322E-03     92.9772E-03    -165.080E-03     327.982E-03    -163.014E-03     86.8196E-03
            1839     8.41043E-03     43.1251E-03    -56.4862E+06    -64.5591E+06     25.5949E+06     107.695E+03    -163.914E-03     327.289E-03    -163.375E-03     92.4592E-03    -165.040E-03     327.911E-03    -163.071E-03     86.5286E-03
            1840     7.64536E-03     43.0142E-03    -64.5158E+06    -85.6745E+06     15.2443E+06     163.760E+03    -163.945E-03     327.378E-03    -163.433E-03     90.5756E-03    -164.998E-03     327.854E-03    -163.139E-03     84.9208E-03
            1841     6.88027E-03     42.9066E-03    -72.7669E+06    -106.484E+06     3.81725E+06     261.907E+03    -163.956E-03     327.448E-03    -163.492E-03     87.2119E-03    -164.917E-03     327.761E-03    -163.213E-03     81.9007E-03
            1842     6.11529E-03     42.8038E-03    -81.5126E+06    -127.365E+06    -8.91433E+06     81.6629E+03    -163.943E-03     327.491E-03    -163.548E-03     82.2093E-03    -164.795E-03     327.628E-03    -163.290E-03     77.3103E-03
            1843     5.35044E-03     42.7080E-03    -91.0220E+06    -148.624E+06    -23.3247E+06     87.9068E+03    -163.903E-03     327.502E-03    -163.599E-03     75.6911E-03    -164.637E-03     327.453E-03    -163.368E-03     71.2772E-03
            1844     4.58571E-03     42.6209E-03    -100.979E+06    -170.951E+06    -39.9238E+06     158.917E+03    -163.832E-03     327.473E-03    -163.641E-03     67.7816E-03    -164.442E-03     327.233E-03    -163.446E-03     63.9161E-03
            1845     3.82111E-03     42.5441E-03    -111.379E+06    -194.572E+06    -59.1302E+06     82.0109E+03    -163.753E-03     327.424E-03    -163.671E-03     58.5911E-03    -164.240E-03     326.997E-03    -163.523E-03     55.3207E-03
            1846     3.05663E-03     42.4790E-03    -121.792E+06    -218.614E+06    -80.8779E+06     56.7629E+03    -163.698E-03     327.383E-03    -163.685E-03     48.3261E-03    -164.071E-03     326.782E-03    -163.596E-03     45.6829E-03
            1847     2.29230E-03     42.4269E-03    -131.426E+06    -243.036E+06    -104.059E+06    -18.5715E+03    -163.673E-03     327.354E-03    -163.681E-03     37.2139E-03    -163.942E-03     326.596E-03    -163.659E-03     35.2130E-03
            1848     1.52814E-03     42.3886E-03    -139.845E+06    -265.682E+06    -125.738E+06    -117.202E+03    -163.659E-03     327.325E-03    -163.667E-03     25.5304E-03    -163.846E-03     326.437E-03    -163.707E-03     24.1742E-03
            1849     764.030E-06     42.3647E-03    -145.507E+06    -281.987E+06    -141.530E+06     19.9349E+03    -163.760E-03     327.309E-03    -163.549E-03     13.9940E-03    -163.891E-03     326.333E-03    -163.637E-03     13.2539E-03
            1850     14.5304E-03     42.5737E-03    -5.72991E+06     111.841E+06     103.689E+06     402.807E+03    -162.458E-03     325.653E-03    -163.195E-03     36.4478E-03    -163.365E-03     326.635E-03    -162.830E-03     30.3998E-03
            1851     13.7663E-03     42.5119E-03    -10.7561E+06     106.236E+06     94.2647E+06     3.56828E+03    -162.415E-03     325.579E-03    -163.165E-03     57.5625E-03    -163.580E-03     326.810E-03    -162.832E-03     50.6265E-03
            1852     13.0007E-03     42.4409E-03    -16.6819E+06     96.5902E+06     81.6584E+06    -289.280E+03    -162.657E-03     325.796E-03    -163.139E-03     68.3924E-03    -163.869E-03     327.055E-03    -162.847E-03     61.6405E-03
            1853     12.2358E-03     42.3516E-03    -21.9200E+06     90.9972E+06     76.3103E+06    -339.094E+03    -163.020E-03     326.171E-03    -163.151E-03     79.0722E-03    -164.325E-03     327.500E-03    -162.870E-03     72.3201E-03
            1854     11.4707E-03     42.2528E-03    -28.4564E+06     62.5152E+06     66.8802E+06    -332.114E+03    -163.263E-03     326.449E-03    -163.186E-03     85.6143E-03    -164.577E-03     327.690E-03    -162.901E-03     78.9763E-03
            1855     10.7056E-03     42.1468E-03    -35.0318E+06     19.4143E+06     56.2176E+06    -98.2456E+03    -163.468E-03     326.716E-03    -163.248E-03     90.0024E-03    -164.745E-03     327.774E-03    -162.944E-03     83.5060E-03
            1856     9.94037E-03     42.0365E-03    -42.0555E+06    -14.2188E+06     45.3085E+06     269.003E+03    -163.577E-03     326.886E-03    -163.308E-03     92.4486E-03    -164.813E-03     327.791E-03    -163.000E-03     86.1134E-03
            1857     9.17501E-03     41.9247E-03    -49.3491E+06    -40.5156E+06     35.5471E+06     552.695E+03    -163.667E-03     327.045E-03    -163.379E-03     93.3814E-03    -164.856E-03     327.813E-03    -163.071E-03     87.2403E-03
            1858     8.40977E-03     41.8123E-03    -56.7093E+06    -64.0504E+06     25.6748E+06     617.102E+03    -163.780E-03     327.235E-03    -163.456E-03     92.9268E-03    -164.909E-03     327.862E-03    -163.152E-03     87.0129E-03
            1859     7.64449E-03     41.7014E-03    -64.5517E+06    -85.6830E+06     15.1422E+06     342.933E+03    -163.909E-03     327.441E-03    -163.532E-03     90.9893E-03    -164.963E-03     327.918E-03    -163.239E-03     85.3446E-03
            1860     6.87944E-03     41.5934E-03    -72.8334E+06    -106.332E+06     3.83663E+06     193.089E+03    -164.016E-03     327.619E-03    -163.603E-03     87.4679E-03    -164.979E-03     327.934E-03    -163.324E-03     82.1588E-03
            1861     6.11453E-03     41.4906E-03    -81.7604E+06    -127.275E+06    -8.99874E+06     243.361E+03    -164.046E-03     327.710E-03    -163.664E-03     82.3044E-03    -164.900E-03     327.848E-03    -163.406E-03     77.4078E-03
            1862     5.34973E-03     41.3945E-03    -91.1540E+06    -148.623E+06    -23.5729E+06     186.928E+03    -164.019E-03     327.734E-03    -163.715E-03     75.6468E-03    -164.753E-03     327.686E-03    -163.486E-03     71.2308E-03
            1863     4.58510E-03     41.3072E-03    -101.002E+06    -171.004E+06    -40.2563E+06     161.298E+03    -163.967E-03     327.721E-03    -163.754E-03     67.6157E-03    -164.576E-03     327.482E-03    -163.561E-03     63.7422E-03
            1864     3.82061E-03     41.2302E-03    -111.220E+06    -194.389E+06    -59.4274E+06     181.643E+03    -163.902E-03     327.679E-03    -163.777E-03     58.3584E-03    -164.389E-03     327.253E-03    -163.631E-03     55.0781E-03
            1865     3.05630E-03     41.1650E-03    -121.555E+06    -218.624E+06    -81.0334E+06     94.2181E+03    -163.838E-03     327.619E-03    -163.780E-03     48.0852E-03    -164.210E-03     327.018E-03    -163.692E-03     45.4301E-03
            1866     2.29211E-03     41.1127E-03    -131.355E+06    -243.137E+06    -103.890E+06     133.557E+03    -163.788E-03     327.554E-03    -163.766E-03     36.9977E-03    -164.058E-03     326.796E-03    -163.743E-03     34.9870E-03
            1867     1.52801E-03     41.0744E-03    -139.497E+06    -265.447E+06    -125.455E+06     147.302E+03    -163.745E-03     327.486E-03    -163.741E-03     25.3469E-03    -163.931E-03     326.599E-03    -163.781E-03     23.9845E-03
            1868     763.974E-06     41.0505E-03    -145.141E+06    -281.846E+06    -141.305E+06    -27.9068E+03    -163.858E-03     327.450E-03    -163.592E-03     13.9107E-03    -163.988E-03     326.474E-03    -163.679E-03     13.1657E-03
            1869     14.5313E-03     41.2587E-03    -6.35212E+06     111.213E+06     102.877E+06    -556.361E+03    -162.326E-03     325.502E-03    -163.176E-03     36.4309E-03    -163.233E-03     326.483E-03    -162.814E-03     30.3744E-03
            1870     13.7657E-03     41.1995E-03    -11.5269E+06     105.553E+06     93.3470E+06    -300.681E+03    -162.293E-03     325.445E-03    -163.152E-03     57.9045E-03    -163.460E-03     326.675E-03    -162.822E-03     50.9860E-03
            1871     13.0008E-03     41.1273E-03    -15.8514E+06     97.5021E+06     82.7159E+06    -308.878E+03    -162.603E-03     325.740E-03    -163.137E-03     68.6219E-03    -163.812E-03     326.999E-03    -162.842E-03     61.8927E-03
            1872     12.2357E-03     41.0385E-03    -22.1083E+06     90.3272E+06     76.1905E+06    -616.731E+03    -162.813E-03     325.969E-03    -163.156E-03     79.0980E-03    -164.117E-03     327.294E-03    -162.874E-03     72.3583E-03
            1873     11.4705E-03     40.9398E-03    -28.1278E+06     61.8222E+06     66.8928E+06     89.4928E+03    -162.977E-03     326.185E-03    -163.208E-03     85.8684E-03    -164.290E-03     327.423E-03    -162.922E-03     79.2494E-03
            1874     10.7052E-03     40.8340E-03    -35.0980E+06     18.6008E+06     55.9446E+06     881.224E+03    -163.157E-03     326.451E-03    -163.293E-03     90.4548E-03    -164.436E-03     327.508E-03    -162.990E-03     83.9839E-03
            1875     9.93963E-03     40.7242E-03    -42.5101E+06    -14.0676E+06     45.1310E+06     1.05409E+06    -163.328E-03     326.709E-03    -163.381E-03     93.0404E-03    -164.568E-03     327.617E-03    -163.073E-03     86.7345E-03
            1876     9.17416E-03     40.6120E-03    -49.6290E+06    -40.3462E+06     35.4290E+06     674.296E+03    -163.568E-03     327.043E-03    -163.475E-03     93.9185E-03    -164.760E-03     327.813E-03    -163.167E-03     87.7932E-03
            1877     8.40869E-03     40.4996E-03    -56.9209E+06    -63.9689E+06     25.6765E+06     572.713E+03    -163.835E-03     327.400E-03    -163.565E-03     93.2741E-03    -164.967E-03     328.028E-03    -163.261E-03     87.3649E-03
            1878     7.64354E-03     40.3882E-03    -64.5905E+06    -85.0100E+06     15.2787E+06     499.796E+03    -164.072E-03     327.714E-03    -163.642E-03     91.1062E-03    -165.128E-03     328.195E-03    -163.349E-03     85.4613E-03
            1879     6.87861E-03     40.2800E-03    -72.8602E+06    -106.324E+06     3.70507E+06     316.211E+03    -164.214E-03     327.919E-03    -163.704E-03     87.3571E-03    -165.177E-03     328.235E-03    -163.426E-03     82.0403E-03
            1880     6.11388E-03     40.1768E-03    -81.5616E+06    -127.233E+06    -9.13392E+06     256.781E+03    -164.252E-03     328.004E-03    -163.751E-03     82.0645E-03    -165.106E-03     328.143E-03    -163.494E-03     77.1515E-03
            1881     5.34933E-03     40.0807E-03    -90.8751E+06    -148.511E+06    -23.7120E+06     226.774E+03    -164.217E-03     328.000E-03    -163.784E-03     75.3327E-03    -164.951E-03     327.953E-03    -163.555E-03     70.8960E-03
            1882     4.58488E-03     39.9932E-03    -100.888E+06    -171.022E+06    -40.4404E+06     229.021E+03    -164.131E-03     327.932E-03    -163.801E-03     67.2791E-03    -164.741E-03     327.694E-03    -163.609E-03     63.3849E-03
            1883     3.82059E-03     39.9161E-03    -111.231E+06    -194.333E+06    -59.4948E+06     268.412E+03    -164.019E-03     327.822E-03    -163.803E-03     58.0531E-03    -164.506E-03     327.398E-03    -163.658E-03     54.7546E-03
            1884     3.05634E-03     39.8507E-03    -121.515E+06    -218.492E+06    -80.9035E+06     311.604E+03    -163.904E-03     327.693E-03    -163.789E-03     47.8449E-03    -164.277E-03     327.093E-03    -163.701E-03     45.1780E-03
            1885     2.29218E-03     39.7984E-03    -131.239E+06    -243.098E+06    -103.580E+06     267.343E+03    -163.806E-03     327.569E-03    -163.763E-03     36.8283E-03    -164.076E-03     326.810E-03    -163.738E-03     34.8098E-03
            1886     1.52809E-03     39.7600E-03    -139.389E+06    -265.048E+06    -125.058E+06     234.179E+03    -163.743E-03     327.473E-03    -163.730E-03     25.2479E-03    -163.930E-03     326.586E-03    -163.769E-03     23.8814E-03
            1887     764.041E-06     39.7362E-03    -145.059E+06    -281.585E+06    -141.212E+06     84.7884E+03    -163.836E-03     327.418E-03    -163.582E-03     13.8998E-03    -163.966E-03     326.443E-03    -163.670E-03     13.1551E-03
            1888     14.5303E-03     39.9461E-03    -5.50225E+06     112.331E+06     104.001E+06    -390.819E+03    -162.103E-03     325.278E-03    -163.175E-03     36.4110E-03    -163.011E-03     326.263E-03    -162.809E-03     30.3474E-03
            1889     13.7657E-03     39.8855E-03    -11.1180E+06     106.276E+06     93.9387E+06    -1.55201E+06    -162.350E-03     325.503E-03    -163.153E-03     57.3843E-03    -163.516E-03     326.735E-03    -162.821E-03     50.4264E-03
            1890     13.0009E-03     39.8140E-03    -16.0243E+06     97.0836E+06     82.3321E+06    -1.64171E+06    -162.342E-03     325.483E-03    -163.141E-03     68.3133E-03    -163.549E-03     326.739E-03    -162.847E-03     61.5736E-03
            1891     12.2356E-03     39.7258E-03    -21.4975E+06     88.7223E+06     76.0508E+06    -276.892E+03    -162.300E-03     325.486E-03    -163.186E-03     79.3817E-03    -163.599E-03     326.804E-03    -162.903E-03     72.6697E-03
            1892     11.4699E-03     39.6272E-03    -28.8224E+06     59.7002E+06     66.0475E+06     1.26739E+06    -162.523E-03     325.797E-03    -163.274E-03     86.5997E-03    -163.836E-03     327.028E-03    -162.989E-03     80.0233E-03
            1893     10.7040E-03     39.5219E-03    -36.5676E+06     18.8395E+06     55.3662E+06     1.82877E+06    -162.931E-03     326.321E-03    -163.390E-03     91.2006E-03    -164.218E-03     327.384E-03    -163.087E-03     84.7656E-03
            1894     9.93835E-03     39.4117E-03    -43.0353E+06    -12.9861E+06     45.2297E+06     1.15720E+06    -163.376E-03     326.871E-03    -163.495E-03     93.5898E-03    -164.620E-03     327.785E-03    -163.188E-03     87.3007E-03
            1895     9.17281E-03     39.2993E-03    -49.5930E+06    -39.7369E+06     35.5359E+06     655.570E+03    -163.814E-03     327.402E-03    -163.587E-03     94.1085E-03    -165.008E-03     328.175E-03    -163.280E-03     87.9820E-03
            1896     8.40773E-03     39.1864E-03    -56.7402E+06    -63.9174E+06     25.5451E+06     431.563E+03    -164.178E-03     327.838E-03    -163.660E-03     93.1014E-03    -165.310E-03     328.467E-03    -163.358E-03     87.1731E-03
            1897     7.64289E-03     39.0746E-03    -64.3006E+06    -84.8227E+06     15.1230E+06     400.470E+03    -164.386E-03     328.097E-03    -163.712E-03     90.6883E-03    -165.442E-03     328.581E-03    -163.420E-03     85.0166E-03
            1898     6.87826E-03     38.9662E-03    -72.4294E+06    -106.208E+06     3.59745E+06     428.176E+03    -164.446E-03     328.195E-03    -163.749E-03     86.8432E-03    -165.409E-03     328.513E-03    -163.472E-03     81.4995E-03
            1899     6.11376E-03     38.8628E-03    -81.3542E+06    -127.149E+06    -9.22459E+06     440.734E+03    -164.414E-03     328.188E-03    -163.774E-03     81.6131E-03    -165.268E-03     328.329E-03    -163.518E-03     76.6738E-03
            1900     5.34935E-03     38.7665E-03    -90.9824E+06    -148.418E+06    -23.8253E+06     452.364E+03    -164.328E-03     328.115E-03    -163.787E-03     75.0129E-03    -165.064E-03     328.071E-03    -163.559E-03     70.5551E-03
            1901     4.58506E-03     38.6790E-03    -100.957E+06    -170.828E+06    -40.3682E+06     404.846E+03    -164.192E-03     327.982E-03    -163.790E-03     67.1108E-03    -164.804E-03     327.746E-03    -163.598E-03     63.2020E-03
            1902     3.82075E-03     38.6019E-03    -111.260E+06    -194.212E+06    -59.2342E+06     301.605E+03    -164.035E-03     327.816E-03    -163.782E-03     58.0210E-03    -164.524E-03     327.393E-03    -163.635E-03     54.7130E-03
            1903     3.05652E-03     38.5365E-03    -121.577E+06    -218.361E+06    -80.5099E+06     222.012E+03    -163.891E-03     327.653E-03    -163.762E-03     47.8856E-03    -164.265E-03     327.053E-03    -163.672E-03     45.2131E-03
            1904     2.29232E-03     38.4842E-03    -131.476E+06    -242.820E+06    -103.388E+06     282.257E+03    -163.775E-03     327.508E-03    -163.733E-03     36.8828E-03    -164.047E-03     326.751E-03    -163.707E-03     34.8644E-03
            1905     1.52813E-03     38.4459E-03    -139.622E+06    -264.839E+06    -124.824E+06     279.149E+03    -163.708E-03     327.409E-03    -163.701E-03     25.3021E-03    -163.896E-03     326.524E-03    -163.739E-03     23.9390E-03
            1906     764.039E-06     38.4220E-03    -145.145E+06    -281.242E+06    -141.018E+06     285.475E+03    -163.776E-03     327.360E-03    -163.584E-03     13.9045E-03    -163.908E-03     326.387E-03    -163.671E-03     13.1636E-03
            1907     14.5310E-03     38.6312E-03    -3.77233E+06     113.873E+06     105.429E+06    -1.08798E+06    -162.231E-03     325.388E-03    -163.156E-03     35.4508E-03    -163.130E-03     326.372E-03    -162.789E-03     29.3691E-03
            1908     13.7664E-03     38.5721E-03    -8.69889E+06     107.959E+06     94.8567E+06    -1.71634E+06    -161.596E-03     324.743E-03    -163.147E-03     56.9915E-03    -162.751E-03     325.975E-03    -162.817E-03     50.0569E-03
            1909     13.0008E-03     38.5015E-03    -17.4874E+06     94.9294E+06     79.4465E+06    -645.477E+03    -161.435E-03     324.613E-03    -163.177E-03     69.1927E-03    -162.643E-03     325.865E-03    -162.893E-03     62.5224E-03
            1910     12.2346E-03     38.4140E-03    -26.0117E+06     86.0648E+06     72.5573E+06     1.08064E+06    -161.780E-03     325.055E-03    -163.275E-03     80.7498E-03    -163.095E-03     326.373E-03    -163.000E-03     74.1089E-03
            1911     11.4682E-03     38.3154E-03    -32.8465E+06     59.5141E+06     64.0621E+06     1.44885E+06    -162.463E-03     325.858E-03    -163.395E-03     87.6286E-03    -163.794E-03     327.098E-03    -163.113E-03     81.0895E-03
            1912     10.7023E-03     38.2093E-03    -37.7158E+06     19.9523E+06     54.7619E+06     225.888E+03    -163.254E-03     326.767E-03    -163.513E-03     91.4995E-03    -164.547E-03     327.838E-03    -163.213E-03     85.0472E-03
            1913     9.93693E-03     38.0988E-03    -42.8936E+06    -12.9768E+06     44.7544E+06     70.7643E+03    -163.889E-03     327.483E-03    -163.595E-03     93.2127E-03    -165.132E-03     328.399E-03    -163.290E-03     86.8814E-03
            1914     9.17205E-03     37.9857E-03    -49.3086E+06    -39.7446E+06     35.1358E+06     458.526E+03    -164.311E-03     327.961E-03    -163.651E-03     93.3911E-03    -165.504E-03     328.737E-03    -163.346E-03     87.2183E-03
            1915     8.40745E-03     37.8724E-03    -56.3898E+06    -63.6112E+06     25.2572E+06     546.275E+03    -164.543E-03     328.229E-03    -163.686E-03     92.3216E-03    -165.675E-03     328.862E-03    -163.386E-03     86.3484E-03
            1916     7.64301E-03     37.7606E-03    -64.3177E+06    -84.8702E+06     14.7824E+06     536.793E+03    -164.589E-03     328.298E-03    -163.709E-03     90.0430E-03    -165.648E-03     328.784E-03    -163.418E-03     84.3346E-03
            1917     6.87856E-03     37.6521E-03    -72.9277E+06    -106.138E+06     3.30180E+06     619.395E+03    -164.520E-03     328.247E-03    -163.727E-03     86.4233E-03    -165.486E-03     328.568E-03    -163.451E-03     81.0559E-03
            1918     6.11410E-03     37.5488E-03    -81.8510E+06    -126.985E+06    -9.23619E+06     661.296E+03    -164.401E-03     328.146E-03    -163.745E-03     81.4407E-03    -165.259E-03     328.290E-03    -163.488E-03     76.4907E-03
            1919     5.34964E-03     37.4524E-03    -91.1716E+06    -148.032E+06    -23.5181E+06     510.524E+03    -164.266E-03     328.026E-03    -163.759E-03     75.0169E-03    -165.005E-03     327.983E-03    -163.530E-03     70.5569E-03
            1920     4.58518E-03     37.3649E-03    -101.021E+06    -170.576E+06    -39.9358E+06     269.110E+03    -164.125E-03     327.893E-03    -163.769E-03     67.2103E-03    -164.738E-03     327.658E-03    -163.574E-03     63.3025E-03
            1921     3.82081E-03     37.2877E-03    -111.202E+06    -193.980E+06    -58.7277E+06     178.248E+03    -163.983E-03     327.751E-03    -163.769E-03     58.1627E-03    -164.472E-03     327.328E-03    -163.620E-03     54.8589E-03
            1922     3.05649E-03     37.2224E-03    -121.570E+06    -218.145E+06    -80.2307E+06     129.793E+03    -163.856E-03     327.612E-03    -163.756E-03     48.0197E-03    -164.230E-03     327.013E-03    -163.665E-03     45.3520E-03
            1923     2.29226E-03     37.1701E-03    -131.317E+06    -242.736E+06    -103.248E+06     38.8123E+03    -163.767E-03     327.499E-03    -163.732E-03     36.9954E-03    -164.038E-03     326.741E-03    -163.706E-03     34.9792E-03
            1924     1.52815E-03     37.1317E-03    -139.544E+06    -264.876E+06    -124.643E+06     39.2303E+03    -163.711E-03     327.413E-03    -163.702E-03     25.3778E-03    -163.899E-03     326.527E-03    -163.739E-03     24.0158E-03
            1925     764.052E-06     37.1078E-03    -144.997E+06    -280.814E+06    -140.522E+06     175.191E+03    -163.771E-03     327.360E-03    -163.589E-03     13.9349E-03    -163.903E-03     326.388E-03    -163.675E-03     13.1952E-03
            1926     14.5326E-03     37.3183E-03    -3.20851E+06     113.857E+06     105.528E+06    -2.31096E+06    -161.281E-03     324.473E-03    -163.192E-03     36.9006E-03    -162.180E-03     325.459E-03    -162.825E-03     30.8769E-03
            1927     13.7657E-03     37.2608E-03    -12.3057E+06     103.881E+06     91.0361E+06     599.049E+03    -160.600E-03     323.835E-03    -163.235E-03     59.3743E-03    -161.764E-03     325.060E-03    -162.913E-03     52.5924E-03
            1928     12.9984E-03     37.1908E-03    -19.3239E+06     93.0282E+06     77.4396E+06     3.44278E+06    -161.177E-03     324.493E-03    -163.316E-03     71.1415E-03    -162.390E-03     325.743E-03    -163.035E-03     64.6031E-03
            1929     12.2317E-03     37.1021E-03    -25.8424E+06     87.8018E+06     72.3613E+06     2.31105E+06    -162.290E-03     325.707E-03    -163.418E-03     81.2704E-03    -163.606E-03     327.034E-03    -163.146E-03     74.6496E-03
            1930     11.4662E-03     37.0027E-03    -30.4869E+06     62.2368E+06     64.8152E+06    -700.634E+03    -163.266E-03     326.768E-03    -163.503E-03     86.9228E-03    -164.591E-03     328.018E-03    -163.225E-03     80.3055E-03
            1931     10.7013E-03     36.8957E-03    -35.3121E+06     19.4418E+06     54.7070E+06    -1.09543E+06    -163.988E-03     327.559E-03    -163.570E-03     90.2297E-03    -165.269E-03     328.625E-03    -163.274E-03     83.6909E-03
            1932     9.93689E-03     36.7847E-03    -42.4030E+06    -14.2860E+06     43.9590E+06    -146.019E+03    -164.401E-03     328.006E-03    -163.604E-03     91.9197E-03    -165.643E-03     328.918E-03    -163.302E-03     85.5128E-03
            1933     9.17253E-03     36.6716E-03    -49.7963E+06    -40.1170E+06     34.5042E+06     421.064E+03    -164.554E-03     328.179E-03    -163.625E-03     92.4918E-03    -165.752E-03     328.958E-03    -163.322E-03     86.2629E-03
            1934     8.40812E-03     36.5583E-03    -57.4550E+06    -63.6334E+06     24.7901E+06     628.851E+03    -164.568E-03     328.211E-03    -163.643E-03     91.8539E-03    -165.707E-03     328.849E-03    -163.344E-03     85.8515E-03
            1935     7.64358E-03     36.4465E-03    -65.3722E+06    -84.7638E+06     14.6384E+06     726.203E+03    -164.506E-03     328.169E-03    -163.663E-03     89.9177E-03    -165.570E-03     328.658E-03    -163.372E-03     84.2019E-03
            1936     6.87897E-03     36.3382E-03    -73.4805E+06    -105.750E+06     3.49309E+06     528.953E+03    -164.405E-03     328.093E-03    -163.688E-03     86.5255E-03    -165.375E-03     328.416E-03    -163.410E-03     81.1611E-03
            1937     6.11432E-03     36.2349E-03    -82.0155E+06    -126.758E+06    -8.91488E+06     247.475E+03    -164.295E-03     328.010E-03    -163.715E-03     81.6523E-03    -165.155E-03     328.154E-03    -163.457E-03     76.7077E-03
            1938     5.34970E-03     36.1385E-03    -91.1272E+06    -147.709E+06    -23.0245E+06     133.022E+03    -164.179E-03     327.920E-03    -163.741E-03     75.2130E-03    -164.918E-03     327.878E-03    -163.510E-03     70.7608E-03
            1939     4.58519E-03     36.0509E-03    -100.841E+06    -170.304E+06    -39.4913E+06     41.3424E+03    -164.065E-03     327.825E-03    -163.760E-03     67.3251E-03    -164.677E-03     327.589E-03    -163.564E-03     63.4274E-03
            1940     3.82075E-03     35.9737E-03    -111.147E+06    -193.974E+06    -58.6464E+06    -11.4697E+03    -163.951E-03     327.717E-03    -163.766E-03     58.1925E-03    -164.439E-03     327.293E-03    -163.617E-03     54.8974E-03
            1941     3.05644E-03     35.9083E-03    -121.531E+06    -218.034E+06    -80.2910E+06    -18.7870E+03    -163.843E-03     327.601E-03    -163.758E-03     47.9962E-03    -164.217E-03     327.002E-03    -163.667E-03     45.3354E-03
            1942     2.29223E-03     35.8559E-03    -131.050E+06    -242.613E+06    -103.255E+06    -53.7835E+03    -163.765E-03     327.502E-03    -163.737E-03     36.9558E-03    -164.034E-03     326.745E-03    -163.712E-03     34.9450E-03
            1943     1.52807E-03     35.8175E-03    -139.145E+06    -264.947E+06    -124.823E+06    -107.742E+03    -163.720E-03     327.428E-03    -163.709E-03     25.3470E-03    -163.905E-03     326.541E-03    -163.747E-03     23.9872E-03
            1944     764.034E-06     35.7936E-03    -144.841E+06    -280.875E+06    -140.789E+06    -223.656E+03    -163.788E-03     327.377E-03    -163.588E-03     13.9251E-03    -163.919E-03     326.404E-03    -163.675E-03     13.1825E-03
            1945     14.5271E-03     36.0062E-03    -3.44771E+06     112.374E+06     102.760E+06     67.7344E+03    -159.562E-03     322.896E-03    -163.334E-03     38.2619E-03    -160.457E-03     323.879E-03    -162.978E-03     32.3514E-03
            1946     13.7608E-03     35.9504E-03    -17.2897E+06     98.9956E+06     86.0304E+06     1.33913E+06    -161.285E-03     324.699E-03    -163.414E-03     59.9874E-03    -162.463E-03     325.917E-03    -163.102E-03     53.1937E-03
            1947     12.9951E-03     35.8783E-03    -20.0680E+06     93.4916E+06     79.6116E+06     907.089E+03    -162.749E-03     326.207E-03    -163.458E-03     69.7103E-03    -163.973E-03     327.460E-03    -163.166E-03     63.0138E-03
            1948     12.2308E-03     35.7882E-03    -21.8415E+06     91.7426E+06     75.5838E+06    -796.360E+03    -163.472E-03     326.941E-03    -163.469E-03     78.7872E-03    -164.779E-03     328.277E-03    -163.193E-03     71.9923E-03
            1949     11.4667E-03     35.6883E-03    -27.2318E+06     62.4500E+06     65.4844E+06    -491.574E+03    -163.937E-03     327.419E-03    -163.482E-03     84.6728E-03    -165.249E-03     328.665E-03    -163.205E-03     77.9489E-03
            1950     10.7026E-03     35.5813E-03    -35.6386E+06     17.9324E+06     54.3414E+06     880.276E+03    -164.191E-03     327.703E-03    -163.512E-03     88.8057E-03    -165.472E-03     328.764E-03    -163.215E-03     82.2288E-03
            1951     9.93806E-03     35.4705E-03    -43.7391E+06    -13.8887E+06     43.8499E+06     947.856E+03    -164.276E-03     327.810E-03    -163.534E-03     91.3693E-03    -165.525E-03     328.727E-03    -163.231E-03     84.9564E-03
            1952     9.17342E-03     35.3576E-03    -51.2269E+06    -40.2774E+06     34.4368E+06     467.555E+03    -164.331E-03     327.894E-03    -163.563E-03     92.5400E-03    -165.536E-03     328.674E-03    -163.258E-03     86.3162E-03
            1953     8.40861E-03     35.2445E-03    -58.4329E+06    -63.4195E+06     24.9481E+06     299.162E+03    -164.355E-03     327.951E-03    -163.595E-03     92.1485E-03    -165.498E-03     328.589E-03    -163.294E-03     86.1620E-03
            1954     7.64379E-03     35.1329E-03    -65.6027E+06    -84.5680E+06     14.9900E+06    -65.8775E+03    -164.344E-03     327.975E-03    -163.631E-03     90.2120E-03    -165.408E-03     328.462E-03    -163.338E-03     84.5109E-03
            1955     6.87900E-03     35.0245E-03    -73.2841E+06    -105.503E+06     3.91325E+06    -222.655E+03    -164.313E-03     327.980E-03    -163.667E-03     86.7306E-03    -165.280E-03     328.301E-03    -163.388E-03     81.3790E-03
            1956     6.11430E-03     34.9212E-03    -81.7244E+06    -126.618E+06    -8.68519E+06    -269.301E+03    -164.266E-03     327.966E-03    -163.700E-03     81.7380E-03    -165.123E-03     328.108E-03    -163.441E-03     76.8029E-03
            1957     5.34971E-03     34.8247E-03    -90.8778E+06    -147.774E+06    -22.9910E+06    -280.707E+03    -164.186E-03     327.910E-03    -163.724E-03     75.1863E-03    -164.921E-03     327.865E-03    -163.493E-03     70.7405E-03
            1958     4.58522E-03     34.7370E-03    -100.652E+06    -170.414E+06    -39.5156E+06    -118.279E+03    -164.078E-03     327.817E-03    -163.739E-03     67.2119E-03    -164.687E-03     327.578E-03    -163.543E-03     63.3227E-03
            1959     3.82083E-03     34.6597E-03    -110.990E+06    -193.877E+06    -58.7919E+06    -58.9088E+03    -163.953E-03     327.692E-03    -163.739E-03     58.0252E-03    -164.439E-03     327.266E-03    -163.590E-03     54.7389E-03
            1960     3.05652E-03     34.5942E-03    -121.250E+06    -218.058E+06    -80.4613E+06    -106.976E+03    -163.833E-03     327.557E-03    -163.724E-03     47.8215E-03    -164.203E-03     326.956E-03    -163.634E-03     45.1681E-03
            1961     2.29229E-03     34.5418E-03    -130.777E+06    -242.683E+06    -103.266E+06    -26.5463E+03    -163.738E-03     327.437E-03    -163.698E-03     36.7959E-03    -164.005E-03     326.677E-03    -163.673E-03     34.7921E-03
            1962     1.52816E-03     34.5034E-03    -138.866E+06    -264.828E+06    -124.720E+06    -3.47775E+03    -163.678E-03     327.346E-03    -163.668E-03     25.2171E-03    -163.862E-03     326.458E-03    -163.706E-03     23.8633E-03
            1963     764.041E-06     34.4794E-03    -144.423E+06    -281.156E+06    -140.640E+06     -86.127E+03    -163.741E-03     327.297E-03    -163.557E-03     13.8488E-03    -163.869E-03     326.323E-03    -163.643E-03     13.1095E-03
            1964     14.5256E-03     34.6986E-03    -3.93850E+06     111.964E+06     102.911E+06     6.26168E+06    -160.837E-03     324.233E-03    -163.396E-03     35.2861E-03    -161.720E-03     325.202E-03    -163.038E-03     29.3946E-03
            1965     13.7593E-03     34.6345E-03    -12.8425E+06     107.025E+06     89.5246E+06     1.00710E+06    -162.466E-03     325.867E-03    -163.401E-03     54.8637E-03    -163.629E-03     327.105E-03    -163.090E-03     47.8499E-03
            1966     12.9973E-03     34.5626E-03    -21.5303E+06     96.0670E+06     77.1220E+06    -5.15338E+06    -163.348E-03     326.716E-03    -163.368E-03     65.7090E-03    -164.581E-03     327.990E-03    -163.091E-03     58.7235E-03
            1967     12.2335E-03     34.4736E-03    -27.0613E+06     88.0807E+06     72.2181E+06    -3.72906E+06    -163.493E-03     326.850E-03    -163.357E-03     77.1573E-03    -164.818E-03     328.182E-03    -163.084E-03     70.2503E-03
            1968     11.4689E-03     34.3740E-03    -33.4306E+06     58.6783E+06     62.7150E+06     207.142E+03    -163.584E-03     326.958E-03    -163.373E-03     84.5080E-03    -164.917E-03     328.198E-03    -163.096E-03     77.7980E-03
            1969     10.7039E-03     34.2677E-03    -39.7030E+06     17.8980E+06     53.9689E+06     1.28813E+06    -163.731E-03     327.160E-03    -163.429E-03     89.3296E-03    -165.031E-03     328.225E-03    -163.127E-03     82.7943E-03
            1970     9.93874E-03     34.1571E-03    -45.4459E+06    -12.1362E+06     44.4376E+06     419.560E+03    -163.884E-03     327.362E-03    -163.477E-03     92.0938E-03    -165.142E-03     328.286E-03    -163.172E-03     85.7234E-03
            1971     9.17357E-03     34.0442E-03    -51.3426E+06    -39.8710E+06     34.8957E+06    -473.916E+03    -164.093E-03     327.623E-03    -163.529E-03     93.0952E-03    -165.296E-03     328.400E-03    -163.222E-03     86.9020E-03
            1972     8.40861E-03     33.9310E-03    -57.6111E+06    -63.2311E+06     25.5553E+06    -920.809E+03    -164.266E-03     327.841E-03    -163.576E-03     92.4205E-03    -165.402E-03     328.474E-03    -163.273E-03     86.4487E-03
            1973     7.64380E-03     33.8193E-03    -64.7035E+06    -84.6133E+06     15.4357E+06    -903.887E+03    -164.351E-03     327.965E-03    -163.614E-03     90.2310E-03    -165.407E-03     328.446E-03    -163.320E-03     84.5396E-03
            1974     6.87908E-03     33.7109E-03    -72.6504E+06    -105.769E+06      4.0816E+06    -760.173E+03    -164.370E-03     328.014E-03    -163.644E-03     86.5872E-03    -165.329E-03     328.328E-03    -163.365E-03     81.2429E-03
            1975     6.11447E-03     33.6074E-03    -81.2490E+06    -126.843E+06    -8.63444E+06    -640.429E+03    -164.336E-03     328.001E-03    -163.665E-03     81.4947E-03    -165.186E-03     328.137E-03    -163.407E-03     76.5659E-03
            1976     5.34995E-03     33.5108E-03    -90.4925E+06    -148.169E+06    -23.0180E+06    -439.973E+03    -164.244E-03     327.918E-03    -163.675E-03     74.8968E-03    -164.973E-03     327.867E-03    -163.444E-03     70.4590E-03
            1977     4.58552E-03     33.4230E-03    -100.309E+06    -170.728E+06    -39.5299E+06    -266.199E+03    -164.104E-03     327.776E-03    -163.673E-03     66.9119E-03    -164.707E-03     327.533E-03    -163.477E-03     63.0309E-03
            1978     3.82115E-03     33.3457E-03    -110.447E+06    -193.919E+06    -58.5629E+06    -165.073E+03    -163.940E-03     327.597E-03    -163.657E-03     57.7441E-03    -164.421E-03     327.167E-03    -163.508E-03     54.4665E-03
            1979     3.05682E-03     33.2802E-03    -120.567E+06    -218.168E+06    -80.0225E+06    -58.2512E+03    -163.785E-03     327.414E-03    -163.629E-03     47.5720E-03    -164.150E-03     326.809E-03    -163.538E-03     44.9286E-03
            1980     2.29256E-03     33.2278E-03    -130.139E+06    -242.794E+06    -102.805E+06    -13.5466E+03    -163.660E-03     327.252E-03    -163.593E-03     36.5960E-03    -163.923E-03     326.490E-03    -163.566E-03     34.6004E-03
            1981     1.52832E-03     33.1894E-03    -138.276E+06    -264.756E+06    -124.026E+06    -2.35582E+03    -163.576E-03     327.130E-03    -163.555E-03     25.0840E-03    -163.757E-03     326.241E-03    -163.590E-03     23.7360E-03
            1982     764.158E-06     33.1655E-03    -143.764E+06    -281.180E+06    -139.776E+06     49.4852E+03    -163.614E-03     327.065E-03    -163.450E-03     13.7698E-03    -163.740E-03     326.087E-03    -163.533E-03     13.0356E-03
            1983     14.5302E-03     33.3823E-03    -8.36129E+06     109.567E+06     102.447E+06     2.81594E+06    -163.214E-03     326.497E-03    -163.283E-03     34.0238E-03    -164.113E-03     327.458E-03    -162.917E-03     28.0120E-03
            1984     13.7682E-03     33.3215E-03    -3.33961E+06     115.382E+06     99.8025E+06     5.49707E+06    -162.410E-03     325.647E-03    -163.237E-03     55.3362E-03    -163.551E-03     326.896E-03    -162.901E-03     48.4283E-03
            1985     13.0006E-03     33.2490E-03    -12.9384E+06     102.774E+06     80.4584E+06     3.43041E+06    -162.166E-03     325.369E-03    -163.204E-03     67.1999E-03    -163.366E-03     326.655E-03    -162.932E-03     60.4580E-03
            1986     12.2348E-03     33.1603E-03    -25.2133E+06     85.7260E+06     71.1835E+06     120.996E+03    -162.621E-03     325.875E-03    -163.254E-03     78.7983E-03    -163.929E-03     327.192E-03    -162.986E-03     72.0461E-03
            1987     11.4691E-03     33.0611E-03    -32.9508E+06     56.0025E+06     63.1254E+06    -915.149E+03    -163.069E-03     326.396E-03    -163.327E-03     85.9734E-03    -164.393E-03     327.618E-03    -163.044E-03     79.3334E-03
            1988     10.7037E-03     32.9547E-03    -37.9332E+06     18.8184E+06      55.251E+06    -1.30189E+06    -163.505E-03     326.912E-03    -163.407E-03     90.2795E-03    -164.796E-03     327.975E-03    -163.103E-03     83.7644E-03
            1989     9.93851E-03     32.8441E-03    -42.7291E+06    -12.0833E+06     45.9551E+06    -1.49880E+06    -163.894E-03     327.361E-03    -163.467E-03     92.4950E-03    -165.138E-03     328.277E-03    -163.158E-03     86.1253E-03
            1990     9.17357E-03     32.7309E-03    -48.5282E+06    -39.2049E+06     36.3734E+06    -1.43957E+06    -164.179E-03     327.694E-03    -163.515E-03     93.0880E-03    -165.367E-03     328.465E-03    -163.205E-03     86.8972E-03
            1991     8.40874E-03     32.6175E-03    -55.5690E+06    -63.7945E+06     26.3128E+06    -1.43942E+06    -164.366E-03     327.917E-03    -163.551E-03     92.1835E-03    -165.488E-03     328.539E-03    -163.246E-03     86.2136E-03
            1992     7.64405E-03     32.5057E-03    -63.3142E+06    -85.2535E+06     15.9160E+06    -1.07889E+06    -164.473E-03     328.048E-03    -163.574E-03     89.8952E-03    -165.518E-03     328.519E-03    -163.279E-03     84.2080E-03
            1993     6.87949E-03     32.3971E-03    -71.4611E+06    -106.235E+06     4.62780E+06    -765.243E+03    -164.497E-03     328.083E-03    -163.586E-03     86.2159E-03    -165.446E-03     328.388E-03    -163.305E-03     80.8782E-03
            1994     6.11498E-03     32.2936E-03    -80.2835E+06    -127.230E+06    -8.11961E+06    -524.033E+03    -164.430E-03     328.014E-03    -163.584E-03     81.1000E-03    -165.270E-03     328.141E-03    -163.323E-03     76.1835E-03
            1995     5.35053E-03     32.1970E-03    -89.6997E+06    -148.576E+06    -22.5704E+06    -391.695E+03    -164.284E-03     327.854E-03    -163.570E-03     74.4946E-03    -165.005E-03     327.795E-03    -163.338E-03     70.0715E-03
            1996     4.58612E-03     32.1093E-03    -99.5246E+06    -170.919E+06    -39.1000E+06    -293.340E+03    -164.088E-03     327.634E-03    -163.546E-03     66.5315E-03    -164.684E-03     327.384E-03    -163.350E-03     62.6650E-03
            1997     3.82171E-03     32.0320E-03    -109.694E+06    -194.164E+06    -58.0174E+06    -208.688E+03    -163.876E-03     327.389E-03    -163.512E-03     57.4074E-03    -164.351E-03     326.953E-03    -163.362E-03     54.1436E-03
            1998     3.05733E-03     31.9665E-03    -119.941E+06    -218.396E+06    -79.3990E+06    -62.7674E+03    -163.678E-03     327.146E-03    -163.468E-03     47.2844E-03    -164.039E-03     326.537E-03    -163.375E-03     44.6539E-03
            1999     2.29296E-03     31.9142E-03    -129.599E+06    -242.729E+06    -102.169E+06     11.9398E+03    -163.514E-03     326.933E-03    -163.418E-03     36.3688E-03    -163.775E-03     326.168E-03    -163.389E-03     34.3845E-03
            2000     1.52862E-03     31.8758E-03    -137.723E+06    -264.838E+06    -123.504E+06     36.3934E+03    -163.406E-03     326.776E-03    -163.370E-03     24.9285E-03    -163.585E-03     325.884E-03    -163.404E-03     23.5887E-03
            2001     764.290E-06     31.8519E-03    -143.289E+06    -281.054E+06    -139.344E+06    -12.4077E+03    -163.428E-03     326.685E-03    -163.257E-03     13.6910E-03    -163.552E-03     325.707E-03    -163.338E-03     12.9608E-03
            2002     14.5314E-03     32.0662E-03    -9.33720E+06     105.470E+06     96.6191E+06    -3.98054E+06    -162.032E-03     325.208E-03    -163.176E-03     36.1425E-03    -162.928E-03     326.165E-03    -162.832E-03     30.1053E-03
            2003     13.7643E-03     32.0089E-03    -8.49006E+06     104.775E+06     93.8348E+06     528.014E+03    -161.788E-03     324.984E-03    -163.196E-03     58.9127E-03    -162.936E-03     326.201E-03    -162.866E-03     52.0908E-03
            2004     13.0000E-03     31.9373E-03    -6.54721E+06     104.745E+06     89.4257E+06     8.31442E+06    -162.089E-03     325.317E-03    -163.228E-03     69.9913E-03    -163.272E-03     326.590E-03    -162.923E-03     63.4529E-03
            2005     12.2340E-03     31.8478E-03    -11.8220E+06     93.2782E+06     81.0585E+06     7.66117E+06    -162.558E-03     325.835E-03    -163.277E-03     79.9247E-03    -163.823E-03     327.154E-03    -162.990E-03     73.3339E-03
            2006     11.4687E-03     31.7482E-03    -21.1238E+06     60.8337E+06     69.7698E+06     2.49808E+06    -163.171E-03     326.515E-03    -163.344E-03     86.1590E-03    -164.449E-03     327.732E-03    -163.052E-03     79.5817E-03
            2007     10.7035E-03     31.6415E-03    -29.6804E+06     20.4422E+06     58.9161E+06    -741.759E+03    -163.746E-03     327.157E-03    -163.410E-03     90.0921E-03    -165.001E-03     328.208E-03    -163.102E-03     83.5819E-03
            2008     9.93872E-03     31.5305E-03    -37.5173E+06    -12.9374E+06     48.0715E+06    -1.15058E+06    -164.164E-03     327.616E-03    -163.452E-03     92.1466E-03    -165.381E-03     328.514E-03    -163.138E-03     85.7712E-03
            2009     9.17401E-03     31.4174E-03    -45.4135E+06    -39.4261E+06     37.9572E+06    -615.544E+03    -164.403E-03     327.880E-03    -163.477E-03     92.6912E-03    -165.574E-03     328.639E-03    -163.164E-03     86.5064E-03
            2010     8.40934E-03     31.3039E-03    -53.3925E+06    -64.0078E+06     27.4837E+06    -299.336E+03    -164.535E-03     328.025E-03    -163.490E-03     91.7944E-03    -165.643E-03     328.636E-03    -163.182E-03     85.8430E-03
            2011     7.64475E-03     31.1919E-03    -61.7121E+06    -85.5328E+06     16.7451E+06    -375.925E+03    -164.605E-03     328.095E-03    -163.490E-03     89.4947E-03    -165.637E-03     328.556E-03    -163.193E-03     83.8255E-03
            2012     6.88024E-03     31.0834E-03    -70.4138E+06    -106.803E+06     5.08424E+06    -307.323E+03    -164.607E-03     328.084E-03    -163.477E-03     85.7912E-03    -165.546E-03     328.379E-03    -163.194E-03     80.4706E-03
            2013     6.11584E-03     30.9799E-03    -79.3947E+06    -127.492E+06    -7.55729E+06    -97.9527E+03    -164.502E-03     327.950E-03    -163.448E-03     80.6390E-03    -165.333E-03     328.068E-03    -163.186E-03     75.7439E-03
            2014     5.35143E-03     30.8834E-03    -88.8508E+06    -148.605E+06    -21.9702E+06    -4.62225E+03    -164.288E-03     327.696E-03    -163.407E-03     74.0257E-03    -165.001E-03     327.629E-03    -163.173E-03     69.6280E-03
            2015     4.58700E-03     30.7957E-03    -98.9038E+06    -170.928E+06    -38.6391E+06    -58.5962E+03    -164.026E-03     327.384E-03    -163.358E-03     66.0895E-03    -164.615E-03     327.128E-03    -163.160E-03     62.2473E-03
            2016     3.82253E-03     30.7186E-03    -109.285E+06    -194.378E+06    -57.6849E+06    -4.39020E+03    -163.758E-03     327.060E-03    -163.302E-03     57.0071E-03    -164.227E-03     326.619E-03    -163.150E-03     53.7662E-03
            2017     3.05804E-03     30.6533E-03    -119.634E+06    -218.456E+06    -79.1063E+06     41.3766E+03    -163.509E-03     326.748E-03    -163.239E-03     46.9372E-03    -163.866E-03     326.135E-03    -163.145E-03     44.3263E-03
            2018     2.29353E-03     30.6011E-03    -129.341E+06    -242.736E+06    -101.861E+06     47.9566E+03    -163.307E-03     326.480E-03    -163.174E-03     36.0941E-03    -163.565E-03     325.713E-03    -163.143E-03     34.1248E-03
            2019     1.52901E-03     30.5628E-03    -137.486E+06    -264.751E+06    -123.284E+06     38.5202E+03    -163.168E-03     326.280E-03    -163.112E-03     24.7398E-03    -163.345E-03     325.387E-03    -163.145E-03     23.4103E-03
            2020     764.510E-06     30.5389E-03    -143.063E+06    -280.997E+06    -139.144E+06     98.1064E+03    -163.165E-03     326.157E-03    -162.993E-03     13.5819E-03    -163.288E-03     325.179E-03    -163.073E-03     12.8588E-03
            2021     14.5296E-03     30.7564E-03    -4.30317E+06     108.421E+06     99.2948E+06    -1.22986E+06    -161.101E-03     324.307E-03    -163.206E-03     36.7857E-03    -161.981E-03     325.268E-03    -162.860E-03     30.8137E-03
            2022     13.7642E-03     30.6957E-03    -14.1007E+06     99.3532E+06     85.7896E+06    -4.77235E+06    -161.634E-03     324.864E-03    -163.229E-03     57.9390E-03    -162.789E-03     326.072E-03    -162.924E-03     51.0158E-03
            2023     12.9984E-03     30.6236E-03    -18.4662E+06     93.2202E+06     79.3921E+06    -3.75748E+06    -162.456E-03     325.719E-03    -163.263E-03     69.1729E-03    -163.673E-03     326.971E-03    -162.975E-03     62.3983E-03
            2024     12.2339E-03     30.5348E-03    -16.9813E+06     92.0747E+06     79.9895E+06     3.49965E+06    -163.050E-03     326.354E-03    -163.304E-03     79.5481E-03    -164.340E-03     327.679E-03    -163.013E-03     72.8582E-03
            2025     11.4689E-03     30.4348E-03    -19.2598E+06     68.2298E+06     72.9974E+06     5.98002E+06    -163.545E-03     326.885E-03    -163.340E-03     85.7744E-03    -164.829E-03     328.131E-03    -163.046E-03     79.2187E-03
            2026     10.7040E-03     30.3280E-03    -27.3891E+06     24.4601E+06     61.3771E+06     3.63515E+06    -164.016E-03     327.399E-03    -163.382E-03     89.7061E-03    -165.267E-03     328.461E-03    -163.071E-03     83.2401E-03
            2027     9.93930E-03     30.2168E-03    -36.5991E+06    -11.9838E+06     48.7828E+06     1.88653E+06    -164.368E-03     327.768E-03    -163.400E-03     91.8224E-03    -165.580E-03     328.666E-03    -163.086E-03     85.4842E-03
            2028     9.17468E-03     30.1037E-03    -44.9968E+06    -39.3659E+06     38.2110E+06     1.27602E+06    -164.601E-03     328.003E-03    -163.402E-03     92.3593E-03    -165.766E-03     328.758E-03    -163.089E-03     86.2027E-03
            2029     8.41018E-03     29.9902E-03    -53.1361E+06    -63.4116E+06     27.8549E+06     1.01126E+06    -164.727E-03     328.117E-03    -163.390E-03     91.4384E-03    -165.830E-03     328.725E-03    -163.081E-03     85.5130E-03
            2030     7.64574E-03     29.8783E-03    -61.4677E+06    -85.1370E+06     17.0337E+06     820.844E+03    -164.757E-03     328.118E-03    -163.361E-03     89.0919E-03    -165.782E-03     328.574E-03    -163.063E-03     83.4523E-03
            2031     6.88136E-03     29.7696E-03    -70.2010E+06    -106.499E+06     5.21657E+06     529.046E+03    -164.702E-03     328.019E-03    -163.317E-03     85.3295E-03    -165.634E-03     328.308E-03    -163.034E-03     80.0386E-03
            2032     6.11701E-03     29.6663E-03    -79.3056E+06    -127.589E+06    -7.58315E+06     336.376E+03    -164.534E-03     327.792E-03    -163.258E-03     80.1106E-03    -165.358E-03     327.903E-03    -162.996E-03     75.2442E-03
            2033     5.35262E-03     29.5700E-03    -88.7897E+06    -148.410E+06    -21.8749E+06     341.512E+03    -164.256E-03     327.444E-03    -163.187E-03     73.4810E-03    -164.962E-03     327.371E-03    -162.953E-03     69.1137E-03
            2034     4.58815E-03     29.4827E-03    -98.7436E+06    -170.790E+06    -38.4414E+06     332.146E+03    -163.927E-03     327.037E-03    -163.110E-03     65.5706E-03    -164.511E-03     326.776E-03    -162.911E-03     61.7597E-03
            2035     3.82359E-03     29.4057E-03    -109.102E+06    -194.315E+06    -57.5363E+06     297.221E+03    -163.593E-03     326.620E-03    -163.027E-03     56.5287E-03    -164.058E-03     326.175E-03    -162.875E-03     53.3169E-03
            2036     3.05896E-03     29.3407E-03    -119.450E+06    -218.229E+06    -78.9811E+06     215.489E+03    -163.285E-03     326.226E-03    -162.941E-03     46.5195E-03    -163.639E-03     325.610E-03    -162.847E-03     43.9335E-03
            2037     2.29426E-03     29.2886E-03    -129.162E+06    -242.683E+06    -101.763E+06     139.711E+03    -163.035E-03     325.892E-03    -162.857E-03     35.7603E-03    -163.291E-03     325.123E-03    -162.826E-03     33.8105E-03
            2038     1.52953E-03     29.2505E-03    -137.369E+06    -264.586E+06    -123.096E+06     113.715E+03    -162.858E-03     325.639E-03    -162.781E-03     24.5039E-03    -163.035E-03     324.745E-03    -162.813E-03     23.1883E-03
            2039     764.764E-06     29.2268E-03    -142.918E+06    -280.826E+06    -138.955E+06     100.478E+03    -162.828E-03     325.480E-03    -162.652E-03     13.4499E-03    -162.950E-03     324.502E-03    -162.733E-03     12.7341E-03
            2040     14.5297E-03     29.4421E-03    -5.24487E+06     110.592E+06     102.002E+06    -762.094E+03    -161.764E-03     325.009E-03    -163.245E-03     35.7410E-03    -162.655E-03     325.978E-03    -162.888E-03     29.7220E-03
            2041     13.7645E-03     29.3837E-03    -10.5667E+06     104.328E+06     91.5497E+06     6.75875E+03    -161.914E-03     325.162E-03    -163.249E-03     57.6037E-03    -163.067E-03     326.383E-03    -162.927E-03     50.7178E-03
            2042     12.9992E-03     29.3106E-03    -20.4875E+06     91.6288E+06     76.2565E+06    -3.21380E+06    -162.476E-03     325.722E-03    -163.246E-03     68.8597E-03    -163.697E-03     326.975E-03    -162.968E-03     62.0672E-03
            2043     12.2338E-03     29.2209E-03    -30.1594E+06     83.0770E+06     70.0342E+06    -5.04838E+06    -163.193E-03     326.464E-03    -163.272E-03     79.2810E-03    -164.522E-03     327.779E-03    -162.998E-03     72.4512E-03
            2044     11.4693E-03     29.1211E-03    -33.4557E+06     64.0023E+06     65.8982E+06    -649.288E+03    -163.766E-03     327.065E-03    -163.299E-03     85.6948E-03    -165.105E-03     328.321E-03    -163.014E-03     79.0362E-03
            2045     10.7046E-03     29.0142E-03    -35.7977E+06     26.5326E+06     58.3810E+06     2.85524E+06    -164.214E-03     327.538E-03    -163.323E-03     89.6073E-03    -165.504E-03     328.625E-03    -163.018E-03     83.1291E-03
            2046     9.94004E-03     28.9031E-03    -40.8680E+06    -10.0452E+06     47.2806E+06     2.67035E+06    -164.582E-03     327.901E-03    -163.319E-03     91.6136E-03    -165.811E-03     328.813E-03    -163.009E-03     85.2901E-03
            2047     9.17561E-03     28.7898E-03    -47.6053E+06    -38.2003E+06     37.1814E+06     1.87782E+06    -164.825E-03     328.121E-03    -163.296E-03     92.0053E-03    -165.997E-03     328.881E-03    -162.985E-03     85.8648E-03
            2048     8.41130E-03     28.6764E-03    -54.9700E+06    -62.8001E+06     27.0058E+06     1.45473E+06    -164.941E-03     328.193E-03    -163.252E-03     90.9738E-03    -166.045E-03     328.801E-03    -162.946E-03     85.0655E-03
            2049     7.64704E-03     28.5645E-03    -62.6838E+06    -84.4259E+06     16.5809E+06     1.24673E+06    -164.929E-03     328.118E-03    -163.188E-03     88.5657E-03    -165.953E-03     328.571E-03    -162.892E-03     82.9492E-03
            2050     6.88279E-03     28.4561E-03    -70.9055E+06    -105.705E+06     5.04057E+06     1.00575E+06    -164.795E-03     327.903E-03    -163.108E-03     84.7362E-03    -165.723E-03     328.189E-03    -162.826E-03     79.4768E-03
            2051     6.11849E-03     28.3529E-03    -79.7496E+06    -127.077E+06    -7.81851E+06     720.384E+03    -164.541E-03     327.553E-03    -163.013E-03     79.4437E-03    -165.358E-03     327.659E-03    -162.752E-03     74.6136E-03
            2052     5.35409E-03     28.2571E-03    -89.1640E+06    -148.169E+06    -22.1976E+06     491.188E+03    -164.189E-03     327.097E-03    -162.907E-03     72.7875E-03    -164.889E-03     327.018E-03    -162.674E-03     68.4553E-03
            2053     4.58956E-03     28.1701E-03    -99.0358E+06    -170.652E+06    -38.6641E+06     469.944E+03    -163.789E-03     326.586E-03    -162.797E-03     64.9043E-03    -164.367E-03     326.319E-03    -162.599E-03     61.1282E-03
            2054     3.82490E-03     28.0935E-03    -109.219E+06    -193.970E+06    -57.6090E+06     432.859E+03    -163.380E-03     326.064E-03    -162.684E-03     55.9182E-03    -163.840E-03     325.615E-03    -162.532E-03     52.7396E-03
            2055     3.06008E-03     28.0288E-03    -119.449E+06    -217.928E+06    -79.0316E+06     341.825E+03    -163.002E-03     325.572E-03    -162.570E-03     45.9920E-03    -163.353E-03     324.955E-03    -162.476E-03     43.4352E-03
            2056     2.29516E-03     27.9771E-03    -129.127E+06    -242.400E+06    -101.767E+06     266.017E+03    -162.694E-03     325.157E-03    -162.463E-03     35.3399E-03    -162.948E-03     324.387E-03    -162.433E-03     33.4139E-03
            2057     1.53015E-03     27.9392E-03    -137.287E+06    -264.381E+06    -123.086E+06     186.327E+03    -162.472E-03     324.841E-03    -162.369E-03     24.2057E-03    -162.647E-03     323.948E-03    -162.402E-03     22.9069E-03
            2058     765.094E-06     27.9156E-03    -142.799E+06    -280.495E+06    -138.905E+06     48.8483E+03    -162.410E-03     324.642E-03    -162.232E-03     13.2814E-03    -162.532E-03     323.665E-03    -162.313E-03     12.5738E-03
            2059     14.5298E-03     28.1299E-03    -7.15162E+06     109.829E+06     101.246E+06    -956.986E+03    -161.677E-03     324.915E-03    -163.238E-03     35.4007E-03    -162.578E-03     325.886E-03    -162.880E-03     29.3431E-03
            2060     13.7643E-03     28.0699E-03    -13.3342E+06     102.516E+06     91.6273E+06    -557.899E+03    -162.068E-03     325.312E-03    -163.245E-03     57.7907E-03    -163.236E-03     326.532E-03    -162.916E-03     50.8774E-03
            2061     12.9995E-03     27.9975E-03    -17.0385E+06     96.4208E+06     81.6052E+06     1.51492E+06    -162.745E-03     325.981E-03    -163.237E-03     69.1492E-03    -163.966E-03     327.248E-03    -162.944E-03     62.4113E-03
            2062     12.2347E-03     27.9074E-03    -23.3706E+06     86.3303E+06     73.6126E+06    -432.689E+03    -163.356E-03     326.594E-03    -163.238E-03     79.3632E-03    -164.662E-03     327.909E-03    -162.961E-03     72.5929E-03
            2063     11.4697E-03     27.8071E-03    -32.9008E+06     58.3846E+06     63.5562E+06    -3.64061E+06    -163.951E-03     327.195E-03    -163.244E-03     85.5811E-03    -165.275E-03     328.425E-03    -162.964E-03     78.8744E-03
            2064     10.7053E-03     27.7002E-03    -39.5853E+06     22.2382E+06     54.9871E+06    -2.08411E+06    -164.486E-03     327.733E-03    -163.247E-03     89.4151E-03    -165.780E-03     328.806E-03    -162.947E-03     82.8671E-03
            2065     9.94097E-03     27.5889E-03    -44.4558E+06    -9.95973E+06     45.4494E+06     161.265E+03    -164.885E-03     328.100E-03    -163.215E-03     91.2884E-03    -166.124E-03     329.014E-03    -162.909E-03     84.9332E-03
            2066     9.17686E-03     27.4758E-03    -50.0706E+06    -37.8718E+06     35.8878E+06     694.752E+03    -165.113E-03     328.269E-03    -163.156E-03     91.5355E-03    -166.289E-03     329.028E-03    -162.849E-03     85.3874E-03
            2067     8.41277E-03     27.3624E-03    -56.5596E+06    -62.4115E+06     26.0921E+06     808.738E+03    -165.184E-03     328.258E-03    -163.073E-03     90.3912E-03    -166.287E-03     328.862E-03    -162.770E-03     84.4898E-03
            2068     7.64870E-03     27.2508E-03    -63.8211E+06    -84.0761E+06     15.8848E+06     780.498E+03    -165.111E-03     328.079E-03    -162.968E-03     87.8820E-03    -166.130E-03     328.527E-03    -162.674E-03     82.2824E-03
            2069     6.88459E-03     27.1427E-03    -71.7184E+06    -105.275E+06     4.61047E+06     797.853E+03    -164.893E-03     327.737E-03    -162.844E-03     83.9513E-03    -165.814E-03     328.016E-03    -162.564E-03     78.7204E-03
            2070     6.12036E-03     27.0400E-03    -80.2469E+06    -126.389E+06    -8.05337E+06     708.698E+03    -164.540E-03     327.246E-03    -162.706E-03     78.5820E-03    -165.349E-03     327.345E-03    -162.446E-03     73.7897E-03
            2071     5.35595E-03     26.9446E-03    -89.4787E+06    -147.809E+06    -22.4747E+06     560.361E+03    -164.094E-03     326.653E-03    -162.559E-03     71.9008E-03    -164.785E-03     326.567E-03    -162.327E-03     67.6106E-03
            2072     4.59134E-03     26.8582E-03    -99.2828E+06    -170.401E+06    -38.9767E+06     432.517E+03    -163.604E-03     326.013E-03    -162.409E-03     64.0410E-03    -164.176E-03     325.740E-03    -162.213E-03     60.3055E-03
            2073     3.82651E-03     26.7821E-03    -109.414E+06    -193.670E+06    -57.8525E+06     363.299E+03    -163.107E-03     325.366E-03    -162.259E-03     55.1209E-03    -163.562E-03     324.913E-03    -162.108E-03     51.9800E-03
            2074     3.06148E-03     26.7179E-03    -119.575E+06    -217.675E+06    -79.1632E+06     356.630E+03    -162.649E-03     324.762E-03    -162.113E-03     45.3032E-03    -162.996E-03     324.141E-03    -162.020E-03     42.7802E-03
            2075     2.29626E-03     26.6666E-03    -129.152E+06    -242.018E+06    -101.851E+06     311.432E+03    -162.271E-03     324.250E-03    -161.979E-03     34.7902E-03    -162.523E-03     323.479E-03    -161.950E-03     32.8919E-03
            2076     1.53092E-03     26.6290E-03    -137.224E+06    -263.997E+06    -123.089E+06     181.475E+03    -161.996E-03     323.861E-03    -161.865E-03     23.8167E-03    -162.170E-03     322.968E-03    -161.899E-03     22.5369E-03
            2077     765.480E-06     26.6056E-03    -142.746E+06    -280.214E+06    -138.842E+06     113.494E+03    -161.901E-03     323.617E-03    -161.716E-03     13.0602E-03    -162.023E-03     322.640E-03    -161.797E-03     12.3640E-03
            2078     14.5299E-03     26.8166E-03    -5.35653E+06     110.336E+06     102.682E+06     807.691E+03    -161.678E-03     324.909E-03    -163.231E-03     35.6552E-03    -162.575E-03     325.881E-03    -162.870E-03     29.6071E-03
            2079     13.7648E-03     26.7571E-03    -11.9390E+06     102.739E+06     91.3595E+06    -349.944E+03    -162.213E-03     325.439E-03    -163.226E-03     57.8918E-03    -163.377E-03     326.660E-03    -162.901E-03     50.9679E-03
            2080     12.9996E-03     26.6834E-03    -18.4484E+06     94.4509E+06     79.5855E+06    -1.57974E+06    -162.968E-03     326.174E-03    -163.206E-03     69.2496E-03    -164.193E-03     327.438E-03    -162.918E-03     62.4539E-03
            2081     12.2350E-03     26.5935E-03    -22.4134E+06     88.5084E+06     74.9067E+06     202.902E+03    -163.682E-03     326.876E-03    -163.194E-03     79.3567E-03    -164.988E-03     328.199E-03    -162.916E-03     72.5836E-03
            2082     11.4706E-03     26.4931E-03    -27.3865E+06     61.5582E+06     66.3830E+06     611.001E+03    -164.303E-03     327.478E-03    -163.176E-03     85.3621E-03    -165.605E-03     328.709E-03    -162.893E-03     78.7064E-03
            2083     10.7063E-03     26.3860E-03    -35.4661E+06     20.3684E+06     55.6814E+06    -1.24055E+06    -164.862E-03     328.009E-03    -163.146E-03     88.9985E-03    -166.128E-03     329.059E-03    -162.846E-03     82.4616E-03
            2084     9.94233E-03     26.2746E-03    -43.1392E+06    -11.8620E+06     45.0545E+06    -1.34738E+06    -165.243E-03     328.319E-03    -163.076E-03     90.7377E-03    -166.464E-03     329.214E-03    -162.771E-03     84.3700E-03
            2085     9.17844E-03     26.1615E-03    -49.7938E+06    -38.7241E+06     35.3914E+06    -530.907E+03    -165.436E-03     328.411E-03    -162.976E-03     90.8477E-03    -166.597E-03     329.156E-03    -162.670E-03     84.6988E-03
            2086     8.41463E-03     26.0485E-03    -56.7471E+06    -62.7200E+06     25.6007E+06    -97.7657E+03    -165.458E-03     328.304E-03    -162.846E-03     89.5809E-03    -166.549E-03     328.897E-03    -162.545E-03     83.6910E-03
            2087     7.65077E-03     25.9372E-03    -64.0662E+06    -84.1487E+06     15.4203E+06     176.135E+03    -165.310E-03     328.001E-03    -162.691E-03     86.9408E-03    -166.316E-03     328.436E-03    -162.399E-03     81.3653E-03
            2088     6.88682E-03     25.8296E-03    -71.9298E+06    -105.260E+06     4.23326E+06     312.484E+03    -164.993E-03     327.508E-03    -162.515E-03     82.8914E-03    -165.901E-03     327.774E-03    -162.237E-03     77.6943E-03
            2089     6.12265E-03     25.7275E-03    -80.4260E+06    -126.174E+06    -8.30587E+06     437.798E+03    -164.529E-03     326.854E-03    -162.325E-03     77.4525E-03    -165.326E-03     326.942E-03    -162.067E-03     72.7028E-03
            2090     5.35823E-03     25.6328E-03    -89.5466E+06    -147.466E+06    -22.6186E+06     462.633E+03    -163.972E-03     326.099E-03    -162.127E-03     70.7557E-03    -164.652E-03     326.004E-03    -161.897E-03     66.5134E-03
            2091     4.59352E-03     25.5471E-03    -99.2505E+06    -170.045E+06    -39.1151E+06     401.248E+03    -163.370E-03     325.298E-03    -161.928E-03     62.9241E-03    -163.931E-03     325.016E-03    -161.733E-03     59.2378E-03
            2092     3.82850E-03     25.4718E-03    -109.384E+06    -193.424E+06    -57.9809E+06     331.960E+03    -162.764E-03     324.497E-03    -161.734E-03     54.0880E-03    -163.211E-03     324.038E-03    -161.584E-03     50.9934E-03
            2093     3.06319E-03     25.4082E-03    -119.534E+06    -217.460E+06    -79.2192E+06     294.950E+03    -162.208E-03     323.757E-03    -161.549E-03     44.4107E-03    -162.550E-03     323.132E-03    -161.457E-03     41.9277E-03
            2094     2.29763E-03     25.3574E-03    -129.061E+06    -241.657E+06    -101.827E+06     252.623E+03    -161.748E-03     323.131E-03    -161.383E-03     34.0761E-03    -161.996E-03     322.358E-03    -161.354E-03     32.2097E-03
            2095     1.53186E-03     25.3203E-03    -137.115E+06    -263.640E+06    -123.014E+06     203.409E+03    -161.410E-03     322.655E-03    -161.245E-03     23.3088E-03    -161.583E-03     321.762E-03    -161.279E-03     22.0525E-03
            2096     765.970E-06     25.2972E-03    -142.595E+06    -279.862E+06    -138.688E+06     108.117E+03    -161.274E-03     322.354E-03    -161.080E-03     12.7719E-03    -161.395E-03     321.378E-03    -161.161E-03     12.0888E-03
            2097     14.5299E-03     25.5034E-03    -5.04426E+06     110.119E+06     102.631E+06     144.739E+03    -161.928E-03     325.150E-03    -163.222E-03     35.8441E-03    -162.825E-03     326.123E-03    -162.861E-03     29.7697E-03
            2098     13.7649E-03     25.4435E-03    -9.96066E+06     104.281E+06     93.0150E+06     581.701E+03    -162.536E-03     325.741E-03    -163.205E-03     57.9604E-03    -163.695E-03     326.965E-03    -162.876E-03     51.0340E-03
            2099     13.0003E-03     25.3698E-03    -16.1904E+06     95.9236E+06     80.7811E+06     102.407E+03    -163.287E-03     326.448E-03    -163.161E-03     69.1393E-03    -164.503E-03     327.713E-03    -162.873E-03     62.3547E-03
            2100     12.2358E-03     25.2792E-03    -24.2967E+06     86.4020E+06     73.2705E+06    -1.43826E+06    -164.037E-03     327.160E-03    -163.123E-03     79.0078E-03    -165.342E-03     328.473E-03    -162.846E-03     72.2048E-03
            2101     11.4716E-03     25.1786E-03    -30.3638E+06     61.4609E+06     65.5546E+06    -846.331E+03    -164.731E-03     327.805E-03    -163.074E-03     84.8989E-03    -166.040E-03     329.034E-03    -162.791E-03     78.2224E-03
            2102     10.7078E-03     25.0713E-03    -34.8978E+06     22.3019E+06     56.5548E+06     63.9387E+03    -165.297E-03     328.302E-03    -163.005E-03     88.3623E-03    -166.555E-03     329.351E-03    -162.704E-03     81.8505E-03
            2103     9.94413E-03     24.9601E-03    -41.4560E+06    -12.4275E+06     45.4139E+06    -424.287E+03    -165.653E-03     328.541E-03    -162.889E-03     89.8969E-03    -166.853E-03     329.418E-03    -162.584E-03     83.5588E-03
            2104     9.18058E-03     24.8471E-03    -48.9505E+06    -39.3310E+06     35.2942E+06    -591.451E+03    -165.797E-03     328.533E-03    -162.736E-03     89.8140E-03    -166.939E-03     329.259E-03    -162.432E-03     83.6923E-03
            2105     8.41702E-03     24.7344E-03    -56.2083E+06    -63.2767E+06     25.3815E+06    -398.761E+03    -165.758E-03     328.308E-03    -162.551E-03     88.3635E-03    -166.827E-03     328.880E-03    -162.250E-03     82.5066E-03
            2106     7.65343E-03     24.6237E-03    -63.7511E+06    -84.4094E+06     15.2056E+06    -184.055E+03    -165.516E-03     327.851E-03    -162.335E-03     85.5611E-03    -166.502E-03     328.267E-03    -162.044E-03     80.0276E-03
            2107     6.88962E-03     24.5168E-03    -71.8015E+06    -105.494E+06     3.94490E+06     21.9403E+03    -165.081E-03     327.178E-03    -162.097E-03     81.3808E-03    -165.969E-03     327.424E-03    -161.820E-03     76.2354E-03
            2108     6.12553E-03     24.4156E-03    -80.3659E+06    -126.228E+06    -8.56541E+06     166.772E+03    -164.492E-03     326.336E-03    -161.843E-03     75.8771E-03    -165.271E-03     326.406E-03    -161.587E-03     71.1847E-03
            2109     5.36109E-03     24.3218E-03    -89.4526E+06    -147.355E+06    -22.7662E+06     281.542E+03    -163.801E-03     325.385E-03    -161.584E-03     69.1807E-03    -164.465E-03     325.274E-03    -161.354E-03     64.9991E-03
            2110     4.59625E-03     24.2370E-03    -99.1036E+06    -169.781E+06    -39.1266E+06     339.759E+03    -163.058E-03     324.384E-03    -161.326E-03     61.4142E-03    -163.606E-03     324.091E-03    -161.132E-03     57.7892E-03
            2111     3.83098E-03     24.1627E-03    -109.145E+06    -193.147E+06    -57.9187E+06     323.233E+03    -162.320E-03     323.398E-03    -161.078E-03     52.7150E-03    -162.757E-03     322.930E-03    -160.929E-03     49.6780E-03
            2112     3.06532E-03     24.1000E-03    -119.245E+06    -217.178E+06    -79.1092E+06     266.657E+03    -161.648E-03     322.496E-03    -160.847E-03     43.2384E-03    -161.982E-03     321.865E-03    -160.755E-03     40.8051E-03
            2113     2.29931E-03     24.0499E-03    -128.794E+06    -241.409E+06    -101.638E+06     236.223E+03    -161.092E-03     321.736E-03    -160.643E-03     33.1487E-03    -161.336E-03     320.960E-03    -160.615E-03     31.3220E-03
            2114     1.53304E-03     24.0133E-03    -136.837E+06    -263.286E+06    -122.751E+06     192.019E+03    -160.682E-03     321.158E-03    -160.477E-03     22.6582E-03    -160.852E-03     320.264E-03    -160.510E-03     21.4298E-03
            2115     766.569E-06     23.9906E-03    -142.296E+06    -279.489E+06    -138.431E+06     96.3289E+03    -160.492E-03     320.790E-03    -160.298E-03     12.4066E-03    -160.612E-03     319.815E-03    -160.379E-03     11.7392E-03
            2116     14.5302E-03     24.1898E-03    -5.59844E+06     110.019E+06     102.421E+06    -135.083E+03    -162.300E-03     325.504E-03    -163.204E-03     36.0282E-03    -163.201E-03     326.479E-03    -162.843E-03     29.9261E-03
            2117     13.7655E-03     24.1296E-03    -11.5190E+06     103.673E+06     92.4317E+06    -227.845E+03    -162.993E-03     326.155E-03    -163.162E-03     57.7981E-03    -164.156E-03     327.378E-03    -162.834E-03     50.8441E-03
            2118     13.0011E-03     24.0553E-03    -16.5770E+06     96.1848E+06     81.1808E+06     477.478E+03    -163.794E-03     326.883E-03    -163.089E-03     68.8448E-03    -165.009E-03     328.145E-03    -162.799E-03     62.0542E-03
            2119     12.2372E-03     23.9646E-03    -21.6515E+06     88.8796E+06     75.0251E+06     566.622E+03    -164.542E-03     327.555E-03    -163.013E-03     78.4877E-03    -165.832E-03     328.866E-03    -162.735E-03     71.7136E-03
            2120     11.4734E-03     23.8637E-03    -28.6455E+06     61.1020E+06     65.7978E+06    -1.20941E+06    -165.223E-03     328.143E-03    -162.920E-03     84.1595E-03    -166.512E-03     329.357E-03    -162.638E-03     77.4877E-03
            2121     10.7099E-03     23.7563E-03    -35.8112E+06     20.7230E+06     55.6476E+06    -1.20110E+06    -165.799E-03     328.601E-03    -162.802E-03     87.3733E-03    -167.043E-03     329.630E-03    -162.502E-03     80.8606E-03
            2122     9.94663E-03     23.6452E-03    -42.0480E+06    -11.8900E+06     45.1627E+06    -167.295E+03    -166.143E-03     328.770E-03    -162.628E-03     88.6257E-03    -167.328E-03     329.634E-03    -162.324E-03     82.3179E-03
            2123     9.18346E-03     23.5327E-03    -48.5776E+06    -39.2355E+06     35.2655E+06    -195.209E+03    -166.240E-03     328.650E-03    -162.410E-03     88.2641E-03    -167.358E-03     329.354E-03    -162.106E-03     82.1891E-03
            2124     8.42029E-03     23.4205E-03    -55.8268E+06    -63.3412E+06     25.3047E+06    -261.710E+03    -166.102E-03     328.254E-03    -162.152E-03     86.5544E-03    -167.145E-03     328.801E-03    -161.853E-03     80.7549E-03
            2125     7.65694E-03     23.3105E-03    -63.5250E+06    -84.6909E+06     14.9831E+06    -205.027E+03    -165.732E-03     327.592E-03    -161.860E-03     83.5200E-03    -166.690E-03     327.981E-03    -161.570E-03     78.0540E-03
            2126     6.89332E-03     23.2046E-03    -71.5860E+06    -105.637E+06     3.76307E+06    -78.7647E+03    -165.152E-03     326.695E-03    -161.543E-03     79.1730E-03    -166.012E-03     326.915E-03    -161.267E-03     74.1044E-03
            2127     6.12930E-03     23.1045E-03    -80.1279E+06    -126.285E+06    -8.70231E+06     26.4358E+03    -164.400E-03     325.611E-03    -161.211E-03     73.6019E-03    -165.153E-03     325.656E-03    -160.955E-03     68.9919E-03
            2128     5.36479E-03     23.0119E-03    -89.2507E+06    -147.408E+06    -22.8515E+06     139.762E+03    -163.535E-03     324.409E-03    -160.875E-03     66.9309E-03    -164.176E-03     324.277E-03    -160.646E-03     62.8336E-03
            2129     4.59974E-03     22.9284E-03    -98.8812E+06    -169.653E+06    -39.0797E+06     247.340E+03    -162.619E-03     323.164E-03    -160.546E-03     59.2833E-03    -163.148E-03     322.854E-03    -160.352E-03     55.7412E-03
            2130     3.83414E-03     22.8552E-03    -108.813E+06    -192.844E+06    -57.7624E+06     256.592E+03    -161.722E-03     321.955E-03    -160.233E-03     50.7941E-03    -162.144E-03     321.474E-03    -160.085E-03     47.8336E-03
            2131     3.06800E-03     22.7936E-03    -118.853E+06    -216.930E+06    -78.8809E+06     234.819E+03    -160.911E-03     320.859E-03    -159.948E-03     41.6033E-03    -161.235E-03     320.219E-03    -159.855E-03     39.2363E-03
            2132     2.30143E-03     22.7444E-03    -128.388E+06    -241.141E+06    -101.303E+06     216.058E+03    -160.242E-03     319.941E-03    -159.699E-03     31.8586E-03    -160.479E-03     319.160E-03    -159.670E-03     30.0848E-03
            2133     1.53449E-03     22.7085E-03    -136.390E+06    -262.946E+06    -122.332E+06     156.416E+03    -159.747E-03     319.247E-03    -159.500E-03     21.7544E-03    -159.913E-03     318.350E-03    -159.533E-03     20.5630E-03
            2134     767.315E-06     22.6862E-03    -141.842E+06    -279.161E+06    -137.966E+06     95.4592E+03    -159.490E-03     318.806E-03    -159.316E-03     11.9005E-03    -159.608E-03     317.830E-03    -159.396E-03     11.2541E-03
            2135     14.5306E-03     22.8755E-03    -5.50063E+06     110.026E+06     102.390E+06    -119.760E+03    -162.934E-03     326.106E-03    -163.173E-03     36.2165E-03    -163.836E-03     327.083E-03    -162.812E-03     30.0809E-03
            2136     13.7664E-03     22.8150E-03    -11.1363E+06     103.631E+06     92.4155E+06    -15.3290E+03    -163.646E-03     326.739E-03    -163.093E-03     57.6058E-03    -164.805E-03     327.958E-03    -162.765E-03     50.6331E-03
            2137     13.0026E-03     22.7404E-03    -17.3284E+06     95.3019E+06     80.5070E+06    -230.651E+03    -164.452E-03     327.428E-03    -162.976E-03     68.4221E-03    -165.663E-03     328.683E-03    -162.687E-03     61.6071E-03
            2138     12.2390E-03     22.6493E-03    -23.4863E+06     89.8331E+06     74.3874E+06    -472.704E+03    -165.200E-03     328.050E-03    -162.849E-03     77.7883E-03    -166.491E-03     329.360E-03    -162.574E-03     70.9963E-03
            2139     11.4758E-03     22.5484E-03    -29.0102E+06     62.8738E+06     65.8026E+06    -276.167E+03    -165.891E-03     328.590E-03    -162.699E-03     83.1475E-03    -167.171E-03     329.799E-03    -162.419E-03     76.4964E-03
            2140     10.7129E-03     22.4410E-03    -35.3070E+06     19.7798E+06     55.1148E+06    -659.414E+03    -166.469E-03     328.983E-03    -162.513E-03     85.9663E-03    -167.690E-03     329.989E-03    -162.215E-03     79.4822E-03
            2141     9.95013E-03     22.3301E-03    -42.1628E+06    -12.4975E+06     44.5428E+06    -751.606E+03    -166.785E-03     329.046E-03    -162.261E-03     86.7963E-03    -167.946E-03     329.883E-03    -161.959E-03     80.5185E-03
            2142     9.18752E-03     22.2180E-03    -48.7702E+06    -39.1781E+06      34.995E+06    -295.855E+03    -166.809E-03     328.764E-03    -161.955E-03     86.0081E-03    -167.899E-03     329.440E-03    -161.652E-03     79.9883E-03
            2143     8.42478E-03     22.1067E-03    -55.7623E+06    -63.2927E+06     25.1796E+06    -147.769E+03    -166.540E-03     328.141E-03    -161.600E-03     83.9145E-03    -167.550E-03     328.655E-03    -161.302E-03     78.1928E-03
            2144     7.66181E-03     21.9977E-03    -63.2559E+06    -84.6092E+06     14.9307E+06    -145.451E+03    -165.991E-03     327.197E-03    -161.206E-03     80.5661E-03    -166.913E-03     327.551E-03    -160.917E-03     75.1952E-03
            2145     6.89841E-03     21.8931E-03    -71.2402E+06    -105.688E+06     3.72960E+06    -129.476E+03    -165.203E-03     325.988E-03    -160.785E-03     76.0114E-03    -166.026E-03     326.172E-03    -160.510E-03     71.0505E-03
            2146     6.13445E-03     21.7945E-03    -79.7684E+06    -126.308E+06    -8.66698E+06    -23.7422E+03    -164.226E-03     324.576E-03    -160.350E-03     70.3637E-03    -164.945E-03     324.588E-03    -160.094E-03     65.8703E-03
            2147     5.36982E-03     21.7035E-03    -88.8441E+06    -147.428E+06    -22.7521E+06     86.3812E+03    -163.132E-03     323.046E-03    -159.915E-03     63.7397E-03    -163.742E-03     322.884E-03    -159.686E-03     59.7622E-03
            2148     4.60446E-03     21.6216E-03    -98.4206E+06    -169.520E+06    -38.9047E+06     149.111E+03    -161.994E-03     321.488E-03    -159.494E-03     56.2674E-03    -162.498E-03     321.154E-03    -159.300E-03     52.8413E-03
            2149     3.83837E-03     21.5499E-03    -108.345E+06    -192.595E+06    -57.4750E+06     168.332E+03    -160.895E-03     319.995E-03    -159.100E-03     48.0757E-03    -161.297E-03     319.496E-03    -158.951E-03     45.2219E-03
            2150     3.07162E-03     21.4896E-03    -118.329E+06    -216.724E+06    -78.4578E+06     186.908E+03    -159.909E-03     318.654E-03    -158.745E-03     39.2896E-03    -160.218E-03     318.001E-03    -158.651E-03     37.0151E-03
            2151     2.30426E-03     21.4416E-03    -127.774E+06    -240.838E+06    -100.797E+06     182.596E+03    -159.096E-03     317.537E-03    -158.440E-03     30.0348E-03    -159.324E-03     316.748E-03    -158.410E-03     28.3347E-03
            2152     1.53645E-03     21.4065E-03    -135.767E+06    -262.639E+06    -121.765E+06     136.054E+03    -158.497E-03     316.698E-03    -158.200E-03     20.4790E-03    -158.658E-03     315.797E-03    -158.231E-03     19.3395E-03
            2153     768.308E-06     21.3848E-03    -141.214E+06    -278.864E+06    -137.379E+06     75.6962E+03    -158.150E-03     316.168E-03    -158.018E-03     11.1886E-03    -158.265E-03     315.190E-03    -158.096E-03     10.5711E-03
            2154     14.5312E-03     21.5603E-03    -5.56628E+06     110.203E+06     102.405E+06    -29.3806E+03    -163.762E-03     326.893E-03    -163.131E-03     36.4445E-03    -164.669E-03     327.874E-03    -162.770E-03     30.2647E-03
            2155     13.7677E-03     21.4996E-03    -11.3658E+06     103.421E+06     92.2334E+06    -90.2096E+03    -164.511E-03     327.512E-03    -163.001E-03     57.5079E-03    -165.672E-03     328.733E-03    -162.674E-03     50.4951E-03
            2156     13.0045E-03     21.4246E-03    -16.7635E+06     95.7068E+06     80.7218E+06     15.2471E+03    -165.384E-03     328.209E-03    -162.825E-03     68.0147E-03    -166.591E-03     329.463E-03    -162.536E-03     61.1706E-03
            2157     12.2417E-03     21.3335E-03    -22.6202E+06     90.3096E+06     74.4859E+06    -250.686E+03    -166.171E-03     328.798E-03    -162.627E-03     76.9024E-03    -167.450E-03     330.101E-03    -162.353E-03     70.0930E-03
            2158     11.4792E-03     21.2324E-03    -29.3828E+06     62.8959E+06     65.1000E+06    -730.031E+03    -166.886E-03     329.277E-03    -162.391E-03     81.7303E-03    -168.151E-03     330.473E-03    -162.114E-03     75.0700E-03
            2159     10.7170E-03     21.1252E-03    -35.7075E+06     20.3378E+06     54.6495E+06    -607.505E+03    -167.457E-03     329.564E-03    -162.108E-03     83.9395E-03    -168.656E-03     330.551E-03    -161.812E-03     77.4774E-03
            2160     9.95510E-03     21.0146E-03    -41.9436E+06    -12.6447E+06     44.3027E+06    -602.665E+03    -167.706E-03     329.450E-03    -161.744E-03     84.1139E-03    -168.832E-03     330.254E-03    -161.443E-03     77.8884E-03
            2161     9.19318E-03     20.9033E-03    -48.6935E+06    -39.5782E+06     34.6876E+06    -600.177E+03    -167.598E-03     328.910E-03    -161.313E-03     82.6932E-03    -168.645E-03     329.544E-03    -161.011E-03     76.7493E-03
            2162     8.43113E-03     20.7931E-03    -55.5743E+06    -63.3134E+06     25.0777E+06    -379.006E+03    -167.130E-03     327.953E-03    -160.823E-03     80.0499E-03    -168.093E-03     328.421E-03    -160.525E-03     74.4340E-03
            2163     7.66864E-03     20.6857E-03    -62.8618E+06    -84.5239E+06     14.9841E+06    -259.673E+03    -166.320E-03     326.607E-03    -160.287E-03     76.2887E-03    -167.192E-03     326.912E-03    -159.998E-03     71.0511E-03
            2164     6.90552E-03     20.5828E-03    -70.7347E+06    -105.646E+06     3.85962E+06    -159.621E+03    -165.234E-03     324.957E-03    -159.723E-03     71.4841E-03    -166.006E-03     325.092E-03    -159.448E-03     66.6773E-03
            2165     6.14161E-03     20.4862E-03    -79.1618E+06    -126.320E+06    -8.45674E+06    -64.0246E+03    -163.946E-03     323.095E-03    -159.149E-03     65.7568E-03    -164.617E-03     323.061E-03    -158.893E-03     61.4292E-03
            2166     5.37678E-03     20.3972E-03    -88.1314E+06    -147.327E+06    -22.4271E+06     29.7739E+03    -162.541E-03     321.121E-03    -158.581E-03     59.2255E-03    -163.108E-03     320.918E-03    -158.351E-03     55.4174E-03
            2167     4.61100E-03     20.3173E-03    -97.6280E+06    -169.347E+06    -38.4679E+06     95.5885E+03    -161.106E-03     319.143E-03    -158.037E-03     52.0246E-03    -161.574E-03     318.775E-03    -157.842E-03     48.7625E-03
            2168     3.84424E-03     20.2476E-03    -107.569E+06    -192.377E+06    -56.9478E+06     157.836E+03    -159.735E-03     317.268E-03    -157.534E-03     44.2696E-03    -160.110E-03     316.744E-03    -157.384E-03     41.5665E-03
            2169     3.07659E-03     20.1890E-03    -117.551E+06    -216.480E+06    -77.8401E+06     195.264E+03    -158.513E-03     315.598E-03    -157.086E-03     36.0633E-03    -158.803E-03     314.928E-03    -156.990E-03     33.9185E-03
            2170     2.30816E-03     20.1424E-03    -126.959E+06    -240.524E+06    -100.085E+06     199.425E+03    -157.510E-03     314.217E-03    -156.707E-03     27.5036E-03    -157.725E-03     313.417E-03    -156.674E-03     25.9062E-03
            2171     1.53913E-03     20.1084E-03    -134.962E+06    -262.298E+06    -121.013E+06     161.867E+03    -156.774E-03     313.187E-03    -156.413E-03     18.7225E-03    -156.927E-03     312.281E-03    -156.442E-03     17.6546E-03
            2172     769.679E-06     20.0874E-03    -140.440E+06    -278.551E+06    -136.621E+06     88.3570E+03    -156.304E-03     312.543E-03    -156.239E-03     10.2210E-03    -156.416E-03     311.563E-03    -156.314E-03     9.64306E-03
            2173     14.5319E-03     20.2441E-03    -5.49479E+06     110.244E+06     102.409E+06     68.0079E+03    -164.789E-03     327.871E-03    -163.081E-03     36.6583E-03    -165.701E-03     328.857E-03    -162.721E-03     30.4237E-03
            2174     13.7692E-03     20.1830E-03    -11.2135E+06     103.813E+06     92.2837E+06    -58.7584E+03    -165.639E-03     328.528E-03    -162.889E-03     57.4601E-03    -166.805E-03     329.755E-03    -162.561E-03     50.3858E-03
            2175     13.0069E-03     20.1077E-03    -17.1221E+06     95.6299E+06     80.3680E+06    -370.736E+03    -166.711E-03     329.343E-03    -162.632E-03     67.4872E-03    -167.919E-03     330.597E-03    -162.344E-03     60.5817E-03
            2176     12.2452E-03     20.0164E-03    -22.9133E+06     90.4383E+06     74.3824E+06    -197.461E+03    -167.660E-03     329.992E-03    -162.332E-03     75.6401E-03    -168.932E-03     331.288E-03    -162.058E-03     68.7897E-03
            2177     11.4839E-03     19.9154E-03    -28.8577E+06     63.7512E+06     65.2767E+06    -161.263E+03    -168.431E-03     330.400E-03    -161.969E-03     79.6188E-03    -169.675E-03     331.579E-03    -161.693E-03     72.9527E-03
            2178     10.7229E-03     19.8084E-03    -35.3485E+06     20.7818E+06     54.5639E+06    -770.632E+03    -168.954E-03     330.493E-03    -161.539E-03     80.8972E-03    -170.119E-03     331.447E-03    -161.245E-03     74.4594E-03
            2179     9.96215E-03     19.6986E-03    -41.7224E+06    -12.5929E+06     44.2413E+06    -894.904E+03    -169.064E-03     330.073E-03    -161.010E-03     80.1299E-03    -170.142E-03     330.831E-03    -160.710E-03     73.9711E-03
            2180     9.20137E-03     19.5885E-03    -48.0876E+06    -39.6592E+06     34.6780E+06    -725.071E+03    -168.723E-03     329.121E-03    -160.397E-03     77.8501E-03    -169.712E-03     329.697E-03    -160.097E-03     72.0209E-03
            2181     8.44020E-03     19.4799E-03    -54.9882E+06    -63.4426E+06     25.0692E+06    -644.256E+03    -167.939E-03     327.654E-03    -159.715E-03     74.4756E-03    -168.835E-03     328.058E-03    -159.418E-03     69.0156E-03
            2182     7.67839E-03     19.3746E-03    -62.2828E+06    -84.6025E+06     15.0681E+06    -444.775E+03    -166.745E-03     325.727E-03    -158.983E-03     70.1874E-03    -167.547E-03     325.965E-03    -158.694E-03     65.1423E-03
            2183     6.91564E-03     19.2742E-03    -70.0297E+06    -105.606E+06     4.09537E+06    -255.049E+03    -165.236E-03     323.459E-03    -158.222E-03     65.1006E-03    -165.941E-03     323.529E-03    -157.947E-03     60.5124E-03
            2184     6.15178E-03     19.1802E-03    -78.3478E+06    -126.245E+06    -8.12842E+06    -108.713E+03    -163.511E-03     320.967E-03    -157.456E-03     59.3288E-03    -164.118E-03     320.872E-03    -157.200E-03     55.2340E-03
            2185     5.38667E-03     19.0939E-03    -87.2689E+06    -147.167E+06    -22.0097E+06     12.3287E+03    -161.670E-03     318.377E-03    -156.708E-03     52.9993E-03    -162.183E-03     318.122E-03    -156.478E-03     49.4254E-03
            2186     4.62023E-03     19.0167E-03    -96.7681E+06    -169.140E+06    -37.9713E+06     130.612E+03    -159.826E-03     315.825E-03    -155.999E-03     46.2388E-03    -160.249E-03     315.414E-03    -155.803E-03     43.2003E-03
            2187     3.85250E-03     18.9495E-03    -106.681E+06    -192.119E+06    -56.3427E+06     229.042E+03    -158.088E-03     313.438E-03    -155.350E-03     39.1326E-03    -158.429E-03     312.882E-03    -155.199E-03     36.6313E-03
            2188     3.08359E-03     18.8931E-03    -116.636E+06    -216.125E+06    -77.1256E+06     281.618E+03    -156.552E-03     311.331E-03    -154.779E-03     31.7477E-03    -156.819E-03     310.640E-03    -154.682E-03     29.7741E-03
            2189     2.31364E-03     18.8483E-03    -126.058E+06    -240.131E+06    -99.2879E+06     277.102E+03    -155.298E-03     309.602E-03    -154.304E-03     24.1442E-03    -155.498E-03     308.789E-03    -154.269E-03     22.6808E-03
            2190     1.54289E-03     18.8156E-03    -134.076E+06    -261.864E+06    -120.177E+06     232.628E+03    -154.382E-03     308.323E-03    -153.941E-03     16.4082E-03    -154.528E-03     307.411E-03    -153.968E-03     15.4333E-03
            2191     771.582E-06     18.7954E-03    -139.564E+06    -278.123E+06    -135.789E+06     140.765E+03    -153.771E-03     307.534E-03    -153.763E-03     8.94227E-03    -153.878E-03     306.551E-03    -153.836E-03     8.41591E-03
            2192     14.5327E-03     18.9265E-03    -5.53814E+06     110.333E+06     102.415E+06     54.7164E+03    -166.079E-03     329.101E-03    -163.021E-03     36.7515E-03    -166.995E-03     330.092E-03    -162.661E-03     30.4508E-03
            2193     13.7709E-03     18.8649E-03    -11.2756E+06     104.207E+06     92.5023E+06    -37.7028E+03    -167.204E-03     329.950E-03    -162.746E-03     57.2597E-03    -168.376E-03     331.184E-03    -162.418E-03     50.1041E-03
            2194     13.0100E-03     18.7890E-03    -16.9148E+06     96.1370E+06     80.6219E+06    -262.084E+03    -168.625E-03     331.002E-03    -162.377E-03     66.5535E-03    -169.830E-03     332.255E-03    -162.089E-03     59.5763E-03
            2195     12.2499E-03     18.6974E-03    -22.7125E+06     90.0045E+06     74.4417E+06    -574.172E+03    -169.842E-03     331.770E-03    -161.929E-03     73.6202E-03    -171.095E-03     333.047E-03    -161.654E-03     66.7149E-03
            2196     11.4903E-03     18.5965E-03    -28.8263E+06     64.2958E+06     65.5627E+06    -593.054E+03    -170.699E-03     332.083E-03    -161.384E-03     76.4211E-03    -171.911E-03     333.231E-03    -161.108E-03     69.7401E-03
            2197     10.7312E-03     18.4902E-03    -34.9785E+06     21.9826E+06     54.8648E+06    -669.972E+03    -171.111E-03     331.851E-03    -160.740E-03     76.5088E-03    -172.227E-03     332.762E-03    -160.447E-03     70.1179E-03
            2198     9.97228E-03     18.3816E-03    -41.1178E+06    -12.5599E+06     44.2027E+06    -940.925E+03    -170.954E-03     330.932E-03    -159.978E-03     74.6418E-03    -171.967E-03     331.627E-03    -159.679E-03     68.5846E-03
            2199     9.21301E-03     18.2734E-03    -47.5107E+06    -39.5507E+06     34.6788E+06    -909.452E+03    -170.237E-03     329.353E-03    -159.117E-03     71.4335E-03    -171.151E-03     329.858E-03    -158.817E-03     65.7572E-03
            2200     8.45315E-03     18.1672E-03    -54.2943E+06    -63.4636E+06     25.1431E+06    -757.032E+03    -168.989E-03     327.165E-03    -158.176E-03     67.3081E-03    -169.806E-03     327.491E-03    -157.880E-03     62.0488E-03
            2201     7.69224E-03     18.0650E-03    -61.5177E+06    -84.6827E+06     15.1745E+06    -595.769E+03    -167.263E-03     324.444E-03    -157.181E-03     62.5325E-03    -167.985E-03     324.603E-03    -156.893E-03     57.7237E-03
            2202     6.92997E-03     17.9679E-03    -69.2382E+06    -105.614E+06     4.25866E+06    -363.916E+03    -165.178E-03     321.340E-03    -156.161E-03     57.2546E-03    -165.807E-03     321.336E-03    -155.887E-03     52.9265E-03
            2203     6.16611E-03     17.8775E-03    -77.5095E+06    -126.131E+06    -7.84865E+06    -136.830E+03    -162.859E-03     318.005E-03    -155.146E-03     51.5668E-03    -163.398E-03     317.845E-03    -154.890E-03     47.7433E-03
            2204     5.40050E-03     17.7949E-03    -86.3841E+06    -146.994E+06    -21.6291E+06     71.6178E+03    -160.440E-03     314.605E-03    -154.165E-03     45.5934E-03    -160.895E-03     314.294E-03    -153.935E-03     42.2887E-03
            2205     4.63309E-03     17.7212E-03    -95.8187E+06    -168.862E+06    -37.4677E+06     247.830E+03    -158.061E-03     311.307E-03    -153.247E-03     39.4319E-03    -158.438E-03     310.853E-03    -153.050E-03     36.6475E-03
            2206     3.86395E-03     17.6572E-03    -105.659E+06    -191.750E+06    -55.6971E+06     371.513E+03    -155.846E-03     308.260E-03    -152.414E-03     33.1370E-03    -156.153E-03     307.672E-03    -152.261E-03     30.8639E-03
            2207     3.09323E-03     17.6036E-03    -115.574E+06    -215.630E+06    -76.3439E+06     436.523E+03    -153.909E-03     305.599E-03    -151.689E-03     26.7385E-03    -154.151E-03     304.885E-03    -151.591E-03     24.9582E-03
            2208     2.32116E-03     17.5611E-03    -124.982E+06    -239.576E+06    -98.3983E+06     431.719E+03    -152.340E-03     303.431E-03    -151.091E-03     20.2545E-03    -152.525E-03     302.606E-03    -151.055E-03     18.9428E-03
            2209     1.54803E-03     17.5302E-03    -132.984E+06    -261.276E+06    -119.166E+06     360.839E+03    -151.196E-03     301.835E-03    -150.639E-03     13.7267E-03    -151.333E-03     300.916E-03    -150.663E-03     12.8572E-03
            2210     774.205E-06     17.5110E-03    -138.487E+06    -277.459E+06    -134.705E+06     234.498E+03    -150.432E-03     300.845E-03    -150.413E-03     7.45453E-03    -150.535E-03     299.861E-03    -150.483E-03     6.98696E-03
            2211     14.5337E-03     17.6072E-03    -5.42323E+06     110.487E+06     102.416E+06    -7.60773E+03    -167.847E-03     330.784E-03    -162.937E-03     36.7216E-03    -168.766E-03     331.779E-03    -162.578E-03     30.3359E-03
            2212     13.7735E-03     17.5447E-03    -10.9798E+06     104.498E+06     92.8976E+06    -152.256E+03    -169.403E-03     331.951E-03    -162.548E-03     56.8244E-03    -170.577E-03     333.188E-03    -162.219E-03     49.5622E-03
            2213     13.0144E-03     17.4677E-03    -16.6216E+06     96.5230E+06     81.0474E+06    -358.252E+03    -171.276E-03     333.298E-03    -162.022E-03     65.1572E-03    -172.473E-03     334.544E-03    -161.733E-03     58.0878E-03
            2214     12.2565E-03     17.3756E-03    -22.3754E+06     90.4790E+06     74.6743E+06    -642.873E+03    -172.787E-03     334.158E-03    -161.371E-03     70.8722E-03    -174.014E-03     335.411E-03    -161.097E-03     63.9124E-03
            2215     11.4995E-03     17.2751E-03    -28.4032E+06     64.6650E+06     65.6925E+06    -984.793E+03    -173.682E-03     334.265E-03    -160.583E-03     72.3142E-03    -174.850E-03     335.372E-03    -160.307E-03     65.6266E-03
            2216     10.7428E-03     17.1700E-03    -34.5072E+06     22.6437E+06     54.9586E+06    -1.08382E+06    -173.882E-03     333.545E-03    -159.663E-03     71.1662E-03    -174.940E-03     334.402E-03    -159.371E-03     64.8251E-03
            2217     9.98610E-03     17.0635E-03    -40.7237E+06    -12.0083E+06     44.1685E+06    -1.08518E+06    -173.324E-03     331.926E-03    -158.602E-03     68.2548E-03    -174.270E-03     332.558E-03    -158.305E-03     62.3050E-03
            2218     9.22877E-03     16.9580E-03      -47.19E+06    -39.4485E+06     34.5068E+06    -1.09215E+06    -172.074E-03     329.503E-03    -157.429E-03     64.2105E-03    -172.916E-03     329.938E-03    -157.131E-03     58.6890E-03
            2219     8.47034E-03     16.8554E-03    -53.8896E+06    -63.4950E+06     24.9989E+06    -885.659E+03    -170.216E-03     326.386E-03    -156.170E-03     59.4460E-03    -170.957E-03     326.639E-03    -155.875E-03     54.3830E-03
            2220     7.71040E-03     16.7574E-03    -60.9032E+06    -84.6600E+06     15.1294E+06    -602.386E+03    -167.829E-03     322.684E-03    -154.854E-03     54.2647E-03    -168.477E-03     322.772E-03    -154.567E-03     49.6857E-03
            2221     6.94854E-03     16.6649E-03    -68.4488E+06    -105.518E+06     4.31560E+06    -375.917E+03    -165.033E-03     318.553E-03    -153.520E-03     48.8423E-03    -165.593E-03     318.483E-03    -153.246E-03     44.7660E-03
            2222     6.18450E-03     16.5793E-03    -76.6684E+06    -126.063E+06    -7.69325E+06    -125.610E+03    -161.982E-03     314.186E-03    -152.204E-03     43.2811E-03    -162.459E-03     313.966E-03    -151.949E-03     39.7200E-03
            2223     5.41812E-03     16.5015E-03    -85.4626E+06    -146.805E+06    -21.3373E+06     164.791E+03    -158.853E-03     309.797E-03    -150.944E-03     37.7095E-03    -159.256E-03     309.437E-03    -150.714E-03     34.6658E-03
            2224     4.64938E-03     16.4324E-03    -94.8058E+06    -168.517E+06    -37.0480E+06     409.474E+03    -155.815E-03     305.589E-03    -149.774E-03     32.2058E-03    -156.150E-03     305.096E-03    -149.577E-03     29.6690E-03
            2225     3.87839E-03     16.3725E-03    -104.490E+06    -191.243E+06    -55.0778E+06     581.217E+03    -153.018E-03     301.740E-03    -148.722E-03     26.7945E-03    -153.292E-03     301.124E-03    -148.569E-03     24.7441E-03
            2226     3.10537E-03     16.3226E-03    -114.299E+06    -214.976E+06    -75.5168E+06     661.382E+03    -150.594E-03     298.409E-03    -147.815E-03     21.4617E-03    -150.814E-03     297.677E-03    -147.715E-03     19.8699E-03
            2227     2.33061E-03     16.2830E-03    -123.662E+06    -238.829E+06    -97.3636E+06     656.118E+03    -148.643E-03     295.714E-03    -147.071E-03     16.1769E-03    -148.813E-03     294.878E-03    -147.033E-03     15.0127E-03
            2228     1.55453E-03     16.2542E-03    -131.618E+06    -260.422E+06    -117.940E+06     554.180E+03    -147.219E-03     293.729E-03    -146.511E-03     10.9301E-03    -147.346E-03     292.806E-03    -146.532E-03     10.1627E-03
            2229     777.511E-06     16.2363E-03    -137.068E+06    -276.486E+06    -133.334E+06     334.945E+03    -146.294E-03     292.490E-03    -146.196E-03     5.91745E-03    -146.391E-03     291.504E-03    -146.263E-03     5.50600E-03
            2230     14.5354E-03     16.2854E-03    -5.48368E+06     110.753E+06     102.519E+06    -186.817E+03    -170.297E-03     333.113E-03    -162.816E-03     36.7949E-03    -171.224E-03     334.116E-03    -162.456E-03     30.2860E-03
            2231     13.7771E-03     16.2214E-03    -11.1063E+06     104.699E+06     93.1089E+06    -323.323E+03    -172.358E-03     334.628E-03    -162.270E-03     56.4155E-03    -173.540E-03     335.872E-03    -161.940E-03     49.0043E-03
            2232     13.0206E-03     16.1429E-03    -16.6719E+06     96.8425E+06     81.2032E+06    -496.863E+03    -174.657E-03     336.197E-03    -161.539E-03     63.6389E-03    -175.849E-03     337.437E-03    -161.250E-03     56.4433E-03
            2233     12.2655E-03     16.0503E-03     -22.303E+06     91.1240E+06     74.7767E+06    -880.329E+03    -176.359E-03     336.995E-03    -160.636E-03     67.8828E-03    -177.563E-03     338.227E-03    -160.362E-03     60.8413E-03
            2234     11.5114E-03     15.9505E-03    -28.0983E+06     65.5185E+06     65.7914E+06    -1.19356E+06    -177.172E-03     336.727E-03    -159.555E-03     67.9462E-03    -178.301E-03     337.798E-03    -159.280E-03     61.2337E-03
            2235     10.7575E-03     15.8474E-03    -34.0659E+06     23.3102E+06     54.9651E+06    -1.38462E+06    -177.057E-03     335.368E-03    -158.312E-03     65.6262E-03    -178.064E-03     336.179E-03    -158.021E-03     59.3113E-03
            2236     10.0033E-03     15.7440E-03    -40.3671E+06    -11.6127E+06     44.0506E+06    -1.44193E+06    -176.016E-03     332.922E-03    -156.906E-03     61.7594E-03    -176.905E-03     333.500E-03    -156.611E-03     55.8803E-03
            2237     9.24801E-03     15.6425E-03    -46.8520E+06    -39.2494E+06     34.2415E+06    -1.28666E+06    -174.151E-03     329.524E-03    -155.374E-03     56.9057E-03    -174.932E-03     329.902E-03    -155.078E-03     51.4987E-03
            2238     8.49114E-03     15.5448E-03    -53.4595E+06    -63.5420E+06     24.6270E+06    -1.09212E+06    -171.580E-03     325.328E-03    -153.749E-03     51.5002E-03    -172.260E-03     325.523E-03    -153.456E-03     46.5898E-03
            2239     7.73218E-03     15.4522E-03    -60.4946E+06    -84.7012E+06     14.7604E+06    -830.805E+03    -168.429E-03     320.496E-03    -152.068E-03     45.8816E-03    -169.017E-03     320.527E-03    -151.783E-03     41.4871E-03
            2240     6.97073E-03     15.3658E-03    -67.9856E+06    -105.478E+06     4.04501E+06    -462.798E+03    -164.828E-03     315.202E-03    -150.374E-03     40.2586E-03    -165.330E-03     315.078E-03    -150.103E-03     36.3919E-03
            2241     6.20644E-03     15.2865E-03    -75.9767E+06    -125.998E+06    -7.81660E+06    -78.5420E+03    -160.946E-03     309.661E-03    -148.715E-03     34.7946E-03    -161.372E-03     309.393E-03    -148.461E-03     31.4574E-03
            2242     5.43913E-03     15.2149E-03    -84.5739E+06    -146.604E+06    -21.3096E+06     273.982E+03    -156.996E-03     304.131E-03    -147.134E-03     29.6046E-03    -157.355E-03     303.731E-03    -146.906E-03     26.7857E-03
            2243     4.66878E-03     15.1516E-03    -93.6864E+06    -168.082E+06    -36.8136E+06     563.477E+03    -153.186E-03     298.861E-03    -145.675E-03     24.7577E-03    -153.485E-03     298.338E-03    -145.480E-03     22.4346E-03
            2244     3.89556E-03     15.0970E-03    -103.255E+06    -190.661E+06    -54.6065E+06     785.823E+03    -149.703E-03     294.076E-03    -144.373E-03     20.2479E-03    -149.950E-03     293.437E-03    -144.220E-03     18.3899E-03
            2245     3.11975E-03     15.0516E-03    -112.964E+06    -214.163E+06    -74.7182E+06     941.128E+03    -146.701E-03     289.959E-03    -143.258E-03     16.0205E-03    -146.901E-03     289.213E-03    -143.157E-03     14.5923E-03
            2246     2.34180E-03     15.0156E-03    -122.209E+06    -237.825E+06    -96.2411E+06     945.687E+03    -144.293E-03     286.646E-03    -142.352E-03     11.9892E-03    -144.451E-03     285.802E-03    -142.311E-03     10.9534E-03
            2247     1.56216E-03     14.9895E-03    -130.081E+06    -259.232E+06    -116.561E+06     776.153E+03    -142.546E-03     284.221E-03    -141.675E-03     8.07532E-03    -142.666E-03     283.295E-03    -141.694E-03     7.39689E-03
            2248     781.392E-06     14.9733E-03    -135.488E+06    -275.161E+06    -131.788E+06     477.573E+03    -141.453E-03     282.718E-03    -141.265E-03     4.36426E-03    -141.546E-03     281.733E-03    -141.329E-03     4.00207E-03
            2249     14.5377E-03     14.9601E-03    -5.49561E+06     111.062E+06     102.648E+06    -227.635E+03    -173.512E-03     336.164E-03    -162.652E-03     37.2217E-03    -174.453E-03     337.181E-03    -162.292E-03     30.5389E-03
            2250     13.7821E-03     14.8942E-03    -11.0816E+06     104.980E+06     93.2688E+06    -475.037E+03    -176.049E-03     337.955E-03    -161.906E-03     56.3198E-03    -177.245E-03     339.214E-03    -161.575E-03     48.7013E-03
            2251     13.0285E-03     14.8139E-03    -16.5407E+06     97.2962E+06     81.2947E+06    -837.575E+03    -178.624E-03     339.551E-03    -160.927E-03     62.3316E-03    -179.817E-03     340.796E-03    -160.638E-03     54.9573E-03
            2252     12.2766E-03     14.7210E-03    -22.0598E+06     91.7181E+06     74.7352E+06    -1.19140E+06    -180.326E-03     340.061E-03    -159.735E-03     65.0435E-03    -181.516E-03     341.281E-03    -159.462E-03     57.8735E-03
            2253     11.5256E-03     14.6225E-03    -27.9408E+06     66.4479E+06     65.7343E+06    -1.46840E+06    -180.919E-03     339.249E-03    -158.331E-03     63.7111E-03    -182.022E-03     340.299E-03    -158.058E-03     56.9261E-03
            2254     10.7746E-03     14.5222E-03    -34.0576E+06     24.1396E+06     54.7618E+06    -1.55122E+06    -180.429E-03     337.167E-03    -156.737E-03     60.2136E-03    -181.403E-03     337.947E-03    -156.449E-03     53.8765E-03
            2255     10.0230E-03     14.4230E-03    -40.1726E+06    -11.2095E+06     43.7515E+06    -1.51637E+06    -178.876E-03     333.835E-03    -154.960E-03     55.3644E-03    -179.725E-03     334.376E-03    -154.667E-03     49.5053E-03
            2256     9.26990E-03     14.3268E-03    -46.4237E+06    -38.9762E+06     33.9024E+06    -1.46812E+06    -176.363E-03     329.403E-03    -153.040E-03     49.6993E-03    -177.100E-03     329.739E-03    -152.746E-03     44.3483E-03
            2257     8.51470E-03     14.2355E-03    -53.0281E+06    -63.4064E+06     24.1616E+06    -1.32681E+06    -173.032E-03     324.052E-03    -151.020E-03     43.6891E-03    -173.666E-03     324.204E-03    -150.730E-03     38.8686E-03
            2258     7.75678E-03     14.1499E-03    -60.0709E+06    -84.7990E+06     14.1614E+06    -1.05859E+06    -169.035E-03     317.981E-03    -148.946E-03     37.6970E-03    -169.579E-03     317.970E-03    -148.665E-03     33.4214E-03
            2259     6.99568E-03     14.0711E-03    -67.5562E+06    -105.642E+06     3.37295E+06    -632.949E+03    -164.560E-03     311.429E-03    -146.869E-03     31.9485E-03    -165.021E-03     311.266E-03    -146.601E-03     28.2215E-03
            2260     6.23102E-03     13.9996E-03    -75.4423E+06    -126.001E+06    -8.42024E+06    -163.433E+03    -159.803E-03     304.644E-03    -144.841E-03     26.6381E-03    -160.192E-03     304.343E-03    -144.591E-03     23.4513E-03
            2261     5.46262E-03     13.9358E-03    -83.8398E+06    -146.439E+06    -21.7064E+06     258.314E+03    -154.988E-03     297.904E-03    -142.915E-03     21.8528E-03    -155.316E-03     297.477E-03    -142.690E-03     19.1853E-03
            2262     4.69047E-03     13.8798E-03    -92.8164E+06    -167.726E+06    -36.9601E+06     656.921E+03    -150.353E-03     291.494E-03    -141.141E-03     17.6328E-03    -150.627E-03     290.950E-03    -140.948E-03     15.4549E-03
            2263     3.91477E-03     13.8318E-03    -102.248E+06    -190.055E+06    -54.4208E+06     987.460E+03    -146.111E-03     285.672E-03    -139.561E-03     13.9529E-03    -146.339E-03     285.019E-03    -139.410E-03     12.2277E-03
            2264     3.13589E-03     13.7920E-03    -111.794E+06    -213.261E+06    -74.0930E+06     1.16365E+06    -142.446E-03     280.659E-03    -138.213E-03     10.7437E-03    -142.633E-03     279.905E-03    -138.112E-03     9.42982E-03
            2265     2.35432E-03     13.7605E-03    -120.828E+06    -236.587E+06    -95.1357E+06     1.16834E+06    -139.505E-03     276.629E-03    -137.124E-03     7.88683E-03    -139.653E-03     275.782E-03    -137.082E-03     6.94299E-03
            2266     1.57072E-03     13.7376E-03    -128.530E+06    -257.735E+06    -115.092E+06     973.583E+03    -137.378E-03     273.696E-03    -136.318E-03     5.25472E-03    -137.492E-03     272.770E-03    -136.333E-03     4.64205E-03
            2267     785.709E-06     13.7234E-03    -133.840E+06    -273.465E+06    -130.112E+06     603.207E+03    -136.097E-03     271.895E-03    -135.798E-03     2.81495E-03    -136.186E-03     270.913E-03    -135.858E-03     2.49014E-03
            2268     14.5405E-03     13.6302E-03    -5.38522E+06     111.451E+06     102.790E+06    -351.030E+03    -177.415E-03     339.865E-03    -162.450E-03     38.1143E-03    -178.378E-03     340.906E-03    -162.090E-03     31.1958E-03
            2269     13.7881E-03     13.5621E-03    -10.8624E+06     105.435E+06     93.4158E+06    -679.931E+03    -180.321E-03     341.789E-03    -161.468E-03     56.6547E-03    -181.544E-03     343.077E-03    -161.138E-03     48.7627E-03
            2270     13.0379E-03     13.4802E-03    -16.4171E+06     97.8916E+06     81.3192E+06    -1.04682E+06    -182.973E-03     343.185E-03    -160.212E-03     61.3322E-03    -184.181E-03     344.446E-03    -159.923E-03     53.7263E-03
            2271     12.2894E-03     13.3874E-03    -22.1157E+06     92.2818E+06     74.4683E+06    -1.46071E+06    -184.498E-03     343.205E-03    -158.707E-03     62.4807E-03    -185.688E-03     344.429E-03    -158.436E-03     55.1277E-03
            2272     11.5415E-03     13.2910E-03    -27.9525E+06     67.3109E+06     65.4517E+06    -1.66104E+06    -184.772E-03     341.737E-03    -156.964E-03     59.7286E-03    -185.866E-03     342.781E-03    -156.694E-03     52.8086E-03
            2273     10.7934E-03     13.1945E-03    -33.8624E+06     24.9479E+06     54.4908E+06    -1.70309E+06    -183.849E-03     338.858E-03    -155.009E-03     55.0316E-03    -184.805E-03     339.626E-03    -154.724E-03     48.6016E-03
            2274     10.0444E-03     13.1006E-03    -39.9285E+06    -10.7197E+06     43.3355E+06    -1.71834E+06    -181.722E-03     334.573E-03    -152.851E-03     49.2220E-03    -182.549E-03     335.096E-03    -152.561E-03     43.3062E-03
            2275     9.29346E-03     13.0111E-03    -46.1965E+06    -38.6604E+06     33.2952E+06    -1.59659E+06    -178.491E-03     329.031E-03    -150.540E-03     42.8651E-03    -179.203E-03     329.347E-03    -150.251E-03     37.4920E-03
            2276     8.53981E-03     12.9276E-03    -52.7641E+06    -63.2683E+06     23.4089E+06    -1.34809E+06    -174.338E-03     322.467E-03    -148.129E-03     36.4579E-03    -174.947E-03     322.598E-03    -147.844E-03     31.6465E-03
            2277     7.78279E-03     12.8508E-03    -59.7431E+06    -84.8362E+06     13.2686E+06    -1.00285E+06    -169.466E-03     315.138E-03    -145.672E-03     30.3519E-03    -169.984E-03     315.107E-03    -145.396E-03     26.1104E-03
            2278     7.02183E-03     12.7812E-03    -67.1623E+06    -105.739E+06     2.38388E+06    -619.793E+03    -164.108E-03     307.336E-03    -143.228E-03     24.7263E-03    -164.547E-03     307.155E-03    -142.965E-03     21.0487E-03
            2279     6.25662E-03     12.7191E-03    -75.0902E+06    -126.060E+06    -9.41913E+06    -209.113E+03    -158.504E-03     299.356E-03    -140.852E-03     19.7433E-03    -158.875E-03     299.041E-03    -140.607E-03     16.6130E-03
            2280     5.48697E-03     12.6646E-03    -83.5440E+06    -146.407E+06    -22.5435E+06     255.876E+03    -152.890E-03     291.489E-03    -138.599E-03     15.4598E-03    -153.203E-03     291.051E-03    -138.378E-03     12.8509E-03
            2281     4.71294E-03     12.6174E-03    -92.4655E+06    -167.512E+06    -37.4687E+06     709.650E+03    -147.496E-03     284.016E-03    -136.520E-03     11.8696E-03    -147.759E-03     283.465E-03    -136.330E-03     9.74765E-03
            2282     3.93472E-03     12.5773E-03    -101.711E+06    -189.479E+06    -54.4948E+06     1.04296E+06    -142.540E-03     277.202E-03    -134.662E-03     8.92161E-03    -142.760E-03     276.546E-03    -134.512E-03     7.24619E-03
            2283     3.15270E-03     12.5443E-03    -110.989E+06    -212.296E+06    -73.6244E+06     1.18623E+06    -138.224E-03     271.291E-03    -133.068E-03     6.52140E-03    -138.404E-03     270.536E-03    -132.967E-03     5.24891E-03
            2284     2.36748E-03     12.5183E-03    -119.795E+06    -235.291E+06    -94.1079E+06     1.13543E+06    -134.715E-03     266.486E-03    -131.772E-03     4.55970E-03    -134.858E-03     265.641E-03    -131.728E-03     3.64755E-03
            2285     1.57973E-03     12.4994E-03    -127.268E+06    -256.144E+06    -113.670E+06     915.451E+03    -132.137E-03     262.941E-03    -130.804E-03     2.91607E-03    -132.248E-03     262.018E-03    -130.816E-03     2.32516E-03
            2286     790.320E-06     12.4876E-03    -132.403E+06    -271.600E+06    -128.511E+06     556.277E+03    -130.600E-03     260.727E-03    -130.127E-03     1.50154E-03    -130.686E-03     259.749E-03    -130.184E-03     1.18879E-03
            2287     14.5437E-03     12.2950E-03    -5.46903E+06     112.096E+06     103.008E+06    -410.524E+03    -181.823E-03     344.048E-03    -162.225E-03     39.4642E-03    -182.820E-03     345.124E-03    -161.864E-03     32.2511E-03
            2288     13.7948E-03     12.2245E-03    -11.0905E+06     105.981E+06     93.5295E+06    -868.214E+03    -184.954E-03     345.936E-03    -160.982E-03     57.3565E-03    -186.219E-03     347.267E-03    -160.652E-03     49.1296E-03
            2289     13.0482E-03     12.1415E-03    -16.5518E+06     98.5177E+06     81.2137E+06    -1.29479E+06    -187.524E-03     346.954E-03    -159.430E-03     60.5851E-03    -188.761E-03     348.247E-03    -159.143E-03     52.6907E-03
            2290     12.3030E-03     12.0496E-03    -22.0092E+06     92.9083E+06     74.1149E+06    -1.71451E+06    -188.745E-03     346.348E-03    -157.603E-03     60.1600E-03    -189.952E-03     347.592E-03    -157.335E-03     52.5602E-03
            2291     11.5584E-03     11.9560E-03    -27.6677E+06     68.0726E+06     65.0664E+06    -1.97155E+06    -188.581E-03     344.099E-03    -155.518E-03     56.0297E-03    -189.683E-03     345.157E-03    -155.251E-03     48.8972E-03
            2292     10.8132E-03     11.8642E-03    -33.5084E+06     25.6092E+06     53.9998E+06    -1.88670E+06    -187.089E-03     340.296E-03    -153.207E-03     50.2371E-03    -188.048E-03     341.071E-03    -152.925E-03     43.6280E-03
            2293     10.0665E-03     11.7769E-03    -39.5514E+06    -10.3983E+06     42.6079E+06    -1.63179E+06    -184.231E-03     334.918E-03    -150.687E-03     43.6183E-03    -185.056E-03     335.445E-03    -150.402E-03     37.5591E-03
            2294     9.31741E-03     11.6956E-03    -45.9292E+06    -38.3698E+06     32.3743E+06    -1.37703E+06    -180.132E-03     328.155E-03    -148.023E-03     36.8699E-03    -180.842E-03     328.473E-03    -147.738E-03     31.3881E-03
            2295     8.56485E-03     11.6215E-03    -52.7063E+06    -63.2142E+06     22.2554E+06    -1.05536E+06    -175.071E-03     320.348E-03    -145.277E-03     30.4866E-03    -175.678E-03     320.480E-03    -144.997E-03     25.5969E-03
            2296     7.80817E-03     11.5550E-03    -59.8588E+06    -84.8113E+06     12.0002E+06    -697.526E+03    -169.320E-03     311.830E-03    -142.510E-03     24.7155E-03    -169.837E-03     311.801E-03    -142.240E-03     20.4178E-03
            2297     7.04691E-03     11.4963E-03    -67.4349E+06    -105.675E+06     1.10517E+06    -350.332E+03    -163.152E-03     302.937E-03    -139.785E-03     19.6756E-03    -163.592E-03     302.761E-03    -139.528E-03     15.9566E-03
            2298     6.28072E-03     11.4451E-03    -75.4271E+06    -126.051E+06    -10.5978E+06     2.51902E+03    -156.836E-03     293.992E-03    -137.156E-03     15.4136E-03    -157.209E-03     293.682E-03    -136.917E-03     12.2502E-03
            2299     5.50956E-03     11.4011E-03    -83.8261E+06    -146.328E+06    -23.4427E+06     331.850E+03    -150.609E-03     285.283E-03    -134.674E-03     11.9064E-03    -150.925E-03     284.852E-03    -134.458E-03     9.26707E-03
            2300     4.73350E-03     11.3640E-03    -92.6008E+06    -167.277E+06    -37.9073E+06     604.946E+03    -144.687E-03     277.073E-03    -132.386E-03     9.06871E-03    -144.954E-03     276.528E-03    -132.199E-03     6.91571E-03
            2301     3.95281E-03     11.3330E-03    -101.631E+06    -188.896E+06    -54.3342E+06     754.075E+03    -139.260E-03     269.591E-03    -130.332E-03     6.78331E-03    -139.483E-03     268.942E-03    -130.182E-03     5.07504E-03
            2302     3.16795E-03     11.3079E-03    -110.675E+06    -211.412E+06    -72.8787E+06     740.157E+03    -134.498E-03     263.050E-03    -128.552E-03     4.93210E-03    -134.682E-03     262.302E-03    -128.449E-03     3.62617E-03
            2303     2.37946E-03     11.2884E-03    -119.248E+06    -234.197E+06    -92.9260E+06     620.043E+03    -130.560E-03     257.644E-03    -127.083E-03     3.41910E-03    -130.706E-03     256.804E-03    -127.036E-03     2.47588E-03
            2304     1.58810E-03     11.2743E-03    -126.639E+06    -254.904E+06    -112.436E+06     425.930E+03    -127.585E-03     253.550E-03    -125.965E-03     2.16458E-03    -127.697E-03     252.632E-03    -125.974E-03     1.54876E-03
            2305     794.629E-06     11.2655E-03    -131.841E+06    -270.265E+06    -127.474E+06     201.768E+03    -125.782E-03     250.917E-03    -125.135E-03     1.10220E-03    -125.868E-03     249.944E-03    -125.189E-03     773.933E-06
            2306     14.5471E-03     10.9539E-03    -5.30222E+06     112.855E+06     103.293E+06    -410.067E+03    -186.501E-03     348.489E-03    -161.989E-03     41.1241E-03    -187.541E-03     349.611E-03    -161.628E-03     33.5674E-03
            2307     13.8019E-03     10.8810E-03    -10.8339E+06     106.804E+06     93.9489E+06    -941.977E+03    -189.733E-03     350.210E-03    -160.476E-03     58.2868E-03    -191.052E-03     351.596E-03    -160.146E-03     49.6764E-03
            2308     13.0588E-03     10.7976E-03    -16.4504E+06     99.0824E+06     81.1429E+06    -1.42321E+06    -192.115E-03     350.738E-03    -158.623E-03     59.9817E-03    -193.393E-03     352.074E-03    -158.337E-03     51.7439E-03
            2309     12.3171E-03     10.7073E-03    -22.0449E+06     93.9462E+06     73.3612E+06    -2.06890E+06    -192.904E-03     349.376E-03    -156.472E-03     58.0105E-03    -194.145E-03     350.661E-03    -156.209E-03     50.0924E-03
            2310     11.5755E-03     10.6176E-03    -27.5971E+06     68.5624E+06     63.8909E+06    -2.42037E+06    -192.093E-03     346.151E-03    -154.058E-03     52.5749E-03    -193.222E-03     347.242E-03    -153.798E-03     45.1490E-03
            2311     10.8328E-03     10.5319E-03    -33.3401E+06      25.305E+06     52.7222E+06    -1.81215E+06    -189.724E-03     341.150E-03    -151.427E-03     45.8968E-03    -190.705E-03     341.952E-03    -151.151E-03     39.0280E-03
            2312     10.0881E-03     10.4526E-03    -39.5938E+06    -10.3027E+06     41.4036E+06    -1.07838E+06    -185.830E-03     334.442E-03    -148.611E-03     38.9276E-03    -186.679E-03     334.995E-03    -148.332E-03     32.6513E-03
            2313     9.33990E-03     10.3812E-03    -46.2897E+06    -38.1689E+06     31.0666E+06    -626.672E+03    -180.667E-03     326.357E-03    -145.690E-03     32.4037E-03    -181.400E-03     326.703E-03    -145.412E-03     26.7459E-03
            2314     8.58750E-03     10.3181E-03    -53.3250E+06    -63.0254E+06     20.9686E+06    -255.789E+03    -174.608E-03     317.347E-03    -142.739E-03     26.7502E-03    -175.240E-03     317.507E-03    -142.465E-03     21.7182E-03
            2315     7.83025E-03     10.2634E-03    -60.7190E+06    -84.5437E+06     10.8209E+06    -39.0279E+03    -168.012E-03     307.834E-03    -139.821E-03     22.0305E-03    -168.556E-03     307.832E-03    -139.557E-03     17.6151E-03
            2316     7.06768E-03     10.2167E-03    -68.3755E+06    -105.361E+06     160.541E+03     58.2500E+03    -161.195E-03     298.193E-03    -136.997E-03     18.2025E-03    -161.662E-03     298.044E-03    -136.745E-03     14.3825E-03
            2317     6.29977E-03     10.1775E-03    -76.2899E+06    -125.791E+06    -11.1695E+06     92.3842E+03    -154.427E-03     288.743E-03    -134.316E-03     15.1675E-03    -154.825E-03     288.458E-03    -134.079E-03     11.9134E-03
            2318     5.52649E-03     10.1450E-03    -84.4953E+06    -145.999E+06    -23.5049E+06     68.2128E+03    -147.934E-03     279.752E-03    -131.819E-03     12.7599E-03    -148.273E-03     279.343E-03    -131.602E-03     10.0361E-03
            2319     4.74815E-03     10.1184E-03    -92.9648E+06    -166.915E+06    -37.3062E+06    -34.0575E+03    -141.891E-03     271.429E-03    -129.538E-03     10.7867E-03    -142.178E-03     270.903E-03    -129.348E-03     8.55365E-03
            2320     3.96514E-03     10.0971E-03    -101.694E+06    -188.403E+06    -53.0193E+06    -184.551E+03    -136.433E-03     263.937E-03    -127.505E-03     9.08168E-03    -136.672E-03     263.302E-03    -127.349E-03     7.29938E-03
            2321     3.17790E-03     10.0804E-03    -110.557E+06    -210.835E+06    -71.0112E+06    -416.078E+03    -131.682E-03     257.430E-03    -125.748E-03     7.48642E-03    -131.877E-03     256.691E-03    -125.638E-03     6.11506E-03
            2322     2.38704E-03     10.0679E-03    -119.143E+06    -233.793E+06    -91.0458E+06    -635.568E+03    -127.764E-03     252.065E-03    -124.301E-03     5.86807E-03    -127.918E-03     251.230E-03    -124.244E-03     4.87087E-03
            2323     1.59318E-03     10.0591E-03    -126.622E+06    -254.893E+06    -111.229E+06    -605.862E+03    -124.809E-03     248.005E-03    -123.196E-03     4.12992E-03    -124.925E-03     247.089E-03    -123.199E-03     3.47590E-03
            2324     797.206E-06     10.0539E-03    -132.065E+06    -270.397E+06    -127.141E+06    -301.058E+03    -123.023E-03     245.393E-03    -122.370E-03     2.30882E-03    -123.112E-03     244.421E-03    -122.422E-03     1.96132E-03
            2325     14.5505E-03     9.60657E-03    -5.23587E+06     113.613E+06     103.682E+06    -533.124E+03    -191.186E-03     352.939E-03    -161.753E-03     42.9150E-03    -192.278E-03     354.115E-03    -161.392E-03     34.9790E-03
            2326     13.8088E-03     9.53168E-03    -10.8432E+06     107.548E+06     94.3993E+06    -946.277E+03    -194.464E-03     354.437E-03    -159.973E-03     59.2683E-03    -195.847E-03     355.890E-03    -159.642E-03     50.2366E-03
            2327     13.0694E-03     9.44829E-03    -16.3336E+06     99.9802E+06     81.1961E+06    -1.53240E+06    -196.581E-03     354.405E-03    -157.824E-03     59.3279E-03    -197.914E-03     355.800E-03    -157.539E-03     50.6909E-03
            2328     12.3308E-03     9.36073E-03    -21.7160E+06     94.9753E+06     72.5746E+06    -2.24196E+06    -196.693E-03     352.059E-03    -155.366E-03     55.7278E-03    -197.983E-03     353.400E-03    -155.110E-03     47.4209E-03
            2329     11.5919E-03     9.27625E-03    -27.5938E+06     68.2533E+06     62.2876E+06    -2.04355E+06    -194.761E-03     347.428E-03    -152.667E-03     49.2102E-03    -195.934E-03     348.566E-03    -152.414E-03     41.4347E-03
            2330     10.8512E-03     9.19841E-03    -34.1064E+06     24.3722E+06     50.7880E+06    -997.193E+03    -190.991E-03     340.791E-03    -149.800E-03     42.2960E-03    -192.018E-03     341.638E-03    -149.532E-03     35.1329E-03
            2331     10.1070E-03     9.12910E-03    -40.7952E+06    -10.6297E+06     39.8924E+06    -28.3674E+03    -185.657E-03     332.481E-03    -146.824E-03     35.8748E-03    -186.553E-03     333.081E-03    -146.550E-03     29.3643E-03
            2332     9.35841E-03     9.06930E-03    -47.7154E+06    -37.9312E+06     30.0376E+06     551.714E+03    -179.222E-03     323.053E-03    -143.831E-03     30.6047E-03    -180.005E-03     323.447E-03    -143.557E-03     24.7674E-03
            2333     8.60462E-03     9.01886E-03    -54.9318E+06    -62.3412E+06      20.335E+06     625.177E+03    -172.185E-03     313.083E-03    -140.898E-03     26.6648E-03    -172.868E-03     313.293E-03    -140.627E-03     21.4936E-03
            2334     7.84512E-03     8.97701E-03    -62.1569E+06    -83.7891E+06     10.8214E+06     337.895E+03    -164.932E-03     303.020E-03    -138.088E-03     23.7762E-03    -165.526E-03     303.067E-03    -137.822E-03     19.2495E-03
            2335     7.07998E-03     8.94307E-03    -69.4741E+06    -104.568E+06     851.937E+03    -85.0358E+03    -157.795E-03     293.244E-03    -135.449E-03     21.7219E-03    -158.309E-03     293.140E-03    -135.192E-03     17.8109E-03
            2336     6.30917E-03     8.91604E-03    -76.9613E+06    -125.132E+06    -9.70934E+06    -620.040E+03    -151.034E-03     284.050E-03    -133.016E-03     20.2062E-03    -151.475E-03     283.803E-03    -132.772E-03     16.8745E-03
            2337     5.53316E-03     8.89485E-03    -84.6241E+06    -145.424E+06    -21.1087E+06    -1.22424E+06    -144.807E-03     275.622E-03    -130.815E-03     18.9323E-03    -145.182E-03     275.243E-03    -130.587E-03     16.1408E-03
            2338     4.75234E-03     8.87860E-03    -92.6001E+06    -166.560E+06    -34.0469E+06    -1.81614E+06    -139.231E-03     268.094E-03    -128.864E-03     17.6431E-03    -139.546E-03     267.589E-03    -128.658E-03     15.3519E-03
            2339     3.96720E-03     8.86643E-03    -100.904E+06    -188.336E+06    -49.2431E+06    -2.33857E+06    -134.392E-03     261.566E-03    -127.174E-03     16.0956E-03    -134.651E-03     260.942E-03    -127.001E-03     14.2642E-03
            2340     3.17837E-03     8.85756E-03    -109.475E+06    -211.318E+06    -67.4158E+06    -2.57766E+06    -130.360E-03     256.116E-03    -125.756E-03     14.0797E-03    -130.567E-03     255.380E-03    -125.628E-03     12.6700E-03
            2341     2.38645E-03     8.85143E-03    -118.112E+06    -234.997E+06    -88.3515E+06    -2.36872E+06    -127.194E-03     251.814E-03    -124.619E-03     11.4554E-03    -127.353E-03     250.975E-03    -124.549E-03     10.4320E-03
            2342     1.59225E-03     8.84741E-03    -126.087E+06    -257.013E+06    -109.866E+06    -1.64738E+06    -124.925E-03     248.698E-03    -123.772E-03     8.20512E-03    -125.041E-03     247.771E-03    -123.766E-03     7.53664E-03
            2343     796.515E-06     8.84521E-03    -132.076E+06    -272.192E+06    -126.917E+06    -617.625E+03    -123.608E-03     246.762E-03    -123.154E-03     4.63350E-03    -123.695E-03     245.781E-03    -123.202E-03     4.28208E-03
            2344     14.5537E-03     8.25317E-03    -5.39831E+06     114.431E+06     104.289E+06    -584.514E+03    -195.796E-03     357.320E-03    -161.525E-03     44.6888E-03    -196.945E-03     358.554E-03    -161.161E-03     36.3559E-03
            2345     13.8156E-03     8.17658E-03    -10.8413E+06     108.307E+06     94.8617E+06    -1.19033E+06    -199.059E-03     358.541E-03    -159.483E-03     59.9357E-03    -200.514E-03     360.068E-03    -159.150E-03     50.4417E-03
            2346     13.0794E-03     8.09382E-03    -16.0136E+06     100.877E+06     81.2087E+06    -1.89544E+06    -200.582E-03     357.637E-03    -157.055E-03     58.0867E-03    -201.980E-03     359.101E-03    -156.772E-03     48.9902E-03
            2347     12.3440E-03     8.01021E-03    -21.5977E+06     94.2914E+06     71.6659E+06    -1.61722E+06    -199.328E-03     353.673E-03    -154.344E-03     53.0675E-03    -200.677E-03     355.073E-03    -154.091E-03     44.3475E-03
            2348     11.6068E-03     7.93344E-03    -28.3281E+06     66.6763E+06     61.0063E+06    -51.8869E+03    -195.509E-03     346.976E-03    -151.467E-03     46.3211E-03    -196.740E-03     348.168E-03    -151.218E-03     38.2277E-03
            2349     10.8660E-03     7.86592E-03    -35.6753E+06     24.1852E+06     49.8373E+06     1.13881E+06    -189.715E-03     338.252E-03    -148.537E-03     40.3837E-03    -190.804E-03     339.157E-03    -148.271E-03     33.0073E-03
            2350     10.1206E-03     7.80886E-03    -43.0624E+06    -10.5165E+06     39.4936E+06     1.39941E+06    -182.619E-03     328.254E-03    -145.636E-03     35.9435E-03    -183.579E-03     328.912E-03    -145.360E-03     29.3078E-03
            2351     9.36915E-03     7.76259E-03    -50.1079E+06    -37.0722E+06     30.5920E+06     1.21112E+06    -174.948E-03     317.802E-03    -142.854E-03     33.1473E-03    -175.798E-03     318.256E-03    -142.575E-03     27.2491E-03
            2352     8.61161E-03     7.72554E-03    -56.6527E+06    -60.6543E+06     22.0867E+06     367.122E+03    -167.228E-03     307.485E-03    -140.258E-03     31.7087E-03    -167.975E-03     307.755E-03    -139.977E-03     26.5191E-03
            2353     7.84815E-03     7.69700E-03    -63.0775E+06    -82.4673E+06     13.7631E+06    -769.909E+03    -159.833E-03     297.723E-03    -137.890E-03     31.0994E-03    -160.485E-03     297.821E-03    -137.610E-03     26.5828E-03
            2354     7.07879E-03     7.67546E-03    -69.5056E+06    -103.301E+06     5.14836E+06    -1.95538E+06    -153.053E-03     288.828E-03    -135.775E-03     30.8247E-03    -153.617E-03     288.766E-03    -135.499E-03     26.9398E-03
            2355     6.30433E-03     7.65967E-03    -75.9684E+06    -124.124E+06    -4.06624E+06    -3.29044E+06    -147.042E-03     280.965E-03    -133.923E-03     30.4341E-03    -147.522E-03     280.749E-03    -133.653E-03     27.1330E-03
            2356     5.52525E-03     7.64852E-03    -82.6640E+06    -144.962E+06    -14.6010E+06    -4.55353E+06    -141.871E-03     274.203E-03    -132.332E-03     29.5683E-03    -142.274E-03     273.842E-03    -132.075E-03     26.8045E-03
            2357     4.74221E-03     7.64096E-03    -89.7071E+06    -166.980E+06    -27.6164E+06    -5.47667E+06    -137.571E-03     268.564E-03    -130.993E-03     27.9449E-03    -137.901E-03     268.063E-03    -130.759E-03     25.6732E-03
            2358     3.95599E-03     7.63602E-03    -97.3395E+06    -189.911E+06    -44.4010E+06    -5.70759E+06    -134.133E-03     264.020E-03    -129.887E-03     25.3727E-03    -134.393E-03     263.389E-03    -129.693E-03     23.5526E-03
            2359     3.16725E-03     7.63303E-03    -105.616E+06    -214.358E+06    -64.9808E+06    -5.00641E+06    -131.513E-03     260.512E-03    -128.999E-03     21.7927E-03    -131.710E-03     259.760E-03    -128.860E-03     20.3896E-03
            2360     2.37679E-03     7.63123E-03    -114.100E+06    -238.976E+06    -87.4808E+06    -3.37046E+06    -129.630E-03     257.943E-03    -128.313E-03     17.2845E-03    -129.770E-03     257.082E-03    -128.239E-03     16.2696E-03
            2361     1.58511E-03     7.63034E-03    -121.947E+06    -260.746E+06    -108.130E+06    -1.49719E+06    -128.379E-03     256.200E-03    -127.821E-03     12.0734E-03    -128.474E-03     255.248E-03    -127.807E-03     11.4160E-03
            2362     792.743E-06     7.62987E-03    -127.932E+06    -274.190E+06    -123.617E+06    -256.337E+03    -127.682E-03     255.159E-03    -127.477E-03     6.68827E-03    -127.753E-03     254.158E-03    -127.512E-03     6.34407E-03
            2363     14.5570E-03     6.89397E-03    -5.39618E+06     115.469E+06     105.296E+06    -762.809E+03    -200.564E-03     361.871E-03    -161.307E-03     46.4094E-03    -201.774E-03     363.166E-03    -160.940E-03     37.6626E-03
            2364     13.8222E-03     6.81553E-03    -10.6975E+06     108.900E+06     95.5506E+06    -1.49408E+06    -203.278E-03     362.287E-03    -159.010E-03     60.0347E-03    -204.811E-03     363.893E-03    -158.674E-03     50.0457E-03
            2365     13.0894E-03     6.73468E-03    -16.5219E+06     100.044E+06     80.2284E+06    -1.08493E+06    -203.094E-03     359.450E-03    -156.356E-03     56.2977E-03    -204.562E-03     360.983E-03    -156.076E-03     46.7666E-03
            2366     12.3554E-03     6.65817E-03    -23.5104E+06     91.4928E+06     69.5395E+06     775.207E+03    -199.282E-03     352.807E-03    -153.525E-03     50.8691E-03    -200.695E-03     354.262E-03    -153.276E-03     41.8711E-03
            2367     11.6175E-03     6.59214E-03    -31.0908E+06     64.6247E+06     60.5062E+06     2.83368E+06    -192.721E-03     343.416E-03    -150.694E-03     45.5005E-03    -194.015E-03     344.655E-03    -150.441E-03     37.3060E-03
            2368     10.8742E-03     6.53809E-03    -38.7215E+06     25.7058E+06     51.3735E+06     3.36814E+06    -184.573E-03     332.566E-03    -147.993E-03     42.2769E-03    -185.725E-03     333.525E-03    -147.717E-03     34.9640E-03
            2369     10.1238E-03     6.49580E-03    -45.6344E+06    -7.70866E+06     42.5573E+06     1.71437E+06    -175.930E-03     321.432E-03    -145.502E-03     41.1537E-03    -176.950E-03     322.143E-03    -145.212E-03     34.6844E-03
            2370     9.36686E-03     6.46346E-03    -51.2944E+06    -34.6446E+06     35.4792E+06    -644.892E+03    -167.623E-03     310.912E-03    -143.289E-03     41.5261E-03    -168.523E-03     311.407E-03    -142.987E-03     35.8525E-03
            2371     8.60348E-03     6.44009E-03    -56.4183E+06    -58.4362E+06     28.6464E+06    -2.64963E+06    -160.128E-03     301.503E-03    -141.375E-03     42.5428E-03    -160.914E-03     301.801E-03    -141.065E-03     37.6113E-03
            2372     7.83414E-03     6.42352E-03    -61.4189E+06    -80.6467E+06     21.9201E+06    -4.65316E+06    -153.676E-03     293.437E-03    -139.761E-03     43.4022E-03    -154.355E-03     293.550E-03    -139.445E-03     39.1464E-03
            2373     7.06017E-03     6.41245E-03    -66.3666E+06    -101.849E+06     14.3898E+06    -6.82251E+06    -148.338E-03     286.765E-03    -138.427E-03     43.5395E-03    -148.916E-03     286.706E-03    -138.111E-03     39.8869E-03
            2374     6.28213E-03     6.40549E-03    -71.4432E+06    -123.657E+06     4.67768E+06    -8.74481E+06    -144.086E-03     281.430E-03    -137.343E-03     42.5964E-03    -144.567E-03     281.205E-03    -137.037E-03     39.4821E-03
            2375     5.50108E-03     6.40152E-03    -76.8920E+06    -146.026E+06    -8.51726E+06    -9.93863E+06    -140.836E-03     277.307E-03    -136.472E-03     40.3830E-03    -141.223E-03     276.928E-03    -136.191E-03     37.7530E-03
            2376     4.71787E-03     6.39957E-03    -83.1554E+06    -170.205E+06    -25.8721E+06    -9.85458E+06    -138.454E-03     274.230E-03    -135.776E-03     36.9006E-03    -138.752E-03     273.703E-03    -135.538E-03     34.7156E-03
            2377     3.93309E-03     6.39895E-03    -90.4380E+06    -195.345E+06    -46.4970E+06    -8.11339E+06    -136.777E-03     272.004E-03    -135.227E-03     32.2754E-03    -136.995E-03     271.340E-03    -135.045E-03     30.5114E-03
            2378     3.14740E-03     6.39898E-03    -98.5565E+06    -220.883E+06    -68.3058E+06    -5.10821E+06    -135.643E-03     270.444E-03    -134.801E-03     26.7429E-03    -135.792E-03     269.654E-03    -134.680E-03     25.3814E-03
            2379     2.36102E-03     6.39943E-03    -106.714E+06    -244.957E+06    -88.5027E+06    -1.92610E+06    -134.898E-03     269.382E-03    -134.484E-03     20.5712E-03    -134.993E-03     268.481E-03    -134.416E-03     19.5888E-03
            2380     1.57425E-03     6.39988E-03    -113.660E+06    -263.849E+06    -104.812E+06     343.214E+03    -134.427E-03     268.685E-03    -134.258E-03     14.0471E-03    -134.483E-03     267.701E-03    -134.235E-03     13.4133E-03
            2381     787.196E-06     6.40032E-03    -118.418E+06    -273.821E+06    -115.959E+06     902.433E+03    -134.138E-03     268.265E-03    -134.127E-03     7.67240E-03    -134.174E-03     267.240E-03    -134.138E-03     7.33980E-03
            2382     14.5599E-03     5.52803E-03    -5.11079E+06     116.262E+06     106.008E+06    -823.733E+03    -205.011E-03     366.151E-03    -161.140E-03     48.9968E-03    -206.292E-03     367.519E-03    -160.771E-03     39.8396E-03
            2383     13.8290E-03     5.44875E-03    -11.2700E+06     107.553E+06     96.2488E+06    -508.778E+03    -205.953E-03     364.602E-03    -158.648E-03     61.0695E-03    -207.578E-03     366.290E-03    -158.307E-03     50.6832E-03
            2384     13.0974E-03     5.37419E-03    -18.3422E+06     96.5442E+06     80.7524E+06     1.66713E+06    -202.337E-03     358.261E-03    -155.924E-03     56.1405E-03    -203.880E-03     359.850E-03    -155.634E-03     46.4199E-03
            2385     12.3618E-03     5.30879E-03    -25.9887E+06     88.0857E+06     70.2616E+06     4.52384E+06    -194.653E-03     347.886E-03    -153.233E-03     52.0061E-03    -196.111E-03     349.363E-03    -152.972E-03     43.1585E-03
            2386     11.6195E-03     5.25793E-03    -33.9696E+06     65.4369E+06     63.9280E+06     5.38074E+06    -184.985E-03     335.778E-03    -150.793E-03     49.9260E-03    -186.307E-03     337.030E-03    -150.519E-03     42.1587E-03
            2387     10.8688E-03     5.21999E-03    -40.4660E+06     31.3787E+06     58.9866E+06     2.28041E+06    -175.175E-03     323.880E-03    -148.705E-03     50.6676E-03    -176.347E-03     324.851E-03    -148.397E-03     43.9292E-03
            2388     10.1109E-03     5.19281E-03    -44.8098E+06    -2.20619E+06     52.2119E+06    -2.40254E+06    -166.391E-03     313.369E-03    -146.978E-03     52.7780E-03    -167.406E-03     314.070E-03    -146.649E-03     46.9569E-03
            2389     9.34590E-03     5.17413E-03    -48.6470E+06    -31.6357E+06     45.7916E+06    -5.95868E+06    -159.132E-03     304.743E-03    -145.610E-03     54.7711E-03    -160.004E-03     305.199E-03    -145.265E-03     49.7608E-03
            2390     8.57538E-03     5.16162E-03    -52.3203E+06    -56.0360E+06     39.2393E+06    -9.00666E+06    -153.469E-03     298.026E-03    -144.557E-03     55.6924E-03    -154.213E-03     298.274E-03    -144.204E-03     51.3690E-03
            2391     7.80125E-03     5.15387E-03    -55.5341E+06    -79.0672E+06     30.5054E+06    -12.0512E+06    -149.267E-03     293.029E-03    -143.762E-03     55.2342E-03    -149.890E-03     293.087E-03    -143.414E-03     51.4856E-03
            2392     7.02415E-03     5.14949E-03    -58.6912E+06    -102.086E+06     18.2853E+06    -14.1803E+06    -146.315E-03     289.483E-03    -143.168E-03     53.2672E-03    -146.822E-03     289.366E-03    -142.843E-03     50.0092E-03
            2393     6.24545E-03     5.14743E-03    -62.6353E+06    -126.295E+06     2.42919E+06    -14.7861E+06    -144.361E-03     287.086E-03    -142.726E-03     49.8792E-03    -144.758E-03     286.805E-03    -142.440E-03     47.0556E-03
            2394     5.46574E-03     5.14691E-03    -68.2393E+06    -151.607E+06    -16.1960E+06    -13.3810E+06    -143.142E-03     285.538E-03    -142.396E-03     45.3183E-03    -143.442E-03     285.103E-03    -142.158E-03     42.9004E-03
            2395     4.68544E-03     5.14734E-03    -75.6217E+06    -177.941E+06    -36.2093E+06    -10.2552E+06    -142.431E-03     284.580E-03    -142.149E-03     39.8661E-03    -142.648E-03     283.999E-03    -141.962E-03     37.8397E-03
            2396     3.90491E-03     5.14829E-03    -84.0255E+06    -204.687E+06    -55.8654E+06    -6.02889E+06    -142.038E-03     284.000E-03    -141.962E-03     33.8088E-03    -142.185E-03     283.281E-03    -141.823E-03     32.1665E-03
            2397     3.12412E-03     5.14950E-03    -92.2235E+06    -229.065E+06    -73.7991E+06    -1.53145E+06    -141.820E-03     283.639E-03    -141.819E-03     27.3661E-03    -141.911E-03     282.799E-03    -141.722E-03     26.0994E-03
            2398     2.34323E-03     5.15066E-03    -99.2243E+06    -249.597E+06    -88.3727E+06     1.73188E+06    -141.698E-03     283.408E-03    -141.711E-03     20.7118E-03    -141.744E-03     282.468E-03    -141.647E-03     19.7978E-03
            2399     1.56222E-03     5.15174E-03    -104.555E+06    -263.613E+06    -99.0694E+06     2.88117E+06    -141.620E-03     283.250E-03    -141.630E-03     13.9980E-03    -141.637E-03     282.243E-03    -141.592E-03     13.4038E-03
            2400     781.135E-06     5.15245E-03    -107.785E+06    -269.750E+06    -106.437E+06     2.10262E+06    -141.491E-03     283.135E-03    -141.645E-03     7.60164E-03    -141.492E-03     282.101E-03    -141.629E-03     7.28592E-03
            2401     14.5609E-03     4.15545E-03    -6.27905E+06     115.829E+06     104.421E+06     390.019E+03    -207.270E-03     368.519E-03    -161.249E-03     57.4164E-03    -208.670E-03     370.005E-03    -160.885E-03     48.0386E-03
            2402     13.8310E-03     4.07950E-03    -12.9645E+06     103.947E+06     95.9073E+06     1.10032E+06    -205.090E-03     363.835E-03    -158.745E-03     67.1073E-03    -206.827E-03     365.619E-03    -158.398E-03     56.6897E-03
            2403     13.0976E-03     4.01695E-03    -19.0928E+06     92.3777E+06     84.4370E+06     3.77087E+06    -196.369E-03     352.615E-03    -156.246E-03     61.8826E-03    -197.941E-03     354.206E-03    -155.930E-03     52.6161E-03
            2404     12.3556E-03     3.96940E-03    -25.3435E+06     86.0045E+06     76.4484E+06     6.11982E+06    -184.661E-03     338.728E-03    -154.067E-03     60.6486E-03    -186.064E-03     340.129E-03    -153.773E-03     52.7829E-03
            2405     11.6035E-03     3.93671E-03    -30.7420E+06     72.8700E+06     73.9135E+06     3.84658E+06    -173.597E-03     325.970E-03    -152.372E-03     61.9820E-03    -174.826E-03     327.137E-03    -152.064E-03     55.4435E-03
            2406     10.8431E-03     3.91483E-03    -34.9761E+06     40.9882E+06     70.4988E+06    -3.23993E+06    -164.833E-03     315.975E-03    -151.142E-03     64.0442E-03    -165.881E-03     316.843E-03    -150.798E-03     58.5476E-03
            2407     10.0756E-03     3.90029E-03    -38.7756E+06     2.28690E+06     59.5444E+06    -9.06524E+06    -158.448E-03     308.705E-03    -150.257E-03     64.8463E-03    -159.313E-03     309.271E-03    -149.907E-03     60.1804E-03
            2408     9.30441E-03     3.89052E-03    -41.6697E+06    -28.0075E+06     48.0652E+06    -13.5311E+06    -154.002E-03     303.653E-03    -149.651E-03     63.8892E-03    -154.714E-03     303.979E-03    -149.309E-03     59.8657E-03
            2409     8.53101E-03     3.88442E-03    -43.5749E+06    -54.9108E+06     34.6057E+06    -17.4146E+06    -151.097E-03     300.347E-03    -149.250E-03     61.3558E-03    -151.670E-03     300.470E-03    -148.934E-03     57.8259E-03
            2410     7.75588E-03     3.88089E-03    -45.9961E+06    -80.7364E+06     19.1857E+06    -18.8717E+06    -149.362E-03     298.360E-03    -148.998E-03     57.5525E-03    -149.813E-03     298.305E-03    -148.718E-03     54.4343E-03
            2411     6.98041E-03     3.87901E-03    -50.4442E+06    -107.207E+06     1.73950E+06    -18.0662E+06    -148.444E-03     297.292E-03    -148.848E-03     52.8374E-03    -148.791E-03     297.073E-03    -148.611E-03     50.0837E-03
            2412     6.20460E-03     3.87848E-03    -57.0900E+06    -134.690E+06    -16.9958E+06    -14.9175E+06    -148.056E-03     296.820E-03    -148.763E-03     47.5366E-03    -148.317E-03     296.447E-03    -148.570E-03     45.1299E-03
            2413     5.42878E-03     3.87877E-03    -65.1126E+06    -162.014E+06    -34.4448E+06    -10.2374E+06    -147.977E-03     296.703E-03    -148.726E-03     41.9056E-03    -148.168E-03     296.185E-03    -148.569E-03     39.8403E-03
            2414     4.65307E-03     3.87966E-03    -73.4041E+06    -188.520E+06    -49.9434E+06    -5.08110E+06    -148.059E-03     296.775E-03    -148.717E-03     36.0951E-03    -148.192E-03     296.120E-03    -148.586E-03     34.3661E-03
            2415     3.87736E-03     3.88092E-03    -81.0707E+06    -213.704E+06    -62.9848E+06    -492.422E+03    -148.211E-03     296.934E-03    -148.723E-03     30.1949E-03    -148.294E-03     296.150E-03    -148.611E-03     28.7924E-03
            2416     3.10182E-03     3.88229E-03    -87.4168E+06    -235.039E+06    -74.2368E+06     2.87895E+06    -148.375E-03     297.106E-03    -148.731E-03     24.2386E-03    -148.416E-03     296.214E-03    -148.635E-03     23.1485E-03
            2417     2.32629E-03     3.88367E-03    -92.1724E+06    -250.442E+06    -83.8276E+06     4.73745E+06    -148.519E-03     297.251E-03    -148.732E-03     18.2546E-03    -148.526E-03     296.281E-03    -148.654E-03     17.4610E-03
            2418     1.55084E-03     3.88478E-03    -95.4567E+06    -259.205E+06    -91.2623E+06     4.36721E+06    -148.623E-03     297.349E-03    -148.725E-03     12.3022E-03    -148.608E-03     296.336E-03    -148.667E-03     11.7778E-03
            2419     775.418E-06     3.88565E-03    -97.4093E+06    -263.032E+06    -96.3676E+06     2.64287E+06    -148.539E-03     297.401E-03    -148.863E-03     6.67589E-03    -148.511E-03     296.370E-03    -148.822E-03     6.39313E-03
            2420     14.5502E-03     2.77805E-03    -7.15683E+06     113.677E+06     103.245E+06     2.85494E+06    -206.898E-03     369.133E-03    -162.235E-03     78.2345E-03    -208.473E-03     370.788E-03    -161.873E-03     69.0420E-03
            2421     13.8188E-03     2.71242E-03    -13.4001E+06     103.712E+06     95.7410E+06     2.46773E+06    -199.926E-03     359.870E-03    -159.944E-03     79.3077E-03    -201.644E-03     361.634E-03    -159.596E-03     69.8512E-03
            2422     13.0778E-03     2.67100E-03    -18.7554E+06     93.1628E+06     85.6984E+06     1.76880E+06    -186.304E-03     344.255E-03    -157.951E-03     73.1488E-03    -187.675E-03     345.646E-03    -157.630E-03     65.6363E-03
            2423     12.3246E-03     2.64550E-03    -21.3683E+06     86.9194E+06     79.1979E+06     57.7649E+03    -174.265E-03     330.757E-03    -156.492E-03     72.1136E-03    -175.384E-03     331.883E-03    -156.191E-03     66.2623E-03
            2424     11.5624E-03     2.62866E-03    -22.4977E+06     79.4806E+06     67.0570E+06    -2.07337E+06    -165.884E-03     321.357E-03    -155.474E-03     70.2590E-03    -166.793E-03     322.276E-03    -155.221E-03     65.6315E-03
            2425     10.7950E-03     2.61705E-03    -25.9137E+06     48.9464E+06     51.5468E+06    -6.09868E+06    -160.489E-03     315.308E-03    -154.819E-03     66.7897E-03    -161.214E-03     315.965E-03    -154.594E-03     62.9687E-03
            2426     10.0263E-03     2.60882E-03    -30.5562E+06     8.14188E+06     36.2654E+06    -12.8330E+06    -157.096E-03     311.517E-03    -154.422E-03     62.2717E-03    -157.662E-03     311.898E-03    -154.208E-03     58.9755E-03
            2427     9.25607E-03     2.60337E-03    -34.4034E+06    -25.2923E+06     19.6293E+06    -18.3291E+06    -154.984E-03     309.159E-03    -154.175E-03     57.2100E-03    -155.423E-03     309.328E-03    -153.990E-03     54.2849E-03
            2428     8.48464E-03     2.59965E-03    -39.0850E+06    -57.8938E+06     3.92720E+06    -19.8141E+06    -153.769E-03     307.821E-03    -154.052E-03     51.8948E-03    -154.105E-03     307.799E-03    -153.891E-03     49.2839E-03
            2429     7.71326E-03     2.59727E-03    -45.6862E+06    -88.2624E+06    -11.0128E+06    -17.7700E+06    -153.148E-03     307.162E-03    -154.013E-03     46.5879E-03    -153.408E-03     306.976E-03    -153.874E-03     44.2691E-03
            2430     6.94138E-03     2.59606E-03    -53.6187E+06    -117.566E+06    -24.7248E+06    -13.3304E+06    -152.907E-03     306.942E-03    -154.036E-03     41.4405E-03    -153.107E-03     306.606E-03    -153.911E-03     39.4052E-03
            2431     6.16955E-03     2.59562E-03    -61.8339E+06    -145.948E+06    -37.0455E+06    -8.34237E+06    -152.912E-03     307.012E-03    -154.100E-03     36.5021E-03    -153.065E-03     306.533E-03    -153.984E-03     34.7355E-03
            2432     5.39780E-03     2.59589E-03    -69.1613E+06    -172.627E+06    -47.7899E+06    -3.67630E+06    -153.074E-03     307.262E-03    -154.188E-03     31.7566E-03    -153.184E-03     306.651E-03    -154.076E-03     30.2447E-03
            2433     4.62611E-03     2.59661E-03    -75.0490E+06    -197.121E+06    -57.0656E+06     266.060E+03    -153.329E-03     307.617E-03    -154.288E-03     27.1466E-03    -153.399E-03     306.884E-03    -154.179E-03     25.8779E-03
            2434     3.85470E-03     2.59762E-03    -79.4442E+06    -218.837E+06    -64.7705E+06     3.02814E+06    -153.633E-03     308.023E-03    -154.391E-03     22.6170E-03    -153.664E-03     307.181E-03    -154.282E-03     21.5791E-03
            2435     3.08340E-03     2.59878E-03    -82.7392E+06    -236.960E+06    -71.1284E+06     4.58582E+06    -153.944E-03     308.430E-03    -154.486E-03     18.1250E-03    -153.941E-03     307.496E-03    -154.378E-03     17.3079E-03
            2436     2.31238E-03     2.59988E-03    -85.1660E+06    -248.178E+06    -77.2615E+06     4.94953E+06    -154.220E-03     308.777E-03    -154.557E-03     13.6477E-03    -154.192E-03     307.787E-03    -154.460E-03     13.0426E-03
            2437     1.54147E-03     2.60088E-03    -86.7819E+06    -253.045E+06    -83.0740E+06     4.06139E+06    -154.435E-03     309.037E-03    -154.602E-03     9.19868E-03    -154.391E-03     308.025E-03    -154.524E-03     8.79419E-03
            2438     770.692E-06     2.60157E-03    -87.7144E+06    -255.769E+06    -86.9478E+06     2.34299E+06    -154.362E-03     309.215E-03    -154.853E-03     4.99390E-03    -154.307E-03     308.191E-03    -154.790E-03     4.77404E-03
            2439     14.5148E-03     1.39293E-03    -4.22268E+06     114.112E+06     107.825E+06     2.79747E+06    -213.119E-03     377.776E-03    -164.657E-03     92.9507E-03    -214.483E-03     379.217E-03    -164.277E-03     85.4900E-03
            2440     13.7805E-03     1.35382E-03    -9.37087E+06     108.136E+06     99.8364E+06     2.03152E+06    -195.841E-03     358.271E-03    -162.430E-03     76.1739E-03    -196.979E-03     359.474E-03    -162.074E-03     70.2008E-03
            2441     13.0307E-03     1.33942E-03    -14.7253E+06     99.3285E+06     73.9067E+06    -1.17995E+06    -181.693E-03     342.436E-03    -160.743E-03     65.1871E-03    -182.500E-03     343.331E-03    -160.497E-03     61.0473E-03
            2442     12.2727E-03     1.32775E-03    -18.3968E+06     88.2377E+06     47.8975E+06    -4.80599E+06    -172.820E-03     332.378E-03    -159.558E-03     57.6857E-03    -173.437E-03     333.104E-03    -159.420E-03     54.5627E-03
            2443     11.5125E-03     1.31936E-03    -21.8346E+06     76.7572E+06     27.6542E+06    -3.64214E+06    -167.144E-03     325.882E-03    -158.738E-03     50.0421E-03    -167.631E-03     326.483E-03    -158.680E-03     47.6114E-03
            2444     10.7507E-03     1.31315E-03    -26.0099E+06     54.7752E+06     5.21198E+06    -4.22713E+06    -163.352E-03     321.509E-03    -158.157E-03     43.5180E-03    -163.733E-03     321.977E-03    -158.173E-03     41.5110E-03
            2445     9.98569E-03     1.30886E-03    -31.1378E+06     16.7239E+06    -10.2755E+06    -9.81401E+06    -160.772E-03     318.580E-03    -157.808E-03     38.0247E-03    -161.060E-03     318.846E-03    -157.839E-03     36.2478E-03
            2446     9.21926E-03     1.30568E-03    -38.2451E+06    -26.4942E+06    -20.3217E+06    -13.1508E+06    -159.040E-03     316.668E-03    -157.627E-03     33.3469E-03    -159.259E-03     316.714E-03    -157.635E-03     31.7445E-03
            2447     8.45215E-03     1.30354E-03    -46.9029E+06    -64.2966E+06    -27.7603E+06    -11.8290E+06    -157.881E-03     315.435E-03    -157.554E-03     29.2968E-03    -158.057E-03     315.295E-03    -157.531E-03     27.8804E-03
            2448     7.68374E-03     1.30217E-03    -55.7576E+06    -97.4898E+06    -34.6422E+06    -8.85290E+06    -157.142E-03     314.698E-03    -157.556E-03     25.7561E-03    -157.288E-03     314.399E-03    -157.507E-03     24.5160E-03
            2449     6.91518E-03     1.30137E-03    -63.2042E+06    -127.293E+06    -41.1729E+06    -5.60351E+06    -156.748E-03     314.362E-03    -157.615E-03     22.6034E-03    -156.866E-03     313.923E-03    -157.544E-03     21.5236E-03
            2450     6.14625E-03     1.30110E-03    -68.7291E+06    -154.308E+06    -47.1464E+06    -2.53118E+06    -156.622E-03     314.339E-03    -157.717E-03     19.7413E-03    -156.710E-03     313.771E-03    -157.629E-03     18.8085E-03
            2451     5.37726E-03     1.30119E-03    -72.8371E+06    -179.066E+06    -53.1399E+06    -107.667E+03    -156.707E-03     314.553E-03    -157.847E-03     17.0830E-03    -156.763E-03     313.868E-03    -157.747E-03     16.2837E-03
            2452     4.60844E-03     1.30157E-03    -75.7819E+06    -201.295E+06    -58.6330E+06     1.55493E+06    -156.942E-03     314.936E-03    -157.994E-03     14.5613E-03    -156.965E-03     314.145E-03    -157.885E-03     13.8849E-03
            2453     3.83972E-03     1.30212E-03    -77.8687E+06    -220.685E+06    -63.8489E+06     2.67610E+06    -157.270E-03     315.414E-03    -158.145E-03     12.1178E-03    -157.261E-03     314.531E-03    -158.031E-03     11.5600E-03
            2454     3.07135E-03     1.30275E-03    -79.3510E+06    -236.356E+06    -68.5760E+06     3.14414E+06    -157.637E-03     315.924E-03    -158.287E-03     9.71227E-03    -157.601E-03     314.966E-03    -158.172E-03     9.26872E-03
            2455     2.30317E-03     1.30340E-03    -80.3576E+06    -245.251E+06    -73.3646E+06     2.89293E+06    -157.987E-03     316.391E-03    -158.404E-03     7.32057E-03    -157.933E-03     315.393E-03    -158.299E-03     6.98666E-03
            2456     1.53528E-03     1.30396E-03    -80.9534E+06    -248.472E+06    -77.5825E+06     2.24774E+06    -158.280E-03     316.772E-03    -158.491E-03     4.93921E-03    -158.215E-03     315.761E-03    -158.402E-03     4.71381E-03
            2457     767.584E-06     1.30438E-03    -81.2588E+06    -250.158E+06    -80.5585E+06     1.47422E+06    -158.211E-03     317.040E-03    -158.829E-03     2.68312E-03    -158.139E-03     316.025E-03    -158.752E-03     2.56286E-03


