********************************************************************************
Field Output Report, written Wed May 29 01:50:15 2024

Source 1
---------

   ODB: G:/Abaqus_calc_2019/1740/Vel_5/odb/zeides_2a_8_red_2500_cal_30_vel_5_fric_0100.odb
   Step: Step-1
   Frame: Increment  37334661: Step Time =    3.539

Loc 1 : Nodal values from source 1

Output sorted by column "Nodal Label".

Field Output reported at nodes for region: DIE_2A_8_D0_36-1.Region_1
   Computation algorithm: EXTRAPOLATE_COMPUTE_AVERAGE
   Averaged at nodes
   Averaging regions: ODB_REGIONS

      Node Label     COORD.COOR1     COORD.COOR2
                          @Loc 1          @Loc 1
-------------------------------------------------
               1     14.4417E-03     217.132E-03


Field Output reported at nodes for region: DIE_2A_8_D0_36-1.Region_2
   Computation algorithm: EXTRAPOLATE_COMPUTE_AVERAGE
   Averaged at nodes
   Averaging regions: ODB_REGIONS

      Node Label     COORD.COOR1     COORD.COOR2
                          @Loc 1          @Loc 1
-------------------------------------------------
               1     14.4417E-03     217.132E-03


Field Output reported at nodes for part: WIRE-1
   Computation algorithm: EXTRAPOLATE_COMPUTE_AVERAGE
   Averaged at nodes
   Averaging regions: ODB_REGIONS

      Node Label     COORD.COOR1     COORD.COOR2           S.S11           S.S22           S.S33           S.S12         PE.PE11         PE.PE22         PE.PE33         PE.PE12         LE.LE11         LE.LE22         LE.LE33         LE.LE12
                          @Loc 1          @Loc 1          @Loc 1          @Loc 1          @Loc 1          @Loc 1          @Loc 1          @Loc 1          @Loc 1          @Loc 1          @Loc 1          @Loc 1          @Loc 1          @Loc 1
-------------------------------------------------------------------------------------------------------------------------------------------------------------------------------------------------------------------------------------------------
               1    -223.320E-09     98.5105E-03    -88.6431E+06    -136.079E+06    -88.6904E+06     937.162E+03    -294.699E-03     591.463E-03    -296.764E-03     3.82053E-03    -294.655E-03     591.102E-03    -296.881E-03     3.56796E-03
               2     13.3958E-03     100.108E-03    -4.93879E+06     34.8647E+06     71.7698E+06    -6.17810E+06    -296.330E-03     592.073E-03    -295.743E-03     80.7560E-03    -296.819E-03     592.461E-03    -295.428E-03     74.8173E-03
               3     13.5019E-03     198.648E-03    -30.4843E+06     38.0027E+06     60.9521E+06    -20.8881E+06    -133.693E-03     425.237E-03    -291.545E-03     22.2906E-03    -133.940E-03     425.424E-03    -291.251E-03     22.4030E-03
               4    -6.88868E-06     196.263E-03     13.4946E+06    -30.8531E+06     3.03794E+06    -4.22486E+06    -343.147E-03     697.729E-03    -354.582E-03    -28.3413E-03    -343.215E-03     697.574E-03    -354.542E-03    -28.0728E-03
               5     5.27797E-06    -1.34615E-15    -40.3111E+06    -57.7458E+06    -39.2883E+06    -327.474E+03    -257.329E-03     512.059E-03    -254.730E-03    -3.94197E-03    -257.045E-03     511.827E-03    -254.784E-03    -3.91997E-03
               6     13.2604E-03    -1.34615E-15     522.770E+03     34.3559E+06     35.4134E+06    -158.523E+03    -495.409E-03     793.593E-03    -298.184E-03     108.470E-03    -496.089E-03     794.327E-03    -298.058E-03     97.0625E-03
               7     668.189E-06     98.5223E-03    -85.9447E+06    -129.699E+06    -85.6126E+06    -411.677E+03    -294.959E-03     591.085E-03    -296.126E-03     5.32282E-03    -294.975E-03     590.702E-03    -296.241E-03     5.15400E-03
               8     1.33899E-03     98.5385E-03    -80.6407E+06    -118.787E+06    -79.4572E+06    -1.43942E+06    -295.535E-03     591.023E-03    -295.488E-03     9.37907E-03    -295.620E-03     590.638E-03    -295.596E-03     9.24571E-03
               9     2.00993E-03     98.5582E-03    -79.8668E+06    -110.882E+06    -76.6310E+06     98.7269E+03    -295.868E-03     591.394E-03    -295.526E-03     13.9684E-03    -295.979E-03     591.052E-03    -295.632E-03     13.7802E-03
              10     2.68012E-03     98.5873E-03    -78.4248E+06    -97.2877E+06    -70.0814E+06     2.23961E+06    -295.772E-03     591.360E-03    -295.588E-03     18.0437E-03    -295.914E-03     591.081E-03    -295.683E-03     17.7994E-03
              11     3.34823E-03     98.6243E-03    -73.8745E+06    -75.5755E+06    -57.9474E+06     4.30489E+06    -295.830E-03     591.456E-03    -295.625E-03     22.4586E-03    -296.005E-03     591.269E-03    -295.698E-03     22.1075E-03
              12     4.01689E-03     98.6706E-03    -70.4524E+06    -57.9777E+06    -43.5611E+06      6.1341E+06    -296.272E-03     591.978E-03    -295.706E-03     27.2261E-03    -296.487E-03     591.863E-03    -295.738E-03     26.5949E-03
              13     4.68642E-03     98.7235E-03    -66.5574E+06    -49.0249E+06    -29.1221E+06     5.90831E+06    -296.479E-03     592.301E-03    -295.823E-03     32.3814E-03    -296.717E-03     592.214E-03    -295.801E-03     31.5210E-03
              14     5.35499E-03     98.7875E-03    -64.2236E+06    -41.5405E+06    -20.2246E+06     3.12366E+06    -296.049E-03     591.922E-03    -295.873E-03     37.3449E-03    -296.314E-03     591.870E-03    -295.821E-03     36.0659E-03
              15     6.02511E-03     98.8583E-03    -59.0102E+06    -27.6274E+06    -8.88383E+06     2.04329E+06    -295.695E-03     591.555E-03    -295.860E-03     41.9430E-03    -295.990E-03     591.568E-03    -295.779E-03     40.1531E-03
              16     6.69586E-03     98.9358E-03    -50.1040E+06    -14.3021E+06     5.87825E+06     3.93276E+06    -295.072E-03     590.875E-03    -295.803E-03     47.5547E-03    -295.385E-03     590.942E-03    -295.680E-03     45.4034E-03
              17     7.36714E-03     99.0187E-03    -44.2027E+06    -7.97619E+06     18.8517E+06     4.38507E+06    -294.351E-03     590.038E-03    -295.687E-03     53.5856E-03    -294.686E-03     590.134E-03    -295.518E-03     51.0301E-03
              18     8.03978E-03     99.1162E-03    -39.0371E+06    -1.20855E+06     32.2765E+06     3.71578E+06    -295.097E-03     590.680E-03    -295.583E-03     58.7075E-03    -295.481E-03     590.827E-03    -295.363E-03     55.2557E-03
              19     8.70933E-03     99.2151E-03    -32.4054E+06     6.82664E+06     44.7541E+06     3.60196E+06    -296.277E-03     591.831E-03    -295.554E-03     62.8299E-03    -296.697E-03     592.031E-03    -295.294E-03     58.6576E-03
              20     9.37799E-03     99.3246E-03    -25.8664E+06     14.0424E+06     54.1705E+06     3.63890E+06    -296.580E-03     592.142E-03    -295.563E-03     67.0348E-03    -297.016E-03     592.379E-03    -295.275E-03     62.6580E-03
              21     10.0487E-03     99.4459E-03    -16.8168E+06     23.3819E+06     64.1893E+06     4.47858E+06    -296.609E-03     592.176E-03    -295.567E-03     70.4097E-03    -297.054E-03     592.458E-03    -295.256E-03     65.7077E-03
              22     10.7200E-03     99.5693E-03    -13.5152E+06     26.8303E+06     66.3782E+06     2.95645E+06    -297.588E-03     593.160E-03    -295.573E-03     73.5120E-03    -298.069E-03     593.496E-03    -295.260E-03     68.0951E-03
              23     11.3888E-03     99.6951E-03    -14.8704E+06     25.4905E+06     63.4577E+06     399.095E+03    -298.823E-03     594.446E-03    -295.622E-03     76.9893E-03    -299.347E-03     594.823E-03    -295.321E-03     70.9004E-03
              24     12.0555E-03     99.8342E-03    -10.8364E+06     29.4140E+06     66.9983E+06     1.35106E+06    -298.862E-03     594.572E-03    -295.710E-03     78.2494E-03    -299.352E-03     594.934E-03    -295.402E-03     72.6085E-03
              25     12.7229E-03     99.9698E-03    -6.34260E+06     33.6613E+06     70.8610E+06    -1.77582E+06    -297.451E-03     593.199E-03    -295.748E-03     79.4516E-03    -297.923E-03     593.562E-03    -295.433E-03     73.9078E-03
              26     13.3985E-03     101.811E-03    -726.867E+03     39.5902E+06     75.9568E+06    -1.76462E+06    -296.013E-03     591.570E-03    -295.557E-03     80.7871E-03    -296.422E-03     591.896E-03    -295.233E-03     76.1368E-03
              27     13.4032E-03     103.525E-03    -1.08464E+06     41.8545E+06      78.706E+06     2.12461E+06    -295.889E-03     591.185E-03    -295.296E-03     77.5994E-03    -296.244E-03     591.457E-03    -294.962E-03     73.9516E-03
              28     13.4053E-03     105.230E-03    -633.803E+03     43.2301E+06     80.2675E+06    -592.522E+03    -295.559E-03     590.688E-03    -295.128E-03     75.0537E-03    -295.927E-03     590.974E-03    -294.789E-03     71.0290E-03
              29     13.4056E-03     106.935E-03    -1.36766E+06     42.8395E+06     78.9428E+06    -2.33854E+06    -296.786E-03     591.816E-03    -295.029E-03     73.5059E-03    -297.169E-03     592.117E-03    -294.695E-03     69.0703E-03
              30     13.4059E-03     108.654E-03    -1.67830E+06     42.4069E+06     78.4315E+06    -708.808E+03    -296.594E-03     591.551E-03    -294.957E-03     76.4674E-03    -296.980E-03     591.854E-03    -294.624E-03     72.1465E-03
              31     13.4092E-03     110.361E-03    -2.40988E+06     42.2765E+06     79.5715E+06     655.523E+03    -295.593E-03     590.407E-03    -294.815E-03     80.2307E-03    -295.998E-03     590.723E-03    -294.474E-03     75.8837E-03
              32     13.4118E-03     112.068E-03    -2.31137E+06     44.6929E+06     81.7493E+06     423.671E+03    -295.484E-03     590.080E-03    -294.596E-03     79.3315E-03    -295.891E-03     590.401E-03    -294.249E-03     74.9780E-03
              33     13.4152E-03     113.774E-03    -1.91395E+06     46.3702E+06     81.4667E+06    -22.4393E+03    -295.334E-03     589.687E-03    -294.353E-03     77.9538E-03    -295.733E-03     590.008E-03    -294.010E-03     73.6516E-03
              34     13.4184E-03     115.478E-03    -2.07627E+06     46.8300E+06     81.8783E+06    -56.9848E+03    -296.043E-03     590.164E-03    -294.121E-03     76.8443E-03    -296.436E-03     590.479E-03    -293.776E-03     72.5938E-03
              35     13.4198E-03     117.190E-03    -1.77333E+06     48.3476E+06     84.2301E+06     232.227E+03    -296.668E-03     590.626E-03    -293.958E-03     77.0365E-03    -297.073E-03     590.952E-03    -293.604E-03     72.6686E-03
              36     13.4220E-03     118.900E-03    -2.57823E+06     49.8738E+06     84.4127E+06     806.243E+03    -295.539E-03     589.371E-03    -293.832E-03     79.9077E-03    -295.975E-03     589.731E-03    -293.479E-03     75.2955E-03
              37     13.4245E-03     120.604E-03    -2.41584E+06     52.5993E+06     85.1646E+06     612.306E+03    -294.783E-03     588.448E-03    -293.665E-03     81.2108E-03    -295.234E-03     588.832E-03    -293.312E-03     76.4967E-03
              38     13.4271E-03     122.305E-03    -2.13584E+06     54.0694E+06     85.4143E+06     59.0777E+03    -295.021E-03     588.468E-03    -293.448E-03     78.9521E-03    -295.451E-03     588.836E-03    -293.096E-03     74.4647E-03
              39     13.4303E-03     124.008E-03    -1.87888E+06     55.0120E+06     86.5153E+06     130.834E+03    -295.267E-03     588.501E-03    -293.234E-03     77.6543E-03    -295.688E-03     588.860E-03    -292.878E-03     73.3055E-03
              40     13.4323E-03     125.717E-03    -2.31543E+06     56.3394E+06     87.4621E+06     732.148E+03    -295.064E-03     588.109E-03    -293.045E-03     78.1774E-03    -295.497E-03     588.481E-03    -292.686E-03     73.7916E-03
              41     13.4354E-03     127.417E-03    -2.58774E+06     58.6970E+06     87.8107E+06     903.990E+03    -294.799E-03     587.643E-03    -292.844E-03     78.9918E-03    -295.239E-03     588.028E-03    -292.486E-03     74.5851E-03
              42     13.4381E-03     129.122E-03    -2.31414E+06     61.0050E+06     88.8281E+06     395.724E+03    -294.948E-03     587.574E-03    -292.627E-03     79.9690E-03    -295.405E-03     587.982E-03    -292.268E-03     75.3855E-03
              43     13.4409E-03     130.827E-03    -2.22047E+06     62.6947E+06     89.8462E+06     500.103E+03    -294.557E-03     586.978E-03    -292.421E-03     80.3788E-03    -295.027E-03     587.402E-03    -292.060E-03     75.7153E-03
              44     13.4440E-03     132.524E-03    -2.44052E+06     64.8809E+06     91.0850E+06     522.888E+03    -294.257E-03     586.464E-03    -292.207E-03     80.0151E-03    -294.729E-03     586.893E-03    -291.842E-03     75.4294E-03
              45     13.4468E-03     134.229E-03    -2.31652E+06     66.5530E+06     92.5494E+06     417.580E+03    -294.213E-03     586.202E-03    -291.989E-03     80.2470E-03    -294.694E-03     586.643E-03    -291.620E-03     75.6098E-03
              46     13.4498E-03     135.928E-03    -2.27700E+06     68.8635E+06     93.6319E+06     719.792E+03    -293.869E-03     585.643E-03    -291.774E-03     80.9335E-03    -294.363E-03     586.102E-03    -291.403E-03     76.2248E-03
              47     13.4529E-03     137.626E-03    -2.46727E+06     72.2219E+06     94.2641E+06     844.934E+03    -293.921E-03     585.464E-03    -291.544E-03     79.9724E-03    -294.412E-03     585.930E-03    -291.173E-03     75.3950E-03
              48     13.4556E-03     139.326E-03    -2.48629E+06     74.9084E+06     94.9543E+06     523.573E+03    -294.154E-03     585.472E-03    -291.318E-03     79.3423E-03    -294.645E-03     585.945E-03    -290.949E-03     74.8414E-03
              49     13.4585E-03     141.027E-03    -2.38431E+06     76.6842E+06     95.8161E+06     474.480E+03    -293.760E-03     584.874E-03    -291.114E-03     80.7347E-03    -294.270E-03     585.370E-03    -290.743E-03     76.0643E-03
              50     13.4614E-03     142.727E-03    -2.40756E+06      79.426E+06     97.2009E+06     907.566E+03    -292.768E-03     583.690E-03    -290.922E-03     82.2982E-03    -293.302E-03     584.215E-03    -290.548E-03     77.4550E-03
              51     13.4644E-03     144.419E-03    -2.64825E+06     82.8224E+06     98.8551E+06     816.482E+03    -292.199E-03     582.916E-03    -290.717E-03     81.4514E-03    -292.733E-03     583.448E-03    -290.339E-03     76.7069E-03
              52     13.4672E-03     146.112E-03    -2.60321E+06     84.7552E+06     99.6651E+06     275.661E+03    -292.593E-03     583.079E-03    -290.486E-03     79.9804E-03    -293.114E-03     583.602E-03    -290.107E-03     75.4066E-03
              53     13.4701E-03     147.810E-03    -2.20487E+06     87.1860E+06     100.649E+06     994.346E+03    -293.123E-03     583.372E-03    -290.249E-03     80.9620E-03    -293.654E-03     583.913E-03    -289.869E-03     76.3226E-03
              54     13.4733E-03     149.509E-03    -2.97086E+06     91.3891E+06     103.849E+06     1.03996E+06    -292.810E-03     582.862E-03    -290.052E-03     81.3529E-03    -293.360E-03     583.425E-03    -289.661E-03     76.6602E-03
              55     13.4754E-03     151.201E-03    -2.75203E+06     93.4055E+06     105.706E+06     78.7222E+03    -291.814E-03     581.708E-03    -289.894E-03     79.2942E-03    -292.350E-03     582.259E-03    -289.497E-03     74.7925E-03
              56     13.4779E-03     152.890E-03    -2.48889E+06     94.4007E+06     105.376E+06     591.941E+03    -291.590E-03     581.310E-03    -289.720E-03     78.4979E-03    -292.117E-03     581.858E-03    -289.326E-03     74.1073E-03
              57     13.4800E-03     154.587E-03    -2.61672E+06     98.8567E+06     106.875E+06     1.45758E+06    -291.805E-03     581.351E-03    -289.546E-03     79.5165E-03    -292.349E-03     581.927E-03    -289.151E-03     75.0496E-03
              58     13.4822E-03     156.280E-03    -3.01702E+06     103.682E+06     107.254E+06     822.386E+03    -291.576E-03     580.954E-03    -289.378E-03     80.6012E-03    -292.137E-03     581.562E-03    -288.988E-03     76.0497E-03
              59     13.4846E-03     157.968E-03    -2.54646E+06     106.577E+06     107.518E+06     708.880E+03    -291.849E-03     581.036E-03    -289.187E-03     80.5271E-03    -292.407E-03     581.652E-03    -288.801E-03     76.0516E-03
              60     13.4871E-03     159.664E-03    -2.85406E+06     109.965E+06     108.873E+06     1.02303E+06    -292.162E-03     581.162E-03    -289.000E-03     81.2010E-03    -292.730E-03     581.795E-03    -288.611E-03     76.7290E-03
              61     13.4894E-03     161.357E-03    -2.72716E+06     114.759E+06     110.639E+06     1.25635E+06    -291.698E-03     580.535E-03    -288.837E-03     81.8888E-03    -292.278E-03     581.192E-03    -288.446E-03     77.4186E-03
              62     13.4916E-03     163.046E-03    -2.95315E+06     120.461E+06     113.343E+06     1.36638E+06    -291.548E-03     580.225E-03    -288.677E-03     80.9346E-03    -292.128E-03     580.894E-03    -288.281E-03     76.6428E-03
              63     13.4937E-03     164.735E-03    -3.03569E+06     124.476E+06     116.081E+06     661.177E+03    -292.459E-03     580.957E-03    -288.499E-03     80.8395E-03    -293.041E-03     581.634E-03    -288.094E-03     76.6580E-03
              64     13.4960E-03     166.433E-03    -2.97288E+06     127.328E+06     119.697E+06     890.118E+03    -293.266E-03     581.610E-03    -288.344E-03     82.8811E-03    -293.869E-03     582.307E-03    -287.926E-03     78.5962E-03
              65     13.4973E-03     168.129E-03    -3.17987E+06     131.822E+06     123.255E+06     1.23934E+06    -293.626E-03     581.855E-03    -288.230E-03     84.5778E-03    -294.250E-03     582.579E-03    -287.800E-03     80.2079E-03
              66     13.4986E-03     169.818E-03    -3.48707E+06     134.732E+06     124.757E+06     209.727E+03    -294.672E-03     582.782E-03    -288.111E-03     85.2893E-03    -295.300E-03     583.515E-03    -287.677E-03     80.9931E-03
              67     13.4998E-03     171.520E-03    -3.00754E+06     135.456E+06     127.319E+06     496.072E+03    -296.403E-03     584.399E-03    -287.996E-03     87.0616E-03    -297.037E-03     585.134E-03    -287.552E-03     82.7837E-03
              68     13.5006E-03     173.218E-03    -3.77787E+06      135.85E+06     129.592E+06    -7.72813E+03    -298.190E-03     586.100E-03    -287.909E-03     87.8430E-03    -298.828E-03     586.830E-03    -287.453E-03     83.6469E-03
              69     13.5007E-03     174.920E-03    -3.08988E+06     133.325E+06     132.312E+06    -923.901E+03    -300.275E-03     588.089E-03    -287.814E-03     89.0882E-03    -300.900E-03     588.793E-03    -287.342E-03     85.0716E-03
              70     13.5030E-03     176.626E-03    -3.94052E+06     126.151E+06     133.237E+06    -1.39431E+06    -302.779E-03     590.457E-03    -287.678E-03     89.9071E-03    -303.380E-03     591.105E-03    -287.189E-03     86.2126E-03
              71     13.5032E-03     178.335E-03    -3.87882E+06     120.081E+06     131.942E+06    -948.391E+03    -305.239E-03     592.783E-03    -287.545E-03     89.6779E-03    -305.804E-03     593.379E-03    -287.053E-03     86.3657E-03
              72     13.5044E-03     180.050E-03    -3.27176E+06     113.546E+06     129.609E+06    -2.23279E+06    -308.979E-03     596.387E-03    -287.408E-03     93.0344E-03    -309.532E-03     596.956E-03    -286.920E-03     89.7507E-03
              73     13.5044E-03     181.775E-03    -1.99551E+06     102.143E+06     124.376E+06    -2.17518E+06    -314.015E-03     601.255E-03    -287.240E-03     97.0492E-03    -314.544E-03     601.779E-03    -286.763E-03     93.7623E-03
              74     13.5054E-03     183.508E-03    -3.72280E+06     89.0594E+06     115.974E+06    -1.94717E+06    -318.304E-03     605.393E-03    -287.089E-03     100.622E-03    -318.815E-03     605.871E-03    -286.633E-03     97.3877E-03
              75     13.5052E-03     185.244E-03    -1.46031E+06     80.2913E+06     108.765E+06    -1.20065E+06    -322.753E-03     609.696E-03    -286.943E-03     104.594E-03    -323.232E-03     610.139E-03    -286.513E-03     101.438E-03
              76     13.5057E-03     186.989E-03    -3.96724E+06     68.3483E+06     103.556E+06    -3.17529E+06    -327.034E-03     613.857E-03    -286.824E-03     106.375E-03    -327.486E-03     614.238E-03    -286.399E-03     103.453E-03
              77     13.5056E-03     188.734E-03    -406.243E+03     54.0532E+06     106.836E+06    -2.63654E+06    -328.355E-03     615.139E-03    -286.784E-03     104.005E-03    -328.725E-03     615.388E-03    -286.327E-03     101.855E-03
              78     13.5072E-03     190.474E-03    -3.62317E+06     38.9305E+06     108.848E+06    -3.82700E+06    -325.791E-03     612.612E-03    -286.821E-03     99.7645E-03    -326.113E-03     612.743E-03    -286.328E-03     98.2896E-03
              79     13.5070E-03     192.213E-03      -579.9E+03     26.1710E+06     116.557E+06    -1.62706E+06    -319.756E-03     606.703E-03    -286.947E-03     99.5818E-03    -320.062E-03     606.762E-03    -286.401E-03     98.0234E-03
              80     13.5098E-03     193.938E-03    -3.96205E+06     20.9150E+06     118.518E+06    -792.407E+03    -303.919E-03     591.175E-03    -287.255E-03     94.7918E-03    -304.219E-03     591.192E-03    -286.687E-03     93.5587E-03
              81     13.5095E-03     195.616E-03     4.35478E+06     28.1664E+06     118.512E+06     3.57437E+06    -269.143E-03     557.126E-03    -287.982E-03     84.7020E-03    -269.343E-03     557.103E-03    -287.437E-03     84.7370E-03
              82     13.5138E-03     197.218E-03     4.15889E+06     38.4680E+06     95.6264E+06    -2.04041E+06    -190.039E-03     480.056E-03    -290.017E-03     51.4734E-03    -190.172E-03     480.113E-03    -289.601E-03     51.9954E-03
              83     12.6585E-03     198.512E-03    -23.9968E+06    -11.6368E+06     66.9335E+06    -11.7918E+06    -141.551E-03     437.186E-03    -295.635E-03    -24.6116E-03    -141.714E-03     437.148E-03    -295.248E-03    -24.2845E-03
              84     11.8554E-03     198.333E-03    -17.8313E+06    -11.1142E+06     98.5073E+06    -3.39848E+06    -154.201E-03     457.471E-03    -303.270E-03    -111.011E-03    -154.484E-03     457.507E-03    -302.736E-03    -109.930E-03
              85     11.0895E-03     198.132E-03    -16.5123E+06     12.1290E+06     117.156E+06    -5.99330E+06    -164.135E-03     474.038E-03    -309.903E-03    -177.367E-03    -164.650E-03     474.305E-03    -309.311E-03    -175.525E-03
              86     10.3527E-03     197.933E-03    -12.1508E+06    -4.44297E+06     114.519E+06    -9.18536E+06    -175.850E-03     491.586E-03    -315.736E-03    -225.045E-03    -176.502E-03     491.919E-03    -315.139E-03    -222.625E-03
              87     9.63471E-03     197.740E-03    -9.02051E+06      13.768E+03     117.582E+06    -11.2839E+06    -189.944E-03     510.826E-03    -320.882E-03    -258.538E-03    -190.730E-03     511.271E-03    -320.281E-03    -255.719E-03
              88     8.93795E-03     197.551E-03    -7.84162E+06    -3.09769E+06     115.489E+06    -13.9598E+06    -205.128E-03     530.520E-03    -325.392E-03    -281.080E-03    -205.963E-03     530.968E-03    -324.799E-03    -278.178E-03
              89     8.25410E-03     197.380E-03    -6.05782E+06    -4.14899E+06     112.309E+06    -16.1372E+06    -221.553E-03     550.896E-03    -329.343E-03    -294.691E-03    -222.388E-03     551.327E-03    -328.767E-03    -291.797E-03
              90     7.58302E-03     197.218E-03    -3.74671E+06    -6.65014E+06     108.260E+06    -16.6300E+06    -239.299E-03     571.992E-03    -332.694E-03    -297.147E-03    -240.097E-03     572.352E-03    -332.137E-03    -294.317E-03
              91     6.92729E-03     197.066E-03    -756.354E+03    -6.40553E+06     103.685E+06    -16.6004E+06    -256.216E-03     591.672E-03    -335.456E-03    -292.470E-03    -256.973E-03     591.984E-03    -334.927E-03    -289.640E-03
              92     6.27682E-03     196.930E-03     1.96847E+06    -7.13841E+06     97.2455E+06    -16.7279E+06    -271.271E-03     609.058E-03    -337.787E-03    -282.681E-03    -271.938E-03     609.298E-03    -337.293E-03    -280.046E-03
              93     5.63325E-03     196.806E-03     3.87072E+06    -8.79349E+06     88.3624E+06    -17.0712E+06    -283.979E-03     623.799E-03    -339.820E-03    -267.335E-03    -284.515E-03     623.917E-03    -339.371E-03    -265.181E-03
              94     4.99390E-03     196.691E-03     7.78704E+06    -8.76565E+06     80.2735E+06    -16.7059E+06    -294.328E-03     636.067E-03    -341.738E-03    -249.726E-03    -294.765E-03     636.118E-03    -341.336E-03    -247.818E-03
              95     4.35577E-03     196.594E-03     11.9606E+06    -7.94084E+06     72.1800E+06    -16.3783E+06    -304.652E-03     648.268E-03    -343.615E-03    -229.871E-03    -305.012E-03     648.265E-03    -343.260E-03    -228.152E-03
              96     3.72381E-03     196.508E-03     15.7226E+06    -8.59477E+06     62.1719E+06    -15.7155E+06    -314.652E-03     660.015E-03    -345.363E-03    -206.840E-03    -314.934E-03     659.959E-03    -345.063E-03    -205.305E-03
              97     3.09348E-03     196.432E-03     21.8536E+06    -8.81487E+06     54.0415E+06    -17.7273E+06    -324.429E-03     671.330E-03    -346.901E-03    -181.210E-03    -324.549E-03     671.140E-03    -346.650E-03    -180.879E-03
              98     2.46844E-03     196.377E-03     22.8892E+06    -10.9585E+06     45.2674E+06    -17.8755E+06    -334.540E-03     682.523E-03    -347.983E-03    -152.618E-03    -334.581E-03     682.220E-03    -347.774E-03    -153.143E-03
              99     1.85145E-03     196.332E-03     24.8473E+06    -10.1117E+06     39.4600E+06    -13.7771E+06    -341.564E-03     690.091E-03    -348.527E-03    -119.368E-03    -341.625E-03     689.818E-03    -348.351E-03    -119.458E-03
             100     1.23231E-03     196.302E-03     29.9623E+06    -8.33204E+06     36.1063E+06    -10.9464E+06    -345.222E-03     694.066E-03    -348.844E-03    -81.1111E-03    -345.252E-03     693.819E-03    -348.695E-03    -81.2748E-03
             101     615.232E-06     196.276E-03     22.0758E+06    -19.8102E+06     18.1238E+06    -6.94096E+06    -344.888E-03     696.676E-03    -351.788E-03    -44.8229E-03    -344.938E-03     696.483E-03    -351.701E-03    -44.8367E-03
             102    -21.4074E-09     194.353E-03    -31.7011E+06    -37.9703E+06    -36.0548E+06    -3.03383E+06    -324.498E-03     653.450E-03    -328.952E-03    -14.9622E-03    -324.562E-03     653.364E-03    -329.031E-03    -14.8836E-03
             103     1.71697E-06     192.600E-03    -128.431E+06    -72.4856E+06    -123.198E+06    -6.77043E+06    -293.409E-03     583.982E-03    -290.573E-03    -1.49827E-03    -293.663E-03     584.006E-03    -290.897E-03    -1.34840E-03
             104     483.252E-09     190.962E-03    -229.606E+06    -135.548E+06    -226.867E+06    -10.5594E+06    -273.120E-03     545.972E-03    -272.852E-03    -233.078E-06    -273.685E-03     546.025E-03    -273.457E-03     495.814E-06
             105    -2.33530E-06     189.346E-03    -231.039E+06    -184.520E+06    -231.919E+06    -2.50648E+06    -265.323E-03     530.246E-03    -264.924E-03     948.588E-06    -265.788E-03     530.087E-03    -265.481E-03     2.07409E-03
             106     4.62558E-06     187.730E-03    -142.726E+06    -183.673E+06    -142.574E+06     3.16331E+06    -262.760E-03     524.868E-03    -262.108E-03     5.56710E-03    -262.859E-03     524.487E-03    -262.348E-03     6.27611E-03
             107    -6.23326E-06     186.141E-03    -107.520E+06    -174.910E+06    -106.823E+06     15.2473E+03    -261.206E-03     522.372E-03    -261.166E-03     4.64086E-03    -261.160E-03     521.982E-03    -261.290E-03     5.25976E-03
             108     7.63955E-06     184.539E-03    -112.485E+06    -180.755E+06    -112.856E+06    -1.84545E+06    -262.647E-03     523.501E-03    -260.853E-03     3.24652E-03    -262.565E-03     523.143E-03    -260.992E-03     3.89522E-03
             109    -6.86027E-06     182.948E-03    -125.861E+06    -196.030E+06    -125.114E+06    -2.78409E+06    -263.573E-03     527.591E-03    -264.018E-03     2.64397E-03    -263.463E-03     527.230E-03    -264.177E-03     3.21588E-03
             110     5.09604E-06     181.328E-03    -135.648E+06    -214.362E+06    -136.000E+06    -2.55451E+06    -267.357E-03     533.769E-03    -266.412E-03     4.43952E-03    -267.223E-03     533.372E-03    -266.585E-03     4.70534E-03
             111    -2.48831E-06     179.700E-03    -140.799E+06    -226.988E+06    -140.509E+06    -1.92126E+06    -268.128E-03     537.091E-03    -268.963E-03     8.42492E-03    -267.986E-03     536.647E-03    -269.133E-03     8.24797E-03
             112    -1.73858E-06     178.086E-03    -145.074E+06    -237.529E+06    -144.937E+06    -1.04950E+06    -270.568E-03     540.839E-03    -270.271E-03     5.22885E-03    -270.424E-03     540.341E-03    -270.441E-03     5.33416E-03
             113     5.90979E-06     176.451E-03    -146.812E+06    -244.576E+06    -147.971E+06    -1.25233E+06    -276.668E-03     548.827E-03    -272.159E-03     5.72857E-03    -276.534E-03     548.289E-03    -272.331E-03     5.76762E-03
             114    -4.33758E-06     174.808E-03    -148.591E+06    -250.775E+06    -147.816E+06    -789.118E+03    -278.949E-03     556.136E-03    -277.188E-03     4.19279E-03    -278.848E-03     555.550E-03    -277.348E-03     4.37068E-03
             115     4.80615E-06     173.143E-03    -146.407E+06    -254.665E+06    -147.486E+06    -653.789E+03    -280.846E-03     560.951E-03    -280.105E-03     2.14863E-03    -280.763E-03     560.316E-03    -280.261E-03     2.58072E-03
             116    -4.59234E-06     171.493E-03    -145.695E+06    -258.311E+06    -145.372E+06    -269.641E+03    -283.096E-03     566.068E-03    -282.972E-03     2.01223E-03    -283.040E-03     565.385E-03    -283.113E-03     2.46324E-03
             117     4.28136E-06     169.803E-03    -143.339E+06    -260.350E+06    -143.438E+06    -246.622E+03    -284.360E-03     570.007E-03    -285.647E-03     3.48468E-03    -284.334E-03     569.283E-03    -285.779E-03     3.79796E-03
             118    -5.93745E-06     168.132E-03    -140.913E+06    -260.725E+06    -140.649E+06     367.701E+03    -284.343E-03     571.174E-03    -286.831E-03     2.47486E-03    -284.339E-03     570.419E-03    -286.952E-03     2.92779E-03
             119     4.04811E-06     166.461E-03    -138.176E+06    -260.930E+06    -138.178E+06    -115.178E+03    -286.330E-03     574.219E-03    -287.889E-03     3.79656E-03    -286.325E-03     573.442E-03    -288.001E-03     4.09958E-03
             120    -4.44432E-06     164.752E-03    -135.519E+06    -260.221E+06    -135.506E+06     540.772E+03    -289.063E-03     575.722E-03    -286.659E-03     5.39944E-03    -289.039E-03     574.948E-03    -286.763E-03     5.50083E-03
             121     7.90194E-06     163.087E-03    -130.363E+06    -258.630E+06    -131.194E+06     231.033E+03    -288.523E-03     576.177E-03    -287.654E-03     8.56008E-03    -288.461E-03     575.431E-03    -287.746E-03     8.29611E-03
             122    -10.4114E-06     161.386E-03    -128.381E+06    -258.031E+06    -127.292E+06     296.844E+03    -288.222E-03     578.484E-03    -290.263E-03     7.83265E-03    -288.119E-03     577.765E-03    -290.339E-03     7.45670E-03
             123     9.93258E-06     159.695E-03    -123.887E+06    -255.404E+06    -125.061E+06     635.756E+03    -291.260E-03     578.474E-03    -287.214E-03     6.27447E-03    -291.110E-03     577.784E-03    -287.289E-03     5.94762E-03
             124    -4.29315E-06     158.018E-03    -121.765E+06    -252.834E+06    -122.149E+06     46.6495E+03    -290.553E-03     577.413E-03    -286.860E-03     3.25013E-03    -290.390E-03     576.748E-03    -286.928E-03     3.30489E-03
             125     3.29424E-06     156.335E-03    -120.777E+06    -250.266E+06    -120.264E+06     439.135E+03    -288.150E-03     577.625E-03    -289.475E-03    -1.11296E-03    -287.961E-03     576.974E-03    -289.538E-03    -479.506E-06
             126    -4.42389E-06     154.638E-03    -119.689E+06    -246.774E+06    -118.475E+06     91.5589E+03    -289.329E-03     578.635E-03    -289.306E-03     1.75590E-03    -289.117E-03     577.997E-03    -289.367E-03     2.07191E-03
             127     5.22214E-06     152.943E-03     -117.44E+06    -243.224E+06    -117.182E+06     660.744E+03    -290.617E-03     579.019E-03    -288.402E-03     4.10699E-03    -290.420E-03     578.378E-03    -288.464E-03     3.97932E-03
             128    -3.39220E-06     151.256E-03    -114.295E+06    -238.324E+06    -115.651E+06     175.977E+03    -287.831E-03     578.620E-03    -290.788E-03     4.29142E-03    -287.677E-03     577.962E-03    -290.855E-03     4.10574E-03
             129    -2.73616E-06     149.571E-03    -115.107E+06    -235.145E+06    -114.063E+06     475.206E+03    -287.914E-03     579.558E-03    -291.644E-03     666.768E-06    -287.806E-03     578.881E-03    -291.707E-03     1.00384E-03
             130     3.60691E-06     147.869E-03    -113.392E+06    -233.231E+06    -114.088E+06    -5.25512E+03    -290.714E-03     579.842E-03    -289.128E-03     2.54682E-03    -290.623E-03     579.158E-03    -289.196E-03     2.77711E-03
             131    -2.56189E-06     146.183E-03    -113.037E+06    -231.291E+06    -113.094E+06     686.414E+03    -289.568E-03     578.817E-03    -289.248E-03     2.20219E-03    -289.498E-03     578.134E-03    -289.315E-03     2.52219E-03
             132     1.75601E-06     144.496E-03    -111.425E+06    -227.995E+06    -111.768E+06     530.532E+03    -290.363E-03     579.464E-03    -289.100E-03    -603.511E-06    -290.296E-03     578.784E-03    -289.167E-03     11.7582E-06
             133     569.704E-09     142.801E-03    -109.545E+06    -224.872E+06    -109.620E+06     123.552E+03    -291.782E-03     581.238E-03    -289.455E-03     2.18403E-03    -291.711E-03     580.561E-03    -289.518E-03     2.43203E-03
             134     50.5029E-09     141.099E-03    -108.632E+06    -222.737E+06    -108.210E+06     426.731E+03    -291.545E-03     582.642E-03    -291.097E-03     5.41017E-03    -291.477E-03     581.975E-03    -291.158E-03     5.15819E-03
             135    -256.333E-09     139.399E-03    -106.550E+06    -219.698E+06    -106.795E+06     558.853E+03    -291.328E-03     581.671E-03    -290.343E-03     5.29176E-03    -291.251E-03     581.019E-03    -290.404E-03     5.01246E-03
             136     1.58765E-06     137.710E-03    -105.519E+06    -216.755E+06    -106.388E+06     587.224E+03    -290.011E-03     579.369E-03    -289.357E-03     3.93047E-03    -289.919E-03     578.734E-03    -289.422E-03     3.92187E-03
             137    -2.26020E-06     136.025E-03    -105.095E+06    -212.453E+06    -104.238E+06     319.639E+03    -289.147E-03     579.684E-03    -290.537E-03     1.72362E-03    -289.055E-03     579.069E-03    -290.598E-03     1.91669E-03
             138     853.178E-09     134.331E-03    -103.640E+06    -209.335E+06    -104.184E+06     178.755E+03    -291.007E-03     582.458E-03    -291.450E-03     1.43366E-03    -290.912E-03     581.857E-03    -291.517E-03     1.62142E-03
             139    -263.826E-09     132.626E-03    -101.590E+06    -206.717E+06    -101.613E+06     392.973E+03    -292.045E-03     583.259E-03    -291.214E-03     2.47636E-03    -291.929E-03     582.667E-03    -291.275E-03     2.58787E-03
             140     550.365E-09     130.932E-03    -101.456E+06    -205.752E+06    -101.590E+06    -55.7469E+03    -291.097E-03     582.570E-03    -291.473E-03     3.15853E-03    -290.960E-03     581.984E-03    -291.536E-03     3.26195E-03
             141    -1.61695E-06     129.235E-03    -101.126E+06    -203.930E+06    -100.839E+06     531.636E+03    -290.419E-03     583.241E-03    -292.823E-03     3.89715E-03    -290.286E-03     582.668E-03    -292.885E-03     3.81005E-03
             142    -819.409E-09     127.531E-03    -99.0376E+06    -199.614E+06    -98.8810E+06     580.594E+03    -290.932E-03     583.179E-03    -292.247E-03     4.50633E-03    -290.809E-03     582.618E-03    -292.308E-03     4.30984E-03
             143     1.22936E-06     125.834E-03    -98.5419E+06    -195.572E+06    -98.8660E+06     580.453E+03    -291.931E-03     583.383E-03    -291.452E-03     5.13462E-03    -291.823E-03     582.826E-03    -291.520E-03     4.97425E-03
             144    -1.24334E-06     124.143E-03    -97.7855E+06    -192.171E+06    -97.5886E+06     694.576E+03    -292.105E-03     584.804E-03    -292.699E-03     2.39834E-03    -292.021E-03     584.244E-03    -292.766E-03     2.41023E-03
             145     252.214E-09     122.434E-03    -97.1843E+06    -188.889E+06    -96.8879E+06     166.796E+03    -292.053E-03     585.289E-03    -293.236E-03     1.83670E-03    -291.987E-03     584.731E-03    -293.306E-03     1.85700E-03
             146    -1.03673E-06     120.737E-03    -95.9807E+06    -184.879E+06    -95.9780E+06     542.925E+03    -292.987E-03     585.836E-03    -292.849E-03     1.93203E-03    -292.921E-03     585.292E-03    -292.921E-03     2.10760E-03
             147     1.81727E-06     119.031E-03    -95.2264E+06    -181.224E+06    -96.0478E+06     413.809E+03    -293.196E-03     586.651E-03    -293.455E-03     1.67027E-03    -293.120E-03     586.124E-03    -293.534E-03     2.02549E-03
             148    -3.15452E-06     117.330E-03    -95.7385E+06    -178.081E+06    -96.0411E+06     546.390E+03    -293.587E-03     587.127E-03    -293.540E-03     515.830E-06    -293.506E-03     586.616E-03    -293.623E-03     911.004E-06
             149     4.33594E-06     115.621E-03    -88.9081E+06    -171.254E+06    -91.4834E+06     1.08544E+06    -293.419E-03     586.816E-03    -293.396E-03     1.14386E-03    -293.309E-03     586.326E-03    -293.477E-03     1.29464E-03
             150    -5.74096E-06     113.922E-03    -89.4642E+06    -169.740E+06    -90.2255E+06     332.296E+03    -292.391E-03     587.774E-03    -295.382E-03     1.31288E-03    -292.282E-03     587.297E-03    -295.458E-03     1.40532E-03
             151     2.88506E-06     112.213E-03    -95.2954E+06    -167.424E+06    -89.2749E+06     1.06275E+06    -293.883E-03     589.848E-03    -295.965E-03     388.394E-06    -293.804E-03     589.389E-03    -296.030E-03     689.872E-06
             152    -3.01703E-06     110.496E-03    -92.4760E+06    -162.670E+06    -91.5351E+06     1.00116E+06    -295.722E-03     590.479E-03    -294.757E-03     2.80599E-03    -295.631E-03     590.040E-03    -294.845E-03     2.98983E-03
             153     4.19721E-06     108.787E-03    -95.7653E+06    -163.524E+06    -96.5039E+06     640.293E+03    -296.404E-03     591.355E-03    -294.951E-03     5.94911E-03    -296.331E-03     590.925E-03    -295.057E-03     5.57791E-03
             154    -3.69479E-06     107.066E-03    -92.7336E+06    -155.176E+06    -91.7483E+06     528.545E+03    -295.406E-03     590.262E-03    -294.856E-03     5.04449E-03    -295.339E-03     589.850E-03    -294.956E-03     4.60778E-03
             155     3.69201E-06     105.369E-03    -87.0538E+06    -146.199E+06    -88.0565E+06     65.2969E+03    -295.534E-03     589.746E-03    -294.212E-03     3.03440E-03    -295.456E-03     589.346E-03    -294.314E-03     3.06557E-03
             156    -2.15000E-06     103.659E-03    -86.0241E+06    -144.632E+06    -86.6225E+06     2.43445E+06    -296.575E-03     591.723E-03    -295.148E-03    -182.373E-06    -296.509E-03     591.327E-03    -295.246E-03     350.147E-06
             157     2.29966E-06     101.946E-03    -85.0471E+06    -139.189E+06    -84.9003E+06    -659.535E+03    -295.678E-03     591.200E-03    -295.523E-03    -1.26694E-03    -295.621E-03     590.831E-03    -295.622E-03    -809.629E-06
             158    -2.45201E-06     100.232E-03    -88.9188E+06    -143.804E+06    -93.0294E+06     337.305E+03    -294.912E-03     591.744E-03    -296.832E-03     3.76526E-03    -294.851E-03     591.363E-03    -296.960E-03     3.63161E-03
             159    -84.1790E-09     96.8015E-03    -74.3833E+06    -116.563E+06    -70.6792E+06    -653.732E+03    -295.018E-03     589.679E-03    -294.660E-03     4.56681E-03    -294.961E-03     589.368E-03    -294.737E-03     4.54937E-03
             160     685.535E-09     95.0994E-03    -79.3516E+06    -124.938E+06    -77.6839E+06     391.918E+03    -295.082E-03     590.922E-03    -295.840E-03     3.96497E-03    -295.032E-03     590.599E-03    -295.932E-03     4.13128E-03
             161    -2.50095E-06     93.3782E-03    -84.9444E+06    -129.018E+06    -88.0216E+06       284.1E+03    -295.057E-03     591.190E-03    -296.133E-03     2.59362E-03    -295.017E-03     590.876E-03    -296.263E-03     2.54473E-03
             162     2.64493E-06     91.6730E-03    -83.6300E+06    -117.752E+06    -82.6832E+06     1.89280E+06    -295.650E-03     590.493E-03    -294.843E-03     2.61072E-03    -295.622E-03     590.219E-03    -294.964E-03     2.61673E-03
             163    -1.91188E-06     89.9617E-03    -79.3213E+06    -106.068E+06    -76.2914E+06     649.786E+03    -295.583E-03     590.972E-03    -295.389E-03     1.97398E-03    -295.552E-03     590.735E-03    -295.501E-03     2.00886E-03
             164     1.24508E-06     88.2491E-03    -78.6230E+06    -105.342E+06    -80.5820E+06    -2.34285E+06    -295.876E-03     591.610E-03    -295.734E-03     3.30341E-03    -295.831E-03     591.383E-03    -295.870E-03     3.09917E-03
             165    -638.660E-09     86.5274E-03    -82.2076E+06    -104.706E+06    -83.3147E+06     33.5067E+03    -294.636E-03     590.107E-03    -295.472E-03     4.40786E-03    -294.600E-03     589.899E-03    -295.617E-03     4.10686E-03
             166    -1.34384E-06     84.8298E-03    -82.0002E+06    -101.065E+06    -79.6878E+06     4.24980E+06    -293.690E-03     588.652E-03    -294.963E-03     1.21935E-03    -293.667E-03     588.463E-03    -295.096E-03     1.43185E-03
             167     1.40533E-06     83.1238E-03    -79.2809E+06    -99.2332E+06    -81.4431E+06    -350.589E+03    -295.306E-03     589.846E-03    -294.540E-03     564.411E-06    -295.286E-03     589.662E-03    -294.689E-03     797.183E-06
             168    -668.880E-09     81.4030E-03    -72.1501E+06    -86.6058E+06    -74.4145E+06    -672.783E+03    -295.571E-03     591.060E-03    -295.490E-03     4.16512E-03    -295.554E-03     590.898E-03    -295.632E-03     4.07057E-03
             169    -183.028E-09     79.6906E-03    -76.2284E+06    -85.0604E+06    -74.7735E+06     1.57647E+06    -295.288E-03     591.156E-03    -295.868E-03     4.77900E-03    -295.297E-03     590.985E-03    -296.008E-03     4.66931E-03
             170     68.0765E-09     77.9804E-03    -76.1201E+06    -84.5385E+06    -75.0592E+06     1.21663E+06    -294.961E-03     590.206E-03    -295.245E-03     3.37801E-03    -294.981E-03     590.028E-03    -295.387E-03     3.28777E-03
             171    -504.631E-09     76.2736E-03    -70.8239E+06    -77.5861E+06    -70.7563E+06    -322.996E+03    -294.771E-03     590.652E-03    -295.880E-03     3.48998E-03    -294.797E-03     590.503E-03    -296.019E-03     3.29295E-03
             172    -702.136E-09     74.5586E-03    -83.8468E+06    -90.1809E+06    -82.3530E+06    -2.35040E+06    -295.137E-03     591.697E-03    -296.560E-03     3.69162E-03    -295.195E-03     591.532E-03    -296.720E-03     3.46302E-03
             173    -137.770E-09     72.8403E-03    -76.3460E+06    -83.4277E+06    -75.4563E+06     747.197E+03    -295.728E-03     591.271E-03    -295.542E-03     3.92644E-03    -295.761E-03     591.113E-03    -295.688E-03     3.89900E-03
             174     1.06744E-06     71.1358E-03    -61.1747E+06    -69.7897E+06    -61.8882E+06     1.54742E+06    -295.939E-03     591.769E-03    -295.830E-03     3.59661E-03    -295.934E-03     591.630E-03    -295.950E-03     3.61206E-03
             175    -2.02670E-06     69.4195E-03    -73.0446E+06    -80.4794E+06    -71.8925E+06    -1.45870E+06    -295.812E-03     591.755E-03    -295.943E-03     1.90932E-03    -295.842E-03     591.596E-03    -296.080E-03     1.70296E-03
             176     2.66912E-06     67.7043E-03    -71.9905E+06    -81.4185E+06    -73.1478E+06    -140.483E+03    -295.453E-03     590.605E-03    -295.151E-03     4.37995E-03    -295.479E-03     590.446E-03    -295.295E-03     4.09119E-03
             177    -3.07730E-06     65.9935E-03    -73.5762E+06    -84.1307E+06    -75.3716E+06    -277.855E+03    -295.265E-03     590.766E-03    -295.501E-03     3.47418E-03    -295.293E-03     590.600E-03    -295.649E-03     3.51684E-03
             178     2.99644E-06     64.2880E-03    -69.4696E+06    -79.2840E+06    -68.5134E+06     429.417E+03    -295.909E-03     591.445E-03    -295.536E-03     648.023E-06    -295.934E-03     591.285E-03    -295.663E-03     871.167E-06
             179    -2.55086E-06     62.5722E-03    -65.8101E+06    -76.0531E+06    -65.2311E+06    -471.818E+03    -294.955E-03     590.816E-03    -295.861E-03     2.18168E-03    -294.972E-03     590.655E-03    -295.982E-03     2.19207E-03
             180     751.485E-09     60.8539E-03    -66.0038E+06    -78.1515E+06    -70.1316E+06     104.675E+03    -294.902E-03     591.005E-03    -296.103E-03     4.61171E-03    -294.914E-03     590.829E-03    -296.245E-03     4.50030E-03
             181    -747.273E-09     59.1477E-03    -72.4288E+06    -81.3557E+06    -70.3091E+06     103.410E+03    -296.552E-03     592.837E-03    -296.286E-03     4.00538E-03    -296.596E-03     592.646E-03    -296.415E-03     3.82942E-03
             182     973.912E-09     57.4284E-03    -70.2379E+06    -79.8244E+06    -68.2644E+06     1.06849E+06    -296.783E-03     592.713E-03    -295.930E-03     2.25478E-03    -296.825E-03     592.522E-03    -296.054E-03     2.25728E-03
             183    -172.216E-09     55.7149E-03    -65.3797E+06    -74.7527E+06    -64.3539E+06     881.663E+03    -295.655E-03     591.041E-03    -295.387E-03     2.86893E-03    -295.689E-03     590.861E-03    -295.505E-03     2.92494E-03
             184    -389.910E-09     54.0067E-03    -64.6044E+06    -74.1350E+06    -64.7216E+06     62.0772E+03    -295.843E-03     591.783E-03    -295.940E-03     2.96387E-03    -295.875E-03     591.602E-03    -296.062E-03     2.86036E-03
             185     695.426E-09     52.2893E-03    -60.9934E+06    -72.5802E+06    -61.2500E+06    -2.16837E+06    -296.861E-03     593.084E-03    -296.223E-03     2.99568E-03    -296.879E-03     592.898E-03    -296.336E-03     2.80797E-03
             186    -278.187E-09     50.5709E-03    -62.2601E+06    -74.8715E+06    -63.5702E+06      35.888E+03    -296.150E-03     592.390E-03    -296.240E-03     3.54937E-03    -296.163E-03     592.201E-03    -296.359E-03     3.54588E-03
             187    -409.997E-09     48.8614E-03    -61.0044E+06    -71.1172E+06    -59.7569E+06     2.41006E+06    -296.195E-03     593.118E-03    -296.923E-03     4.70817E-03    -296.209E-03     592.948E-03    -297.030E-03     4.66369E-03
             188    -14.1005E-09     47.1366E-03    -61.6176E+06    -72.5340E+06    -63.2600E+06    -1.39131E+06    -296.753E-03     593.482E-03    -296.730E-03     4.23192E-03    -296.758E-03     593.316E-03    -296.852E-03     3.85200E-03
             189     303.409E-09     45.4291E-03    -66.1398E+06    -75.6967E+06    -65.2303E+06     577.760E+03    -296.386E-03     592.550E-03    -296.163E-03     4.24365E-03    -296.401E-03     592.379E-03    -296.283E-03     4.05446E-03
             190    -445.534E-09     43.7093E-03    -63.4666E+06    -73.2191E+06    -63.1260E+06    -460.020E+03    -296.391E-03     592.706E-03    -296.315E-03     3.62593E-03    -296.397E-03     592.546E-03    -296.433E-03     3.54525E-03
             191     531.571E-09     41.9993E-03    -63.2417E+06    -72.9354E+06    -63.4214E+06     36.7340E+03    -296.925E-03     593.327E-03    -296.402E-03     3.12207E-03    -296.934E-03     593.170E-03    -296.522E-03     3.01902E-03
             192    -70.8895E-09     40.2801E-03    -60.9543E+06    -72.1878E+06    -63.0038E+06    -888.722E+03    -296.811E-03     593.784E-03    -296.972E-03     2.55336E-03    -296.813E-03     593.619E-03    -297.094E-03     2.54108E-03
             193    -770.097E-09     38.5653E-03    -58.4589E+06    -69.2859E+06    -59.8081E+06     790.757E+03    -296.302E-03     593.299E-03    -296.997E-03     2.35498E-03    -296.295E-03     593.129E-03    -297.111E-03     2.50851E-03
             194     515.264E-09     36.8452E-03    -62.2524E+06    -70.2505E+06    -58.6234E+06     681.175E+03    -296.980E-03     594.389E-03    -297.408E-03     4.27042E-03    -296.989E-03     594.207E-03    -297.509E-03     4.18124E-03
             195    -967.133E-09     35.1307E-03    -60.2867E+06    -71.2595E+06    -60.6764E+06    -648.879E+03    -298.122E-03     596.251E-03    -298.129E-03     3.74260E-03    -298.118E-03     596.059E-03    -298.241E-03     3.48270E-03
             196     1.24748E-06     33.4008E-03    -55.1126E+06    -65.4402E+06    -54.6178E+06     1.37206E+06    -298.970E-03     596.837E-03    -297.867E-03     4.42848E-03    -298.960E-03     596.662E-03    -297.966E-03     4.36553E-03
             197    -212.855E-09     31.6843E-03    -54.3361E+06    -63.8639E+06    -54.5746E+06    -1.26978E+06    -299.264E-03     597.320E-03    -298.056E-03     4.59500E-03    -299.258E-03     597.164E-03    -298.157E-03     4.16307E-03
             198     635.049E-09     29.9591E-03    -62.7405E+06    -72.2498E+06    -62.5966E+06    -419.611E+03    -299.838E-03     599.690E-03    -299.852E-03     4.15567E-03    -299.850E-03     599.520E-03    -299.969E-03     3.90608E-03
             199    -1.22045E-06     28.2331E-03    -60.5713E+06    -71.6674E+06    -61.9934E+06     173.763E+03    -301.036E-03     602.823E-03    -301.786E-03     3.06993E-03    -301.032E-03     602.641E-03    -301.905E-03     2.95835E-03
             200     643.097E-09     26.4915E-03    -47.9308E+06    -58.9878E+06    -49.5125E+06     1.31740E+06    -300.958E-03     602.346E-03    -301.388E-03     3.24895E-03    -300.919E-03     602.184E-03    -301.481E-03     3.13019E-03
             201    -821.811E-09     24.7648E-03    -48.1662E+06    -57.7165E+06    -47.4569E+06     425.595E+03    -300.446E-03     601.041E-03    -300.595E-03     4.92291E-03    -300.415E-03     600.896E-03    -300.679E-03     4.98395E-03
             202     631.463E-09     23.0334E-03    -59.0913E+06    -68.2548E+06    -57.5725E+06    -507.473E+03    -299.714E-03     599.924E-03    -300.211E-03     3.16494E-03    -299.716E-03     599.779E-03    -300.314E-03     3.14459E-03
             203    -1.24587E-06     21.3150E-03    -55.3623E+06    -66.5112E+06    -58.6916E+06     1.01235E+06    -298.918E-03     598.250E-03    -299.332E-03     2.61110E-03    -298.905E-03     598.107E-03    -299.448E-03     2.48111E-03
             204     1.13144E-06     19.5834E-03    -52.2862E+06    -62.1276E+06    -52.1883E+06    -716.879E+03    -297.578E-03     594.934E-03    -297.356E-03     2.58407E-03    -297.556E-03     594.770E-03    -297.451E-03     2.33586E-03
             205    -876.919E-09     17.8724E-03    -56.4879E+06    -65.5769E+06    -52.2772E+06    -825.033E+03    -294.237E-03     588.157E-03    -293.920E-03     2.77840E-03    -294.215E-03     587.957E-03    -294.004E-03     2.61864E-03
             206     904.864E-09     16.1704E-03    -59.7483E+06    -72.6923E+06    -59.7677E+06    -455.075E+03    -290.381E-03     580.892E-03    -290.511E-03     2.64428E-03    -290.354E-03     580.676E-03    -290.618E-03     2.56822E-03
             207    -1.29050E-06     14.4837E-03    -54.0242E+06    -70.3602E+06    -54.9570E+06     1.24480E+06    -285.431E-03     572.151E-03    -286.720E-03     1.00144E-03    -285.402E-03     571.944E-03    -286.814E-03     864.250E-06
             208    -229.730E-09     12.8130E-03    -51.6360E+06    -68.9692E+06    -52.1907E+06    -502.613E+03    -279.682E-03     559.654E-03    -279.972E-03    -1.00804E-03    -279.655E-03     559.439E-03    -280.059E-03    -1.33175E-03
             209     1.22675E-06     11.1651E-03    -45.8807E+06    -62.6021E+06    -45.1786E+06     1.05968E+06    -274.638E-03     547.150E-03    -272.512E-03    -496.555E-06    -274.584E-03     546.924E-03    -272.581E-03    -613.134E-06
             210     531.891E-09     9.53865E-03    -38.8671E+06    -57.8419E+06    -39.1294E+06     1.10556E+06    -268.147E-03     536.141E-03    -267.993E-03     66.8574E-06    -268.044E-03     535.894E-03    -268.049E-03    -94.5723E-06
             211    -2.30145E-06     7.92264E-03    -37.8822E+06    -57.8639E+06    -38.1557E+06    -1.58631E+06    -262.079E-03     525.090E-03    -263.011E-03    -933.217E-06    -261.947E-03     524.834E-03    -263.063E-03    -1.25396E-03
             212     2.54148E-06     6.33484E-03     -34.597E+06    -53.3649E+06    -32.0684E+06    -1.32523E+06    -258.920E-03     517.503E-03    -258.582E-03     497.345E-06    -258.770E-03     517.293E-03    -258.615E-03     238.294E-06
             213    -2.56348E-06     4.74344E-03    -37.7917E+06    -58.3597E+06    -37.5707E+06     1.48179E+06    -256.932E-03     513.807E-03    -256.876E-03     464.474E-06    -256.760E-03     513.642E-03    -256.924E-03     391.366E-06
             214     2.35852E-06     3.16360E-03    -35.0338E+06    -56.7028E+06    -36.6930E+06     1.26532E+06    -255.626E-03     512.089E-03    -256.463E-03     1.04840E-03    -255.401E-03     511.941E-03    -256.513E-03     959.430E-06
             215    -3.70107E-06     1.58213E-03    -36.0567E+06    -55.2217E+06    -35.5171E+06    -1.29367E+06    -256.234E-03     511.986E-03    -255.752E-03    -384.902E-06    -255.964E-03     511.796E-03    -255.798E-03    -514.344E-06
             216     696.894E-06    -1.34615E-15    -38.4794E+06    -54.6962E+06    -35.6137E+06    -2.27804E+06    -256.894E-03     512.284E-03    -255.390E-03    -1.63987E-03    -256.730E-03     512.048E-03    -255.433E-03    -1.69071E-03
             217     1.39304E-03    -1.34615E-15    -35.8711E+06    -50.7778E+06    -31.7879E+06    -774.812E+03    -256.779E-03     512.962E-03    -256.184E-03     872.566E-06    -256.758E-03     512.741E-03    -256.217E-03     787.863E-06
             218     2.08895E-03    -1.34615E-15    -34.8817E+06    -49.4208E+06    -30.7456E+06     442.830E+03    -257.551E-03     514.045E-03    -256.494E-03     842.571E-06    -257.567E-03     513.855E-03    -256.526E-03     740.106E-06
             219     2.78492E-03    -1.34615E-15    -32.8923E+06    -46.3545E+06    -26.8939E+06    -2.08257E+06    -258.872E-03     515.796E-03    -256.924E-03     642.585E-06    -258.901E-03     515.622E-03    -256.943E-03     443.859E-06
             220     3.47898E-03    -1.34615E-15    -29.7884E+06    -41.4136E+06    -20.7349E+06    -1.43941E+06    -260.860E-03     518.383E-03    -257.523E-03     1.18197E-03    -260.891E-03     518.222E-03    -257.524E-03     952.184E-06
             221     4.17076E-03    -1.34615E-15    -27.6647E+06    -37.3888E+06    -15.1703E+06     168.194E+03    -263.089E-03     521.372E-03    -258.283E-03     1.68967E-03    -263.130E-03     521.227E-03    -258.264E-03     1.44224E-03
             222     4.86261E-03    -1.34615E-15    -25.7667E+06    -34.2371E+06    -11.2718E+06    -338.844E+03    -265.694E-03     524.864E-03    -259.169E-03     1.88665E-03    -265.742E-03     524.732E-03    -259.139E-03     1.56891E-03
             223     5.55108E-03    -1.34615E-15    -22.9305E+06    -25.0869E+06    -6.95690E+06    -340.313E+03    -268.762E-03     528.945E-03    -260.183E-03     2.19992E-03    -268.817E-03     528.850E-03    -260.148E-03     1.80320E-03
             224     6.23788E-03    -1.34615E-15    -20.9390E+06    -15.5675E+06    -950.480E+03     824.192E+03    -272.274E-03     533.619E-03    -261.346E-03     2.09496E-03    -272.341E-03     533.560E-03    -261.297E-03     1.71397E-03
             225     6.92311E-03    -1.34615E-15    -18.8886E+06    -10.6118E+06     6.22121E+06    -1.38617E+06    -277.113E-03     539.816E-03    -262.704E-03     1.98817E-03    -277.187E-03     539.769E-03    -262.630E-03     1.47705E-03
             226     7.60297E-03    -1.34615E-15    -15.4632E+06    -4.58387E+06     13.7863E+06    -609.349E+03    -282.967E-03     547.266E-03    -264.299E-03     2.39146E-03    -283.047E-03     547.236E-03    -264.201E-03     1.60113E-03
             227     8.27865E-03    -1.34615E-15    -13.3946E+06    -174.024E+03     19.2051E+06     588.314E+03    -289.022E-03     555.139E-03    -266.117E-03     1.53625E-03    -289.109E-03     555.123E-03    -266.001E-03     591.411E-06
             228     8.95364E-03    -1.34615E-15    -11.8386E+06     3.41289E+06     22.7921E+06     1.37543E+06    -297.332E-03     565.525E-03    -268.193E-03    -799.359E-06    -297.421E-03     565.520E-03    -268.067E-03    -1.54079E-03
             229     9.61957E-03    -1.34615E-15    -10.3888E+06     7.15993E+06     25.2923E+06     2.70445E+06    -310.520E-03     581.234E-03    -270.714E-03    -229.530E-06    -310.608E-03     581.241E-03    -270.582E-03    -1.09368E-03
             230     10.2727E-03    -1.34615E-15    -9.59472E+06     10.1637E+06     26.1291E+06     1.18548E+06    -325.325E-03     599.122E-03    -273.797E-03     112.778E-06    -325.416E-03     599.144E-03    -273.667E-03    -1.42192E-03
             231     10.9191E-03    -1.34615E-15    -9.61279E+06     12.4238E+06     25.9751E+06     1.82812E+06    -341.313E-03     618.730E-03    -277.417E-03    -39.5771E-06    -341.409E-03     618.768E-03    -277.291E-03    -1.39362E-03
             232     11.5555E-03    -1.34615E-15    -8.95113E+06     15.8643E+06     26.6548E+06    -657.567E+03    -366.252E-03     647.998E-03    -281.746E-03     5.02052E-03    -366.361E-03     648.068E-03    -281.623E-03     2.93841E-03
             233     12.1663E-03    -1.34615E-15    -6.00176E+06     21.8957E+06     28.9677E+06    -2.25915E+06    -403.443E-03     690.625E-03    -287.182E-03     17.1153E-03    -403.591E-03     690.770E-03    -287.060E-03     13.0407E-03
             234     12.7508E-03    -1.34615E-15    -1.83643E+06     29.8688E+06     32.8690E+06    -301.651E+03    -460.133E-03     754.340E-03    -294.207E-03     66.9475E-03    -460.561E-03     754.804E-03    -294.083E-03     58.8090E-03
             235     13.3432E-03     2.20231E-03    -1.42299E+06     32.7383E+06     32.6022E+06    -2.41524E+06    -447.664E-03     744.705E-03    -297.041E-03     114.506E-03    -448.324E-03     745.391E-03    -296.924E-03     104.695E-03
             236     13.3765E-03     4.08329E-03    -1.72598E+06     31.3512E+06     33.1087E+06    -2.76505E+06    -380.984E-03     676.408E-03    -295.424E-03     111.117E-03    -381.560E-03     676.984E-03    -295.302E-03     103.570E-03
             237     13.3908E-03     5.89640E-03    -277.855E+03     29.6146E+06     37.2570E+06    -721.872E+03    -352.989E-03     647.807E-03    -294.819E-03     93.7859E-03    -353.475E-03     648.288E-03    -294.675E-03     86.9369E-03
             238     13.3943E-03     7.68537E-03    -526.000E+03     26.9599E+06     39.5766E+06    -394.972E+03    -336.018E-03     630.808E-03    -294.790E-03     84.2045E-03    -336.455E-03     631.224E-03    -294.630E-03     77.7391E-03
             239     13.3959E-03     9.44646E-03    -1.52076E+06     24.3040E+06     39.8354E+06    -412.657E+03    -322.061E-03     617.050E-03    -294.990E-03     82.9662E-03    -322.472E-03     617.427E-03    -294.824E-03     76.9989E-03
             240     13.3971E-03     11.1839E-03    -1.49840E+06     22.7967E+06     40.1400E+06    -128.226E+03    -312.111E-03     607.286E-03    -295.175E-03     81.4201E-03    -312.494E-03     607.628E-03    -295.005E-03     75.9354E-03
             241     13.3966E-03     12.9127E-03    -987.658E+03     22.4725E+06     41.9360E+06    -358.656E+03    -304.925E-03     600.290E-03    -295.365E-03     79.1578E-03    -305.285E-03     600.605E-03    -295.186E-03     73.9730E-03
             242     13.3961E-03     14.6277E-03    -1.16661E+06     21.7899E+06     42.7931E+06    -377.022E+03    -299.111E-03     594.657E-03    -295.546E-03     78.4411E-03    -299.457E-03     594.953E-03    -295.362E-03     73.4911E-03
             243     13.3960E-03     16.3372E-03    -1.29262E+06     21.5515E+06     43.5987E+06     263.749E+03    -295.510E-03     591.197E-03    -295.688E-03     77.2662E-03    -295.838E-03     591.472E-03    -295.499E-03     72.6050E-03
             244     13.3943E-03     18.0418E-03    -825.965E+03     21.8217E+06     44.5319E+06    -2.76923E+03    -293.681E-03     589.497E-03    -295.816E-03     76.0256E-03    -294.002E-03     589.765E-03    -295.624E-03     71.4217E-03
             245     13.3937E-03     19.7466E-03    -832.461E+03     21.6157E+06     44.7690E+06     53.0291E+03    -291.844E-03     587.761E-03    -295.918E-03     76.4002E-03    -292.162E-03     588.024E-03    -295.724E-03     71.9103E-03
             246     13.3940E-03     21.4468E-03    -1.67644E+06     21.0040E+06     44.9967E+06     236.757E+03    -290.911E-03     586.870E-03    -295.960E-03     76.2647E-03    -291.220E-03     587.118E-03    -295.763E-03     71.9926E-03
             247     13.3933E-03     23.1460E-03    -739.685E+03     21.6932E+06     45.0321E+06    -389.887E+03    -291.382E-03     587.298E-03    -295.916E-03     75.1081E-03    -291.670E-03     587.531E-03    -295.721E-03     71.0426E-03
             248     13.3959E-03     24.8463E-03    -962.562E+03     21.1326E+06     43.0844E+06     150.305E+03    -291.319E-03     587.108E-03    -295.788E-03     74.8696E-03    -291.593E-03     587.328E-03    -295.602E-03     71.0082E-03
             249     13.3977E-03     26.5522E-03    -1.38909E+06     21.3782E+06     43.9538E+06     333.874E+03    -291.682E-03     587.393E-03    -295.711E-03     73.8396E-03    -291.966E-03     587.621E-03    -295.520E-03     69.8112E-03
             250     13.3951E-03     28.2536E-03    -1.12788E+06     22.3660E+06     46.3811E+06    -207.867E+03    -293.178E-03     588.911E-03    -295.733E-03     74.5479E-03    -293.485E-03     589.159E-03    -295.532E-03     70.1889E-03
             251     13.3959E-03     29.9651E-03    -1.11538E+06     22.6022E+06     46.6067E+06    -140.619E+03    -293.551E-03     589.288E-03    -295.737E-03     77.3377E-03    -293.875E-03     589.553E-03    -295.535E-03     72.8166E-03
             252     13.3965E-03     31.6673E-03    -958.383E+03     22.9091E+06     46.0171E+06     45.1253E+03    -293.652E-03     589.325E-03    -295.673E-03     79.1618E-03    -293.989E-03     589.607E-03    -295.475E-03     74.5119E-03
             253     13.3976E-03     33.3765E-03    -1.64645E+06     22.4474E+06     45.7923E+06     111.034E+03    -294.578E-03     590.192E-03    -295.614E-03     78.9658E-03    -294.919E-03     590.474E-03    -295.415E-03     74.2942E-03
             254     13.3967E-03     35.0837E-03    -1.46401E+06     23.0590E+06     47.2020E+06    -58.1197E+03    -295.312E-03     590.909E-03    -295.598E-03     78.2602E-03    -295.657E-03     591.194E-03    -295.393E-03     73.5330E-03
             255     13.3975E-03     36.7890E-03    -1.08572E+06     24.0724E+06     48.7342E+06     328.112E+03    -295.926E-03     591.512E-03    -295.586E-03     75.7749E-03    -296.248E-03     591.775E-03    -295.376E-03     71.3534E-03
             256     13.3966E-03     38.4981E-03    -1.21290E+06     24.4204E+06     49.5507E+06     76.6434E+03    -296.744E-03     592.342E-03    -295.598E-03     74.4663E-03    -297.058E-03     592.595E-03    -295.384E-03     70.1571E-03
             257     13.3960E-03     40.2147E-03    -1.09540E+06     24.0890E+06     49.0408E+06    -13.7570E+03    -296.306E-03     591.958E-03    -295.652E-03     75.9384E-03    -296.634E-03     592.226E-03    -295.440E-03     71.4435E-03
             258     13.3960E-03     41.9206E-03    -1.67927E+06     24.1475E+06     48.4878E+06     74.5509E+03    -295.369E-03     591.050E-03    -295.681E-03     76.4835E-03    -295.701E-03     591.321E-03    -295.471E-03     72.0189E-03
             259     13.3963E-03     43.6262E-03    -1.50300E+06     24.3087E+06     49.1837E+06    -87.9203E+03    -295.790E-03     591.446E-03    -295.656E-03     74.4234E-03    -296.100E-03     591.695E-03    -295.443E-03     70.2579E-03
             260     13.3964E-03     45.3370E-03    -565.425E+03     25.2427E+06     50.5068E+06     183.309E+03    -296.428E-03     592.066E-03    -295.639E-03     73.0445E-03    -296.729E-03     592.309E-03    -295.422E-03     68.9616E-03
             261     13.3960E-03     47.0481E-03    -1.18355E+06     26.0224E+06     51.7000E+06    -29.6272E+03    -296.427E-03     592.072E-03    -295.646E-03     72.7912E-03    -296.734E-03     592.318E-03    -295.423E-03     68.6973E-03
             262     13.3965E-03     48.7566E-03    -1.65973E+06     25.6065E+06     51.2099E+06     9.71958E+03    -296.431E-03     592.038E-03    -295.607E-03     73.6263E-03    -296.733E-03     592.277E-03    -295.386E-03     69.6909E-03
             263     13.3979E-03     50.4701E-03    -1.51359E+06     25.8567E+06     50.7648E+06     376.136E+03    -297.455E-03     593.015E-03    -295.560E-03     75.2164E-03    -297.777E-03     593.276E-03    -295.341E-03     70.9830E-03
             264     13.3957E-03     52.1889E-03    -942.562E+03     26.8789E+06     52.5275E+06    -278.718E+03    -297.275E-03     592.875E-03    -295.600E-03     76.8598E-03    -297.631E-03     593.171E-03    -295.375E-03     72.1581E-03
             265     13.3973E-03     53.8946E-03    -1.11881E+06     26.9397E+06     52.9786E+06     231.849E+03    -295.556E-03     591.158E-03    -295.601E-03     79.4498E-03    -295.916E-03     591.455E-03    -295.374E-03     74.8679E-03
             266     13.3989E-03     55.6041E-03    -1.82829E+06     26.7408E+06     53.4588E+06     542.835E+03    -296.336E-03     591.865E-03    -295.530E-03     79.1383E-03    -296.695E-03     592.158E-03    -295.299E-03     74.6078E-03
             267     13.3970E-03     57.3165E-03    -846.386E+03     27.8377E+06     54.8020E+06    -471.600E+03    -297.589E-03     593.104E-03    -295.515E-03     78.4147E-03    -297.962E-03     593.414E-03    -295.280E-03     73.5768E-03
             268     13.3983E-03     59.0283E-03    -1.49790E+06     26.4639E+06     52.3441E+06    -82.4501E+03    -296.444E-03     591.958E-03    -295.515E-03     78.8109E-03    -296.808E-03     592.260E-03    -295.289E-03     74.0881E-03
             269     13.3987E-03     60.7344E-03    -1.75380E+06     26.6994E+06     53.6188E+06     319.672E+03    -296.545E-03     592.048E-03    -295.502E-03     78.0937E-03    -296.905E-03     592.340E-03    -295.271E-03     73.4700E-03
             270     13.3975E-03     62.4481E-03    -1.44991E+06     28.0302E+06     57.2405E+06    -149.016E+03    -297.532E-03     593.061E-03    -295.529E-03     76.8386E-03    -297.895E-03     593.352E-03    -295.281E-03     72.1471E-03
             271     13.3976E-03     64.1581E-03    -2.29747E+06     27.2296E+06     57.0151E+06    -314.928E+03    -297.402E-03     592.964E-03    -295.562E-03     77.1785E-03    -297.763E-03     593.248E-03    -295.313E-03     72.5873E-03
             272     13.3971E-03     65.8718E-03    -1.43564E+06     27.5822E+06     56.8121E+06     361.409E+03    -297.165E-03     592.729E-03    -295.564E-03     78.4621E-03    -297.529E-03     593.022E-03    -295.318E-03     73.8338E-03
             273     13.3981E-03     67.5829E-03    -1.08488E+06     29.1278E+06     57.7162E+06     235.663E+03    -297.042E-03     592.580E-03    -295.538E-03     78.6944E-03    -297.411E-03     592.881E-03    -295.290E-03     73.9923E-03
             274     13.3983E-03     69.2900E-03    -1.03066E+06     30.6245E+06     58.8175E+06     274.246E+03    -297.171E-03     592.693E-03    -295.522E-03     75.1842E-03    -297.513E-03     592.970E-03    -295.271E-03     70.8348E-03
             275     13.3975E-03     71.0015E-03    -888.147E+03     30.4383E+06     58.8433E+06    -155.353E+03    -297.091E-03     592.667E-03    -295.577E-03     71.7308E-03    -297.410E-03     592.921E-03    -295.325E-03     67.6104E-03
             276     13.3959E-03     72.7113E-03    -1.40799E+06     29.9042E+06     59.0991E+06     43.9821E+03    -297.357E-03     592.936E-03    -295.579E-03     74.0122E-03    -297.679E-03     593.187E-03    -295.325E-03     69.9839E-03
             277     13.3998E-03     74.4245E-03    -1.74463E+06     30.0684E+06     59.9799E+06     746.275E+03    -297.182E-03     592.671E-03    -295.489E-03     74.6343E-03    -297.509E-03     592.925E-03    -295.230E-03     70.5858E-03
             278     13.3988E-03     76.1390E-03    -1.15226E+06     31.1765E+06     61.4038E+06    -333.106E+03    -297.287E-03     592.766E-03    -295.479E-03     74.8322E-03    -297.631E-03     593.038E-03    -295.215E-03     70.5188E-03
             279     13.3975E-03     77.8515E-03    -1.64565E+06     30.9162E+06     61.7677E+06    -625.505E+03    -297.882E-03     593.405E-03    -295.523E-03     76.0860E-03    -298.237E-03     593.685E-03    -295.257E-03     71.6857E-03
             280     13.3982E-03     79.5628E-03    -2.11912E+06     30.4575E+06     61.7086E+06     770.670E+03    -297.240E-03     592.812E-03    -295.572E-03     74.4274E-03    -297.588E-03     593.082E-03    -295.305E-03     70.1386E-03
             281     13.3963E-03     81.2727E-03    -908.702E+03     33.1324E+06     66.1949E+06     498.027E+03    -297.442E-03     593.096E-03    -295.654E-03     72.8584E-03    -297.783E-03     593.360E-03    -295.370E-03     68.6724E-03
             282     13.3956E-03     82.9837E-03    -1.11520E+06     32.8139E+06     65.9352E+06    -151.888E+03    -296.993E-03     592.659E-03    -295.666E-03     73.0923E-03    -297.323E-03     592.910E-03    -295.382E-03     69.0976E-03
             283     13.3989E-03     84.6951E-03    -1.84634E+06     30.5916E+06     61.7770E+06    -535.463E+03    -295.799E-03     591.331E-03    -295.532E-03     76.5043E-03    -296.140E-03     591.595E-03    -295.265E-03     72.3670E-03
             284     13.4010E-03     86.4056E-03    -1.94835E+06     32.2966E+06     64.2064E+06     729.826E+03    -297.364E-03     592.794E-03    -295.430E-03     76.2189E-03    -297.719E-03     593.071E-03    -295.153E-03     71.9352E-03
             285     13.3973E-03     88.1245E-03    -1.69881E+06     34.9200E+06     70.6976E+06     1.30225E+06    -299.283E-03     594.847E-03    -295.564E-03     73.3674E-03    -299.644E-03     595.121E-03    -295.258E-03     69.0547E-03
             286     13.3943E-03     89.8352E-03    -667.664E+03     35.7879E+06     72.6557E+06     979.411E+03    -298.222E-03     593.931E-03    -295.709E-03     75.6924E-03    -298.595E-03     594.218E-03    -295.397E-03     71.2457E-03
             287     13.3983E-03     91.5471E-03    -3.29807E+06     32.4837E+06     66.8842E+06     869.675E+03    -296.169E-03     591.839E-03    -295.669E-03     76.9208E-03    -296.540E-03     592.119E-03    -295.377E-03     72.6058E-03
             288     13.3971E-03     93.2567E-03    -1.53092E+06     35.6697E+06     70.3484E+06    -1.58486E+06    -296.963E-03     592.561E-03    -295.598E-03     77.2207E-03    -297.340E-03     592.856E-03    -295.296E-03     72.7514E-03
             289     13.3987E-03     94.9688E-03    -909.701E+03     37.8979E+06     74.5433E+06     1.83460E+06    -297.724E-03     593.251E-03    -295.527E-03     77.1695E-03    -298.090E-03     593.532E-03    -295.208E-03     73.0849E-03
             290     13.4004E-03     96.6834E-03    -2.21091E+06     37.0276E+06     74.3032E+06     6.96239E+06    -297.473E-03     593.011E-03    -295.538E-03     75.6612E-03    -297.819E-03     593.265E-03    -295.217E-03     72.0836E-03
             291     13.3952E-03     98.3983E-03    -4.41857E+06     35.7008E+06     72.8082E+06     932.201E+03    -297.671E-03     593.356E-03    -295.684E-03     77.6431E-03    -298.108E-03     593.693E-03    -295.366E-03     72.6053E-03
             292     669.622E-06     100.235E-03    -80.4706E+06    -130.328E+06    -81.8624E+06     1.07820E+06    -295.133E-03     591.370E-03    -296.238E-03     6.31955E-03    -295.126E-03     590.977E-03    -296.341E-03     6.09217E-03
             293     1.33977E-03     100.247E-03    -76.6061E+06    -117.789E+06    -72.9169E+06     1.26426E+06    -295.602E-03     591.223E-03    -295.621E-03     10.3119E-03    -295.678E-03     590.827E-03    -295.704E-03     10.0385E-03
             294     2.00840E-03     100.272E-03    -81.2046E+06    -113.835E+06    -73.2348E+06     552.287E+03    -295.874E-03     591.507E-03    -295.633E-03     13.2889E-03    -295.992E-03     591.147E-03    -295.716E-03     13.1253E-03
             295     2.67664E-03     100.299E-03    -81.3111E+06    -102.615E+06    -69.7998E+06     364.976E+03    -295.870E-03     591.549E-03    -295.679E-03     17.6477E-03    -296.019E-03     591.248E-03    -295.761E-03     17.3058E-03
             296     3.34756E-03     100.337E-03    -76.5958E+06    -82.5693E+06    -60.1331E+06     1.54924E+06    -295.747E-03     591.443E-03    -295.696E-03     22.8997E-03    -295.925E-03     591.231E-03    -295.766E-03     22.3292E-03
             297     4.01810E-03     100.383E-03    -69.9620E+06    -61.4590E+06    -46.5621E+06     5.08797E+06    -295.818E-03     591.523E-03    -295.705E-03     27.9588E-03    -296.018E-03     591.392E-03    -295.748E-03     27.4646E-03
             298     4.68694E-03     100.439E-03    -67.2551E+06    -50.6488E+06    -34.4295E+06     6.30911E+06    -295.833E-03     591.557E-03    -295.724E-03     33.5086E-03    -296.066E-03     591.471E-03    -295.725E-03     32.6851E-03
             299     5.35689E-03     100.500E-03    -64.4230E+06    -40.5983E+06    -20.4487E+06     6.14755E+06    -295.468E-03     591.189E-03    -295.721E-03     39.0535E-03    -295.734E-03     591.141E-03    -295.671E-03     37.8949E-03
             300     6.02699E-03     100.569E-03    -58.9162E+06    -26.0039E+06    -7.02029E+06     4.64107E+06    -295.226E-03     590.893E-03    -295.667E-03     43.9166E-03    -295.528E-03     590.914E-03    -295.579E-03     42.2076E-03
             301     6.69766E-03     100.645E-03    -53.0969E+06    -15.7303E+06     4.51613E+06     1.32738E+06    -295.379E-03     590.990E-03    -295.611E-03     47.6102E-03    -295.719E-03     591.073E-03    -295.489E-03     44.8949E-03
             302     7.36859E-03     100.727E-03    -47.0973E+06    -9.07167E+06     18.0256E+06     1.54624E+06    -295.489E-03     591.078E-03    -295.589E-03     51.0735E-03    -295.843E-03     591.181E-03    -295.417E-03     48.1183E-03
             303     8.03848E-03     100.824E-03    -40.4919E+06    -851.833E+03     33.0401E+06     2.78001E+06    -295.618E-03     591.198E-03    -295.581E-03     55.2360E-03    -295.996E-03     591.334E-03    -295.356E-03     51.9514E-03
             304     8.70941E-03     100.929E-03    -34.2479E+06     6.75332E+06     45.1950E+06     1.79526E+06    -296.370E-03     591.960E-03    -295.590E-03     59.5623E-03    -296.789E-03     592.151E-03    -295.324E-03     55.4294E-03
             305     9.37917E-03     101.038E-03    -28.3823E+06     12.6692E+06     52.7532E+06     980.345E+03    -296.960E-03     592.580E-03    -295.619E-03     64.6024E-03    -297.409E-03     592.820E-03    -295.333E-03     59.8974E-03
             306     10.0482E-03     101.156E-03    -21.6677E+06     18.5759E+06     57.9245E+06     2.29117E+06    -296.629E-03     592.258E-03    -295.630E-03     68.0487E-03    -297.078E-03     592.529E-03    -295.335E-03     63.2125E-03
             307     10.7181E-03     101.279E-03    -13.7128E+06     25.8851E+06     64.2760E+06     4.33882E+06    -296.873E-03     592.496E-03    -295.623E-03     72.4987E-03    -297.325E-03     592.805E-03    -295.319E-03     67.5275E-03
             308     11.3862E-03     101.415E-03    -13.1354E+06     26.5831E+06     65.1277E+06     4.27644E+06    -297.651E-03     593.274E-03    -295.623E-03     78.2311E-03    -298.148E-03     593.630E-03    -295.317E-03     72.6892E-03
             309     12.0561E-03     101.546E-03    -8.57392E+06     31.5325E+06     69.0429E+06     1.89432E+06    -297.365E-03     592.990E-03    -295.625E-03     82.4625E-03    -297.872E-03     593.378E-03    -295.313E-03     76.7036E-03
             310     12.7283E-03     101.684E-03    -792.281E+03     39.4805E+06     75.7718E+06    -567.039E+03    -296.462E-03     592.053E-03    -295.591E-03     82.8090E-03    -296.910E-03     592.419E-03    -295.268E-03     77.6740E-03
             311     670.465E-06     101.944E-03    -83.5433E+06    -135.405E+06    -83.0464E+06     275.712E+03    -295.685E-03     591.224E-03    -295.539E-03     3.70247E-03    -295.684E-03     590.810E-03    -295.637E-03     3.76928E-03
             312     1.33869E-03     101.963E-03    -81.0030E+06    -127.000E+06    -78.7778E+06     2.05106E+06    -295.634E-03     591.194E-03    -295.559E-03     10.6784E-03    -295.707E-03     590.762E-03    -295.651E-03     10.4594E-03
             313     2.00844E-03     101.983E-03    -80.8864E+06    -117.840E+06    -73.4575E+06     5.32544E+06    -295.504E-03     591.055E-03    -295.551E-03     14.8512E-03    -295.614E-03     590.675E-03    -295.630E-03     14.7906E-03
             314     2.67961E-03     102.013E-03    -80.2781E+06    -102.783E+06    -64.9806E+06     7.05666E+06    -295.610E-03     591.156E-03    -295.546E-03     19.6047E-03    -295.761E-03     590.846E-03    -295.605E-03     19.4486E-03
             315     3.34780E-03     102.049E-03    -78.6472E+06    -85.4347E+06    -56.5934E+06     5.74673E+06    -295.798E-03     591.363E-03    -295.565E-03     24.3951E-03    -295.986E-03     591.133E-03    -295.610E-03     23.9629E-03
             316     4.01691E-03     102.095E-03    -78.2537E+06    -69.9824E+06    -51.3988E+06     4.43942E+06    -295.522E-03     591.078E-03    -295.556E-03     29.1715E-03    -295.749E-03     590.929E-03    -295.598E-03     28.4273E-03
             317     4.68802E-03     102.150E-03    -70.1467E+06    -52.0204E+06    -37.2493E+06     4.43124E+06    -295.014E-03     590.526E-03    -295.512E-03     33.5059E-03    -295.258E-03     590.445E-03    -295.521E-03     32.4755E-03
             318     5.35901E-03     102.210E-03    -60.1275E+06    -39.2406E+06    -18.0344E+06     4.45340E+06    -294.860E-03     590.318E-03    -295.459E-03     37.9124E-03    -295.109E-03     590.268E-03    -295.405E-03     36.7399E-03
             319     6.02975E-03     102.281E-03    -57.3168E+06    -27.3613E+06    -5.38791E+06     3.04600E+06    -295.293E-03     590.701E-03    -295.409E-03     42.9822E-03    -295.586E-03     590.709E-03    -295.313E-03     41.2601E-03
             320     6.69910E-03     102.357E-03    -53.6245E+06    -14.3241E+06     7.76622E+06     2.26964E+06    -296.405E-03     591.845E-03    -295.440E-03     47.8405E-03    -296.748E-03     591.924E-03    -295.302E-03     45.3390E-03
             321     7.36664E-03     102.442E-03    -46.7983E+06    -5.37766E+06     23.6369E+06     2.59328E+06    -297.389E-03     592.959E-03    -295.571E-03     52.1095E-03    -297.756E-03     593.073E-03    -295.377E-03     49.1951E-03
             322     8.03581E-03     102.534E-03    -40.3628E+06     2.34867E+06     36.8359E+06     2.24275E+06    -297.222E-03     592.923E-03    -295.701E-03     56.5046E-03    -297.615E-03     593.074E-03    -295.462E-03     53.1512E-03
             323     8.70525E-03     102.640E-03    -35.5149E+06     7.48704E+06     44.9929E+06     877.628E+03    -296.563E-03     592.319E-03    -295.755E-03     60.7010E-03    -296.993E-03     592.518E-03    -295.490E-03     56.5681E-03
             324     9.37542E-03     102.749E-03    -28.8013E+06     12.9236E+06     52.1776E+06     728.357E+03    -296.388E-03     592.143E-03    -295.754E-03     65.1292E-03    -296.837E-03     592.384E-03    -295.471E-03     60.4786E-03
             325     10.0456E-03     102.869E-03    -23.4708E+06     17.1483E+06     56.6867E+06     1.91192E+06    -296.322E-03     592.046E-03    -295.724E-03     69.3662E-03    -296.786E-03     592.323E-03    -295.431E-03     64.4175E-03
             326     10.7156E-03     102.988E-03     -18.957E+06     21.3934E+06     59.5263E+06     3.49375E+06    -295.628E-03     591.278E-03    -295.649E-03     74.7385E-03    -296.098E-03     591.584E-03    -295.355E-03     69.7693E-03
             327     11.3898E-03     103.125E-03    -9.83760E+06     30.2355E+06     66.8438E+06     2.55022E+06    -294.964E-03     590.498E-03    -295.533E-03     79.5091E-03    -295.436E-03     590.848E-03    -295.229E-03     74.3649E-03
             328     12.0620E-03     103.257E-03    -6.37735E+06     34.2159E+06     69.6319E+06     525.860E+03    -295.384E-03     590.788E-03    -295.405E-03     81.8938E-03    -295.888E-03     591.190E-03    -295.097E-03     76.0833E-03
             329     12.7323E-03     103.392E-03    -4.68915E+06     37.4532E+06     73.2234E+06     1.23525E+06    -295.906E-03     591.225E-03    -295.319E-03     80.5172E-03    -296.347E-03     591.570E-03    -295.001E-03     75.6637E-03
             330     668.097E-06     103.658E-03    -86.2464E+06    -140.975E+06    -84.6614E+06     2.59175E+06    -295.877E-03     591.233E-03    -295.356E-03     4.04801E-03    -295.873E-03     590.791E-03    -295.450E-03     4.27417E-03
             331     1.33989E-03     103.672E-03    -86.2972E+06    -134.256E+06    -81.0061E+06     2.80829E+06    -294.938E-03     590.367E-03    -295.430E-03     10.3892E-03    -295.017E-03     589.906E-03    -295.515E-03     10.2945E-03
             332     2.01052E-03     103.695E-03    -87.0876E+06    -127.329E+06    -77.9151E+06     4.21235E+06    -295.032E-03     590.284E-03    -295.251E-03     14.5164E-03    -295.152E-03     589.871E-03    -295.330E-03     14.3579E-03
             333     2.67913E-03     103.723E-03    -81.6450E+06    -110.586E+06    -68.1282E+06     5.53916E+06    -295.434E-03     590.668E-03    -295.234E-03     18.9911E-03    -295.575E-03     590.326E-03    -295.296E-03     18.7427E-03
             334     3.35020E-03     103.762E-03    -75.9258E+06    -88.7530E+06    -55.7378E+06     7.40891E+06    -295.518E-03     590.796E-03    -295.278E-03     23.8112E-03    -295.686E-03     590.542E-03    -295.318E-03     23.4913E-03
             335     4.01993E-03     103.807E-03    -78.3352E+06    -70.4248E+06    -48.7359E+06     7.21494E+06    -295.453E-03     590.750E-03    -295.297E-03     28.9493E-03    -295.685E-03     590.595E-03    -295.325E-03     28.1595E-03
             336     4.68912E-03     103.859E-03    -73.1432E+06    -52.6170E+06    -36.1719E+06     4.84264E+06    -295.500E-03     590.819E-03    -295.319E-03     33.1118E-03    -295.760E-03     590.737E-03    -295.317E-03     32.0440E-03
             337     5.35899E-03     103.920E-03    -63.3425E+06    -40.3305E+06    -20.1801E+06     3.62049E+06    -295.565E-03     590.921E-03    -295.356E-03     36.3946E-03    -295.827E-03     590.873E-03    -295.307E-03     35.1280E-03
             338     6.02926E-03     103.989E-03    -58.5252E+06    -26.9037E+06    -6.71863E+06     2.07559E+06    -295.364E-03     590.734E-03    -295.370E-03     40.8428E-03    -295.660E-03     590.747E-03    -295.280E-03     39.0385E-03
             339     6.70002E-03     104.069E-03    -52.4018E+06    -12.2911E+06     9.95944E+06     4.09082E+06    -295.678E-03     591.069E-03    -295.391E-03     46.6735E-03    -296.008E-03     591.141E-03    -295.248E-03     44.5589E-03
             340     7.37061E-03     104.158E-03    -46.4856E+06    -4.50445E+06     24.2240E+06     4.42102E+06    -296.813E-03     592.273E-03    -295.461E-03     52.8302E-03    -297.171E-03     592.380E-03    -295.266E-03     50.2993E-03
             341     8.03811E-03     104.251E-03    -40.8132E+06     2.24876E+06     35.3794E+06     3.04880E+06    -297.316E-03     592.879E-03    -295.563E-03     58.9018E-03    -297.711E-03     593.034E-03    -295.330E-03     55.6274E-03
             342     8.70670E-03     104.352E-03    -34.0086E+06     9.54846E+06     46.8761E+06     3.46097E+06    -296.807E-03     592.444E-03    -295.637E-03     65.1616E-03    -297.241E-03     592.655E-03    -295.367E-03     61.1409E-03
             343     9.37664E-03     104.461E-03    -29.5905E+06     13.5156E+06     53.7235E+06     2.66037E+06    -296.120E-03     591.748E-03    -295.628E-03     70.2568E-03    -296.585E-03     592.000E-03    -295.336E-03     65.7469E-03
             344     10.0478E-03     104.578E-03    -24.6104E+06     17.3993E+06     58.1069E+06     2.76267E+06    -295.794E-03     591.356E-03    -295.561E-03     74.0575E-03    -296.277E-03     591.644E-03    -295.260E-03     69.1826E-03
             345     10.7194E-03     104.700E-03    -19.3234E+06     22.4136E+06     60.6920E+06     1.77098E+06    -295.703E-03     591.169E-03    -295.466E-03     77.4537E-03    -296.198E-03     591.499E-03    -295.167E-03     72.2465E-03
             346     11.3890E-03     104.827E-03    -12.4069E+06     29.2772E+06     65.6691E+06     504.617E+03    -294.930E-03     590.282E-03    -295.352E-03     79.9665E-03    -295.413E-03     590.635E-03    -295.049E-03     74.7559E-03
             347     12.0615E-03     104.965E-03    -7.85887E+06     34.2704E+06      70.647E+06     908.647E+03    -295.179E-03     590.412E-03    -295.233E-03     82.3251E-03    -295.675E-03     590.796E-03    -294.918E-03     76.8815E-03
             348     12.7330E-03     105.102E-03    -4.49713E+06     38.7163E+06     75.5022E+06     302.951E+03    -295.818E-03     590.969E-03    -295.151E-03     79.4246E-03    -296.264E-03     591.318E-03    -294.823E-03     74.4909E-03
             349     671.302E-06     105.371E-03    -88.9633E+06    -147.192E+06    -88.8161E+06     1.01646E+06    -295.748E-03     590.432E-03    -294.684E-03     4.84425E-03    -295.738E-03     589.972E-03    -294.786E-03     4.84754E-03
             350     1.33925E-03     105.381E-03    -89.9983E+06    -143.137E+06    -86.1368E+06     2.95168E+06    -295.542E-03     590.771E-03    -295.229E-03     9.14717E-03    -295.623E-03     590.281E-03    -295.322E-03     9.08146E-03
             351     2.00931E-03     105.404E-03    -86.1170E+06    -130.368E+06    -77.3868E+06     3.56452E+06    -295.223E-03     590.515E-03    -295.293E-03     13.7249E-03    -295.335E-03     590.086E-03    -295.366E-03     13.5696E-03
             352     2.68023E-03     105.435E-03    -83.0213E+06    -115.919E+06    -69.0103E+06     3.95465E+06    -295.203E-03     590.474E-03    -295.271E-03     17.7176E-03    -295.341E-03     590.107E-03    -295.328E-03     17.4922E-03
             353     3.34908E-03     105.471E-03    -80.7120E+06    -98.8551E+06    -60.8182E+06     4.87315E+06    -294.995E-03     590.226E-03    -295.231E-03     22.2488E-03    -295.164E-03     589.935E-03    -295.275E-03     21.9191E-03
             354     4.01975E-03     105.518E-03    -72.8699E+06    -71.8252E+06    -46.6715E+06     6.22052E+06    -295.201E-03     590.403E-03    -295.202E-03     27.1847E-03    -295.402E-03     590.225E-03    -295.225E-03     26.5747E-03
             355     4.69008E-03     105.571E-03    -67.4883E+06    -49.4125E+06    -31.6005E+06     7.02816E+06    -295.716E-03     590.956E-03    -295.239E-03     32.2385E-03    -295.957E-03     590.873E-03    -295.228E-03     31.2597E-03
             356     5.35882E-03     105.634E-03    -64.3499E+06    -39.4951E+06    -19.0724E+06     5.82108E+06    -296.101E-03     591.431E-03    -295.329E-03     37.1207E-03    -296.374E-03     591.390E-03    -295.274E-03     35.7426E-03
             357     6.02755E-03     105.700E-03    -58.3549E+06    -25.5423E+06    -7.14402E+06     4.32220E+06    -295.896E-03     591.291E-03    -295.395E-03     41.6325E-03    -296.194E-03     591.312E-03    -295.309E-03     39.8244E-03
             358     6.69779E-03     105.778E-03    -52.6955E+06    -12.3003E+06     5.87831E+06     4.79354E+06    -295.216E-03     590.616E-03    -295.401E-03     46.9633E-03    -295.538E-03     590.691E-03    -295.277E-03     44.9627E-03
             359     7.36848E-03     105.867E-03    -46.8118E+06    -5.30393E+06     20.8727E+06     5.34164E+06    -294.992E-03     590.362E-03    -295.370E-03     52.6902E-03    -295.342E-03     590.466E-03    -295.190E-03     50.2932E-03
             360     8.04065E-03     105.965E-03    -41.9336E+06     645.660E+03     33.7504E+06     4.04713E+06    -295.105E-03     590.429E-03    -295.323E-03     57.8971E-03    -295.494E-03     590.573E-03    -295.095E-03     54.7463E-03
             361     8.71201E-03     106.062E-03    -37.2346E+06     6.27956E+06     44.6814E+06     4.84234E+06    -295.090E-03     590.358E-03    -295.267E-03     64.5318E-03    -295.516E-03     590.544E-03    -294.999E-03     60.8630E-03
             362     9.38250E-03     106.174E-03    -31.1455E+06     12.5584E+06     54.3865E+06     5.24917E+06    -295.415E-03     590.619E-03    -295.204E-03     71.2279E-03    -295.883E-03     590.863E-03    -294.905E-03     66.9263E-03
             363     10.0531E-03     106.286E-03    -24.0398E+06     19.4291E+06     60.9490E+06     1.75375E+06    -296.230E-03     591.384E-03    -295.154E-03     75.6207E-03    -296.730E-03     591.691E-03    -294.843E-03     70.5739E-03
             364     10.7232E-03     106.412E-03    -17.4359E+06     25.9378E+06     64.9556E+06    -49.8727E+03    -296.621E-03     591.749E-03    -295.128E-03     78.1380E-03    -297.133E-03     592.103E-03    -294.815E-03     72.6674E-03
             365     11.3944E-03     106.537E-03    -13.1391E+06     30.4897E+06     68.3402E+06     1.30025E+06    -296.445E-03     591.551E-03    -295.106E-03     79.9097E-03    -296.950E-03     591.919E-03    -294.789E-03     74.4912E-03
             366     12.0657E-03     106.669E-03    -8.25960E+06     35.4656E+06     72.9447E+06     1.16777E+06    -296.266E-03     591.337E-03    -295.071E-03     82.8358E-03    -296.772E-03     591.728E-03    -294.746E-03     77.3569E-03
             367     12.7365E-03     106.815E-03    -3.05932E+06     40.7259E+06       77.39E+06    -1.02343E+06    -296.496E-03     591.536E-03    -295.040E-03     79.0611E-03    -296.946E-03     591.895E-03    -294.708E-03     73.9770E-03
             368     669.913E-06     107.083E-03    -93.3093E+06    -154.254E+06    -91.7516E+06     111.791E+03    -295.675E-03     590.767E-03    -295.093E-03     5.12894E-03    -295.678E-03     590.298E-03    -295.192E-03     4.92400E-03
             369     1.33986E-03     107.094E-03    -91.0544E+06    -147.917E+06    -88.1996E+06     790.227E+03    -295.864E-03     591.295E-03    -295.431E-03     8.14901E-03    -295.946E-03     590.791E-03    -295.525E-03     8.09189E-03
             370     2.00900E-03     107.115E-03    -84.8070E+06      -134.5E+06    -78.6858E+06     1.63458E+06    -295.435E-03     590.955E-03    -295.520E-03     13.7213E-03    -295.534E-03     590.507E-03    -295.596E-03     13.4636E-03
             371     2.67799E-03     107.146E-03    -82.6144E+06    -120.912E+06    -70.7922E+06     2.93247E+06    -295.053E-03     590.504E-03    -295.451E-03     17.8883E-03    -295.182E-03     590.117E-03    -295.510E-03     17.5466E-03
             372     3.34940E-03     107.181E-03    -78.6248E+06    -101.631E+06    -59.7752E+06      4.7761E+06    -294.915E-03     590.272E-03    -295.357E-03     22.1609E-03    -295.075E-03     589.965E-03    -295.394E-03     21.7649E-03
             373     4.01918E-03     107.228E-03    -71.5144E+06    -75.8832E+06    -45.5152E+06     5.35778E+06    -294.756E-03     590.022E-03    -295.266E-03     27.5700E-03    -294.945E-03     589.820E-03    -295.280E-03     27.0639E-03
             374     4.68884E-03     107.282E-03    -68.4155E+06    -54.0543E+06    -35.5620E+06     6.84323E+06    -294.792E-03     589.966E-03    -295.173E-03     33.1102E-03    -295.023E-03     589.865E-03    -295.174E-03     32.3084E-03
             375     5.36010E-03     107.344E-03    -64.2773E+06    -39.7924E+06    -22.6445E+06     7.50904E+06    -295.066E-03     590.200E-03    -295.134E-03     38.7838E-03    -295.331E-03     590.162E-03    -295.097E-03     37.5624E-03
             376     6.03041E-03     107.415E-03    -58.3771E+06    -24.9131E+06    -7.89260E+06     7.00691E+06    -295.609E-03     590.755E-03    -295.146E-03     44.0823E-03    -295.901E-03     590.774E-03    -295.064E-03     42.5882E-03
             377     6.69957E-03     107.488E-03    -54.6715E+06    -12.7011E+06     3.05969E+06     5.07599E+06    -295.557E-03     590.716E-03    -295.160E-03     49.8040E-03    -295.885E-03     590.797E-03    -295.047E-03     47.9067E-03
             378     7.37034E-03     107.576E-03    -50.4547E+06    -7.39705E+06     17.4317E+06     6.20114E+06    -294.698E-03     589.842E-03    -295.144E-03     55.6576E-03    -295.069E-03     589.958E-03    -294.973E-03     53.1026E-03
             379     8.04128E-03     107.670E-03    -43.0780E+06     818.758E+03     35.3887E+06     5.17908E+06    -294.370E-03     589.456E-03    -295.085E-03     59.0546E-03    -294.770E-03     589.603E-03    -294.847E-03     55.9136E-03
             380     8.71311E-03     107.770E-03    -36.4238E+06     8.17629E+06     47.7918E+06     3.10066E+06    -294.372E-03     589.370E-03    -294.998E-03     62.1736E-03    -294.797E-03     589.555E-03    -294.718E-03     58.4685E-03
             381     9.38672E-03     107.878E-03    -29.3694E+06     14.9554E+06     56.6333E+06     3.38077E+06    -294.719E-03     589.629E-03    -294.910E-03     67.6226E-03    -295.181E-03     589.876E-03    -294.606E-03     63.1758E-03
             382     10.0576E-03     108.001E-03    -23.6513E+06     21.0145E+06     62.3924E+06     1.20369E+06    -296.010E-03     590.873E-03    -294.863E-03     72.6671E-03    -296.514E-03     591.187E-03    -294.547E-03     67.4481E-03
             383     10.7270E-03     108.120E-03    -18.5300E+06     27.1830E+06     66.4631E+06     1.59776E+06    -297.100E-03     591.979E-03    -294.878E-03     74.9668E-03    -297.620E-03     592.336E-03    -294.559E-03     69.3744E-03
             384     11.3968E-03     108.248E-03    -12.3018E+06     33.2977E+06     70.9782E+06     1.55783E+06    -297.519E-03     592.450E-03    -294.931E-03     76.8446E-03    -298.036E-03     592.836E-03    -294.607E-03     71.0819E-03
             385     12.0647E-03     108.381E-03    -8.45673E+06     36.2682E+06     72.7872E+06    -183.577E+03    -297.055E-03     592.018E-03    -294.963E-03     80.1705E-03    -297.574E-03     592.424E-03    -294.639E-03     74.2997E-03
             386     12.7356E-03     108.519E-03    -4.40672E+06     39.8968E+06     75.5951E+06    -886.531E+03    -296.516E-03     591.477E-03    -294.961E-03     79.2190E-03    -296.965E-03     591.833E-03    -294.634E-03     74.1621E-03
             387     668.806E-06     108.793E-03    -91.7276E+06    -157.374E+06    -91.2034E+06     1.46684E+06    -295.911E-03     591.147E-03    -295.236E-03     6.58907E-03    -295.901E-03     590.665E-03    -295.331E-03     6.44654E-03
             388     1.33858E-03     108.807E-03    -88.1784E+06    -147.655E+06    -83.7701E+06     2.77973E+06    -295.454E-03     590.958E-03    -295.503E-03     9.53687E-03    -295.528E-03     590.444E-03    -295.580E-03     9.56502E-03
             389     2.00837E-03     108.827E-03    -87.1645E+06    -138.498E+06    -78.4926E+06     2.29582E+06    -295.239E-03     590.684E-03    -295.445E-03     14.4527E-03    -295.344E-03     590.217E-03    -295.510E-03     14.2997E-03
             390     2.67961E-03     108.855E-03    -84.1130E+06    -125.776E+06    -72.1266E+06     1.42392E+06    -295.029E-03     590.383E-03    -295.355E-03     19.3593E-03    -295.155E-03     589.975E-03    -295.411E-03     19.0135E-03
             391     3.34828E-03     108.893E-03    -80.8798E+06    -108.788E+06    -64.1261E+06     2.92321E+06    -294.901E-03     590.161E-03    -295.260E-03     23.5677E-03    -295.058E-03     589.830E-03    -295.305E-03     23.0701E-03
             392     4.01920E-03     108.936E-03    -74.7419E+06    -84.4969E+06    -50.3303E+06     5.58469E+06    -294.353E-03     589.501E-03    -295.149E-03     28.4511E-03    -294.541E-03     589.270E-03    -295.169E-03     27.8756E-03
             393     4.69128E-03     108.991E-03    -70.1062E+06    -58.2379E+06    -37.2424E+06     6.64912E+06    -293.946E-03     588.934E-03    -294.988E-03     33.7938E-03    -294.176E-03     588.816E-03    -294.988E-03     33.0476E-03
             394     5.36159E-03     109.053E-03    -67.3575E+06    -42.3071E+06    -26.7446E+06     6.00549E+06    -294.002E-03     588.841E-03    -294.839E-03     38.7770E-03    -294.270E-03     588.798E-03    -294.814E-03     37.6655E-03
             395     6.03326E-03     109.122E-03    -61.3368E+06    -26.3460E+06    -11.2084E+06     6.81652E+06    -294.348E-03     589.104E-03    -294.755E-03     43.9019E-03    -294.646E-03     589.122E-03    -294.684E-03     42.5239E-03
             396     6.70427E-03     109.202E-03    -58.3611E+06    -13.7832E+06     3.36053E+06     6.75588E+06    -294.936E-03     589.668E-03    -294.732E-03     49.3286E-03    -295.284E-03     589.750E-03    -294.611E-03     47.3759E-03
             397     7.37443E-03     109.282E-03    -52.8689E+06    -7.12102E+06     17.8317E+06     3.81940E+06    -295.263E-03     590.016E-03    -294.753E-03     55.3691E-03    -295.660E-03     590.149E-03    -294.577E-03     52.4088E-03
             398     8.04568E-03     109.380E-03    -42.6938E+06     2.87589E+06     35.3881E+06     4.08799E+06    -295.393E-03     590.181E-03    -294.787E-03     58.9774E-03    -295.796E-03     590.340E-03    -294.553E-03     55.7321E-03
             399     8.71547E-03     109.478E-03    -33.8199E+06     11.9077E+06     51.0322E+06     3.28740E+06    -295.701E-03     590.526E-03    -294.825E-03     61.7697E-03    -296.126E-03     590.725E-03    -294.538E-03     57.9677E-03
             400     9.38372E-03     109.586E-03    -27.2227E+06     18.9134E+06     60.4335E+06     1.14085E+06    -295.682E-03     590.521E-03    -294.839E-03     66.9664E-03    -296.157E-03     590.792E-03    -294.525E-03     62.1803E-03
             401     10.0557E-03     109.705E-03    -23.0932E+06     23.0970E+06     64.2931E+06     2.34212E+06    -295.980E-03     590.809E-03    -294.829E-03     71.2695E-03    -296.472E-03     591.115E-03    -294.508E-03     66.2842E-03
             402     10.7270E-03     109.834E-03    -17.9893E+06     28.2149E+06     66.9247E+06     2.46620E+06    -296.782E-03     591.618E-03    -294.836E-03     73.1272E-03    -297.287E-03     591.965E-03    -294.516E-03     67.7135E-03
             403     11.3953E-03     109.960E-03    -13.1660E+06     32.6675E+06     69.3128E+06     1.00776E+06    -296.799E-03     591.658E-03    -294.859E-03     76.7515E-03    -297.332E-03     592.059E-03    -294.541E-03     70.7437E-03
             404     12.0668E-03     110.092E-03    -8.32217E+06     36.8322E+06     72.9704E+06     112.312E+03    -296.412E-03     591.274E-03    -294.862E-03     81.3259E-03    -296.935E-03     591.686E-03    -294.538E-03     75.4597E-03
             405     12.7371E-03     110.228E-03    -3.90452E+06     40.8873E+06     77.4426E+06     396.785E+03    -295.952E-03     590.786E-03    -294.834E-03     81.4747E-03    -296.404E-03     591.145E-03    -294.500E-03     76.5197E-03
             406     670.954E-06     110.505E-03    -91.6021E+06    -160.639E+06    -90.3344E+06     1.39134E+06    -295.314E-03     590.217E-03    -294.903E-03     5.21405E-03    -295.293E-03     589.714E-03    -294.989E-03     5.28438E-03
             407     1.34057E-03     110.517E-03    -88.5142E+06    -153.200E+06    -85.7769E+06     2.32444E+06    -294.891E-03     589.900E-03    -295.008E-03     10.0410E-03    -294.953E-03     589.359E-03    -295.087E-03     9.94384E-03
             408     2.01078E-03     110.537E-03    -86.2323E+06    -142.343E+06     -79.249E+06     3.91691E+06    -294.794E-03     589.733E-03    -294.939E-03     14.7586E-03    -294.886E-03     589.245E-03    -295.003E-03     14.6161E-03
             409     2.67973E-03     110.565E-03    -84.1952E+06    -127.858E+06    -70.2657E+06     4.89152E+06    -294.627E-03     589.504E-03    -294.877E-03     20.1332E-03    -294.753E-03     589.081E-03    -294.920E-03     19.9277E-03
             410     3.35133E-03     110.603E-03    -83.4112E+06    -113.637E+06    -63.1436E+06     3.66570E+06    -294.738E-03     589.559E-03    -294.820E-03     24.9309E-03    -294.901E-03     589.205E-03    -294.850E-03     24.5079E-03
             411     4.02109E-03     110.644E-03    -78.1342E+06    -92.7022E+06    -52.5883E+06     3.50964E+06    -294.709E-03     589.495E-03    -294.786E-03     29.0942E-03    -294.901E-03     589.234E-03    -294.801E-03     28.3724E-03
             412     4.69105E-03     110.698E-03    -69.7260E+06    -61.6719E+06    -36.8908E+06     5.15252E+06    -294.164E-03     588.886E-03    -294.722E-03     33.6216E-03    -294.390E-03     588.752E-03    -294.715E-03     32.7312E-03
             413     5.36334E-03     110.759E-03    -65.7129E+06    -40.4234E+06    -22.6699E+06     5.59162E+06    -294.056E-03     588.692E-03    -294.636E-03     37.9578E-03    -294.323E-03     588.648E-03    -294.595E-03     36.8711E-03
             414     6.03382E-03     110.830E-03    -62.3811E+06    -28.6247E+06    -8.85825E+06     5.42577E+06    -294.189E-03     588.768E-03    -294.579E-03     41.9673E-03    -294.495E-03     588.777E-03    -294.492E-03     40.3927E-03
             415     6.70581E-03     110.906E-03    -54.4805E+06    -12.7656E+06     7.45868E+06     6.17188E+06    -294.350E-03     588.897E-03    -294.547E-03     46.3231E-03    -294.685E-03     588.972E-03    -294.412E-03     44.2377E-03
             416     7.37659E-03     110.995E-03    -47.7053E+06    -1.52750E+06     21.5355E+06     3.24884E+06    -295.072E-03     589.622E-03    -294.551E-03     52.2594E-03    -295.449E-03     589.763E-03    -294.372E-03     49.3278E-03
             417     8.04562E-03     111.086E-03    -44.0006E+06     2.86485E+06     32.7843E+06     3.17294E+06    -295.435E-03     590.026E-03    -294.591E-03     57.0550E-03    -295.840E-03     590.190E-03    -294.368E-03     53.7223E-03
             418     8.71630E-03     111.190E-03    -36.4764E+06     10.2082E+06     47.2648E+06     3.97294E+06    -295.914E-03     590.569E-03    -294.654E-03     62.0239E-03    -296.339E-03     590.763E-03    -294.380E-03     58.3802E-03
             419     9.38761E-03     111.296E-03    -29.8593E+06     17.5254E+06     58.2880E+06     2.80681E+06    -297.000E-03     591.737E-03    -294.737E-03     67.8945E-03    -297.480E-03     592.004E-03    -294.428E-03     63.2577E-03
             420     10.0561E-03     111.415E-03    -23.4055E+06     23.9246E+06     65.1917E+06     3.58700E+06    -296.747E-03     591.555E-03    -294.808E-03     72.5350E-03    -297.244E-03     591.865E-03    -294.483E-03     67.5873E-03
             421     10.7251E-03     111.544E-03    -18.2492E+06     28.1420E+06     67.3738E+06     1.22556E+06    -295.479E-03     590.272E-03    -294.793E-03     75.5781E-03    -295.991E-03     590.624E-03    -294.471E-03     70.2120E-03
             422     11.3983E-03     111.667E-03    -13.4094E+06     33.3925E+06     70.1421E+06     420.005E+03    -295.158E-03     589.883E-03    -294.725E-03     78.7142E-03    -295.692E-03     590.284E-03    -294.403E-03     72.8727E-03
             423     12.0692E-03     111.800E-03    -7.95909E+06     38.7435E+06     75.2245E+06     1.08250E+06    -295.627E-03     590.292E-03    -294.665E-03     82.3337E-03    -296.143E-03     590.699E-03    -294.333E-03     76.7111E-03
             424     12.7412E-03     111.936E-03    -4.14970E+06     42.2548E+06     79.2776E+06     708.287E+03    -295.686E-03     590.303E-03    -294.617E-03     81.4542E-03    -296.141E-03     590.663E-03    -294.276E-03     76.5396E-03
             425     668.969E-06     112.212E-03    -92.1664E+06    -164.504E+06    -88.3335E+06     898.194E+03    -294.021E-03     589.301E-03    -295.280E-03     3.84915E-03    -294.004E-03     588.780E-03    -295.350E-03     3.93208E-03
             426     1.34047E-03     112.225E-03    -89.3699E+06    -160.021E+06    -86.5895E+06     513.237E+03    -294.128E-03     588.621E-03    -294.492E-03     9.75989E-03    -294.187E-03     588.050E-03    -294.564E-03     9.54836E-03
             427     2.01090E-03     112.246E-03    -86.3917E+06    -149.079E+06    -80.6726E+06     1.85450E+06    -294.223E-03     588.583E-03    -294.359E-03     14.6476E-03    -294.306E-03     588.065E-03    -294.421E-03     14.3584E-03
             428     2.68292E-03     112.273E-03    -81.9381E+06    -131.748E+06    -70.6612E+06     4.69054E+06    -294.297E-03     588.620E-03    -294.323E-03     19.4711E-03    -294.406E-03     588.177E-03    -294.367E-03     19.1521E-03
             429     3.35291E-03     112.310E-03    -78.1532E+06    -112.981E+06    -58.4345E+06     5.42210E+06    -294.433E-03     588.762E-03    -294.329E-03     24.2918E-03    -294.577E-03     588.397E-03    -294.344E-03     23.8552E-03
             430     4.02335E-03     112.356E-03    -76.2467E+06    -93.7818E+06    -48.5616E+06     3.81920E+06    -294.951E-03     589.325E-03    -294.375E-03     28.7612E-03    -295.139E-03     589.051E-03    -294.371E-03     27.9981E-03
             431     4.69375E-03     112.405E-03    -73.2555E+06    -68.0078E+06    -38.4075E+06     4.56999E+06    -295.012E-03     589.449E-03    -294.437E-03     33.0657E-03    -295.244E-03     589.292E-03    -294.425E-03     32.1079E-03
             432     5.36320E-03     112.467E-03    -66.9469E+06    -42.3702E+06    -22.7597E+06     7.15034E+06    -294.704E-03     589.187E-03    -294.483E-03     37.9781E-03    -294.975E-03     589.136E-03    -294.438E-03     36.8888E-03
             433     6.03409E-03     112.538E-03    -60.2733E+06    -29.2491E+06    -6.68779E+06     6.86847E+06    -294.793E-03     589.311E-03    -294.518E-03     42.2942E-03    -295.094E-03     589.313E-03    -294.421E-03     40.6631E-03
             434     6.70324E-03     112.614E-03    -53.6036E+06    -14.5730E+06     6.96880E+06     4.81572E+06    -294.646E-03     589.173E-03    -294.527E-03     46.7598E-03    -294.976E-03     589.241E-03    -294.393E-03     44.5685E-03
             435     7.37490E-03     112.700E-03    -47.5935E+06    -940.321E+03     21.0977E+06     5.15648E+06    -294.537E-03     589.055E-03    -294.518E-03     52.5770E-03    -294.901E-03     589.186E-03    -294.342E-03     50.0053E-03
             436     8.04689E-03     112.798E-03    -41.8769E+06     5.84199E+06     35.4070E+06     3.98729E+06    -294.935E-03     589.460E-03    -294.525E-03     56.8699E-03    -295.338E-03     589.633E-03    -294.296E-03     53.5347E-03
             437     8.71822E-03     112.893E-03    -37.2871E+06     10.9446E+06     46.5086E+06     3.25846E+06    -295.620E-03     590.175E-03    -294.554E-03     61.5620E-03    -296.045E-03     590.371E-03    -294.284E-03     57.9688E-03
             438     9.38740E-03     113.011E-03    -31.5525E+06     16.8036E+06     56.7048E+06     4.02095E+06    -296.350E-03     590.960E-03    -294.610E-03     67.6607E-03    -296.811E-03     591.204E-03    -294.305E-03     63.5730E-03
             439     10.0564E-03     113.126E-03    -25.2165E+06     23.2435E+06     64.2656E+06     3.00006E+06    -295.638E-03     590.271E-03    -294.633E-03     72.9928E-03    -296.152E-03     590.592E-03    -294.309E-03     67.8846E-03
             440     10.7298E-03     113.247E-03    -18.8804E+06     29.6458E+06     69.1312E+06     1.68169E+06    -294.531E-03     589.101E-03    -294.570E-03     77.6160E-03    -295.064E-03     589.472E-03    -294.240E-03     72.1261E-03
             441     11.4008E-03     113.375E-03    -13.3788E+06     35.0662E+06     72.9675E+06     536.953E+03    -294.914E-03     589.391E-03    -294.477E-03     80.1096E-03    -295.442E-03     589.785E-03    -294.144E-03     74.5401E-03
             442     12.0728E-03     113.506E-03    -8.89061E+06     39.2844E+06     75.9726E+06     883.551E+03    -295.657E-03     590.071E-03    -294.414E-03     82.7888E-03    -296.177E-03     590.478E-03    -294.078E-03     77.2210E-03
             443     12.7433E-03     113.645E-03    -4.19421E+06     44.0625E+06     79.4049E+06     517.465E+03    -295.614E-03     589.986E-03    -294.372E-03     81.4468E-03    -296.076E-03     590.359E-03    -294.032E-03     76.4657E-03
             444     671.650E-06     113.921E-03    -89.5901E+06    -167.852E+06    -89.1313E+06     787.324E+03    -293.315E-03     587.972E-03    -294.657E-03     4.39636E-03    -293.287E-03     587.436E-03    -294.729E-03     4.40935E-03
             445     1.34155E-03     113.932E-03    -89.1727E+06    -163.004E+06    -85.4682E+06     1.36654E+06    -294.118E-03     588.084E-03    -293.966E-03     9.44865E-03    -294.179E-03     587.501E-03    -294.027E-03     9.37894E-03
             446     2.01320E-03     113.951E-03    -87.3109E+06    -153.739E+06    -79.8128E+06     1.78634E+06    -294.081E-03     588.087E-03    -294.006E-03     13.8239E-03    -294.162E-03     587.546E-03    -294.056E-03     13.6693E-03
             447     2.68238E-03     113.981E-03    -84.0075E+06    -138.471E+06    -72.3978E+06     2.68306E+06    -294.245E-03     588.278E-03    -294.033E-03     18.4182E-03    -294.352E-03     587.807E-03    -294.072E-03     18.0997E-03
             448     3.35343E-03     114.016E-03    -78.3113E+06    -117.539E+06    -60.5309E+06     4.49118E+06    -294.347E-03     588.428E-03    -294.080E-03     23.3169E-03    -294.482E-03     588.042E-03    -294.099E-03     22.8743E-03
             449     4.02457E-03     114.063E-03    -75.0197E+06    -96.0216E+06    -48.4359E+06     5.55780E+06    -294.554E-03     588.690E-03    -294.136E-03     27.8479E-03    -294.728E-03     588.397E-03    -294.130E-03     27.2613E-03
             450     4.69398E-03     114.116E-03    -73.1102E+06    -71.7752E+06    -37.4614E+06     6.12615E+06    -294.887E-03     589.090E-03    -294.203E-03     32.4943E-03    -295.112E-03     588.910E-03    -294.180E-03     31.6184E-03
             451     5.36468E-03     114.174E-03    -68.4024E+06    -46.0545E+06    -25.0182E+06     7.71021E+06    -294.865E-03     589.131E-03    -294.266E-03     38.5929E-03    -295.138E-03     589.071E-03    -294.225E-03     37.3754E-03
             452     6.03491E-03     114.246E-03    -62.8507E+06    -31.1438E+06    -11.7562E+06     7.19644E+06    -294.663E-03     588.972E-03    -294.308E-03     43.8120E-03    -294.967E-03     588.976E-03    -294.231E-03     42.2471E-03
             453     6.70664E-03     114.322E-03    -56.2638E+06    -15.4406E+06     3.59995E+06     5.21211E+06    -294.959E-03     589.304E-03    -294.345E-03     48.5780E-03    -295.297E-03     589.378E-03    -294.223E-03     46.4824E-03
             454     7.37655E-03     114.407E-03    -49.4341E+06    -573.567E+03     19.9944E+06     5.66377E+06    -295.000E-03     589.390E-03    -294.390E-03     53.6860E-03    -295.373E-03     589.527E-03    -294.217E-03     51.1730E-03
             455     8.04733E-03     114.504E-03    -43.6163E+06     5.43461E+06     34.6670E+06     4.22944E+06    -295.019E-03     589.448E-03    -294.429E-03     57.9893E-03    -295.428E-03     589.621E-03    -294.200E-03     54.7531E-03
             456     8.71662E-03     114.605E-03    -37.3544E+06     12.3969E+06     48.1016E+06     3.24665E+06    -295.293E-03     589.751E-03    -294.459E-03     63.0569E-03    -295.729E-03     589.960E-03    -294.182E-03     59.3895E-03
             457     9.38831E-03     114.716E-03    -30.9072E+06     18.7729E+06     59.2714E+06     4.38994E+06    -294.487E-03     588.930E-03    -294.443E-03     69.0198E-03    -294.951E-03     589.179E-03    -294.129E-03     65.0276E-03
             458     10.0621E-03     114.835E-03    -24.6382E+06     25.3845E+06     67.0281E+06     3.18334E+06    -293.888E-03     588.243E-03    -294.355E-03     73.2168E-03    -294.403E-03     588.566E-03    -294.021E-03     68.2022E-03
             459     10.7326E-03     114.950E-03    -18.7374E+06     31.8642E+06     71.0469E+06     2.07026E+06    -294.464E-03     588.712E-03    -294.248E-03     77.7415E-03    -295.010E-03     589.099E-03    -293.912E-03     72.1469E-03
             460     11.4051E-03     115.083E-03    -13.4961E+06     36.0915E+06     73.6822E+06     1.20729E+06    -295.156E-03     589.330E-03    -294.174E-03     80.8643E-03    -295.692E-03     589.733E-03    -293.838E-03     75.2839E-03
             461     12.0755E-03     115.212E-03    -8.86043E+06     40.5548E+06     76.3612E+06     550.799E+03    -295.766E-03     589.900E-03    -294.133E-03     83.5909E-03    -296.300E-03     590.324E-03    -293.797E-03     77.9020E-03
             462     12.7474E-03     115.353E-03    -4.66158E+06     44.9290E+06     79.3389E+06     219.341E+03    -296.064E-03     590.182E-03    -294.118E-03     81.6382E-03    -296.536E-03     590.567E-03    -293.780E-03     76.5598E-03
             463     671.081E-06     115.626E-03     -91.383E+06    -170.976E+06    -91.6540E+06     1.14251E+06    -293.723E-03     587.194E-03    -293.470E-03     3.73538E-03    -293.701E-03     586.647E-03    -293.548E-03     3.80801E-03
             464     1.34206E-03     115.638E-03    -91.6581E+06    -165.593E+06    -87.6179E+06     1.65041E+06    -294.178E-03     587.850E-03    -293.672E-03     8.74878E-03    -294.247E-03     587.263E-03    -293.737E-03     8.71126E-03
             465     2.01131E-03     115.658E-03    -89.2372E+06    -156.385E+06    -80.4273E+06     2.01480E+06    -294.243E-03     588.106E-03    -293.863E-03     13.5819E-03    -294.329E-03     587.555E-03    -293.909E-03     13.4699E-03
             466     2.68358E-03     115.686E-03    -86.7062E+06    -143.415E+06    -72.8732E+06     2.25307E+06    -294.123E-03     588.068E-03    -293.945E-03     18.2257E-03    -294.234E-03     587.574E-03    -293.976E-03     18.0076E-03
             467     3.35383E-03     115.724E-03    -82.2021E+06    -124.158E+06    -63.1953E+06     3.59637E+06    -294.062E-03     588.028E-03    -293.966E-03     23.3935E-03    -294.200E-03     587.617E-03    -293.983E-03     23.0452E-03
             468     4.02358E-03     115.770E-03    -76.5907E+06    -101.100E+06    -50.5399E+06     5.69250E+06    -293.903E-03     587.863E-03    -293.960E-03     28.5378E-03    -294.072E-03     587.548E-03    -293.955E-03     28.0556E-03
             469     4.69594E-03     115.822E-03    -73.1104E+06    -77.6240E+06    -38.9889E+06     6.86003E+06    -294.192E-03     588.144E-03    -293.952E-03     33.5749E-03    -294.405E-03     587.935E-03    -293.929E-03     32.8107E-03
             470     5.36621E-03     115.884E-03    -68.2683E+06    -50.1557E+06    -26.5954E+06     6.75297E+06    -294.523E-03     588.496E-03    -293.973E-03     38.7602E-03    -294.788E-03     588.418E-03    -293.934E-03     37.5171E-03
             471     6.03735E-03     115.952E-03    -61.2274E+06    -29.2583E+06    -10.8398E+06     7.05263E+06    -294.462E-03     588.480E-03    -294.018E-03     43.6541E-03    -294.759E-03     588.488E-03    -293.941E-03     42.1415E-03
             472     6.70777E-03     116.030E-03    -56.2306E+06    -14.0123E+06     3.47955E+06     6.92510E+06    -294.877E-03     588.942E-03    -294.066E-03     48.7999E-03    -295.210E-03     589.016E-03    -293.946E-03     46.9444E-03
             473     7.37802E-03     116.118E-03    -50.5658E+06    -201.517E+03     17.7132E+06     5.14633E+06    -294.957E-03     589.078E-03    -294.121E-03     54.0720E-03    -295.336E-03     589.225E-03    -293.958E-03     51.5044E-03
             474     8.04831E-03     116.209E-03    -44.2948E+06     6.07852E+06     33.8642E+06     4.75752E+06    -294.556E-03     588.717E-03    -294.161E-03     60.4915E-03    -294.965E-03     588.893E-03    -293.937E-03     57.4623E-03
             475     8.72086E-03     116.315E-03    -38.2283E+06     12.4198E+06     49.1757E+06     4.63237E+06    -294.363E-03     588.521E-03    -294.158E-03     66.1448E-03    -294.816E-03     588.740E-03    -293.875E-03     62.4681E-03
             476     9.39193E-03     116.420E-03    -31.6577E+06     19.3241E+06     60.6528E+06     3.64170E+06    -293.952E-03     588.057E-03    -294.106E-03     70.3289E-03    -294.442E-03     588.328E-03    -293.785E-03     65.9821E-03
             477     10.0638E-03     116.536E-03    -24.9152E+06     26.3099E+06     68.1369E+06     3.02652E+06    -294.127E-03     588.152E-03    -294.025E-03     73.6365E-03    -294.637E-03     588.469E-03    -293.686E-03     68.8385E-03
             478     10.7369E-03     116.658E-03    -18.8082E+06     32.4116E+06     71.6080E+06     2.12785E+06    -294.984E-03     588.943E-03    -293.959E-03     76.8208E-03    -295.522E-03     589.322E-03    -293.621E-03     71.3569E-03
             479     11.4077E-03     116.787E-03    -13.2499E+06     37.9096E+06     74.3679E+06     1.63904E+06    -295.464E-03     589.394E-03    -293.930E-03     79.3403E-03    -296.003E-03     589.805E-03    -293.594E-03     73.6804E-03
             480     12.0801E-03     116.920E-03    -8.49629E+06     42.3820E+06     77.6667E+06     970.216E+03    -295.786E-03     589.709E-03    -293.923E-03     81.4827E-03    -296.323E-03     590.141E-03    -293.584E-03     75.6729E-03
             481     12.7503E-03     117.059E-03    -3.93237E+06     46.4306E+06     81.7296E+06     319.558E+03    -296.331E-03     590.271E-03    -293.940E-03     80.1528E-03    -296.809E-03     590.662E-03    -293.593E-03     74.9249E-03
             482     670.813E-06     117.330E-03    -94.4045E+06    -174.957E+06    -93.6434E+06     873.091E+03    -293.675E-03     587.230E-03    -293.556E-03     3.75197E-03    -293.666E-03     586.670E-03    -293.633E-03     4.00796E-03
             483     1.34174E-03     117.344E-03    -93.0339E+06    -168.972E+06    -89.4507E+06     1.38892E+06    -293.784E-03     587.394E-03    -293.610E-03     9.28090E-03    -293.856E-03     586.797E-03    -293.677E-03     9.29892E-03
             484     2.01367E-03     117.364E-03    -90.9066E+06    -159.692E+06    -82.8438E+06     2.22950E+06    -293.887E-03     587.571E-03    -293.683E-03     14.1544E-03    -293.977E-03     587.012E-03    -293.734E-03     14.0545E-03
             485     2.68261E-03     117.393E-03    -87.7915E+06    -146.387E+06    -73.4873E+06     3.06215E+06    -293.908E-03     587.647E-03    -293.739E-03     19.0471E-03    -294.020E-03     587.142E-03    -293.767E-03     18.8916E-03
             486     3.35402E-03     117.429E-03    -84.6009E+06    -129.472E+06    -63.5991E+06     3.81800E+06    -293.614E-03     587.356E-03    -293.742E-03     23.9192E-03    -293.756E-03     586.923E-03    -293.750E-03     23.6431E-03
             487     4.02676E-03     117.474E-03    -79.5203E+06    -108.375E+06    -52.0014E+06     5.21413E+06    -293.534E-03     587.238E-03    -293.704E-03     28.7590E-03    -293.707E-03     586.894E-03    -293.691E-03     28.2332E-03
             488     4.69694E-03     117.527E-03    -73.6629E+06    -82.5545E+06    -38.9069E+06     6.17926E+06    -293.857E-03     587.540E-03    -293.683E-03     33.7606E-03    -294.066E-03     587.307E-03    -293.651E-03     33.0306E-03
             489     5.36808E-03     117.591E-03    -68.8395E+06    -52.9797E+06    -26.1092E+06     5.72172E+06    -293.987E-03     587.670E-03    -293.683E-03     38.3837E-03    -294.249E-03     587.575E-03    -293.637E-03     37.2867E-03
             490     6.03869E-03     117.657E-03    -63.8601E+06    -31.7793E+06    -13.1854E+06     6.08394E+06    -294.114E-03     587.813E-03    -293.699E-03     43.9885E-03    -294.414E-03     587.812E-03    -293.627E-03     42.6064E-03
             491     6.70961E-03     117.739E-03    -57.7057E+06    -14.0609E+06     1.52571E+06     7.01292E+06    -294.026E-03     587.738E-03    -293.712E-03     50.2941E-03    -294.363E-03     587.816E-03    -293.601E-03     48.5292E-03
             492     7.38104E-03     117.823E-03    -51.8072E+06     686.414E+03     17.6147E+06     6.23404E+06    -293.905E-03     587.619E-03    -293.714E-03     55.7221E-03    -294.295E-03     587.776E-03    -293.552E-03     53.1574E-03
             493     8.05367E-03     117.915E-03    -45.4598E+06     7.16219E+06     33.9692E+06     5.34607E+06    -294.081E-03     587.802E-03    -293.721E-03     61.2526E-03    -294.503E-03     587.990E-03    -293.496E-03     58.1648E-03
             494     8.72484E-03     118.018E-03    -38.2328E+06     13.6186E+06     49.0387E+06     4.53672E+06    -294.173E-03     587.896E-03    -293.723E-03     65.5741E-03    -294.628E-03     588.122E-03    -293.442E-03     61.8587E-03
             495     9.39733E-03     118.127E-03    -31.4093E+06     20.7617E+06     60.9456E+06     3.15208E+06    -294.710E-03     588.437E-03    -293.727E-03     68.8757E-03    -295.200E-03     588.713E-03    -293.407E-03     64.4475E-03
             496     10.0686E-03     118.241E-03    -24.7899E+06     27.5255E+06     68.9855E+06     2.42264E+06    -295.368E-03     589.114E-03    -293.746E-03     72.3929E-03    -295.874E-03     589.430E-03    -293.405E-03     67.5831E-03
             497     10.7380E-03     118.366E-03    -18.5270E+06     33.5699E+06     72.9527E+06     1.80710E+06    -295.624E-03     589.389E-03    -293.765E-03     75.6655E-03    -296.157E-03     589.764E-03    -293.422E-03     70.2495E-03
             498     11.4091E-03     118.492E-03    -13.3952E+06     39.9979E+06     75.9478E+06     1.59189E+06    -296.074E-03     589.862E-03    -293.788E-03     78.8131E-03    -296.627E-03     590.290E-03    -293.447E-03     72.9689E-03
             499     12.0784E-03     118.627E-03    -8.71813E+06     43.9295E+06     79.1958E+06     1.53920E+06    -296.104E-03     589.923E-03    -293.819E-03     80.6113E-03    -296.644E-03     590.359E-03    -293.475E-03     74.7747E-03
             500     12.7502E-03     118.764E-03    -4.50346E+06     47.1721E+06     82.3182E+06     951.548E+03    -295.654E-03     589.486E-03    -293.832E-03     80.3047E-03    -296.136E-03     589.881E-03    -293.482E-03     75.0688E-03
             501     671.457E-06     119.036E-03    -94.8033E+06    -179.063E+06    -94.2775E+06     911.704E+03    -293.384E-03     586.788E-03    -293.403E-03     4.62179E-03    -293.379E-03     586.211E-03    -293.478E-03     4.76361E-03
             502     1.34214E-03     119.048E-03    -93.7134E+06    -173.312E+06    -90.0862E+06     1.70102E+06    -293.468E-03     586.840E-03    -293.372E-03     9.63645E-03    -293.540E-03     586.229E-03    -293.436E-03     9.58130E-03
             503     2.01251E-03     119.069E-03    -91.4059E+06    -163.704E+06    -83.5809E+06     2.48444E+06    -293.347E-03     586.732E-03    -293.385E-03     14.3679E-03    -293.435E-03     586.158E-03    -293.433E-03     14.2909E-03
             504     2.68555E-03     119.098E-03    -88.2872E+06    -150.253E+06    -74.7269E+06     3.38575E+06    -293.419E-03     586.799E-03    -293.381E-03     19.1752E-03    -293.528E-03     586.279E-03    -293.409E-03     19.0595E-03
             505     3.35613E-03     119.134E-03    -84.5306E+06    -133.501E+06    -63.7704E+06     4.13434E+06    -293.476E-03     586.869E-03    -293.393E-03     23.7553E-03    -293.614E-03     586.417E-03    -293.396E-03     23.5217E-03
             506     4.02604E-03     119.178E-03    -79.8061E+06    -113.082E+06    -51.3127E+06     4.80801E+06    -293.457E-03     586.857E-03    -293.400E-03     29.1737E-03    -293.628E-03     586.493E-03    -293.377E-03     28.6330E-03
             507     4.69786E-03     119.233E-03    -74.1408E+06    -87.0090E+06    -37.9025E+06     5.88747E+06    -293.373E-03     586.758E-03    -293.385E-03     34.5741E-03    -293.581E-03     586.504E-03    -293.341E-03     33.8405E-03
             508     5.36931E-03     119.294E-03    -69.2405E+06    -56.1352E+06    -24.7996E+06     6.72716E+06    -293.432E-03     586.787E-03    -293.356E-03     39.2027E-03    -293.691E-03     586.673E-03    -293.298E-03     38.2555E-03
             509     6.04128E-03     119.363E-03    -64.9728E+06    -32.4601E+06    -12.1575E+06     5.94551E+06    -293.462E-03     586.798E-03    -293.336E-03     44.3683E-03    -293.768E-03     586.793E-03    -293.255E-03     43.0427E-03
             510     6.71326E-03     119.441E-03    -58.5170E+06    -16.6195E+06     2.87539E+06     5.47132E+06    -293.226E-03     586.545E-03    -293.319E-03     49.6580E-03    -293.567E-03     586.611E-03    -293.196E-03     47.8012E-03
             511     7.38614E-03     119.526E-03    -51.5891E+06    -851.892E+03     19.1294E+06     6.48778E+06    -293.733E-03     587.047E-03    -293.314E-03     54.4700E-03    -294.117E-03     587.189E-03    -293.142E-03     51.9713E-03
             512     8.05642E-03     119.621E-03    -45.1889E+06     9.58514E+06     34.1976E+06     5.60822E+06    -294.399E-03     587.755E-03    -293.356E-03     58.7234E-03    -294.822E-03     587.953E-03    -293.133E-03     55.5741E-03
             513     8.72790E-03     119.722E-03    -38.4809E+06     15.5137E+06     48.0433E+06     3.71776E+06    -294.670E-03     588.093E-03    -293.423E-03     63.1121E-03    -295.121E-03     588.323E-03    -293.149E-03     59.4033E-03
             514     9.39818E-03     119.832E-03    -31.6015E+06     22.1563E+06     60.5381E+06     2.91532E+06    -295.411E-03     588.912E-03    -293.501E-03     67.3617E-03    -295.895E-03     589.187E-03    -293.185E-03     63.0170E-03
             515     10.0680E-03     119.949E-03    -25.2117E+06     28.3031E+06     69.6184E+06     2.32171E+06    -295.761E-03     589.345E-03    -293.584E-03     70.9480E-03    -296.270E-03     589.664E-03    -293.240E-03     66.0799E-03
             516     10.7398E-03     120.071E-03    -19.7927E+06     34.3360E+06     73.7724E+06     2.13641E+06    -295.577E-03     589.207E-03    -293.630E-03     75.3172E-03    -296.114E-03     589.581E-03    -293.282E-03     69.9721E-03
             517     11.4106E-03     120.200E-03    -14.8450E+06     40.8198E+06     76.6269E+06     2.11423E+06    -295.837E-03     589.489E-03    -293.652E-03     80.0757E-03    -296.406E-03     589.928E-03    -293.306E-03     74.2088E-03
             518     12.0818E-03     120.337E-03    -9.90964E+06     44.9283E+06     79.4217E+06     1.69293E+06    -295.945E-03     589.617E-03    -293.672E-03     82.1026E-03    -296.500E-03     590.066E-03    -293.326E-03     76.2416E-03
             519     12.7524E-03     120.467E-03    -4.89800E+06     49.2442E+06     82.7089E+06     954.222E+03    -295.280E-03     588.952E-03    -293.673E-03     81.4982E-03    -295.771E-03     589.361E-03    -293.323E-03     76.2735E-03
             520     671.075E-06     120.739E-03    -95.4816E+06    -183.059E+06    -94.5597E+06     827.973E+03    -293.083E-03     585.983E-03    -292.900E-03     4.81105E-03    -293.079E-03     585.387E-03    -292.969E-03     4.84319E-03
             521     1.34282E-03     120.752E-03    -94.0165E+06    -177.230E+06    -90.3479E+06     1.50815E+06    -293.180E-03     586.174E-03    -292.994E-03     9.74473E-03    -293.246E-03     585.542E-03    -293.053E-03     9.69031E-03
             522     2.01483E-03     120.772E-03    -91.7200E+06    -167.514E+06    -83.6913E+06     2.24582E+06    -293.120E-03     586.168E-03    -293.048E-03     14.3041E-03    -293.203E-03     585.574E-03    -293.091E-03     14.2150E-03
             523     2.68471E-03     120.801E-03    -88.5030E+06    -154.307E+06    -74.9796E+06     2.97534E+06    -293.020E-03     586.074E-03    -293.054E-03     19.0300E-03    -293.125E-03     585.535E-03    -293.076E-03     18.8237E-03
             524     3.35672E-03     120.838E-03    -84.4641E+06    -137.476E+06    -64.3958E+06     3.76318E+06    -293.065E-03     586.113E-03    -293.048E-03     23.7564E-03    -293.197E-03     585.644E-03    -293.048E-03     23.4415E-03
             525     4.02912E-03     120.882E-03    -79.7049E+06    -116.758E+06    -51.9339E+06     4.50585E+06    -293.090E-03     586.136E-03    -293.046E-03     29.2228E-03    -293.254E-03     585.753E-03    -293.021E-03     28.7280E-03
             526     4.70050E-03     120.936E-03    -74.4143E+06    -92.0239E+06    -38.4005E+06     5.34303E+06    -292.922E-03     585.949E-03    -293.027E-03     34.3286E-03    -293.124E-03     585.672E-03    -292.978E-03     33.5758E-03
             527     5.37253E-03     120.998E-03    -68.4568E+06    -60.9637E+06    -23.8159E+06     6.53093E+06    -293.086E-03     586.084E-03    -292.998E-03     39.2562E-03    -293.337E-03     585.945E-03    -292.929E-03     38.2341E-03
             528     6.04342E-03     121.068E-03    -62.2321E+06    -31.4762E+06    -8.14714E+06     7.21798E+06    -293.428E-03     586.430E-03    -293.002E-03     43.5353E-03    -293.730E-03     586.423E-03    -292.907E-03     42.1267E-03
             529     6.71521E-03     121.143E-03    -57.1053E+06    -17.2470E+06     6.26652E+06     6.71663E+06    -293.723E-03     586.772E-03    -293.049E-03     47.9939E-03    -294.062E-03     586.829E-03    -292.909E-03     46.0633E-03
             530     7.38567E-03     121.231E-03    -51.3226E+06    -3.59791E+06     19.5307E+06      6.0255E+06    -294.120E-03     587.226E-03    -293.105E-03     53.1399E-03    -294.493E-03     587.347E-03    -292.928E-03     50.7690E-03
             531     8.05731E-03     121.327E-03    -44.4114E+06     11.5519E+06     34.0314E+06     5.44533E+06    -294.505E-03     587.685E-03    -293.180E-03     57.5388E-03    -294.921E-03     587.885E-03    -292.962E-03     54.4900E-03
             532     8.72810E-03     121.426E-03    -38.1893E+06     18.0855E+06     48.9110E+06     4.37008E+06    -294.899E-03     588.179E-03    -293.280E-03     62.5080E-03    -295.351E-03     588.418E-03    -293.007E-03     58.8512E-03
             533     9.39946E-03     121.539E-03    -32.3563E+06     23.2046E+06     61.3092E+06     3.32088E+06    -295.057E-03     588.425E-03    -293.368E-03     67.9374E-03    -295.545E-03     588.703E-03    -293.048E-03     63.7363E-03
             534     10.0705E-03     121.656E-03    -26.4261E+06     28.2542E+06     70.0891E+06     3.25868E+06    -295.296E-03     588.726E-03    -293.430E-03     72.2038E-03    -295.817E-03     589.050E-03    -293.083E-03     67.3537E-03
             535     10.7409E-03     121.775E-03    -20.6836E+06     35.2865E+06     74.6418E+06     3.25002E+06    -295.533E-03     589.000E-03    -293.466E-03     76.1643E-03    -296.081E-03     589.383E-03    -293.114E-03     70.8119E-03
             536     11.4124E-03     121.906E-03    -15.2260E+06     41.7813E+06     77.3645E+06     2.37745E+06    -295.145E-03     588.619E-03    -293.474E-03     80.2784E-03    -295.718E-03     589.062E-03    -293.126E-03     74.4487E-03
             537     12.0841E-03     122.040E-03    -9.66180E+06     46.4813E+06     80.3062E+06     1.43201E+06    -295.146E-03     588.608E-03    -293.462E-03     82.5911E-03    -295.713E-03     589.073E-03    -293.113E-03     76.6153E-03
             538     12.7558E-03     122.176E-03    -4.48171E+06     51.6404E+06     83.4952E+06     556.465E+03    -295.267E-03     588.717E-03    -293.450E-03     81.0554E-03    -295.759E-03     589.134E-03    -293.101E-03     75.8545E-03
             539     672.287E-06     122.442E-03    -96.4269E+06    -186.719E+06    -95.2864E+06     602.518E+03    -292.485E-03     585.444E-03    -292.959E-03     4.62908E-03    -292.479E-03     584.834E-03    -293.025E-03     4.65716E-03
             540     1.34324E-03     122.454E-03    -94.8169E+06    -180.707E+06    -91.0529E+06     1.32233E+06    -292.917E-03     585.643E-03    -292.727E-03     9.25307E-03    -292.977E-03     584.994E-03    -292.782E-03     9.29154E-03
             541     2.01403E-03     122.475E-03    -92.5300E+06    -171.080E+06    -84.3734E+06     1.95755E+06    -292.716E-03     585.479E-03    -292.763E-03     13.8050E-03    -292.795E-03     584.868E-03    -292.803E-03     13.7543E-03
             542     2.68686E-03     122.503E-03    -89.3321E+06    -157.732E+06    -75.3559E+06     2.55088E+06    -292.507E-03     585.234E-03    -292.727E-03     19.2788E-03    -292.611E-03     584.680E-03    -292.746E-03     19.0443E-03
             543     3.35825E-03     122.540E-03    -85.3457E+06    -140.814E+06    -64.6429E+06     3.07548E+06    -292.675E-03     585.370E-03    -292.695E-03     24.3084E-03    -292.807E-03     584.886E-03    -292.690E-03     23.9320E-03
             544     4.02931E-03     122.584E-03    -80.7817E+06    -120.384E+06    -52.6380E+06     3.74517E+06    -292.979E-03     585.686E-03    -292.707E-03     28.9735E-03    -293.141E-03     585.287E-03    -292.679E-03     28.4879E-03
             545     4.70115E-03     122.638E-03    -75.5708E+06    -95.8332E+06    -39.3392E+06     4.35292E+06    -293.014E-03     585.750E-03    -292.736E-03     33.3646E-03    -293.214E-03     585.455E-03    -292.684E-03     32.6119E-03
             546     5.37290E-03     122.698E-03    -70.0933E+06    -66.4656E+06    -25.2466E+06     5.61575E+06    -292.881E-03     585.623E-03    -292.742E-03     38.4361E-03    -293.130E-03     585.461E-03    -292.670E-03     37.3644E-03
             547     6.04531E-03     122.772E-03    -64.4176E+06    -35.7361E+06    -11.2238E+06     7.16542E+06    -293.334E-03     586.085E-03    -292.751E-03     43.4302E-03    -293.636E-03     586.064E-03    -292.662E-03     42.0110E-03
             548     6.71570E-03     122.847E-03    -57.8983E+06    -17.4276E+06     3.29930E+06     7.62821E+06    -294.151E-03     586.980E-03    -292.829E-03     48.7524E-03    -294.494E-03     587.046E-03    -292.703E-03     46.7571E-03
             549     7.38722E-03     122.936E-03    -51.7420E+06    -2.93084E+06     18.2667E+06     6.65691E+06    -294.276E-03     587.211E-03    -292.935E-03     54.0014E-03    -294.652E-03     587.341E-03    -292.765E-03     51.6387E-03
             550     8.05851E-03     123.029E-03    -45.8417E+06     12.2317E+06     33.8202E+06     5.57580E+06    -294.399E-03     587.428E-03    -293.028E-03     58.7890E-03    -294.822E-03     587.633E-03    -292.810E-03     55.8530E-03
             551     8.72952E-03     123.134E-03    -39.5268E+06     18.8336E+06     49.2395E+06     5.38237E+06    -294.734E-03     587.863E-03    -293.128E-03     63.6303E-03    -295.198E-03     588.110E-03    -292.852E-03     59.9889E-03
             552     9.40038E-03     123.241E-03    -33.3107E+06     24.4836E+06     62.4342E+06     5.02993E+06    -294.589E-03     587.795E-03    -293.206E-03     68.1142E-03    -295.084E-03     588.077E-03    -292.881E-03     63.9918E-03
             553     10.0730E-03     123.361E-03    -27.2014E+06     29.5115E+06     71.4462E+06     4.21922E+06    -294.755E-03     588.001E-03    -293.246E-03     72.3659E-03    -295.284E-03     588.331E-03    -292.892E-03     67.5457E-03
             554     10.7441E-03     123.483E-03    -20.8325E+06     36.7720E+06     75.9361E+06     3.08890E+06    -295.184E-03     588.449E-03    -293.265E-03     76.2729E-03    -295.742E-03     588.843E-03    -292.908E-03     70.8314E-03
             555     11.4147E-03     123.610E-03    -14.6073E+06     43.7426E+06     78.9013E+06     2.01554E+06    -295.018E-03     588.288E-03    -293.271E-03     79.9398E-03    -295.592E-03     588.737E-03    -292.918E-03     74.1151E-03
             556     12.0871E-03     123.743E-03    -9.41292E+06     48.3379E+06     81.3073E+06     1.20059E+06    -294.732E-03     587.986E-03    -293.254E-03     82.7119E-03    -295.305E-03     588.461E-03    -292.904E-03     76.7255E-03
             557     12.7586E-03     123.882E-03    -4.48330E+06     53.1941E+06     84.3294E+06     478.429E+03    -294.993E-03     588.228E-03    -293.235E-03     80.8528E-03    -295.488E-03     588.652E-03    -292.884E-03     75.6733E-03
             558     670.984E-06     124.141E-03    -97.2557E+06    -190.037E+06    -96.1381E+06     890.097E+03    -292.342E-03     584.892E-03    -292.549E-03     5.36274E-03    -292.326E-03     584.274E-03    -292.613E-03     5.31610E-03
             559     1.34317E-03     124.158E-03    -95.8098E+06    -183.995E+06    -91.8424E+06     1.38410E+06    -292.477E-03     584.890E-03    -292.413E-03     10.0778E-03    -292.538E-03     584.229E-03    -292.466E-03     9.98587E-03
             560     2.01546E-03     124.175E-03    -93.5576E+06    -174.389E+06    -85.0461E+06     1.92913E+06    -292.281E-03     584.687E-03    -292.405E-03     14.1540E-03    -292.361E-03     584.063E-03    -292.442E-03     14.0534E-03
             561     2.68701E-03     124.203E-03    -90.3913E+06    -160.919E+06    -75.9769E+06     2.55456E+06    -292.297E-03     584.672E-03    -292.376E-03     19.1310E-03    -292.400E-03     584.105E-03    -292.391E-03     18.9075E-03
             562     3.35955E-03     124.240E-03    -86.6942E+06    -143.998E+06    -65.1982E+06     3.25968E+06    -292.558E-03     584.940E-03    -292.383E-03     23.9845E-03    -292.691E-03     584.444E-03    -292.374E-03     23.6227E-03
             563     4.03161E-03     124.287E-03    -82.5368E+06    -123.760E+06    -53.3072E+06     3.98474E+06    -292.687E-03     585.104E-03    -292.417E-03     28.9665E-03    -292.854E-03     584.693E-03    -292.384E-03     28.4617E-03
             564     4.70273E-03     124.340E-03    -77.9215E+06    -99.7561E+06    -40.6983E+06     4.83093E+06    -293.008E-03     585.471E-03    -292.462E-03     34.2444E-03    -293.215E-03     585.164E-03    -292.408E-03     33.4681E-03
             565     5.37406E-03     124.401E-03    -72.9072E+06    -71.8956E+06    -27.6974E+06     5.90389E+06    -293.261E-03     585.782E-03    -292.520E-03     38.7894E-03    -293.514E-03     585.600E-03    -292.449E-03     37.7457E-03
             566     6.04585E-03     124.471E-03    -67.2510E+06    -39.4727E+06    -13.9631E+06     6.41353E+06    -293.255E-03     585.823E-03    -292.568E-03     43.6434E-03    -293.562E-03     585.791E-03    -292.483E-03     42.2542E-03
             567     6.71839E-03     124.553E-03    -60.9365E+06    -18.9597E+06     284.227E+03     6.00023E+06    -293.686E-03     586.319E-03    -292.633E-03     48.6330E-03    -294.032E-03     586.380E-03    -292.516E-03     46.7941E-03
             568     7.38891E-03     124.638E-03    -54.0459E+06    -3.28708E+06     15.2831E+06     6.08799E+06    -294.076E-03     586.800E-03    -292.724E-03     53.5562E-03    -294.455E-03     586.931E-03    -292.564E-03     51.2849E-03
             569     8.06020E-03     124.734E-03    -47.6280E+06     12.4263E+06     31.5934E+06     6.29192E+06    -294.192E-03     587.011E-03    -292.819E-03     59.1023E-03    -294.619E-03     587.222E-03    -292.610E-03     56.2538E-03
             570     8.73173E-03     124.837E-03    -41.1241E+06     18.8815E+06     48.2630E+06     5.91482E+06    -294.440E-03     587.360E-03    -292.920E-03     63.7387E-03    -294.904E-03     587.606E-03    -292.647E-03     60.2521E-03
             571     9.40340E-03     124.947E-03    -33.9409E+06     25.7523E+06     62.5495E+06     5.23415E+06    -294.768E-03     587.777E-03    -293.010E-03     68.0951E-03    -295.267E-03     588.066E-03    -292.685E-03     63.9776E-03
             572     10.0733E-03     125.063E-03    -26.8083E+06     32.0524E+06     72.5514E+06     3.95629E+06    -294.531E-03     587.595E-03    -293.064E-03     72.4237E-03    -295.062E-03     587.934E-03    -292.709E-03     67.6253E-03
             573     10.7457E-03     125.187E-03    -20.1327E+06     38.6883E+06     77.5782E+06     2.80157E+06    -294.370E-03     587.434E-03    -293.065E-03     76.4968E-03    -294.930E-03     587.836E-03    -292.704E-03     71.0603E-03
             574     11.4179E-03     125.315E-03    -14.4309E+06     45.5391E+06     80.3100E+06     2.05023E+06    -294.794E-03     587.846E-03    -293.051E-03     79.8570E-03    -295.369E-03     588.298E-03    -292.695E-03     74.0746E-03
             575     12.0885E-03     125.447E-03    -9.16305E+06     50.4816E+06     82.9450E+06     1.21037E+06    -294.925E-03     587.971E-03    -293.047E-03     82.6294E-03    -295.500E-03     588.453E-03    -292.692E-03     76.6574E-03
             576     12.7614E-03     125.583E-03    -4.40734E+06     54.3712E+06     85.6995E+06     746.201E+03    -294.962E-03     588.006E-03    -293.044E-03     81.2446E-03    -295.468E-03     588.440E-03    -292.688E-03     75.9936E-03
             577     673.059E-06     125.845E-03    -98.0665E+06    -193.612E+06    -97.2352E+06     823.660E+03    -292.114E-03     583.753E-03    -291.639E-03     6.29384E-03    -292.084E-03     583.127E-03    -291.702E-03     6.20571E-03
             578     1.34449E-03     125.855E-03    -96.5175E+06    -187.671E+06    -92.5639E+06     1.45873E+06    -292.040E-03     583.906E-03    -291.866E-03     9.71302E-03    -292.097E-03     583.227E-03    -291.917E-03     9.67910E-03
             579     2.01647E-03     125.877E-03    -94.0279E+06    -177.809E+06    -85.3667E+06     2.22407E+06    -292.123E-03     584.062E-03    -291.938E-03     14.2757E-03    -292.200E-03     583.422E-03    -291.971E-03     14.1993E-03
             580     2.68851E-03     125.902E-03    -90.9498E+06    -164.542E+06    -76.2872E+06     2.95228E+06    -292.552E-03     584.587E-03    -292.034E-03     19.3597E-03    -292.652E-03     584.002E-03    -292.045E-03     19.1651E-03
             581     3.35961E-03     125.942E-03    -87.0797E+06    -147.871E+06    -65.4886E+06     3.80575E+06    -292.508E-03     584.644E-03    -292.135E-03     24.1188E-03    -292.637E-03     584.128E-03    -292.122E-03     23.7886E-03
             582     4.03136E-03     125.986E-03    -82.5466E+06    -127.735E+06    -53.3516E+06     4.73093E+06    -292.442E-03     584.631E-03    -292.189E-03     28.4986E-03    -292.601E-03     584.198E-03    -292.151E-03     28.0591E-03
             583     4.70465E-03     126.040E-03    -77.6089E+06    -103.986E+06    -40.4243E+06     5.67201E+06    -292.783E-03     585.019E-03    -292.236E-03     33.6460E-03    -292.978E-03     584.687E-03    -292.175E-03     33.0032E-03
             584     5.37605E-03     126.105E-03    -72.1462E+06    -75.7238E+06    -26.7157E+06     6.37742E+06    -293.377E-03     585.695E-03    -292.318E-03     38.3572E-03    -293.618E-03     585.489E-03    -292.237E-03     37.4272E-03
             585     6.04661E-03     126.173E-03    -66.3084E+06    -41.3776E+06    -12.1073E+06     6.65670E+06    -293.530E-03     585.941E-03    -292.411E-03     43.6156E-03    -293.832E-03     585.896E-03    -292.315E-03     42.2635E-03
             586     6.71766E-03     126.254E-03    -60.4189E+06    -18.0318E+06     2.49866E+06     5.93570E+06    -293.347E-03     585.835E-03    -292.489E-03     48.7877E-03    -293.689E-03     585.892E-03    -292.362E-03     47.1067E-03
             587     7.39019E-03     126.342E-03    -54.4868E+06    -5.65143E+06     16.7888E+06     5.57270E+06    -293.536E-03     586.092E-03    -292.556E-03     53.6002E-03    -293.914E-03     586.208E-03    -292.385E-03     51.4074E-03
             588     8.06173E-03     126.437E-03    -47.7822E+06     10.0744E+06     32.1210E+06     6.20068E+06    -293.814E-03     586.435E-03    -292.621E-03     59.1766E-03    -294.239E-03     586.633E-03    -292.406E-03     56.3410E-03
             589     8.73331E-03     126.541E-03    -40.8331E+06     20.7166E+06     47.4626E+06     5.61049E+06    -294.115E-03     586.811E-03    -292.696E-03     64.2060E-03    -294.578E-03     587.065E-03    -292.430E-03     60.7933E-03
             590     9.40421E-03     126.651E-03    -33.8668E+06     27.3629E+06     61.4729E+06     4.27596E+06    -294.333E-03     587.104E-03    -292.771E-03     69.0041E-03    -294.839E-03     587.409E-03    -292.454E-03     64.8074E-03
             591     10.0767E-03     126.768E-03    -26.7355E+06     33.8649E+06     72.7186E+06     3.42293E+06    -294.335E-03     587.157E-03    -292.822E-03     73.3331E-03    -294.876E-03     587.513E-03    -292.469E-03     68.4473E-03
             592     10.7483E-03     126.887E-03    -20.4520E+06     39.8499E+06     78.2276E+06     2.87651E+06    -294.376E-03     587.209E-03    -292.833E-03     77.4309E-03    -294.947E-03     587.622E-03    -292.470E-03     71.9458E-03
             593     11.4201E-03     127.019E-03    -14.6704E+06     47.4247E+06     81.4762E+06     2.21185E+06    -294.537E-03     587.363E-03    -292.826E-03     80.2493E-03    -295.121E-03     587.827E-03    -292.466E-03     74.4300E-03
             594     12.0929E-03     127.149E-03    -9.37207E+06     52.1878E+06     84.1036E+06     1.59563E+06    -294.994E-03     587.822E-03    -292.828E-03     82.8179E-03    -295.577E-03     588.313E-03    -292.470E-03     76.8168E-03
             595     12.7628E-03     127.289E-03    -4.79972E+06     55.6361E+06     86.1539E+06     1.14589E+06    -295.058E-03     587.895E-03    -292.838E-03     81.8704E-03    -295.571E-03     588.340E-03    -292.481E-03     76.5895E-03
             596     672.161E-06     127.542E-03    -98.5966E+06    -197.548E+06    -97.3792E+06     927.666E+03    -291.279E-03     583.168E-03    -291.889E-03     5.43020E-03    -291.239E-03     582.531E-03    -291.947E-03     5.36998E-03
             597     1.34463E-03     127.555E-03    -97.1317E+06    -191.436E+06    -92.9823E+06     1.57527E+06    -291.797E-03     583.381E-03    -291.584E-03     8.68479E-03    -291.851E-03     582.685E-03    -291.630E-03     8.77227E-03
             598     2.01733E-03     127.573E-03    -94.6091E+06    -181.593E+06    -85.9071E+06     2.23708E+06    -292.071E-03     583.771E-03    -291.700E-03     13.5857E-03    -292.146E-03     583.115E-03    -291.729E-03     13.6360E-03
             599     2.68894E-03     127.605E-03    -91.1053E+06    -168.272E+06    -76.4302E+06     2.91105E+06    -292.269E-03     584.090E-03    -291.822E-03     18.7111E-03    -292.364E-03     583.487E-03    -291.828E-03     18.6419E-03
             600     3.36118E-03     127.640E-03    -86.8165E+06    -151.819E+06    -65.2406E+06     3.58328E+06    -292.442E-03     584.373E-03    -291.931E-03     23.5416E-03    -292.561E-03     583.834E-03    -291.911E-03     23.3718E-03
             601     4.03346E-03     127.687E-03    -81.8135E+06    -131.995E+06    -52.7792E+06     4.35532E+06    -292.653E-03     584.684E-03    -292.031E-03     28.2836E-03    -292.801E-03     584.226E-03    -291.985E-03     28.0110E-03
             602     4.70351E-03     127.741E-03    -76.2245E+06    -108.135E+06    -39.2158E+06     5.24756E+06    -292.717E-03     584.831E-03    -292.114E-03     33.6109E-03    -292.899E-03     584.472E-03    -292.043E-03     33.0995E-03
             603     5.37600E-03     127.805E-03    -70.4036E+06    -79.7095E+06    -24.9419E+06     6.18552E+06    -292.806E-03     584.979E-03    -292.174E-03     38.7734E-03    -293.034E-03     584.747E-03    -292.081E-03     37.9314E-03
             604     6.04822E-03     127.877E-03    -64.5648E+06    -44.6168E+06    -10.1960E+06     7.17712E+06    -293.122E-03     585.347E-03    -292.225E-03     43.9588E-03    -293.409E-03     585.277E-03    -292.118E-03     42.7466E-03
             605     6.72007E-03     127.955E-03    -58.8690E+06    -17.2956E+06     4.71117E+06     7.47211E+06    -293.238E-03     585.526E-03    -292.288E-03     49.4978E-03    -293.577E-03     585.581E-03    -292.154E-03     47.8948E-03
             606     7.39151E-03     128.043E-03    -52.9756E+06    -6.29869E+06     19.6795E+06     6.82814E+06    -293.250E-03     585.608E-03    -292.358E-03     54.4492E-03    -293.623E-03     585.714E-03    -292.174E-03     52.3203E-03
             607     8.06356E-03     128.139E-03    -46.8174E+06     8.64952E+06     34.1049E+06     6.34941E+06    -293.356E-03     585.761E-03    -292.405E-03     59.6921E-03    -293.777E-03     585.947E-03    -292.179E-03     56.8985E-03
             608     8.73557E-03     128.243E-03    -40.3238E+06     23.1624E+06     48.1053E+06     5.60400E+06    -293.496E-03     585.938E-03    -292.441E-03     65.2427E-03    -293.969E-03     586.209E-03    -292.176E-03     61.7280E-03
             609     9.40807E-03     128.354E-03    -33.6420E+06     29.6057E+06     61.8717E+06     4.29319E+06    -293.681E-03     586.167E-03    -292.485E-03     69.6843E-03    -294.194E-03     586.486E-03    -292.170E-03     65.4486E-03
             610     10.0798E-03     128.469E-03    -27.1775E+06     34.4536E+06     72.9030E+06     3.42325E+06    -294.281E-03     586.813E-03    -292.532E-03     73.7914E-03    -294.830E-03     587.177E-03    -292.178E-03     68.8756E-03
             611     10.7513E-03     128.594E-03    -20.9408E+06     40.6058E+06     78.9159E+06     3.08771E+06    -294.758E-03     587.331E-03    -292.573E-03     77.2207E-03    -295.331E-03     587.745E-03    -292.207E-03     71.7648E-03
             612     11.4230E-03     128.719E-03    -15.2872E+06     48.7540E+06     82.1618E+06     2.77672E+06    -294.752E-03     587.352E-03    -292.599E-03     80.1689E-03    -295.340E-03     587.820E-03    -292.237E-03     74.3767E-03
             613     12.0939E-03     128.855E-03    -10.0886E+06     53.4866E+06     84.3054E+06     2.10075E+06    -294.731E-03     587.342E-03    -292.611E-03     82.6896E-03    -295.315E-03     587.836E-03    -292.253E-03     76.7558E-03
             614     12.7672E-03     128.990E-03    -4.91209E+06     57.9761E+06     86.8380E+06     1.01367E+06    -294.818E-03     587.438E-03    -292.620E-03     81.6958E-03    -295.334E-03     587.890E-03    -292.262E-03     76.4424E-03
             615     672.188E-06     129.239E-03    -100.244E+06    -201.548E+06    -99.0741E+06     865.871E+03    -290.935E-03     583.091E-03    -292.156E-03     5.58217E-03    -290.889E-03     582.440E-03    -292.214E-03     5.54502E-03
             616     1.34514E-03     129.252E-03    -98.2268E+06    -194.838E+06    -94.1674E+06     1.43296E+06    -291.757E-03     583.298E-03    -291.541E-03     9.36494E-03    -291.810E-03     582.588E-03    -291.587E-03     9.40817E-03
             617     2.01618E-03     129.274E-03    -95.4856E+06    -184.612E+06    -86.6943E+06     1.79601E+06    -291.949E-03     583.595E-03    -291.646E-03     13.8565E-03    -292.023E-03     582.927E-03    -291.673E-03     13.8896E-03
             618     2.68894E-03     129.302E-03    -91.9442E+06    -171.490E+06    -77.1356E+06     2.18773E+06    -291.875E-03     583.595E-03    -291.720E-03     18.9896E-03    -291.969E-03     582.978E-03    -291.724E-03     18.9028E-03
             619     3.36107E-03     129.341E-03    -87.5974E+06    -155.214E+06    -65.7291E+06     2.71862E+06    -292.219E-03     584.004E-03    -291.785E-03     23.9372E-03    -292.338E-03     583.452E-03    -291.762E-03     23.7572E-03
             620     4.03224E-03     129.386E-03    -82.6124E+06    -135.528E+06    -52.9953E+06     3.31068E+06    -292.547E-03     584.428E-03    -291.881E-03     28.6703E-03    -292.694E-03     583.955E-03    -291.830E-03     28.3990E-03
             621     4.70588E-03     129.442E-03    -77.1760E+06    -112.350E+06    -39.5363E+06     4.11295E+06    -292.426E-03     584.385E-03    -291.958E-03     33.9016E-03    -292.606E-03     584.007E-03    -291.881E-03     33.4229E-03
             622     5.37728E-03     129.505E-03    -71.2016E+06    -84.7634E+06    -25.4286E+06     5.23608E+06    -292.358E-03     584.348E-03    -291.990E-03     39.4867E-03    -292.582E-03     584.092E-03    -291.891E-03     38.6932E-03
             623     6.04949E-03     129.577E-03    -65.0689E+06    -50.8377E+06    -10.7138E+06     7.14136E+06    -292.692E-03     584.703E-03    -292.011E-03     44.2509E-03    -292.968E-03     584.599E-03    -291.897E-03     43.1840E-03
             624     6.72152E-03     129.657E-03    -59.1266E+06    -19.7917E+06     3.88858E+06     8.93991E+06    -292.853E-03     584.901E-03    -292.047E-03     48.8398E-03    -293.182E-03     584.938E-03    -291.913E-03     47.4294E-03
             625     7.39363E-03     129.745E-03    -53.5000E+06    -4.86156E+06     17.6117E+06     8.55673E+06    -292.847E-03     584.939E-03    -292.092E-03     54.5173E-03    -293.219E-03     585.052E-03    -291.919E-03     52.5101E-03
             626     8.06570E-03     129.840E-03    -47.4350E+06     9.93903E+06     32.1430E+06     6.90960E+06    -293.114E-03     585.246E-03    -292.132E-03     60.0026E-03    -293.535E-03     585.440E-03    -291.917E-03     57.2855E-03
             627     8.73815E-03     129.944E-03    -40.5885E+06     25.1748E+06     48.1280E+06     5.62718E+06    -293.210E-03     585.387E-03    -292.177E-03     64.5672E-03    -293.679E-03     585.662E-03    -291.914E-03     61.1709E-03
             628     9.41042E-03     130.054E-03    -33.7612E+06     31.3657E+06     63.0422E+06     4.75157E+06    -293.462E-03     585.692E-03    -292.230E-03     68.7052E-03    -293.967E-03     586.006E-03    -291.912E-03     64.6598E-03
             629     10.0825E-03     130.172E-03    -27.4303E+06     34.9306E+06     74.0319E+06     4.32320E+06    -294.077E-03     586.360E-03    -292.284E-03     73.2861E-03    -294.620E-03     586.715E-03    -291.925E-03     68.5294E-03
             630     10.7540E-03     130.296E-03    -21.4164E+06     41.1972E+06     80.1365E+06     3.89129E+06    -294.611E-03     586.942E-03    -292.331E-03     76.9796E-03    -295.181E-03     587.350E-03    -291.959E-03     71.6611E-03
             631     11.4252E-03     130.422E-03    -15.4554E+06     50.2609E+06     83.6584E+06     3.08490E+06    -294.876E-03     587.246E-03    -292.370E-03     80.1954E-03    -295.464E-03     587.715E-03    -292.002E-03     74.4886E-03
             632     12.0975E-03     130.557E-03    -9.73634E+06     55.9343E+06     86.0125E+06     2.04573E+06    -294.787E-03     587.187E-03    -292.399E-03     82.7167E-03    -295.375E-03     587.688E-03    -292.036E-03     76.7995E-03
             633     12.7685E-03     130.691E-03    -4.58722E+06     60.4634E+06     88.3171E+06     994.593E+03    -294.622E-03     587.036E-03    -292.414E-03     81.7989E-03    -295.145E-03     587.502E-03    -292.054E-03     76.5036E-03
             634     672.957E-06     130.936E-03    -100.824E+06    -203.966E+06    -100.050E+06     174.221E+03    -291.424E-03     582.843E-03    -291.419E-03     5.22834E-03    -291.377E-03     582.181E-03    -291.478E-03     5.30695E-03
             635     1.34439E-03     130.950E-03    -99.1453E+06    -197.445E+06    -95.8075E+06     558.848E+03    -291.625E-03     583.037E-03    -291.412E-03     9.85307E-03    -291.677E-03     582.317E-03    -291.461E-03     9.86300E-03
             636     2.01780E-03     130.972E-03    -96.6789E+06    -187.304E+06    -88.6674E+06     1.13291E+06    -291.623E-03     583.106E-03    -291.483E-03     14.3764E-03    -291.694E-03     582.427E-03    -291.515E-03     14.3938E-03
             637     2.68961E-03     131.000E-03    -93.3969E+06    -174.204E+06    -78.6654E+06     1.82151E+06    -291.768E-03     583.306E-03    -291.538E-03     19.3696E-03    -291.861E-03     582.679E-03    -291.544E-03     19.3362E-03
             638     3.36204E-03     131.039E-03    -89.3661E+06    -157.709E+06    -66.9703E+06     2.27073E+06    -291.910E-03     583.509E-03    -291.599E-03     24.7635E-03    -292.032E-03     582.948E-03    -291.576E-03     24.5882E-03
             639     4.03492E-03     131.086E-03    -84.6341E+06    -138.352E+06    -54.2350E+06     2.74637E+06    -292.165E-03     583.832E-03    -291.667E-03     29.3633E-03    -292.316E-03     583.349E-03    -291.615E-03     29.0927E-03
             640     4.70523E-03     131.141E-03    -79.3455E+06    -115.901E+06    -40.8320E+06     3.44142E+06    -292.133E-03     583.859E-03    -291.726E-03     33.9644E-03    -292.315E-03     583.467E-03    -291.647E-03     33.5366E-03
             641     5.37873E-03     131.203E-03    -73.7940E+06    -89.7115E+06    -27.2031E+06     4.56358E+06    -292.215E-03     583.973E-03    -291.759E-03     39.7684E-03    -292.441E-03     583.698E-03    -291.658E-03     39.0035E-03
             642     6.05087E-03     131.278E-03    -67.7201E+06    -58.5633E+06    -13.3383E+06     6.36258E+06    -292.553E-03     584.341E-03    -291.788E-03     44.7619E-03    -292.828E-03     584.207E-03    -291.672E-03     43.6873E-03
             643     6.72262E-03     131.357E-03    -60.8941E+06    -25.0085E+06     856.186E+03     8.05276E+06    -292.448E-03     584.260E-03    -291.812E-03     48.7147E-03    -292.772E-03     584.277E-03    -291.684E-03     47.3442E-03
             644     7.39561E-03     131.443E-03    -53.6636E+06    -4.26390E+06     15.5005E+06     8.56054E+06    -292.520E-03     584.358E-03    -291.838E-03     54.3352E-03    -292.889E-03     584.476E-03    -291.677E-03     52.3741E-03
             645     8.06824E-03     131.541E-03    -47.1349E+06     12.0883E+06     30.6512E+06     7.78410E+06    -292.990E-03     584.870E-03    -291.880E-03     59.6076E-03    -293.405E-03     585.072E-03    -291.676E-03     57.0015E-03
             646     8.73967E-03     131.644E-03    -41.2980E+06     27.3463E+06     46.5300E+06     6.47598E+06    -293.182E-03     585.122E-03    -291.940E-03     63.9566E-03    -293.646E-03     585.402E-03    -291.687E-03     60.7421E-03
             647     9.41188E-03     131.754E-03    -35.3029E+06     31.9959E+06     61.8972E+06     5.65063E+06    -293.392E-03     585.403E-03    -292.012E-03     69.1343E-03    -293.903E-03     585.724E-03    -291.697E-03     65.1568E-03
             648     10.0839E-03     131.873E-03    -28.8764E+06     35.5366E+06     74.2790E+06     5.04477E+06    -293.716E-03     585.786E-03    -292.071E-03     73.5528E-03    -294.264E-03     586.143E-03    -291.709E-03     68.8810E-03
             649     10.7566E-03     131.996E-03    -22.1607E+06     42.8244E+06     81.7476E+06     4.07177E+06    -294.247E-03     586.359E-03    -292.112E-03     77.2951E-03    -294.823E-03     586.772E-03    -291.733E-03     72.0289E-03
             650     11.4285E-03     132.127E-03    -15.8374E+06     52.5059E+06     85.7382E+06     2.91731E+06    -294.752E-03     586.903E-03    -292.151E-03     79.7481E-03    -295.340E-03     587.373E-03    -291.776E-03     74.1341E-03
             651     12.0997E-03     132.257E-03    -10.2021E+06     58.3686E+06     87.8061E+06     1.80875E+06    -294.662E-03     586.848E-03    -292.186E-03     82.1778E-03    -295.251E-03     587.354E-03    -291.817E-03     76.3195E-03
             652     12.7719E-03     132.397E-03    -5.00306E+06     62.4389E+06     89.6054E+06     911.410E+03    -294.375E-03     586.577E-03    -292.202E-03     82.1837E-03    -294.910E-03     587.056E-03    -291.837E-03     76.8477E-03
             653     672.293E-06     132.634E-03    -101.204E+06    -205.147E+06    -99.9526E+06     353.900E+03    -291.561E-03     582.859E-03    -291.299E-03     4.42931E-03    -291.525E-03     582.192E-03    -291.354E-03     4.58420E-03
             654     1.34547E-03     132.647E-03    -99.8663E+06    -199.057E+06    -95.5468E+06     469.371E+03    -291.109E-03     582.435E-03    -291.326E-03     9.42400E-03    -291.165E-03     581.710E-03    -291.370E-03     9.53012E-03
             655     2.01736E-03     132.668E-03    -97.5009E+06    -190.130E+06    -88.5702E+06     996.892E+03    -291.389E-03     582.677E-03    -291.288E-03     14.4879E-03    -291.462E-03     581.987E-03    -291.313E-03     14.5575E-03
             656     2.69017E-03     132.698E-03    -94.2587E+06    -177.237E+06    -79.4068E+06     1.79481E+06    -291.693E-03     583.042E-03    -291.349E-03     19.0935E-03    -291.786E-03     582.402E-03    -291.352E-03     19.1673E-03
             657     3.36247E-03     132.736E-03    -90.3098E+06    -159.955E+06    -68.1959E+06     2.48299E+06    -291.579E-03     582.987E-03    -291.408E-03     24.2787E-03    -291.699E-03     582.417E-03    -291.386E-03     24.2359E-03
             658     4.03442E-03     132.785E-03    -85.7882E+06    -140.946E+06    -55.3064E+06     3.03204E+06    -291.494E-03     582.922E-03    -291.428E-03     29.3532E-03    -291.644E-03     582.427E-03    -291.375E-03     29.1678E-03
             659     4.70855E-03     132.839E-03    -80.7729E+06    -119.145E+06    -41.9503E+06     3.74512E+06    -292.009E-03     583.469E-03    -291.461E-03     34.1638E-03    -292.191E-03     583.063E-03    -291.381E-03     33.8115E-03
             660     5.37977E-03     132.901E-03    -75.2362E+06    -93.8307E+06    -28.3399E+06     4.64904E+06    -292.334E-03     583.860E-03    -291.526E-03     39.7260E-03    -292.559E-03     583.567E-03    -291.423E-03     39.0502E-03
             661     6.05206E-03     132.977E-03    -69.3383E+06    -64.6607E+06    -14.7005E+06     5.74367E+06    -292.031E-03     583.594E-03    -291.563E-03     44.7230E-03    -292.302E-03     583.432E-03    -291.442E-03     43.6960E-03
             662     6.72504E-03     133.055E-03    -63.2216E+06    -29.4308E+06    -618.917E+03     6.69480E+06    -292.208E-03     583.777E-03    -291.569E-03     49.0061E-03    -292.536E-03     583.777E-03    -291.437E-03     47.6421E-03
             663     7.39693E-03     133.142E-03    -56.9268E+06    -5.69177E+06     13.1722E+06     6.89800E+06    -292.701E-03     584.306E-03    -291.606E-03     54.5567E-03    -293.080E-03     584.425E-03    -291.449E-03     52.6222E-03
             664     8.06884E-03     133.240E-03    -50.1114E+06     11.4847E+06     27.2499E+06     7.03449E+06    -292.718E-03     584.375E-03    -291.656E-03     59.7371E-03    -293.141E-03     584.581E-03    -291.464E-03     57.1889E-03
             665     8.74205E-03     133.344E-03    -43.1681E+06     27.9181E+06     43.5191E+06     7.27698E+06    -292.806E-03     584.512E-03    -291.706E-03     64.1527E-03    -293.274E-03     584.800E-03    -291.466E-03     61.0174E-03
             666     9.41447E-03     133.454E-03    -36.4053E+06     33.3666E+06     60.2964E+06     6.48941E+06    -293.268E-03     585.046E-03    -291.779E-03     69.5595E-03    -293.785E-03     585.378E-03    -291.473E-03     65.6208E-03
             667     10.0870E-03     133.574E-03    -29.3153E+06     38.0053E+06     74.4381E+06     4.82915E+06    -293.777E-03     585.632E-03    -291.856E-03     73.6955E-03    -294.329E-03     586.000E-03    -291.496E-03     69.0513E-03
             668     10.7585E-03     133.697E-03    -22.2872E+06     44.8488E+06     82.9511E+06     3.43039E+06    -294.103E-03     586.016E-03    -291.913E-03     77.2782E-03    -294.684E-03     586.437E-03    -291.531E-03     72.0259E-03
             669     11.4303E-03     133.829E-03    -15.7792E+06     53.9406E+06     87.2610E+06     2.77443E+06    -294.284E-03     586.232E-03    -291.949E-03     79.9700E-03    -294.877E-03     586.708E-03    -291.568E-03     74.3486E-03
             670     12.1022E-03     133.959E-03    -9.97450E+06     60.8264E+06     89.6290E+06     2.07252E+06    -294.266E-03     586.237E-03    -291.971E-03     81.9978E-03    -294.859E-03     586.751E-03    -291.597E-03     76.1628E-03
             671     12.7749E-03     134.094E-03    -4.78775E+06     64.8090E+06     91.3548E+06     971.031E+03    -294.187E-03     586.171E-03    -291.984E-03     82.0796E-03    -294.729E-03     586.661E-03    -291.614E-03     76.7301E-03
             672     671.897E-06     134.331E-03    -103.128E+06    -207.194E+06    -102.103E+06     483.742E+03    -290.971E-03     582.234E-03    -291.263E-03     4.33172E-03    -290.950E-03     581.563E-03    -291.323E-03     4.49135E-03
             673     1.34490E-03     134.342E-03    -101.483E+06    -201.157E+06    -96.5365E+06     1.16642E+06    -291.030E-03     582.097E-03    -291.067E-03     10.0798E-03    -291.091E-03     581.369E-03    -291.111E-03     10.1565E-03
             674     2.01841E-03     134.366E-03    -98.7304E+06    -192.371E+06    -88.3393E+06     1.63012E+06    -291.339E-03     582.442E-03    -291.103E-03     15.1073E-03    -291.417E-03     581.744E-03    -291.123E-03     15.1491E-03
             675     2.69047E-03     134.395E-03    -95.1677E+06    -180.047E+06    -78.7316E+06     1.94909E+06    -291.520E-03     582.709E-03    -291.189E-03     19.3653E-03    -291.615E-03     582.056E-03    -291.183E-03     19.4449E-03
             676     3.36282E-03     134.435E-03    -90.9262E+06    -163.142E+06    -68.1449E+06     2.67195E+06    -291.241E-03     582.469E-03    -291.228E-03     24.1035E-03    -291.359E-03     581.883E-03    -291.201E-03     24.1414E-03
             677     4.03658E-03     134.479E-03    -86.1634E+06    -143.757E+06    -55.7464E+06     3.46956E+06    -291.220E-03     582.444E-03    -291.224E-03     29.3326E-03    -291.366E-03     581.936E-03    -291.169E-03     29.2292E-03
             678     4.70837E-03     134.537E-03    -80.8792E+06    -122.314E+06    -42.0545E+06     4.06979E+06    -291.808E-03     583.061E-03    -291.253E-03     34.2453E-03    -291.984E-03     582.638E-03    -291.168E-03     33.9649E-03
             679     5.38081E-03     134.602E-03    -75.1358E+06    -97.4283E+06    -28.0977E+06     4.74853E+06    -291.981E-03     583.293E-03    -291.312E-03     39.2590E-03    -292.196E-03     582.977E-03    -291.202E-03     38.7163E-03
             680     6.05348E-03     134.672E-03    -68.9954E+06    -68.7040E+06    -13.8506E+06     5.48651E+06    -291.779E-03     583.122E-03    -291.343E-03     44.3823E-03    -292.041E-03     582.935E-03    -291.213E-03     43.4841E-03
             681     6.72650E-03     134.753E-03    -62.4928E+06    -33.5115E+06     691.676E+03     6.56063E+06    -292.075E-03     583.428E-03    -291.353E-03     49.1725E-03    -292.393E-03     583.403E-03    -291.210E-03     47.8869E-03
             682     7.39883E-03     134.842E-03    -55.9441E+06    -5.94002E+06     14.7255E+06     6.82911E+06    -292.457E-03     583.845E-03    -291.387E-03     54.4690E-03    -292.829E-03     583.954E-03    -291.224E-03     52.6421E-03
             683     8.07153E-03     134.938E-03    -49.5554E+06     9.58497E+06     28.8003E+06     6.34247E+06    -292.524E-03     583.965E-03    -291.441E-03     59.7434E-03    -292.939E-03     584.155E-03    -291.239E-03     57.2729E-03
             684     8.74376E-03     135.042E-03    -42.8094E+06     25.2873E+06     44.2936E+06     6.77248E+06    -292.739E-03     584.234E-03    -291.494E-03     64.2215E-03    -293.201E-03     584.505E-03    -291.247E-03     61.1308E-03
             685     9.41635E-03     135.153E-03    -35.6533E+06     36.2848E+06     60.3610E+06     6.33600E+06    -293.221E-03     584.787E-03    -291.566E-03     69.3063E-03    -293.734E-03     585.127E-03    -291.265E-03     65.4376E-03
             686     10.0882E-03     135.274E-03    -28.6829E+06     41.7062E+06     74.7100E+06     4.56269E+06    -293.590E-03     585.239E-03    -291.649E-03     73.8479E-03    -294.145E-03     585.624E-03    -291.295E-03     69.2200E-03
             687     10.7603E-03     135.398E-03    -22.0615E+06     46.4252E+06     83.5899E+06     3.37799E+06    -293.697E-03     585.403E-03    -291.706E-03     77.8999E-03    -294.285E-03     585.835E-03    -291.323E-03     72.6067E-03
             688     11.4330E-03     135.528E-03    -15.8929E+06     54.5184E+06     88.1400E+06     2.87216E+06    -293.781E-03     585.508E-03    -291.727E-03     80.9015E-03    -294.387E-03     585.995E-03    -291.343E-03     75.1990E-03
             689     12.1058E-03     135.660E-03    -10.1301E+06     63.0873E+06     90.9191E+06     2.19582E+06    -294.160E-03     585.903E-03    -291.743E-03     82.2912E-03    -294.763E-03     586.430E-03    -291.365E-03     76.4231E-03
             690     12.7770E-03     135.795E-03    -4.81316E+06     67.4009E+06     92.5971E+06     1.21723E+06    -294.160E-03     585.923E-03    -291.764E-03     82.0237E-03    -294.708E-03     586.425E-03    -291.391E-03     76.6743E-03
             691     674.394E-06     136.025E-03    -104.444E+06    -210.450E+06    -103.008E+06     775.678E+03    -290.247E-03     580.656E-03    -290.410E-03     5.17212E-03    -290.228E-03     579.973E-03    -290.468E-03     5.23889E-03
             692     1.34637E-03     136.039E-03    -102.817E+06    -204.413E+06    -98.5156E+06     1.50136E+06    -291.509E-03     582.035E-03    -290.526E-03     10.7771E-03    -291.572E-03     581.297E-03    -290.573E-03     10.7665E-03
             693     2.01822E-03     136.060E-03    -100.182E+06    -194.764E+06    -90.2813E+06     2.03286E+06    -291.447E-03     582.317E-03    -290.871E-03     15.2169E-03    -291.527E-03     581.614E-03    -290.894E-03     15.2657E-03
             694     2.69100E-03     136.094E-03    -96.4577E+06    -182.149E+06    -79.2626E+06     2.39427E+06    -291.062E-03     582.049E-03    -290.987E-03     19.3194E-03    -291.159E-03     581.388E-03    -290.980E-03     19.4470E-03
             695     3.36410E-03     136.128E-03    -91.9707E+06    -166.209E+06    -67.1568E+06     2.70706E+06    -291.093E-03     582.106E-03    -291.012E-03     23.9868E-03    -291.213E-03     581.504E-03    -290.974E-03     24.0937E-03
             696     4.03628E-03     136.177E-03    -86.7565E+06    -146.753E+06    -54.7206E+06     3.22642E+06    -291.377E-03     582.420E-03    -291.044E-03     29.5566E-03    -291.524E-03     581.897E-03    -290.979E-03     29.4727E-03
             697     4.70933E-03     136.234E-03    -81.0163E+06    -125.037E+06    -41.3329E+06     3.72250E+06    -291.390E-03     582.470E-03    -291.080E-03     34.8375E-03    -291.566E-03     582.034E-03    -290.988E-03     34.5335E-03
             698     5.38235E-03     136.298E-03    -74.8558E+06    -100.470E+06    -27.1437E+06     4.19612E+06    -291.452E-03     582.555E-03    -291.102E-03     39.3356E-03    -291.662E-03     582.221E-03    -290.984E-03     38.8355E-03
             699     6.05523E-03     136.369E-03    -68.3748E+06    -72.0110E+06    -12.7122E+06     4.86376E+06    -291.766E-03     582.891E-03    -291.125E-03     44.3982E-03    -292.019E-03     582.683E-03    -290.985E-03     43.5634E-03
             700     6.72719E-03     136.451E-03    -61.7150E+06    -37.8002E+06     1.90079E+06     5.63978E+06    -291.913E-03     583.062E-03    -291.149E-03     49.7095E-03    -292.223E-03     583.013E-03    -290.995E-03     48.4208E-03
             701     7.40032E-03     136.539E-03    -54.8252E+06    -6.84769E+06     16.1972E+06     6.17570E+06    -292.055E-03     583.226E-03    -291.172E-03     54.6789E-03    -292.421E-03     583.326E-03    -291.001E-03     52.8910E-03
             702     8.07292E-03     136.637E-03    -48.0157E+06     7.34929E+06     30.4631E+06     6.80540E+06    -292.451E-03     583.676E-03    -291.224E-03     59.5966E-03    -292.854E-03     583.846E-03    -291.013E-03     57.2292E-03
             703     8.74568E-03     136.740E-03    -41.6897E+06     23.1428E+06     45.7040E+06     7.13473E+06    -292.791E-03     584.083E-03    -291.292E-03     64.4484E-03    -293.245E-03     584.339E-03    -291.037E-03     61.4060E-03
             704     9.41780E-03     136.853E-03    -35.3021E+06     39.2016E+06     61.1902E+06     6.27090E+06    -292.996E-03     584.358E-03    -291.362E-03     70.0137E-03    -293.516E-03     584.715E-03    -291.062E-03     66.1272E-03
             705     10.0906E-03     136.972E-03    -28.6934E+06     44.2106E+06     75.3294E+06     5.18132E+06    -293.158E-03     584.593E-03    -291.435E-03     74.5558E-03    -293.722E-03     584.994E-03    -291.081E-03     69.9055E-03
             706     10.7637E-03     137.097E-03    -22.4477E+06     47.8148E+06     84.3315E+06     4.39689E+06    -293.372E-03     584.855E-03    -291.483E-03     77.8033E-03    -293.964E-03     585.292E-03    -291.098E-03     72.5644E-03
             707     11.4361E-03     137.227E-03    -16.4342E+06     56.4989E+06     89.2228E+06     3.26473E+06    -293.541E-03     585.045E-03    -291.503E-03     80.4491E-03    -294.149E-03     585.536E-03    -291.115E-03     74.8190E-03
             708     12.1078E-03     137.361E-03    -10.5331E+06     65.2343E+06     91.8820E+06     2.04261E+06    -293.820E-03     585.335E-03    -291.515E-03     82.7123E-03    -294.436E-03     585.879E-03    -291.135E-03     76.7911E-03
             709     12.7806E-03     137.496E-03    -5.05147E+06     69.3658E+06     93.1759E+06     1.19770E+06    -293.999E-03     585.531E-03    -291.533E-03     81.9283E-03    -294.553E-03     586.044E-03    -291.160E-03     76.5935E-03
             710     673.535E-06     137.718E-03    -104.993E+06    -214.417E+06    -104.216E+06     924.640E+03    -290.665E-03     580.429E-03    -289.765E-03     6.01066E-03    -290.645E-03     579.727E-03    -289.823E-03     6.01956E-03
             711     1.34664E-03     137.735E-03    -103.360E+06    -207.932E+06    -98.8029E+06     1.58183E+06    -291.321E-03     581.723E-03    -290.402E-03     10.1260E-03    -291.382E-03     580.968E-03    -290.444E-03     10.2182E-03
             712     2.01873E-03     137.758E-03    -100.655E+06    -197.925E+06    -90.9087E+06     2.18451E+06    -290.994E-03     581.680E-03    -290.686E-03     14.6298E-03    -291.071E-03     580.962E-03    -290.708E-03     14.7883E-03
             713     2.69171E-03     137.786E-03    -96.9830E+06    -184.484E+06    -80.3038E+06     2.68078E+06    -290.708E-03     581.450E-03    -290.742E-03     19.3014E-03    -290.804E-03     580.780E-03    -290.735E-03     19.4794E-03
             714     3.36482E-03     137.825E-03    -92.4768E+06    -168.333E+06    -67.4209E+06     2.99003E+06    -290.985E-03     581.754E-03    -290.769E-03     24.5141E-03    -291.106E-03     581.145E-03    -290.728E-03     24.6022E-03
             715     4.03757E-03     137.873E-03    -87.3868E+06    -149.377E+06    -53.6817E+06     3.27828E+06    -291.129E-03     581.948E-03    -290.818E-03     30.1059E-03    -291.279E-03     581.412E-03    -290.744E-03     29.9978E-03
             716     4.71041E-03     137.929E-03    -81.8737E+06    -127.230E+06    -40.1404E+06     3.63471E+06    -291.078E-03     581.926E-03    -290.848E-03     35.2402E-03    -291.258E-03     581.479E-03    -290.745E-03     34.9346E-03
             717     5.38343E-03     137.994E-03    -76.0840E+06    -102.707E+06    -26.4823E+06     3.93468E+06    -291.342E-03     582.211E-03    -290.869E-03     39.8669E-03    -291.557E-03     581.868E-03    -290.742E-03     39.3613E-03
             718     6.05601E-03     138.066E-03    -70.0828E+06    -75.4836E+06    -12.5034E+06     4.58402E+06    -291.659E-03     582.565E-03    -290.906E-03     44.6361E-03    -291.916E-03     582.342E-03    -290.758E-03     43.8359E-03
             719     6.72969E-03     138.147E-03    -64.1078E+06    -41.5694E+06     1.82141E+06     5.64168E+06    -291.757E-03     582.696E-03    -290.940E-03     49.4797E-03    -292.071E-03     582.630E-03    -290.777E-03     48.2774E-03
             720     7.40219E-03     138.236E-03    -58.3093E+06     -8.9165E+06     15.8369E+06     6.30043E+06    -291.900E-03     582.868E-03    -290.967E-03     54.5427E-03    -292.278E-03     582.961E-03    -290.790E-03     52.8232E-03
             721     8.07505E-03     138.334E-03    -52.0451E+06     5.56862E+06     27.9911E+06     6.04389E+06    -292.241E-03     583.254E-03    -291.013E-03     59.7399E-03    -292.657E-03     583.424E-03    -290.806E-03     57.3955E-03
             722     8.74733E-03     138.438E-03    -44.7284E+06     21.7496E+06     41.3346E+06     5.86213E+06    -292.522E-03     583.589E-03    -291.067E-03     64.5903E-03    -292.982E-03     583.848E-03    -290.827E-03     61.5677E-03
             723     9.42046E-03     138.550E-03    -37.3424E+06     39.8539E+06     58.4159E+06     6.05794E+06    -292.730E-03     583.866E-03    -291.136E-03     69.8468E-03    -293.253E-03     584.229E-03    -290.848E-03     66.0358E-03
             724     10.0932E-03     138.671E-03    -30.4759E+06     45.3499E+06     74.7751E+06     5.66922E+06    -293.012E-03     584.233E-03    -291.221E-03     74.0702E-03    -293.579E-03     584.636E-03    -290.869E-03     69.5384E-03
             725     10.7651E-03     138.796E-03    -23.4879E+06     49.9451E+06     84.9974E+06     4.55799E+06    -293.197E-03     584.474E-03    -291.277E-03     77.4533E-03    -293.792E-03     584.916E-03    -290.891E-03     72.3063E-03
             726     11.4375E-03     138.926E-03    -16.6842E+06     59.5167E+06     90.4337E+06     3.17164E+06    -293.163E-03     584.458E-03    -291.295E-03     80.4364E-03    -293.777E-03     584.961E-03    -290.905E-03     74.8400E-03
             727     12.1112E-03     139.058E-03    -10.6097E+06     67.3988E+06     92.8380E+06     2.04688E+06    -293.341E-03     584.636E-03    -291.294E-03     83.1393E-03    -293.968E-03     585.195E-03    -290.912E-03     77.1743E-03
             728     12.7835E-03     139.196E-03    -5.12942E+06     71.4626E+06     93.8858E+06     1.05801E+06    -293.871E-03     585.176E-03    -291.306E-03     82.0251E-03    -294.432E-03     585.701E-03    -290.932E-03     76.6777E-03
             729     673.185E-06     139.413E-03    -106.180E+06    -217.798E+06    -105.040E+06     737.465E+03    -290.943E-03     581.460E-03    -290.516E-03     6.76965E-03    -290.931E-03     580.742E-03    -290.572E-03     6.65770E-03
             730     1.34513E-03     139.430E-03    -104.416E+06    -211.494E+06    -99.6983E+06     1.27159E+06    -290.307E-03     580.920E-03    -290.614E-03     10.4294E-03    -290.367E-03     580.152E-03    -290.654E-03     10.5219E-03
             731     2.01932E-03     139.451E-03    -101.325E+06    -201.063E+06    -91.3775E+06     1.91480E+06    -290.249E-03     580.749E-03    -290.499E-03     14.6911E-03    -290.324E-03     580.016E-03    -290.518E-03     14.8809E-03
             732     2.69269E-03     139.481E-03    -97.4254E+06    -187.503E+06    -80.7774E+06     2.52652E+06    -290.569E-03     581.046E-03    -290.477E-03     19.3867E-03    -290.662E-03     580.363E-03    -290.468E-03     19.5950E-03
             733     3.36544E-03     139.520E-03    -92.7521E+06    -170.865E+06    -68.2076E+06     3.14426E+06    -290.695E-03     581.208E-03    -290.513E-03     24.7335E-03    -290.812E-03     580.587E-03    -290.472E-03     24.8317E-03
             734     4.03885E-03     139.568E-03    -87.5082E+06    -151.768E+06    -54.0109E+06     3.67053E+06    -290.832E-03     581.389E-03    -290.557E-03     29.8856E-03    -290.976E-03     580.841E-03    -290.480E-03     29.8515E-03
             735     4.71202E-03     139.624E-03    -81.8021E+06    -129.763E+06    -39.1420E+06     4.23847E+06    -291.039E-03     581.644E-03    -290.606E-03     34.8449E-03    -291.213E-03     581.182E-03    -290.495E-03     34.6428E-03
             736     5.38502E-03     139.689E-03    -75.9520E+06    -105.531E+06    -24.6176E+06     5.08450E+06    -291.293E-03     581.951E-03    -290.658E-03     39.7811E-03    -291.504E-03     581.589E-03    -290.518E-03     39.3540E-03
             737     6.05811E-03     139.762E-03    -70.1444E+06    -79.0246E+06    -10.5790E+06     5.96819E+06    -291.546E-03     582.259E-03    -290.713E-03     44.3738E-03    -291.799E-03     582.013E-03    -290.550E-03     43.6800E-03
             738     6.72990E-03     139.843E-03    -64.1301E+06    -46.3422E+06     3.16604E+06     7.18052E+06    -291.565E-03     582.316E-03    -290.751E-03     49.2891E-03    -291.872E-03     582.221E-03    -290.575E-03     48.2007E-03
             739     7.40316E-03     139.932E-03    -57.6755E+06    -10.1318E+06     16.9954E+06     7.83530E+06    -291.701E-03     582.471E-03    -290.771E-03     54.9256E-03    -292.076E-03     582.556E-03    -290.587E-03     53.2560E-03
             740     8.07605E-03     140.030E-03    -51.0109E+06     8.92551E+06     29.9741E+06     6.18032E+06    -292.004E-03     582.814E-03    -290.811E-03     60.0787E-03    -292.423E-03     582.997E-03    -290.600E-03     57.7677E-03
             741     8.74941E-03     140.135E-03    -44.5625E+06     19.5772E+06     42.9210E+06     4.92613E+06    -292.320E-03     583.189E-03    -290.869E-03     64.7923E-03    -292.778E-03     583.434E-03    -290.619E-03     61.8067E-03
             742     9.42180E-03     140.247E-03    -37.8159E+06     37.8028E+06     58.4757E+06     5.46095E+06    -292.719E-03     583.657E-03    -290.938E-03     69.9535E-03    -293.240E-03     584.008E-03    -290.645E-03     66.2011E-03
             743     10.0943E-03     140.368E-03    -30.3810E+06     47.1676E+06     73.8808E+06     5.09852E+06    -292.794E-03     583.810E-03    -291.017E-03     74.2336E-03    -293.361E-03     584.223E-03    -290.672E-03     69.7447E-03
             744     10.7677E-03     140.493E-03    -23.1637E+06     51.9945E+06     84.8149E+06     3.99831E+06    -292.735E-03     583.801E-03    -291.066E-03     77.9080E-03    -293.334E-03     584.257E-03    -290.684E-03     72.7439E-03
             745     11.4411E-03     140.623E-03    -16.6227E+06     62.0893E+06     91.1937E+06     3.09623E+06    -293.114E-03     584.198E-03    -291.084E-03     80.6414E-03    -293.734E-03     584.715E-03    -290.694E-03     75.0404E-03
             746     12.1131E-03     140.756E-03    -10.5781E+06     69.6178E+06     93.7489E+06     2.04352E+06    -293.305E-03     584.400E-03    -291.095E-03     82.4941E-03    -293.929E-03     584.962E-03    -290.711E-03     76.5925E-03
             747     12.7863E-03     140.894E-03    -5.02210E+06     74.0070E+06     94.9404E+06     974.063E+03    -293.472E-03     584.578E-03    -291.107E-03     82.2135E-03    -294.041E-03     585.117E-03    -290.732E-03     76.8258E-03
             748     671.634E-06     141.109E-03    -107.700E+06    -220.579E+06    -106.258E+06     573.664E+03    -290.641E-03     581.562E-03    -290.921E-03     6.44102E-03    -290.634E-03     580.832E-03    -290.977E-03     6.37595E-03
             749     1.34682E-03     141.121E-03    -105.575E+06    -214.225E+06    -100.917E+06     930.322E+03    -289.670E-03     580.200E-03    -290.530E-03     10.1999E-03    -289.730E-03     579.421E-03    -290.571E-03     10.2946E-03
             750     2.02000E-03     141.145E-03    -102.644E+06    -204.051E+06    -92.6137E+06     1.47845E+06    -289.992E-03     580.264E-03    -290.272E-03     15.1242E-03    -290.068E-03     579.522E-03    -290.291E-03     15.2341E-03
             751     2.69299E-03     141.175E-03    -98.7583E+06    -190.460E+06    -81.7032E+06     2.10345E+06    -290.463E-03     580.723E-03    -290.260E-03     19.3335E-03    -290.557E-03     580.029E-03    -290.249E-03     19.5324E-03
             752     3.36662E-03     141.214E-03    -93.9409E+06    -173.903E+06    -68.9364E+06     2.70955E+06    -290.558E-03     580.877E-03    -290.319E-03     24.1747E-03    -290.675E-03     580.243E-03    -290.275E-03     24.3464E-03
             753     4.03956E-03     141.261E-03    -88.4229E+06    -154.744E+06    -55.0000E+06     3.40897E+06    -290.727E-03     581.103E-03    -290.375E-03     29.4781E-03    -290.869E-03     580.541E-03    -290.298E-03     29.5216E-03
             754     4.71247E-03     141.319E-03    -82.5105E+06    -133.414E+06    -40.2105E+06     4.33689E+06    -290.961E-03     581.399E-03    -290.438E-03     34.3085E-03    -291.131E-03     580.919E-03    -290.326E-03     34.2200E-03
             755     5.38551E-03     141.383E-03    -76.1159E+06    -109.907E+06    -25.0603E+06     5.49328E+06    -291.105E-03     581.604E-03    -290.499E-03     39.5039E-03    -291.308E-03     581.220E-03    -290.355E-03     39.1722E-03
             756     6.05817E-03     141.458E-03    -69.3849E+06    -83.2616E+06    -10.3854E+06     6.74413E+06    -291.111E-03     581.651E-03    -290.539E-03     44.2869E-03    -291.352E-03     581.380E-03    -290.370E-03     43.6786E-03
             757     6.73232E-03     141.538E-03    -62.6050E+06    -51.3844E+06     3.63073E+06     7.87562E+06    -291.151E-03     581.704E-03    -290.552E-03     49.4027E-03    -291.442E-03     581.579E-03    -290.369E-03     48.3946E-03
             758     7.40544E-03     141.628E-03    -55.8722E+06    -11.0950E+06     17.9274E+06     8.19178E+06    -291.480E-03     582.034E-03    -290.555E-03     55.4148E-03    -291.845E-03     582.110E-03    -290.368E-03     53.7934E-03
             759     8.07846E-03     141.726E-03    -49.4746E+06     13.1051E+06     31.9134E+06     7.39865E+06    -291.883E-03     582.477E-03    -290.594E-03     60.2592E-03    -292.301E-03     582.674E-03    -290.382E-03     58.0437E-03
             760     8.75104E-03     141.831E-03    -43.2005E+06     19.3571E+06     45.8978E+06     6.34904E+06    -292.256E-03     582.930E-03    -290.673E-03     65.0166E-03    -292.709E-03     583.164E-03    -290.409E-03     62.1296E-03
             761     9.42419E-03     141.945E-03    -36.6340E+06     37.1917E+06     60.9164E+06     5.44121E+06    -292.432E-03     583.172E-03    -290.741E-03     70.2691E-03    -292.948E-03     583.514E-03    -290.437E-03     66.5766E-03
             762     10.0971E-03     142.065E-03    -29.8768E+06     49.0701E+06     74.3407E+06     4.49965E+06    -292.368E-03     583.163E-03    -290.796E-03     74.4394E-03    -292.934E-03     583.583E-03    -290.452E-03     69.9938E-03
             763     10.7700E-03     142.189E-03    -23.0089E+06     53.2634E+06     85.0338E+06     3.71919E+06    -292.634E-03     583.475E-03    -290.841E-03     78.2278E-03    -293.235E-03     583.937E-03    -290.460E-03     73.0755E-03
             764     11.4426E-03     142.321E-03    -16.2383E+06     63.8915E+06     92.2154E+06     2.99663E+06    -293.292E-03     584.167E-03    -290.875E-03     81.2649E-03    -293.919E-03     584.696E-03    -290.483E-03     75.6226E-03
             765     12.1152E-03     142.455E-03    -10.1054E+06     71.5059E+06     95.1355E+06     2.33075E+06    -293.460E-03     584.368E-03    -290.908E-03     82.4415E-03    -294.085E-03     584.935E-03    -290.521E-03     76.5582E-03
             766     12.7880E-03     142.588E-03    -4.85227E+06     76.6756E+06     96.4671E+06     1.48882E+06    -293.021E-03     583.944E-03    -290.922E-03     82.4989E-03    -293.598E-03     584.496E-03    -290.544E-03     77.0816E-03
             767     673.764E-06     142.803E-03    -109.021E+06    -222.869E+06    -107.809E+06     400.853E+03    -290.849E-03     580.746E-03    -289.897E-03     4.41231E-03    -290.842E-03     580.008E-03    -289.955E-03     4.64293E-03
             768     1.34583E-03     142.813E-03    -107.349E+06    -216.702E+06    -102.481E+06     933.459E+03    -289.913E-03     580.169E-03    -290.256E-03     9.59121E-03    -289.977E-03     579.383E-03    -290.298E-03     9.77646E-03
             769     2.02015E-03     142.836E-03    -104.456E+06    -206.500E+06    -93.9797E+06     1.38226E+06    -289.993E-03     580.144E-03    -290.151E-03     14.9419E-03    -290.072E-03     579.393E-03    -290.170E-03     15.1138E-03
             770     2.69370E-03     142.869E-03    -100.471E+06    -192.946E+06    -82.9281E+06     1.81139E+06    -290.213E-03     580.357E-03    -290.144E-03     19.1751E-03    -290.309E-03     579.653E-03    -290.133E-03     19.4349E-03
             771     3.36630E-03     142.906E-03    -95.7171E+06    -176.659E+06    -70.1801E+06     2.32625E+06    -290.499E-03     580.692E-03    -290.194E-03     24.1718E-03    -290.618E-03     580.049E-03    -290.150E-03     24.3931E-03
             772     4.03982E-03     142.955E-03    -90.3401E+06    -157.962E+06    -56.4990E+06     2.98016E+06    -290.653E-03     580.913E-03    -290.260E-03     29.5341E-03    -290.797E-03     580.340E-03    -290.182E-03     29.6293E-03
             773     4.71314E-03     143.012E-03    -84.3284E+06    -137.176E+06    -42.4181E+06     3.70658E+06    -290.702E-03     581.015E-03    -290.313E-03     34.4286E-03    -290.871E-03     580.521E-03    -290.204E-03     34.3944E-03
             774     5.38627E-03     143.078E-03    -77.8410E+06    -114.099E+06    -28.1310E+06     4.45875E+06    -290.738E-03     581.084E-03    -290.346E-03     39.7381E-03    -290.939E-03     580.685E-03    -290.208E-03     39.4455E-03
             775     6.06017E-03     143.152E-03    -70.9707E+06    -87.7520E+06    -13.5195E+06     5.32043E+06    -290.763E-03     581.124E-03    -290.361E-03     44.1737E-03    -290.998E-03     580.835E-03    -290.199E-03     43.6417E-03
             776     6.73301E-03     143.232E-03    -63.6839E+06    -55.9640E+06     1.75273E+06     6.34265E+06    -290.933E-03     581.302E-03    -290.368E-03     48.9270E-03    -291.216E-03     581.154E-03    -290.186E-03     48.0367E-03
             777     7.40648E-03     143.322E-03    -56.5675E+06    -15.4428E+06     17.6688E+06     8.09270E+06    -291.223E-03     581.597E-03    -290.374E-03     54.9061E-03    -291.580E-03     581.647E-03    -290.181E-03     53.4283E-03
             778     8.07975E-03     143.422E-03    -50.2212E+06     13.1409E+06     31.5408E+06     9.26450E+06    -291.668E-03     582.071E-03    -290.403E-03     59.8860E-03    -292.084E-03     582.264E-03    -290.192E-03     57.8221E-03
             779     8.75300E-03     143.527E-03    -44.3455E+06     22.6417E+06     43.7596E+06     7.93898E+06    -291.939E-03     582.403E-03    -290.464E-03     64.6222E-03    -292.392E-03     582.652E-03    -290.214E-03     61.8988E-03
             780     9.42566E-03     143.641E-03    -38.1150E+06     39.5886E+06     58.7972E+06     5.86945E+06    -291.822E-03     582.338E-03    -290.516E-03     69.9800E-03    -292.339E-03     582.690E-03    -290.224E-03     66.4211E-03
             781     10.0994E-03     143.760E-03    -31.1672E+06     51.8962E+06     74.2765E+06     4.08454E+06    -292.037E-03     582.600E-03    -290.563E-03     74.4204E-03    -292.609E-03     583.031E-03    -290.222E-03     70.0589E-03
             782     10.7727E-03     143.886E-03    -23.8853E+06     54.1528E+06     85.8183E+06     2.77901E+06    -292.640E-03     583.258E-03    -290.618E-03     78.6466E-03    -293.247E-03     583.724E-03    -290.233E-03     73.5216E-03
             783     11.4456E-03     144.018E-03    -17.1683E+06     63.5158E+06     93.1093E+06     2.88496E+06    -293.103E-03     583.764E-03    -290.661E-03     82.1244E-03    -293.741E-03     584.297E-03    -290.263E-03     76.4536E-03
             784     12.1184E-03     144.153E-03    -11.2575E+06     73.2418E+06     96.5670E+06     2.74084E+06    -293.403E-03     584.100E-03    -290.697E-03     83.0577E-03    -294.044E-03     584.680E-03    -290.304E-03     77.1535E-03
             785     12.7906E-03     144.287E-03    -5.51749E+06     79.7719E+06     98.1469E+06     1.51268E+06    -292.867E-03     583.583E-03    -290.716E-03     82.1520E-03    -293.451E-03     584.145E-03    -290.333E-03     76.7852E-03
             786     672.939E-06     144.495E-03    -110.897E+06    -225.560E+06    -109.737E+06     725.490E+03    -290.347E-03     579.841E-03    -289.494E-03     3.13604E-03    -290.344E-03     579.099E-03    -289.555E-03     3.56061E-03
             787     1.34750E-03     144.507E-03    -109.179E+06    -218.867E+06    -104.101E+06     1.08433E+06    -290.424E-03     580.422E-03    -289.998E-03     9.59706E-03    -290.493E-03     579.631E-03    -290.043E-03     9.84375E-03
             788     2.01969E-03     144.529E-03    -106.187E+06    -208.609E+06    -95.4349E+06     1.38941E+06    -290.093E-03     580.204E-03    -290.111E-03     14.5078E-03    -290.176E-03     579.447E-03    -290.132E-03     14.8061E-03
             789     2.69333E-03     144.561E-03    -102.171E+06    -195.154E+06    -84.3296E+06     1.74834E+06    -289.841E-03     579.930E-03    -290.089E-03     19.3124E-03    -289.942E-03     579.221E-03    -290.080E-03     19.6326E-03
             790     3.36761E-03     144.600E-03    -97.3642E+06    -178.977E+06    -71.6075E+06     2.15772E+06    -290.365E-03     580.460E-03    -290.095E-03     24.5003E-03    -290.488E-03     579.809E-03    -290.052E-03     24.7664E-03
             791     4.04026E-03     144.649E-03    -91.8211E+06    -160.481E+06    -57.8330E+06     2.51911E+06    -290.522E-03     580.677E-03    -290.155E-03     29.2254E-03    -290.666E-03     580.093E-03    -290.079E-03     29.4327E-03
             792     4.71360E-03     144.705E-03    -85.7020E+06    -139.838E+06    -43.5068E+06     2.89725E+06    -290.337E-03     580.528E-03    -290.191E-03     34.3376E-03    -290.506E-03     580.022E-03    -290.081E-03     34.3749E-03
             793     5.38735E-03     144.772E-03    -79.2643E+06    -116.923E+06    -29.0869E+06     3.30261E+06    -290.391E-03     580.586E-03    -290.195E-03     39.5368E-03    -290.591E-03     580.174E-03    -290.056E-03     39.3227E-03
             794     6.06040E-03     144.845E-03    -72.5290E+06    -90.9326E+06    -14.5593E+06     3.74183E+06    -290.552E-03     580.749E-03    -290.196E-03     44.2106E-03    -290.788E-03     580.447E-03    -290.032E-03     43.7274E-03
             795     6.73421E-03     144.926E-03    -65.6964E+06    -60.5469E+06     71.7531E+03     4.65964E+06    -290.866E-03     581.070E-03    -290.204E-03     49.4483E-03    -291.150E-03     580.906E-03    -290.021E-03     48.5525E-03
             796     7.40754E-03     145.015E-03    -58.5582E+06    -23.5939E+06     14.8413E+06     6.72009E+06    -291.157E-03     581.373E-03    -290.216E-03     55.2819E-03    -291.507E-03     581.388E-03    -290.023E-03     53.8316E-03
             797     8.08109E-03     145.117E-03    -50.9114E+06     9.14385E+06     28.8147E+06     8.85217E+06    -291.321E-03     581.553E-03    -290.232E-03     60.2963E-03    -291.730E-03     581.730E-03    -290.027E-03     58.2809E-03
             798     8.75399E-03     145.222E-03    -43.5364E+06     26.1241E+06     42.4783E+06     8.92502E+06    -291.358E-03     581.621E-03    -290.263E-03     64.6336E-03    -291.807E-03     581.885E-03    -290.025E-03     62.0206E-03
             799     9.42828E-03     145.334E-03    -36.9480E+06     43.4820E+06     58.1488E+06     7.09447E+06    -291.530E-03     581.828E-03    -290.298E-03     69.8840E-03    -292.042E-03     582.194E-03    -290.017E-03     66.4487E-03
             800     10.1017E-03     145.455E-03    -30.4924E+06     57.7742E+06     74.8049E+06     4.38894E+06    -291.986E-03     582.337E-03    -290.351E-03     74.2881E-03    -292.558E-03     582.789E-03    -290.017E-03     70.0390E-03
             801     10.7748E-03     145.581E-03    -24.1116E+06     53.8996E+06     85.8854E+06     3.15474E+06    -292.399E-03     582.817E-03    -290.418E-03     78.1348E-03    -292.998E-03     583.273E-03    -290.032E-03     73.1533E-03
             802     11.4480E-03     145.713E-03    -18.0305E+06     61.5937E+06     93.6363E+06     3.66903E+06    -292.671E-03     583.131E-03    -290.460E-03     81.6722E-03    -293.303E-03     583.646E-03    -290.055E-03     76.1225E-03
             803     12.1209E-03     145.850E-03    -11.7110E+06     77.5137E+06     99.0761E+06     2.55390E+06    -292.764E-03     583.243E-03    -290.479E-03     83.0462E-03    -293.416E-03     583.841E-03    -290.079E-03     77.1606E-03
             804     12.7940E-03     145.984E-03    -5.53146E+06     82.4665E+06     99.6796E+06     757.611E+03    -292.670E-03     583.155E-03    -290.486E-03     81.6015E-03    -293.254E-03     583.724E-03    -290.099E-03     76.2876E-03
             805     674.832E-06     146.187E-03    -112.439E+06    -228.124E+06    -111.388E+06     672.509E+03    -290.126E-03     579.641E-03    -289.516E-03     4.42852E-03    -290.122E-03     578.895E-03    -289.579E-03     4.71761E-03
             806     1.34640E-03     146.200E-03    -110.501E+06    -220.920E+06    -105.795E+06     874.628E+03    -290.399E-03     580.310E-03    -289.910E-03     9.27410E-03    -290.469E-03     579.512E-03    -289.958E-03     9.55488E-03
             807     2.02005E-03     146.223E-03    -107.436E+06    -210.810E+06    -96.7814E+06     1.35628E+06    -289.902E-03     579.927E-03    -290.024E-03     14.0914E-03    -289.987E-03     579.163E-03    -290.047E-03     14.4393E-03
             808     2.69402E-03     146.250E-03    -103.431E+06    -197.120E+06    -85.3980E+06     1.75729E+06    -289.938E-03     579.947E-03    -290.008E-03     19.7583E-03    -290.042E-03     579.232E-03    -290.000E-03     20.0460E-03
             809     3.36691E-03     146.294E-03    -98.5474E+06    -180.830E+06    -72.2618E+06     2.01541E+06    -290.186E-03     580.212E-03    -290.026E-03     24.7745E-03    -290.311E-03     579.554E-03    -289.982E-03     25.0500E-03
             810     4.04053E-03     146.341E-03    -93.0907E+06    -162.317E+06    -58.1342E+06     2.29215E+06    -290.163E-03     580.219E-03    -290.056E-03     28.9956E-03    -290.310E-03     579.628E-03    -289.977E-03     29.2868E-03
             811     4.71430E-03     146.398E-03    -87.2214E+06    -141.665E+06    -43.5855E+06     2.57108E+06    -290.182E-03     580.252E-03    -290.070E-03     34.3144E-03    -290.354E-03     579.738E-03    -289.956E-03     34.4197E-03
             812     5.38780E-03     146.464E-03    -80.9848E+06    -118.748E+06    -29.0570E+06     2.84559E+06    -290.187E-03     580.257E-03    -290.070E-03     39.2613E-03    -290.392E-03     579.837E-03    -289.925E-03     39.1539E-03
             813     6.06205E-03     146.537E-03    -74.5804E+06    -93.2859E+06    -14.9155E+06     3.27058E+06    -290.285E-03     580.345E-03    -290.060E-03     43.9609E-03    -290.524E-03     580.032E-03    -289.891E-03     43.5905E-03
             814     6.73564E-03     146.619E-03    -67.9777E+06    -64.3040E+06    -1.17035E+06     3.96000E+06    -290.692E-03     580.750E-03    -290.058E-03     49.2206E-03    -290.977E-03     580.569E-03    -289.872E-03     48.4353E-03
             815     7.40898E-03     146.710E-03    -60.9985E+06    -29.8213E+06     12.6091E+06     4.85256E+06    -290.887E-03     580.950E-03    -290.063E-03     54.9103E-03    -291.232E-03     580.936E-03    -289.868E-03     53.5710E-03
             816     8.08215E-03     146.809E-03    -53.4746E+06     4.94726E+06     26.4421E+06     5.43331E+06    -290.791E-03     580.847E-03    -290.056E-03     60.4033E-03    -291.201E-03     581.008E-03    -289.853E-03     58.4364E-03
             817     8.75670E-03     146.916E-03    -45.2792E+06     25.3906E+06     40.0191E+06     5.76097E+06    -291.027E-03     581.087E-03    -290.060E-03     64.6682E-03    -291.476E-03     581.349E-03    -289.831E-03     62.1053E-03
             818     9.42977E-03     147.027E-03    -37.1367E+06     44.2177E+06     55.5940E+06     6.33414E+06    -291.534E-03     581.625E-03    -290.091E-03     69.8063E-03    -292.040E-03     581.995E-03    -289.823E-03     66.4520E-03
             819     10.1030E-03     147.150E-03    -30.3841E+06     62.3198E+06     74.0876E+06     6.23138E+06    -291.989E-03     582.149E-03    -290.160E-03     74.4882E-03    -292.564E-03     582.622E-03    -289.836E-03     70.3235E-03
             820     10.7764E-03     147.275E-03    -24.3610E+06     54.7082E+06     85.5731E+06     5.02143E+06    -292.250E-03     582.491E-03    -290.241E-03     78.0330E-03    -292.848E-03     582.949E-03    -289.858E-03     73.1398E-03
             821     11.4497E-03     147.409E-03    -17.4955E+06     62.8186E+06     94.6241E+06     3.34115E+06    -292.087E-03     582.364E-03    -290.277E-03     81.7591E-03    -292.721E-03     582.884E-03    -289.869E-03     76.2203E-03
             822     12.1234E-03     147.544E-03    -10.5232E+06     81.7547E+06     101.518E+06     1.87408E+06    -291.828E-03     582.093E-03    -290.266E-03     83.3351E-03    -292.489E-03     582.713E-03    -289.862E-03     77.3983E-03
             823     12.7975E-03     147.678E-03    -4.72066E+06     84.1743E+06     100.943E+06     1.16109E+06    -292.457E-03     582.708E-03    -290.251E-03     82.2743E-03    -293.050E-03     583.290E-03    -289.861E-03     76.8886E-03
             824     672.754E-06     147.880E-03    -112.987E+06    -230.099E+06    -112.021E+06     339.070E+03    -290.312E-03     579.806E-03    -289.494E-03     5.07778E-03    -290.297E-03     579.054E-03    -289.557E-03     5.27010E-03
             825     1.34686E-03     147.893E-03    -111.343E+06    -223.242E+06    -106.130E+06     920.623E+03    -289.881E-03     579.750E-03    -289.869E-03     9.56359E-03    -289.950E-03     578.942E-03    -289.915E-03     9.81713E-03
             826     2.02079E-03     147.912E-03    -108.287E+06    -213.012E+06    -97.2809E+06     1.32596E+06    -289.922E-03     579.812E-03    -289.890E-03     13.8307E-03    -290.007E-03     579.039E-03    -289.910E-03     14.2295E-03
             827     2.69393E-03     147.944E-03    -104.240E+06    -199.257E+06    -85.8622E+06     1.78187E+06    -289.994E-03     579.913E-03    -289.918E-03     19.8438E-03    -290.098E-03     579.189E-03    -289.908E-03     20.1578E-03
             828     3.36752E-03     147.986E-03    -99.3850E+06    -182.901E+06    -72.2709E+06     2.33292E+06    -289.911E-03     579.848E-03    -289.937E-03     25.0099E-03    -290.037E-03     579.181E-03    -289.889E-03     25.3026E-03
             829     4.04144E-03     148.033E-03    -93.8862E+06    -163.939E+06    -57.6936E+06     2.69495E+06    -289.992E-03     579.938E-03    -289.946E-03     29.1030E-03    -290.140E-03     579.338E-03    -289.860E-03     29.4455E-03
             830     4.71485E-03     148.090E-03    -87.8826E+06    -143.259E+06    -42.9548E+06     2.94289E+06    -290.139E-03     580.100E-03    -289.961E-03     34.0033E-03    -290.311E-03     579.576E-03    -289.841E-03     34.2297E-03
             831     5.38854E-03     148.155E-03    -81.5676E+06    -120.501E+06    -28.4505E+06     3.27622E+06    -290.105E-03     580.074E-03    -289.968E-03     38.8182E-03    -290.307E-03     579.641E-03    -289.818E-03     38.8674E-03
             832     6.06197E-03     148.229E-03    -75.0695E+06    -95.2491E+06    -14.2423E+06     3.64311E+06    -290.297E-03     580.265E-03    -289.967E-03     43.7559E-03    -290.534E-03     579.938E-03    -289.792E-03     43.5256E-03
             833     6.73568E-03     148.311E-03    -68.4195E+06    -66.7143E+06    -229.054E+03     3.97288E+06    -290.449E-03     580.416E-03    -289.967E-03     48.9561E-03    -290.730E-03     580.218E-03    -289.772E-03     48.3081E-03
             834     7.40939E-03     148.403E-03    -61.6702E+06    -32.5834E+06     13.7775E+06     4.29241E+06    -290.269E-03     580.214E-03    -289.945E-03     54.4048E-03    -290.610E-03     580.181E-03    -289.740E-03     53.2133E-03
             835     8.08420E-03     148.500E-03    -54.8641E+06     5.14999E+06     27.7325E+06     3.76538E+06    -290.285E-03     580.185E-03    -289.900E-03     60.0585E-03    -290.698E-03     580.341E-03    -289.689E-03     58.2074E-03
             836     8.75753E-03     148.609E-03    -47.7643E+06     26.4127E+06     40.4426E+06     1.96057E+06    -290.879E-03     580.766E-03    -289.887E-03     64.9206E-03    -291.340E-03     581.034E-03    -289.654E-03     62.3747E-03
             837     9.43147E-03     148.721E-03    -39.8970E+06     37.9665E+06     54.3147E+06     2.47989E+06    -291.510E-03     581.437E-03    -289.927E-03     69.8374E-03    -292.016E-03     581.779E-03    -289.653E-03     66.5065E-03
             838     10.1054E-03     148.844E-03    -31.4709E+06     58.5500E+06     72.6960E+06     5.55453E+06    -291.600E-03     581.587E-03    -289.987E-03     74.5896E-03    -292.172E-03     582.044E-03    -289.663E-03     70.4697E-03
             839     10.7784E-03     148.971E-03    -23.6516E+06     59.5275E+06     85.6218E+06     5.53221E+06    -291.641E-03     581.681E-03    -290.039E-03     78.6741E-03    -292.246E-03     582.164E-03    -289.663E-03     73.7808E-03
             840     11.4520E-03     149.102E-03    -17.0535E+06     67.0316E+06     95.3764E+06     3.16514E+06    -291.596E-03     581.652E-03    -290.056E-03     82.4001E-03    -292.238E-03     582.195E-03    -289.652E-03     76.8459E-03
             841     12.1265E-03     149.237E-03    -11.3180E+06     82.9306E+06     102.203E+06     2.30399E+06    -291.759E-03     581.805E-03    -290.046E-03     83.7076E-03    -292.429E-03     582.433E-03    -289.639E-03     77.7495E-03
             842     12.8003E-03     149.372E-03    -5.79872E+06     86.1085E+06     102.865E+06     1.68875E+06    -292.454E-03     582.500E-03    -290.046E-03     82.5195E-03    -293.060E-03     583.093E-03    -289.648E-03     77.0976E-03
             843     673.660E-06     149.569E-03    -114.093E+06    -232.693E+06    -112.101E+06     707.030E+03    -288.761E-03     579.412E-03    -290.651E-03     4.41125E-03    -288.735E-03     578.655E-03    -290.709E-03     4.65856E-03
             844     1.34779E-03     149.584E-03    -111.814E+06    -226.117E+06    -106.189E+06     1.31570E+06    -289.821E-03     579.516E-03    -289.695E-03     9.63612E-03    -289.886E-03     578.693E-03    -289.736E-03     9.94431E-03
             845     2.02041E-03     149.606E-03    -108.749E+06    -215.204E+06    -96.8556E+06     1.84872E+06    -289.994E-03     579.771E-03    -289.777E-03     13.7543E-03    -290.077E-03     578.986E-03    -289.792E-03     14.2252E-03
             846     2.69405E-03     149.635E-03    -104.578E+06    -201.839E+06    -84.8379E+06     2.24191E+06    -289.767E-03     579.592E-03    -289.825E-03     19.7381E-03    -289.868E-03     578.852E-03    -289.805E-03     20.1275E-03
             847     3.36817E-03     149.677E-03    -99.4697E+06    -185.363E+06    -71.3095E+06     2.72043E+06    -289.775E-03     579.600E-03    -289.825E-03     24.9419E-03    -289.898E-03     578.919E-03    -289.769E-03     25.2990E-03
             848     4.04149E-03     149.725E-03    -93.6692E+06    -165.669E+06    -56.7566E+06     3.10084E+06    -290.079E-03     579.926E-03    -289.846E-03     29.0764E-03    -290.224E-03     579.315E-03    -289.754E-03     29.4864E-03
             849     4.71514E-03     149.782E-03    -87.3502E+06    -144.954E+06    -41.4840E+06     3.33409E+06    -290.008E-03     579.885E-03    -289.877E-03     33.5813E-03    -290.175E-03     579.348E-03    -289.748E-03     33.9347E-03
             850     5.38894E-03     149.847E-03    -80.6786E+06    -122.345E+06    -26.4873E+06     3.58075E+06    -289.921E-03     579.799E-03    -289.879E-03     38.8357E-03    -290.117E-03     579.352E-03    -289.717E-03     38.9591E-03
             851     6.06299E-03     149.921E-03    -73.7869E+06    -97.3148E+06    -11.9180E+06     3.95764E+06    -290.172E-03     580.042E-03    -289.870E-03     44.5149E-03    -290.404E-03     579.701E-03    -289.682E-03     44.2859E-03
             852     6.73644E-03     150.004E-03    -66.8526E+06    -68.4382E+06     2.37638E+06     4.33892E+06    -290.249E-03     580.111E-03    -289.862E-03     49.3268E-03    -290.522E-03     579.897E-03    -289.654E-03     48.7441E-03
             853     7.41093E-03     150.093E-03    -59.9925E+06    -34.3912E+06     16.6334E+06     4.70729E+06    -290.189E-03     580.027E-03    -289.838E-03     54.1006E-03    -290.517E-03     579.972E-03    -289.618E-03     53.0716E-03
             854     8.08456E-03     150.193E-03    -53.1927E+06     7.04601E+06     31.4325E+06     4.47959E+06    -290.020E-03     579.808E-03    -289.788E-03     59.2553E-03    -290.423E-03     579.956E-03    -289.564E-03     57.6240E-03
             855     8.75959E-03     150.299E-03    -46.8555E+06     31.9215E+06     44.8455E+06     2.89588E+06    -290.288E-03     580.040E-03    -289.752E-03     65.2628E-03    -290.757E-03     580.326E-03    -289.506E-03     62.8121E-03
             856     9.43292E-03     150.416E-03    -40.9629E+06     33.9481E+06     56.5292E+06     1.56822E+06    -291.179E-03     580.952E-03    -289.773E-03     70.6294E-03    -291.687E-03     581.271E-03    -289.480E-03     67.3358E-03
             857     10.1059E-03     150.536E-03    -34.0401E+06     51.6271E+06     71.2580E+06     2.14747E+06    -291.272E-03     581.080E-03    -289.808E-03     74.5272E-03    -291.837E-03     581.501E-03    -289.477E-03     70.4886E-03
             858     10.7812E-03     150.663E-03    -26.2429E+06     61.1021E+06     83.0495E+06     3.33339E+06    -291.039E-03     580.865E-03    -289.826E-03     78.2546E-03    -291.643E-03     581.352E-03    -289.461E-03     73.4955E-03
             859     11.4557E-03     150.795E-03    -19.2492E+06     68.9603E+06     93.9896E+06     3.80192E+06    -291.408E-03     581.247E-03    -289.839E-03     81.2615E-03    -292.044E-03     581.786E-03    -289.441E-03     75.9381E-03
             860     12.1291E-03     150.930E-03    -12.6930E+06     85.1856E+06     103.296E+06     2.79638E+06    -292.256E-03     582.117E-03    -289.861E-03     83.3398E-03    -292.933E-03     582.751E-03    -289.450E-03     77.4440E-03
             861     12.8017E-03     151.068E-03    -6.02688E+06     89.4163E+06     105.177E+06     912.199E+03    -292.328E-03     582.214E-03    -289.886E-03     81.7169E-03    -292.938E-03     582.814E-03    -289.481E-03     76.3452E-03
             862     674.344E-06     151.261E-03    -114.328E+06    -236.397E+06    -113.591E+06     746.471E+03    -289.056E-03     579.227E-03    -290.170E-03     5.85632E-03    -289.003E-03     578.468E-03    -290.230E-03     5.90075E-03
             863     1.34673E-03     151.276E-03    -112.954E+06    -229.605E+06    -107.292E+06     1.56063E+06    -289.922E-03     579.553E-03    -289.631E-03     9.20021E-03    -289.984E-03     578.714E-03    -289.671E-03     9.59302E-03
             864     2.02119E-03     151.297E-03    -109.433E+06    -218.170E+06    -97.1511E+06     2.18089E+06    -289.707E-03     579.426E-03    -289.719E-03     13.6849E-03    -289.788E-03     578.627E-03    -289.730E-03     14.2144E-03
             865     2.69477E-03     151.326E-03    -104.827E+06    -204.133E+06    -84.2672E+06     2.63209E+06    -289.814E-03     579.564E-03    -289.749E-03     19.0033E-03    -289.911E-03     578.809E-03    -289.723E-03     19.5452E-03
             866     3.36825E-03     151.367E-03    -99.3612E+06    -187.661E+06    -69.8556E+06     2.85777E+06    -289.676E-03     579.444E-03    -289.768E-03     24.4886E-03    -289.795E-03     578.746E-03    -289.701E-03     24.9704E-03
             867     4.04212E-03     151.418E-03    -93.1901E+06    -167.839E+06    -54.9113E+06     3.18931E+06    -289.633E-03     579.391E-03    -289.757E-03     29.4041E-03    -289.774E-03     578.764E-03    -289.653E-03     29.8487E-03
             868     4.71555E-03     151.474E-03    -86.6008E+06    -146.375E+06    -39.6225E+06     3.39057E+06    -289.727E-03     579.472E-03    -289.746E-03     34.0558E-03    -289.890E-03     578.923E-03    -289.606E-03     34.4320E-03
             869     5.38971E-03     151.537E-03    -79.7285E+06    -124.183E+06    -24.3303E+06     3.53114E+06    -289.847E-03     579.587E-03    -289.740E-03     39.4590E-03    -290.039E-03     579.126E-03    -289.566E-03     39.5916E-03
             870     6.06362E-03     151.613E-03    -72.6543E+06    -99.4546E+06    -9.56531E+06     3.87502E+06    -289.994E-03     579.728E-03    -289.734E-03     44.7249E-03    -290.219E-03     579.370E-03    -289.532E-03     44.5550E-03
             871     6.73807E-03     151.695E-03    -65.5588E+06    -70.8089E+06     4.80670E+06     4.48702E+06    -290.254E-03     579.985E-03    -289.731E-03     49.1269E-03    -290.517E-03     579.749E-03    -289.509E-03     48.6734E-03
             872     7.41125E-03     151.785E-03    -58.5962E+06    -37.0182E+06     19.2740E+06     5.31975E+06    -290.267E-03     579.991E-03    -289.724E-03     53.7893E-03    -290.583E-03     579.911E-03    -289.489E-03     52.9257E-03
             873     8.08543E-03     151.884E-03    -52.1497E+06     5.78574E+06     34.3660E+06     6.43904E+06    -289.961E-03     579.647E-03    -289.686E-03     59.0654E-03    -290.356E-03     579.778E-03    -289.447E-03     57.6121E-03
             874     8.75976E-03     151.988E-03    -46.4286E+06     35.4315E+06     47.0249E+06     6.66049E+06    -289.877E-03     579.508E-03    -289.631E-03     65.1072E-03    -290.346E-03     579.802E-03    -289.380E-03     62.8529E-03
             875     9.43526E-03     152.108E-03    -40.5754E+06     40.1089E+06     57.4626E+06     3.94361E+06    -290.284E-03     579.888E-03    -289.604E-03     70.7308E-03    -290.795E-03     580.231E-03    -289.316E-03     67.5961E-03
             876     10.1096E-03     152.229E-03    -33.7751E+06     52.0316E+06     71.9373E+06     645.731E+03    -291.061E-03     580.680E-03    -289.620E-03     74.2921E-03    -291.616E-03     581.092E-03    -289.286E-03     70.4064E-03
             877     10.7823E-03     152.354E-03    -26.1185E+06     55.7180E+06     83.6752E+06     981.664E+03    -291.430E-03     581.093E-03    -289.663E-03     77.4954E-03    -292.013E-03     581.538E-03    -289.288E-03     72.9052E-03
             878     11.4562E-03     152.486E-03    -18.2021E+06     66.8751E+06     95.5564E+06     2.86224E+06    -291.594E-03     581.296E-03    -289.703E-03     80.7473E-03    -292.213E-03     581.812E-03    -289.295E-03     75.5386E-03
             879     12.1302E-03     152.624E-03    -10.8642E+06     89.2731E+06     106.181E+06     2.56076E+06    -291.875E-03     581.600E-03    -289.724E-03     83.7661E-03    -292.558E-03     582.253E-03    -289.307E-03     77.8274E-03
             880     12.8035E-03     152.764E-03    -4.97822E+06     93.0924E+06     106.546E+06     1.17031E+06    -291.775E-03     581.500E-03    -289.726E-03     81.8993E-03    -292.390E-03     582.120E-03    -289.321E-03     76.5030E-03
             881     673.407E-06     152.954E-03    -116.469E+06    -240.600E+06    -114.795E+06     895.621E+03    -290.078E-03     578.992E-03    -288.914E-03     5.94330E-03    -290.001E-03     578.233E-03    -288.970E-03     5.98669E-03
             882     1.34745E-03     152.967E-03    -114.017E+06    -233.054E+06    -108.242E+06     1.48852E+06    -289.713E-03     579.200E-03    -289.486E-03     9.87734E-03    -289.771E-03     578.344E-03    -289.524E-03     10.2085E-03
             883     2.02079E-03     152.986E-03    -110.553E+06    -221.494E+06    -98.2808E+06     2.10730E+06    -289.965E-03     579.580E-03    -289.615E-03     14.1953E-03    -290.046E-03     578.768E-03    -289.625E-03     14.7120E-03
             884     2.69429E-03     153.020E-03    -105.937E+06    -206.419E+06    -85.2896E+06     2.54968E+06    -289.841E-03     579.553E-03    -289.712E-03     18.7749E-03    -289.938E-03     578.789E-03    -289.685E-03     19.4009E-03
             885     3.36792E-03     153.057E-03    -100.263E+06    -189.626E+06    -70.0263E+06     2.81111E+06    -289.379E-03     579.097E-03    -289.718E-03     24.2126E-03    -289.497E-03     578.389E-03    -289.648E-03     24.8077E-03
             886     4.04242E-03     153.108E-03    -93.8657E+06    -169.985E+06    -54.0374E+06     3.02783E+06    -289.126E-03     578.781E-03    -289.656E-03     29.2249E-03    -289.266E-03     578.142E-03    -289.543E-03     29.7809E-03
             887     4.71741E-03     153.163E-03    -87.0575E+06    -147.990E+06    -38.2736E+06     3.30240E+06    -289.413E-03     579.015E-03    -289.601E-03     33.5993E-03    -289.575E-03     578.453E-03    -289.452E-03     34.1319E-03
             888     5.39101E-03     153.229E-03     -80.075E+06    -125.905E+06    -22.8233E+06     3.57343E+06    -289.717E-03     579.306E-03    -289.589E-03     38.9050E-03    -289.907E-03     578.831E-03    -289.404E-03     39.2220E-03
             889     6.06484E-03     153.303E-03    -73.0260E+06    -101.417E+06    -7.97191E+06     3.90418E+06    -289.832E-03     579.418E-03    -289.586E-03     44.6777E-03    -290.055E-03     579.045E-03    -289.373E-03     44.6379E-03
             890     6.73834E-03     153.387E-03    -65.8810E+06    -73.7992E+06     6.25037E+06     4.43870E+06    -289.952E-03     579.526E-03    -289.574E-03     49.8673E-03    -290.213E-03     579.273E-03    -289.340E-03     49.4519E-03
             891     7.41258E-03     153.477E-03    -58.6803E+06    -41.5032E+06     20.2641E+06     5.67047E+06    -289.951E-03     579.502E-03    -289.551E-03     54.5073E-03    -290.262E-03     579.398E-03    -289.304E-03     53.6831E-03
             892     8.08723E-03     153.572E-03    -51.5498E+06    -535.873E+03     34.8368E+06     8.03992E+06    -290.094E-03     579.608E-03    -289.514E-03     59.9575E-03    -290.478E-03     579.707E-03    -289.265E-03     58.5519E-03
             893     8.76123E-03     153.681E-03    -44.4374E+06     36.1516E+06     48.4166E+06     9.15516E+06    -290.132E-03     579.609E-03    -289.477E-03     65.5122E-03    -290.591E-03     579.898E-03    -289.223E-03     63.3748E-03
             894     9.43525E-03     153.794E-03    -37.7034E+06     51.5351E+06     61.1000E+06     6.27353E+06    -290.071E-03     579.526E-03    -289.456E-03     70.8864E-03    -290.586E-03     579.914E-03    -289.170E-03     67.8660E-03
             895     10.1104E-03     153.922E-03    -31.6343E+06     58.7390E+06     75.4760E+06     2.18953E+06    -290.547E-03     580.010E-03    -289.463E-03     74.5553E-03    -291.105E-03     580.446E-03    -289.125E-03     70.7496E-03
             896     10.7846E-03     154.047E-03    -25.2966E+06     53.1473E+06     85.2133E+06     188.019E+03    -291.500E-03     581.005E-03    -289.506E-03     77.9815E-03    -292.078E-03     581.436E-03    -289.120E-03     73.4075E-03
             897     11.4581E-03     154.178E-03    -18.1860E+06     62.6857E+06     95.8921E+06     656.749E+03    -291.946E-03     581.507E-03    -289.561E-03     81.8853E-03    -292.568E-03     582.009E-03    -289.146E-03     76.5951E-03
             898     12.1317E-03     154.316E-03    -11.4911E+06     88.8987E+06     106.613E+06     2.39201E+06    -291.324E-03     580.904E-03    -289.580E-03     83.8939E-03    -292.008E-03     581.554E-03    -289.159E-03     77.9855E-03
             899     12.8072E-03     154.453E-03    -5.53892E+06     96.7534E+06     107.768E+06     2.33830E+06    -291.305E-03     580.865E-03    -289.560E-03     82.0923E-03    -291.930E-03     581.501E-03    -289.154E-03     76.7109E-03
             900     674.103E-06     154.643E-03    -118.349E+06    -244.209E+06    -116.216E+06     625.043E+03    -289.103E-03     578.294E-03    -289.191E-03     4.75334E-03    -289.018E-03     577.529E-03    -289.246E-03     5.04330E-03
             901     1.34859E-03     154.655E-03    -115.533E+06    -236.604E+06    -109.576E+06     1.47656E+06    -289.443E-03     578.594E-03    -289.151E-03     10.6342E-03    -289.501E-03     577.724E-03    -289.188E-03     10.9222E-03
             902     2.02150E-03     154.682E-03    -111.889E+06    -224.517E+06    -99.1100E+06     2.02382E+06    -290.013E-03     579.359E-03    -289.346E-03     15.1700E-03    -290.094E-03     578.534E-03    -289.354E-03     15.6277E-03
             903     2.69471E-03     154.708E-03    -107.093E+06    -209.147E+06    -85.7917E+06     2.53463E+06    -289.755E-03     579.264E-03    -289.509E-03     19.4394E-03    -289.853E-03     578.489E-03    -289.479E-03     20.0682E-03
             904     3.36902E-03     154.749E-03    -101.444E+06    -191.446E+06    -70.5863E+06     2.87188E+06    -289.493E-03     579.048E-03    -289.555E-03     24.4512E-03    -289.613E-03     578.333E-03    -289.483E-03     25.1190E-03
             905     4.04294E-03     154.795E-03    -95.0962E+06    -171.720E+06    -54.2688E+06     3.03686E+06    -289.423E-03     578.979E-03    -289.556E-03     28.8413E-03    -289.565E-03     578.331E-03    -289.440E-03     29.5549E-03
             906     4.71654E-03     154.855E-03    -88.2295E+06    -150.221E+06    -37.7992E+06     3.41093E+06    -289.214E-03     578.746E-03    -289.532E-03     33.1091E-03    -289.376E-03     578.171E-03    -289.375E-03     33.8174E-03
             907     5.39103E-03     154.918E-03    -81.0775E+06    -127.761E+06    -21.9465E+06     3.84716E+06    -289.210E-03     578.699E-03    -289.488E-03     38.5357E-03    -289.400E-03     578.211E-03    -289.295E-03     39.0173E-03
             908     6.06566E-03     154.993E-03    -73.8264E+06    -103.517E+06    -6.98606E+06     4.19309E+06    -289.353E-03     578.796E-03    -289.443E-03     44.4317E-03    -289.575E-03     578.409E-03    -289.221E-03     44.5449E-03
             909     6.74047E-03     155.077E-03    -66.6368E+06    -76.5312E+06     7.13956E+06     4.67577E+06    -289.341E-03     578.734E-03    -289.393E-03     49.5105E-03    -289.598E-03     578.463E-03    -289.150E-03     49.2620E-03
             910     7.41532E-03     155.166E-03    -59.3918E+06    -46.2305E+06     20.6494E+06     5.53732E+06    -289.723E-03     579.071E-03    -289.349E-03     54.1760E-03    -290.026E-03     578.939E-03    -289.092E-03     53.5103E-03
             911     8.08899E-03     155.264E-03    -51.5790E+06    -7.95748E+06     34.5651E+06     6.94367E+06    -290.203E-03     579.528E-03    -289.324E-03     59.3148E-03    -290.569E-03     579.582E-03    -289.065E-03     58.0780E-03
             912     8.76346E-03     155.371E-03    -43.3151E+06     34.8787E+06     49.2021E+06     7.91294E+06    -290.300E-03     579.609E-03    -289.309E-03     64.5878E-03    -290.742E-03     579.879E-03    -289.051E-03     62.6436E-03
             913     9.43798E-03     155.486E-03    -35.7780E+06     57.5093E+06     63.1753E+06     7.74817E+06    -290.206E-03     579.513E-03    -289.307E-03     70.3646E-03    -290.715E-03     579.916E-03    -289.023E-03     67.5282E-03
             914     10.1117E-03     155.610E-03    -29.6130E+06     65.6874E+06     76.7516E+06     6.26322E+06    -290.056E-03     579.363E-03    -289.307E-03     75.0657E-03    -290.614E-03     579.827E-03    -288.976E-03     71.3751E-03
             915     10.7869E-03     155.738E-03    -24.3563E+06     60.5416E+06     85.9044E+06     2.67206E+06    -290.864E-03     580.182E-03    -289.318E-03     79.1481E-03    -291.453E-03     580.650E-03    -288.941E-03     74.6188E-03
             916     11.4603E-03     155.873E-03    -19.0477E+06     59.0822E+06     94.2418E+06     963.098E+03    -291.628E-03     580.988E-03    -289.360E-03     82.3641E-03    -292.244E-03     581.472E-03    -288.946E-03     77.1541E-03
             917     12.1341E-03     156.007E-03    -12.8112E+06     84.3278E+06     105.564E+06     2.46387E+06    -291.549E-03     580.939E-03    -289.389E-03     84.3502E-03    -292.233E-03     581.570E-03    -288.965E-03     78.4498E-03
             918     12.8075E-03     156.144E-03    -6.20855E+06     101.604E+06     109.008E+06     2.05436E+06    -291.565E-03     580.951E-03    -289.387E-03     83.2084E-03    -292.212E-03     581.621E-03    -288.980E-03     77.7248E-03
             919     674.173E-06     156.329E-03    -119.755E+06    -247.510E+06    -117.918E+06     695.884E+03    -288.886E-03     578.120E-03    -289.234E-03     3.82611E-03    -288.816E-03     577.345E-03    -289.291E-03     4.22633E-03
             920     1.34790E-03     156.347E-03    -117.126E+06    -239.757E+06    -110.941E+06     1.22370E+06    -289.454E-03     578.542E-03    -289.088E-03     10.3118E-03    -289.515E-03     577.662E-03    -289.126E-03     10.6496E-03
             921     2.02252E-03     156.370E-03    -113.257E+06    -227.732E+06    -99.9428E+06     1.86408E+06    -289.254E-03     578.460E-03    -289.206E-03     14.0240E-03    -289.336E-03     577.623E-03    -289.211E-03     14.6461E-03
             922     2.69646E-03     156.401E-03    -108.226E+06    -212.042E+06    -86.1266E+06     2.46707E+06    -289.498E-03     578.768E-03    -289.270E-03     18.5508E-03    -289.597E-03     577.981E-03    -289.236E-03     19.3481E-03
             923     3.36970E-03     156.438E-03    -102.292E+06    -193.713E+06    -70.5147E+06     2.97191E+06    -289.728E-03     579.090E-03    -289.361E-03     23.8817E-03    -289.849E-03     578.364E-03    -289.285E-03     24.6942E-03
             924     4.04311E-03     156.489E-03    -95.7141E+06    -173.738E+06    -54.0195E+06     3.40374E+06    -289.419E-03     578.836E-03    -289.418E-03     28.9213E-03    -289.560E-03     578.178E-03    -289.297E-03     29.7122E-03
             925     4.71732E-03     156.542E-03    -88.7318E+06    -152.445E+06    -37.5182E+06     3.74278E+06    -289.047E-03     578.448E-03    -289.401E-03     33.8289E-03    -289.209E-03     577.863E-03    -289.239E-03     34.5404E-03
             926     5.39222E-03     156.608E-03    -81.4637E+06    -129.979E+06    -21.5702E+06     4.17030E+06    -289.158E-03     578.515E-03    -289.357E-03     39.3386E-03    -289.347E-03     578.017E-03    -289.159E-03     39.8226E-03
             927     6.06640E-03     156.683E-03    -74.1896E+06    -105.839E+06    -6.51863E+06     4.70540E+06    -289.278E-03     578.598E-03    -289.320E-03     43.8395E-03    -289.495E-03     578.195E-03    -289.092E-03     44.1283E-03
             928     6.74103E-03     156.764E-03    -66.9789E+06    -79.2041E+06     7.74944E+06     5.31231E+06    -289.192E-03     578.468E-03    -289.276E-03     48.1749E-03    -289.440E-03     578.175E-03    -289.025E-03     48.1995E-03
             929     7.41537E-03     156.856E-03     -59.886E+06    -49.2663E+06     21.4359E+06     5.81478E+06    -289.487E-03     578.717E-03    -289.230E-03     53.4898E-03    -289.783E-03     578.563E-03    -288.964E-03     53.0181E-03
             930     8.08998E-03     156.955E-03    -53.0249E+06    -12.1697E+06     34.8948E+06     6.25369E+06    -289.974E-03     579.173E-03    -289.199E-03     58.7757E-03    -290.334E-03     579.201E-03    -288.930E-03     57.7004E-03
             931     8.76375E-03     157.061E-03    -46.2254E+06     32.7797E+06     48.5606E+06     6.56029E+06    -290.116E-03     579.289E-03    -289.173E-03     64.1976E-03    -290.561E-03     579.546E-03    -288.911E-03     62.4138E-03
             932     9.43779E-03     157.176E-03    -39.0067E+06     56.0699E+06     60.5000E+06     6.88537E+06    -289.928E-03     579.084E-03    -289.156E-03     69.7111E-03    -290.433E-03     579.475E-03    -288.879E-03     67.1012E-03
             933     10.1138E-03     157.298E-03    -31.2525E+06     68.9236E+06     74.0277E+06     6.73595E+06    -289.849E-03     578.991E-03    -289.142E-03     74.5416E-03    -290.403E-03     579.464E-03    -288.826E-03     71.0908E-03
             934     10.7882E-03     157.428E-03    -23.9583E+06     68.9238E+06     86.4047E+06     5.28845E+06    -290.232E-03     579.373E-03    -289.142E-03     79.5074E-03    -290.827E-03     579.878E-03    -288.775E-03     75.1240E-03
             935     11.4632E-03     157.564E-03    -17.8674E+06     58.5427E+06     94.4536E+06     3.88886E+06    -290.853E-03     580.013E-03    -289.161E-03     82.0453E-03    -291.452E-03     580.483E-03    -288.747E-03     77.0304E-03
             936     12.1378E-03     157.698E-03    -11.9898E+06     83.7590E+06     105.977E+06     2.84406E+06    -291.467E-03     580.646E-03    -289.178E-03     84.3273E-03    -292.142E-03     581.268E-03    -288.752E-03     78.5075E-03
             937     12.8114E-03     157.840E-03    -5.69419E+06     106.277E+06     110.430E+06     1.44276E+06    -291.822E-03     581.010E-03    -289.188E-03     83.6515E-03    -292.476E-03     581.701E-03    -288.782E-03     78.1628E-03
             938     674.671E-06     158.019E-03    -120.997E+06    -250.334E+06    -119.617E+06     450.463E+03    -290.394E-03     578.387E-03    -287.993E-03     6.18462E-03    -290.339E-03     577.601E-03    -288.052E-03     6.30165E-03
             939     1.34748E-03     158.038E-03    -118.657E+06    -242.720E+06    -112.266E+06     1.15150E+06    -289.629E-03     578.862E-03    -289.232E-03     9.94727E-03    -289.693E-03     577.973E-03    -289.270E-03     10.3775E-03
             940     2.02101E-03     158.058E-03    -114.736E+06    -230.598E+06    -100.973E+06     1.66167E+06    -288.931E-03     578.225E-03    -289.294E-03     13.6149E-03    -289.016E-03     577.378E-03    -289.298E-03     14.3203E-03
             941     2.69588E-03     158.090E-03    -109.498E+06    -214.885E+06    -86.8619E+06     2.15838E+06    -289.089E-03     578.333E-03    -289.244E-03     18.4540E-03    -289.189E-03     577.534E-03    -289.208E-03     19.2864E-03
             942     3.36979E-03     158.130E-03    -103.304E+06    -196.486E+06    -70.9800E+06     2.70937E+06    -289.164E-03     578.409E-03    -289.245E-03     23.4188E-03    -289.284E-03     577.671E-03    -289.166E-03     24.3219E-03
             943     4.04428E-03     158.177E-03    -96.4048E+06    -176.331E+06    -54.3265E+06     3.29410E+06    -288.863E-03     578.091E-03    -289.228E-03     28.4848E-03    -289.003E-03     577.421E-03    -289.105E-03     29.3815E-03
             944     4.71921E-03     158.231E-03    -89.0922E+06    -154.851E+06    -37.6779E+06     3.85632E+06    -289.047E-03     578.245E-03    -289.198E-03     33.5459E-03    -289.208E-03     577.649E-03    -289.032E-03     34.3650E-03
             945     5.39288E-03     158.297E-03    -81.6285E+06    -132.438E+06    -21.6240E+06     4.33902E+06    -289.393E-03     578.587E-03    -289.194E-03     39.1076E-03    -289.578E-03     578.075E-03    -288.992E-03     39.7203E-03
             946     6.06713E-03     158.372E-03    -74.0272E+06    -108.484E+06    -6.29750E+06     4.88389E+06    -289.356E-03     578.551E-03    -289.194E-03     43.7335E-03    -289.566E-03     578.131E-03    -288.961E-03     44.1574E-03
             947     6.74116E-03     158.453E-03    -66.3954E+06    -82.2397E+06     8.23112E+06     5.57830E+06    -289.222E-03     578.390E-03    -289.168E-03     48.6586E-03    -289.462E-03     578.079E-03    -288.912E-03     48.7666E-03
             948     7.41616E-03     158.544E-03    -58.9639E+06    -52.4426E+06     22.1429E+06     6.53314E+06    -289.232E-03     578.352E-03    -289.119E-03     54.5550E-03    -289.521E-03     578.180E-03    -288.847E-03     54.1267E-03
             949     8.09081E-03     158.644E-03    -51.8053E+06    -15.0157E+06     36.1205E+06     7.49398E+06    -289.442E-03     578.504E-03    -289.062E-03     59.9143E-03    -289.795E-03     578.514E-03    -288.784E-03     58.9074E-03
             950     8.76571E-03     158.751E-03    -44.9899E+06     30.6827E+06     50.6329E+06     8.21172E+06    -289.636E-03     578.642E-03    -289.006E-03     65.1503E-03    -290.073E-03     578.881E-03    -288.732E-03     63.4712E-03
             951     9.44092E-03     158.865E-03    -38.4511E+06     56.9563E+06     62.7599E+06     7.48807E+06    -290.015E-03     578.994E-03    -288.980E-03     70.5458E-03    -290.519E-03     579.383E-03    -288.693E-03     68.0303E-03
             952     10.1144E-03     158.987E-03    -31.8914E+06     69.8062E+06     76.0090E+06     6.08283E+06    -290.194E-03     579.183E-03    -288.989E-03     74.7338E-03    -290.749E-03     579.652E-03    -288.664E-03     71.4101E-03
             953     10.7898E-03     159.116E-03    -25.2345E+06     70.1454E+06     87.0454E+06     5.81519E+06    -290.044E-03     579.042E-03    -288.998E-03     79.1927E-03    -290.639E-03     579.544E-03    -288.628E-03     74.9744E-03
             954     11.4648E-03     159.252E-03    -18.4675E+06     61.6812E+06     93.7623E+06     4.90871E+06    -290.392E-03     579.389E-03    -288.997E-03     82.0170E-03    -290.992E-03     579.871E-03    -288.591E-03     77.1137E-03
             955     12.1386E-03     159.390E-03    -11.7803E+06     86.9444E+06     106.342E+06     3.23457E+06    -290.891E-03     579.890E-03    -288.999E-03     84.1211E-03    -291.563E-03     580.520E-03    -288.576E-03     78.4050E-03
             956     12.8134E-03     159.529E-03    -5.69463E+06     110.007E+06     111.780E+06     1.78984E+06    -291.597E-03     580.598E-03    -289.001E-03     83.6977E-03    -292.254E-03     581.301E-03    -288.593E-03     78.2782E-03
             957     673.888E-06     159.713E-03    -123.271E+06    -252.970E+06    -121.926E+06     721.616E+03    -290.243E-03     578.433E-03    -288.190E-03     6.60299E-03    -290.198E-03     577.631E-03    -288.254E-03     6.65820E-03
             958     1.34764E-03     159.726E-03    -120.856E+06    -245.269E+06    -114.039E+06     969.421E+03    -289.045E-03     578.192E-03    -289.147E-03     9.88171E-03    -289.115E-03     577.297E-03    -289.186E-03     10.3396E-03
             959     2.02231E-03     159.748E-03    -116.701E+06    -232.887E+06    -102.746E+06     1.33560E+06    -289.068E-03     578.198E-03    -289.130E-03     15.0521E-03    -289.157E-03     577.345E-03    -289.137E-03     15.6394E-03
             960     2.69563E-03     159.779E-03    -111.362E+06    -217.228E+06    -88.3788E+06     1.73506E+06    -288.895E-03     578.013E-03    -289.119E-03     19.5457E-03    -288.999E-03     577.208E-03    -289.084E-03     20.3177E-03
             961     3.37042E-03     159.818E-03    -105.004E+06    -198.972E+06    -72.2571E+06     2.14168E+06    -288.597E-03     577.668E-03    -289.070E-03     23.9558E-03    -288.720E-03     576.921E-03    -288.991E-03     24.8839E-03
             962     4.04511E-03     159.864E-03    -97.9056E+06    -178.823E+06    -55.4884E+06     2.55974E+06    -288.849E-03     577.878E-03    -289.029E-03     28.2732E-03    -288.989E-03     577.197E-03    -288.905E-03     29.3089E-03
             963     4.71909E-03     159.921E-03    -90.2962E+06    -157.439E+06    -38.7194E+06     3.03929E+06    -289.046E-03     578.072E-03    -289.026E-03     33.4621E-03    -289.205E-03     577.464E-03    -288.861E-03     34.4218E-03
             964     5.39368E-03     159.986E-03    -82.3811E+06    -135.003E+06    -22.4152E+06     3.55073E+06    -289.028E-03     578.050E-03    -289.022E-03     39.2700E-03    -289.208E-03     577.524E-03    -288.819E-03     40.0067E-03
             965     6.06811E-03     160.061E-03    -74.3718E+06    -111.395E+06    -6.86860E+06     4.12815E+06    -288.972E-03     577.971E-03    -288.998E-03     44.3241E-03    -289.177E-03     577.536E-03    -288.763E-03     44.8344E-03
             966     6.74328E-03     160.142E-03    -66.4608E+06    -85.6732E+06     7.84754E+06     4.94788E+06    -289.038E-03     577.999E-03    -288.961E-03     49.3576E-03    -289.272E-03     577.669E-03    -288.701E-03     49.5457E-03
             967     7.41773E-03     160.232E-03    -58.5326E+06    -56.5270E+06     21.9857E+06     5.91801E+06    -289.085E-03     577.998E-03    -288.913E-03     55.2091E-03    -289.362E-03     577.803E-03    -288.636E-03     54.8836E-03
             968     8.09283E-03     160.332E-03    -50.7240E+06    -20.1402E+06     36.2240E+06     7.46924E+06    -289.062E-03     577.911E-03    -288.849E-03     60.5308E-03    -289.398E-03     577.890E-03    -288.565E-03     59.6419E-03
             969     8.76796E-03     160.439E-03    -43.3481E+06     26.3251E+06     51.6836E+06     9.47016E+06    -289.300E-03     578.081E-03    -288.781E-03     65.4184E-03    -289.720E-03     578.291E-03    -288.498E-03     63.8850E-03
             970     9.44247E-03     160.554E-03    -36.5394E+06     59.5021E+06     65.4105E+06     9.94344E+06    -289.795E-03     578.541E-03    -288.746E-03     71.1491E-03    -290.296E-03     578.934E-03    -288.453E-03     68.7464E-03
             971     10.1174E-03     160.678E-03    -30.3618E+06     71.4682E+06     78.0298E+06     8.90505E+06    -290.300E-03     579.062E-03    -288.762E-03     75.9965E-03    -290.855E-03     579.536E-03    -288.431E-03     72.7384E-03
             972     10.7911E-03     160.803E-03    -24.3990E+06     71.3380E+06     87.6550E+06     7.41177E+06    -290.581E-03     579.375E-03    -288.794E-03     80.4861E-03    -291.177E-03     579.884E-03    -288.424E-03     76.3114E-03
             973     11.4660E-03     160.942E-03    -18.3964E+06     66.6025E+06     94.2482E+06     5.40646E+06    -290.522E-03     579.336E-03    -288.814E-03     83.5331E-03    -291.136E-03     579.849E-03    -288.413E-03     78.6066E-03
             974     12.1417E-03     161.078E-03    -12.2924E+06     89.8032E+06     107.249E+06     3.67899E+06    -290.879E-03     579.710E-03    -288.831E-03     85.3430E-03    -291.566E-03     580.361E-03    -288.407E-03     79.5935E-03
             975     12.8158E-03     161.220E-03    -5.94404E+06     113.980E+06     113.424E+06     2.14631E+06    -291.516E-03     580.354E-03    -288.838E-03     84.3646E-03    -292.186E-03     581.078E-03    -288.428E-03     78.9437E-03
             976     673.462E-06     161.404E-03    -127.011E+06    -255.112E+06    -124.780E+06     394.900E+03    -288.357E-03     577.957E-03    -289.600E-03     6.92746E-03    -288.342E-03     577.143E-03    -289.670E-03     7.01357E-03
             977     1.34890E-03     161.411E-03    -123.992E+06    -247.076E+06    -117.365E+06     640.431E+03    -288.626E-03     577.508E-03    -288.883E-03     9.31479E-03    -288.707E-03     576.615E-03    -288.931E-03     9.87091E-03
             978     2.02286E-03     161.438E-03    -119.891E+06    -234.671E+06    -105.632E+06     925.288E+03    -288.588E-03     577.393E-03    -288.806E-03     14.6118E-03    -288.684E-03     576.539E-03    -288.820E-03     15.3218E-03
             979     2.69721E-03     161.467E-03    -114.395E+06    -218.806E+06    -90.8354E+06     1.13533E+06    -288.455E-03     577.216E-03    -288.761E-03     19.4084E-03    -288.568E-03     576.410E-03    -288.732E-03     20.2911E-03
             980     3.37184E-03     161.505E-03    -107.840E+06    -200.463E+06    -74.3874E+06     1.27233E+06    -288.665E-03     577.408E-03    -288.742E-03     24.5743E-03    -288.797E-03     576.660E-03    -288.667E-03     25.5378E-03
             981     4.04588E-03     161.554E-03    -100.568E+06    -180.498E+06    -57.3818E+06     1.45075E+06    -288.874E-03     577.637E-03    -288.764E-03     29.0918E-03    -289.022E-03     576.954E-03    -288.643E-03     30.1482E-03
             982     4.72028E-03     161.608E-03    -92.7958E+06    -159.369E+06    -40.4955E+06     1.70120E+06    -288.807E-03     577.589E-03    -288.783E-03     34.2982E-03    -288.971E-03     576.976E-03    -288.619E-03     35.2856E-03
             983     5.39505E-03     161.674E-03    -84.7773E+06    -137.234E+06    -24.2387E+06     2.07850E+06    -288.563E-03     577.326E-03    -288.763E-03     39.7405E-03    -288.748E-03     576.793E-03    -288.563E-03     40.5592E-03
             984     6.07031E-03     161.748E-03    -76.7179E+06    -114.056E+06    -8.73014E+06     2.62244E+06    -288.528E-03     577.244E-03    -288.716E-03     44.6889E-03    -288.734E-03     576.798E-03    -288.483E-03     45.3111E-03
             985     6.74480E-03     161.829E-03    -68.6253E+06    -88.9663E+06     6.00912E+06     3.30555E+06    -288.781E-03     577.450E-03    -288.669E-03     49.8330E-03    -289.014E-03     577.107E-03    -288.411E-03     50.1246E-03
             986     7.41990E-03     161.919E-03    -60.6945E+06    -60.7452E+06     20.0758E+06     4.36303E+06    -288.964E-03     577.593E-03    -288.629E-03     55.4565E-03    -289.237E-03     577.377E-03    -288.353E-03     55.2541E-03
             987     8.09490E-03     162.019E-03    -53.0608E+06    -27.0838E+06     33.7917E+06     6.20983E+06    -289.129E-03     577.715E-03    -288.586E-03     60.7431E-03    -289.458E-03     577.661E-03    -288.301E-03     59.9742E-03
             988     8.76996E-03     162.126E-03    -45.6636E+06     17.2584E+06     48.4182E+06     9.41580E+06    -289.245E-03     577.781E-03    -288.536E-03     65.5330E-03    -289.651E-03     577.946E-03    -288.253E-03     64.1638E-03
             989     9.44521E-03     162.242E-03    -39.0746E+06     57.6293E+06     61.4069E+06     11.9455E+06    -289.178E-03     577.658E-03    -288.480E-03     71.0070E-03    -289.672E-03     578.040E-03    -288.200E-03     68.8524E-03
             990     10.1208E-03     162.365E-03    -32.8796E+06     75.2397E+06     73.0617E+06     11.0320E+06    -289.801E-03     578.262E-03    -288.461E-03     76.4235E-03    -290.359E-03     578.758E-03    -288.157E-03     73.3546E-03
             991     10.7957E-03     162.496E-03    -26.3548E+06     75.5834E+06     84.2972E+06     8.44667E+06    -290.793E-03     579.298E-03    -288.505E-03     80.5329E-03    -291.389E-03     579.824E-03    -288.155E-03     76.5440E-03
             992     11.4696E-03     162.628E-03    -19.6875E+06     72.1394E+06     94.1304E+06     5.85242E+06    -290.955E-03     579.527E-03    -288.573E-03     83.4009E-03    -291.573E-03     580.059E-03    -288.178E-03     78.6355E-03
             993     12.1435E-03     162.768E-03    -12.7388E+06     93.1299E+06     108.475E+06     3.63210E+06    -291.345E-03     579.978E-03    -288.633E-03     86.8130E-03    -292.050E-03     580.654E-03    -288.207E-03     80.9924E-03
             994     12.8170E-03     162.912E-03    -6.07357E+06     117.672E+06     115.524E+06     2.09687E+06    -291.720E-03     580.389E-03    -288.669E-03     84.9537E-03    -292.403E-03     581.133E-03    -288.253E-03     79.5291E-03
             995     675.012E-06     163.087E-03    -130.040E+06    -256.214E+06    -128.764E+06     251.554E+03    -288.804E-03     576.816E-03    -288.011E-03     7.83851E-03    -288.818E-03     575.991E-03    -288.095E-03     7.94872E-03
             996     1.34806E-03     163.103E-03    -127.946E+06    -248.303E+06    -121.102E+06     359.697E+03    -288.654E-03     577.088E-03    -288.435E-03     9.77337E-03    -288.750E-03     576.202E-03    -288.494E-03     10.3530E-03
             997     2.02255E-03     163.122E-03    -123.587E+06    -235.612E+06    -108.810E+06     469.249E+03    -287.984E-03     576.425E-03    -288.440E-03     14.6299E-03    -288.094E-03     575.576E-03    -288.464E-03     15.4324E-03
             998     2.69867E-03     163.153E-03    -117.928E+06    -219.556E+06    -93.7371E+06     493.321E+03    -288.015E-03     576.369E-03    -288.353E-03     19.4965E-03    -288.140E-03     575.568E-03    -288.333E-03     20.4783E-03
             999     3.37280E-03     163.193E-03    -111.308E+06    -200.986E+06    -77.0099E+06     468.698E+03    -288.269E-03     576.602E-03    -288.333E-03     24.8455E-03    -288.412E-03     575.859E-03    -288.265E-03     25.9044E-03
            1000     4.04754E-03     163.240E-03    -103.990E+06    -181.166E+06    -59.6574E+06     441.077E+03    -288.352E-03     576.698E-03    -288.346E-03     30.0918E-03    -288.512E-03     576.019E-03    -288.231E-03     31.1665E-03
            1001     4.72240E-03     163.296E-03    -96.2943E+06    -160.416E+06    -42.7504E+06     527.569E+03    -288.484E-03     576.845E-03    -288.361E-03     35.2381E-03    -288.661E-03     576.234E-03    -288.202E-03     36.2562E-03
            1002     5.39696E-03     163.361E-03    -88.3573E+06    -138.642E+06    -26.6070E+06     765.681E+03    -288.369E-03     576.728E-03    -288.359E-03     40.4454E-03    -288.564E-03     576.195E-03    -288.163E-03     41.3265E-03
            1003     6.07189E-03     163.433E-03    -80.3503E+06    -115.886E+06    -11.3733E+06     1.11560E+06    -288.311E-03     576.641E-03    -288.330E-03     45.7888E-03    -288.528E-03     576.194E-03    -288.102E-03     46.4263E-03
            1004     6.74757E-03     163.516E-03    -72.4230E+06    -91.6584E+06     2.94621E+06     1.69862E+06    -288.612E-03     576.910E-03    -288.298E-03     50.8584E-03    -288.854E-03     576.561E-03    -288.045E-03     51.1866E-03
            1005     7.42247E-03     163.606E-03    -64.6205E+06    -65.0073E+06     16.4576E+06     2.76034E+06    -288.979E-03     577.259E-03    -288.280E-03     56.0144E-03    -289.257E-03     577.029E-03    -288.010E-03     55.9131E-03
            1006     8.09743E-03     163.706E-03    -56.8040E+06    -33.8278E+06     29.6827E+06     4.50624E+06    -289.202E-03     577.469E-03    -288.267E-03     61.4742E-03    -289.529E-03     577.389E-03    -287.987E-03     60.8040E-03
            1007     8.77198E-03     163.813E-03    -48.7522E+06     5.37510E+06     43.2063E+06     7.57911E+06    -289.309E-03     577.553E-03    -288.244E-03     66.2615E-03    -289.700E-03     577.664E-03    -287.965E-03     65.0116E-03
            1008     9.44734E-03     163.927E-03    -40.2767E+06     51.0350E+06     57.0302E+06     10.8936E+06    -289.395E-03     577.604E-03    -288.209E-03     70.8486E-03    -289.868E-03     577.949E-03    -287.939E-03     68.9094E-03
            1009     10.1227E-03     164.051E-03    -32.2906E+06     78.4101E+06     70.6677E+06     11.5874E+06    -289.704E-03     577.906E-03    -288.202E-03     76.2565E-03    -290.248E-03     578.409E-03    -287.916E-03     73.3925E-03
            1010     10.7973E-03     164.185E-03    -25.4703E+06     80.8516E+06     83.0060E+06     9.39482E+06    -290.312E-03     578.558E-03    -288.245E-03     80.3016E-03    -290.897E-03     579.098E-03    -287.911E-03     76.5201E-03
            1011     11.4718E-03     164.319E-03    -19.2629E+06     78.3346E+06     94.0939E+06     6.53399E+06    -291.010E-03     579.330E-03    -288.320E-03     83.2509E-03    -291.625E-03     579.882E-03    -287.935E-03     78.6346E-03
            1012     12.1466E-03     164.457E-03    -13.1707E+06     98.1710E+06     109.597E+06     3.98864E+06    -291.549E-03     579.956E-03    -288.408E-03     88.0276E-03    -292.276E-03     580.668E-03    -287.983E-03     82.1177E-03
            1013     12.8208E-03     164.605E-03    -6.55806E+06     121.830E+06     117.884E+06     1.69427E+06    -292.097E-03     580.572E-03    -288.475E-03     85.8932E-03    -292.799E-03     581.341E-03    -288.053E-03     80.4194E-03
            1014     675.404E-06     164.779E-03    -134.280E+06    -257.187E+06    -132.294E+06     399.121E+03    -288.295E-03     575.480E-03    -287.186E-03     6.29955E-03    -288.334E-03     574.646E-03    -287.279E-03     6.58955E-03
            1015     1.34991E-03     164.787E-03    -131.342E+06    -248.638E+06    -124.027E+06     220.191E+03    -287.628E-03     575.332E-03    -287.704E-03     10.0866E-03    -287.738E-03     574.455E-03    -287.773E-03     10.6610E-03
            1016     2.02546E-03     164.809E-03    -127.085E+06    -235.909E+06    -111.914E+06     174.189E+03    -287.952E-03     575.697E-03    -287.745E-03     15.5197E-03    -288.075E-03     574.857E-03    -287.778E-03     16.2907E-03
            1017     2.69880E-03     164.838E-03    -121.390E+06    -219.575E+06    -96.5550E+06     98.6895E+03    -287.902E-03     575.721E-03    -287.819E-03     20.3102E-03    -288.040E-03     574.929E-03    -287.807E-03     21.2975E-03
            1018     3.37463E-03     164.878E-03    -114.684E+06    -200.870E+06    -79.4322E+06    -11.0643E+03    -287.493E-03     575.317E-03    -287.824E-03     25.2634E-03    -287.649E-03     574.583E-03    -287.764E-03     26.3962E-03
            1019     4.05020E-03     164.925E-03    -107.284E+06    -181.141E+06    -61.8500E+06    -113.146E+03    -287.616E-03     575.411E-03    -287.795E-03     30.8234E-03    -287.788E-03     574.738E-03    -287.686E-03     31.9591E-03
            1020     4.72504E-03     164.983E-03    -99.4920E+06    -160.558E+06    -44.7990E+06    -210.284E+03    -287.875E-03     575.665E-03    -287.790E-03     35.9060E-03    -288.062E-03     575.059E-03    -287.637E-03     37.0163E-03
            1021     5.40036E-03     165.045E-03    -91.5258E+06    -139.254E+06    -28.8421E+06    -163.099E+03    -288.036E-03     575.832E-03    -287.796E-03     41.3104E-03    -288.240E-03     575.301E-03    -287.606E-03     42.2776E-03
            1022     6.07574E-03     165.119E-03    -83.5865E+06    -117.054E+06    -13.9734E+06     113.558E+03    -288.361E-03     576.169E-03    -287.808E-03     46.8519E-03    -288.586E-03     575.722E-03    -287.587E-03     47.5665E-03
            1023     6.75044E-03     165.201E-03    -75.6885E+06    -93.4856E+06     61.4612E+03     539.910E+03    -288.594E-03     576.418E-03    -287.825E-03     51.8230E-03    -288.842E-03     576.066E-03    -287.579E-03     52.2482E-03
            1024     7.42549E-03     165.293E-03    -67.8357E+06    -68.1405E+06     13.3406E+06     1.16621E+06    -288.923E-03     576.765E-03    -287.842E-03     57.3231E-03    -289.206E-03     576.526E-03    -287.578E-03     57.2859E-03
            1025     8.10031E-03     165.391E-03    -59.9714E+06    -39.3470E+06     26.0989E+06     2.30316E+06    -289.277E-03     577.138E-03    -287.861E-03     62.5204E-03    -289.603E-03     577.036E-03    -287.587E-03     61.9353E-03
            1026     8.77613E-03     165.500E-03    -51.8345E+06    -3.42329E+06     39.2723E+06     3.98994E+06    -289.649E-03     577.532E-03    -287.882E-03     67.1455E-03    -290.033E-03     577.605E-03    -287.606E-03     65.9616E-03
            1027     9.45035E-03     165.615E-03    -43.4818E+06     42.1451E+06     53.8162E+06     6.33675E+06    -290.209E-03     578.122E-03    -287.913E-03     71.6547E-03    -290.675E-03     578.427E-03    -287.642E-03     69.7622E-03
            1028     10.1246E-03     165.738E-03    -35.1202E+06     75.7196E+06     67.7367E+06     8.54150E+06    -290.128E-03     578.086E-03    -287.958E-03     76.4400E-03    -290.672E-03     578.578E-03    -287.678E-03     73.6753E-03
            1029     10.8002E-03     165.871E-03    -27.1991E+06     84.7821E+06     80.3747E+06     8.72846E+06    -289.862E-03     577.867E-03    -288.004E-03     80.8663E-03    -290.455E-03     578.431E-03    -287.686E-03     77.1459E-03
            1030     11.4755E-03     166.007E-03    -19.9133E+06     83.8222E+06      93.058E+06     6.75462E+06    -290.896E-03     578.973E-03    -288.076E-03     84.2128E-03    -291.524E-03     579.557E-03    -287.704E-03     79.5943E-03
            1031     12.1489E-03     166.147E-03    -12.6668E+06     104.228E+06     111.108E+06     4.13131E+06    -291.829E-03     580.020E-03    -288.191E-03     87.5515E-03    -292.555E-03     580.748E-03    -287.768E-03     81.7485E-03
            1032     12.8230E-03     166.293E-03    -5.96463E+06     126.870E+06     121.285E+06     1.87989E+06    -292.544E-03     580.843E-03    -288.299E-03     86.1247E-03    -293.249E-03     581.626E-03    -287.868E-03     80.7074E-03
            1033     673.608E-06     166.455E-03    -137.334E+06    -257.768E+06    -135.374E+06     10.1515E+03    -286.370E-03     573.732E-03    -287.362E-03     6.28160E-03    -286.425E-03     572.902E-03    -287.466E-03     6.60714E-03
            1034     1.35176E-03     166.471E-03    -134.508E+06    -248.946E+06    -127.153E+06     151.806E+03    -286.751E-03     573.579E-03    -286.828E-03     10.4133E-03    -286.872E-03     572.711E-03    -286.907E-03     11.0142E-03
            1035     2.02596E-03     166.492E-03    -130.068E+06    -235.706E+06    -114.523E+06     82.1994E+03    -287.197E-03     574.083E-03    -286.885E-03     15.8863E-03    -287.331E-03     573.252E-03    -286.928E-03     16.7060E-03
            1036     2.70195E-03     166.524E-03    -124.331E+06    -219.034E+06    -98.8349E+06    -132.191E+03    -287.326E-03     574.331E-03    -287.005E-03     21.3270E-03    -287.476E-03     573.549E-03    -287.001E-03     22.3147E-03
            1037     3.37664E-03     166.559E-03    -117.437E+06    -200.262E+06    -81.4320E+06    -374.644E+03    -287.146E-03     574.224E-03    -287.078E-03     26.1633E-03    -287.313E-03     573.499E-03    -287.024E-03     27.3257E-03
            1038     4.05228E-03     166.609E-03    -109.837E+06    -180.483E+06    -63.6367E+06    -626.230E+03    -286.889E-03     573.973E-03    -287.084E-03     32.1288E-03    -287.071E-03     573.309E-03    -286.981E-03     33.2668E-03
            1039     4.72830E-03     166.665E-03    -101.769E+06    -160.079E+06    -46.3903E+06    -837.664E+03    -287.146E-03     574.218E-03    -287.072E-03     37.2173E-03    -287.341E-03     573.618E-03    -286.924E-03     38.3617E-03
            1040     5.40405E-03     166.729E-03    -93.6138E+06    -139.085E+06    -30.2443E+06    -930.102E+03    -287.911E-03     575.019E-03    -287.108E-03     42.4498E-03    -288.121E-03     574.491E-03    -286.922E-03     43.4939E-03
            1041     6.07906E-03     166.804E-03    -85.4237E+06    -117.482E+06    -15.3024E+06    -944.040E+03    -288.400E-03     575.588E-03    -287.188E-03     47.4404E-03    -288.627E-03     575.139E-03    -286.970E-03     48.3025E-03
            1042     6.75427E-03     166.887E-03    -77.1939E+06    -94.6402E+06    -1.23284E+06    -702.478E+03    -288.494E-03     575.755E-03    -287.262E-03     52.4865E-03    -288.741E-03     575.397E-03    -287.019E-03     53.0422E-03
            1043     7.42982E-03     166.976E-03    -69.1985E+06    -69.9715E+06     12.2190E+06    -173.379E+03    -288.815E-03     576.133E-03    -287.318E-03     58.3055E-03    -289.095E-03     575.884E-03    -287.055E-03     58.3682E-03
            1044     8.10502E-03     167.079E-03    -61.4093E+06    -42.3147E+06     25.1702E+06     431.318E+03    -289.457E-03     576.839E-03    -287.381E-03     63.4520E-03    -289.780E-03     576.720E-03    -287.105E-03     62.9708E-03
            1045     8.77867E-03     167.185E-03    -53.6963E+06    -7.97959E+06     38.2791E+06     1.31357E+06    -290.023E-03     577.481E-03    -287.458E-03     68.3556E-03    -290.405E-03     577.533E-03    -287.177E-03     67.2239E-03
            1046     9.45371E-03     167.304E-03    -45.9575E+06     34.3720E+06     52.2026E+06     3.14101E+06    -290.488E-03     578.026E-03    -287.538E-03     73.6425E-03    -290.955E-03     578.300E-03    -287.260E-03     71.7202E-03
            1047     10.1276E-03     167.427E-03    -38.1291E+06     71.0080E+06     65.6254E+06     4.82589E+06    -290.582E-03     578.201E-03    -287.619E-03     77.8440E-03    -291.129E-03     578.674E-03    -287.338E-03     75.0951E-03
            1048     10.8021E-03     167.555E-03    -29.9670E+06     85.4366E+06     77.5419E+06     4.97016E+06    -290.572E-03     578.277E-03    -287.705E-03     82.3702E-03    -291.179E-03     578.857E-03    -287.398E-03     78.6082E-03
            1049     11.4773E-03     167.695E-03    -21.6731E+06     87.2113E+06     89.9323E+06     4.03719E+06    -291.438E-03     579.256E-03    -287.818E-03     86.2587E-03    -292.086E-03     579.875E-03    -287.463E-03     81.5138E-03
            1050     12.1513E-03     167.839E-03    -14.1435E+06     108.411E+06     109.573E+06     2.78387E+06    -292.576E-03     580.559E-03    -287.982E-03     88.1980E-03    -293.311E-03     581.311E-03    -287.571E-03     82.4056E-03
            1051     12.8246E-03     167.982E-03    -6.91117E+06     130.194E+06     122.891E+06     1.70997E+06    -293.325E-03     581.480E-03    -288.155E-03     86.9025E-03    -294.042E-03     582.278E-03    -287.719E-03     81.4862E-03
            1052     678.806E-06     168.137E-03    -139.920E+06    -257.736E+06    -137.910E+06     97.4745E+03    -285.401E-03     571.735E-03    -286.334E-03     5.50542E-03    -285.461E-03     570.920E-03    -286.446E-03     5.95346E-03
            1053     1.35123E-03     168.152E-03    -137.074E+06    -248.902E+06    -129.615E+06    -159.805E+03    -286.046E-03     571.933E-03    -285.887E-03     10.6298E-03    -286.174E-03     571.072E-03    -285.975E-03     11.2873E-03
            1054     2.02873E-03     168.172E-03    -132.340E+06    -235.149E+06    -116.506E+06    -248.050E+03    -285.647E-03     571.554E-03    -285.907E-03     16.7538E-03    -285.789E-03     570.731E-03    -285.956E-03     17.5883E-03
            1055     2.70460E-03     168.205E-03    -126.265E+06    -218.063E+06    -100.400E+06    -498.356E+03    -286.078E-03     571.987E-03    -285.908E-03     22.7898E-03    -286.237E-03     571.214E-03    -285.911E-03     23.7523E-03
            1056     3.38061E-03     168.242E-03    -119.212E+06    -199.037E+06    -82.6590E+06    -889.288E+03    -286.564E-03     572.571E-03    -286.006E-03     27.6100E-03    -286.739E-03     571.855E-03    -285.958E-03     28.7718E-03
            1057     4.05647E-03     168.288E-03    -111.318E+06    -179.028E+06    -64.4464E+06    -1.37890E+06    -286.444E-03     572.545E-03    -286.102E-03     33.4353E-03    -286.632E-03     571.890E-03    -286.003E-03     34.6105E-03
            1058     4.73303E-03     168.346E-03    -103.038E+06    -158.725E+06    -46.8605E+06    -1.87014E+06    -286.880E-03     573.054E-03    -286.174E-03     39.2014E-03    -287.082E-03     572.462E-03    -286.029E-03     40.3213E-03
            1059     5.40840E-03     168.412E-03    -94.4366E+06    -138.162E+06    -30.3235E+06    -2.25660E+06    -287.790E-03     574.082E-03    -286.292E-03     44.3102E-03    -288.004E-03     573.558E-03    -286.107E-03     45.3516E-03
            1060     6.08334E-03     168.488E-03    -85.7880E+06    -117.037E+06    -15.0204E+06    -2.38056E+06    -288.094E-03     574.528E-03    -286.434E-03     49.1421E-03    -288.322E-03     574.080E-03    -286.215E-03     50.0286E-03
            1061     6.75881E-03     168.568E-03    -77.4002E+06    -95.1006E+06    -921.390E+03    -2.22863E+06    -288.566E-03     575.130E-03    -286.564E-03     54.5770E-03    -288.814E-03     574.768E-03    -286.318E-03     55.1335E-03
            1062     7.43366E-03     168.662E-03    -69.0894E+06    -71.2788E+06     12.4997E+06    -1.77774E+06    -289.184E-03     575.879E-03    -286.696E-03     59.8461E-03    -289.458E-03     575.619E-03    -286.430E-03     59.9913E-03
            1063     8.10868E-03     168.762E-03    -60.9292E+06    -44.0259E+06      25.642E+06    -1.09083E+06    -289.514E-03     576.337E-03    -286.823E-03     64.9330E-03    -289.828E-03     576.204E-03    -286.542E-03     64.5472E-03
            1064     8.78432E-03     168.874E-03    -53.2304E+06    -11.2338E+06     38.8102E+06    -20.0743E+03    -289.940E-03     576.876E-03    -286.936E-03     70.1778E-03    -290.314E-03     576.908E-03    -286.648E-03     69.1004E-03
            1065     9.45835E-03     168.988E-03    -45.6849E+06     28.6921E+06     52.6204E+06     1.48226E+06    -290.352E-03     577.391E-03    -287.040E-03     75.7143E-03    -290.809E-03     577.636E-03    -286.752E-03     73.8132E-03
            1066     10.1337E-03     169.116E-03    -37.6852E+06     69.3561E+06     66.5361E+06     2.08750E+06    -290.979E-03     578.128E-03    -287.150E-03     79.6727E-03    -291.520E-03     578.589E-03    -286.863E-03     76.9647E-03
            1067     10.8078E-03     169.242E-03    -29.4241E+06     87.5533E+06     78.7201E+06     942.340E+03    -292.141E-03     579.454E-03    -287.314E-03     84.1096E-03    -292.750E-03     580.042E-03    -287.004E-03     80.3522E-03
            1068     11.4808E-03     169.385E-03    -21.5882E+06     85.9003E+06     91.0376E+06     772.942E+03    -293.051E-03     580.592E-03    -287.541E-03     87.7712E-03    -293.699E-03     581.204E-03    -287.179E-03     83.0072E-03
            1069     12.1543E-03     169.528E-03    -14.0160E+06     108.615E+06     110.704E+06     1.86643E+06    -293.518E-03     581.303E-03    -287.785E-03     89.1522E-03    -294.256E-03     582.055E-03    -287.368E-03     83.3704E-03
            1070     12.8262E-03     169.680E-03    -6.85658E+06     133.523E+06     124.106E+06     1.19455E+06    -294.215E-03     582.223E-03    -288.008E-03     87.8528E-03    -294.939E-03     583.037E-03    -287.571E-03     82.4516E-03
            1071     674.298E-06     169.817E-03    -142.286E+06    -256.991E+06    -140.213E+06    -304.965E+03    -284.385E-03     569.585E-03    -285.200E-03     6.19916E-03    -284.435E-03     568.789E-03    -285.323E-03     6.59134E-03
            1072     1.35438E-03     169.827E-03    -139.096E+06    -247.835E+06    -131.310E+06    -520.991E+03    -284.502E-03     569.214E-03    -284.712E-03     11.1009E-03    -284.637E-03     568.362E-03    -284.807E-03     11.7727E-03
            1073     2.03057E-03     169.848E-03    -134.244E+06    -233.993E+06    -118.063E+06    -862.428E+03    -284.414E-03     569.057E-03    -284.643E-03     17.1279E-03    -284.564E-03     568.244E-03    -284.700E-03     18.0088E-03
            1074     2.70849E-03     169.880E-03    -127.912E+06    -216.390E+06    -101.518E+06    -1.31523E+06    -284.635E-03     569.262E-03    -284.627E-03     24.0214E-03    -284.801E-03     568.501E-03    -284.636E-03     24.9709E-03
            1075     3.38539E-03     169.921E-03    -120.414E+06    -196.939E+06    -83.2086E+06    -1.91279E+06    -285.405E-03     570.119E-03    -284.714E-03     28.6774E-03    -285.586E-03     569.415E-03    -284.670E-03     29.8815E-03
            1076     4.06162E-03     169.966E-03    -112.195E+06    -176.621E+06    -64.5327E+06    -2.59860E+06    -286.001E-03     570.886E-03    -284.885E-03     34.2169E-03    -286.194E-03     570.241E-03    -284.789E-03     35.5103E-03
            1077     4.73760E-03     170.024E-03    -103.511E+06    -156.139E+06    -46.4175E+06    -3.32873E+06    -286.616E-03     571.692E-03    -285.075E-03     41.5718E-03    -286.823E-03     571.111E-03    -284.931E-03     42.6581E-03
            1078     5.41339E-03     170.095E-03    -94.6629E+06    -136.070E+06    -29.5589E+06    -4.03869E+06    -287.153E-03     572.422E-03    -285.268E-03     46.7171E-03    -287.370E-03     571.905E-03    -285.082E-03     47.7416E-03
            1079     6.08975E-03     170.167E-03    -85.6189E+06    -115.759E+06    -14.0797E+06    -4.52226E+06    -287.750E-03     573.210E-03    -285.460E-03     51.4551E-03    -287.977E-03     572.763E-03    -285.239E-03     52.3563E-03
            1080     6.76530E-03     170.253E-03    -76.7488E+06    -94.8160E+06     10.6177E+03    -4.60047E+06    -288.771E-03     574.440E-03    -285.669E-03     57.3136E-03    -289.015E-03     574.074E-03    -285.420E-03     57.8572E-03
            1081     7.44009E-03     170.346E-03    -68.0619E+06    -72.2309E+06     13.2418E+06    -4.24945E+06    -289.608E-03     575.507E-03    -285.899E-03     62.3365E-03    -289.874E-03     575.236E-03    -285.629E-03     62.4992E-03
            1082     8.11453E-03     170.447E-03    -59.5445E+06    -46.3531E+06     26.1966E+06    -3.25785E+06    -289.893E-03     576.008E-03    -286.115E-03     67.0467E-03    -290.193E-03     575.856E-03    -285.831E-03     66.7351E-03
            1083     8.78914E-03     170.556E-03    -51.4038E+06    -15.2826E+06     39.5038E+06    -1.54828E+06    -290.121E-03     576.418E-03    -286.297E-03     71.7538E-03    -290.472E-03     576.418E-03    -286.003E-03     70.8367E-03
            1084     9.46470E-03     170.676E-03    -43.7834E+06     23.6744E+06     53.7172E+06     678.785E+03    -290.716E-03     577.178E-03    -286.462E-03     76.2873E-03    -291.144E-03     577.379E-03    -286.164E-03     74.6520E-03
            1085     10.1387E-03     170.800E-03    -37.0724E+06     70.9644E+06     68.6601E+06     1.39744E+06    -291.837E-03     578.481E-03    -286.643E-03     80.2114E-03    -292.368E-03     578.933E-03    -286.349E-03     77.7365E-03
            1086     10.8121E-03     170.935E-03    -30.6762E+06     93.5683E+06     81.5355E+06    -631.238E+03    -293.481E-03     580.384E-03    -286.904E-03     84.4610E-03    -294.095E-03     580.986E-03    -286.587E-03     80.8915E-03
            1087     11.4844E-03     171.076E-03    -23.3783E+06     83.5138E+06     91.1811E+06    -2.21593E+06    -294.535E-03     581.770E-03    -287.235E-03     88.0091E-03    -295.177E-03     582.361E-03    -286.866E-03     83.3747E-03
            1088     12.1555E-03     171.223E-03    -15.0989E+06     105.018E+06     108.427E+06    -1.47340E+06    -294.610E-03     582.163E-03    -287.553E-03     90.2340E-03    -295.345E-03     582.902E-03    -287.141E-03     84.4356E-03
            1089     12.8291E-03     171.369E-03    -6.89934E+06     134.584E+06     124.304E+06    -85.5621E+03    -295.474E-03     583.322E-03    -287.848E-03     89.3298E-03    -296.204E-03     584.144E-03    -287.412E-03     83.9145E-03
            1090     679.709E-06     171.483E-03    -144.396E+06    -255.024E+06    -142.146E+06    -513.099E+03    -282.920E-03     565.841E-03    -282.921E-03     6.28529E-03    -282.958E-03     565.071E-03    -283.053E-03     6.67792E-03
            1091     1.35574E-03     171.501E-03    -141.045E+06    -245.794E+06    -133.004E+06    -1.08904E+06    -282.977E-03     565.875E-03    -282.898E-03     12.8273E-03    -283.119E-03     565.034E-03    -283.002E-03     13.3758E-03
            1092     2.03406E-03     171.519E-03    -135.920E+06    -231.542E+06    -119.199E+06    -1.74423E+06    -283.256E-03     566.237E-03    -282.981E-03     18.4620E-03    -283.415E-03     565.439E-03    -283.044E-03     19.3161E-03
            1093     2.71185E-03     171.551E-03    -129.306E+06    -213.602E+06    -102.205E+06    -2.42601E+06    -283.387E-03     566.468E-03    -283.081E-03     25.9201E-03    -283.562E-03     565.723E-03    -283.095E-03     26.8377E-03
            1094     3.38971E-03     171.595E-03    -121.652E+06    -193.706E+06    -83.5145E+06    -3.24673E+06    -284.092E-03     567.307E-03    -283.215E-03     31.2583E-03    -284.281E-03     566.618E-03    -283.175E-03     32.4052E-03
            1095     4.06730E-03     171.641E-03    -113.181E+06    -173.057E+06    -64.4753E+06    -4.18750E+06    -285.212E-03     568.660E-03    -283.447E-03     36.5583E-03    -285.413E-03     568.031E-03    -283.355E-03     37.8596E-03
            1096     4.74409E-03     171.702E-03    -104.304E+06    -152.493E+06    -46.0662E+06    -5.14772E+06    -285.833E-03     569.555E-03    -283.723E-03     43.9613E-03    -286.046E-03     568.990E-03    -283.581E-03     45.0730E-03
            1097     5.42107E-03     171.770E-03    -95.1339E+06    -132.240E+06    -28.7980E+06    -6.14046E+06    -286.437E-03     570.418E-03    -283.981E-03     49.3178E-03    -286.659E-03     569.917E-03    -283.796E-03     50.3737E-03
            1098     6.09691E-03     171.847E-03    -86.0579E+06    -112.735E+06    -13.3171E+06    -7.12679E+06    -287.655E-03     571.913E-03    -284.258E-03     54.3434E-03    -287.885E-03     571.476E-03    -284.036E-03     55.2681E-03
            1099     6.77219E-03     171.933E-03    -77.0386E+06    -93.3596E+06     584.976E+03    -7.75206E+06    -288.739E-03     573.307E-03    -284.568E-03     60.0836E-03    -288.982E-03     572.944E-03    -284.318E-03     60.6629E-03
            1100     7.44728E-03     172.029E-03    -68.1081E+06    -72.4265E+06     13.5121E+06    -7.68899E+06    -289.549E-03     574.430E-03    -284.881E-03     65.3082E-03    -289.812E-03     574.156E-03    -284.610E-03     65.4735E-03
            1101     8.12203E-03     172.131E-03    -59.2923E+06    -48.5770E+06     26.0534E+06    -6.90963E+06    -290.622E-03     575.818E-03    -285.196E-03     70.0248E-03    -290.915E-03     575.652E-03    -284.909E-03     69.7212E-03
            1102     8.79641E-03     172.242E-03    -50.3744E+06    -20.1321E+06     38.9511E+06    -5.16477E+06    -291.578E-03     577.097E-03    -285.519E-03     73.9217E-03    -291.909E-03     577.065E-03    -285.222E-03     73.1249E-03
            1103     9.46994E-03     172.360E-03    -41.5185E+06     15.6887E+06     52.8597E+06    -1.98620E+06    -292.189E-03     578.024E-03    -285.835E-03     77.4622E-03    -292.582E-03     578.172E-03    -285.533E-03     76.0364E-03
            1104     10.1437E-03     172.490E-03    -33.2135E+06     67.8207E+06     69.6283E+06     1.82303E+06    -293.023E-03     579.160E-03    -286.137E-03     81.8519E-03    -293.527E-03     579.585E-03    -285.839E-03     79.5158E-03
            1105     10.8162E-03     172.626E-03    -26.5412E+06     100.386E+06     84.1362E+06     2.57212E+06    -294.275E-03     580.747E-03    -286.473E-03     86.8926E-03    -294.884E-03     581.375E-03    -286.159E-03     83.4052E-03
            1106     11.4877E-03     172.771E-03    -21.0491E+06     92.4158E+06     92.9486E+06    -1.80377E+06    -295.421E-03     582.284E-03    -286.863E-03     90.0722E-03    -296.068E-03     582.914E-03    -286.501E-03     85.5171E-03
            1107     12.1608E-03     172.914E-03    -14.7390E+06     101.722E+06     107.536E+06    -4.44951E+06    -296.557E-03     583.834E-03    -287.277E-03     91.7579E-03    -297.283E-03     584.557E-03    -286.865E-03     85.9797E-03
            1108     12.8304E-03     173.068E-03    -7.45582E+06     127.761E+06     124.000E+06    -1.89390E+06    -297.712E-03     585.411E-03    -287.699E-03     90.3079E-03    -298.431E-03     586.197E-03    -287.253E-03     84.9356E-03
            1109     678.751E-06     173.154E-03    -145.709E+06    -251.567E+06    -144.011E+06    -1.02095E+06    -280.898E-03     561.229E-03    -280.332E-03     5.74276E-03    -280.925E-03     560.491E-03    -280.476E-03     6.24655E-03
            1110     1.35975E-03     173.162E-03    -142.627E+06    -242.238E+06    -134.316E+06    -1.79526E+06    -281.056E-03     561.718E-03    -280.662E-03     13.3542E-03    -281.207E-03     560.897E-03    -280.775E-03     13.9643E-03
            1111     2.03892E-03     173.188E-03    -137.274E+06    -227.623E+06    -120.008E+06    -2.73284E+06    -281.587E-03     562.477E-03    -280.890E-03     20.1061E-03    -281.757E-03     561.700E-03    -280.961E-03     20.9283E-03
            1112     2.71743E-03     173.217E-03    -130.469E+06    -209.666E+06    -102.508E+06    -3.68074E+06    -281.958E-03     563.080E-03    -281.122E-03     27.5282E-03    -282.142E-03     562.354E-03    -281.141E-03     28.4579E-03
            1113     3.39688E-03     173.262E-03    -122.525E+06    -189.456E+06    -83.3434E+06    -4.53114E+06    -282.540E-03     563.883E-03    -281.343E-03     34.7245E-03    -282.738E-03     563.215E-03    -281.307E-03     35.7274E-03
            1114     4.07439E-03     173.313E-03    -114.069E+06    -168.176E+06    -64.0504E+06    -5.60803E+06    -283.993E-03     565.632E-03    -281.639E-03     40.6741E-03    -284.206E-03     565.029E-03    -281.550E-03     41.8029E-03
            1115     4.75175E-03     173.373E-03    -105.063E+06    -147.518E+06    -45.4683E+06    -6.87687E+06    -285.081E-03     567.097E-03    -282.016E-03     47.1527E-03    -285.303E-03     566.554E-03    -281.877E-03     48.2311E-03
            1116     5.42896E-03     173.444E-03    -95.9980E+06    -127.340E+06    -28.3136E+06    -8.03329E+06    -286.056E-03     568.457E-03    -282.401E-03     52.9334E-03    -286.287E-03     567.977E-03    -282.219E-03     53.9510E-03
            1117     6.10579E-03     173.524E-03    -87.2381E+06    -108.030E+06    -12.8448E+06    -9.12863E+06    -287.544E-03     570.353E-03    -282.809E-03     58.2059E-03    -287.786E-03     569.938E-03    -282.590E-03     59.0964E-03
            1118     6.78138E-03     173.613E-03    -78.6900E+06    -89.5436E+06     925.824E+03    -10.1377E+06    -288.668E-03     571.908E-03    -283.240E-03     63.0585E-03    -288.919E-03     571.560E-03    -282.992E-03     63.7128E-03
            1119     7.45699E-03     173.708E-03    -70.2158E+06    -70.1078E+06     13.2046E+06    -10.9489E+06    -289.717E-03     573.381E-03    -283.664E-03     68.1673E-03    -289.989E-03     573.116E-03    -283.394E-03     68.4226E-03
            1120     8.13183E-03     173.815E-03    -61.6993E+06    -48.7184E+06     24.6896E+06    -11.1732E+06    -291.557E-03     575.666E-03    -284.109E-03     72.8416E-03    -291.854E-03     575.499E-03    -283.825E-03     72.6163E-03
            1121     8.80461E-03     173.929E-03    -53.3254E+06    -23.8632E+06     36.1005E+06    -10.3770E+06    -293.197E-03     577.795E-03    -284.598E-03     76.0697E-03    -293.526E-03     577.745E-03    -284.305E-03     75.3833E-03
            1122     9.47679E-03     174.050E-03    -44.5309E+06     7.29869E+06     48.6415E+06    -8.28169E+06    -293.827E-03     578.910E-03    -285.083E-03     79.9234E-03    -294.212E-03     579.022E-03    -284.786E-03     78.5491E-03
            1123     10.1491E-03     174.177E-03    -35.0235E+06     55.3921E+06     64.4402E+06    -3.94203E+06    -294.420E-03     579.940E-03    -285.520E-03     85.1697E-03    -294.908E-03     580.314E-03    -285.228E-03     82.8083E-03
            1124     10.8219E-03     174.318E-03    -25.2727E+06     98.4496E+06     80.6062E+06     557.939E+03    -295.440E-03     581.388E-03    -285.948E-03     89.2190E-03    -296.031E-03     582.005E-03    -285.651E-03     85.8237E-03
            1125     11.4947E-03     174.463E-03    -17.3195E+06     104.832E+06     94.7116E+06     860.802E+03    -296.935E-03     583.373E-03    -286.438E-03     91.0752E-03    -297.572E-03     584.047E-03    -286.092E-03     86.7419E-03
            1126     12.1633E-03     174.614E-03    -11.9881E+06     103.734E+06     110.010E+06    -1.43301E+06    -298.742E-03     585.732E-03    -286.990E-03     92.8956E-03    -299.453E-03     586.450E-03    -286.573E-03     87.2871E-03
            1127     12.8325E-03     174.768E-03    -6.39907E+06     121.071E+06     125.316E+06    -1.67629E+06    -299.940E-03     587.484E-03    -287.544E-03     91.6326E-03    -300.639E-03     588.226E-03    -287.083E-03     86.4054E-03
            1128     682.220E-06     174.808E-03    -146.872E+06    -246.905E+06    -144.210E+06    -1.24956E+06    -278.627E-03     556.250E-03    -277.623E-03     7.00475E-03    -278.648E-03     555.548E-03    -277.773E-03     7.38860E-03
            1129     1.36217E-03     174.822E-03    -143.131E+06    -237.007E+06    -134.466E+06    -2.36670E+06    -278.456E-03     556.595E-03    -278.139E-03     14.7850E-03    -278.615E-03     555.799E-03    -278.260E-03     15.3421E-03
            1130     2.04312E-03     174.846E-03    -137.868E+06    -222.515E+06    -119.857E+06    -3.48694E+06    -279.290E-03     557.665E-03    -278.375E-03     23.0447E-03    -279.471E-03     556.914E-03    -278.452E-03     23.7088E-03
            1131     2.72383E-03     174.879E-03    -130.965E+06    -204.313E+06    -101.874E+06    -4.63781E+06    -280.368E-03     559.101E-03    -278.733E-03     29.7862E-03    -280.560E-03     558.399E-03    -278.756E-03     30.6798E-03
            1132     3.40350E-03     174.922E-03    -122.937E+06    -184.149E+06    -82.5188E+06    -5.92288E+06    -281.091E-03     560.212E-03    -279.121E-03     37.0868E-03    -281.299E-03     559.568E-03    -279.088E-03     38.0772E-03
            1133     4.08430E-03     174.978E-03    -114.042E+06    -162.826E+06    -63.0459E+06    -6.93991E+06    -282.380E-03     561.902E-03    -279.521E-03     43.7755E-03    -282.600E-03     561.321E-03    -279.435E-03     44.8515E-03
            1134     4.76242E-03     175.042E-03    -105.102E+06    -141.692E+06    -44.3913E+06    -7.97908E+06    -284.171E-03     564.173E-03    -280.002E-03     49.8152E-03    -284.398E-03     563.652E-03    -279.866E-03     50.9531E-03
            1135     5.43988E-03     175.114E-03    -96.2268E+06    -121.790E+06    -27.3142E+06    -9.13720E+06    -285.777E-03     566.325E-03    -280.547E-03     56.2914E-03    -286.015E-03     565.868E-03    -280.368E-03     57.3349E-03
            1136     6.11618E-03     175.198E-03    -87.3586E+06    -102.759E+06    -11.7817E+06    -10.1130E+06    -287.321E-03     568.437E-03    -281.116E-03     61.7761E-03    -287.568E-03     568.043E-03    -280.899E-03     62.6979E-03
            1137     6.79200E-03     175.289E-03    -78.7834E+06    -83.9005E+06     2.09684E+06    -11.2481E+06    -288.964E-03     570.666E-03    -281.702E-03     65.9698E-03    -289.218E-03     570.337E-03    -281.456E-03     66.7674E-03
            1138     7.46683E-03     175.387E-03    -70.7086E+06    -65.2416E+06     14.0178E+06    -12.3923E+06    -290.718E-03     573.025E-03    -282.307E-03     70.6932E-03    -290.990E-03     572.774E-03    -282.040E-03     71.1661E-03
            1139     8.14057E-03     175.498E-03    -63.2301E+06    -45.9404E+06     24.5390E+06    -13.1137E+06    -292.429E-03     575.356E-03    -282.926E-03     75.7948E-03    -292.728E-03     575.196E-03    -282.645E-03     75.7694E-03
            1140     8.81335E-03     175.617E-03    -55.9354E+06    -23.6198E+06     34.7387E+06    -13.3436E+06    -293.962E-03     577.514E-03    -283.551E-03     79.1179E-03    -294.292E-03     577.461E-03    -283.262E-03     78.6237E-03
            1141     9.48581E-03     175.737E-03    -48.6315E+06     4.60248E+06     45.7895E+06    -13.0343E+06    -295.228E-03     579.399E-03    -284.171E-03     82.4423E-03    -295.613E-03     579.496E-03    -283.878E-03     81.2761E-03
            1142     10.1579E-03     175.869E-03    -40.5986E+06     45.9127E+06     59.4745E+06    -11.6394E+06    -296.409E-03     581.178E-03    -284.769E-03     87.5651E-03    -296.894E-03     581.510E-03    -284.479E-03     85.3321E-03
            1143     10.8283E-03     176.011E-03    -31.6048E+06     87.8650E+06     73.9983E+06    -8.44830E+06    -297.768E-03     583.127E-03    -285.359E-03     91.3386E-03    -298.357E-03     583.702E-03    -285.071E-03     87.9922E-03
            1144     11.4970E-03     176.160E-03    -22.2235E+06     99.8259E+06     86.0412E+06    -3.56906E+06    -299.087E-03     585.069E-03    -285.982E-03     93.1799E-03    -299.725E-03     585.733E-03    -285.665E-03     88.9129E-03
            1145     12.1673E-03     176.314E-03    -13.6048E+06     106.084E+06     102.095E+06    -494.284E+03    -300.432E-03     587.072E-03    -286.640E-03     95.4232E-03    -301.143E-03     587.816E-03    -286.264E-03     89.9250E-03
            1146     12.8356E-03     176.471E-03    -6.87997E+06     121.605E+06     123.015E+06    -816.122E+03    -301.990E-03     589.316E-03    -287.325E-03     93.3731E-03    -302.680E-03     590.056E-03    -286.877E-03     88.3695E-03
            1147     682.821E-06     176.458E-03    -145.960E+06    -241.144E+06    -144.129E+06    -1.65659E+06    -276.105E-03     549.524E-03    -273.419E-03     9.03821E-03    -276.110E-03     548.856E-03    -273.578E-03     9.26763E-03
            1148     1.36709E-03     176.469E-03    -142.546E+06    -230.903E+06    -133.476E+06    -2.64753E+06    -275.930E-03     550.857E-03    -274.927E-03     17.0540E-03    -276.092E-03     550.085E-03    -275.052E-03     17.5163E-03
            1149     2.05064E-03     176.495E-03    -136.786E+06    -215.998E+06    -117.960E+06    -4.10097E+06    -276.980E-03     552.408E-03    -275.429E-03     25.6464E-03    -277.166E-03     551.685E-03    -275.507E-03     26.2549E-03
            1150     2.73193E-03     176.534E-03    -129.476E+06    -197.879E+06    -99.5830E+06    -5.61453E+06    -278.370E-03     554.343E-03    -275.973E-03     32.5722E-03    -278.564E-03     553.665E-03    -275.996E-03     33.4606E-03
            1151     3.41270E-03     176.578E-03    -121.088E+06    -177.490E+06    -79.9668E+06    -6.98388E+06    -279.685E-03     556.240E-03    -276.555E-03     40.2718E-03    -279.892E-03     555.618E-03    -276.522E-03     41.2866E-03
            1152     4.09207E-03     176.636E-03    -112.161E+06    -156.947E+06    -60.5056E+06    -8.29232E+06    -281.070E-03     558.209E-03    -277.139E-03     47.9064E-03    -281.288E-03     557.647E-03    -277.051E-03     48.9589E-03
            1153     4.77232E-03     176.704E-03    -102.819E+06    -136.443E+06    -42.0807E+06    -9.09497E+06    -283.161E-03     560.929E-03    -277.769E-03     53.8994E-03    -283.382E-03     560.423E-03    -277.632E-03     55.0831E-03
            1154     5.45033E-03     176.781E-03    -93.7153E+06    -116.104E+06    -24.9155E+06    -9.80025E+06    -285.331E-03     563.807E-03    -278.477E-03     59.8018E-03    -285.560E-03     563.363E-03    -278.297E-03     61.0033E-03
            1155     6.12774E-03     176.868E-03    -84.8166E+06    -96.9158E+06    -9.50727E+06    -10.9045E+06    -287.076E-03     566.289E-03    -279.213E-03     65.3577E-03    -287.312E-03     565.908E-03    -278.997E-03     66.4671E-03
            1156     6.80389E-03     176.963E-03    -75.9606E+06    -78.3095E+06     4.30848E+06    -11.8177E+06    -289.336E-03     569.305E-03    -279.969E-03     70.4253E-03    -289.579E-03     568.988E-03    -279.724E-03     71.3720E-03
            1157     7.47795E-03     177.067E-03    -67.8085E+06    -60.1667E+06     16.5470E+06    -12.4372E+06    -291.767E-03     572.537E-03    -280.770E-03     75.3219E-03    -292.026E-03     572.294E-03    -280.501E-03     75.9620E-03
            1158     8.15114E-03     177.180E-03    -60.2543E+06    -41.2440E+06     27.3625E+06    -13.1434E+06    -293.382E-03     574.958E-03    -281.576E-03     80.0426E-03    -293.667E-03     574.804E-03    -281.292E-03     80.2109E-03
            1159     8.82463E-03     177.302E-03    -52.7028E+06    -19.7754E+06     37.6305E+06    -13.9794E+06    -294.877E-03     577.231E-03    -282.354E-03     82.9897E-03    -295.190E-03     577.178E-03    -282.061E-03     82.7075E-03
            1160     9.49583E-03     177.428E-03    -45.0386E+06     6.46548E+06     48.3906E+06    -14.3614E+06    -297.014E-03     580.147E-03    -283.133E-03     85.6744E-03    -297.375E-03     580.231E-03    -282.835E-03     84.7766E-03
            1161     10.1653E-03     177.561E-03    -38.0197E+06     43.9085E+06     61.0151E+06    -13.6184E+06    -298.985E-03     582.912E-03    -283.927E-03     89.9287E-03    -299.437E-03     583.207E-03    -283.630E-03     88.0727E-03
            1162     10.8351E-03     177.708E-03    -31.5245E+06     81.5616E+06     73.8450E+06    -12.1083E+06    -300.112E-03     584.819E-03    -284.707E-03     93.6913E-03    -300.669E-03     585.340E-03    -284.410E-03     90.7428E-03
            1163     11.5044E-03     177.860E-03    -24.4615E+06     89.1648E+06     81.7200E+06    -10.1049E+06    -301.339E-03     586.814E-03    -285.475E-03     96.0437E-03    -301.954E-03     587.422E-03    -285.160E-03     92.0066E-03
            1164     12.1716E-03     178.014E-03    -16.1962E+06     98.8571E+06     96.2083E+06    -6.65137E+06    -303.145E-03     589.415E-03    -286.269E-03     97.8002E-03    -303.844E-03     590.128E-03    -285.908E-03     92.4040E-03
            1165     12.8385E-03     178.180E-03    -7.75504E+06     118.109E+06     120.352E+06    -2.65641E+06    -304.668E-03     591.779E-03    -287.112E-03     94.1740E-03    -305.339E-03     592.493E-03    -286.670E-03     89.4042E-03
            1166     688.176E-06     178.091E-03    -143.479E+06    -233.592E+06    -141.064E+06    -1.91088E+06    -271.747E-03     542.447E-03    -270.700E-03     9.34616E-03    -271.745E-03     541.815E-03    -270.859E-03     9.61461E-03
            1167     1.37244E-03     178.108E-03    -139.537E+06    -223.507E+06    -130.719E+06    -3.61526E+06    -273.489E-03     545.083E-03    -271.594E-03     17.8245E-03    -273.647E-03     544.337E-03    -271.721E-03     18.3796E-03
            1168     2.05532E-03     178.137E-03    -133.688E+06    -208.622E+06    -115.326E+06    -5.13277E+06    -274.421E-03     546.807E-03    -272.386E-03     26.8915E-03    -274.603E-03     546.108E-03    -272.466E-03     27.6336E-03
            1169     2.73979E-03     178.178E-03    -126.334E+06    -190.165E+06    -96.5348E+06    -6.73069E+06    -275.752E-03     548.786E-03    -273.034E-03     35.0564E-03    -275.942E-03     548.134E-03    -273.058E-03     36.0260E-03
            1170     3.42284E-03     178.227E-03    -117.827E+06    -170.202E+06    -76.5709E+06    -8.31475E+06    -277.608E-03     551.322E-03    -273.714E-03     42.8914E-03    -277.810E-03     550.723E-03    -273.679E-03     44.0474E-03
            1171     4.10526E-03     178.288E-03    -108.665E+06    -150.383E+06    -56.9972E+06    -9.47574E+06    -279.641E-03     554.098E-03    -274.457E-03     51.5781E-03    -279.851E-03     553.553E-03    -274.366E-03     52.7490E-03
            1172     4.78497E-03     178.361E-03    -99.4690E+06    -130.848E+06    -38.8088E+06    -10.5200E+06    -282.176E-03     557.444E-03    -275.268E-03     58.9884E-03    -282.387E-03     556.950E-03    -275.128E-03     60.2082E-03
            1173     5.46365E-03     178.444E-03    -89.7749E+06    -110.714E+06    -21.8838E+06    -11.4622E+06    -284.600E-03     560.747E-03    -276.147E-03     64.4869E-03    -284.813E-03     560.312E-03    -275.966E-03     65.8198E-03
            1174     6.14078E-03     178.533E-03    -80.5130E+06    -91.7349E+06    -6.47959E+06    -11.9557E+06    -286.923E-03     563.984E-03    -277.061E-03     70.2653E-03    -287.140E-03     563.609E-03    -276.844E-03     71.5461E-03
            1175     6.81711E-03     178.635E-03    -72.1887E+06    -73.4104E+06     7.43749E+06    -12.3533E+06    -289.628E-03     567.634E-03    -278.006E-03     75.8656E-03    -289.853E-03     567.321E-03    -277.757E-03     76.9691E-03
            1176     7.49195E-03     178.745E-03    -63.6990E+06    -54.8642E+06     20.1893E+06    -13.2270E+06    -292.423E-03     571.418E-03    -278.995E-03     80.2000E-03    -292.662E-03     571.177E-03    -278.722E-03     81.0887E-03
            1177     8.16490E-03     178.862E-03    -55.2252E+06    -36.4897E+06     31.4704E+06    -14.1090E+06    -294.782E-03     574.788E-03    -280.006E-03     83.7375E-03    -295.036E-03     574.625E-03    -279.715E-03     84.3058E-03
            1178     8.83592E-03     178.987E-03    -47.4253E+06    -15.4918E+06     42.1362E+06    -14.4077E+06    -296.664E-03     577.666E-03    -281.002E-03     86.4793E-03    -296.943E-03     577.600E-03    -280.700E-03     86.6370E-03
            1179     9.50713E-03     179.118E-03    -40.4999E+06     9.70140E+06     52.7944E+06    -14.6784E+06    -299.096E-03     581.087E-03    -281.991E-03     89.5719E-03    -299.426E-03     581.155E-03    -281.682E-03     89.0896E-03
            1180     10.1762E-03     179.259E-03    -33.5548E+06     43.1503E+06     64.5879E+06    -14.2541E+06    -301.416E-03     584.403E-03    -282.987E-03     92.8341E-03    -301.824E-03     584.658E-03    -282.678E-03     91.4848E-03
            1181     10.8429E-03     179.406E-03    -25.8001E+06     79.2859E+06     77.6221E+06    -12.4746E+06    -302.424E-03     586.379E-03    -283.955E-03     95.6935E-03    -302.926E-03     586.847E-03    -283.645E-03     93.2744E-03
            1182     11.5106E-03     179.560E-03    -19.3539E+06     86.6304E+06     85.4204E+06    -11.0610E+06    -304.149E-03     589.048E-03    -284.899E-03     99.0373E-03    -304.729E-03     589.620E-03    -284.570E-03     95.2437E-03
            1183     12.1765E-03     179.725E-03    -13.4407E+06     88.6267E+06     96.6971E+06    -8.88206E+06    -306.543E-03     592.418E-03    -285.875E-03     100.800E-03    -307.211E-03     593.073E-03    -285.501E-03     95.5189E-03
            1184     12.8398E-03     179.889E-03    -6.62856E+06     106.527E+06     118.139E+06    -4.63843E+06    -308.201E-03     595.093E-03    -286.892E-03     96.8127E-03    -308.840E-03     595.745E-03    -286.447E-03     92.1706E-03
            1185     687.840E-06     179.717E-03    -139.716E+06    -223.574E+06    -137.386E+06    -2.77788E+06    -268.805E-03     537.646E-03    -268.841E-03     11.1256E-03    -268.805E-03     537.060E-03    -269.001E-03     11.2960E-03
            1186     1.37501E-03     179.739E-03    -135.985E+06    -213.928E+06    -127.349E+06    -4.75947E+06    -270.116E-03     539.104E-03    -268.988E-03     18.5660E-03    -270.274E-03     538.395E-03    -269.117E-03     19.2087E-03
            1187     2.06288E-03     179.769E-03    -129.980E+06    -199.540E+06    -111.951E+06    -6.95747E+06    -271.400E-03     540.946E-03    -269.546E-03     27.8166E-03    -271.578E-03     540.280E-03    -269.628E-03     28.6955E-03
            1188     2.74837E-03     179.813E-03    -122.195E+06    -181.591E+06    -93.1709E+06    -8.67376E+06    -272.985E-03     543.147E-03    -270.162E-03     36.8365E-03    -273.169E-03     542.524E-03    -270.188E-03     37.9300E-03
            1189     3.43255E-03     179.867E-03    -113.388E+06    -162.281E+06    -72.8381E+06    -10.0588E+06    -275.211E-03     546.091E-03    -270.880E-03     45.0913E-03    -275.402E-03     545.514E-03    -270.844E-03     46.4281E-03
            1190     4.11539E-03     179.931E-03    -104.026E+06    -143.236E+06    -53.0256E+06    -11.4647E+06    -277.823E-03     549.543E-03    -271.720E-03     53.8581E-03    -278.017E-03     549.013E-03    -271.627E-03     55.2950E-03
            1191     4.79765E-03     180.012E-03    -94.0144E+06    -124.251E+06    -34.4230E+06    -12.6127E+06    -280.369E-03     553.009E-03    -272.640E-03     62.1167E-03    -280.558E-03     552.523E-03    -272.496E-03     63.5919E-03
            1192     5.47755E-03     180.100E-03    -84.5749E+06    -105.642E+06    -17.7104E+06    -13.1711E+06    -283.171E-03     556.787E-03    -273.616E-03     68.5606E-03    -283.360E-03     556.352E-03    -273.429E-03     70.1299E-03
            1193     6.15638E-03     180.195E-03    -75.4327E+06    -87.1226E+06    -2.12123E+06    -13.5241E+06    -286.578E-03     561.253E-03    -274.676E-03     75.3528E-03    -286.769E-03     560.874E-03    -274.451E-03     76.8682E-03
            1194     6.83225E-03     180.304E-03    -65.8295E+06    -68.2920E+06     12.4141E+06    -14.1970E+06    -289.975E-03     565.794E-03    -275.819E-03     81.1202E-03    -290.166E-03     565.473E-03    -275.562E-03     82.5359E-03
            1195     7.50647E-03     180.419E-03    -56.9450E+06    -50.5617E+06     25.1356E+06    -14.4820E+06    -293.059E-03     570.070E-03    -277.011E-03     85.4634E-03    -293.256E-03     569.813E-03    -276.729E-03     86.7556E-03
            1196     8.17871E-03     180.544E-03    -49.3952E+06    -32.2620E+06     36.4906E+06    -14.3550E+06    -295.995E-03     574.221E-03    -278.226E-03     88.8812E-03    -296.207E-03     574.037E-03    -277.925E-03     89.9741E-03
            1197     8.84990E-03     180.672E-03    -42.4045E+06    -12.0042E+06     46.8326E+06    -14.3821E+06    -298.927E-03     578.380E-03    -279.453E-03     91.8182E-03    -299.166E-03     578.291E-03    -279.140E-03     92.5242E-03
            1198     9.51861E-03     180.811E-03    -35.6971E+06     12.3757E+06     57.4056E+06    -13.9344E+06    -301.635E-03     582.320E-03    -280.685E-03     95.0156E-03    -301.926E-03     582.363E-03    -280.364E-03     95.0626E-03
            1199     10.1858E-03     180.958E-03    -29.2623E+06     46.0454E+06     69.5851E+06    -14.0718E+06    -303.713E-03     585.609E-03    -281.897E-03     97.1700E-03    -304.083E-03     585.838E-03    -281.573E-03     96.3692E-03
            1200     10.8533E-03     181.107E-03    -23.2532E+06     74.8544E+06     80.2934E+06    -13.1543E+06    -305.644E-03     588.722E-03    -283.078E-03     98.7956E-03    -306.102E-03     589.131E-03    -282.751E-03     96.9218E-03
            1201     11.5186E-03     181.265E-03    -17.0162E+06     82.0004E+06     87.3424E+06    -9.76727E+06    -307.878E-03     592.126E-03    -284.248E-03     102.338E-03    -308.423E-03     592.649E-03    -283.906E-03     98.9902E-03
            1202     12.1822E-03     181.437E-03    -11.1791E+06     84.1914E+06     96.7897E+06    -7.51705E+06    -309.807E-03     595.230E-03    -285.422E-03     103.080E-03    -310.430E-03     595.832E-03    -285.044E-03     98.2743E-03
            1203     12.8459E-03     181.604E-03    -5.37254E+06     95.3358E+06     113.895E+06    -4.64080E+06    -312.283E-03     598.908E-03    -286.625E-03     99.1579E-03    -312.876E-03     599.491E-03    -286.186E-03     94.8186E-03
            1204     688.324E-06     181.336E-03    -133.982E+06    -210.818E+06    -131.999E+06    -3.67671E+06    -266.717E-03     533.162E-03    -266.445E-03     10.5051E-03    -266.719E-03     532.622E-03    -266.605E-03     10.8200E-03
            1205     1.37918E-03     181.356E-03    -129.923E+06    -201.276E+06    -121.539E+06    -6.24029E+06    -266.950E-03     533.501E-03    -266.551E-03     21.0755E-03    -267.104E-03     532.837E-03    -266.678E-03     21.6349E-03
            1206     2.06688E-03     181.393E-03    -123.882E+06    -187.531E+06    -106.018E+06    -9.02899E+06    -268.710E-03     535.611E-03    -266.902E-03     29.5239E-03    -268.882E-03     534.986E-03    -266.980E-03     30.4898E-03
            1207     2.75476E-03     181.437E-03    -116.084E+06    -171.394E+06    -87.6455E+06    -11.4530E+06    -270.434E-03     537.940E-03    -267.506E-03     38.2452E-03    -270.606E-03     537.346E-03    -267.527E-03     39.5357E-03
            1208     3.44236E-03     181.498E-03    -106.967E+06    -153.658E+06    -67.9508E+06    -13.0818E+06    -272.835E-03     541.074E-03    -268.238E-03     47.4915E-03    -273.006E-03     540.516E-03    -268.200E-03     49.0212E-03
            1209     4.12706E-03     181.569E-03    -97.1322E+06    -135.078E+06    -47.9019E+06    -14.2984E+06    -275.622E-03     544.734E-03    -269.112E-03     56.3988E-03    -275.790E-03     544.216E-03    -269.015E-03     58.1216E-03
            1210     4.80976E-03     181.654E-03    -87.3107E+06    -117.608E+06    -29.2556E+06    -15.2330E+06    -277.988E-03     548.042E-03    -270.054E-03     64.8389E-03    -278.146E-03     547.558E-03    -269.903E-03     66.6890E-03
            1211     5.49256E-03     181.747E-03    -77.3619E+06    -100.279E+06    -12.2098E+06    -15.7532E+06    -281.349E-03     552.407E-03    -271.058E-03     72.6501E-03    -281.499E-03     551.962E-03    -270.862E-03     74.5777E-03
            1212     6.17155E-03     181.853E-03    -67.5824E+06    -82.3197E+06     2.97645E+06    -16.0106E+06    -285.689E-03     557.895E-03    -272.206E-03     79.7434E-03    -285.831E-03     557.496E-03    -271.974E-03     81.7262E-03
            1213     6.84872E-03     181.968E-03    -59.1300E+06    -65.1893E+06     16.4859E+06    -15.3730E+06    -289.612E-03     563.101E-03    -273.488E-03     85.7092E-03    -289.751E-03     562.750E-03    -273.226E-03     87.7145E-03
            1214     7.52320E-03     182.092E-03    -51.9781E+06    -48.1416E+06     28.8725E+06    -14.2785E+06    -293.121E-03     567.957E-03    -274.836E-03     90.8362E-03    -293.270E-03     567.667E-03    -274.546E-03     92.7492E-03
            1215     8.19633E-03     182.222E-03    -44.8348E+06    -29.1538E+06     40.4807E+06    -13.6095E+06    -296.737E-03     572.955E-03    -276.218E-03     94.8758E-03    -296.903E-03     572.742E-03    -275.908E-03     96.5863E-03
            1216     8.86643E-03     182.361E-03    -38.1756E+06    -8.82210E+06     50.9871E+06    -13.2178E+06    -300.691E-03     578.337E-03    -277.646E-03     98.5255E-03    -300.888E-03     578.221E-03    -277.323E-03     99.7962E-03
            1217     9.53391E-03     182.506E-03    -32.0984E+06     14.0480E+06     61.2512E+06    -12.7501E+06    -304.200E-03     583.312E-03    -279.113E-03     101.548E-03    -304.448E-03     583.320E-03    -278.780E-03     102.199E-03
            1218     10.2009E-03     182.657E-03    -26.3457E+06     48.5481E+06     73.4708E+06    -11.4090E+06    -307.009E-03     587.586E-03    -280.577E-03     102.752E-03    -307.337E-03     587.781E-03    -280.242E-03     102.681E-03
            1219     10.8645E-03     182.814E-03    -21.7247E+06     71.0284E+06     82.2621E+06    -9.35466E+06    -310.086E-03     592.127E-03    -282.042E-03     103.356E-03    -310.494E-03     592.473E-03    -281.702E-03     102.280E-03
            1220     11.5264E-03     182.978E-03    -17.0838E+06     78.8188E+06     89.1252E+06    -8.31172E+06    -312.741E-03     596.254E-03    -283.512E-03     104.924E-03    -313.236E-03     596.710E-03    -283.156E-03     102.410E-03
            1221     12.1881E-03     183.152E-03    -11.6681E+06     82.4419E+06     97.8482E+06    -7.42227E+06    -314.276E-03     599.233E-03    -284.958E-03     104.240E-03    -314.852E-03     599.777E-03    -284.571E-03     100.184E-03
            1222     12.8468E-03     183.326E-03    -6.33542E+06     84.0274E+06     108.811E+06    -4.25731E+06    -316.594E-03     602.973E-03    -286.379E-03     101.490E-03    -317.149E-03     603.489E-03    -285.948E-03     97.4981E-03
            1223     692.238E-06     182.942E-03    -124.430E+06    -193.811E+06    -122.017E+06    -4.51327E+06    -263.990E-03     527.937E-03    -263.948E-03     9.60206E-03    -264.000E-03     527.442E-03    -264.096E-03     10.1534E-03
            1224     1.38228E-03     182.969E-03    -120.731E+06    -185.861E+06    -112.978E+06    -7.85311E+06    -264.754E-03     528.780E-03    -264.026E-03     21.7375E-03    -264.899E-03     528.168E-03    -264.146E-03     22.4433E-03
            1225     2.07354E-03     183.006E-03    -115.069E+06    -173.057E+06    -98.4170E+06    -10.9778E+06    -266.193E-03     530.624E-03    -264.431E-03     31.3253E-03    -266.351E-03     530.045E-03    -264.506E-03     32.4337E-03
            1226     2.76251E-03     183.057E-03    -107.656E+06    -158.214E+06    -80.5691E+06    -13.8190E+06    -268.345E-03     533.396E-03    -265.051E-03     39.8809E-03    -268.498E-03     532.840E-03    -265.069E-03     41.4598E-03
            1227     3.44968E-03     183.119E-03    -99.4338E+06    -143.243E+06    -62.1776E+06    -16.0959E+06    -270.463E-03     536.272E-03    -265.809E-03     49.6722E-03    -270.610E-03     535.738E-03    -265.768E-03     51.5354E-03
            1228     4.13650E-03     183.200E-03    -90.7335E+06    -127.391E+06    -43.9306E+06    -17.0218E+06    -272.940E-03     539.577E-03    -266.638E-03     58.8184E-03    -273.078E-03     539.068E-03    -266.541E-03     60.9644E-03
            1229     4.82247E-03     183.285E-03    -81.8884E+06    -110.522E+06    -26.0607E+06    -17.3436E+06    -276.099E-03     543.672E-03    -267.572E-03     66.8365E-03    -276.225E-03     543.190E-03    -267.424E-03     69.2985E-03
            1230     5.50571E-03     183.389E-03    -73.7362E+06    -95.2585E+06    -10.2557E+06    -17.3745E+06    -279.864E-03     548.506E-03    -268.642E-03     75.2682E-03    -279.979E-03     548.050E-03    -268.448E-03     77.8963E-03
            1231     6.18697E-03     183.503E-03    -66.9958E+06    -80.3639E+06     3.26316E+06    -15.8837E+06    -284.038E-03     553.887E-03    -269.849E-03     82.5753E-03    -284.146E-03     553.462E-03    -269.619E-03     85.3820E-03
            1232     6.86473E-03     183.627E-03    -60.9116E+06    -63.7377E+06     16.1770E+06    -14.2915E+06    -288.238E-03     559.418E-03    -271.180E-03     88.8039E-03    -288.347E-03     559.037E-03    -270.918E-03     91.6979E-03
            1233     7.54097E-03     183.758E-03    -54.4081E+06    -46.2583E+06     28.3896E+06    -13.4825E+06    -292.500E-03     565.106E-03    -272.606E-03     94.2460E-03    -292.618E-03     564.785E-03    -272.318E-03     97.0830E-03
            1234     8.21381E-03     183.899E-03    -48.0471E+06    -27.4577E+06     39.7933E+06    -12.5622E+06    -297.036E-03     571.154E-03    -274.119E-03     98.8196E-03    -297.171E-03     570.907E-03    -273.810E-03     101.471E-03
            1235     8.88428E-03     184.046E-03    -42.6006E+06    -7.42259E+06     50.2473E+06    -11.3411E+06    -301.566E-03     577.277E-03    -275.712E-03     102.715E-03    -301.734E-03     577.124E-03    -275.388E-03     104.978E-03
            1236     9.55243E-03     184.201E-03    -37.4605E+06     18.1262E+06     61.1192E+06    -11.2906E+06    -306.317E-03     583.696E-03    -277.379E-03     105.600E-03    -306.545E-03     583.680E-03    -277.046E-03     107.241E-03
            1237     10.2158E-03     184.360E-03    -31.6703E+06     46.8056E+06     70.8892E+06    -11.2562E+06    -310.954E-03     590.069E-03    -279.115E-03     106.121E-03    -311.250E-03     590.215E-03    -278.782E-03     107.017E-03
            1238     10.8781E-03     184.526E-03    -24.3854E+06     66.9534E+06     78.9812E+06    -9.40597E+06    -314.876E-03     595.775E-03    -280.899E-03     106.634E-03    -315.242E-03     596.065E-03    -280.566E-03     106.391E-03
            1239     11.5370E-03     184.699E-03    -16.8045E+06     80.8564E+06     90.1104E+06    -8.38025E+06    -317.917E-03     600.620E-03    -282.703E-03     107.298E-03    -318.370E-03     601.040E-03    -282.345E-03     105.544E-03
            1240     12.1933E-03     184.876E-03    -10.7437E+06     76.9320E+06     97.2545E+06    -6.62744E+06    -319.606E-03     604.064E-03    -284.458E-03     106.098E-03    -320.128E-03     604.540E-03    -284.068E-03     102.736E-03
            1241     12.8508E-03     185.056E-03    -4.76518E+06     73.2378E+06     103.190E+06     -2.9642E+06    -321.417E-03     607.545E-03    -286.127E-03     104.888E-03    -321.928E-03     608.000E-03    -285.711E-03     101.204E-03
            1242     692.410E-06     184.550E-03    -112.287E+06    -177.617E+06    -110.356E+06    -3.39911E+06    -262.855E-03     524.326E-03    -261.471E-03     9.09221E-03    -262.877E-03     523.862E-03    -261.602E-03     9.85631E-03
            1243     1.38504E-03     184.570E-03    -110.430E+06    -168.160E+06    -102.958E+06    -7.19290E+06    -263.320E-03     525.628E-03    -262.308E-03     19.9778E-03    -263.456E-03     525.077E-03    -262.419E-03     21.0948E-03
            1244     2.07698E-03     184.613E-03    -106.639E+06    -156.782E+06    -91.4034E+06    -11.0848E+06    -264.185E-03     526.916E-03    -262.730E-03     29.4137E-03    -264.331E-03     526.392E-03    -262.805E-03     31.0365E-03
            1245     2.76800E-03     184.668E-03    -102.102E+06    -145.534E+06    -76.8160E+06    -13.3666E+06    -265.830E-03     529.039E-03    -263.209E-03     38.4267E-03    -265.973E-03     528.527E-03    -263.234E-03     40.5853E-03
            1246     3.45798E-03     184.736E-03    -97.1086E+06    -132.444E+06    -60.5045E+06    -14.4353E+06    -267.951E-03     531.776E-03    -263.825E-03     48.6197E-03    -268.095E-03     531.279E-03    -263.794E-03     51.1778E-03
            1247     4.14719E-03     184.817E-03    -91.8895E+06    -118.582E+06    -44.3112E+06    -15.5484E+06    -270.716E-03     535.295E-03    -264.578E-03     58.1385E-03    -270.855E-03     534.815E-03    -264.495E-03     61.1079E-03
            1248     4.83342E-03     184.914E-03    -86.9350E+06    -105.325E+06    -29.4407E+06    -15.4831E+06    -274.434E-03     539.947E-03    -265.513E-03     66.2567E-03    -274.561E-03     539.477E-03    -265.381E-03     69.7216E-03
            1249     5.51712E-03     185.022E-03    -82.4119E+06    -92.7669E+06    -15.2000E+06    -13.7237E+06    -278.200E-03     544.820E-03    -266.620E-03     75.0196E-03    -278.320E-03     544.362E-03    -266.442E-03     78.7912E-03
            1250     6.19914E-03     185.145E-03    -77.0362E+06    -78.3140E+06    -1.20921E+06    -12.8722E+06    -281.985E-03     549.818E-03    -267.833E-03     83.1451E-03    -282.097E-03     549.383E-03    -267.614E-03     87.1025E-03
            1251     6.87980E-03     185.278E-03    -70.7357E+06    -61.9671E+06     11.3763E+06    -12.5121E+06    -286.397E-03     555.544E-03    -269.147E-03     89.5375E-03    -286.502E-03     555.146E-03    -268.898E-03     93.6490E-03
            1252     7.55639E-03     185.420E-03    -64.9923E+06    -44.6467E+06     22.7983E+06    -11.6227E+06    -291.452E-03     562.048E-03    -270.597E-03     95.6024E-03    -291.562E-03     561.704E-03    -270.324E-03     99.6735E-03
            1253     8.23047E-03     185.570E-03    -59.3998E+06    -25.5845E+06     34.1532E+06    -11.1778E+06    -296.957E-03     569.154E-03    -272.197E-03     100.611E-03    -297.084E-03     568.882E-03    -271.903E-03     104.515E-03
            1254     8.90084E-03     185.729E-03    -52.5853E+06    -5.11491E+06     45.1799E+06    -11.5714E+06    -302.528E-03     576.467E-03    -273.938E-03     103.818E-03    -302.679E-03     576.282E-03    -273.629E-03     107.407E-03
            1255     9.56759E-03     185.893E-03    -44.7100E+06     23.8681E+06     57.5378E+06    -12.7537E+06    -308.372E-03     584.177E-03    -275.805E-03     106.889E-03    -308.578E-03     584.144E-03    -275.487E-03     109.728E-03
            1256     10.2312E-03     186.070E-03    -36.2482E+06     48.6028E+06     66.8362E+06    -14.1963E+06    -314.233E-03     592.022E-03    -277.789E-03     107.215E-03    -314.490E-03     592.130E-03    -277.472E-03     109.225E-03
            1257     10.8890E-03     186.242E-03    -27.9141E+06     64.9070E+06     74.7694E+06    -15.1218E+06    -318.904E-03     598.760E-03    -279.857E-03     107.160E-03    -319.222E-03     598.994E-03    -279.536E-03     107.938E-03
            1258     11.5457E-03     186.426E-03    -19.8261E+06     74.8006E+06     85.1892E+06    -12.6490E+06    -322.015E-03     603.952E-03    -281.937E-03     107.797E-03    -322.416E-03     604.302E-03    -281.590E-03     106.898E-03
            1259     12.2009E-03     186.608E-03    -12.3515E+06     67.4624E+06     90.9729E+06    -8.20559E+06    -324.310E-03     608.262E-03    -283.952E-03     106.421E-03    -324.772E-03     608.656E-03    -283.577E-03     103.804E-03
            1260     12.8533E-03     186.791E-03    -6.51297E+06     64.2798E+06     97.7853E+06    -4.79896E+06    -326.209E-03     612.089E-03    -285.880E-03     106.032E-03    -326.680E-03     612.482E-03    -285.475E-03     102.789E-03
            1261     693.790E-06     186.146E-03    -107.686E+06    -168.979E+06    -106.206E+06    -685.927E+03    -261.851E-03     523.193E-03    -261.342E-03     9.14035E-03    -261.891E-03     522.737E-03    -261.472E-03     10.0395E-03
            1262     1.38574E-03     186.174E-03    -108.214E+06    -157.128E+06    -101.416E+06    -1.49171E+06    -262.785E-03     524.531E-03    -261.746E-03     18.5984E-03    -262.928E-03     524.030E-03    -261.868E-03     20.1190E-03
            1263     2.07695E-03     186.215E-03    -109.635E+06    -146.222E+06    -91.8950E+06    -2.03514E+06    -263.330E-03     525.469E-03    -262.139E-03     27.4455E-03    -263.500E-03     524.999E-03    -262.228E-03     29.6899E-03
            1264     2.76962E-03     186.272E-03    -110.466E+06    -135.514E+06    -79.6474E+06    -3.60137E+06    -264.255E-03     526.740E-03    -262.485E-03     35.2494E-03    -264.445E-03     526.289E-03    -262.527E-03     38.2818E-03
            1265     3.46144E-03     186.343E-03    -109.484E+06    -123.856E+06    -65.9649E+06    -5.49288E+06    -266.324E-03     529.269E-03    -262.946E-03     43.7130E-03    -266.525E-03     528.833E-03    -262.937E-03     47.4472E-03
            1266     4.15060E-03     186.431E-03    -107.597E+06    -111.058E+06    -51.4545E+06    -6.35509E+06    -269.168E-03     532.779E-03    -263.611E-03     52.6426E-03    -269.371E-03     532.355E-03    -263.551E-03     56.9781E-03
            1267     4.83863E-03     186.535E-03    -104.551E+06    -98.7419E+06    -36.4102E+06    -7.51403E+06    -272.171E-03     536.622E-03    -264.451E-03     61.3472E-03    -272.367E-03     536.202E-03    -264.338E-03     66.2034E-03
            1268     5.52487E-03     186.651E-03    -98.5997E+06    -86.1686E+06    -22.1357E+06    -10.2946E+06    -275.864E-03     541.292E-03    -265.428E-03     70.6171E-03    -276.039E-03     540.875E-03    -265.271E-03     75.7568E-03
            1269     6.20889E-03     186.780E-03    -90.4795E+06    -72.9823E+06    -9.13248E+06    -12.4115E+06    -280.124E-03     546.677E-03    -266.553E-03     78.8510E-03    -280.268E-03     546.268E-03    -266.362E-03     84.2040E-03
            1270     6.88956E-03     186.923E-03    -82.1332E+06    -59.7429E+06     2.96900E+06    -12.7957E+06    -284.609E-03     552.437E-03    -267.828E-03     85.0958E-03    -284.725E-03     552.041E-03    -267.607E-03     90.6731E-03
            1271     7.56854E-03     187.074E-03    -72.4771E+06    -42.6890E+06     15.6954E+06    -13.1567E+06    -290.052E-03     559.316E-03    -269.263E-03     91.5355E-03    -290.150E-03     558.959E-03    -269.018E-03     97.0584E-03
            1272     8.24294E-03     187.238E-03    -61.4222E+06    -22.2513E+06     29.2606E+06    -13.8536E+06    -296.510E-03     567.412E-03    -270.903E-03     96.7619E-03    -296.596E-03     567.118E-03    -270.635E-03     102.113E-03
            1273     8.91309E-03     187.409E-03    -50.5953E+06     1.28953E+06     42.5929E+06    -15.6814E+06    -303.288E-03     576.043E-03    -272.755E-03     99.9962E-03    -303.382E-03     575.840E-03    -272.471E-03     105.039E-03
            1274     9.57881E-03     187.588E-03    -40.3447E+06     27.8427E+06     55.2732E+06    -17.1455E+06    -309.824E-03     584.607E-03    -274.783E-03     103.593E-03    -309.955E-03     584.535E-03    -274.488E-03     107.800E-03
            1275     10.2398E-03     187.776E-03    -31.6913E+06     51.7684E+06     65.9085E+06    -16.7620E+06    -315.941E-03     592.880E-03    -276.938E-03     104.935E-03    -316.124E-03     592.944E-03    -276.638E-03     108.165E-03
            1276     10.8983E-03     187.965E-03    -24.9741E+06     67.1231E+06     75.1123E+06    -16.6849E+06    -321.245E-03     600.431E-03    -279.186E-03     104.455E-03    -321.493E-03     600.612E-03    -278.872E-03     106.485E-03
            1277     11.5524E-03     188.154E-03    -18.9493E+06     67.5402E+06     82.5660E+06    -16.0360E+06    -324.739E-03     606.191E-03    -281.452E-03     104.541E-03    -325.057E-03     606.442E-03    -281.109E-03     104.859E-03
            1278     12.2050E-03     188.346E-03    -11.9490E+06     54.8404E+06     86.0800E+06    -12.5208E+06    -327.490E-03     611.139E-03    -283.649E-03     104.586E-03    -327.866E-03     611.419E-03    -283.281E-03     102.920E-03
            1279     12.8555E-03     188.538E-03    -4.11513E+06     50.3863E+06     96.8933E+06    -6.27834E+06    -328.711E-03     614.465E-03    -285.754E-03     104.418E-03    -329.097E-03     614.735E-03    -285.337E-03     101.978E-03
            1280     692.419E-06     187.749E-03    -144.003E+06    -173.469E+06    -141.668E+06     3.75613E+06    -262.700E-03     524.964E-03    -262.264E-03     8.46135E-03    -262.885E-03     524.567E-03    -262.512E-03     9.60730E-03
            1281     1.38466E-03     187.773E-03    -143.987E+06    -158.958E+06    -133.933E+06     4.48466E+06    -262.835E-03     525.338E-03    -262.503E-03     15.7389E-03    -263.111E-03     524.929E-03    -262.733E-03     17.7599E-03
            1282     2.07797E-03     187.818E-03    -139.126E+06    -147.054E+06    -117.794E+06     4.78425E+06    -263.637E-03     526.370E-03    -262.733E-03     23.4199E-03    -263.918E-03     525.978E-03    -262.907E-03     26.4154E-03
            1283     2.76840E-03     187.875E-03    -132.493E+06    -132.344E+06    -98.6109E+06     4.84637E+06    -265.179E-03     528.307E-03    -263.128E-03     30.0134E-03    -265.459E-03     527.933E-03    -263.237E-03     34.0727E-03
            1284     3.45866E-03     187.950E-03    -125.943E+06    -118.614E+06    -78.4166E+06     3.79068E+06    -266.933E-03     530.617E-03    -263.684E-03     36.8951E-03    -267.210E-03     530.253E-03    -263.722E-03     41.8835E-03
            1285     4.14845E-03     188.043E-03    -117.978E+06    -104.237E+06    -58.7605E+06     1.08871E+06    -268.684E-03     533.002E-03    -264.318E-03     44.1072E-03    -268.947E-03     532.647E-03    -264.289E-03     49.8302E-03
            1286     4.83687E-03     188.149E-03    -107.923E+06    -88.5362E+06    -40.4076E+06    -2.75666E+06    -270.871E-03     535.876E-03    -265.005E-03     51.1607E-03    -271.106E-03     535.531E-03    -264.922E-03     57.4984E-03
            1287     5.52441E-03     188.271E-03    -98.9677E+06    -75.6301E+06    -25.4581E+06    -6.10888E+06    -274.222E-03     540.029E-03    -265.807E-03     59.3728E-03    -274.421E-03     539.682E-03    -265.681E-03     66.0911E-03
            1288     6.20843E-03     188.412E-03    -92.3937E+06    -63.5251E+06    -13.3884E+06    -9.31708E+06    -278.589E-03     545.387E-03    -266.798E-03     66.5113E-03    -278.761E-03     545.045E-03    -266.639E-03     73.5602E-03
            1289     6.89051E-03     188.560E-03    -84.4317E+06    -48.6684E+06    -840.663E+03    -14.6761E+06    -283.339E-03     551.338E-03    -267.999E-03     71.9088E-03    -283.489E-03     551.018E-03    -267.811E-03     79.1816E-03
            1290     7.56876E-03     188.723E-03    -74.1011E+06    -33.1641E+06     11.7249E+06    -20.6623E+06    -288.814E-03     558.215E-03    -269.400E-03     78.1932E-03    -288.935E-03     557.921E-03    -269.186E-03     85.3409E-03
            1291     8.24379E-03     188.900E-03    -62.2925E+06    -14.6204E+06     24.4159E+06    -25.4741E+06    -295.022E-03     566.026E-03    -271.004E-03     83.7602E-03    -295.117E-03     565.778E-03    -270.770E-03     90.6336E-03
            1292     8.91401E-03     189.087E-03    -49.1493E+06     6.30748E+06     37.9529E+06    -28.0079E+06    -301.831E-03     574.650E-03    -272.819E-03     88.6465E-03    -301.907E-03     574.466E-03    -272.567E-03     95.0437E-03
            1293     9.57933E-03     189.281E-03    -36.8279E+06     24.1901E+06     50.8501E+06    -26.6566E+06    -308.842E-03     583.672E-03    -274.831E-03     93.7497E-03    -308.919E-03     583.559E-03    -274.558E-03     99.2628E-03
            1294     10.2415E-03     189.483E-03    -26.6248E+06     43.8667E+06     63.0736E+06    -21.7977E+06    -315.151E-03     592.137E-03    -276.987E-03     96.9006E-03    -315.261E-03     592.128E-03    -276.696E-03     101.320E-03
            1295     10.8983E-03     189.686E-03    -18.3023E+06     66.5362E+06     75.6758E+06    -16.9108E+06    -320.575E-03     599.804E-03    -279.229E-03     97.5819E-03    -320.746E-03     599.928E-03    -278.920E-03     100.850E-03
            1296     11.5523E-03     189.887E-03    -11.9195E+06     64.7246E+06     83.1486E+06    -14.1435E+06    -324.914E-03     606.422E-03    -281.507E-03     98.1904E-03    -325.134E-03     606.589E-03    -281.168E-03     99.8675E-03
            1297     12.2042E-03     190.084E-03    -7.85122E+06     42.2329E+06     85.0461E+06    -10.7172E+06    -327.461E-03     611.195E-03    -283.733E-03     100.920E-03    -327.747E-03     611.357E-03    -283.358E-03     100.253E-03
            1298     12.8542E-03     190.288E-03    -5.12263E+06     35.5948E+06     97.2962E+06    -6.10163E+06    -326.995E-03     612.814E-03    -285.819E-03     101.440E-03    -327.324E-03     612.970E-03    -285.377E-03     99.6801E-03
            1299     689.966E-06     189.350E-03    -226.301E+06    -173.524E+06    -225.731E+06    -3.46874E+06    -265.298E-03     530.332E-03    -265.034E-03     5.21693E-03    -265.804E-03     530.162E-03    -265.583E-03     6.65974E-03
            1300     1.38144E-03     189.379E-03    -216.323E+06    -155.908E+06    -209.103E+06    -5.88143E+06    -265.801E-03     531.104E-03    -265.303E-03     10.9303E-03    -266.346E-03     530.934E-03    -265.809E-03     13.3266E-03
            1301     2.07086E-03     189.421E-03    -204.706E+06    -143.477E+06    -186.413E+06    -8.81435E+06    -266.842E-03     532.550E-03    -265.707E-03     14.4043E-03    -267.377E-03     532.388E-03    -266.135E-03     18.0297E-03
            1302     2.76168E-03     189.484E-03    -188.395E+06    -128.495E+06    -158.224E+06    -11.8258E+06    -268.077E-03     534.327E-03    -266.250E-03     18.3123E-03    -268.589E-03     534.172E-03    -266.582E-03     23.0717E-03
            1303     3.44917E-03     189.563E-03    -167.136E+06    -111.965E+06    -126.501E+06    -15.2400E+06    -269.204E-03     536.056E-03    -266.853E-03     22.6549E-03    -269.675E-03     535.902E-03    -267.081E-03     28.4142E-03
            1304     4.13657E-03     189.655E-03    -145.030E+06    -96.8516E+06    -96.6884E+06    -18.3526E+06    -270.405E-03     537.863E-03    -267.459E-03     27.6109E-03    -270.819E-03     537.698E-03    -267.591E-03     34.2800E-03
            1305     4.82371E-03     189.767E-03    -125.264E+06    -83.9586E+06    -70.7202E+06    -19.2177E+06    -272.394E-03     540.511E-03    -268.118E-03     31.5410E-03    -272.760E-03     540.338E-03    -268.168E-03     39.1877E-03
            1306     5.50866E-03     189.892E-03    -106.441E+06    -72.2494E+06    -46.4768E+06    -19.0322E+06    -274.852E-03     543.747E-03    -268.894E-03     36.4373E-03    -275.165E-03     543.558E-03    -268.867E-03     44.7584E-03
            1307     6.19313E-03     190.040E-03    -86.6551E+06    -54.5347E+06    -22.5796E+06    -20.7420E+06    -277.773E-03     547.561E-03    -269.788E-03     41.4929E-03    -278.031E-03     547.382E-03    -269.696E-03     50.2527E-03
            1308     6.87349E-03     190.198E-03    -68.5202E+06    -35.0239E+06    -1.33417E+06    -23.8564E+06    -281.926E-03     552.762E-03    -270.836E-03     46.1830E-03    -282.134E-03     552.606E-03    -270.692E-03     55.2263E-03
            1309     7.55105E-03     190.371E-03    -53.8117E+06    -18.2559E+06     16.3474E+06    -27.4729E+06    -286.918E-03     558.998E-03    -272.080E-03     52.6535E-03    -287.072E-03     558.850E-03    -271.894E-03     61.5713E-03
            1310     8.22495E-03     190.559E-03    -42.8021E+06    -1.86317E+06     30.4730E+06    -31.0305E+06    -291.883E-03     565.376E-03    -273.493E-03     58.9136E-03    -292.001E-03     565.248E-03    -273.276E-03     67.5037E-03
            1311     8.89664E-03     190.757E-03    -35.4509E+06     8.50879E+06     41.2444E+06    -31.1943E+06    -297.238E-03     572.287E-03    -275.049E-03     65.3149E-03    -297.330E-03     572.165E-03    -274.804E-03     73.3634E-03
            1312     9.56471E-03     190.968E-03    -30.4178E+06     19.2176E+06     51.3533E+06    -28.4642E+06    -303.182E-03     579.925E-03    -276.744E-03     72.6915E-03    -303.264E-03     579.821E-03    -276.471E-03     79.8495E-03
            1313     10.2269E-03     191.183E-03    -25.2299E+06     34.1516E+06     61.6102E+06    -25.3469E+06    -308.866E-03     587.412E-03    -278.546E-03     79.7146E-03    -308.960E-03     587.362E-03    -278.251E-03     85.6747E-03
            1314     10.8871E-03     191.401E-03    -19.1499E+06     54.2071E+06     75.0027E+06    -19.7163E+06    -314.061E-03     594.486E-03    -280.425E-03     86.0315E-03    -314.198E-03     594.532E-03    -280.100E-03     90.5559E-03
            1315     11.5438E-03     191.614E-03    -14.1469E+06     57.4204E+06     83.4342E+06    -13.5138E+06    -319.311E-03     601.661E-03    -282.351E-03     92.2070E-03    -319.502E-03     601.767E-03    -281.996E-03     94.7425E-03
            1316     12.1968E-03     191.823E-03    -9.16859E+06     33.7613E+06     84.4189E+06    -8.75961E+06    -322.205E-03     606.470E-03    -284.265E-03     97.5398E-03    -322.455E-03     606.564E-03    -283.879E-03     97.4485E-03
            1317     12.8517E-03     192.024E-03    -3.35596E+06     23.2556E+06     101.047E+06    -3.97519E+06    -321.087E-03     607.165E-03    -286.078E-03     99.7152E-03    -321.385E-03     607.241E-03    -285.602E-03     98.1735E-03
            1318     687.839E-06     190.966E-03    -227.430E+06    -135.103E+06    -226.070E+06    -15.3417E+06    -273.719E-03     546.895E-03    -273.176E-03    -1.35872E-03    -274.316E-03     546.916E-03    -273.780E-03     20.6713E-06
            1319     1.37243E-03     190.999E-03    -220.830E+06    -129.265E+06    -217.106E+06    -22.5832E+06    -274.162E-03     547.891E-03    -273.729E-03    -3.11915E-03    -274.793E-03     547.895E-03    -274.307E-03    -487.170E-06
            1320     2.05719E-03     191.044E-03    -210.252E+06    -117.040E+06    -195.607E+06    -29.1858E+06    -274.280E-03     548.434E-03    -274.155E-03    -3.44333E-03    -274.916E-03     548.467E-03    -274.658E-03     283.585E-06
            1321     2.73920E-03     191.108E-03    -195.335E+06    -103.618E+06    -168.963E+06    -37.5005E+06    -274.225E-03     548.737E-03    -274.512E-03    -3.58336E-03    -274.865E-03     548.796E-03    -274.923E-03     1.18376E-03
            1322     3.42417E-03     191.186E-03    -178.777E+06    -92.0643E+06    -143.287E+06    -43.8720E+06    -274.658E-03     549.532E-03    -274.874E-03    -3.49919E-03    -275.298E-03     549.614E-03    -275.197E-03     2.38612E-03
            1323     4.10790E-03     191.282E-03    -162.366E+06    -82.5662E+06    -118.058E+06    -47.6088E+06    -275.987E-03     551.367E-03    -275.379E-03    -4.09829E-03    -276.631E-03     551.471E-03    -275.615E-03     2.96638E-03
            1324     4.78941E-03     191.396E-03    -143.591E+06    -74.4432E+06    -91.7757E+06    -50.7741E+06    -276.988E-03     553.024E-03    -276.037E-03    -5.17674E-03    -277.625E-03     553.143E-03    -276.179E-03     2.97525E-03
            1325     5.46966E-03     191.526E-03    -122.314E+06    -64.8255E+06    -66.2157E+06    -54.3040E+06    -277.569E-03     554.302E-03    -276.732E-03    -4.54696E-03    -278.181E-03     554.433E-03    -276.792E-03     4.45601E-03
            1326     6.14799E-03     191.673E-03    -100.633E+06    -51.0196E+06    -42.8104E+06    -55.8061E+06    -277.704E-03     555.089E-03    -277.385E-03    -2.20478E-03    -278.282E-03     555.247E-03    -277.379E-03     7.48918E-03
            1327     6.82765E-03     191.839E-03    -80.9587E+06    -36.3307E+06    -21.2092E+06    -53.9002E+06    -279.023E-03     557.051E-03    -278.028E-03     2.64595E-03    -279.548E-03     557.219E-03    -277.964E-03     12.8491E-03
            1328     7.50403E-03     192.020E-03    -64.5812E+06    -18.6210E+06    -370.970E+03    -50.1045E+06    -281.953E-03     560.722E-03    -278.769E-03     9.09339E-03    -282.425E-03     560.899E-03    -278.650E-03     19.5156E-03
            1329     8.17858E-03     192.215E-03    -51.8661E+06    -3.89919E+06     20.0330E+06    -44.0796E+06    -285.045E-03     564.690E-03    -279.645E-03     16.2978E-03    -285.461E-03     564.852E-03    -279.464E-03     26.6575E-03
            1330     8.85011E-03     192.422E-03    -42.2042E+06     2.18579E+06     38.4051E+06    -37.4568E+06    -288.351E-03     568.967E-03    -280.615E-03     25.2354E-03    -288.691E-03     569.057E-03    -280.365E-03     35.1729E-03
            1331     9.51988E-03     192.641E-03    -33.2414E+06     11.9537E+06     53.5954E+06    -31.6648E+06    -291.602E-03     573.217E-03    -281.615E-03     35.5857E-03    -291.864E-03     573.252E-03    -281.316E-03     44.6097E-03
            1332     10.1903E-03     192.869E-03    -25.7086E+06     25.4128E+06     67.9727E+06    -25.2792E+06    -294.971E-03     577.598E-03    -282.628E-03     46.5072E-03    -295.178E-03     577.612E-03    -282.288E-03     54.1553E-03
            1333     10.8579E-03     193.096E-03    -19.0464E+06     36.2657E+06     82.4173E+06    -17.8002E+06    -299.202E-03     582.882E-03    -283.680E-03     57.3135E-03    -299.383E-03     582.890E-03    -283.293E-03     63.2088E-03
            1334     11.5236E-03     193.325E-03    -12.4186E+06     48.1437E+06     90.0419E+06    -11.5509E+06    -303.328E-03     588.067E-03    -284.739E-03     68.9035E-03    -303.521E-03     588.131E-03    -284.341E-03     72.5144E-03
            1335     12.1864E-03     193.548E-03    -8.43858E+06     27.5876E+06     88.0818E+06    -7.23566E+06    -305.886E-03     591.674E-03    -285.788E-03     79.6752E-03    -306.091E-03     591.697E-03    -285.375E-03     80.7640E-03
            1336     12.8464E-03     193.748E-03    -5.58523E+06     10.5341E+06     101.903E+06    -2.98171E+06    -305.270E-03     592.055E-03    -286.785E-03     89.3929E-03    -305.519E-03     592.028E-03    -286.283E-03     88.7223E-03
            1337     672.722E-06     192.635E-03    -132.840E+06    -77.5616E+06    -127.279E+06    -11.2834E+06    -292.906E-03     584.359E-03    -291.453E-03    -10.5015E-03    -293.251E-03     584.369E-03    -291.784E-03    -9.57380E-03
            1338     1.34623E-03     192.655E-03    -135.893E+06    -81.3670E+06    -126.557E+06    -21.8248E+06    -291.499E-03     583.889E-03    -292.390E-03    -24.2352E-03    -291.943E-03     583.882E-03    -292.708E-03    -22.1457E-03
            1339     2.02148E-03     192.704E-03    -126.619E+06    -72.0115E+06    -109.485E+06    -32.1501E+06    -289.303E-03     581.634E-03    -292.331E-03    -34.4749E-03    -289.779E-03     581.672E-03    -292.590E-03    -31.3966E-03
            1340     2.69844E-03     192.765E-03    -118.253E+06    -62.3033E+06    -91.2031E+06    -39.1993E+06    -287.728E-03     579.868E-03    -292.140E-03    -44.5869E-03    -288.269E-03     579.984E-03    -292.334E-03    -40.3718E-03
            1341     3.37351E-03     192.840E-03    -113.193E+06    -57.3297E+06    -76.1569E+06     -46.064E+06    -287.455E-03     579.631E-03    -292.177E-03    -53.1755E-03    -288.047E-03     579.792E-03    -292.310E-03    -48.2589E-03
            1342     4.04545E-03     192.944E-03    -104.699E+06    -51.3583E+06    -59.6262E+06    -53.4123E+06    -286.472E-03     578.916E-03    -292.444E-03    -62.5046E-03    -287.125E-03     579.148E-03    -292.516E-03    -56.7621E-03
            1343     4.71712E-03     193.053E-03    -96.1732E+06    -46.5956E+06    -44.5625E+06    -59.5884E+06    -284.343E-03     577.056E-03    -292.713E-03    -69.6729E-03    -285.068E-03     577.370E-03    -292.729E-03    -62.9680E-03
            1344     5.38905E-03     193.185E-03    -88.1083E+06    -41.9458E+06    -30.3422E+06    -63.5582E+06    -281.402E-03     574.261E-03    -292.859E-03    -74.0756E-03    -282.200E-03     574.657E-03    -292.822E-03    -66.4644E-03
            1345     6.06283E-03     193.327E-03    -82.7634E+06    -38.0231E+06    -18.6147E+06    -65.1083E+06    -277.967E-03     570.807E-03    -292.839E-03    -76.2923E-03    -278.841E-03     571.282E-03    -292.757E-03    -67.7798E-03
            1346     6.73674E-03     193.488E-03    -78.7922E+06    -33.2096E+06    -7.59733E+06    -64.9475E+06    -274.812E-03     567.502E-03    -292.690E-03    -74.3914E-03    -275.732E-03     568.028E-03    -292.566E-03    -65.2189E-03
            1347     7.41224E-03     193.672E-03    -73.7420E+06    -23.4545E+06     6.05865E+06    -61.5761E+06    -272.342E-03     564.816E-03    -292.474E-03    -70.0267E-03    -273.299E-03     565.402E-03    -292.303E-03    -60.2026E-03
            1348     8.08670E-03     193.869E-03    -66.7066E+06    -15.2872E+06     22.1413E+06    -55.4414E+06    -270.918E-03     563.151E-03    -292.233E-03    -63.1548E-03    -271.875E-03     563.754E-03    -292.004E-03    -52.8746E-03
            1349     8.76244E-03     194.078E-03    -56.7500E+06    -9.27963E+06     40.4948E+06    -48.8341E+06    -269.868E-03     561.828E-03    -291.960E-03    -52.1118E-03    -270.757E-03     562.374E-03    -291.662E-03    -41.8115E-03
            1350     9.43768E-03     194.302E-03    -46.2426E+06    -1.16888E+06     56.9015E+06    -42.3502E+06    -269.080E-03     560.672E-03    -291.592E-03    -37.0157E-03    -269.847E-03     561.121E-03    -291.239E-03    -27.1706E-03
            1351     10.1128E-03     194.527E-03    -35.8628E+06     5.34886E+06     71.6491E+06    -33.6137E+06    -269.483E-03     560.618E-03    -291.135E-03    -18.8050E-03    -270.094E-03     560.931E-03    -290.732E-03    -9.81529E-03
            1352     10.7886E-03     194.767E-03    -25.4531E+06     15.8168E+06     86.2464E+06    -23.6352E+06    -270.925E-03     561.540E-03    -290.614E-03     2.25747E-03    -271.372E-03     561.724E-03    -290.169E-03     9.99946E-03
            1353     11.4632E-03     194.999E-03    -14.9379E+06     34.5818E+06     99.2103E+06    -16.2634E+06    -272.214E-03     562.217E-03    -290.002E-03     26.1738E-03    -272.520E-03     562.325E-03    -289.535E-03     32.0640E-03
            1354     12.1421E-03     195.227E-03    -6.16157E+06     10.5577E+06     99.2830E+06    -6.36272E+06    -273.201E-03     562.494E-03    -289.293E-03     51.2984E-03    -273.359E-03     562.395E-03    -288.803E-03     54.5734E-03
            1355     12.8243E-03     195.437E-03     534.764E+03     1.89986E+06     105.589E+06     2.15202E+06    -271.432E-03     559.880E-03    -288.448E-03     74.0802E-03    -271.570E-03     559.730E-03    -287.924E-03     75.0016E-03
            1356     654.368E-06     194.373E-03    -30.9707E+06    -35.6211E+06    -30.4562E+06    -6.35768E+06    -324.915E-03     652.802E-03    -327.887E-03    -29.1047E-03    -325.035E-03     652.697E-03    -327.943E-03    -28.8701E-03
            1357     1.30775E-03     194.401E-03    -28.5865E+06    -31.1710E+06    -19.5998E+06    -13.6526E+06    -324.209E-03     650.956E-03    -326.747E-03    -57.4502E-03    -324.386E-03     650.819E-03    -326.758E-03    -56.8296E-03
            1358     1.96001E-03     194.438E-03    -27.7225E+06    -28.4580E+06    -10.5121E+06    -20.3400E+06    -320.590E-03     647.038E-03    -326.449E-03    -86.2029E-03    -320.813E-03     646.914E-03    -326.420E-03    -84.9848E-03
            1359     2.61541E-03     194.490E-03    -27.2696E+06    -25.8156E+06    -618.471E+03    -25.0280E+06    -315.784E-03     641.736E-03    -325.952E-03    -112.190E-03    -316.056E-03     641.652E-03    -325.878E-03    -110.519E-03
            1360     3.26861E-03     194.573E-03    -24.5602E+06    -23.0262E+06     11.1399E+06    -29.5397E+06    -310.303E-03     635.666E-03    -325.363E-03    -133.917E-03    -310.634E-03     635.658E-03    -325.239E-03    -131.744E-03
            1361     3.92391E-03     194.663E-03    -21.5402E+06    -20.1546E+06     23.1054E+06    -33.0665E+06    -303.781E-03     628.418E-03    -324.638E-03    -153.449E-03    -304.211E-03     628.513E-03    -324.462E-03    -150.524E-03
            1362     4.58210E-03     194.770E-03    -20.9726E+06    -18.3489E+06     33.4534E+06    -34.6453E+06    -296.647E-03     620.368E-03    -323.721E-03    -169.983E-03    -297.167E-03     620.544E-03    -323.497E-03    -166.464E-03
            1363     5.24152E-03     194.888E-03    -22.4406E+06    -18.1383E+06     42.5296E+06    -35.4892E+06    -288.921E-03     611.558E-03    -322.638E-03    -183.780E-03    -289.544E-03     611.818E-03    -322.366E-03    -179.689E-03
            1364     5.90382E-03     195.020E-03    -23.6731E+06    -17.3884E+06     51.8253E+06    -35.9508E+06    -281.058E-03     602.495E-03    -321.436E-03    -195.395E-03    -281.794E-03     602.843E-03    -321.118E-03    -190.723E-03
            1365     6.56790E-03     195.171E-03    -24.8443E+06    -15.8923E+06     60.7465E+06    -35.6201E+06    -271.904E-03     592.005E-03    -320.101E-03    -203.641E-03    -272.754E-03     592.455E-03    -319.738E-03    -198.407E-03
            1366     7.23542E-03     195.336E-03    -25.3560E+06    -13.9091E+06     69.2713E+06    -34.7720E+06    -261.268E-03     579.803E-03    -318.535E-03    -207.197E-03    -262.205E-03     580.333E-03    -318.132E-03    -201.478E-03
            1367     7.90906E-03     195.524E-03    -25.5222E+06    -11.9876E+06     76.4174E+06    -33.7029E+06    -250.454E-03     567.124E-03    -316.670E-03    -206.533E-03    -251.442E-03     567.712E-03    -316.233E-03    -200.431E-03
            1368     8.58543E-03     195.723E-03    -26.3643E+06    -8.77229E+06     82.7475E+06    -32.0340E+06    -239.391E-03     553.828E-03    -314.437E-03    -199.937E-03    -240.399E-03     554.455E-03    -313.972E-03    -193.574E-03
            1369     9.27012E-03     195.931E-03    -27.1231E+06    -5.00787E+06     89.3212E+06    -29.0052E+06    -229.494E-03     541.312E-03    -311.818E-03    -184.039E-03    -230.458E-03     541.909E-03    -311.325E-03    -177.648E-03
            1370     9.96072E-03     196.157E-03    -26.8654E+06    -3.54286E+06     94.1392E+06    -26.1880E+06    -221.366E-03     530.212E-03    -308.847E-03    -160.346E-03    -222.215E-03     530.713E-03    -308.332E-03    -154.144E-03
            1371     10.6569E-03     196.385E-03    -25.0176E+06    -935.909E+03     97.9968E+06    -21.4147E+06    -214.042E-03     519.529E-03    -305.487E-03    -128.214E-03    -214.706E-03     519.871E-03    -304.960E-03    -122.544E-03
            1372     11.3634E-03     196.620E-03    -20.7486E+06     18.8612E+06     109.964E+06    -15.0769E+06    -208.216E-03     509.931E-03    -301.715E-03    -86.7405E-03    -208.689E-03     510.149E-03    -301.162E-03    -82.1265E-03
            1373     12.0736E-03     196.844E-03    -13.9379E+06    -7.63234E+06     102.244E+06    -6.60919E+06    -203.431E-03     500.894E-03    -297.463E-03    -35.7344E-03    -203.656E-03     500.828E-03    -296.921E-03    -32.9852E-03
            1374     12.7883E-03     197.056E-03    -2.81985E+06    -6.28081E+06     90.3560E+06    -1.22105E+06    -195.535E-03     488.142E-03    -292.607E-03     22.0480E-03    -195.627E-03     488.007E-03    -292.142E-03     23.0869E-03
            1375     12.7283E-03     98.2558E-03     -6.8605E+06     32.8533E+06     69.7692E+06     1.24985E+06    -298.058E-03     593.720E-03    -295.662E-03     77.6290E-03    -298.513E-03     594.065E-03    -295.351E-03     72.3618E-03
            1376     12.0587E-03     98.1186E-03    -10.4385E+06     28.9094E+06     65.4356E+06    -1.96586E+06    -298.206E-03     593.820E-03    -295.614E-03     77.7916E-03    -298.697E-03     594.187E-03    -295.314E-03     72.0095E-03
            1377     11.3872E-03     97.9829E-03    -15.4518E+06     24.0834E+06     60.8507E+06    -1.54913E+06    -297.379E-03     592.958E-03    -295.579E-03     76.5056E-03    -297.893E-03     593.326E-03    -295.287E-03     70.4964E-03
            1378     10.7169E-03     97.8552E-03    -20.8316E+06     18.7214E+06     56.6034E+06    -807.852E+03    -296.966E-03     592.539E-03    -295.573E-03     73.9973E-03    -297.483E-03     592.883E-03    -295.286E-03     68.0665E-03
            1379     10.0488E-03     97.7346E-03    -22.5804E+06     16.5569E+06     55.8007E+06    -482.188E+03    -296.730E-03     592.316E-03    -295.586E-03     71.4123E-03    -297.204E-03     592.608E-03    -295.299E-03     66.2503E-03
            1380     9.37874E-03     97.6149E-03    -22.7093E+06     16.0375E+06     55.5792E+06     3.73999E+06    -295.364E-03     591.015E-03    -295.651E-03     67.2998E-03    -295.777E-03     591.243E-03    -295.364E-03     63.2010E-03
            1381     8.70610E-03     97.5048E-03    -28.5477E+06     9.77908E+06     47.1530E+06     5.00152E+06    -294.749E-03     590.515E-03    -295.766E-03     63.8199E-03    -295.135E-03     590.698E-03    -295.503E-03     60.2757E-03
            1382     8.03516E-03     97.4032E-03    -36.5297E+06     1.37974E+06     35.6502E+06     3.69065E+06    -295.500E-03     591.371E-03    -295.871E-03     59.7426E-03    -295.874E-03     591.517E-03    -295.642E-03     56.4620E-03
            1383     7.36518E-03     97.3141E-03    -43.3174E+06    -5.93175E+06     24.7559E+06     5.30817E+06    -295.983E-03     591.908E-03    -295.925E-03     53.6754E-03    -296.328E-03     592.006E-03    -295.730E-03     51.0942E-03
            1384     6.69461E-03     97.2207E-03    -49.3647E+06    -13.5939E+06     9.41218E+06     5.54750E+06    -296.303E-03     592.211E-03    -295.908E-03     46.7921E-03    -296.610E-03     592.267E-03    -295.770E-03     44.8498E-03
            1385     6.02678E-03     97.1456E-03    -53.7670E+06    -23.9297E+06    -5.25608E+06     773.438E+03    -296.607E-03     592.450E-03    -295.843E-03     40.9735E-03    -296.889E-03     592.472E-03    -295.757E-03     38.9969E-03
            1386     5.35751E-03     97.0754E-03    -60.1417E+06    -38.8074E+06    -17.0905E+06     1.93454E+06    -296.267E-03     592.050E-03    -295.783E-03     36.5863E-03    -296.523E-03     592.004E-03    -295.725E-03     35.1746E-03
            1387     4.68716E-03     97.0096E-03    -65.9943E+06    -49.6728E+06    -29.1347E+06     3.58004E+06    -295.832E-03     591.577E-03    -295.745E-03     32.1145E-03    -296.068E-03     591.487E-03    -295.723E-03     31.1507E-03
            1388     4.01840E-03     96.9570E-03    -69.9859E+06    -57.4109E+06    -42.4448E+06     4.74180E+06    -295.951E-03     591.650E-03    -295.699E-03     27.6332E-03    -296.170E-03     591.539E-03    -295.726E-03     26.8428E-03
            1389     3.34838E-03     96.9123E-03    -73.0004E+06    -70.7800E+06    -54.9605E+06     6.55147E+06    -295.799E-03     591.450E-03    -295.652E-03     22.7663E-03    -295.982E-03     591.283E-03    -295.718E-03     22.4804E-03
            1390     2.67687E-03     96.8758E-03    -75.0304E+06    -87.9695E+06    -64.3849E+06     4.56313E+06    -295.604E-03     591.254E-03    -295.651E-03     18.6296E-03    -295.751E-03     591.010E-03    -295.736E-03     18.5033E-03
            1391     2.00755E-03     96.8457E-03    -78.8054E+06    -104.289E+06    -72.2813E+06     3.65961E+06    -295.917E-03     591.539E-03    -295.623E-03     13.9862E-03    -296.039E-03     591.223E-03    -295.718E-03     13.8976E-03
            1392     1.34009E-03     96.8247E-03    -89.1082E+06    -122.597E+06    -85.3477E+06     3.86107E+06    -296.151E-03     591.533E-03    -295.382E-03     9.29629E-03    -296.264E-03     591.150E-03    -295.502E-03     9.32920E-03
            1393     672.263E-06     96.8129E-03    -85.2161E+06    -124.431E+06    -82.2198E+06     1.35142E+06    -295.603E-03     590.526E-03    -294.922E-03     5.99098E-03    -295.630E-03     590.163E-03    -295.029E-03     6.01193E-03
            1394     12.7281E-03     96.5462E-03    -3.39232E+06     35.1533E+06     71.6541E+06     2.53346E+06    -297.032E-03     592.574E-03    -295.542E-03     78.6232E-03    -297.440E-03     592.887E-03    -295.230E-03     74.0872E-03
            1395     12.0580E-03     96.4039E-03    -8.01490E+06     29.9204E+06     65.9790E+06    -1.23705E+06    -296.870E-03     592.430E-03    -295.560E-03     79.8219E-03    -297.345E-03     592.792E-03    -295.262E-03     74.2791E-03
            1396     11.3897E-03     96.2741E-03    -13.0978E+06     24.3341E+06     60.1119E+06    -561.703E+03    -296.434E-03     592.025E-03    -295.590E-03     76.8818E-03    -296.926E-03     592.382E-03    -295.306E-03     71.0812E-03
            1397     10.7187E-03     96.1452E-03    -19.0267E+06     17.6831E+06     52.9784E+06    -975.632E+03    -295.736E-03     591.384E-03    -295.648E-03     75.6569E-03    -296.233E-03     591.723E-03    -295.381E-03     69.8926E-03
            1398     10.0469E-03     96.0211E-03    -25.6603E+06     11.3241E+06     48.2042E+06    -857.526E+03    -296.045E-03     591.779E-03    -295.734E-03     73.7627E-03    -296.519E-03     592.063E-03    -295.473E-03     68.6392E-03
            1399     9.37647E-03     95.9058E-03    -25.6999E+06     11.8962E+06     50.5937E+06     50.0623E+03    -296.092E-03     591.918E-03    -295.826E-03     68.3176E-03    -296.523E-03     592.153E-03    -295.553E-03     63.8117E-03
            1400     8.70463E-03     95.8005E-03    -28.8207E+06     9.46304E+06     47.8345E+06     1.61615E+06    -295.822E-03     591.721E-03    -295.899E-03     61.2741E-03    -296.202E-03     591.894E-03    -295.632E-03     57.7402E-03
            1401     8.03232E-03     95.6907E-03    -37.5987E+06      252.53E+03     36.2776E+06     2.39179E+06    -296.151E-03     592.082E-03    -295.930E-03     54.5748E-03    -296.511E-03     592.204E-03    -295.695E-03     51.4866E-03
            1402     7.36427E-03     95.5964E-03    -42.5818E+06    -6.35998E+06     25.0948E+06     1.97922E+06    -296.644E-03     592.547E-03    -295.903E-03     49.9645E-03    -296.988E-03     592.644E-03    -295.707E-03     47.0428E-03
            1403     6.69689E-03     95.5091E-03    -47.2810E+06    -12.2701E+06     12.8451E+06     2.61409E+06    -296.499E-03     592.339E-03    -295.840E-03     45.8084E-03    -296.809E-03     592.400E-03    -295.689E-03     43.5925E-03
            1404     6.02571E-03     95.4310E-03    -53.9970E+06    -21.0922E+06    -2.85073E+06     4.75784E+06    -296.408E-03     592.169E-03    -295.761E-03     41.1070E-03    -296.696E-03     592.199E-03    -295.666E-03     39.3247E-03
            1405     5.35741E-03     95.3602E-03    -59.8138E+06    -36.7499E+06    -19.3271E+06     3.98040E+06    -296.121E-03     591.810E-03    -295.688E-03     36.9236E-03    -296.378E-03     591.779E-03    -295.645E-03     35.4533E-03
            1406     4.68787E-03     95.3017E-03    -65.7467E+06    -52.4888E+06    -34.2883E+06     3.24908E+06    -295.446E-03     591.120E-03    -295.675E-03     32.9878E-03    -295.672E-03     591.026E-03    -295.675E-03     31.9559E-03
            1407     4.01624E-03     95.2427E-03    -70.4654E+06    -59.7734E+06    -44.9679E+06     3.99605E+06    -295.579E-03     591.281E-03    -295.702E-03     27.9086E-03    -295.790E-03     591.160E-03    -295.738E-03     27.2743E-03
            1408     3.34734E-03     95.2003E-03    -72.6415E+06    -67.7496E+06    -53.1200E+06     3.35239E+06    -296.068E-03     591.741E-03    -295.673E-03     21.9966E-03    -296.259E-03     591.588E-03    -295.735E-03     21.4847E-03
            1409     2.67936E-03     95.1636E-03    -74.9753E+06    -82.5819E+06    -61.2342E+06     3.66843E+06    -295.906E-03     591.504E-03    -295.598E-03     17.4168E-03    -296.067E-03     591.284E-03    -295.676E-03     17.1159E-03
            1410     2.00979E-03     95.1323E-03    -79.9620E+06    -100.809E+06    -70.9927E+06     4.11212E+06    -295.550E-03     591.111E-03    -295.561E-03     13.2944E-03    -295.686E-03     590.813E-03    -295.654E-03     13.1553E-03
            1411     1.33846E-03     95.1128E-03    -81.9587E+06    -112.411E+06    -77.7905E+06     3.23277E+06    -295.673E-03     591.205E-03    -295.532E-03     9.22003E-03    -295.779E-03     590.852E-03    -295.639E-03     9.10765E-03
            1412     668.010E-06     95.0991E-03    -79.7155E+06    -119.764E+06    -77.9841E+06     1.21705E+06    -295.457E-03     591.129E-03    -295.673E-03     5.56956E-03    -295.473E-03     590.783E-03    -295.773E-03     5.60995E-03
            1413     12.7305E-03     94.8392E-03    -3.12327E+06     34.2016E+06     69.9592E+06     1.63001E+06    -297.062E-03     592.589E-03    -295.527E-03     79.5041E-03    -297.468E-03     592.903E-03    -295.222E-03     74.9094E-03
            1414     12.0579E-03     94.6952E-03    -6.53460E+06     29.1449E+06     63.0896E+06     3.84043E+06    -295.837E-03     591.406E-03    -295.568E-03     80.1354E-03    -296.286E-03     591.752E-03    -295.286E-03     74.9471E-03
            1415     11.3856E-03     94.5599E-03    -9.61452E+06     25.7047E+06     58.8886E+06    -1.00896E+06    -295.410E-03     591.077E-03    -295.666E-03     77.4771E-03    -295.893E-03     591.445E-03    -295.395E-03     71.5777E-03
            1416     10.7145E-03     94.4397E-03    -13.5041E+06     22.0407E+06     56.7345E+06    -1.62253E+06    -295.627E-03     591.410E-03    -295.783E-03     75.3729E-03    -296.104E-03     591.753E-03    -295.512E-03     69.6869E-03
            1417     10.0427E-03     94.3103E-03    -18.4768E+06     18.0772E+06     55.1933E+06     2.46069E+06    -296.094E-03     591.982E-03    -295.887E-03     71.1930E-03    -296.531E-03     592.257E-03    -295.611E-03     66.3948E-03
            1418     9.37210E-03     94.1933E-03    -29.9770E+06     7.47729E+06     46.2944E+06    -746.359E+03    -297.534E-03     593.432E-03    -295.899E-03     65.3375E-03    -297.973E-03     593.657E-03    -295.634E-03     60.6816E-03
            1419     8.70661E-03     94.0818E-03    -36.0450E+06     1.69381E+06     40.1707E+06    -443.411E+03    -298.151E-03     593.962E-03    -295.810E-03     59.7226E-03    -298.562E-03     594.134E-03    -295.560E-03     55.6581E-03
            1420     8.04093E-03     93.9821E-03    -36.5759E+06    -157.416E+03     35.2381E+06     1.55815E+06    -296.885E-03     592.600E-03    -295.715E-03     54.9279E-03    -297.238E-03     592.721E-03    -295.486E-03     51.8539E-03
            1421     7.36869E-03     93.8839E-03    -43.6082E+06    -9.29974E+06     20.2739E+06     649.302E+03    -295.861E-03     591.526E-03    -295.665E-03     50.3990E-03    -296.189E-03     591.608E-03    -295.487E-03     47.7158E-03
            1422     6.69651E-03     93.7976E-03    -49.6861E+06    -16.5039E+06     7.34588E+06     1.79190E+06    -295.619E-03     591.286E-03    -295.667E-03     45.9108E-03    -295.929E-03     591.339E-03    -295.534E-03     43.6219E-03
            1423     6.02821E-03     93.7179E-03    -53.9975E+06    -22.6123E+06    -4.02811E+06     5.60704E+06    -295.563E-03     591.245E-03    -295.682E-03     41.4666E-03    -295.846E-03     591.268E-03    -295.591E-03     39.7929E-03
            1424     5.35691E-03     93.6493E-03    -59.7575E+06    -37.3016E+06    -18.7621E+06     3.80172E+06    -295.850E-03     591.526E-03    -295.676E-03     36.5567E-03    -296.105E-03     591.491E-03    -295.629E-03     35.1122E-03
            1425     4.68690E-03     93.5883E-03    -63.9252E+06    -49.9669E+06    -29.0576E+06     3.91877E+06    -296.138E-03     591.776E-03    -295.638E-03     31.9724E-03    -296.367E-03     591.685E-03    -295.618E-03     30.8772E-03
            1426     4.01863E-03     93.5330E-03    -67.3923E+06    -56.5447E+06    -39.7976E+06     4.76914E+06    -295.856E-03     591.424E-03    -295.568E-03     26.6913E-03    -296.064E-03     591.307E-03    -295.587E-03     26.0134E-03
            1427     3.34836E-03     93.4851E-03    -71.9436E+06    -66.5318E+06    -53.2334E+06     2.70350E+06    -295.751E-03     591.245E-03    -295.494E-03     21.4677E-03    -295.939E-03     591.096E-03    -295.560E-03     20.9301E-03
            1428     2.67879E-03     93.4501E-03    -75.7179E+06    -80.8828E+06    -63.2972E+06     3.26332E+06    -295.818E-03     591.230E-03    -295.412E-03     17.3404E-03    -295.981E-03     591.022E-03    -295.502E-03     16.9735E-03
            1429     2.00860E-03     93.4236E-03    -76.6611E+06    -95.4464E+06    -70.4263E+06     2.80201E+06    -295.483E-03     590.827E-03    -295.344E-03     13.3136E-03    -295.611E-03     590.550E-03    -295.447E-03     13.1479E-03
            1430     1.33996E-03     93.3992E-03    -75.1541E+06    -102.879E+06    -74.2732E+06    -191.057E+03    -295.248E-03     590.614E-03    -295.366E-03     8.68064E-03    -295.338E-03     590.293E-03    -295.479E-03     8.48896E-03
            1431     670.751E-06     93.3895E-03    -79.8314E+06    -116.987E+06    -81.9070E+06    -794.885E+03    -295.149E-03     590.918E-03    -295.769E-03     4.31902E-03    -295.165E-03     590.593E-03    -295.893E-03     4.19043E-03
            1432     12.7266E-03     93.1233E-03    -3.11676E+06     33.1004E+06     67.6022E+06     381.450E+03    -296.899E-03     592.511E-03    -295.612E-03     80.1663E-03    -297.314E-03     592.837E-03    -295.317E-03     75.3057E-03
            1433     12.0587E-03     92.9885E-03    -6.07535E+06     29.3405E+06     62.7990E+06     2.55185E+06    -296.103E-03     591.769E-03    -295.666E-03     81.1593E-03    -296.554E-03     592.120E-03    -295.386E-03     75.9114E-03
            1434     11.3861E-03     92.8559E-03    -10.6206E+06     25.0517E+06     58.5288E+06     1.36219E+06    -296.075E-03     591.823E-03    -295.748E-03     77.4463E-03    -296.546E-03     592.176E-03    -295.476E-03     71.8529E-03
            1435     10.7153E-03     92.7245E-03    -14.8859E+06     21.6746E+06     57.2885E+06     577.303E+03    -297.570E-03     593.357E-03    -295.788E-03     72.9268E-03    -298.048E-03     593.694E-03    -295.511E-03     67.2040E-03
            1436     10.0472E-03     92.6022E-03    -18.4416E+06     18.7112E+06     55.5189E+06     1.96378E+06    -297.984E-03     593.730E-03    -295.746E-03     67.5763E-03    -298.423E-03     594.008E-03    -295.468E-03     62.5562E-03
            1437     9.37827E-03     92.4777E-03    -27.2244E+06     9.19439E+06     45.3540E+06     1.52395E+06    -297.186E-03     592.856E-03    -295.670E-03     62.7512E-03    -297.596E-03     593.070E-03    -295.417E-03     58.3663E-03
            1438     8.70710E-03     92.3662E-03    -34.5677E+06     944.938E+03     35.3331E+06    -614.344E+03    -296.605E-03     592.225E-03    -295.620E-03     58.9450E-03    -297.002E-03     592.401E-03    -295.394E-03     54.7341E-03
            1439     8.03499E-03     92.2681E-03    -36.8635E+06    -2.02242E+06     30.2372E+06     804.918E+03    -296.463E-03     592.058E-03    -295.595E-03     55.9081E-03    -296.817E-03     592.186E-03    -295.387E-03     52.6359E-03
            1440     7.36755E-03     92.1732E-03    -41.4516E+06    -7.58119E+06     21.9025E+06     2.63359E+06    -296.095E-03     591.669E-03    -295.574E-03     51.6323E-03    -296.413E-03     591.749E-03    -295.393E-03     49.1893E-03
            1441     6.69897E-03     92.0877E-03    -48.6893E+06    -16.7232E+06     7.12206E+06     2.80614E+06    -295.622E-03     591.178E-03    -295.556E-03     46.5168E-03    -295.925E-03     591.228E-03    -295.425E-03     44.3432E-03
            1442     6.02638E-03     92.0073E-03    -54.2342E+06    -27.4756E+06    -5.73852E+06     1.31420E+06    -295.659E-03     591.214E-03    -295.555E-03     41.1251E-03    -295.936E-03     591.218E-03    -295.466E-03     39.2641E-03
            1443     5.35732E-03     91.9374E-03    -58.4547E+06    -39.3484E+06    -14.7632E+06     680.171E+03    -295.949E-03     591.489E-03    -295.540E-03     35.5258E-03    -296.202E-03     591.438E-03    -295.472E-03     33.9560E-03
            1444     4.68884E-03     91.8736E-03    -61.9866E+06    -48.0162E+06    -25.5063E+06     808.992E+03    -296.056E-03     591.521E-03    -295.466E-03     31.2927E-03    -296.282E-03     591.431E-03    -295.434E-03     30.1608E-03
            1445     4.01922E-03     91.8202E-03    -65.0864E+06    -53.8283E+06    -36.1818E+06     2.34658E+06    -295.641E-03     591.030E-03    -295.389E-03     27.1816E-03    -295.848E-03     590.919E-03    -295.397E-03     26.4710E-03
            1446     3.34972E-03     91.7756E-03    -68.9376E+06    -62.5666E+06    -47.8620E+06     5.67773E+06    -295.152E-03     590.525E-03    -295.373E-03     22.5232E-03    -295.337E-03     590.383E-03    -295.422E-03     22.1828E-03
            1447     2.67901E-03     91.7386E-03    -73.6429E+06    -76.7801E+06    -61.5198E+06     4.94237E+06    -295.409E-03     590.780E-03    -295.371E-03     17.9453E-03    -295.570E-03     590.587E-03    -295.460E-03     17.6619E-03
            1448     2.01064E-03     91.7099E-03    -76.2578E+06    -89.5168E+06    -69.2822E+06     2.74032E+06    -295.614E-03     590.936E-03    -295.322E-03     13.6147E-03    -295.750E-03     590.686E-03    -295.428E-03     13.4115E-03
            1449     1.33975E-03     91.6912E-03    -78.9613E+06    -99.0755E+06    -74.4194E+06     2.36613E+06    -295.397E-03     590.648E-03    -295.251E-03     9.70481E-03    -295.509E-03     590.349E-03    -295.365E-03     9.62623E-03
            1450     669.092E-06     91.6758E-03    -82.8498E+06    -111.262E+06    -80.7476E+06     2.48547E+06    -295.508E-03     590.538E-03    -295.030E-03     5.21359E-03    -295.545E-03     590.239E-03    -295.152E-03     5.20255E-03
            1451     12.7265E-03     91.4157E-03    -2.71904E+06     33.5225E+06     68.0481E+06    -246.773E+03    -296.471E-03     592.176E-03    -295.706E-03     78.9564E-03    -296.884E-03     592.501E-03    -295.410E-03     74.0655E-03
            1452     12.0525E-03     91.2753E-03    -6.44716E+06     30.5044E+06     65.7869E+06    -1.75732E+06    -297.465E-03     593.206E-03    -295.741E-03     78.6004E-03    -297.935E-03     593.570E-03    -295.447E-03     72.9158E-03
            1453     11.3848E-03     91.1446E-03    -12.0365E+06     24.7255E+06     60.3874E+06     3.15555E+06    -298.309E-03     594.016E-03    -295.706E-03     74.9315E-03    -298.778E-03     594.354E-03    -295.423E-03     69.3919E-03
            1454     10.7167E-03     91.0089E-03    -17.2672E+06     19.4357E+06     54.8608E+06     4.51582E+06    -298.524E-03     594.145E-03    -295.621E-03     72.1719E-03    -298.990E-03     594.459E-03    -295.350E-03     66.7813E-03
            1455     10.0491E-03     90.8837E-03    -21.6566E+06     14.7470E+06     50.2350E+06     1.24921E+06    -298.136E-03     593.659E-03    -295.523E-03     69.1268E-03    -298.588E-03     593.942E-03    -295.262E-03     63.9505E-03
            1456     9.38050E-03     90.7678E-03    -23.1149E+06     11.7161E+06     45.9893E+06     2.08189E+06    -296.614E-03     592.081E-03    -295.467E-03     65.3877E-03    -297.023E-03     592.315E-03    -295.220E-03     60.8310E-03
            1457     8.70963E-03     90.6595E-03    -28.7869E+06     5.01136E+06     37.4106E+06     614.535E+03    -295.715E-03     591.186E-03    -295.471E-03     60.3562E-03    -296.092E-03     591.371E-03    -295.249E-03     56.2699E-03
            1458     8.04039E-03     90.5564E-03    -36.2397E+06    -2.58191E+06     27.8501E+06     12.0616E+03    -295.838E-03     591.329E-03    -295.490E-03     54.8270E-03    -296.187E-03     591.459E-03    -295.295E-03     51.4021E-03
            1459     7.36840E-03     90.4613E-03    -40.6470E+06    -7.47053E+06     20.3462E+06     1.28886E+06    -295.968E-03     591.459E-03    -295.491E-03     50.2979E-03    -296.282E-03     591.543E-03    -295.320E-03     47.7391E-03
            1460     6.69735E-03     90.3756E-03    -45.3659E+06    -13.4983E+06     11.5941E+06     1.71734E+06    -296.329E-03     591.782E-03    -295.453E-03     45.7058E-03    -296.620E-03     591.830E-03    -295.309E-03     43.6517E-03
            1461     6.03032E-03     90.2961E-03    -51.6911E+06    -25.5369E+06    -1.76412E+06     1.12897E+06    -296.004E-03     591.384E-03    -295.380E-03     40.7386E-03    -296.275E-03     591.386E-03    -295.277E-03     38.8932E-03
            1462     5.36052E-03     90.2244E-03    -58.2136E+06    -41.2097E+06    -17.9050E+06    -318.758E+03    -295.350E-03     590.687E-03    -295.337E-03     36.6718E-03    -295.591E-03     590.627E-03    -295.283E-03     35.2184E-03
            1463     4.68947E-03     90.1639E-03    -64.0935E+06    -52.4683E+06    -32.0204E+06    -342.948E+03    -295.231E-03     590.569E-03    -295.338E-03     32.7995E-03    -295.451E-03     590.468E-03    -295.329E-03     31.7738E-03
            1464     4.01884E-03     90.1087E-03    -68.1296E+06    -58.3120E+06    -41.6071E+06     225.248E+03    -295.251E-03     590.607E-03    -295.355E-03     27.6007E-03    -295.457E-03     590.484E-03    -295.380E-03     26.9685E-03
            1465     3.34830E-03     90.0654E-03    -72.0740E+06    -64.2485E+06    -50.5076E+06     2.64197E+06    -295.185E-03     590.564E-03    -295.379E-03     22.5993E-03    -295.379E-03     590.421E-03    -295.434E-03     22.2829E-03
            1466     2.67896E-03     90.0267E-03    -74.9862E+06    -71.9627E+06    -59.2364E+06     4.60234E+06    -295.128E-03     590.555E-03    -295.428E-03     18.3976E-03    -295.305E-03     590.384E-03    -295.511E-03     18.2315E-03
            1467     2.00780E-03     89.9986E-03    -76.8320E+06    -82.3806E+06    -67.5934E+06     3.61818E+06    -295.298E-03     590.788E-03    -295.490E-03     13.6273E-03    -295.449E-03     590.572E-03    -295.597E-03     13.4842E-03
            1468     1.33922E-03     89.9792E-03    -80.9301E+06    -95.9994E+06    -76.8320E+06     2.94386E+06    -295.594E-03     591.093E-03    -295.499E-03     9.88676E-03    -295.717E-03     590.817E-03    -295.627E-03     9.78571E-03
            1469     670.597E-06     89.9646E-03    -81.4674E+06    -104.602E+06    -78.7447E+06     1.67466E+06    -295.653E-03     591.087E-03    -295.435E-03     5.26359E-03    -295.692E-03     590.816E-03    -295.559E-03     5.24232E-03
            1470     12.7253E-03     89.7047E-03    -3.50005E+06     33.3265E+06     69.0643E+06     513.411E+03    -298.733E-03     594.399E-03    -295.666E-03     76.4565E-03    -299.152E-03     594.723E-03    -295.364E-03     71.3897E-03
            1471     12.0591E-03     89.5637E-03    -9.05280E+06     27.5700E+06     62.6720E+06    -11.8691E+03    -299.029E-03     594.596E-03    -295.567E-03     75.3661E-03    -299.504E-03     594.954E-03    -295.280E-03     69.4807E-03
            1472     11.3902E-03     89.4264E-03    -11.7911E+06     24.1774E+06     58.4780E+06     1.47484E+06    -298.359E-03     593.821E-03    -295.462E-03     72.6287E-03    -298.824E-03     594.161E-03    -295.188E-03     66.8912E-03
            1473     10.7211E-03     89.2987E-03    -15.2705E+06     19.9845E+06     52.7109E+06     1.16766E+06    -296.955E-03     592.354E-03    -295.400E-03     71.6526E-03    -297.406E-03     592.669E-03    -295.143E-03     66.2544E-03
            1474     10.0492E-03     89.1705E-03    -21.4663E+06     13.4115E+06     46.8464E+06    -768.598E+03    -295.742E-03     591.163E-03    -295.421E-03     69.8471E-03    -296.194E-03     591.450E-03    -295.175E-03     64.5803E-03
            1475     9.37816E-03     89.0572E-03    -24.5984E+06     10.3848E+06     46.3403E+06     1.12399E+06    -295.952E-03     591.441E-03    -295.489E-03     66.6196E-03    -296.374E-03     591.679E-03    -295.237E-03     61.9577E-03
            1476     8.70867E-03     88.9477E-03    -27.7121E+06     6.94324E+06     43.0330E+06     3.68167E+06    -296.477E-03     591.992E-03    -295.515E-03     62.7926E-03    -296.854E-03     592.170E-03    -295.270E-03     59.0385E-03
            1477     8.03846E-03     88.8439E-03    -35.1036E+06    -1.41692E+06     30.7042E+06     2.04003E+06    -296.458E-03     591.937E-03    -295.479E-03     57.4487E-03    -296.806E-03     592.066E-03    -295.273E-03     54.2023E-03
            1478     7.36939E-03     88.7541E-03    -41.6949E+06    -9.86374E+06     17.7230E+06     881.350E+03    -296.338E-03     591.763E-03    -295.425E-03     52.2082E-03    -296.653E-03     591.844E-03    -295.262E-03     49.6313E-03
            1479     6.70076E-03     88.6601E-03    -46.7229E+06    -17.0638E+06     5.99440E+06     1.83758E+06    -295.941E-03     591.321E-03    -295.380E-03     47.4622E-03    -296.225E-03     591.361E-03    -295.257E-03     45.4939E-03
            1480     6.02968E-03     88.5851E-03    -52.1024E+06    -24.5450E+06    -7.13718E+06     1.96387E+06    -295.500E-03     590.856E-03    -295.356E-03     43.0433E-03    -295.766E-03     590.870E-03    -295.280E-03     41.3711E-03
            1481     5.35826E-03     88.5165E-03    -56.1966E+06    -36.5501E+06    -18.3563E+06     1.40998E+06    -295.428E-03     590.793E-03    -295.365E-03     38.3756E-03    -295.663E-03     590.751E-03    -295.322E-03     37.1363E-03
            1482     4.68818E-03     88.4527E-03    -61.7113E+06    -49.6252E+06    -28.4005E+06     1.99251E+06    -295.407E-03     590.788E-03    -295.381E-03     32.9770E-03    -295.624E-03     590.691E-03    -295.361E-03     32.0095E-03
            1483     4.01883E-03     88.3980E-03    -67.4143E+06    -57.4477E+06    -39.2282E+06     1.88680E+06    -295.351E-03     590.731E-03    -295.380E-03     27.3466E-03    -295.557E-03     590.608E-03    -295.395E-03     26.7176E-03
            1484     3.34952E-03     88.3537E-03    -72.2654E+06    -65.5517E+06    -51.8045E+06     1.69305E+06    -295.359E-03     590.723E-03    -295.363E-03     22.2805E-03    -295.550E-03     590.574E-03    -295.423E-03     21.9171E-03
            1485     2.67887E-03     88.3167E-03    -73.8832E+06    -71.1045E+06    -61.3875E+06     930.754E+03    -295.193E-03     590.563E-03    -295.369E-03     17.7451E-03    -295.363E-03     590.396E-03    -295.466E-03     17.4542E-03
            1486     2.00970E-03     88.2870E-03    -77.9816E+06    -80.2600E+06    -70.6316E+06     136.016E+03    -295.164E-03     590.591E-03    -295.427E-03     12.9439E-03    -295.320E-03     590.391E-03    -295.550E-03     12.7450E-03
            1487     1.33889E-03     88.2665E-03    -83.3519E+06    -92.5089E+06     -79.112E+06     1.18145E+06    -295.340E-03     590.857E-03    -295.518E-03     9.05364E-03    -295.477E-03     590.607E-03    -295.658E-03     8.92682E-03
            1488     668.620E-06     88.2519E-03    -81.0142E+06    -100.943E+06    -80.7963E+06    -683.469E+03    -295.615E-03     591.267E-03    -295.652E-03     5.39014E-03    -295.652E-03     591.018E-03    -295.792E-03     5.22271E-03
            1489     12.7296E-03     87.9843E-03    -5.14535E+06     30.8550E+06     65.2231E+06     261.219E+03    -299.173E-03     594.671E-03    -295.498E-03     76.0148E-03    -299.590E-03     594.990E-03    -295.209E-03     70.9456E-03
            1490     12.0614E-03     87.8481E-03    -7.32971E+06     27.2354E+06     59.5644E+06    -115.445E+03    -298.397E-03     593.795E-03    -295.398E-03     79.0192E-03    -298.875E-03     594.171E-03    -295.129E-03     73.0956E-03
            1491     11.3922E-03     87.7157E-03    -9.55555E+06     24.3203E+06     55.7770E+06    -483.221E+03    -297.230E-03     592.587E-03    -295.357E-03     78.2327E-03    -297.697E-03     592.944E-03    -295.099E-03     72.5479E-03
            1492     10.7213E-03     87.5875E-03    -14.4112E+06     19.9023E+06     52.1855E+06    -331.058E+03    -296.182E-03     591.564E-03    -295.382E-03     75.5510E-03    -296.629E-03     591.879E-03    -295.129E-03     70.3531E-03
            1493     10.0504E-03     87.4668E-03    -18.7143E+06     16.1307E+06     50.6484E+06     1.73606E+06    -295.558E-03     591.021E-03    -295.463E-03     71.8982E-03    -296.002E-03     591.309E-03    -295.206E-03     66.8551E-03
            1494     9.37804E-03     87.3470E-03    -25.4116E+06     9.35935E+06     45.4070E+06     1.85703E+06    -295.846E-03     591.384E-03    -295.537E-03     66.8261E-03    -296.266E-03     591.614E-03    -295.287E-03     62.3061E-03
            1495     8.70753E-03     87.2347E-03    -30.7129E+06     3.82214E+06     39.7010E+06     1.97717E+06    -296.169E-03     591.744E-03    -295.576E-03     61.4720E-03    -296.546E-03     591.911E-03    -295.338E-03     57.7657E-03
            1496     8.03758E-03     87.1339E-03    -33.9877E+06    -331.265E+03     33.6583E+06     2.64106E+06    -296.449E-03     592.022E-03    -295.574E-03     56.9783E-03    -296.792E-03     592.146E-03    -295.356E-03     53.8807E-03
            1497     7.36854E-03     87.0362E-03    -39.7376E+06    -8.47977E+06     20.6931E+06     2.36446E+06    -296.450E-03     591.971E-03    -295.522E-03     52.9056E-03    -296.767E-03     592.057E-03    -295.348E-03     50.2038E-03
            1498     6.69771E-03     86.9539E-03     -45.364E+06    -17.3198E+06     4.82677E+06     2.34130E+06    -295.747E-03     591.221E-03    -295.474E-03     48.1188E-03    -296.035E-03     591.273E-03    -295.359E-03     45.7696E-03
            1499     6.02646E-03     86.8741E-03    -49.3143E+06    -23.2829E+06    -6.31301E+06     2.12110E+06    -295.622E-03     591.091E-03    -295.469E-03     42.0632E-03    -295.876E-03     591.105E-03    -295.395E-03     40.4367E-03
            1500     5.35848E-03     86.8031E-03    -55.2788E+06    -35.4403E+06    -15.0207E+06     3.55906E+06    -295.888E-03     591.354E-03    -295.465E-03     37.1029E-03    -296.124E-03     591.311E-03    -295.409E-03     35.9125E-03
            1501     4.68956E-03     86.7412E-03    -60.0419E+06    -47.8607E+06    -25.0641E+06     3.51354E+06    -295.794E-03     591.222E-03    -295.427E-03     32.9359E-03    -296.014E-03     591.131E-03    -295.396E-03     31.8232E-03
            1502     4.01900E-03     86.6873E-03    -66.6830E+06    -57.7904E+06    -39.4780E+06     1.85880E+06    -295.704E-03     591.061E-03    -295.357E-03     27.5498E-03    -295.909E-03     590.938E-03    -295.373E-03     26.7762E-03
            1503     3.34851E-03     86.6419E-03    -71.6286E+06    -65.3989E+06    -49.9193E+06     640.206E+03    -295.676E-03     590.953E-03    -295.277E-03     22.0668E-03    -295.867E-03     590.803E-03    -295.328E-03     21.5923E-03
            1504     2.67982E-03     86.6049E-03    -72.5730E+06    -70.1017E+06    -57.6764E+06     1.78263E+06    -295.359E-03     590.563E-03    -295.204E-03     17.1763E-03    -295.528E-03     590.393E-03    -295.285E-03     16.9026E-03
            1505     2.00912E-03     86.5770E-03    -77.8195E+06    -79.9974E+06    -70.1633E+06     2.76245E+06    -295.107E-03     590.278E-03    -295.170E-03     13.2217E-03    -295.263E-03     590.078E-03    -295.292E-03     13.1121E-03
            1506     1.34015E-03     86.5545E-03    -80.9049E+06    -88.3557E+06    -76.7639E+06     585.751E+03    -295.300E-03     590.446E-03    -295.147E-03     8.93871E-03    -295.434E-03     590.209E-03    -295.285E-03     8.81686E-03
            1507     670.206E-06     86.5426E-03    -81.2273E+06    -97.8435E+06    -80.1885E+06    -45.9841E+03    -295.053E-03     590.349E-03    -295.296E-03     5.33793E-03    -295.093E-03     590.117E-03    -295.438E-03     5.11163E-03
            1508     12.7311E-03     86.2752E-03    -2.64784E+06     30.9172E+06     61.8213E+06     143.943E+03    -296.651E-03     592.096E-03    -295.445E-03     79.6610E-03    -297.053E-03     592.419E-03    -295.177E-03     74.7935E-03
            1509     12.0584E-03     86.1364E-03    -5.64281E+06     27.3604E+06     57.8824E+06    -1.28955E+06    -296.164E-03     591.664E-03    -295.500E-03     82.5994E-03    -296.635E-03     592.045E-03    -295.243E-03     76.8565E-03
            1510     11.3868E-03     86.0047E-03    -11.1902E+06     22.4562E+06     53.9412E+06    -788.187E+03    -296.621E-03     592.188E-03    -295.567E-03     80.5431E-03    -297.101E-03     592.552E-03    -295.314E-03     74.8291E-03
            1511     10.7164E-03     85.8771E-03    -16.3382E+06     18.2685E+06     51.3701E+06     2.13282E+06    -297.104E-03     592.710E-03    -295.606E-03     76.4211E-03    -297.556E-03     593.021E-03    -295.352E-03     71.3048E-03
            1512     10.0464E-03     85.7549E-03    -19.2963E+06     15.8543E+06     51.0141E+06     2.32074E+06    -297.393E-03     593.008E-03    -295.615E-03     72.4666E-03    -297.836E-03     593.291E-03    -295.355E-03     67.5104E-03
            1513     9.37879E-03     85.6351E-03    -23.1058E+06     11.5553E+06     47.3899E+06     1.27660E+06    -296.912E-03     592.513E-03    -295.601E-03     67.7780E-03    -297.334E-03     592.756E-03    -295.347E-03     63.1288E-03
            1514     8.70851E-03     85.5258E-03    -29.2467E+06     4.04163E+06     38.4875E+06     3.05232E+06    -296.456E-03     592.040E-03    -295.584E-03     62.0004E-03    -296.826E-03     592.209E-03    -295.355E-03     58.3154E-03
            1515     8.03818E-03     85.4208E-03    -32.4700E+06    -670.830E+03     30.6291E+06     3.70903E+06    -296.340E-03     591.911E-03    -295.570E-03     56.4069E-03    -296.663E-03     592.027E-03    -295.369E-03     53.5096E-03
            1516     7.36702E-03     85.3267E-03    -37.8175E+06    -7.01488E+06     21.5431E+06     1.35243E+06    -296.071E-03     591.625E-03    -295.554E-03     50.8777E-03    -296.381E-03     591.713E-03    -295.381E-03     48.0993E-03
            1517     6.69776E-03     85.2406E-03    -45.3006E+06    -15.3291E+06     11.0760E+06    -141.343E+03    -296.295E-03     591.812E-03    -295.517E-03     46.2611E-03    -296.601E-03     591.871E-03    -295.374E-03     43.6081E-03
            1518     6.03025E-03     85.1619E-03    -48.3201E+06    -20.3143E+06     2.34177E+06     3.02142E+06    -296.174E-03     591.626E-03    -295.452E-03     40.7944E-03    -296.443E-03     591.645E-03    -295.340E-03     39.0032E-03
            1519     5.35843E-03     85.0926E-03    -55.0201E+06    -36.1170E+06    -13.9947E+06     5.17097E+06    -295.634E-03     591.021E-03    -295.387E-03     35.9122E-03    -295.867E-03     590.971E-03    -295.325E-03     34.8059E-03
            1520     4.68750E-03     85.0290E-03    -62.7140E+06    -52.7415E+06    -30.2297E+06     1.48692E+06    -295.675E-03     591.012E-03    -295.337E-03     31.7719E-03    -295.891E-03     590.907E-03    -295.321E-03     30.7268E-03
            1521     4.01893E-03     84.9751E-03    -63.2372E+06    -55.8358E+06    -37.0744E+06     448.612E+03    -295.775E-03     591.047E-03    -295.272E-03     26.9285E-03    -295.969E-03     590.927E-03    -295.285E-03     26.0655E-03
            1522     3.35060E-03     84.9297E-03    -66.7559E+06    -62.1161E+06    -46.9565E+06     541.661E+03    -295.667E-03     590.836E-03    -295.169E-03     22.1531E-03    -295.844E-03     590.692E-03    -295.217E-03     21.5972E-03
            1523     2.67999E-03     84.8945E-03    -76.0148E+06    -74.0260E+06    -59.9287E+06     615.451E+03    -295.469E-03     590.518E-03    -295.049E-03     17.0597E-03    -295.647E-03     590.337E-03    -295.131E-03     16.8012E-03
            1524     2.01061E-03     84.8669E-03    -77.6262E+06    -79.1610E+06    -66.6917E+06     3.17134E+06    -295.186E-03     590.128E-03    -294.942E-03     13.0929E-03    -295.347E-03     589.928E-03    -295.048E-03     12.9777E-03
            1525     1.33963E-03     84.8436E-03    -75.2411E+06    -83.0128E+06    -70.9992E+06     2.18979E+06    -295.278E-03     590.051E-03    -294.773E-03     9.42952E-03    -295.401E-03     589.824E-03    -294.898E-03     9.28359E-03
            1526     671.004E-06     84.8301E-03    -78.7301E+06    -94.1130E+06    -76.6614E+06     2.29962E+06    -294.603E-03     589.410E-03    -294.807E-03     4.15450E-03    -294.643E-03     589.190E-03    -294.940E-03     4.19493E-03
            1527     12.7265E-03     84.5673E-03    -2.66287E+06     30.7225E+06     61.2684E+06     253.534E+03    -295.953E-03     591.530E-03    -295.577E-03     80.0915E-03    -296.361E-03     591.860E-03    -295.311E-03     75.1753E-03
            1528     12.0554E-03     84.4287E-03    -7.01406E+06     26.9316E+06     58.3663E+06     1.14469E+06    -296.350E-03     592.008E-03    -295.658E-03     80.7032E-03    -296.816E-03     592.376E-03    -295.395E-03     75.1285E-03
            1529     11.3848E-03     84.2933E-03    -12.3044E+06     21.7824E+06     54.6225E+06     1.46600E+06    -296.824E-03     592.537E-03    -295.713E-03     76.4750E-03    -297.288E-03     592.876E-03    -295.453E-03     70.9511E-03
            1530     10.7152E-03     84.1638E-03    -15.1219E+06     18.9585E+06     51.7032E+06     1.34647E+06    -297.277E-03     593.003E-03    -295.727E-03     73.5288E-03    -297.739E-03     593.329E-03    -295.474E-03     67.9911E-03
            1531     10.0471E-03     84.0398E-03    -18.7782E+06     14.9454E+06     47.3758E+06    -122.799E+03    -297.449E-03     593.157E-03    -295.708E-03     70.9604E-03    -297.890E-03     593.447E-03    -295.465E-03     65.7800E-03
            1532     9.37625E-03     83.9224E-03    -23.9452E+06     9.75862E+06     42.6891E+06    -208.275E+03    -297.486E-03     593.158E-03    -295.672E-03     67.3417E-03    -297.901E-03     593.399E-03    -295.438E-03     62.6570E-03
            1533     8.70696E-03     83.8135E-03    -27.4054E+06     5.69935E+06     39.6271E+06     281.184E+03    -297.422E-03     593.044E-03    -295.622E-03     62.2243E-03    -297.798E-03     593.228E-03    -295.392E-03     58.2588E-03
            1534     8.03803E-03     83.7078E-03    -32.8733E+06    -817.510E+03     31.4686E+06     1.53500E+06    -296.757E-03     592.314E-03    -295.557E-03     56.2617E-03    -297.092E-03     592.438E-03    -295.351E-03     53.0984E-03
            1535     7.36958E-03     83.6161E-03    -37.5366E+06    -6.86750E+06     22.1379E+06     2.84191E+06    -296.138E-03     591.653E-03    -295.515E-03     51.3065E-03    -296.447E-03     591.740E-03    -295.340E-03     48.5981E-03
            1536     6.69936E-03     83.5277E-03    -42.1149E+06    -12.8464E+06     13.0894E+06     1.72203E+06    -296.149E-03     591.633E-03    -295.484E-03     47.7028E-03    -296.439E-03     591.690E-03    -295.339E-03     45.3667E-03
            1537     6.02811E-03     83.4493E-03    -50.3994E+06    -26.4779E+06    -156.390E+03     794.073E+03    -296.287E-03     591.708E-03    -295.421E-03     42.3007E-03    -296.558E-03     591.707E-03    -295.310E-03     40.3566E-03
            1538     5.36029E-03     83.3823E-03    -52.7694E+06    -37.6518E+06    -10.0406E+06     2.15614E+06    -296.170E-03     591.505E-03    -295.335E-03     37.1124E-03    -296.400E-03     591.444E-03    -295.254E-03     35.8007E-03
            1539     4.69130E-03     83.3179E-03    -55.5204E+06    -45.9825E+06    -21.7694E+06     2.71283E+06    -295.785E-03     591.025E-03    -295.240E-03     32.3015E-03    -295.984E-03     590.927E-03    -295.202E-03     31.4087E-03
            1540     4.02042E-03     83.2639E-03    -60.8108E+06    -53.5321E+06    -33.4640E+06     2.18255E+06    -295.308E-03     590.490E-03    -295.182E-03     27.1586E-03    -295.498E-03     590.371E-03    -295.183E-03     26.4029E-03
            1541     3.34892E-03     83.2191E-03    -65.9197E+06    -61.2258E+06    -45.0207E+06     3.23311E+06    -295.070E-03     590.236E-03    -295.166E-03     22.6530E-03    -295.248E-03     590.093E-03    -295.207E-03     22.2146E-03
            1542     2.68010E-03     83.1826E-03    -71.7536E+06    -71.2284E+06    -58.6580E+06     1.43617E+06    -295.385E-03     590.504E-03    -295.118E-03     18.3026E-03    -295.550E-03     590.331E-03    -295.204E-03     18.0701E-03
            1543     2.01035E-03     83.1566E-03    -75.0477E+06    -78.5864E+06    -67.6275E+06    -165.073E+03    -295.636E-03     590.602E-03    -294.965E-03     14.2620E-03    -295.786E-03     590.404E-03    -295.080E-03     14.0412E-03
            1544     1.34128E-03     83.1346E-03    -75.4506E+06    -82.3976E+06    -71.7482E+06     918.643E+03    -295.066E-03     589.862E-03    -294.796E-03     10.0990E-03    -295.191E-03     589.640E-03    -294.926E-03     9.93155E-03
            1545     669.765E-06     83.1203E-03    -76.8427E+06    -91.1554E+06    -76.8849E+06     495.636E+03    -294.936E-03     589.575E-03    -294.639E-03     4.17013E-03    -294.979E-03     589.366E-03    -294.780E-03     4.24462E-03
            1546     12.7262E-03     82.8592E-03    -4.23117E+06     30.3352E+06     62.7406E+06    -180.698E+03    -297.373E-03     593.036E-03    -295.663E-03     77.4722E-03    -297.792E-03     593.366E-03    -295.387E-03     72.3930E-03
            1547     12.0568E-03     82.7142E-03    -8.31275E+06     25.8713E+06     57.5809E+06     2.26614E+06    -297.721E-03     593.372E-03    -295.651E-03     78.7136E-03    -298.191E-03     593.737E-03    -295.388E-03     73.0156E-03
            1548     11.3879E-03     82.5838E-03    -11.0898E+06     21.7758E+06     52.7105E+06     2.77820E+06    -297.242E-03     592.877E-03    -295.635E-03     74.8239E-03    -297.683E-03     593.204E-03    -295.387E-03     69.4189E-03
            1549     10.7174E-03     82.4507E-03    -15.4244E+06     17.1571E+06     47.9175E+06    -1.36610E+06    -296.632E-03     592.276E-03    -295.644E-03     72.8782E-03    -297.091E-03     592.602E-03    -295.407E-03     67.1963E-03
            1550     10.0455E-03     82.3294E-03    -18.9701E+06     13.7873E+06     45.7155E+06    -1.75671E+06    -296.964E-03     592.627E-03    -295.663E-03     69.5510E-03    -297.399E-03     592.911E-03    -295.427E-03     64.3530E-03
            1551     9.37634E-03     82.2088E-03    -21.2413E+06     11.6753E+06     44.1722E+06     23.6425E+03    -297.504E-03     593.145E-03    -295.640E-03     64.7061E-03    -297.894E-03     593.372E-03    -295.406E-03     60.2670E-03
            1552     8.70803E-03     82.0977E-03    -26.5042E+06     6.21731E+06     39.0353E+06    -859.243E+03    -297.086E-03     592.671E-03    -295.585E-03     60.4019E-03    -297.461E-03     592.862E-03    -295.361E-03     56.1962E-03
            1553     8.03870E-03     81.9964E-03    -34.5110E+06    -2.32484E+06     30.0666E+06    -1.08093E+06    -296.174E-03     591.726E-03    -295.552E-03     56.3068E-03    -296.530E-03     591.865E-03    -295.348E-03     52.6559E-03
            1554     7.36734E-03     81.9041E-03    -38.3839E+06    -7.59040E+06     21.5610E+06     1.52223E+06    -295.834E-03     591.385E-03    -295.552E-03     52.3315E-03    -296.147E-03     591.473E-03    -295.377E-03     49.6137E-03
            1555     6.69732E-03     81.8169E-03    -40.6142E+06    -12.8610E+06     10.3858E+06      3.1445E+06    -295.987E-03     591.524E-03    -295.537E-03     48.3082E-03    -296.261E-03     591.579E-03    -295.408E-03     46.1249E-03
            1556     6.02866E-03     81.7369E-03    -46.5332E+06    -25.6119E+06    -4.11172E+06     1.08629E+06    -296.151E-03     591.644E-03    -295.493E-03     42.6125E-03    -296.395E-03     591.644E-03    -295.409E-03     40.8316E-03
            1557     5.35814E-03     81.6681E-03    -52.5120E+06    -38.9606E+06    -13.3564E+06    -623.430E+03    -296.266E-03     591.705E-03    -295.439E-03     38.1401E-03    -296.488E-03     591.641E-03    -295.373E-03     36.8250E-03
            1558     4.68850E-03     81.6064E-03    -54.8735E+06    -44.6820E+06    -18.5908E+06     2.49426E+06    -296.035E-03     591.404E-03    -295.370E-03     34.0658E-03    -296.241E-03     591.311E-03    -295.318E-03     33.0523E-03
            1559     4.01941E-03     81.5537E-03    -61.6131E+06    -53.6099E+06    -31.7944E+06     4.69473E+06    -295.534E-03     590.827E-03    -295.294E-03     28.2131E-03    -295.729E-03     590.706E-03    -295.286E-03     27.5429E-03
            1560     3.35035E-03     81.5096E-03    -67.5223E+06    -62.6411E+06    -45.6647E+06     3.42688E+06    -295.071E-03     590.343E-03    -295.272E-03     22.8801E-03    -295.254E-03     590.196E-03    -295.311E-03     22.4888E-03
            1561     2.67836E-03     81.4726E-03    -68.0072E+06    -66.7209E+06    -54.5667E+06     3.12921E+06    -295.176E-03     590.465E-03    -295.289E-03     18.3711E-03    -295.336E-03     590.305E-03    -295.367E-03     18.1000E-03
            1562     2.00891E-03     81.4426E-03    -71.4024E+06    -74.5104E+06    -64.2608E+06     1.75653E+06    -295.509E-03     590.757E-03    -295.247E-03     13.7138E-03    -295.653E-03     590.570E-03    -295.357E-03     13.4873E-03
            1563     1.33942E-03     81.4246E-03    -76.4278E+06    -82.9219E+06    -73.0039E+06     1.01198E+06    -295.182E-03     590.390E-03    -295.208E-03     9.61352E-03    -295.311E-03     590.171E-03    -295.342E-03     9.41115E-03
            1564     669.817E-06     81.4132E-03    -75.7858E+06    -86.6712E+06    -75.9730E+06     519.679E+03    -295.192E-03     590.545E-03    -295.352E-03     6.02697E-03    -295.246E-03     590.347E-03    -295.496E-03     5.88808E-03
            1565     12.7271E-03     81.1430E-03    -3.73552E+06     30.0054E+06     61.9724E+06     640.189E+03    -297.860E-03     593.494E-03    -295.634E-03     77.2495E-03    -298.273E-03     593.820E-03    -295.362E-03     72.1872E-03
            1566     12.0577E-03     81.0043E-03    -7.43720E+06     25.4930E+06     55.7994E+06     1.21196E+06    -297.940E-03     593.537E-03    -295.597E-03     79.7208E-03    -298.400E-03     593.900E-03    -295.344E-03     74.0653E-03
            1567     11.3877E-03     80.8678E-03    -9.50689E+06     22.7660E+06     51.9764E+06     606.427E+03    -297.627E-03     593.195E-03    -295.568E-03     76.2784E-03    -298.070E-03     593.535E-03    -295.328E-03     70.7332E-03
            1568     10.7177E-03     80.7447E-03    -13.0366E+06     19.1931E+06     48.8276E+06    -514.275E+03    -297.689E-03     593.226E-03    -295.537E-03     72.7459E-03    -298.128E-03     593.546E-03    -295.302E-03     67.2606E-03
            1569     10.0487E-03     80.6148E-03    -18.0361E+06     14.6802E+06     46.5247E+06    -963.895E+03    -297.351E-03     592.856E-03    -295.505E-03     68.5775E-03    -297.772E-03     593.130E-03    -295.267E-03     63.5155E-03
            1570     9.37997E-03     80.4959E-03    -23.5946E+06     9.45208E+06     42.9527E+06    -491.683E+03    -296.390E-03     591.885E-03    -295.496E-03     64.4964E-03    -296.781E-03     592.102E-03    -295.260E-03     60.1305E-03
            1571     8.70896E-03     80.3864E-03    -28.7398E+06     3.58872E+06     35.9606E+06     1.37705E+06    -295.588E-03     591.112E-03    -295.523E-03     60.9287E-03    -295.958E-03     591.288E-03    -295.307E-03     57.0001E-03
            1572     8.03762E-03     80.2866E-03    -32.6519E+06    -1.84122E+06     27.1942E+06     974.873E+03    -295.747E-03     591.306E-03    -295.558E-03     56.6823E-03    -296.090E-03     591.447E-03    -295.372E-03     53.1323E-03
            1573     7.36792E-03     80.1936E-03    -38.7974E+06    -9.33618E+06     16.8608E+06    -327.497E+03    -296.236E-03     591.793E-03    -295.557E-03     51.4751E-03    -296.538E-03     591.876E-03    -295.403E-03     48.7825E-03
            1574     6.69804E-03     80.1043E-03    -45.4509E+06    -17.4896E+06     5.97772E+06     267.408E+03    -296.044E-03     591.574E-03    -295.529E-03     46.5678E-03    -296.326E-03     591.614E-03    -295.408E-03     44.4065E-03
            1575     6.02722E-03     80.0253E-03    -46.6491E+06    -21.3033E+06    -2.57973E+06     2.62378E+06    -295.733E-03     591.242E-03    -295.509E-03     41.1725E-03    -295.980E-03     591.255E-03    -295.424E-03     39.5768E-03
            1576     5.35785E-03     79.9565E-03    -50.3499E+06    -34.1861E+06    -15.1723E+06     1.78915E+06    -295.742E-03     591.231E-03    -295.489E-03     36.2742E-03    -295.956E-03     591.189E-03    -295.442E-03     34.9703E-03
            1577     4.68810E-03     79.8939E-03    -57.6456E+06    -49.3316E+06    -27.0872E+06    -339.534E+03    -295.672E-03     591.143E-03    -295.471E-03     32.2561E-03    -295.877E-03     591.047E-03    -295.451E-03     30.9754E-03
            1578     4.01830E-03     79.8407E-03    -63.2472E+06    -56.4627E+06    -36.4498E+06     640.830E+03    -295.775E-03     591.206E-03    -295.431E-03     27.1835E-03    -295.969E-03     591.081E-03    -295.440E-03     26.4157E-03
            1579     3.34803E-03     79.7989E-03    -65.9263E+06    -61.4163E+06    -44.9464E+06     458.664E+03    -295.812E-03     591.160E-03    -295.349E-03     22.1355E-03    -295.989E-03     591.016E-03    -295.389E-03     21.6628E-03
            1580     2.68010E-03     79.7613E-03    -66.3408E+06    -63.9743E+06    -50.3540E+06     1.54005E+06    -295.240E-03     590.544E-03    -295.304E-03     18.0036E-03    -295.402E-03     590.390E-03    -295.367E-03     17.5949E-03
            1581     2.00977E-03     79.7318E-03    -69.1706E+06    -69.4599E+06    -59.1334E+06     2.41895E+06    -294.871E-03     590.249E-03    -295.378E-03     13.3266E-03    -295.019E-03     590.078E-03    -295.472E-03     13.1017E-03
            1582     1.33917E-03     79.7136E-03    -74.3939E+06    -78.6003E+06    -69.4531E+06     1.50614E+06    -295.292E-03     590.789E-03    -295.497E-03     8.89388E-03    -295.422E-03     590.584E-03    -295.623E-03     8.72534E-03
            1583     669.339E-06     79.7003E-03    -76.8643E+06    -84.5731E+06    -74.5149E+06     1.46757E+06    -295.473E-03     591.180E-03    -295.707E-03     5.98703E-03    -295.538E-03     590.980E-03    -295.846E-03     5.83727E-03
            1584     12.7268E-03     79.4310E-03    -2.93010E+06     29.7574E+06     60.1683E+06     331.148E+03    -297.476E-03     593.043E-03    -295.567E-03     77.0423E-03    -297.876E-03     593.363E-03    -295.305E-03     72.0527E-03
            1585     12.0572E-03     79.2902E-03    -5.45991E+06     27.2487E+06     57.0884E+06    -619.472E+03    -297.429E-03     592.989E-03    -295.560E-03     78.4449E-03    -297.883E-03     593.355E-03    -295.306E-03     72.6961E-03
            1586     11.3870E-03     79.1588E-03    -8.66654E+06     24.0487E+06     54.4095E+06    -500.418E+03    -297.730E-03     593.275E-03    -295.545E-03     76.2458E-03    -298.182E-03     593.624E-03    -295.296E-03     70.5766E-03
            1587     10.7191E-03     79.0251E-03    -12.2819E+06     20.5808E+06     51.6745E+06     1.43615E+06    -298.235E-03     593.730E-03    -295.495E-03     73.8646E-03    -298.681E-03     594.056E-03    -295.249E-03     68.4127E-03
            1588     10.0513E-03     78.9040E-03    -17.9642E+06     14.6105E+06     46.0633E+06     2.34035E+06    -297.101E-03     592.545E-03    -295.444E-03     71.0564E-03    -297.535E-03     592.834E-03    -295.209E-03     65.9044E-03
            1589     9.37906E-03     78.7873E-03    -23.9415E+06     7.67240E+06     38.9208E+06     709.528E+03    -295.631E-03     591.093E-03    -295.462E-03     67.0657E-03    -296.032E-03     591.323E-03    -295.244E-03     62.5141E-03
            1590     8.70764E-03     78.6784E-03    -29.1283E+06     1.71325E+06     32.4343E+06     27.9006E+03    -295.518E-03     591.048E-03    -295.530E-03     61.6948E-03    -295.875E-03     591.213E-03    -295.328E-03     57.9656E-03
            1591     8.03727E-03     78.5756E-03    -33.7225E+06    -3.64339E+06     25.0869E+06     1.03694E+06    -296.276E-03     591.835E-03    -295.559E-03     56.4851E-03    -296.600E-03     591.953E-03    -295.379E-03     53.3915E-03
            1592     7.36811E-03     78.4786E-03    -37.4288E+06    -8.83473E+06     16.2885E+06     536.591E+03    -296.702E-03     592.218E-03    -295.516E-03     51.5415E-03    -296.998E-03     592.302E-03    -295.367E-03     48.8512E-03
            1593     6.69910E-03     78.3942E-03    -41.5966E+06    -14.3757E+06     8.04505E+06     714.457E+03    -296.364E-03     591.816E-03    -295.452E-03     46.3724E-03    -296.634E-03     591.863E-03    -295.330E-03     44.2320E-03
            1594     6.02942E-03     78.3146E-03    -48.7827E+06    -22.7146E+06    -2.41533E+06     486.364E+03    -295.771E-03     591.179E-03    -295.408E-03     40.8421E-03    -296.026E-03     591.188E-03    -295.317E-03     39.1951E-03
            1595     5.35910E-03     78.2441E-03    -53.3159E+06    -35.7569E+06    -14.5121E+06     894.142E+03    -295.397E-03     590.793E-03    -295.396E-03     36.0648E-03    -295.629E-03     590.750E-03    -295.339E-03     34.5971E-03
            1596     4.68906E-03     78.1837E-03    -55.9351E+06    -48.2379E+06    -27.6640E+06     1.64995E+06    -295.333E-03     590.726E-03    -295.393E-03     31.7405E-03    -295.529E-03     590.633E-03    -295.380E-03     30.5521E-03
            1597     4.01845E-03     78.1299E-03    -60.0556E+06    -55.1300E+06    -38.7352E+06    -251.696E+03    -295.383E-03     590.776E-03    -295.393E-03     26.7134E-03    -295.560E-03     590.656E-03    -295.419E-03     25.9536E-03
            1598     3.35004E-03     78.0842E-03    -63.4205E+06    -60.2033E+06    -45.9401E+06    -839.230E+03    -295.408E-03     590.804E-03    -295.396E-03     22.3132E-03    -295.574E-03     590.665E-03    -295.447E-03     21.7714E-03
            1599     2.67932E-03     78.0513E-03    -68.9322E+06    -67.3374E+06    -54.7497E+06    -923.201E+03    -295.254E-03     590.665E-03    -295.411E-03     18.7285E-03    -295.417E-03     590.504E-03    -295.487E-03     18.3534E-03
            1600     2.00871E-03     78.0224E-03    -70.5103E+06    -70.9785E+06    -60.8198E+06     643.607E+03    -295.267E-03     590.725E-03    -295.458E-03     14.1461E-03    -295.415E-03     590.550E-03    -295.557E-03     14.0634E-03
            1601     1.33910E-03     78.0009E-03    -70.7021E+06    -73.2357E+06    -65.7594E+06     2.16989E+06    -295.701E-03     591.118E-03    -295.417E-03     8.85219E-03    -295.824E-03     590.927E-03    -295.537E-03     8.89059E-03
            1602     670.085E-06     77.9875E-03    -74.3612E+06    -80.1785E+06    -72.1408E+06     1.48413E+06    -295.465E-03     590.760E-03    -295.295E-03     4.87150E-03    -295.532E-03     590.569E-03    -295.431E-03     4.82163E-03
            1603     12.7296E-03     77.7177E-03    -2.98624E+06     29.7852E+06     59.9442E+06    -902.947E+03    -297.867E-03     593.374E-03    -295.507E-03     77.6657E-03    -298.274E-03     593.702E-03    -295.246E-03     72.5485E-03
            1604     12.0591E-03     77.5813E-03    -6.26013E+06     26.5709E+06     56.3881E+06    -505.392E+03    -297.638E-03     593.117E-03    -295.480E-03     78.0004E-03    -298.096E-03     593.484E-03    -295.227E-03     72.1760E-03
            1605     11.3894E-03     77.4451E-03    -11.1227E+06     21.4049E+06     51.6631E+06     1.13945E+06    -296.851E-03     592.326E-03    -295.475E-03     76.1832E-03    -297.300E-03     592.661E-03    -295.231E-03     70.6877E-03
            1606     10.7184E-03     77.3131E-03    -15.9786E+06     16.3519E+06     46.8181E+06     1.24942E+06    -296.136E-03     591.648E-03    -295.511E-03     74.7674E-03    -296.575E-03     591.952E-03    -295.278E-03     69.6174E-03
            1607     10.0462E-03     77.1920E-03    -18.5298E+06     13.7771E+06     44.6450E+06     648.948E+03    -296.434E-03     592.000E-03    -295.565E-03     71.7111E-03    -296.862E-03     592.280E-03    -295.335E-03     66.7035E-03
            1608     9.37761E-03     77.0776E-03    -20.9970E+06     10.4863E+06     41.9050E+06     1.55726E+06    -296.790E-03     592.376E-03    -295.586E-03     66.9907E-03    -297.191E-03     592.618E-03    -295.361E-03     62.2980E-03
            1609     8.70791E-03     76.9676E-03    -25.2978E+06     4.99761E+06     35.9482E+06     1.96507E+06    -296.761E-03     592.332E-03    -295.571E-03     61.8761E-03    -297.116E-03     592.511E-03    -295.361E-03     57.9994E-03
            1610     8.03867E-03     76.8626E-03    -30.9420E+06    -1.42360E+06     27.3215E+06     1.18835E+06    -296.681E-03     592.214E-03    -295.533E-03     56.7431E-03    -296.997E-03     592.336E-03    -295.349E-03     53.6654E-03
            1611     7.36836E-03     76.7676E-03    -36.1769E+06    -7.62455E+06     18.3188E+06    -138.652E+03    -296.332E-03     591.823E-03    -295.490E-03     51.6364E-03    -296.629E-03     591.911E-03    -295.335E-03     48.8978E-03
            1612     6.69832E-03     76.6799E-03    -41.0172E+06    -14.4061E+06     7.91341E+06     1.17958E+06    -296.153E-03     591.599E-03    -295.446E-03     47.1110E-03    -296.421E-03     591.647E-03    -295.326E-03     44.9562E-03
            1613     6.02936E-03     76.6029E-03    -46.9359E+06    -22.8219E+06    -5.02244E+06     799.250E+03    -295.885E-03     591.283E-03    -295.398E-03     42.4352E-03    -296.131E-03     591.296E-03    -295.322E-03     40.7223E-03
            1614     5.35928E-03     76.5351E-03    -53.1837E+06    -36.4341E+06    -16.2163E+06    -510.851E+03    -295.444E-03     590.836E-03    -295.392E-03     37.7054E-03    -295.671E-03     590.792E-03    -295.344E-03     36.2925E-03
            1615     4.68876E-03     76.4721E-03    -57.3090E+06    -48.0774E+06    -25.2902E+06     1.54439E+06    -295.326E-03     590.743E-03    -295.417E-03     33.0827E-03    -295.527E-03     590.644E-03    -295.391E-03     32.1578E-03
            1616     4.01986E-03     76.4184E-03    -56.8503E+06    -50.6925E+06    -32.7532E+06     1.72499E+06    -295.063E-03     590.524E-03    -295.460E-03     28.0183E-03    -295.238E-03     590.411E-03    -295.468E-03     27.3286E-03
            1617     3.34743E-03     76.3757E-03    -61.5527E+06    -58.9099E+06    -45.7236E+06     1.12511E+06    -295.048E-03     590.576E-03    -295.527E-03     23.0102E-03    -295.207E-03     590.439E-03    -295.581E-03     22.5485E-03
            1618     2.67751E-03     76.3385E-03    -69.1263E+06    -69.9382E+06    -60.5249E+06    -343.239E+03    -295.698E-03     591.234E-03    -295.536E-03     17.8450E-03    -295.849E-03     591.067E-03    -295.637E-03     17.5881E-03
            1619     2.00907E-03     76.3103E-03    -72.3734E+06    -74.8925E+06    -66.9382E+06    -1.51508E+06    -295.879E-03     591.327E-03    -295.448E-03     13.3214E-03    -296.021E-03     591.142E-03    -295.569E-03     13.1425E-03
            1620     1.33991E-03     76.2873E-03    -71.2476E+06    -74.3673E+06    -67.0875E+06    -231.674E+03    -295.544E-03     590.890E-03    -295.346E-03     9.23015E-03    -295.666E-03     590.696E-03    -295.471E-03     9.17206E-03
            1621     670.318E-06     76.2766E-03    -69.5529E+06    -74.8263E+06    -68.2750E+06     168.642E+03    -295.090E-03     590.684E-03    -295.594E-03     5.27734E-03    -295.154E-03     590.511E-03    -295.726E-03     5.17562E-03
            1622     12.7276E-03     76.0046E-03    -3.37365E+06     29.0608E+06     58.6220E+06    -258.868E+03    -297.387E-03     592.861E-03    -295.473E-03     78.0428E-03    -297.789E-03     593.183E-03    -295.217E-03     73.0357E-03
            1623     12.0594E-03     75.8674E-03    -7.60867E+06     24.7257E+06     53.5390E+06     741.802E+03    -297.455E-03     592.919E-03    -295.464E-03     80.0722E-03    -297.909E-03     593.278E-03    -295.221E-03     74.4758E-03
            1624     11.3898E-03     75.7347E-03    -11.1118E+06     20.2358E+06     48.6680E+06     1.07274E+06    -296.731E-03     592.202E-03    -295.471E-03     77.5045E-03    -297.183E-03     592.546E-03    -295.241E-03     71.8872E-03
            1625     10.7174E-03     75.6094E-03    -13.9913E+06     16.6709E+06     45.2610E+06     689.879E+03    -295.967E-03     591.488E-03    -295.521E-03     73.7751E-03    -296.395E-03     591.794E-03    -295.298E-03     68.5595E-03
            1626     10.0467E-03     75.4792E-03    -17.9571E+06     13.5219E+06     43.3910E+06    -267.121E+03    -296.011E-03     591.605E-03    -295.593E-03     68.9936E-03    -296.414E-03     591.866E-03    -295.370E-03     64.2203E-03
            1627     9.37651E-03     75.3636E-03    -22.5937E+06     9.24635E+06     40.9539E+06    -112.605E+03    -296.607E-03     592.243E-03    -295.637E-03     65.5772E-03    -297.002E-03     592.473E-03    -295.413E-03     61.0224E-03
            1628     8.70783E-03     75.2541E-03    -25.8201E+06     5.56852E+06     37.4358E+06     763.142E+03    -297.149E-03     592.772E-03    -295.623E-03     62.8035E-03    -297.521E-03     592.964E-03    -295.406E-03     58.6725E-03
            1629     8.03795E-03     75.1507E-03    -29.7350E+06     513.563E+03     30.3059E+06     1.51548E+06    -296.701E-03     592.278E-03    -295.578E-03     58.0632E-03    -297.036E-03     592.422E-03    -295.384E-03     54.5973E-03
            1630     7.36886E-03     75.0551E-03    -35.3450E+06    -7.31171E+06     18.7366E+06     2.08880E+06    -295.952E-03     591.502E-03    -295.550E-03     52.8758E-03    -296.244E-03     591.589E-03    -295.395E-03     50.2556E-03
            1631     6.69854E-03     74.9709E-03    -41.2909E+06    -15.4758E+06     5.84714E+06     1.44918E+06    -295.560E-03     591.118E-03    -295.559E-03     48.2612E-03    -295.824E-03     591.164E-03    -295.447E-03     46.1850E-03
            1632     6.02717E-03     74.8900E-03    -44.2003E+06    -20.5976E+06    -3.55266E+06     2.16068E+06    -295.551E-03     591.141E-03    -295.590E-03     43.3303E-03    -295.791E-03     591.161E-03    -295.514E-03     41.5909E-03
            1633     5.35763E-03     74.8240E-03    -48.7641E+06    -32.9114E+06    -14.5508E+06     2.18697E+06    -295.846E-03     591.449E-03    -295.603E-03     38.5517E-03    -296.057E-03     591.412E-03    -295.558E-03     37.2650E-03
            1634     4.68820E-03     74.7606E-03    -54.4744E+06    -45.8080E+06    -24.6010E+06    -140.783E+03    -295.575E-03     591.193E-03    -295.618E-03     33.6984E-03    -295.767E-03     591.100E-03    -295.595E-03     32.7342E-03
            1635     4.01657E-03     74.7085E-03    -60.3402E+06    -53.3123E+06    -34.1238E+06    -647.398E+03    -295.434E-03     591.083E-03    -295.649E-03     28.2230E-03    -295.622E-03     590.966E-03    -295.655E-03     27.4342E-03
            1636     3.34853E-03     74.6637E-03    -65.2217E+06    -60.7762E+06    -44.9379E+06     1.41135E+06    -295.863E-03     591.500E-03    -295.636E-03     22.7529E-03    -296.038E-03     591.357E-03    -295.678E-03     22.3763E-03
            1637     2.67953E-03     74.6252E-03    -65.9361E+06    -64.5323E+06    -52.2192E+06     1.96351E+06    -295.887E-03     591.451E-03    -295.564E-03     17.9358E-03    -296.042E-03     591.295E-03    -295.636E-03     17.7442E-03
            1638     2.00966E-03     74.5969E-03    -70.5368E+06    -72.7412E+06    -64.1011E+06     173.543E+03    -295.653E-03     591.127E-03    -295.474E-03     13.7634E-03    -295.792E-03     590.946E-03    -295.586E-03     13.5341E-03
            1639     1.33931E-03     74.5783E-03    -70.9348E+06    -75.8717E+06    -69.8926E+06    -2.55348E+06    -295.315E-03     590.807E-03    -295.492E-03     9.60401E-03    -295.431E-03     590.608E-03    -295.628E-03     9.36394E-03
            1640     668.507E-06     74.5638E-03    -75.6535E+06    -81.6014E+06    -75.0148E+06    -3.11191E+06    -295.110E-03     591.167E-03    -296.057E-03     5.56026E-03    -295.189E-03     590.985E-03    -296.204E-03     5.33143E-03
            1641     12.7302E-03     74.2987E-03    -2.36792E+06     29.3819E+06     57.9132E+06     1.73279E+06    -296.846E-03     592.346E-03    -295.500E-03     78.9216E-03    -297.236E-03     592.664E-03    -295.250E-03     74.1183E-03
            1642     12.0569E-03     74.1538E-03    -6.02269E+06     25.2024E+06     52.4167E+06     1.27546E+06    -296.699E-03     592.229E-03    -295.530E-03     80.6141E-03    -297.148E-03     592.594E-03    -295.295E-03     75.0165E-03
            1643     11.3861E-03     74.0251E-03    -9.62786E+06     21.1736E+06     48.7496E+06    -702.396E+03    -297.274E-03     592.827E-03    -295.553E-03     77.3649E-03    -297.729E-03     593.181E-03    -295.326E-03     71.5748E-03
            1644     10.7191E-03     73.8939E-03    -12.8290E+06     18.1810E+06     46.7790E+06     139.732E+03    -297.404E-03     592.955E-03    -295.551E-03     75.1749E-03    -297.860E-03     593.295E-03    -295.325E-03     69.4900E-03
            1645     10.0499E-03     73.7725E-03    -17.5027E+06     13.5373E+06     43.2939E+06     1.42142E+06    -296.669E-03     592.225E-03    -295.556E-03     70.7645E-03    -297.094E-03     592.510E-03    -295.334E-03     65.6939E-03
            1646     9.37761E-03     73.6540E-03    -22.2894E+06     8.42127E+06     38.9366E+06     417.297E+03    -296.335E-03     591.914E-03    -295.579E-03     65.4786E-03    -296.713E-03     592.131E-03    -295.364E-03     61.2176E-03
            1647     8.70612E-03     73.5404E-03    -27.6367E+06     2.88985E+06     33.1491E+06    -445.059E+03    -296.397E-03     591.991E-03    -295.594E-03     61.0324E-03    -296.757E-03     592.167E-03    -295.392E-03     57.0877E-03
            1648     8.03740E-03     73.4373E-03    -32.1880E+06    -2.58250E+06     26.0896E+06     82.2146E+03    -295.902E-03     591.508E-03    -295.606E-03     56.4311E-03    -296.244E-03     591.651E-03    -295.426E-03     52.7101E-03
            1649     7.36596E-03     73.3463E-03    -36.5640E+06    -8.77385E+06     16.9439E+06     1.39098E+06    -295.459E-03     591.101E-03    -295.642E-03     52.0907E-03    -295.757E-03     591.189E-03    -295.492E-03     49.2908E-03
            1650     6.69588E-03     73.2567E-03    -40.9223E+06    -14.8794E+06     7.23672E+06     2.37265E+06    -295.379E-03     591.078E-03    -295.699E-03     47.4258E-03    -295.646E-03     591.126E-03    -295.582E-03     45.2779E-03
            1651     6.02647E-03     73.1825E-03    -44.9400E+06    -20.5490E+06    -1.71138E+06     2.49591E+06    -295.424E-03     591.186E-03    -295.762E-03     42.5902E-03    -295.672E-03     591.207E-03    -295.676E-03     40.7796E-03
            1652     5.35576E-03     73.1081E-03    -48.1970E+06    -31.5136E+06    -11.6810E+06     1.83101E+06    -295.666E-03     591.478E-03    -295.812E-03     37.7676E-03    -295.883E-03     591.446E-03    -295.755E-03     36.3679E-03
            1653     4.68636E-03     73.0499E-03    -51.0099E+06    -42.9022E+06    -22.6075E+06    -126.434E+03    -295.845E-03     591.676E-03    -295.831E-03     32.8401E-03    -296.029E-03     591.593E-03    -295.808E-03     31.7821E-03
            1654     4.01793E-03     72.9959E-03    -59.0970E+06    -53.0478E+06    -35.1891E+06    -628.990E+03    -296.016E-03     591.833E-03    -295.817E-03     28.4971E-03    -296.197E-03     591.717E-03    -295.830E-03     27.7685E-03
            1655     3.34773E-03     72.9489E-03    -64.4836E+06    -59.8434E+06    -43.1054E+06    -305.716E+03    -296.087E-03     591.865E-03    -295.778E-03     23.8257E-03    -296.264E-03     591.726E-03    -295.813E-03     23.2996E-03
            1656     2.67795E-03     72.9140E-03    -65.7725E+06    -63.5717E+06    -49.4044E+06     484.224E+03    -295.801E-03     591.537E-03    -295.737E-03     18.7958E-03    -295.962E-03     591.383E-03    -295.796E-03     18.4997E-03
            1657     2.00792E-03     72.8853E-03    -68.2124E+06    -68.5290E+06    -57.3282E+06     1.20886E+06    -295.574E-03     591.318E-03    -295.744E-03     13.9680E-03    -295.720E-03     591.146E-03    -295.832E-03     13.8150E-03
            1658     1.33912E-03     72.8649E-03    -72.7158E+06    -75.6322E+06    -66.4148E+06     1.54609E+06    -295.796E-03     591.541E-03    -295.745E-03     9.55154E-03    -295.927E-03     591.343E-03    -295.862E-03     9.42915E-03
            1659     670.424E-06     72.8534E-03    -76.7341E+06    -82.4874E+06     -74.266E+06     1.59606E+06    -295.878E-03     591.510E-03    -295.632E-03     5.61868E-03    -295.958E-03     591.323E-03    -295.773E-03     5.57799E-03
            1660     12.7260E-03     72.5857E-03    -3.22106E+06     28.4487E+06     56.6771E+06     581.249E+03    -297.395E-03     592.972E-03    -295.577E-03     78.4594E-03    -297.794E-03     593.297E-03    -295.331E-03     73.4960E-03
            1661     12.0576E-03     72.4468E-03    -5.22987E+06     26.0435E+06     53.8521E+06     1.03934E+06    -297.353E-03     592.937E-03    -295.584E-03     80.4151E-03    -297.814E-03     593.316E-03    -295.345E-03     74.5944E-03
            1662     11.3879E-03     72.3105E-03    -8.84425E+06     21.7895E+06     50.1386E+06     1.27881E+06    -297.221E-03     592.811E-03    -295.590E-03     76.2290E-03    -297.663E-03     593.154E-03    -295.358E-03     70.6297E-03
            1663     10.7157E-03     72.1826E-03    -13.4994E+06     17.3284E+06     46.1874E+06     519.606E+03    -297.021E-03     592.616E-03    -295.595E-03     73.8975E-03    -297.465E-03     592.940E-03    -295.370E-03     68.3751E-03
            1664     10.0454E-03     72.0579E-03    -16.6910E+06     13.8860E+06     43.7537E+06     880.191E+03    -297.204E-03     592.800E-03    -295.597E-03     71.2199E-03    -297.633E-03     593.093E-03    -295.374E-03     65.9810E-03
            1665     9.37869E-03     71.9421E-03    -21.4113E+06     8.56507E+06     38.6019E+06     2.36811E+06    -297.194E-03     592.766E-03    -295.572E-03     67.0164E-03    -297.576E-03     592.991E-03    -295.361E-03     62.6625E-03
            1666     8.71028E-03     71.8301E-03    -26.4677E+06     2.67143E+06     31.3803E+06     1.66165E+06    -296.079E-03     591.647E-03    -295.567E-03     62.1270E-03    -296.425E-03     591.817E-03    -295.376E-03     58.3859E-03
            1667     8.03779E-03     71.7284E-03    -31.2029E+06    -2.86070E+06     24.2495E+06    -384.318E+03    -295.423E-03     591.041E-03    -295.618E-03     57.1600E-03    -295.751E-03     591.177E-03    -295.447E-03     53.6177E-03
            1668     7.36822E-03     71.6350E-03    -36.1491E+06    -8.25620E+06     17.7617E+06     65.9045E+03    -295.578E-03     591.264E-03    -295.686E-03     52.2146E-03    -295.878E-03     591.356E-03    -295.533E-03     49.3356E-03
            1669     6.69722E-03     71.5479E-03    -41.0081E+06    -14.1796E+06     9.59890E+06     1.01461E+06    -295.518E-03     591.259E-03    -295.741E-03     46.7688E-03    -295.790E-03     591.307E-03    -295.613E-03     44.5966E-03
            1670     6.02627E-03     71.4686E-03    -46.1075E+06    -21.3439E+06    -1.63876E+06     128.606E+03    -295.518E-03     591.302E-03    -295.784E-03     41.9689E-03    -295.770E-03     591.319E-03    -295.694E-03     40.1750E-03
            1671     5.35693E-03     71.3985E-03    -49.4558E+06    -32.7103E+06    -12.2697E+06    -831.484E+03    -295.549E-03     591.380E-03    -295.831E-03     37.0210E-03    -295.771E-03     591.346E-03    -295.774E-03     35.4718E-03
            1672     4.68603E-03     71.3362E-03    -53.2795E+06    -44.2720E+06    -21.8775E+06     815.009E+03    -295.762E-03     591.632E-03    -295.870E-03     31.7196E-03    -295.955E-03     591.543E-03    -295.838E-03     30.7072E-03
            1673     4.01584E-03     71.2820E-03    -57.1498E+06    -51.1249E+06    -32.6190E+06     2.13722E+06    -295.858E-03     591.732E-03    -295.874E-03     27.2066E-03    -296.033E-03     591.617E-03    -295.880E-03     26.5745E-03
            1674     3.34670E-03     71.2371E-03    -60.3337E+06    -58.1573E+06    -44.2690E+06    -490.125E+03    -295.618E-03     591.506E-03    -295.888E-03     22.9375E-03    -295.777E-03     591.373E-03    -295.937E-03     22.2768E-03
            1675     2.67752E-03     71.1993E-03    -64.3395E+06    -64.9153E+06    -53.7805E+06    -854.492E+03    -295.715E-03     591.651E-03    -295.936E-03     18.1948E-03    -295.860E-03     591.494E-03    -296.018E-03     17.8314E-03
            1676     2.00878E-03     71.1732E-03    -66.5028E+06    -68.8534E+06    -59.4899E+06     310.803E+03    -295.862E-03     591.849E-03    -295.987E-03     13.7728E-03    -295.995E-03     591.676E-03    -296.089E-03     13.6325E-03
            1677     1.33812E-03     71.1516E-03    -71.6164E+06    -75.2176E+06    -66.3742E+06     978.025E+03    -296.078E-03     592.066E-03    -295.988E-03     9.81748E-03    -296.208E-03     591.872E-03    -296.107E-03     9.74833E-03
            1678     669.027E-06     71.1375E-03    -68.6079E+06    -74.9271E+06    -66.3842E+06     1.55020E+06    -296.119E-03     592.017E-03    -295.898E-03     5.65324E-03    -296.183E-03     591.844E-03    -296.022E-03     5.65066E-03
            1679     12.7272E-03     70.8728E-03    -3.68688E+06     27.6061E+06     55.8644E+06    -693.557E+03    -297.354E-03     592.925E-03    -295.572E-03     75.6626E-03    -297.745E-03     593.240E-03    -295.327E-03     70.6474E-03
            1680     12.0567E-03     70.7332E-03    -7.34403E+06     23.8674E+06     52.1912E+06    -43.7712E+03    -297.375E-03     592.946E-03    -295.570E-03     79.1901E-03    -297.836E-03     593.314E-03    -295.333E-03     73.3598E-03
            1681     11.3871E-03     70.5987E-03    -9.22316E+06     21.2365E+06     49.7767E+06     1.55528E+06    -297.155E-03     592.732E-03    -295.577E-03     76.5240E-03    -297.600E-03     593.075E-03    -295.345E-03     70.9221E-03
            1682     10.7188E-03     70.4729E-03    -12.6510E+06     17.3146E+06     45.7180E+06     1.90652E+06    -296.894E-03     592.478E-03    -295.584E-03     72.8981E-03    -297.317E-03     592.785E-03    -295.362E-03     67.6218E-03
            1683     10.0486E-03     70.3469E-03    -17.3261E+06     12.7462E+06     41.7596E+06     1.49141E+06    -296.404E-03     592.015E-03    -295.611E-03     70.5179E-03    -296.816E-03     592.290E-03    -295.396E-03     65.5366E-03
            1684     9.37621E-03     70.2273E-03    -20.6305E+06     9.21155E+06     39.2588E+06     1.78005E+06    -296.139E-03     591.802E-03    -295.664E-03     67.6410E-03    -296.529E-03     592.039E-03    -295.451E-03     63.0714E-03
            1685     8.70517E-03     70.1189E-03    -23.9872E+06     5.54854E+06     35.5866E+06     1.66311E+06    -295.917E-03     591.644E-03    -295.726E-03     63.3613E-03    -296.268E-03     591.826E-03    -295.522E-03     59.5210E-03
            1686     8.03617E-03     70.0192E-03    -29.6384E+06    -676.087E+03     28.0699E+06     1.12220E+06    -296.059E-03     591.835E-03    -295.776E-03     58.9144E-03    -296.379E-03     591.966E-03    -295.592E-03     55.7554E-03
            1687     7.36522E-03     69.9213E-03    -34.8507E+06    -6.97765E+06     19.1260E+06     473.490E+03    -296.472E-03     592.257E-03    -295.786E-03     53.5358E-03    -296.772E-03     592.353E-03    -295.629E-03     50.6908E-03
            1688     6.69645E-03     69.8370E-03    -38.2496E+06    -12.0352E+06     10.5007E+06    -1.20434E+06    -296.297E-03     592.062E-03    -295.765E-03     47.5242E-03    -296.568E-03     592.124E-03    -295.640E-03     45.0800E-03
            1689     6.02691E-03     69.7572E-03    -43.6623E+06    -19.6330E+06    -1.24200E+06    -1.01764E+06    -295.870E-03     591.620E-03    -295.750E-03     42.1551E-03    -296.111E-03     591.640E-03    -295.664E-03     40.4392E-03
            1690     5.35635E-03     69.6862E-03    -50.3759E+06    -34.1414E+06    -14.2677E+06    -250.652E+03    -295.806E-03     591.561E-03    -295.755E-03     36.9774E-03    -296.024E-03     591.520E-03    -295.704E-03     35.6084E-03
            1691     4.68764E-03     69.6240E-03    -55.8768E+06    -47.7660E+06    -25.9348E+06     827.918E+03    -295.711E-03     591.478E-03    -295.767E-03     32.0113E-03    -295.908E-03     591.382E-03    -295.746E-03     30.9356E-03
            1692     4.01834E-03     69.5695E-03    -58.4331E+06    -53.4664E+06    -35.8090E+06     1.70071E+06    -295.468E-03     591.263E-03    -295.795E-03     27.1446E-03    -295.642E-03     591.144E-03    -295.812E-03     26.5099E-03
            1693     3.34796E-03     69.5249E-03    -60.2868E+06    -58.2643E+06    -44.5625E+06     2.24345E+06    -295.458E-03     591.316E-03    -295.859E-03     22.6044E-03    -295.612E-03     591.179E-03    -295.910E-03     22.2049E-03
            1694     2.67716E-03     69.4874E-03    -64.5257E+06    -65.1259E+06    -54.3806E+06     1.60600E+06    -295.676E-03     591.599E-03    -295.923E-03     17.6036E-03    -295.819E-03     591.440E-03    -296.007E-03     17.3842E-03
            1695     2.00673E-03     69.4584E-03    -66.9888E+06    -70.0783E+06    -61.8534E+06     364.291E+03    -296.047E-03     591.976E-03    -295.929E-03     12.7439E-03    -296.177E-03     591.800E-03    -296.039E-03     12.5978E-03
            1696     1.33899E-03     69.4379E-03    -67.3705E+06    -72.3622E+06    -65.6383E+06    -418.347E+03    -296.059E-03     591.927E-03    -295.868E-03     8.71120E-03    -296.176E-03     591.743E-03    -295.994E-03     8.57268E-03
            1697     669.322E-06     69.4234E-03    -70.2964E+06    -76.8521E+06    -69.4024E+06    -1.51642E+06    -295.836E-03     591.721E-03    -295.885E-03     4.30849E-03    -295.907E-03     591.548E-03    -296.019E-03     4.12475E-03
            1698     12.7288E-03     69.1607E-03    -2.66118E+06     28.0325E+06     56.1249E+06     816.978E+03    -297.303E-03     592.822E-03    -295.519E-03     77.0043E-03    -297.687E-03     593.134E-03    -295.275E-03     72.0766E-03
            1699     12.0588E-03     69.0241E-03    -6.74990E+06     23.0377E+06     50.5315E+06     469.036E+03    -296.845E-03     592.372E-03    -295.527E-03     78.8076E-03    -297.289E-03     592.727E-03    -295.298E-03     73.1268E-03
            1700     11.3873E-03     68.8878E-03    -10.6462E+06     18.9583E+06     46.3443E+06    -352.752E+03    -296.449E-03     592.015E-03    -295.565E-03     77.4475E-03    -296.902E-03     592.362E-03    -295.346E-03     71.7244E-03
            1701     10.7165E-03     68.7577E-03    -13.2972E+06     16.5166E+06     44.6080E+06     731.230E+03    -296.692E-03     592.306E-03    -295.613E-03     74.5429E-03    -297.126E-03     592.621E-03    -295.395E-03     69.1608E-03
            1702     10.0466E-03     68.6385E-03    -16.2699E+06     13.8499E+06     43.3551E+06     1.56895E+06    -296.385E-03     592.049E-03    -295.664E-03     71.5359E-03    -296.794E-03     592.323E-03    -295.444E-03     66.6646E-03
            1703     9.37637E-03     68.5184E-03    -20.3324E+06     9.73680E+06     40.8984E+06     799.215E+03    -295.769E-03     591.506E-03    -295.737E-03     66.7354E-03    -296.160E-03     591.741E-03    -295.518E-03     62.1219E-03
            1704     8.70542E-03     68.4092E-03    -24.7825E+06     5.15347E+06     36.2811E+06     616.165E+03    -295.792E-03     591.606E-03    -295.813E-03     60.8095E-03    -296.153E-03     591.791E-03    -295.603E-03     56.7234E-03
            1705     8.03412E-03     68.3051E-03    -28.7156E+06     294.793E+03     29.1676E+06     1.72110E+06    -296.278E-03     592.129E-03    -295.851E-03     56.3064E-03    -296.589E-03     592.254E-03    -295.664E-03     53.2326E-03
            1706     7.36591E-03     68.2090E-03    -33.3246E+06    -6.03982E+06     18.8612E+06     740.731E+03    -296.445E-03     592.287E-03    -295.842E-03     51.9561E-03    -296.733E-03     592.381E-03    -295.691E-03     49.1764E-03
            1707     6.69616E-03     68.1217E-03    -39.1515E+06    -14.0691E+06     6.23354E+06    -1.44430E+06    -296.439E-03     592.244E-03    -295.806E-03     47.2909E-03    -296.710E-03     592.309E-03    -295.697E-03     44.6631E-03
            1708     6.02682E-03     68.0460E-03    -44.4244E+06    -21.3422E+06    -4.52068E+06     1.02543E+06    -296.257E-03     592.028E-03    -295.771E-03     42.6217E-03    -296.495E-03     592.046E-03    -295.698E-03     40.9122E-03
            1709     5.35761E-03     67.9734E-03    -49.6647E+06    -34.5291E+06    -16.0786E+06     2.99776E+06    -295.868E-03     591.629E-03    -295.761E-03     37.8537E-03    -296.075E-03     591.584E-03    -295.720E-03     36.7368E-03
            1710     4.68708E-03     67.9117E-03    -52.5317E+06    -45.8155E+06    -26.1089E+06     317.614E+03    -295.723E-03     591.501E-03    -295.778E-03     33.2931E-03    -295.906E-03     591.411E-03    -295.766E-03     32.2000E-03
            1711     4.01641E-03     67.8585E-03    -54.4875E+06    -49.4884E+06    -31.9562E+06     571.821E+03    -295.943E-03     591.733E-03    -295.789E-03     28.0101E-03    -296.110E-03     591.623E-03    -295.798E-03     27.3195E-03
            1712     3.34671E-03     67.8123E-03     -60.273E+06    -57.0088E+06    -41.7688E+06     1.91612E+06    -296.187E-03     591.918E-03    -295.731E-03     22.0640E-03    -296.345E-03     591.781E-03    -295.770E-03     21.7046E-03
            1713     2.67842E-03     67.7741E-03    -64.5220E+06    -63.7179E+06    -51.3424E+06     938.822E+03    -296.026E-03     591.647E-03    -295.621E-03     16.6378E-03    -296.177E-03     591.492E-03    -295.692E-03     16.2871E-03
            1714     2.01003E-03     67.7453E-03    -67.2082E+06    -68.1811E+06    -57.5268E+06     301.154E+03    -295.791E-03     591.304E-03    -295.513E-03     12.3776E-03    -295.933E-03     591.135E-03    -295.605E-03     12.0441E-03
            1715     1.33941E-03     67.7237E-03    -70.4332E+06    -72.8963E+06    -63.5140E+06     346.042E+03    -295.626E-03     591.024E-03    -295.397E-03     8.22102E-03    -295.761E-03     590.838E-03    -295.507E-03     8.02038E-03
            1716     670.069E-06     67.7130E-03    -71.7429E+06    -78.1187E+06    -69.6589E+06     247.219E+03    -295.467E-03     590.709E-03    -295.242E-03     5.07812E-03    -295.544E-03     590.533E-03    -295.373E-03     4.90580E-03
            1717     12.7270E-03     67.4454E-03    -2.93457E+06     26.8301E+06     55.0296E+06     775.381E+03    -297.269E-03     592.808E-03    -295.539E-03     78.4796E-03    -297.657E-03     593.121E-03    -295.298E-03     73.5112E-03
            1718     12.0577E-03     67.3139E-03    -5.74850E+06     23.5386E+06     51.3729E+06     876.491E+03    -297.036E-03     592.589E-03    -295.553E-03     79.2281E-03    -297.476E-03     592.943E-03    -295.322E-03     73.5841E-03
            1719     11.3876E-03     67.1789E-03    -8.69218E+06     20.4956E+06     48.5380E+06     637.315E+03    -296.351E-03     591.947E-03    -295.596E-03     78.1681E-03    -296.806E-03     592.304E-03    -295.371E-03     72.3943E-03
            1720     10.7162E-03     67.0488E-03    -12.5657E+06     16.8988E+06     46.1471E+06     112.821E+03    -296.431E-03     592.088E-03    -295.657E-03     73.7348E-03    -296.862E-03     592.401E-03    -295.433E-03     68.3322E-03
            1721     10.0456E-03     66.9246E-03    -16.6798E+06     13.2996E+06     44.1150E+06     347.754E+03    -296.662E-03     592.363E-03    -295.702E-03     69.5352E-03    -297.074E-03     592.636E-03    -295.476E-03     64.4825E-03
            1722     9.37615E-03     66.8075E-03    -20.9505E+06     9.10211E+06     40.2082E+06     856.359E+03    -296.429E-03     592.159E-03    -295.730E-03     65.9186E-03    -296.819E-03     592.390E-03    -295.512E-03     61.3130E-03
            1723     8.70662E-03     66.6976E-03    -25.4727E+06     4.01299E+06     33.7753E+06     483.777E+03    -296.452E-03     592.198E-03    -295.746E-03     61.4405E-03    -296.810E-03     592.382E-03    -295.546E-03     57.3907E-03
            1724     8.03770E-03     66.5942E-03    -30.6377E+06    -2.58268E+06     24.0385E+06     1.12761E+06    -296.287E-03     592.031E-03    -295.744E-03     56.2229E-03    -296.597E-03     592.154E-03    -295.576E-03     53.1035E-03
            1725     7.36595E-03     66.4963E-03    -35.1194E+06    -9.11723E+06     13.2888E+06     598.567E+03    -295.737E-03     591.495E-03    -295.758E-03     51.3781E-03    -296.015E-03     591.578E-03    -295.628E-03     48.7437E-03
            1726     6.69556E-03     66.4107E-03    -39.1961E+06    -14.8662E+06     4.32012E+06     417.112E+03    -295.847E-03     591.639E-03    -295.792E-03     46.7040E-03    -296.107E-03     591.694E-03    -295.692E-03     44.3400E-03
            1727     6.02565E-03     66.3310E-03    -43.1486E+06    -20.3746E+06    -3.88500E+06     1.58157E+06    -296.142E-03     591.943E-03    -295.800E-03     41.7697E-03    -296.377E-03     591.963E-03    -295.728E-03     39.9643E-03
            1728     5.35569E-03     66.2624E-03    -45.7243E+06     -30.912E+06    -12.8067E+06     768.118E+03    -296.033E-03     591.825E-03    -295.791E-03     36.9447E-03    -296.235E-03     591.792E-03    -295.744E-03     35.5682E-03
            1729     4.68594E-03     66.1996E-03    -49.7902E+06    -42.1180E+06    -20.8503E+06     803.508E+03    -296.220E-03     591.988E-03    -295.768E-03     31.8641E-03    -296.401E-03     591.904E-03    -295.739E-03     30.7873E-03
            1730     4.01756E-03     66.1442E-03    -56.3194E+06    -49.7158E+06    -29.8316E+06     1.21471E+06    -296.499E-03     592.173E-03    -295.674E-03     26.5070E-03    -296.677E-03     592.061E-03    -295.669E-03     25.7515E-03
            1731     3.34968E-03     66.0973E-03    -59.4005E+06    -55.2466E+06    -38.3732E+06     511.168E+03    -296.196E-03     591.726E-03    -295.530E-03     21.8653E-03    -296.359E-03     591.593E-03    -295.555E-03     21.3595E-03
            1732     2.68004E-03     66.0617E-03    -58.5111E+06    -57.4400E+06    -44.0071E+06     770.666E+03    -295.650E-03     591.075E-03    -295.425E-03     17.9548E-03    -295.793E-03     590.934E-03    -295.477E-03     17.5085E-03
            1733     2.00924E-03     66.0340E-03    -63.2511E+06    -65.2990E+06    -55.0283E+06     380.769E+03    -295.284E-03     590.680E-03    -295.396E-03     14.4122E-03    -295.416E-03     590.517E-03    -295.485E-03     14.0972E-03
            1734     1.34022E-03     66.0128E-03    -69.1102E+06    -72.9187E+06    -64.4515E+06    -549.760E+03    -295.387E-03     590.801E-03    -295.414E-03     10.0356E-03    -295.512E-03     590.614E-03    -295.530E-03     9.85907E-03
            1735     669.830E-06     66.0022E-03    -71.6049E+06    -78.8803E+06    -70.4477E+06    -546.776E+03    -295.441E-03     590.905E-03    -295.464E-03     5.42203E-03    -295.515E-03     590.726E-03    -295.598E-03     5.38406E-03
            1736     12.7276E-03     65.7346E-03    -2.70662E+06     26.4771E+06     55.4046E+06     18.1121E+03    -297.034E-03     592.610E-03    -295.575E-03     77.9864E-03    -297.420E-03     592.919E-03    -295.333E-03     73.0005E-03
            1737     12.0565E-03     65.6019E-03    -5.98895E+06     23.6117E+06     52.5072E+06    -21.0152E+03    -297.253E-03     592.845E-03    -295.592E-03     77.9636E-03    -297.690E-03     593.192E-03    -295.355E-03     72.3081E-03
            1738     11.3863E-03     65.4679E-03    -9.24635E+06     20.5921E+06     50.1038E+06     307.153E+03    -297.292E-03     592.891E-03    -295.599E-03     76.4901E-03    -297.749E-03     593.243E-03    -295.365E-03     70.6270E-03
            1739     10.7171E-03     65.3374E-03    -12.4382E+06     17.3036E+06     47.2159E+06     949.704E+03    -296.738E-03     592.350E-03    -295.611E-03     73.1970E-03    -297.177E-03     592.669E-03    -295.382E-03     67.6680E-03
            1740     10.0478E-03     65.2126E-03    -16.5619E+06     12.9457E+06     42.7144E+06     1.25826E+06    -296.380E-03     592.019E-03    -295.639E-03     69.2820E-03    -296.792E-03     592.294E-03    -295.420E-03     64.1868E-03
            1741     9.37664E-03     65.0979E-03    -21.1260E+06     8.04686E+06     37.1951E+06     1.01687E+06    -296.219E-03     591.892E-03    -295.673E-03     65.4771E-03    -296.597E-03     592.115E-03    -295.468E-03     61.0180E-03
            1742     8.70605E-03     64.9838E-03    -25.5568E+06     3.07348E+06     30.9094E+06     716.508E+03    -296.422E-03     592.119E-03    -295.697E-03     62.0961E-03    -296.766E-03     592.293E-03    -295.510E-03     58.2957E-03
            1743     8.03610E-03     64.8811E-03    -29.2523E+06    -1.63794E+06     24.0505E+06    -68.8178E+03    -296.465E-03     592.164E-03    -295.700E-03     57.1042E-03    -296.776E-03     592.297E-03    -295.535E-03     53.7971E-03
            1744     7.36732E-03     64.7875E-03    -33.4418E+06    -7.30125E+06     15.6181E+06     366.065E+03    -296.150E-03     591.845E-03    -295.695E-03     51.7682E-03    -296.429E-03     591.934E-03    -295.558E-03     49.0759E-03
            1745     6.69684E-03     64.6986E-03    -37.4468E+06    -12.9009E+06     7.03822E+06     1.33265E+06    -296.109E-03     591.799E-03    -295.690E-03     46.1786E-03    -296.361E-03     591.852E-03    -295.582E-03     43.9945E-03
            1746     6.02709E-03     64.6188E-03    -41.6664E+06    -18.6869E+06    -1.56788E+06    -659.864E+03    -296.070E-03     591.742E-03    -295.672E-03     40.2760E-03    -296.304E-03     591.766E-03    -295.592E-03     38.3523E-03
            1747     5.35763E-03     64.5496E-03    -46.3890E+06    -30.5193E+06    -10.0687E+06    -418.746E+03    -296.184E-03     591.824E-03    -295.639E-03     35.6296E-03    -296.394E-03     591.790E-03    -295.578E-03     34.1639E-03
            1748     4.68887E-03     64.4853E-03    -52.7422E+06    -44.5945E+06    -21.6036E+06     2.39461E+06    -296.296E-03     591.857E-03    -295.561E-03     31.5584E-03    -296.485E-03     591.764E-03    -295.528E-03     30.5707E-03
            1749     4.01943E-03     64.4305E-03    -56.8486E+06    -51.7982E+06    -33.2771E+06     278.498E+03    -295.790E-03     591.263E-03    -295.473E-03     27.2845E-03    -295.963E-03     591.147E-03    -295.482E-03     26.4535E-03
            1750     3.34834E-03     64.3863E-03    -57.5252E+06    -55.0907E+06    -39.7192E+06    -1.42691E+06    -295.179E-03     590.657E-03    -295.478E-03     23.0525E-03    -295.334E-03     590.528E-03    -295.514E-03     22.3655E-03
            1751     2.67792E-03     64.3505E-03    -60.3832E+06    -60.0470E+06    -46.9793E+06     380.091E+03    -295.178E-03     590.732E-03    -295.554E-03     18.6719E-03    -295.321E-03     590.584E-03    -295.614E-03     18.2352E-03
            1752     2.00872E-03     64.3225E-03    -62.1767E+06    -64.6219E+06    -54.4954E+06     1.19519E+06    -295.434E-03     591.058E-03    -295.624E-03     13.9023E-03    -295.561E-03     590.894E-03    -295.713E-03     13.6829E-03
            1753     1.33764E-03     64.3017E-03    -65.5865E+06    -69.9272E+06    -61.8473E+06     1.14025E+06    -295.603E-03     591.270E-03    -295.667E-03     9.50242E-03    -295.719E-03     591.089E-03    -295.780E-03     9.38809E-03
            1754     669.335E-06     64.2861E-03    -69.2883E+06    -76.5126E+06    -67.3804E+06     815.781E+03    -295.819E-03     591.428E-03    -295.609E-03     4.15204E-03    -295.891E-03     591.252E-03    -295.735E-03     4.22173E-03
            1755     12.7269E-03     64.0252E-03    -3.26988E+06     26.2465E+06     55.5987E+06    -315.885E+03    -297.340E-03     592.902E-03    -295.562E-03     77.1701E-03    -297.731E-03     593.213E-03    -295.317E-03     72.0976E-03
            1756     12.0573E-03     63.8896E-03    -5.83409E+06     23.6976E+06     52.4879E+06     134.031E+03    -297.432E-03     592.991E-03    -295.559E-03     77.5618E-03    -297.868E-03     593.338E-03    -295.322E-03     71.9069E-03
            1757     11.3889E-03     63.7541E-03    -9.55849E+06     19.6562E+06     47.6873E+06     207.122E+03    -297.258E-03     592.807E-03    -295.549E-03     76.4229E-03    -297.711E-03     593.158E-03    -295.326E-03     70.5797E-03
            1758     10.7185E-03     63.6277E-03    -13.4048E+06     15.4159E+06     42.9645E+06     297.861E+03    -296.622E-03     592.181E-03    -295.559E-03     74.2243E-03    -297.066E-03     592.508E-03    -295.347E-03     68.5638E-03
            1759     10.0466E-03     63.5020E-03    -16.3906E+06     12.4794E+06     40.5593E+06     715.787E+03    -296.471E-03     592.067E-03    -295.596E-03     70.5164E-03    -296.878E-03     592.342E-03    -295.388E-03     65.5003E-03
            1760     9.37746E-03     63.3859E-03    -19.1249E+06     9.75311E+06     38.1073E+06     468.830E+03    -296.533E-03     592.160E-03    -295.627E-03     65.6605E-03    -296.902E-03     592.385E-03    -295.423E-03     61.2310E-03
            1761     8.70716E-03     63.2750E-03    -23.1941E+06     5.29135E+06     33.0086E+06     538.229E+03    -296.276E-03     591.923E-03    -295.647E-03     61.6595E-03    -296.613E-03     592.101E-03    -295.456E-03     57.8608E-03
            1762     8.03678E-03     63.1675E-03    -27.5917E+06     305.593E+03     26.9199E+06    -265.235E+03    -296.403E-03     592.059E-03    -295.656E-03     56.2513E-03    -296.716E-03     592.197E-03    -295.481E-03     52.8208E-03
            1763     7.36646E-03     63.0751E-03    -31.9374E+06    -4.85171E+06     20.2205E+06     715.111E+03    -296.759E-03     592.382E-03    -295.623E-03     51.0765E-03    -297.044E-03     592.478E-03    -295.469E-03     48.2372E-03
            1764     6.69807E-03     62.9847E-03    -37.0596E+06    -11.5827E+06     10.4134E+06     1.05292E+06    -296.464E-03     592.020E-03    -295.556E-03     46.3160E-03    -296.720E-03     592.073E-03    -295.434E-03     44.0867E-03
            1765     6.02873E-03     62.9077E-03    -43.1530E+06    -19.9119E+06    -1.70420E+06     562.486E+03    -296.037E-03     591.532E-03    -295.495E-03     41.1324E-03    -296.274E-03     591.551E-03    -295.412E-03     39.2925E-03
            1766     5.35880E-03     62.8367E-03    -49.2645E+06    -34.5510E+06    -15.1285E+06     2.09544E+06    -295.846E-03     591.298E-03    -295.452E-03     36.9290E-03    -296.053E-03     591.251E-03    -295.406E-03     35.7107E-03
            1767     4.68863E-03     62.7733E-03    -52.0815E+06    -45.8067E+06    -25.2072E+06     785.814E+03    -295.470E-03     590.912E-03    -295.442E-03     32.9225E-03    -295.649E-03     590.816E-03    -295.426E-03     31.9590E-03
            1768     4.01817E-03     62.7200E-03    -53.4011E+06    -49.3076E+06    -31.8386E+06    -1.12175E+06    -295.198E-03     590.675E-03    -295.477E-03     28.0415E-03    -295.361E-03     590.566E-03    -295.488E-03     27.1280E-03
            1769     3.34861E-03     62.6759E-03    -57.4372E+06    -56.3059E+06    -42.3092E+06    -963.929E+03    -295.320E-03     590.836E-03    -295.515E-03     22.6853E-03    -295.471E-03     590.705E-03    -295.562E-03     21.9039E-03
            1770     2.67855E-03     62.6393E-03    -62.1620E+06     -63.659E+06    -52.6803E+06    -417.154E+03    -295.536E-03     591.060E-03    -295.524E-03     17.5243E-03    -295.675E-03     590.905E-03    -295.605E-03     17.0720E-03
            1771     2.00851E-03     62.6087E-03    -65.4542E+06    -67.9303E+06    -57.8458E+06    -213.029E+03    -295.751E-03     591.232E-03    -295.481E-03     12.7802E-03    -295.884E-03     591.060E-03    -295.576E-03     12.4993E-03
            1772     1.34080E-03     62.5894E-03    -66.1217E+06    -69.4595E+06    -60.2075E+06     413.208E+03    -295.591E-03     590.979E-03    -295.388E-03     8.57093E-03    -295.713E-03     590.798E-03    -295.492E-03     8.35969E-03
            1773     669.672E-06     62.5742E-03    -65.5418E+06    -72.6661E+06    -63.0779E+06     233.063E+03    -295.122E-03     590.720E-03    -295.599E-03     4.39379E-03    -295.187E-03     590.549E-03    -295.714E-03     4.33903E-03
            1774     12.7283E-03     62.3115E-03    -3.24274E+06     25.9617E+06     54.1031E+06     75.1375E+03    -297.436E-03     592.955E-03    -295.520E-03     77.3460E-03    -297.830E-03     593.274E-03    -295.282E-03     72.1798E-03
            1775     12.0588E-03     62.1786E-03    -6.49182E+06     22.1043E+06     48.5347E+06     126.986E+03    -296.879E-03     592.399E-03    -295.520E-03     78.5070E-03    -297.316E-03     592.751E-03    -295.300E-03     72.8045E-03
            1776     11.3867E-03     62.0428E-03    -9.10551E+06     19.0083E+06     44.5620E+06     121.909E+03    -296.579E-03     592.130E-03    -295.552E-03     77.7494E-03    -297.023E-03     592.481E-03    -295.343E-03     72.0178E-03
            1777     10.7164E-03     61.9166E-03    -12.0046E+06     16.2159E+06     42.1514E+06    -67.7501E+03    -296.987E-03     592.571E-03    -295.584E-03     74.7156E-03    -297.423E-03     592.900E-03    -295.380E-03     69.0995E-03
            1778     10.0477E-03     61.7912E-03    -15.5296E+06     13.1532E+06     40.4605E+06    -835.725E+03    -297.154E-03     592.748E-03    -295.594E-03     70.8318E-03    -297.571E-03     593.039E-03    -295.388E-03     65.5591E-03
            1779     9.37700E-03     61.6730E-03    -19.1650E+06     9.82892E+06     38.2598E+06    -963.383E+03    -297.283E-03     592.859E-03    -295.576E-03     65.7007E-03    -297.667E-03     593.099E-03    -295.371E-03     60.9896E-03
            1780     8.70796E-03     61.5629E-03    -22.6674E+06     6.18744E+06     34.8300E+06     207.010E+03    -296.920E-03     592.461E-03    -295.541E-03     60.6665E-03    -297.263E-03     592.644E-03    -295.343E-03     56.6851E-03
            1781     8.03802E-03     61.4574E-03    -28.3686E+06    -306.103E+03     27.1278E+06     1.16711E+06    -296.257E-03     591.771E-03    -295.514E-03     56.0332E-03    -296.567E-03     591.900E-03    -295.336E-03     52.7474E-03
            1782     7.36922E-03     61.3604E-03    -33.9226E+06    -7.21444E+06     17.4434E+06     1.06565E+06    -296.210E-03     591.700E-03    -295.490E-03     51.2725E-03    -296.492E-03     591.786E-03    -295.343E-03     48.5433E-03
            1783     6.69884E-03     61.2740E-03    -38.1915E+06    -13.2160E+06     8.20322E+06     1.26284E+06    -295.752E-03     591.229E-03    -295.477E-03     46.7821E-03    -296.011E-03     591.281E-03    -295.361E-03     44.5027E-03
            1784     6.02832E-03     61.1954E-03    -42.5461E+06    -19.6330E+06    -1.63370E+06     2.32365E+06    -295.370E-03     590.866E-03    -295.496E-03     42.9226E-03    -295.606E-03     590.886E-03    -295.414E-03     41.1895E-03
            1785     5.35868E-03     61.1254E-03    -45.6670E+06    -31.3288E+06    -12.7748E+06     1.63357E+06    -295.614E-03     591.134E-03    -295.520E-03     38.6884E-03    -295.812E-03     591.096E-03    -295.472E-03     37.5132E-03
            1786     4.68836E-03     61.0636E-03    -48.9859E+06    -43.4227E+06    -24.0769E+06    -145.105E+03    -295.456E-03     590.995E-03    -295.538E-03     33.4699E-03    -295.627E-03     590.907E-03    -295.525E-03     32.4186E-03
            1787     4.01827E-03     61.0086E-03    -53.5083E+06    -50.2918E+06    -33.9134E+06    -452.791E+03    -295.185E-03     590.774E-03    -295.590E-03     28.4301E-03    -295.344E-03     590.663E-03    -295.609E-03     27.5799E-03
            1788     3.34827E-03     60.9636E-03    -57.5652E+06    -55.7476E+06    -41.0298E+06    -128.648E+03    -295.526E-03     591.176E-03    -295.651E-03     24.0804E-03    -295.675E-03     591.043E-03    -295.692E-03     23.6092E-03
            1789     2.67963E-03     60.9260E-03    -61.2111E+06    -61.1404E+06     -48.236E+06     283.886E+03    -295.844E-03     591.490E-03    -295.646E-03     19.6288E-03    -295.987E-03     591.338E-03    -295.710E-03     19.3694E-03
            1790     2.01029E-03     60.8985E-03    -64.3963E+06    -67.4710E+06    -57.5277E+06     29.7982E+03    -295.749E-03     591.337E-03    -295.588E-03     15.2492E-03    -295.878E-03     591.166E-03    -295.685E-03     15.0354E-03
            1791     1.33909E-03     60.8753E-03    -66.4905E+06    -71.1116E+06    -62.7653E+06    -1.11386E+06    -295.664E-03     591.202E-03    -295.538E-03     10.4343E-03    -295.781E-03     591.017E-03    -295.653E-03     10.2165E-03
            1792     670.358E-06     60.8677E-03    -66.8639E+06    -75.1280E+06    -66.9889E+06    -859.237E+03    -295.283E-03     591.093E-03    -295.810E-03     6.05705E-03    -295.347E-03     590.910E-03    -295.939E-03     5.90861E-03
            1793     12.7281E-03     60.6015E-03    -2.82168E+06     25.4468E+06     51.4480E+06     107.406E+03    -296.703E-03     592.221E-03    -295.519E-03     78.7983E-03    -297.090E-03     592.540E-03    -295.294E-03     73.7328E-03
            1794     12.0570E-03     60.4666E-03    -5.28352E+06     22.8682E+06     48.1449E+06    -48.4573E+03    -296.990E-03     592.539E-03    -295.549E-03     78.7915E-03    -297.419E-03     592.891E-03    -295.334E-03     73.1242E-03
            1795     11.3871E-03     60.3364E-03    -8.50653E+06     19.7859E+06     45.5705E+06    -35.2728E+03    -297.064E-03     592.636E-03    -295.571E-03     76.7268E-03    -297.505E-03     592.985E-03    -295.360E-03     70.9688E-03
            1796     10.7170E-03     60.2007E-03    -11.7892E+06     16.7404E+06     43.3482E+06    -316.887E+03    -297.094E-03     592.678E-03    -295.584E-03     73.6172E-03    -297.527E-03     593.004E-03    -295.375E-03     68.0244E-03
            1797     10.0471E-03     60.0801E-03    -15.2239E+06     13.6200E+06     41.2271E+06    -457.973E+03    -297.388E-03     592.965E-03    -295.577E-03     70.7318E-03    -297.809E-03     593.261E-03    -295.369E-03     65.4069E-03
            1798     9.37853E-03     59.9589E-03    -20.1731E+06     8.81450E+06     37.2822E+06    -61.7227E+03    -297.495E-03     593.034E-03    -295.539E-03     66.7051E-03    -297.883E-03     593.274E-03    -295.336E-03     62.0141E-03
            1799     8.70970E-03     59.8491E-03    -25.3551E+06     3.25042E+06     31.5149E+06     337.110E+03    -296.964E-03     592.453E-03    -295.489E-03     61.8825E-03    -297.314E-03     592.634E-03    -295.300E-03     57.8749E-03
            1800     8.04013E-03     59.7480E-03    -28.2893E+06    -871.930E+03     25.2517E+06     899.473E+03    -296.054E-03     591.527E-03    -295.473E-03     58.4144E-03    -296.364E-03     591.660E-03    -295.305E-03     55.1776E-03
            1801     7.36825E-03     59.6490E-03    -32.5464E+06    -6.78534E+06     16.2074E+06     1.05671E+06    -295.375E-03     590.883E-03    -295.508E-03     53.9348E-03    -295.648E-03     590.970E-03    -295.370E-03     51.3901E-03
            1802     6.69829E-03     59.5635E-03    -37.9095E+06    -13.9073E+06     5.82717E+06     1.31996E+06    -295.250E-03     590.823E-03    -295.573E-03     48.5334E-03    -295.502E-03     590.875E-03    -295.469E-03     46.3883E-03
            1803     6.02732E-03     59.4869E-03    -41.3547E+06    -19.0467E+06    -2.44821E+06     895.029E+03    -295.446E-03     591.084E-03    -295.638E-03     43.8039E-03    -295.675E-03     591.106E-03    -295.563E-03     42.1177E-03
            1804     5.35600E-03     59.4128E-03    -45.2448E+06    -30.4412E+06    -11.3510E+06     206.996E+03    -295.649E-03     591.338E-03    -295.689E-03     38.6285E-03    -295.850E-03     591.303E-03    -295.636E-03     37.3826E-03
            1805     4.68731E-03     59.3502E-03    -48.8772E+06    -42.1500E+06    -20.9249E+06     735.063E+03    -295.647E-03     591.368E-03    -295.721E-03     33.3151E-03    -295.825E-03     591.283E-03    -295.693E-03     32.2251E-03
            1806     4.01738E-03     59.2989E-03    -51.3003E+06    -47.1242E+06    -29.1395E+06     1.56614E+06    -295.387E-03     591.156E-03    -295.769E-03     28.5954E-03    -295.547E-03     591.051E-03    -295.772E-03     27.7130E-03
            1807     3.34671E-03     59.2514E-03    -55.5884E+06    -53.9999E+06    -39.3209E+06     1.15002E+06    -295.201E-03     591.069E-03    -295.868E-03     23.9625E-03    -295.345E-03     590.938E-03    -295.906E-03     23.5199E-03
            1808     2.67578E-03     59.2129E-03    -62.0015E+06    -62.8555E+06    -50.9014E+06    -1.08671E+06    -295.424E-03     591.426E-03    -296.002E-03     19.4037E-03    -295.564E-03     591.271E-03    -296.076E-03     19.0639E-03
            1809     2.00642E-03     59.1844E-03    -64.5468E+06    -67.2912E+06    -56.7853E+06    -796.225E+03    -295.742E-03     591.890E-03    -296.149E-03     15.0857E-03    -295.873E-03     591.720E-03    -296.242E-03     14.8025E-03
            1810     1.33809E-03     59.1642E-03    -65.8485E+06    -70.3105E+06    -61.6181E+06     501.056E+03    -296.056E-03     592.334E-03    -296.278E-03     10.3244E-03    -296.171E-03     592.150E-03    -296.389E-03     10.1502E-03
            1811     668.387E-06     59.1501E-03    -70.1104E+06    -77.2456E+06    -67.9896E+06     199.529E+03    -296.418E-03     592.728E-03    -296.309E-03     5.82172E-03    -296.495E-03     592.535E-03    -296.435E-03     5.64937E-03
            1812     12.7263E-03     58.8906E-03    -2.64777E+06     25.5316E+06     51.2555E+06    -97.6114E+03    -296.778E-03     592.311E-03    -295.533E-03     78.1107E-03    -297.159E-03     592.625E-03    -295.310E-03     73.1121E-03
            1813     12.0566E-03     58.7558E-03    -5.24696E+06     23.3902E+06     49.3418E+06     93.6911E+03    -297.475E-03     593.026E-03    -295.552E-03     77.5695E-03    -297.902E-03     593.375E-03    -295.331E-03     71.9258E-03
            1814     11.3881E-03     58.6197E-03    -8.59824E+06     20.1248E+06     46.5105E+06     68.9543E+03    -297.538E-03     593.079E-03    -295.541E-03     76.3166E-03    -297.985E-03     593.432E-03    -295.325E-03     70.4726E-03
            1815     10.7184E-03     58.4942E-03    -12.5477E+06     16.0598E+06     42.9475E+06    -249.386E+03    -296.885E-03     592.425E-03    -295.540E-03     73.8577E-03    -297.311E-03     592.739E-03    -295.331E-03     68.4380E-03
            1816     10.0477E-03     58.3651E-03    -16.4231E+06     12.3463E+06     40.1742E+06     299.253E+03    -296.522E-03     592.091E-03    -295.569E-03     71.4064E-03    -296.925E-03     592.363E-03    -295.362E-03     66.4844E-03
            1817     9.37767E-03     58.2470E-03    -19.9920E+06     8.68819E+06     36.8170E+06     996.864E+03    -296.272E-03     591.884E-03    -295.612E-03     68.1559E-03    -296.646E-03     592.110E-03    -295.411E-03     63.8055E-03
            1818     8.70671E-03     58.1369E-03    -24.0696E+06     4.02947E+06     31.1510E+06     448.906E+03    -296.365E-03     592.011E-03    -295.646E-03     64.1729E-03    -296.706E-03     592.191E-03    -295.461E-03     60.3850E-03
            1819     8.03632E-03     58.0362E-03    -28.3379E+06    -1.25621E+06     24.0704E+06     194.555E+03    -296.338E-03     592.001E-03    -295.663E-03     59.5529E-03    -296.652E-03     592.140E-03    -295.499E-03     56.2225E-03
            1820     7.36695E-03     57.9403E-03    -32.6922E+06    -7.20482E+06     15.4349E+06     488.843E+03    -295.478E-03     591.180E-03    -295.703E-03     54.3455E-03    -295.764E-03     591.280E-03    -295.568E-03     51.4816E-03
            1821     6.69500E-03     57.8532E-03    -36.9630E+06    -13.2332E+06     6.00614E+06     774.949E+03    -295.668E-03     591.430E-03    -295.762E-03     48.7335E-03    -295.916E-03     591.483E-03    -295.659E-03     46.6431E-03
            1822     6.02608E-03     57.7727E-03    -41.0949E+06    -19.1172E+06    -3.21556E+06     481.340E+03    -296.251E-03     592.028E-03    -295.777E-03     43.2987E-03    -296.478E-03     592.050E-03    -295.705E-03     41.5652E-03
            1823     5.35802E-03     57.7020E-03    -43.7879E+06    -29.7106E+06    -11.5612E+06    -364.788E+03    -295.613E-03     591.410E-03    -295.797E-03     38.3718E-03    -295.815E-03     591.384E-03    -295.748E-03     36.8279E-03
            1824     4.68626E-03     57.6388E-03    -48.7155E+06    -41.8475E+06    -20.1621E+06    -544.988E+03    -295.409E-03     591.281E-03    -295.872E-03     33.4211E-03    -295.587E-03     591.196E-03    -295.841E-03     32.3451E-03
            1825     4.01670E-03     57.5851E-03    -54.4307E+06    -48.9290E+06    -29.0749E+06     1.24856E+06    -295.956E-03     591.871E-03    -295.914E-03     28.3387E-03    -296.129E-03     591.761E-03    -295.910E-03     27.4677E-03
            1826     3.34782E-03     57.5402E-03    -55.8908E+06    -53.5011E+06    -37.6334E+06     2.62255E+06    -295.916E-03     591.821E-03    -295.906E-03     23.0891E-03    -296.067E-03     591.694E-03    -295.935E-03     22.4931E-03
            1827     2.67827E-03     57.5013E-03    -58.5509E+06    -60.2716E+06    -48.9623E+06     1.63806E+06    -295.612E-03     591.538E-03    -295.925E-03     17.5464E-03    -295.743E-03     591.389E-03    -295.998E-03     17.1887E-03
            1828     2.00781E-03     57.4704E-03    -63.3406E+06    -67.7408E+06    -59.1284E+06     44.9055E+03    -295.697E-03     591.701E-03    -296.004E-03     12.3590E-03    -295.818E-03     591.529E-03    -296.109E-03     12.0773E-03
            1829     1.33768E-03     57.4484E-03    -65.5871E+06    -70.5615E+06    -62.5314E+06    -242.412E+03    -295.890E-03     592.012E-03    -296.122E-03     8.29018E-03    -295.999E-03     591.825E-03    -296.237E-03     8.04160E-03
            1830     669.163E-06     57.4348E-03    -67.8394E+06    -75.1249E+06    -65.2938E+06     770.955E+03    -296.369E-03     592.430E-03    -296.060E-03     4.42936E-03    -296.441E-03     592.238E-03    -296.179E-03     4.31724E-03
            1831     12.7289E-03     57.1795E-03    -2.96117E+06     25.7195E+06     52.1564E+06     132.647E+03    -297.283E-03     592.798E-03    -295.515E-03     78.2449E-03    -297.676E-03     593.121E-03    -295.287E-03     73.1269E-03
            1832     12.0590E-03     57.0436E-03    -6.70082E+06     21.7409E+06     47.4424E+06     524.253E+03    -296.672E-03     592.206E-03    -295.534E-03     79.0948E-03    -297.106E-03     592.556E-03    -295.319E-03     73.4825E-03
            1833     11.3876E-03     56.9089E-03    -9.44706E+06     18.7156E+06     44.1555E+06     88.0033E+03    -296.649E-03     592.228E-03    -295.579E-03     78.7953E-03    -297.089E-03     592.572E-03    -295.371E-03     73.1959E-03
            1834     10.7176E-03     56.7808E-03    -12.1716E+06     16.1469E+06     42.1640E+06     126.092E+03    -297.028E-03     592.647E-03    -295.619E-03     76.4453E-03    -297.448E-03     592.958E-03    -295.414E-03     71.2224E-03
            1835     10.0476E-03     56.6568E-03    -15.6764E+06     12.7383E+06     39.6354E+06    -213.502E+03    -296.494E-03     592.154E-03    -295.660E-03     73.0072E-03    -296.900E-03     592.435E-03    -295.457E-03     68.0409E-03
            1836     9.37534E-03     56.5374E-03    -19.4163E+06     8.75416E+06     35.7567E+06    -191.740E+03    -295.861E-03     591.586E-03    -295.725E-03     67.7222E-03    -296.237E-03     591.821E-03    -295.531E-03     63.2045E-03
            1837     8.70436E-03     56.4268E-03    -22.9574E+06     4.83929E+06     31.3003E+06     691.765E+03    -296.029E-03     591.825E-03    -295.796E-03     62.3477E-03    -296.364E-03     592.004E-03    -295.613E-03     58.5534E-03
            1838     8.03528E-03     56.3203E-03    -27.5915E+06    -612.903E+03     24.7151E+06     487.049E+03    -296.197E-03     592.036E-03    -295.840E-03     57.3911E-03    -296.510E-03     592.177E-03    -295.675E-03     53.9437E-03
            1839     7.36516E-03     56.2307E-03    -32.0634E+06    -6.32233E+06     17.0201E+06     149.511E+03    -296.297E-03     592.155E-03    -295.858E-03     52.9600E-03    -296.589E-03     592.261E-03    -295.717E-03     49.8685E-03
            1840     6.69619E-03     56.1410E-03    -36.1015E+06    -12.0159E+06     8.19518E+06     852.828E+03    -296.323E-03     592.179E-03    -295.856E-03     48.3228E-03    -296.575E-03     592.236E-03    -295.745E-03     46.1526E-03
            1841     6.02634E-03     56.0580E-03    -40.9580E+06    -18.9562E+06    -2.53295E+06     303.402E+03    -296.033E-03     591.883E-03    -295.850E-03     42.8923E-03    -296.265E-03     591.910E-03    -295.776E-03     40.9659E-03
            1842     5.35513E-03     55.9909E-03    -45.0004E+06    -31.0658E+06    -12.7554E+06    -186.050E+03    -295.658E-03     591.538E-03    -295.880E-03     38.0143E-03    -295.867E-03     591.514E-03    -295.834E-03     36.2026E-03
            1843     4.68611E-03     55.9275E-03    -49.6615E+06    -44.1479E+06    -23.9347E+06     45.1376E+03    -295.655E-03     591.588E-03    -295.932E-03     33.4744E-03    -295.830E-03     591.499E-03    -295.916E-03     32.4303E-03
            1844     4.01612E-03     55.8710E-03    -52.7232E+06    -49.5541E+06    -32.6723E+06    -104.072E+03    -296.069E-03     592.023E-03    -295.955E-03     28.2249E-03    -296.225E-03     591.911E-03    -295.970E-03     27.5211E-03
            1845     3.34700E-03     55.8253E-03    -56.7328E+06    -54.9730E+06    -39.7710E+06     562.284E+03    -296.392E-03     592.302E-03    -295.910E-03     23.6672E-03    -296.543E-03     592.173E-03    -295.947E-03     23.0002E-03
            1846     2.67830E-03     55.7882E-03    -60.8714E+06    -60.4148E+06    -46.5104E+06     2.07571E+06    -296.356E-03     592.154E-03    -295.799E-03     19.2735E-03    -296.502E-03     592.005E-03    -295.855E-03     18.9102E-03
            1847     2.00987E-03     55.7579E-03    -60.6282E+06    -62.9843E+06    -51.8637E+06     3.13829E+06    -295.978E-03     591.654E-03    -295.676E-03     14.1188E-03    -296.101E-03     591.491E-03    -295.756E-03     14.0248E-03
            1848     1.34055E-03     55.7367E-03    -62.1678E+06    -67.3657E+06    -59.0483E+06     2.31988E+06    -295.731E-03     591.315E-03    -295.585E-03     9.63241E-03    -295.831E-03     591.133E-03    -295.692E-03     9.53416E-03
            1849     669.750E-06     55.7216E-03    -64.7716E+06    -72.4737E+06    -63.6546E+06     1.21144E+06    -295.704E-03     591.171E-03    -295.468E-03     5.25542E-03    -295.767E-03     590.984E-03    -295.587E-03     5.21792E-03
            1850     12.7275E-03     55.4674E-03    -2.94385E+06     25.3875E+06     51.3285E+06     235.239E+03    -296.212E-03     591.776E-03    -295.563E-03     80.3707E-03    -296.603E-03     592.097E-03    -295.339E-03     75.3729E-03
            1851     12.0561E-03     55.3349E-03    -5.39116E+06     22.6457E+06     47.7052E+06    -22.0313E+03    -296.255E-03     591.892E-03    -295.637E-03     81.1968E-03    -296.683E-03     592.243E-03    -295.424E-03     75.6832E-03
            1852     11.3847E-03     55.2002E-03    -8.61600E+06     19.2490E+06     43.9766E+06     298.006E+03    -296.582E-03     592.289E-03    -295.707E-03     79.3865E-03    -297.017E-03     592.634E-03    -295.503E-03     73.8357E-03
            1853     10.7136E-03     55.0674E-03    -12.3790E+06     15.3752E+06     39.9625E+06     580.181E+03    -297.075E-03     592.824E-03    -295.749E-03     75.7805E-03    -297.504E-03     593.147E-03    -295.553E-03     70.3347E-03
            1854     10.0440E-03     54.9435E-03    -15.6925E+06     12.2163E+06     37.5146E+06    -433.899E+03    -297.346E-03     593.106E-03    -295.761E-03     71.3279E-03    -297.761E-03     593.401E-03    -295.568E-03     66.0170E-03
            1855     9.37600E-03     54.8272E-03     -19.221E+06     8.86528E+06     35.2404E+06    -532.083E+03    -296.872E-03     592.638E-03    -295.766E-03     66.7210E-03    -297.261E-03     592.888E-03    -295.575E-03     61.8475E-03
            1856     8.70698E-03     54.7137E-03    -23.5139E+06     4.06325E+06     30.5396E+06     528.435E+03    -295.877E-03     591.681E-03    -295.804E-03     61.9321E-03    -296.224E-03     591.870E-03    -295.623E-03     57.8647E-03
            1857     8.03503E-03     54.6124E-03    -27.6759E+06    -1.27641E+06     23.5820E+06     177.861E+03    -295.632E-03     591.506E-03    -295.875E-03     57.3826E-03    -295.942E-03     591.645E-03    -295.715E-03     53.9719E-03
            1858     7.36486E-03     54.5149E-03    -31.8659E+06    -6.66046E+06     15.9191E+06     583.742E+03    -296.365E-03     592.283E-03    -295.919E-03     53.0349E-03    -296.646E-03     592.381E-03    -295.783E-03     50.1789E-03
            1859     6.69581E-03     54.4275E-03    -35.8190E+06    -11.9165E+06     8.45266E+06    -150.403E+03    -296.187E-03     592.122E-03    -295.935E-03     49.0608E-03    -296.446E-03     592.187E-03    -295.824E-03     46.6454E-03
            1860     6.02550E-03     54.3478E-03    -39.4806E+06    -17.3842E+06    -119.089E+03     57.7326E+03    -295.781E-03     591.752E-03    -295.971E-03     44.2679E-03    -296.015E-03     591.784E-03    -295.889E-03     42.3142E-03
            1861     5.35659E-03     54.2773E-03    -45.3079E+06    -31.5787E+06    -13.3155E+06     869.188E+03    -296.382E-03     592.360E-03    -295.978E-03     38.3905E-03    -296.587E-03     592.331E-03    -295.933E-03     36.7498E-03
            1862     4.68630E-03     54.2156E-03    -49.0759E+06    -43.8564E+06    -24.0020E+06     957.107E+03    -296.366E-03     592.307E-03    -295.941E-03     33.1873E-03    -296.541E-03     592.222E-03    -295.927E-03     32.0141E-03
            1863     4.01694E-03     54.1573E-03    -50.6831E+06    -47.4623E+06    -30.2323E+06     1.61316E+06    -295.714E-03     591.664E-03    -295.950E-03     28.1257E-03    -295.866E-03     591.555E-03    -295.958E-03     27.4708E-03
            1864     3.34686E-03     54.1126E-03    -55.8722E+06    -54.8268E+06    -40.2749E+06     1.04944E+06    -295.768E-03     591.764E-03    -295.996E-03     23.7418E-03    -295.913E-03     591.633E-03    -296.037E-03     23.1927E-03
            1865     2.67723E-03     54.0726E-03    -59.5924E+06    -60.5822E+06    -48.6056E+06    -327.116E+03    -296.037E-03     592.057E-03    -296.020E-03     19.7249E-03    -296.174E-03     591.908E-03    -296.089E-03     19.2917E-03
            1866     2.00759E-03     54.0449E-03    -60.9926E+06    -63.3476E+06    -52.5376E+06    -597.999E+03    -296.084E-03     592.104E-03    -296.020E-03     15.4027E-03    -296.209E-03     591.942E-03    -296.103E-03     15.1338E-03
            1867     1.33806E-03     54.0237E-03    -61.5482E+06    -65.1762E+06    -55.2610E+06     1.09550E+06    -296.139E-03     592.123E-03    -295.985E-03     11.3956E-03    -296.247E-03     591.949E-03    -296.077E-03     11.2615E-03
            1868     670.058E-06     54.0093E-03    -62.7806E+06    -69.6437E+06    -60.4479E+06     928.907E+03    -296.003E-03     591.949E-03    -295.946E-03     6.17760E-03    -296.067E-03     591.769E-03    -296.056E-03     6.06672E-03
            1869     12.7250E-03     53.7621E-03    -2.58243E+06     25.4529E+06     50.9015E+06     59.5408E+03    -296.070E-03     591.710E-03    -295.640E-03     79.4423E-03    -296.459E-03     592.033E-03    -295.419E-03     74.3729E-03
            1870     12.0537E-03     53.6221E-03    -5.52786E+06     22.5338E+06     47.2624E+06     22.2897E+03    -296.949E-03     592.645E-03    -295.695E-03     78.2933E-03    -297.374E-03     592.993E-03    -295.484E-03     72.6666E-03
            1871     11.3851E-03     53.4886E-03    -8.56125E+06     19.2976E+06     43.6338E+06     203.226E+03    -297.102E-03     592.821E-03    -295.719E-03     76.3620E-03    -297.542E-03     593.173E-03    -295.517E-03     70.5317E-03
            1872     10.7160E-03     53.3561E-03    -11.2842E+06     16.3345E+06     40.7385E+06     519.447E+03    -296.730E-03     592.479E-03    -295.749E-03     74.0179E-03    -297.159E-03     592.807E-03    -295.552E-03     68.4257E-03
            1873     10.0460E-03     53.2302E-03    -15.1337E+06     12.6435E+06     38.0144E+06     1.33527E+06    -296.654E-03     592.445E-03    -295.791E-03     70.7973E-03    -297.055E-03     592.727E-03    -295.598E-03     65.7471E-03
            1874     9.37592E-03     53.1123E-03    -19.8043E+06     8.07676E+06     34.2021E+06     542.947E+03    -296.410E-03     592.249E-03    -295.838E-03     67.8255E-03    -296.796E-03     592.493E-03    -295.650E-03     63.1184E-03
            1875     8.70477E-03     53.0048E-03    -23.8422E+06     3.36330E+06     29.4337E+06    -665.050E+03    -296.084E-03     591.982E-03    -295.897E-03     64.3092E-03    -296.448E-03     592.187E-03    -295.720E-03     59.9747E-03
            1876     8.03495E-03     52.9014E-03    -27.9145E+06    -1.88210E+06     22.9612E+06     142.440E+03    -296.139E-03     592.095E-03    -295.956E-03     59.4183E-03    -296.455E-03     592.239E-03    -295.798E-03     55.9975E-03
            1877     7.36489E-03     52.8023E-03    -31.9301E+06    -7.47232E+06     14.3022E+06     505.287E+03    -296.067E-03     592.070E-03    -296.003E-03     53.9858E-03    -296.338E-03     592.160E-03    -295.874E-03     51.3588E-03
            1878     6.69397E-03     52.7155E-03    -36.0147E+06    -13.7300E+06     4.13505E+06    -363.796E+03    -295.950E-03     591.997E-03    -296.046E-03     48.7450E-03    -296.204E-03     592.062E-03    -295.953E-03     46.2086E-03
            1879     6.02376E-03     52.6361E-03    -40.1484E+06    -19.6370E+06    -4.65298E+06    -533.984E+03    -296.078E-03     592.169E-03    -296.091E-03     43.9214E-03    -296.305E-03     592.197E-03    -296.027E-03     42.0049E-03
            1880     5.35351E-03     52.5614E-03    -43.1342E+06    -29.6475E+06    -11.5497E+06    -443.947E+03    -296.405E-03     592.524E-03    -296.119E-03     39.0602E-03    -296.601E-03     592.495E-03    -296.071E-03     37.6039E-03
            1881     4.68664E-03     52.4996E-03    -46.1432E+06    -39.7543E+06    -18.2064E+06     1.65529E+06    -296.320E-03     592.446E-03    -296.126E-03     34.5823E-03    -296.498E-03     592.372E-03    -296.092E-03     33.2853E-03
            1882     4.01672E-03     52.4476E-03    -53.2089E+06    -48.5950E+06    -29.5460E+06     2.57922E+06    -295.940E-03     592.082E-03    -296.142E-03     30.3213E-03    -296.106E-03     591.972E-03    -296.142E-03     29.6114E-03
            1883     3.34662E-03     52.3986E-03    -55.1279E+06    -53.1583E+06    -37.6125E+06     1.19578E+06    -295.908E-03     592.106E-03    -296.198E-03     25.0760E-03    -296.054E-03     591.977E-03    -296.229E-03     24.6757E-03
            1884     2.67677E-03     52.3606E-03    -55.7534E+06    -56.8708E+06    -45.0222E+06     745.209E+03    -295.918E-03     592.192E-03    -296.274E-03     19.4160E-03    -296.045E-03     592.051E-03    -296.336E-03     19.0371E-03
            1885     2.00695E-03     52.3304E-03    -60.2464E+06    -64.3614E+06    -55.9508E+06    -488.200E+03    -296.131E-03     592.477E-03    -296.346E-03     14.4191E-03    -296.247E-03     592.315E-03    -296.445E-03     14.0914E-03
            1886     1.33810E-03     52.3085E-03    -61.2631E+06    -67.3374E+06    -60.5796E+06    -1.90158E+06    -296.374E-03     592.777E-03    -296.403E-03     9.87037E-03    -296.471E-03     592.599E-03    -296.520E-03     9.63414E-03
            1887     667.858E-06     52.2941E-03    -61.2456E+06    -70.3118E+06    -61.3968E+06    -2.39320E+06    -296.610E-03     592.934E-03    -296.324E-03     5.29522E-03    -296.663E-03     592.748E-03    -296.440E-03     5.09874E-03
            1888     12.7264E-03     52.0481E-03    -2.45926E+06     25.4127E+06     50.2960E+06     215.442E+03    -297.265E-03     592.867E-03    -295.602E-03     77.7682E-03    -297.655E-03     593.193E-03    -295.384E-03     72.5937E-03
            1889     12.0582E-03     51.9124E-03    -5.75718E+06     22.0815E+06     46.1681E+06     356.826E+03    -297.043E-03     592.657E-03    -295.615E-03     78.0679E-03    -297.474E-03     593.012E-03    -295.408E-03     72.3507E-03
            1890     11.3871E-03     51.7751E-03    -8.63457E+06     19.0810E+06     43.3916E+06    -185.952E+03    -296.405E-03     592.062E-03    -295.657E-03     77.1164E-03    -296.847E-03     592.415E-03    -295.456E-03     71.3254E-03
            1891     10.7160E-03     51.6469E-03    -11.5604E+06     16.3157E+06     41.6441E+06     421.263E+03    -295.716E-03     591.464E-03    -295.748E-03     76.0834E-03    -296.153E-03     591.797E-03    -295.547E-03     70.5391E-03
            1892     10.0443E-03     51.5191E-03    -14.9102E+06     12.9053E+06     39.3497E+06     1.46394E+06    -295.384E-03     591.261E-03    -295.877E-03     73.0802E-03    -295.794E-03     591.550E-03    -295.678E-03     68.0732E-03
            1893     9.37255E-03     51.4031E-03    -18.5248E+06     9.05186E+06     35.2942E+06     1.13638E+06    -295.889E-03     591.885E-03    -295.996E-03     68.2695E-03    -296.262E-03     592.122E-03    -295.806E-03     63.7922E-03
            1894     8.70239E-03     51.2918E-03    -22.8177E+06     4.13282E+06     29.6688E+06     359.381E+03    -296.722E-03     592.781E-03    -296.059E-03     63.4960E-03    -297.072E-03     592.978E-03    -295.883E-03     59.3364E-03
            1895     8.03304E-03     51.1868E-03    -27.1813E+06    -1.62710E+06     22.4429E+06     390.384E+03    -296.625E-03     592.705E-03    -296.079E-03     58.6734E-03    -296.940E-03     592.852E-03    -295.925E-03     55.1230E-03
            1896     7.36310E-03     51.0916E-03    -31.4325E+06    -7.62036E+06     13.3565E+06     113.941E+03    -296.189E-03     592.295E-03    -296.107E-03     53.7801E-03    -296.460E-03     592.389E-03    -295.983E-03     51.0262E-03
            1897     6.69374E-03     51.0016E-03    -35.5454E+06    -13.5805E+06     4.16465E+06     924.281E+03    -296.313E-03     592.452E-03    -296.140E-03     48.5307E-03    -296.560E-03     592.513E-03    -296.048E-03     46.1352E-03
            1898     6.02486E-03     50.9229E-03    -40.1349E+06    -19.9309E+06    -4.98794E+06     138.794E+03    -296.060E-03     592.236E-03    -296.176E-03     43.7122E-03    -296.287E-03     592.264E-03    -296.113E-03     41.7309E-03
            1899     5.35555E-03     50.8489E-03    -43.6126E+06    -30.7254E+06    -13.0253E+06    -986.525E+03    -295.444E-03     591.721E-03    -296.276E-03     39.4361E-03    -295.640E-03     591.690E-03    -296.234E-03     37.9920E-03
            1900     4.68247E-03     50.7866E-03    -48.0213E+06    -42.4242E+06    -21.5337E+06    -71.1327E+03    -295.903E-03     592.302E-03    -296.399E-03     34.4199E-03    -296.079E-03     592.220E-03    -296.376E-03     33.1641E-03
            1901     4.01326E-03     50.7323E-03    -51.6012E+06    -47.9053E+06    -29.9344E+06     86.2651E+03    -296.607E-03     593.044E-03    -296.437E-03     29.5408E-03    -296.769E-03     592.940E-03    -296.443E-03     28.5836E-03
            1902     3.34493E-03     50.6840E-03    -54.2767E+06    -52.9736E+06    -37.8480E+06     128.286E+03    -296.560E-03     592.979E-03    -296.419E-03     24.5096E-03    -296.705E-03     592.853E-03    -296.453E-03     23.9236E-03
            1903     2.67624E-03     50.6458E-03    -56.2107E+06    -57.2138E+06    -44.4330E+06     454.335E+03    -296.505E-03     592.903E-03    -296.398E-03     19.2126E-03    -296.636E-03     592.760E-03    -296.456E-03     18.7456E-03
            1904     2.00753E-03     50.6159E-03    -57.4542E+06    -60.5557E+06    -50.4169E+06     1.26944E+06    -296.559E-03     592.910E-03    -296.351E-03     14.3036E-03    -296.672E-03     592.753E-03    -296.432E-03     14.0357E-03
            1905     1.33826E-03     50.5926E-03    -60.9334E+06    -66.4579E+06    -58.3009E+06     1.22644E+06    -296.474E-03     592.737E-03    -296.263E-03     9.39946E-03    -296.572E-03     592.557E-03    -296.370E-03     9.25121E-03
            1906     670.239E-06     50.5803E-03    -62.3869E+06    -72.0842E+06    -62.7771E+06     456.098E+03    -296.280E-03     592.506E-03    -296.226E-03     5.23230E-03    -296.331E-03     592.316E-03    -296.345E-03     5.15542E-03
            1907     12.7286E-03     50.3408E-03    -2.60283E+06     24.9435E+06     49.2824E+06     156.479E+03    -296.826E-03     592.405E-03    -295.579E-03     79.5087E-03    -297.211E-03     592.727E-03    -295.365E-03     74.5289E-03
            1908     12.0561E-03     50.1980E-03    -5.15378E+06     22.5907E+06     46.6916E+06    -138.717E+03    -296.218E-03     591.862E-03    -295.643E-03     82.0003E-03    -296.667E-03     592.237E-03    -295.435E-03     76.2210E-03
            1909     11.3859E-03     50.0688E-03    -8.34570E+06     19.4160E+06     43.9914E+06     368.897E+03    -296.188E-03     591.919E-03    -295.731E-03     79.4542E-03    -296.636E-03     592.279E-03    -295.528E-03     73.7318E-03
            1910     10.7140E-03     49.9362E-03    -12.2019E+06     15.5280E+06     40.5227E+06     467.216E+03    -295.941E-03     591.766E-03    -295.825E-03     76.1274E-03    -296.384E-03     592.104E-03    -295.628E-03     70.4986E-03
            1911     10.0428E-03     49.8122E-03    -15.5632E+06     11.7598E+06     37.7379E+06     126.551E+03    -295.705E-03     591.640E-03    -295.934E-03     71.3037E-03    -296.123E-03     591.934E-03    -295.740E-03     66.0128E-03
            1912     9.37228E-03     49.6905E-03    -18.4509E+06     8.87408E+06     35.1915E+06     962.400E+03    -296.082E-03     592.118E-03    -296.036E-03     66.6288E-03    -296.451E-03     592.351E-03    -295.846E-03     62.1366E-03
            1913     8.70329E-03     49.5772E-03    -21.8382E+06     4.94290E+06     30.2283E+06     1.13663E+06    -296.449E-03     592.549E-03    -296.100E-03     62.0425E-03    -296.781E-03     592.734E-03    -295.925E-03     58.1221E-03
            1914     8.03338E-03     49.4748E-03    -25.8623E+06    -722.905E+03     22.7622E+06     447.017E+03    -296.353E-03     592.494E-03    -296.142E-03     57.9410E-03    -296.663E-03     592.644E-03    -295.989E-03     54.3167E-03
            1915     7.36342E-03     49.3784E-03    -30.3437E+06    -6.37747E+06     15.2347E+06     753.955E+03    -296.287E-03     592.474E-03    -296.187E-03     53.7641E-03    -296.566E-03     592.578E-03    -296.058E-03     50.8167E-03
            1916     6.69322E-03     49.2885E-03    -34.9906E+06    -12.1833E+06     7.58894E+06     1.44729E+06    -296.066E-03     592.311E-03    -296.245E-03     49.0039E-03    -296.315E-03     592.370E-03    -296.138E-03     46.7403E-03
            1917     6.02308E-03     49.2079E-03    -39.2361E+06    -18.1465E+06    -1.31629E+06     711.017E+03    -295.804E-03     592.125E-03    -296.321E-03     44.2287E-03    -296.037E-03     592.158E-03    -296.244E-03     42.1757E-03
            1918     5.35170E-03     49.1398E-03    -43.8093E+06    -30.9970E+06    -13.3933E+06     1.07783E+06    -295.994E-03     592.396E-03    -296.401E-03     39.2167E-03    -296.191E-03     592.366E-03    -296.360E-03     37.7624E-03
            1919     4.68396E-03     49.0716E-03    -48.3079E+06    -44.1801E+06    -25.6865E+06     333.999E+03    -296.517E-03     592.957E-03    -296.440E-03     33.1976E-03    -296.681E-03     592.867E-03    -296.434E-03     32.1820E-03
            1920     4.01531E-03     49.0160E-03    -50.8538E+06    -48.7186E+06    -32.8086E+06    -1.51956E+06    -296.719E-03     593.148E-03    -296.428E-03     27.7729E-03    -296.873E-03     593.043E-03    -296.448E-03     26.6986E-03
            1921     3.34573E-03     48.9692E-03    -53.7060E+06    -53.5121E+06    -39.4823E+06    -1.20964E+06    -296.487E-03     592.895E-03    -296.408E-03     23.3552E-03    -296.629E-03     592.771E-03    -296.450E-03     22.5421E-03
            1922     2.67626E-03     48.9302E-03    -56.7262E+06    -58.7393E+06    -46.6074E+06    -812.508E+03    -296.392E-03     592.800E-03    -296.407E-03     19.1020E-03    -296.520E-03     592.654E-03    -296.473E-03     18.5633E-03
            1923     2.00739E-03     48.8997E-03    -58.6682E+06    -62.1863E+06    -51.3895E+06     37.2224E+03    -296.467E-03     592.877E-03    -296.410E-03     14.8967E-03    -296.580E-03     592.712E-03    -296.492E-03     14.5626E-03
            1924     1.33868E-03     48.8787E-03    -60.9491E+06    -65.5199E+06    -55.4181E+06     886.202E+03    -296.387E-03     592.807E-03    -296.420E-03     10.3995E-03    -296.491E-03     592.627E-03    -296.514E-03     10.2543E-03
            1925     668.608E-06     48.8648E-03    -61.6449E+06    -69.1783E+06    -58.5668E+06     1.79516E+06    -296.248E-03     592.927E-03    -296.678E-03     6.40354E-03    -296.306E-03     592.748E-03    -296.782E-03     6.34072E-03
            1926     12.7249E-03     48.6323E-03    -2.90284E+06     24.7520E+06     49.7189E+06    -87.6479E+03    -296.045E-03     591.692E-03    -295.647E-03     78.4489E-03    -296.427E-03     592.008E-03    -295.430E-03     73.5062E-03
            1927     12.0541E-03     48.4899E-03    -5.44254E+06     22.4046E+06     46.6951E+06     243.959E+03    -295.905E-03     591.644E-03    -295.739E-03     81.1065E-03    -296.358E-03     592.022E-03    -295.530E-03     75.2271E-03
            1928     11.3825E-03     48.3562E-03    -8.65496E+06     18.8187E+06     42.6149E+06     876.457E+03    -296.718E-03     592.531E-03    -295.813E-03     77.8375E-03    -297.161E-03     592.887E-03    -295.615E-03     72.0551E-03
            1929     10.7142E-03     48.2244E-03    -11.3664E+06     15.6019E+06     39.6513E+06    -94.1587E+03    -297.020E-03     592.875E-03    -295.855E-03     74.5394E-03    -297.452E-03     593.207E-03    -295.663E-03     68.8606E-03
            1930     10.0451E-03     48.1010E-03    -14.4213E+06     12.4227E+06     37.5799E+06     36.3214E+03    -296.543E-03     592.445E-03    -295.902E-03     71.0489E-03    -296.952E-03     592.738E-03    -295.711E-03     65.7587E-03
            1931     9.37491E-03     47.9798E-03    -18.4273E+06     8.37175E+06     33.9193E+06     548.821E+03    -295.944E-03     591.920E-03    -295.977E-03     67.5272E-03    -296.314E-03     592.156E-03    -295.793E-03     63.0273E-03
            1932     8.70287E-03     47.8662E-03    -21.9103E+06     4.24228E+06     29.7656E+06     74.3165E+03    -295.604E-03     591.688E-03    -296.084E-03     62.7792E-03    -295.934E-03     591.870E-03    -295.910E-03     58.9348E-03
            1933     8.03215E-03     47.7620E-03    -26.2323E+06    -758.288E+03     24.1378E+06     963.978E+03    -295.874E-03     592.065E-03    -296.191E-03     58.4407E-03    -296.185E-03     592.210E-03    -296.031E-03     54.9243E-03
            1934     7.36233E-03     47.6650E-03    -30.8893E+06    -6.43780E+06     16.4693E+06     1.45067E+06    -296.061E-03     592.334E-03    -296.273E-03     54.2909E-03    -296.347E-03     592.440E-03    -296.137E-03     51.3076E-03
            1935     6.69266E-03     47.5760E-03    -35.0622E+06    -12.4460E+06     7.07224E+06     1.21973E+06    -296.015E-03     592.359E-03    -296.344E-03     49.0099E-03    -296.267E-03     592.422E-03    -296.240E-03     46.6335E-03
            1936     6.02184E-03     47.4971E-03    -38.3803E+06    -17.9328E+06    -2.23077E+06     1.10110E+06    -296.361E-03     592.757E-03    -296.395E-03     43.1807E-03    -296.587E-03     592.789E-03    -296.325E-03     41.1702E-03
            1937     5.35408E-03     47.4223E-03    -42.6808E+06    -29.8413E+06    -12.3500E+06     1.29180E+06    -296.804E-03     593.207E-03    -296.403E-03     38.3129E-03    -296.998E-03     593.180E-03    -296.359E-03     36.8324E-03
            1938     4.68445E-03     47.3569E-03    -46.3279E+06    -41.3982E+06    -21.9037E+06     1.53556E+06    -296.542E-03     592.936E-03    -296.394E-03     33.8798E-03    -296.708E-03     592.854E-03    -296.376E-03     32.8201E-03
            1939     4.01475E-03     47.3009E-03    -49.7717E+06    -47.5145E+06    -31.3408E+06     459.425E+03    -296.220E-03     592.634E-03    -296.414E-03     29.3743E-03    -296.371E-03     592.531E-03    -296.430E-03     28.4255E-03
            1940     3.34593E-03     47.2548E-03    -53.8850E+06    -53.7517E+06    -40.1759E+06    -852.657E+03    -296.330E-03     592.785E-03    -296.455E-03     24.9237E-03    -296.471E-03     592.661E-03    -296.500E-03     24.1770E-03
            1941     2.67661E-03     47.2161E-03    -57.5210E+06    -59.2183E+06    -46.9737E+06    -404.300E+03    -296.363E-03     592.863E-03    -296.500E-03     20.0039E-03    -296.493E-03     592.716E-03    -296.566E-03     19.5488E-03
            1942     2.00661E-03     47.1851E-03    -60.0012E+06    -63.8449E+06    -53.3816E+06    -444.846E+03    -296.358E-03     592.916E-03    -296.558E-03     14.8897E-03    -296.472E-03     592.747E-03    -296.646E-03     14.5927E-03
            1943     1.33702E-03     47.1626E-03    -60.2583E+06    -65.9472E+06    -57.4000E+06    -1.34960E+06    -296.525E-03     593.154E-03    -296.628E-03     9.74064E-03    -296.622E-03     592.973E-03    -296.732E-03     9.52587E-03
            1944     668.536E-06     47.1503E-03    -61.0281E+06    -69.6815E+06    -61.0704E+06    -1.50042E+06    -296.701E-03     593.397E-03    -296.696E-03     5.70525E-03    -296.748E-03     593.221E-03    -296.812E-03     5.45437E-03
            1945     12.7265E-03     46.9202E-03    -2.78651E+06     25.1800E+06     49.3221E+06     173.023E+03    -296.517E-03     592.183E-03    -295.666E-03     76.4295E-03    -296.892E-03     592.494E-03    -295.452E-03     71.4578E-03
            1946     12.0554E-03     46.7837E-03    -5.88153E+06     22.1037E+06     45.0193E+06     398.496E+03    -296.495E-03     592.213E-03    -295.718E-03     79.7078E-03    -296.938E-03     592.583E-03    -295.517E-03     73.8828E-03
            1947     11.3856E-03     46.6425E-03    -8.42459E+06     18.3542E+06     41.7380E+06     41.3747E+03    -296.389E-03     592.175E-03    -295.785E-03     77.7148E-03    -296.832E-03     592.532E-03    -295.591E-03     71.8674E-03
            1948     10.7144E-03     46.5132E-03    -11.0928E+06     15.3299E+06     39.2972E+06     112.470E+03    -296.602E-03     592.454E-03    -295.852E-03     75.0009E-03    -297.029E-03     592.782E-03    -295.662E-03     69.4073E-03
            1949     10.0435E-03     46.3876E-03    -14.3859E+06     12.3320E+06     37.0648E+06     216.306E+03    -296.630E-03     592.542E-03    -295.912E-03     71.9084E-03    -297.037E-03     592.834E-03    -295.724E-03     66.6921E-03
            1950     9.37303E-03     46.2697E-03    -17.9330E+06     8.88022E+06     34.3076E+06     118.241E+03    -296.129E-03     592.114E-03    -295.984E-03     68.0243E-03    -296.504E-03     592.357E-03    -295.800E-03     63.3970E-03
            1951     8.70322E-03     46.1560E-03    -22.4181E+06     3.84022E+06     29.9533E+06     1.19803E+06    -295.599E-03     591.688E-03    -296.088E-03     63.0459E-03    -295.936E-03     591.872E-03    -295.912E-03     59.1356E-03
            1952     8.03259E-03     46.0506E-03    -27.5972E+06    -2.27131E+06     23.0239E+06     1.66750E+06    -295.485E-03     591.694E-03    -296.209E-03     58.2683E-03    -295.795E-03     591.831E-03    -296.051E-03     54.8799E-03
            1953     7.36188E-03     45.9523E-03    -31.4635E+06    -7.50732E+06     14.6886E+06     1.08368E+06    -295.884E-03     592.197E-03    -296.313E-03     53.7750E-03    -296.165E-03     592.297E-03    -296.183E-03     50.8646E-03
            1954     6.69133E-03     45.8633E-03    -34.6625E+06    -12.5999E+06     5.86917E+06     355.120E+03    -296.474E-03     592.844E-03    -296.370E-03     48.5272E-03    -296.723E-03     592.908E-03    -296.273E-03     46.1018E-03
            1955     6.02355E-03     45.7802E-03    -38.2649E+06    -17.9907E+06    -2.47176E+06     979.611E+03    -296.827E-03     593.207E-03    -296.379E-03     43.5992E-03    -297.050E-03     593.237E-03    -296.310E-03     41.6927E-03
            1956     5.35335E-03     45.7084E-03    -42.0675E+06    -29.1710E+06    -11.2211E+06     1.07327E+06    -296.506E-03     592.891E-03    -296.385E-03     39.0066E-03    -296.702E-03     592.867E-03    -296.338E-03     37.4713E-03
            1957     4.68393E-03     45.6427E-03    -45.6915E+06    -40.3314E+06    -19.8960E+06    -76.6011E+03    -295.952E-03     592.396E-03    -296.444E-03     34.4497E-03    -296.124E-03     592.321E-03    -296.419E-03     33.1494E-03
            1958     4.01404E-03     45.5881E-03    -49.1738E+06    -45.6519E+06    -27.5768E+06     598.014E+03    -296.081E-03     592.619E-03    -296.538E-03     29.5089E-03    -296.239E-03     592.520E-03    -296.538E-03     28.5423E-03
            1959     3.34374E-03     45.5388E-03    -53.1312E+06    -51.8560E+06    -36.5009E+06     1.31617E+06    -296.612E-03     593.192E-03    -296.580E-03     24.1590E-03    -296.756E-03     593.069E-03    -296.610E-03     23.4818E-03
            1960     2.67507E-03     45.5004E-03    -56.3421E+06    -58.0048E+06    -45.3383E+06     415.119E+03    -296.807E-03     593.349E-03    -296.541E-03     18.8620E-03    -296.937E-03     593.204E-03    -296.602E-03     18.2996E-03
            1961     2.00707E-03     45.4693E-03    -58.6807E+06    -62.7532E+06    -52.3370E+06    -456.785E+03    -296.666E-03     593.141E-03    -296.475E-03     13.9881E-03    -296.780E-03     592.978E-03    -296.560E-03     13.5996E-03
            1962     1.33850E-03     45.4475E-03    -61.2448E+06    -66.7166E+06    -57.4979E+06    -370.313E+03    -296.600E-03     592.998E-03    -296.398E-03     9.35020E-03    -296.701E-03     592.817E-03    -296.500E-03     9.10403E-03
            1963     669.811E-06     45.4319E-03    -64.4100E+06    -72.2065E+06    -62.4432E+06     167.175E+03    -296.509E-03     592.767E-03    -296.258E-03     5.70411E-03    -296.564E-03     592.586E-03    -296.372E-03     5.52074E-03
            1964     12.7251E-03     45.2093E-03    -2.28726E+06     25.2023E+06     48.1932E+06     241.765E+03    -296.641E-03     592.297E-03    -295.656E-03     76.9912E-03    -297.008E-03     592.606E-03    -295.449E-03     72.1006E-03
            1965     12.0561E-03     45.0711E-03    -5.11949E+06     22.5313E+06     44.8123E+06     149.020E+03    -296.627E-03     592.337E-03    -295.709E-03     81.3124E-03    -297.077E-03     592.718E-03    -295.510E-03     75.4061E-03
            1966     11.3846E-03     44.9344E-03    -8.06513E+06     18.1345E+06     41.8588E+06     3.69311E+03    -296.118E-03     591.909E-03    -295.790E-03     79.7435E-03    -296.575E-03     592.280E-03    -295.596E-03     73.7618E-03
            1967     10.7134E-03     44.8029E-03    -11.5956E+06     14.7683E+06     38.8105E+06     889.617E+03    -296.068E-03     591.957E-03    -295.888E-03     76.3092E-03    -296.502E-03     592.289E-03    -295.699E-03     70.7562E-03
            1968     10.0437E-03     44.6748E-03    -15.2084E+06     11.1919E+06     36.6202E+06     770.615E+03    -296.514E-03     592.491E-03    -295.977E-03     72.3063E-03    -296.920E-03     592.777E-03    -295.788E-03     67.1874E-03
            1969     9.37383E-03     44.5588E-03    -18.7873E+06     7.90732E+06     34.3465E+06     940.477E+03    -296.565E-03     592.610E-03    -296.045E-03     68.1598E-03    -296.950E-03     592.857E-03    -295.858E-03     63.4024E-03
            1970     8.70316E-03     44.4433E-03    -22.8058E+06     3.81112E+06     29.5383E+06     1.50611E+06    -296.187E-03     592.296E-03    -296.109E-03     63.6749E-03    -296.541E-03     592.498E-03    -295.934E-03     59.4597E-03
            1971     8.03254E-03     44.3414E-03    -26.1700E+06    -907.834E+03     22.9221E+06     558.716E+03    -296.138E-03     592.315E-03    -296.177E-03     58.3836E-03    -296.444E-03     592.459E-03    -296.023E-03     54.9692E-03
            1972     7.36202E-03     44.2392E-03    -29.4203E+06    -5.75791E+06     15.8329E+06    -64.7130E+03    -296.234E-03     592.471E-03    -296.237E-03     52.9380E-03    -296.504E-03     592.571E-03    -296.107E-03     50.0966E-03
            1973     6.69330E-03     44.1490E-03    -33.7981E+06    -11.4847E+06     7.88249E+06    -30.0628E+03    -296.161E-03     592.452E-03    -296.291E-03     47.9130E-03    -296.409E-03     592.517E-03    -296.186E-03     45.4898E-03
            1974     6.02210E-03     44.0661E-03    -38.6972E+06    -17.9587E+06    -1.16809E+06     667.995E+03    -296.236E-03     592.575E-03    -296.339E-03     43.4998E-03    -296.464E-03     592.606E-03    -296.263E-03     41.5121E-03
            1975     5.35354E-03     43.9933E-03    -42.8659E+06    -29.9150E+06    -11.5427E+06     517.852E+03    -296.290E-03     592.668E-03    -296.379E-03     38.3190E-03    -296.492E-03     592.646E-03    -296.331E-03     36.5527E-03
            1976     4.68349E-03     43.9306E-03    -45.3045E+06     -39.959E+06    -19.6333E+06    -33.9336E+03    -296.240E-03     592.663E-03    -296.423E-03     33.3277E-03    -296.413E-03     592.590E-03    -296.398E-03     31.9078E-03
            1977     4.01395E-03     43.8724E-03    -49.5045E+06    -45.8480E+06    -27.7849E+06     495.758E+03    -296.443E-03     592.894E-03    -296.451E-03     28.5588E-03    -296.602E-03     592.796E-03    -296.452E-03     27.5841E-03
            1978     3.34620E-03     43.8233E-03    -53.3439E+06    -52.1429E+06    -36.6376E+06     857.796E+03    -296.584E-03     593.024E-03    -296.441E-03     23.4078E-03    -296.728E-03     592.901E-03    -296.471E-03     22.6835E-03
            1979     2.67734E-03     43.7837E-03    -55.4375E+06    -57.3935E+06    -44.4441E+06     643.510E+03    -296.478E-03     592.895E-03    -296.417E-03     18.8618E-03    -296.605E-03     592.751E-03    -296.476E-03     18.2676E-03
            1980     2.00772E-03     43.7545E-03    -58.5000E+06    -62.7814E+06    -51.8969E+06     675.196E+03    -296.482E-03     592.876E-03    -296.394E-03     14.8439E-03    -296.597E-03     592.713E-03    -296.478E-03     14.4535E-03
            1981     1.33845E-03     43.7316E-03    -61.3960E+06    -66.8871E+06    -56.7776E+06     909.614E+03    -296.469E-03     592.831E-03    -296.362E-03     10.4772E-03    -296.576E-03     592.652E-03    -296.460E-03     10.1965E-03
            1982     668.570E-06     43.7197E-03    -63.0579E+06    -70.9572E+06    -60.7926E+06     311.621E+03    -296.413E-03     592.742E-03    -296.329E-03     5.89700E-03    -296.469E-03     592.570E-03    -296.439E-03     5.71508E-03
            1983     12.7263E-03     43.4998E-03    -2.80593E+06     24.6700E+06     47.5984E+06     4.54489E+03    -296.089E-03     591.783E-03    -295.694E-03     78.1206E-03    -296.464E-03     592.098E-03    -295.488E-03     73.1564E-03
            1984     12.0538E-03     43.3604E-03    -5.37893E+06     22.2650E+06     44.6068E+06     57.2399E+03    -296.378E-03     592.152E-03    -295.774E-03     81.7195E-03    -296.838E-03     592.542E-03    -295.576E-03     75.6785E-03
            1985     11.3836E-03     43.2245E-03    -8.13313E+06     18.0461E+06     41.8654E+06     461.168E+03    -296.487E-03     592.343E-03    -295.856E-03     79.8172E-03    -296.951E-03     592.721E-03    -295.661E-03     73.7477E-03
            1986     10.7136E-03     43.0916E-03    -11.2983E+06     14.7320E+06     39.5452E+06     745.165E+03    -296.389E-03     592.327E-03    -295.938E-03     76.2770E-03    -296.832E-03     592.667E-03    -295.745E-03     70.5462E-03
            1987     10.0417E-03     42.9650E-03    -14.6204E+06     11.3288E+06     37.4780E+06     1.24754E+06    -296.341E-03     592.366E-03    -296.025E-03     72.3539E-03    -296.750E-03     592.655E-03    -295.833E-03     67.1799E-03
            1988     9.37169E-03     42.8427E-03    -18.3987E+06     7.51096E+06     34.0048E+06     1.27417E+06    -296.515E-03     592.613E-03    -296.098E-03     67.8345E-03    -296.897E-03     592.858E-03    -295.912E-03     63.0487E-03
            1989     8.70217E-03     42.7344E-03    -21.6979E+06     4.12703E+06     29.5606E+06    -127.630E+03    -296.790E-03     592.934E-03    -296.143E-03     63.7460E-03    -297.143E-03     593.138E-03    -295.970E-03     59.4458E-03
            1990     8.03291E-03     42.6246E-03    -24.5132E+06     799.565E+03     24.6728E+06    -470.493E+03    -297.005E-03     593.164E-03    -296.160E-03     59.0522E-03    -297.313E-03     593.316E-03    -296.002E-03     55.5470E-03
            1991     7.36487E-03     42.5276E-03    -28.9433E+06    -5.01118E+06     17.2166E+06    -51.0896E+03    -296.517E-03     592.688E-03    -296.171E-03     54.1176E-03    -296.796E-03     592.797E-03    -296.036E-03     51.1353E-03
            1992     6.69342E-03     42.4362E-03    -33.7414E+06    -11.4005E+06      8.3793E+06     515.311E+03    -296.099E-03     592.308E-03    -296.210E-03     49.3268E-03    -296.352E-03     592.377E-03    -296.102E-03     46.8391E-03
            1993     6.02446E-03     42.3541E-03    -38.2720E+06    -17.7354E+06    -986.466E+03     1.09743E+06    -296.005E-03     592.271E-03    -296.267E-03     43.9778E-03    -296.234E-03     592.305E-03    -296.190E-03     41.9029E-03
            1994     5.35353E-03     42.2786E-03    -42.5281E+06    -29.6562E+06    -11.0975E+06     1.09456E+06    -296.124E-03     592.449E-03    -296.325E-03     38.6940E-03    -296.326E-03     592.427E-03    -296.276E-03     36.9288E-03
            1995     4.68510E-03     42.2160E-03    -46.5210E+06    -41.2036E+06    -21.0205E+06     1.40927E+06    -296.628E-03     592.969E-03    -296.341E-03     34.1357E-03    -296.803E-03     592.894E-03    -296.319E-03     32.7909E-03
            1996     4.01626E-03     42.1577E-03    -49.2242E+06    -46.3573E+06    -29.6268E+06     1.13445E+06    -296.579E-03     592.892E-03    -296.313E-03     29.5753E-03    -296.732E-03     592.792E-03    -296.323E-03     28.6704E-03
            1997     3.34577E-03     42.1084E-03    -52.1164E+06    -51.8961E+06    -38.1014E+06     309.671E+03    -296.082E-03     592.408E-03    -296.326E-03     24.5905E-03    -296.219E-03     592.287E-03    -296.366E-03     23.8328E-03
            1998     2.67570E-03     42.0706E-03    -56.3132E+06    -58.2380E+06    -46.2358E+06     289.441E+03    -296.025E-03     592.433E-03    -296.407E-03     19.8134E-03    -296.152E-03     592.287E-03    -296.472E-03     19.2660E-03
            1999     2.00650E-03     42.0386E-03    -58.6148E+06    -62.5023E+06    -51.9199E+06     368.667E+03    -296.189E-03     592.709E-03    -296.520E-03     15.0628E-03    -296.304E-03     592.546E-03    -296.604E-03     14.6969E-03
            2000     1.33739E-03     42.0173E-03    -60.2950E+06    -65.4700E+06    -56.1877E+06     361.738E+03    -296.495E-03     593.111E-03    -296.616E-03     10.5982E-03    -296.600E-03     592.937E-03    -296.714E-03     10.3024E-03
            2001     669.580E-06     42.0017E-03    -62.3384E+06    -69.9512E+06    -60.7485E+06     256.421E+03    -296.838E-03     593.365E-03    -296.527E-03     5.74164E-03    -296.892E-03     593.196E-03    -296.639E-03     5.57693E-03
            2002     12.7232E-03     41.7877E-03    -2.90719E+06     24.4133E+06     46.8568E+06     85.0205E+03    -296.047E-03     591.767E-03    -295.720E-03     78.0502E-03    -296.425E-03     592.085E-03    -295.516E-03     72.9616E-03
            2003     12.0541E-03     41.6517E-03    -5.47896E+06     22.0167E+06     44.3798E+06     7.06918E+03    -296.730E-03     592.522E-03    -295.791E-03     79.8971E-03    -297.176E-03     592.897E-03    -295.593E-03     73.9556E-03
            2004     11.3831E-03     41.5118E-03    -8.02609E+06     17.9015E+06     42.4700E+06     157.819E+03    -296.664E-03     592.520E-03    -295.856E-03     78.1409E-03    -297.119E-03     592.886E-03    -295.658E-03     72.1284E-03
            2005     10.7127E-03     41.3804E-03    -11.0862E+06     14.6834E+06     39.8693E+06     242.221E+03    -296.424E-03     592.348E-03    -295.923E-03     74.8632E-03    -296.861E-03     592.682E-03    -295.729E-03     69.1102E-03
            2006     10.0438E-03     41.2536E-03    -14.4046E+06     11.4418E+06     37.0329E+06     660.791E+03    -296.009E-03     592.020E-03    -296.011E-03     71.9805E-03    -296.424E-03     592.317E-03    -295.821E-03     66.6467E-03
            2007     9.37282E-03     41.1322E-03    -17.3808E+06     8.62414E+06     34.0618E+06     138.189E+03    -296.129E-03     592.236E-03    -296.108E-03     68.1399E-03    -296.516E-03     592.494E-03    -295.924E-03     63.2141E-03
            2008     8.70240E-03     41.0197E-03    -20.9083E+06     4.73772E+06     29.7729E+06    -246.990E+03    -296.729E-03     592.903E-03    -296.174E-03     64.2883E-03    -297.076E-03     593.107E-03    -296.002E-03     60.0733E-03
            2009     8.03310E-03     40.9104E-03    -25.5536E+06    -933.885E+03     23.1731E+06     346.287E+03    -296.651E-03     592.864E-03    -296.212E-03     60.1491E-03    -296.964E-03     593.015E-03    -296.058E-03     56.6140E-03
            2010     7.36169E-03     40.8148E-03    -29.8853E+06    -6.46214E+06     15.4902E+06     585.720E+03    -296.531E-03     592.778E-03    -296.247E-03     55.6755E-03    -296.819E-03     592.892E-03    -296.117E-03     52.5438E-03
            2011     6.69338E-03     40.7228E-03    -33.6832E+06    -11.8896E+06     7.17687E+06     1.30247E+06    -296.535E-03     592.812E-03    -296.277E-03     50.8928E-03    -296.790E-03     592.884E-03    -296.175E-03     48.3607E-03
            2012     6.02319E-03     40.6400E-03    -37.6842E+06    -17.6959E+06    -1.58359E+06     1.48573E+06    -296.175E-03     592.493E-03    -296.318E-03     45.7366E-03    -296.406E-03     592.533E-03    -296.246E-03     43.5804E-03
            2013     5.35421E-03     40.5671E-03    -42.2310E+06    -29.6094E+06    -11.6555E+06     1.81826E+06    -296.218E-03     592.595E-03    -296.377E-03     40.6530E-03    -296.420E-03     592.576E-03    -296.331E-03     38.9581E-03
            2014     4.68335E-03     40.5000E-03    -46.2686E+06    -41.1594E+06    -21.6342E+06     1.37110E+06    -296.407E-03     592.829E-03    -296.421E-03     35.5924E-03    -296.579E-03     592.752E-03    -296.402E-03     34.3622E-03
            2015     4.01452E-03     40.4421E-03    -48.2758E+06    -45.3526E+06    -28.5464E+06     666.295E+03    -296.180E-03     592.655E-03    -296.475E-03     31.0420E-03    -296.333E-03     592.558E-03    -296.482E-03     30.0586E-03
            2016     3.34574E-03     40.3966E-03    -51.3152E+06    -50.3403E+06    -36.0169E+06     1.21233E+06    -296.159E-03     592.720E-03    -296.561E-03     26.2924E-03    -296.298E-03     592.603E-03    -296.594E-03     25.5605E-03
            2017     2.67663E-03     40.3545E-03    -54.9135E+06    -56.3271E+06    -44.5241E+06     883.336E+03    -296.450E-03     593.086E-03    -296.636E-03     20.9073E-03    -296.576E-03     592.946E-03    -296.697E-03     20.4115E-03
            2018     2.00732E-03     40.3251E-03    -57.3785E+06    -61.3298E+06    -51.5080E+06     204.672E+03    -296.590E-03     593.274E-03    -296.684E-03     15.4578E-03    -296.700E-03     593.114E-03    -296.769E-03     15.1114E-03
            2019     1.33790E-03     40.3004E-03    -59.4428E+06    -64.7646E+06    -56.4097E+06     176.097E+03    -296.645E-03     593.382E-03    -296.737E-03     10.6699E-03    -296.742E-03     593.206E-03    -296.839E-03     10.4528E-03
            2020     667.960E-06     40.2860E-03    -60.5845E+06    -69.0800E+06    -60.6129E+06    -343.053E+03    -296.743E-03     593.613E-03    -296.871E-03     5.51831E-03    -296.788E-03     593.439E-03    -296.986E-03     5.44740E-03
            2021     12.7261E-03     40.0768E-03    -2.33791E+06     24.7261E+06     47.5514E+06     138.272E+03    -296.444E-03     592.122E-03    -295.678E-03     77.5451E-03    -296.822E-03     592.442E-03    -295.473E-03     72.3926E-03
            2022     12.0549E-03     39.9398E-03    -5.20727E+06     22.2887E+06     44.4555E+06     313.284E+03    -296.724E-03     592.456E-03    -295.732E-03     79.5745E-03    -297.170E-03     592.834E-03    -295.535E-03     73.5960E-03
            2023     11.3856E-03     39.8013E-03    -8.37058E+06     17.3846E+06     41.1642E+06     160.568E+03    -296.529E-03     592.321E-03    -295.792E-03     78.3873E-03    -296.985E-03     592.690E-03    -295.600E-03     72.3446E-03
            2024     10.7149E-03     39.6701E-03    -11.4931E+06     14.0060E+06     38.3116E+06    -53.3101E+03    -295.991E-03     591.866E-03    -295.875E-03     75.4648E-03    -296.435E-03     592.208E-03    -295.687E-03     69.6320E-03
            2025     10.0426E-03     39.5426E-03    -14.3489E+06     11.2533E+06     36.3355E+06    -117.987E+03    -295.712E-03     591.700E-03    -295.989E-03     72.6248E-03    -296.133E-03     592.006E-03    -295.802E-03     67.1682E-03
            2026     9.37181E-03     39.4227E-03    -17.2912E+06     9.02500E+06     33.8729E+06    -271.664E+03    -295.886E-03     591.994E-03    -296.108E-03     69.3168E-03    -296.276E-03     592.256E-03    -295.927E-03     64.4376E-03
            2027     8.70189E-03     39.3044E-03    -21.5803E+06     4.29174E+06     28.6079E+06     337.117E+03    -296.024E-03     592.238E-03    -296.214E-03     64.7823E-03    -296.373E-03     592.442E-03    -296.046E-03     60.6177E-03
            2028     8.03091E-03     39.2008E-03    -25.7942E+06    -1.75226E+06     21.4757E+06     869.014E+03    -295.994E-03     592.305E-03    -296.311E-03     60.1194E-03    -296.303E-03     592.455E-03    -296.164E-03     56.6066E-03
            2029     7.36198E-03     39.0994E-03    -29.5604E+06    -7.02015E+06     13.6930E+06     853.236E+03    -296.224E-03     592.623E-03    -296.399E-03     56.0834E-03    -296.507E-03     592.736E-03    -296.277E-03     52.9908E-03
            2030     6.69163E-03     39.0089E-03    -33.9336E+06    -12.8606E+06     5.38752E+06     1.51510E+06    -296.207E-03     592.688E-03    -296.481E-03     51.6252E-03    -296.462E-03     592.762E-03    -296.386E-03     49.0216E-03
            2031     6.02212E-03     38.9270E-03    -37.7297E+06    -18.2006E+06    -2.54438E+06     1.46678E+06    -296.246E-03     592.813E-03    -296.567E-03     47.1399E-03    -296.477E-03     592.853E-03    -296.499E-03     44.9907E-03
            2032     5.35169E-03     38.8522E-03    -40.7464E+06    -28.2186E+06    -11.2616E+06     927.552E+03    -296.505E-03     593.149E-03    -296.644E-03     42.4779E-03    -296.706E-03     593.138E-03    -296.600E-03     40.7055E-03
            2033     4.68409E-03     38.7849E-03    -44.8122E+06    -39.2211E+06    -20.1769E+06     411.251E+03    -296.325E-03     593.051E-03    -296.726E-03     37.0335E-03    -296.500E-03     592.986E-03    -296.705E-03     35.5903E-03
            2034     4.01303E-03     38.7306E-03    -49.5728E+06    -45.6480E+06    -28.3573E+06     606.895E+03    -296.205E-03     593.043E-03    -296.839E-03     31.6467E-03    -296.369E-03     592.952E-03    -296.842E-03     30.5008E-03
            2035     3.34274E-03     38.6784E-03    -51.9992E+06    -50.3438E+06    -35.6754E+06     1.63365E+06    -296.570E-03     593.520E-03    -296.950E-03     26.5898E-03    -296.715E-03     593.405E-03    -296.980E-03     25.8678E-03
            2036     2.67395E-03     38.6400E-03    -53.7016E+06    -54.5193E+06    -42.2843E+06     1.38805E+06    -296.977E-03     593.985E-03    -297.008E-03     21.3339E-03    -297.103E-03     593.850E-03    -297.062E-03     20.8499E-03
            2037     2.00555E-03     38.6063E-03    -56.1766E+06    -59.0808E+06    -48.7905E+06     837.254E+03    -297.264E-03     594.238E-03    -296.974E-03     16.0103E-03    -297.376E-03     594.084E-03    -297.051E-03     15.6265E-03
            2038     1.33758E-03     38.5859E-03    -59.0842E+06    -63.6116E+06    -54.6232E+06     406.356E+03    -297.234E-03     594.071E-03    -296.837E-03     10.7975E-03    -297.331E-03     593.895E-03    -296.932E-03     10.5157E-03
            2039     669.586E-06     38.5681E-03    -59.6857E+06    -67.6784E+06    -58.5716E+06     369.639E+03    -296.690E-03     593.560E-03    -296.870E-03     5.30696E-03    -296.732E-03     593.382E-03    -296.979E-03     5.25234E-03
            2040     12.7263E-03     38.3703E-03    -2.66743E+06     24.0326E+06     47.4157E+06     69.9806E+03    -296.382E-03     592.007E-03    -295.625E-03     78.2078E-03    -296.764E-03     592.327E-03    -295.419E-03     73.0466E-03
            2041     12.0557E-03     38.2274E-03    -5.40697E+06     21.8454E+06     43.5041E+06     161.968E+03    -296.037E-03     591.734E-03    -295.697E-03     81.3963E-03    -296.495E-03     592.124E-03    -295.503E-03     75.3151E-03
            2042     11.3842E-03     38.0920E-03    -7.96547E+06     17.9173E+06     40.2020E+06     344.236E+03    -295.953E-03     591.750E-03    -295.797E-03     79.9335E-03    -296.413E-03     592.129E-03    -295.610E-03     73.8897E-03
            2043     10.7133E-03     37.9586E-03    -10.5688E+06     14.3999E+06     37.7888E+06     23.8772E+03    -295.803E-03     591.715E-03    -295.912E-03     77.2578E-03    -296.252E-03     592.067E-03    -295.729E-03     71.3733E-03
            2044     10.0435E-03     37.8346E-03    -14.0634E+06     10.9404E+06     35.1867E+06    -39.7862E+03    -295.898E-03     591.932E-03    -296.034E-03     74.0839E-03    -296.321E-03     592.242E-03    -295.853E-03     68.6376E-03
            2045     9.37283E-03     37.7097E-03     -18.344E+06     6.99413E+06     31.4063E+06     420.991E+03    -295.946E-03     592.099E-03    -296.153E-03     70.4089E-03    -296.330E-03     592.352E-03    -295.980E-03     65.6929E-03
            2046     8.70155E-03     37.5954E-03    -21.7657E+06     3.19088E+06     27.2820E+06     188.754E+03    -295.736E-03     592.015E-03    -296.280E-03     65.4864E-03    -296.089E-03     592.223E-03    -296.116E-03     61.2070E-03
            2047     8.03129E-03     37.4872E-03    -25.0384E+06    -1.23616E+06     21.7051E+06     785.728E+03    -295.769E-03     592.180E-03    -296.410E-03     60.8482E-03    -296.088E-03     592.342E-03    -296.264E-03     57.1202E-03
            2048     7.35992E-03     37.3875E-03    -29.4438E+06    -6.87376E+06     13.9956E+06     1.67422E+06    -295.737E-03     592.280E-03    -296.543E-03     56.1451E-03    -296.021E-03     592.394E-03    -296.420E-03     53.0311E-03
            2049     6.68955E-03     37.2956E-03    -33.4982E+06    -12.5561E+06     5.65344E+06     1.21559E+06    -295.744E-03     592.428E-03    -296.685E-03     51.2395E-03    -296.003E-03     592.508E-03    -296.590E-03     48.4700E-03
            2050     6.01897E-03     37.2129E-03    -36.8619E+06    -17.7421E+06    -2.56177E+06     244.689E+03    -295.963E-03     592.792E-03    -296.830E-03     46.7603E-03    -296.195E-03     592.839E-03    -296.763E-03     44.4214E-03
            2051     5.35050E-03     37.1356E-03    -40.2493E+06    -27.8356E+06    -11.2185E+06    -155.083E+03    -295.912E-03     592.907E-03    -296.995E-03     42.5138E-03    -296.115E-03     592.901E-03    -296.953E-03     40.5706E-03
            2052     4.67899E-03     37.0712E-03    -43.4916E+06    -37.9418E+06    -19.6167E+06     754.523E+03    -296.451E-03     593.611E-03    -297.160E-03     37.9660E-03    -296.627E-03     593.555E-03    -297.140E-03     36.4267E-03
            2053     4.01157E-03     37.0121E-03    -47.6745E+06    -44.0813E+06    -27.9536E+06     1.10539E+06    -297.240E-03     594.484E-03    -297.244E-03     32.2703E-03    -297.399E-03     594.399E-03    -297.251E-03     31.0843E-03
            2054     3.34352E-03     36.9647E-03    -51.3073E+06    -49.7601E+06    -35.6434E+06     690.010E+03    -297.252E-03     594.523E-03    -297.271E-03     26.5923E-03    -297.396E-03     594.412E-03    -297.303E-03     25.7748E-03
            2055     2.67438E-03     36.9199E-03    -53.1725E+06    -53.8749E+06    -42.1703E+06     1.18356E+06    -297.286E-03     594.576E-03    -297.290E-03     21.0925E-03    -297.412E-03     594.444E-03    -297.345E-03     20.5602E-03
            2056     2.00580E-03     36.8905E-03    -55.3697E+06    -58.1284E+06    -48.6232E+06     1.36932E+06    -297.461E-03     594.728E-03    -297.267E-03     15.7308E-03    -297.572E-03     594.579E-03    -297.346E-03     15.2957E-03
            2057     1.33729E-03     36.8643E-03    -57.4386E+06    -61.9595E+06    -53.7065E+06     786.169E+03    -297.369E-03     594.577E-03    -297.207E-03     10.9596E-03    -297.464E-03     594.408E-03    -297.303E-03     10.6487E-03
            2058     668.625E-06     36.8554E-03    -60.1877E+06    -66.8543E+06    -57.1643E+06     611.155E+03    -297.136E-03     594.427E-03    -297.292E-03     6.44911E-03    -297.182E-03     594.247E-03    -297.393E-03     6.27382E-03
            2059     12.7266E-03     36.6592E-03    -2.29115E+06     23.9337E+06     46.7168E+06     198.268E+03    -296.069E-03     591.690E-03    -295.622E-03     78.7260E-03    -296.448E-03     592.012E-03    -295.420E-03     73.5462E-03
            2060     12.0550E-03     36.5202E-03    -4.96125E+06     21.8029E+06     43.1281E+06    -131.419E+03    -295.545E-03     591.265E-03    -295.719E-03     81.4124E-03    -295.998E-03     591.652E-03    -295.528E-03     75.3464E-03
            2061     11.3838E-03     36.3818E-03    -7.95196E+06     17.5621E+06     39.6720E+06    -41.2142E+03    -295.042E-03     590.905E-03    -295.863E-03     80.4810E-03    -295.509E-03     591.291E-03    -295.679E-03     74.3429E-03
            2062     10.7124E-03     36.2500E-03    -10.9188E+06     13.8181E+06     36.5879E+06     651.507E+03    -295.622E-03     591.639E-03    -296.016E-03     78.0081E-03    -296.071E-03     591.991E-03    -295.838E-03     72.1778E-03
            2063     10.0407E-03     36.1214E-03    -14.0776E+06     10.5424E+06     34.0255E+06     660.496E+03    -296.061E-03     592.211E-03    -296.149E-03     74.8966E-03    -296.484E-03     592.522E-03    -295.974E-03     69.4655E-03
            2064     9.37025E-03     35.9995E-03    -17.6120E+06     6.75402E+06     30.6319E+06     959.416E+03    -295.716E-03     592.000E-03    -296.284E-03     71.5224E-03    -296.107E-03     592.264E-03    -296.115E-03     66.6435E-03
            2065     8.70027E-03     35.8825E-03    -21.5667E+06     2.52647E+06     26.0998E+06     858.269E+03    -295.602E-03     592.043E-03    -296.441E-03     67.7491E-03    -295.964E-03     592.262E-03    -296.283E-03     63.3618E-03
            2066     8.02947E-03     35.7762E-03     -25.732E+06    -2.02367E+06     20.8389E+06     656.804E+03    -295.885E-03     592.484E-03    -296.599E-03     63.3220E-03    -296.223E-03     592.662E-03    -296.454E-03     59.3093E-03
            2067     7.35996E-03     35.6738E-03    -28.9612E+06    -6.31450E+06     14.8540E+06     1.08243E+06    -295.740E-03     592.496E-03    -296.756E-03     57.9074E-03    -296.037E-03     592.625E-03    -296.631E-03     54.5381E-03
            2068     6.68958E-03     35.5843E-03    -32.2335E+06    -11.1997E+06     7.22137E+06     969.995E+03    -295.760E-03     592.688E-03    -296.928E-03     53.3193E-03    -296.021E-03     592.773E-03    -296.828E-03     50.5632E-03
            2069     6.02023E-03     35.4967E-03    -36.7615E+06    -17.5954E+06    -2.21246E+06     457.564E+03    -295.979E-03     593.082E-03    -297.104E-03     48.3147E-03    -296.216E-03     593.133E-03    -297.036E-03     45.9256E-03
            2070     5.34815E-03     35.4252E-03    -39.2901E+06    -27.2045E+06    -10.8004E+06     267.906E+03    -296.228E-03     593.512E-03    -297.284E-03     42.4597E-03    -296.430E-03     593.509E-03    -297.241E-03     40.4807E-03
            2071     4.67921E-03     35.3536E-03    -41.7668E+06    -36.6827E+06    -19.0464E+06     1.16124E+06    -296.700E-03     594.147E-03    -297.447E-03     36.9710E-03    -296.868E-03     594.091E-03    -297.428E-03     35.5046E-03
            2072     4.00926E-03     35.2932E-03    -45.8428E+06    -42.9093E+06    -27.7434E+06     1.12052E+06    -297.293E-03     594.844E-03    -297.551E-03     31.6710E-03    -297.446E-03     594.763E-03    -297.561E-03     30.3923E-03
            2073     3.34114E-03     35.2442E-03    -50.1740E+06    -49.4683E+06    -36.8606E+06     269.976E+03    -297.661E-03     595.247E-03    -297.586E-03     26.9498E-03    -297.801E-03     595.140E-03    -297.626E-03     25.9394E-03
            2074     2.67313E-03     35.2040E-03    -51.2367E+06    -52.7150E+06     -42.632E+06     284.630E+03    -297.538E-03     595.148E-03    -297.611E-03     22.3295E-03    -297.657E-03     595.023E-03    -297.673E-03     21.6674E-03
            2075     2.00490E-03     35.1688E-03    -53.7873E+06    -57.5140E+06    -49.4155E+06     111.515E+03    -297.458E-03     595.132E-03    -297.674E-03     16.8585E-03    -297.563E-03     594.987E-03    -297.760E-03     16.3009E-03
            2076     1.33619E-03     35.1502E-03    -56.7404E+06    -61.8552E+06    -54.8898E+06    -198.275E+03    -297.536E-03     595.332E-03    -297.796E-03     11.3236E-03    -297.626E-03     595.167E-03    -297.898E-03     10.9192E-03
            2077     667.467E-06     35.1317E-03    -57.9155E+06    -66.1158E+06    -57.4615E+06    -337.844E+03    -297.836E-03     595.840E-03    -298.004E-03     6.27264E-03    -297.872E-03     595.659E-03    -298.111E-03     5.99294E-03
            2078     12.7251E-03     34.9469E-03    -2.40871E+06     23.9261E+06     45.7310E+06     152.608E+03    -295.474E-03     591.125E-03    -295.651E-03     79.3778E-03    -295.856E-03     591.452E-03    -295.454E-03     74.1455E-03
            2079     12.0554E-03     34.8119E-03    -5.27778E+06     21.2847E+06     42.0122E+06    -105.685E+03    -295.253E-03     591.029E-03    -295.776E-03     81.4923E-03    -295.713E-03     591.424E-03    -295.590E-03     75.3293E-03
            2080     11.3826E-03     34.6761E-03    -8.24100E+06     16.3623E+06     38.5417E+06     212.525E+03    -294.893E-03     590.831E-03    -295.938E-03     81.3428E-03    -295.374E-03     591.230E-03    -295.757E-03     75.0474E-03
            2081     10.7105E-03     34.5389E-03    -10.7733E+06     13.6783E+06     36.4719E+06     1.04724E+06    -295.205E-03     591.325E-03    -296.120E-03     78.7119E-03    -295.654E-03     591.679E-03    -295.942E-03     72.9286E-03
            2082     10.0407E-03     34.4107E-03    -13.8714E+06     11.1623E+06     34.5286E+06     1.03836E+06    -295.502E-03     591.799E-03    -296.297E-03     75.4600E-03    -295.932E-03     592.120E-03    -296.121E-03     69.9833E-03
            2083     9.36970E-03     34.2880E-03    -17.4647E+06     7.59116E+06     31.5697E+06     1.13754E+06    -295.200E-03     591.684E-03    -296.484E-03     71.9128E-03    -295.612E-03     591.969E-03    -296.312E-03     66.7166E-03
            2084     8.69696E-03     34.1740E-03    -20.5232E+06     3.79150E+06     27.8028E+06     1.73741E+06    -295.012E-03     591.714E-03    -296.702E-03     68.7623E-03    -295.381E-03     591.943E-03    -296.539E-03     64.3082E-03
            2085     8.02669E-03     34.0594E-03    -24.2568E+06    -949.231E+03     21.5423E+06     1.08129E+06    -295.341E-03     592.270E-03    -296.929E-03     64.8895E-03    -295.675E-03     592.452E-03    -296.785E-03     60.9549E-03
            2086     7.35578E-03     33.9634E-03    -29.1502E+06    -7.15236E+06     12.9114E+06    -346.368E+03    -295.854E-03     592.990E-03    -297.136E-03     60.3039E-03    -296.163E-03     593.133E-03    -297.019E-03     56.6922E-03
            2087     6.68524E-03     33.8678E-03    -32.5925E+06    -12.2444E+06     5.01536E+06    -467.332E+03    -296.169E-03     593.497E-03    -297.328E-03     55.3315E-03    -296.439E-03     593.593E-03    -297.238E-03     52.3703E-03
            2088     6.01427E-03     33.7842E-03    -34.4186E+06    -15.8877E+06    -1.55498E+06     616.401E+03    -296.636E-03     594.140E-03    -297.504E-03     49.8328E-03    -296.868E-03     594.198E-03    -297.439E-03     47.4609E-03
            2089     5.34744E-03     33.7048E-03    -38.5060E+06    -26.5131E+06    -10.6487E+06     1.54331E+06    -297.472E-03     595.096E-03    -297.624E-03     44.2884E-03    -297.674E-03     595.098E-03    -297.583E-03     42.3215E-03
            2090     4.67896E-03     33.6378E-03    -44.0825E+06    -38.7076E+06    -20.9246E+06     1.40873E+06    -297.394E-03     595.099E-03    -297.705E-03     38.8019E-03    -297.574E-03     595.046E-03    -297.690E-03     37.1348E-03
            2091     4.01016E-03     33.5762E-03    -47.6481E+06    -44.4823E+06    -29.3382E+06     1.00878E+06    -297.032E-03     594.863E-03    -297.831E-03     33.3547E-03    -297.192E-03     594.781E-03    -297.844E-03     32.0501E-03
            2092     3.34058E-03     33.5249E-03    -48.4495E+06    -47.6634E+06    -35.3609E+06     508.086E+03    -297.465E-03     595.446E-03    -297.981E-03     27.7668E-03    -297.603E-03     595.346E-03    -298.018E-03     26.6559E-03
            2093     2.67217E-03     33.4835E-03    -52.3792E+06    -53.5205E+06    -43.3764E+06     242.846E+03    -297.779E-03     595.871E-03    -298.093E-03     22.6081E-03    -297.906E-03     595.749E-03    -298.156E-03     21.6902E-03
            2094     2.00310E-03     33.4514E-03    -54.7145E+06    -57.4159E+06    -48.7453E+06    -507.100E+03    -297.865E-03     596.076E-03    -298.211E-03     17.0200E-03    -297.978E-03     595.934E-03    -298.292E-03     16.3414E-03
            2095     1.33551E-03     33.4263E-03    -54.6245E+06    -58.7645E+06    -51.5665E+06    -8.97703E+03    -298.201E-03     596.521E-03    -298.320E-03     11.3108E-03    -298.289E-03     596.362E-03    -298.414E-03     10.9139E-03
            2096     668.252E-06     33.4144E-03    -55.9518E+06    -63.5257E+06    -54.9560E+06     1.31534E+06    -298.697E-03     596.809E-03    -298.112E-03     6.57590E-03    -298.731E-03     596.634E-03    -298.213E-03     6.45509E-03
            2097     12.7259E-03     33.2390E-03    -2.89904E+06     22.3362E+06     43.5881E+06     213.281E+03    -294.364E-03     590.062E-03    -295.697E-03     79.9708E-03    -294.742E-03     590.382E-03    -295.508E-03     74.7979E-03
            2098     12.0521E-03     33.1043E-03    -5.07674E+06     20.1323E+06     40.6961E+06     228.417E+03    -294.661E-03     590.539E-03    -295.878E-03     82.4062E-03    -295.118E-03     590.932E-03    -295.697E-03     76.2800E-03
            2099     11.3820E-03     32.9657E-03    -7.52835E+06     16.5395E+06     38.9412E+06     777.646E+03    -295.324E-03     591.386E-03    -296.062E-03     82.5654E-03    -295.804E-03     591.784E-03    -295.880E-03     76.3363E-03
            2100     10.7108E-03     32.8322E-03    -10.4570E+06     13.8239E+06     37.0817E+06     604.577E+03    -294.990E-03     591.242E-03    -296.252E-03     79.9312E-03    -295.450E-03     591.607E-03    -296.071E-03     74.0331E-03
            2101     10.0375E-03     32.6989E-03    -13.1410E+06     11.7635E+06     35.6449E+06     354.238E+03    -294.503E-03     590.988E-03    -296.485E-03     76.8898E-03    -294.946E-03     591.323E-03    -296.305E-03     71.2847E-03
            2102     9.36599E-03     32.5787E-03    -17.0817E+06     8.08599E+06     32.5823E+06     880.800E+03    -295.015E-03     591.747E-03    -296.732E-03     73.3748E-03    -295.438E-03     592.044E-03    -296.556E-03     68.0807E-03
            2103     8.69629E-03     32.4617E-03    -20.2680E+06     4.21908E+06     28.6211E+06     1.45302E+06    -295.161E-03     592.132E-03    -296.971E-03     69.1604E-03    -295.550E-03     592.382E-03    -296.805E-03     64.3572E-03
            2104     8.02324E-03     32.3516E-03    -23.2057E+06    -63.6787E+03     22.3570E+06     1.68078E+06    -294.809E-03     592.043E-03    -297.233E-03     64.2070E-03    -295.148E-03     592.233E-03    -297.088E-03     60.1362E-03
            2105     7.35209E-03     32.2463E-03    -27.2372E+06    -5.78271E+06     13.4903E+06     479.754E+03    -295.447E-03     592.950E-03    -297.503E-03     59.5160E-03    -295.754E-03     593.101E-03    -297.388E-03     55.8097E-03
            2106     6.68315E-03     32.1532E-03    -31.4804E+06    -11.6214E+06     4.81044E+06    -227.099E+03    -296.323E-03     594.061E-03    -297.738E-03     54.9023E-03    -296.601E-03     594.172E-03    -297.651E-03     51.5973E-03
            2107     6.01467E-03     32.0668E-03    -33.8768E+06    -15.4784E+06    -1.27241E+06     1.22358E+06    -296.769E-03     594.717E-03    -297.947E-03     50.5583E-03    -297.007E-03     594.783E-03    -297.882E-03     48.0477E-03
            2108     5.34360E-03     31.9855E-03    -39.9159E+06    -28.2139E+06    -12.6093E+06     1.50227E+06    -297.079E-03     595.221E-03    -298.141E-03     46.1764E-03    -297.289E-03     595.225E-03    -298.106E-03     44.1165E-03
            2109     4.67525E-03     31.9175E-03    -45.7295E+06    -40.8269E+06    -23.8246E+06    -21.1403E+03    -297.428E-03     595.757E-03    -298.329E-03     41.5860E-03    -297.618E-03     595.708E-03    -298.322E-03     39.7280E-03
            2110     4.00654E-03     31.8584E-03    -46.3001E+06    -42.7579E+06    -27.4811E+06     330.994E+03    -297.861E-03     596.374E-03    -298.513E-03     36.7867E-03    -298.022E-03     596.299E-03    -298.521E-03     35.5354E-03
            2111     3.33846E-03     31.8047E-03    -49.1231E+06    -47.0445E+06    -33.3599E+06     1.14887E+06    -298.269E-03     596.926E-03    -298.657E-03     30.4280E-03    -298.415E-03     596.827E-03    -298.684E-03     29.4260E-03
            2112     2.67005E-03     31.7628E-03    -52.0008E+06    -52.1508E+06    -40.8377E+06     831.772E+03    -298.561E-03     597.308E-03    -298.747E-03     23.7986E-03    -298.691E-03     597.187E-03    -298.800E-03     22.8753E-03
            2113     2.00332E-03     31.7289E-03    -53.9059E+06    -56.2396E+06    -47.3598E+06     731.757E+03    -298.728E-03     597.529E-03    -298.801E-03     17.8772E-03    -298.839E-03     597.388E-03    -298.878E-03     17.2818E-03
            2114     1.33488E-03     31.7057E-03    -55.2519E+06    -59.3244E+06    -51.6537E+06     128.468E+03    -298.965E-03     597.756E-03    -298.791E-03     11.8285E-03    -299.058E-03     597.598E-03    -298.884E-03     11.4490E-03
            2115     667.090E-06     31.6886E-03    -55.0526E+06    -62.2843E+06    -53.9142E+06    -979.393E+03    -299.193E-03     597.601E-03    -298.408E-03     6.64011E-03    -299.230E-03     597.437E-03    -298.507E-03     6.26293E-03
            2116     12.7236E-03     31.5356E-03    -2.34663E+06     21.8034E+06     44.1136E+06     23.4771E+03    -293.618E-03     589.400E-03    -295.783E-03     80.6948E-03    -294.001E-03     589.725E-03    -295.590E-03     75.4284E-03
            2117     12.0520E-03     31.3966E-03    -4.61522E+06     19.7718E+06     41.7473E+06     1.04899E+06    -294.198E-03     590.206E-03    -296.008E-03     83.3964E-03    -294.650E-03     590.591E-03    -295.821E-03     77.4195E-03
            2118     11.3786E-03     31.2566E-03    -7.28446E+06     17.0525E+06     39.6419E+06     1.03973E+06    -295.041E-03     591.263E-03    -296.222E-03     83.2150E-03    -295.522E-03     591.663E-03    -296.038E-03     77.0351E-03
            2119     10.7076E-03     31.1199E-03    -10.2503E+06     14.0445E+06     37.2602E+06    -338.855E+03    -294.667E-03     591.107E-03    -296.440E-03     80.3985E-03    -295.154E-03     591.499E-03    -296.259E-03     74.0694E-03
            2120     10.0366E-03     30.9952E-03    -13.5557E+06     10.6990E+06     34.8257E+06     268.738E+03    -294.140E-03     590.846E-03    -296.706E-03     77.8454E-03    -294.602E-03     591.197E-03    -296.528E-03     71.9717E-03
            2121     9.36371E-03     30.8656E-03    -16.4944E+06     7.71810E+06     31.9801E+06     682.256E+03    -294.818E-03     591.809E-03    -296.991E-03     74.5352E-03    -295.243E-03     592.110E-03    -296.819E-03     69.2289E-03
            2122     8.69227E-03     30.7484E-03    -20.3548E+06     3.46551E+06     26.7372E+06     226.782E+03    -295.487E-03     592.731E-03    -297.244E-03     69.7852E-03    -295.886E-03     592.993E-03    -297.086E-03     64.7154E-03
            2123     8.02354E-03     30.6399E-03    -23.8783E+06    -1.02094E+06     20.6614E+06     606.316E+03    -295.279E-03     592.780E-03    -297.501E-03     65.6133E-03    -295.634E-03     592.987E-03    -297.361E-03     61.2138E-03
            2124     7.35239E-03     30.5342E-03    -26.3968E+06    -4.90973E+06     14.6494E+06     1.40686E+06    -295.057E-03     592.868E-03    -297.811E-03     61.4327E-03    -295.364E-03     593.021E-03    -297.692E-03     57.8358E-03
            2125     6.68032E-03     30.4366E-03    -30.8229E+06    -10.6159E+06     6.72119E+06     1.95610E+06    -295.727E-03     593.869E-03    -298.141E-03     56.8825E-03    -296.003E-03     593.978E-03    -298.048E-03     53.8321E-03
            2126     6.00962E-03     30.3487E-03    -37.2866E+06    -18.2390E+06    -2.83164E+06     1.58698E+06    -296.382E-03     594.836E-03    -298.453E-03     52.3886E-03    -296.638E-03     594.903E-03    -298.387E-03     49.7599E-03
            2127     5.34123E-03     30.2690E-03    -40.0187E+06    -27.8784E+06    -11.0537E+06     1.23607E+06    -296.550E-03     595.331E-03    -298.782E-03     47.2967E-03    -296.769E-03     595.342E-03    -298.738E-03     45.0938E-03
            2128     4.67026E-03     30.1981E-03    -41.2459E+06    -36.1135E+06    -18.5665E+06     1.41590E+06    -297.446E-03     596.550E-03    -299.104E-03     41.6149E-03    -297.626E-03     596.509E-03    -299.085E-03     39.8662E-03
            2129     4.00187E-03     30.1350E-03    -45.0120E+06    -41.7294E+06    -26.8482E+06     855.299E+03    -298.434E-03     597.784E-03    -299.350E-03     36.0982E-03    -298.594E-03     597.714E-03    -299.359E-03     34.6831E-03
            2130     3.33447E-03     30.0807E-03    -48.3152E+06    -47.0427E+06    -34.6498E+06     36.2368E+03    -298.781E-03     598.328E-03    -299.547E-03     30.9050E-03    -298.925E-03     598.234E-03    -299.582E-03     29.7226E-03
            2131     2.66820E-03     30.0379E-03    -50.5372E+06    -51.0310E+06    -40.7968E+06    -53.7290E+03    -299.160E-03     598.895E-03    -299.735E-03     25.4262E-03    -299.285E-03     598.778E-03    -299.791E-03     24.4991E-03
            2132     1.99996E-03     30.0052E-03    -52.5696E+06    -55.0895E+06    -46.8086E+06     1.14076E+06    -299.632E-03     599.512E-03    -299.881E-03     19.9440E-03    -299.739E-03     599.374E-03    -299.959E-03     19.4217E-03
            2133     1.33430E-03     29.9788E-03    -54.6844E+06    -59.5606E+06    -52.8264E+06     407.076E+03    -300.035E-03     599.961E-03    -299.925E-03     14.0000E-03    -300.125E-03     599.803E-03    -300.024E-03     13.6708E-03
            2134     667.976E-06     29.9663E-03    -58.8071E+06    -66.5981E+06    -58.5560E+06    -933.186E+03    -300.029E-03     599.914E-03    -299.884E-03     7.47996E-03    -300.075E-03     599.745E-03    -299.995E-03     7.16295E-03
            2135     12.7230E-03     29.8282E-03    -2.36088E+06     21.7303E+06     45.6768E+06    -125.139E+03    -293.497E-03     589.351E-03    -295.854E-03     79.5729E-03    -293.878E-03     589.668E-03    -295.653E-03     74.3379E-03
            2136     12.0494E-03     29.6919E-03    -4.96310E+06     19.4774E+06     43.1806E+06     739.431E+03    -293.786E-03     589.881E-03    -296.095E-03     83.1201E-03    -294.238E-03     590.259E-03    -295.900E-03     77.1918E-03
            2137     11.3786E-03     29.5457E-03    -7.15200E+06     16.9767E+06     39.9803E+06     410.963E+03    -293.752E-03     590.109E-03    -296.357E-03     83.0810E-03    -294.237E-03     590.513E-03    -296.171E-03     76.8428E-03
            2138     10.7059E-03     29.4136E-03    -9.92530E+06     13.9678E+06     36.6843E+06    -335.323E+03    -293.878E-03     590.521E-03    -296.643E-03     80.7596E-03    -294.371E-03     590.922E-03    -296.465E-03     74.3409E-03
            2139     10.0326E-03     29.2838E-03    -14.0319E+06     9.83959E+06     32.9067E+06     197.185E+03    -294.481E-03     591.415E-03    -296.934E-03     78.4804E-03    -294.951E-03     591.775E-03    -296.763E-03     72.4632E-03
            2140     9.36200E-03     29.1570E-03    -16.3573E+06     7.25473E+06     30.4656E+06     403.731E+03    -294.134E-03     591.388E-03    -297.254E-03     75.7869E-03    -294.564E-03     591.697E-03    -297.089E-03     70.3916E-03
            2141     8.69054E-03     29.0347E-03    -19.0091E+06     4.19193E+06     26.9355E+06     626.698E+03    -294.272E-03     591.889E-03    -297.617E-03     72.4545E-03    -294.664E-03     592.150E-03    -297.461E-03     67.5919E-03
            2142     8.01809E-03     28.9257E-03    -23.3011E+06    -673.296E+03     20.8029E+06     788.533E+03    -295.323E-03     593.292E-03    -297.970E-03     68.9147E-03    -295.681E-03     593.505E-03    -297.831E-03     64.5844E-03
            2143     7.34733E-03     28.8208E-03    -27.3863E+06    -5.50761E+06     14.6914E+06     1.57966E+06    -295.758E-03     594.064E-03    -298.306E-03     64.4886E-03    -296.079E-03     594.225E-03    -298.185E-03     60.8127E-03
            2144     6.67708E-03     28.7227E-03    -31.7917E+06    -11.2238E+06     6.86835E+06     1.97468E+06    -295.882E-03     594.540E-03    -298.657E-03     58.9261E-03    -296.164E-03     594.648E-03    -298.561E-03     55.9509E-03
            2145     6.00737E-03     28.6294E-03    -37.0843E+06    -18.5380E+06    -3.84239E+06     1.21653E+06    -296.447E-03     595.462E-03    -299.015E-03     53.0325E-03    -296.700E-03     595.529E-03    -298.954E-03     50.4149E-03
            2146     5.33642E-03     28.5515E-03    -40.4321E+06    -28.2771E+06    -12.0923E+06     1.23921E+06    -297.349E-03     596.710E-03    -299.361E-03     47.2999E-03    -297.569E-03     596.722E-03    -299.322E-03     45.0698E-03
            2147     4.66900E-03     28.4748E-03    -40.3748E+06    -34.2614E+06    -15.8651E+06     2.51117E+06    -298.158E-03     597.832E-03    -299.674E-03     41.6559E-03    -298.337E-03     597.793E-03    -299.645E-03     39.9983E-03
            2148     4.00141E-03     28.4110E-03    -44.3466E+06    -40.4700E+06    -25.1745E+06     2.11133E+06    -298.639E-03     598.575E-03    -299.937E-03     35.6521E-03    -298.801E-03     598.510E-03    -299.939E-03     34.1542E-03
            2149     3.33278E-03     28.3570E-03    -46.0318E+06    -44.7328E+06    -32.9088E+06     745.219E+03    -298.906E-03     599.117E-03    -300.211E-03     29.7889E-03    -299.046E-03     599.030E-03    -300.244E-03     28.4997E-03
            2150     2.66329E-03     28.3114E-03    -50.1440E+06    -51.1753E+06    -41.9775E+06     316.614E+03    -299.485E-03     599.978E-03    -300.492E-03     23.6188E-03    -299.606E-03     599.861E-03    -300.555E-03     22.7103E-03
            2151     1.99767E-03     28.2759E-03    -53.4944E+06    -56.4405E+06    -49.1663E+06     220.091E+03    -300.162E-03     600.899E-03    -300.737E-03     17.7677E-03    -300.268E-03     600.759E-03    -300.824E-03     17.0986E-03
            2152     1.33000E-03     28.2500E-03    -53.1816E+06    -57.5129E+06    -51.3081E+06     1.00623E+06    -300.514E-03     601.496E-03    -300.982E-03     12.2171E-03    -300.599E-03     601.342E-03    -301.078E-03     11.7290E-03
            2153     664.152E-06     28.2331E-03    -58.3606E+06    -66.4233E+06    -58.6521E+06     878.641E+03    -300.850E-03     602.297E-03    -301.447E-03     6.17673E-03    -300.887E-03     602.122E-03    -301.560E-03     5.95046E-03
            2154     12.7233E-03     28.1272E-03    -2.62922E+06     21.1604E+06     44.4319E+06    -76.8560E+03    -293.050E-03     588.907E-03    -295.857E-03     78.8789E-03    -293.427E-03     589.221E-03    -295.662E-03     73.6753E-03
            2155     12.0513E-03     27.9829E-03    -5.58364E+06     18.2120E+06     40.6630E+06    -284.360E+03    -292.842E-03     588.976E-03    -296.134E-03     84.1156E-03    -293.305E-03     589.365E-03    -295.949E-03     78.0584E-03
            2156     11.3767E-03     27.8428E-03    -7.52100E+06     15.8372E+06     38.1375E+06    -273.378E+03    -292.609E-03     589.075E-03    -296.466E-03     83.4591E-03    -293.085E-03     589.470E-03    -296.287E-03     77.3324E-03
            2157     10.7023E-03     27.7065E-03    -9.92932E+06     13.4636E+06     35.9622E+06     869.246E+03    -293.103E-03     589.931E-03    -296.828E-03     81.4578E-03    -293.568E-03     590.305E-03    -296.653E-03     75.5398E-03
            2158     10.0319E-03     27.5713E-03    -12.2032E+06     11.3604E+06     34.3117E+06    -349.554E+03    -293.589E-03     590.789E-03    -297.199E-03     79.5573E-03    -294.058E-03     591.155E-03    -297.027E-03     73.5516E-03
            2159     9.35917E-03     27.4486E-03    -16.2393E+06     7.07209E+06     30.0731E+06     198.899E+03    -293.275E-03     590.877E-03    -297.602E-03     77.3009E-03    -293.721E-03     591.203E-03    -297.439E-03     71.7109E-03
            2160     8.68441E-03     27.3270E-03    -20.4315E+06     2.67986E+06     25.5871E+06     1.80885E+06    -293.673E-03     591.727E-03    -298.055E-03     73.7758E-03    -294.063E-03     591.981E-03    -297.901E-03     69.1237E-03
            2161     8.01265E-03     27.2101E-03    -23.9286E+06    -965.645E+03     21.5577E+06     1.47892E+06    -294.956E-03     593.452E-03    -298.496E-03     68.4909E-03    -295.311E-03     593.656E-03    -298.352E-03     64.3223E-03
            2162     7.34276E-03     27.1034E-03    -27.4108E+06    -5.51917E+06     14.8119E+06     820.580E+03    -296.201E-03     595.069E-03    -298.869E-03     64.1836E-03    -296.527E-03     595.236E-03    -298.747E-03     60.3536E-03
            2163     6.67331E-03     27.0039E-03    -30.1164E+06    -10.1115E+06     6.83802E+06     579.274E+03    -296.872E-03     596.071E-03    -299.198E-03     59.4104E-03    -297.158E-03     596.194E-03    -299.106E-03     56.1373E-03
            2164     6.00278E-03     26.9125E-03    -33.9029E+06    -15.5770E+06    -1.30378E+06     2.05865E+06    -297.503E-03     597.016E-03    -299.513E-03     53.3070E-03    -297.745E-03     597.086E-03    -299.448E-03     50.8075E-03
            2165     5.33546E-03     26.8265E-03    -37.5195E+06    -25.5553E+06    -10.1838E+06     1.63698E+06    -298.319E-03     598.114E-03    -299.794E-03     47.1324E-03    -298.527E-03     598.127E-03    -299.754E-03     45.0082E-03
            2166     4.66664E-03     26.7526E-03    -42.2297E+06    -36.9078E+06    -20.7101E+06     128.170E+03    -298.609E-03     598.660E-03    -300.052E-03     41.6317E-03    -298.788E-03     598.619E-03    -300.040E-03     39.8726E-03
            2167     3.99780E-03     26.6850E-03    -44.3626E+06    -40.3212E+06    -25.9896E+06     499.162E+03    -299.087E-03     599.406E-03    -300.319E-03     35.8740E-03    -299.247E-03     599.341E-03    -300.326E-03     34.3971E-03
            2168     3.33143E-03     26.6305E-03    -47.9866E+06    -45.3715E+06    -32.6536E+06     1.78641E+06    -299.955E-03     600.478E-03    -300.523E-03     29.2867E-03    -300.102E-03     600.388E-03    -300.551E-03     28.0904E-03
            2169     2.66656E-03     26.5834E-03    -49.6604E+06    -49.4265E+06    -38.8237E+06     1.27697E+06    -300.353E-03     600.996E-03    -300.644E-03     22.9361E-03    -300.477E-03     600.882E-03    -300.694E-03     22.0948E-03
            2170     1.99880E-03     26.5462E-03    -51.8177E+06    -53.4839E+06    -44.6575E+06     826.808E+03    -300.523E-03     601.256E-03    -300.733E-03     16.8046E-03    -300.632E-03     601.122E-03    -300.803E-03     16.1188E-03
            2171     1.33380E-03     26.5195E-03    -55.7709E+06    -58.6373E+06    -50.7548E+06     1.81537E+06    -300.597E-03     601.437E-03    -300.840E-03     10.9838E-03    -300.692E-03     601.279E-03    -300.928E-03     10.6085E-03
            2172     666.755E-06     26.5028E-03    -51.5074E+06    -58.7591E+06    -50.1787E+06     1.89554E+06    -300.761E-03     601.912E-03    -301.150E-03     5.71577E-03    -300.781E-03     601.747E-03    -301.241E-03     5.61099E-03
            2173     12.7232E-03     26.4211E-03    -2.04133E+06     20.6790E+06     42.0757E+06     167.739E+03    -291.806E-03     587.675E-03    -295.869E-03     79.7616E-03    -292.167E-03     587.981E-03    -295.686E-03     74.8016E-03
            2174     12.0483E-03     26.2810E-03    -3.69249E+06     18.8575E+06     39.1516E+06    -54.0433E+03    -291.991E-03     588.203E-03    -296.212E-03     85.5348E-03    -292.454E-03     588.606E-03    -296.038E-03     79.4028E-03
            2175     11.3750E-03     26.1377E-03    -7.42895E+06     15.0770E+06     35.8415E+06     211.380E+03    -292.105E-03     588.700E-03    -296.595E-03     84.4832E-03    -292.587E-03     589.105E-03    -296.426E-03     78.2835E-03
            2176     10.7030E-03     26.0003E-03    -10.9722E+06     11.7739E+06     33.4768E+06     705.281E+03    -292.061E-03     589.084E-03    -297.023E-03     83.2772E-03    -292.535E-03     589.464E-03    -296.856E-03     77.3469E-03
            2177     10.0271E-03     25.8642E-03    -13.3234E+06     9.95068E+06     32.9836E+06    -775.169E+03    -292.285E-03     589.784E-03    -297.499E-03     81.0337E-03    -292.763E-03     590.155E-03    -297.329E-03     75.0087E-03
            2178     9.35321E-03     25.7404E-03    -16.7146E+06     7.15490E+06     31.4014E+06    -321.711E+03    -293.668E-03     591.636E-03    -297.968E-03     77.2677E-03    -294.115E-03     591.958E-03    -297.797E-03     71.7045E-03
            2179     8.68316E-03     25.6145E-03    -21.1207E+06     2.61572E+06     26.6781E+06     1.61034E+06    -294.831E-03     593.214E-03    -298.384E-03     72.6611E-03    -295.226E-03     593.467E-03    -298.224E-03     67.9095E-03
            2180     8.01188E-03     25.4968E-03    -24.3382E+06    -1.81349E+06     20.0814E+06     1.18247E+06    -295.096E-03     593.877E-03    -298.781E-03     67.2744E-03    -295.452E-03     594.082E-03    -298.643E-03     62.9698E-03
            2181     7.33978E-03     25.3865E-03    -25.9483E+06    -4.77535E+06     14.4626E+06     46.5230E+03    -296.062E-03     595.237E-03    -299.176E-03     62.3921E-03    -296.369E-03     595.394E-03    -299.059E-03     58.7503E-03
            2182     6.66949E-03     25.2831E-03    -29.4309E+06    -9.20211E+06     8.15911E+06     127.788E+03    -297.507E-03     597.017E-03    -299.510E-03     56.9915E-03    -297.785E-03     597.135E-03    -299.413E-03     53.7182E-03
            2183     6.00227E-03     25.1898E-03    -32.1385E+06    -13.3636E+06     1.63686E+06     1.62151E+06    -298.366E-03     598.134E-03    -299.767E-03     51.5946E-03    -298.613E-03     598.214E-03    -299.693E-03     48.8339E-03
            2184     5.33305E-03     25.1021E-03    -35.5556E+06    -23.4589E+06    -8.24651E+06     847.944E+03    -298.839E-03     598.818E-03    -299.979E-03     45.8841E-03    -299.045E-03     598.839E-03    -299.935E-03     43.6018E-03
            2185     4.66576E-03     25.0281E-03    -40.8539E+06    -35.4225E+06    -19.6345E+06     115.412E+03    -299.276E-03     599.440E-03    -300.164E-03     39.6681E-03    -299.455E-03     599.404E-03    -300.151E-03     37.6945E-03
            2186     3.99877E-03     24.9596E-03    -43.9331E+06    -40.7036E+06    -27.1543E+06     464.913E+03    -299.461E-03     599.806E-03    -300.345E-03     33.9671E-03    -299.616E-03     599.739E-03    -300.358E-03     32.4745E-03
            2187     3.33130E-03     24.8997E-03    -47.3317E+06    -45.8780E+06    -34.0875E+06    -133.294E+03    -299.870E-03     600.392E-03    -300.522E-03     28.5970E-03    -300.008E-03     600.298E-03    -300.557E-03     27.4658E-03
            2188     2.66390E-03     24.8540E-03    -49.9422E+06    -49.7603E+06    -39.1274E+06     338.639E+03    -300.518E-03     601.156E-03    -300.638E-03     23.6953E-03    -300.642E-03     601.041E-03    -300.689E-03     22.8371E-03
            2189     1.99901E-03     24.8161E-03    -50.5511E+06    -52.0295E+06    -42.7038E+06     991.332E+03    -300.779E-03     601.442E-03    -300.663E-03     18.0255E-03    -300.885E-03     601.310E-03    -300.728E-03     17.4666E-03
            2190     1.33147E-03     24.7904E-03    -51.2607E+06    -54.9398E+06    -46.8818E+06     204.855E+03    -300.827E-03     601.438E-03    -300.611E-03     12.1522E-03    -300.911E-03     601.286E-03    -300.692E-03     11.9061E-03
            2191     666.095E-06     24.7723E-03    -49.8797E+06    -57.1145E+06    -48.1438E+06     20.0911E+03    -300.651E-03     601.233E-03    -300.582E-03     7.20853E-03    -300.672E-03     601.080E-03    -300.667E-03     7.14482E-03
            2192     12.7218E-03     24.7243E-03    -1.95464E+06     20.5838E+06     41.9042E+06     359.708E+03    -291.661E-03     587.620E-03    -295.959E-03     80.9501E-03    -292.018E-03     587.922E-03    -295.777E-03     76.1357E-03
            2193     12.0478E-03     24.5746E-03    -4.93049E+06     17.9014E+06     38.8665E+06     1.03269E+06    -291.803E-03     588.124E-03    -296.322E-03     85.6088E-03    -292.269E-03     588.524E-03    -296.146E-03     79.5226E-03
            2194     11.3738E-03     24.4356E-03    -7.78179E+06     14.7018E+06     35.7475E+06     944.902E+03    -291.379E-03     588.116E-03    -296.737E-03     84.5871E-03    -291.870E-03     588.529E-03    -296.569E-03     78.2780E-03
            2195     10.6975E-03     24.2941E-03    -10.2342E+06     12.2319E+06     33.4671E+06    -256.451E+03    -291.558E-03     588.768E-03    -297.209E-03     83.4125E-03    -292.051E-03     589.170E-03    -297.045E-03     77.1514E-03
            2196     10.0248E-03     24.1615E-03    -13.7575E+06     9.27535E+06     31.6989E+06    -59.6633E+03    -292.996E-03     590.679E-03    -297.683E-03     79.5938E-03    -293.468E-03     591.043E-03    -297.518E-03     73.5989E-03
            2197     9.35281E-03     24.0260E-03    -16.5995E+06     6.98484E+06     30.5264E+06    -110.481E+03    -294.533E-03     592.635E-03    -298.102E-03     74.9683E-03    -294.964E-03     592.943E-03    -297.935E-03     69.5161E-03
            2198     8.68113E-03     23.9001E-03    -19.0267E+06     4.37685E+06     27.8100E+06    -657.017E+03    -295.275E-03     593.747E-03    -298.472E-03     70.8576E-03    -295.669E-03     594.009E-03    -298.312E-03     65.8538E-03
            2199     8.01031E-03     23.7822E-03    -21.4282E+06     1.07396E+06      22.835E+06    -743.882E+03    -296.224E-03     595.030E-03    -298.806E-03     66.1068E-03    -296.581E-03     595.248E-03    -298.662E-03     61.5264E-03
            2200     7.34079E-03     23.6700E-03    -27.0520E+06    -5.57359E+06     14.2934E+06     725.694E+03    -297.117E-03     596.205E-03    -299.088E-03     59.6785E-03    -297.423E-03     596.354E-03    -298.969E-03     56.0064E-03
            2201     6.67195E-03     23.5613E-03    -31.7842E+06    -11.4130E+06     6.71570E+06     317.588E+03    -297.502E-03     596.847E-03    -299.345E-03     53.8273E-03    -297.775E-03     596.946E-03    -299.248E-03     50.7066E-03
            2202     6.00237E-03     23.4665E-03    -34.0992E+06    -15.3620E+06    -45.0543E+03    -740.101E+03    -298.123E-03     597.703E-03    -299.580E-03     49.0165E-03    -298.371E-03     597.775E-03    -299.508E-03     46.1833E-03
            2203     5.33502E-03     23.3787E-03    -37.2768E+06    -24.8646E+06    -9.22515E+06     1.07948E+06    -298.857E-03     598.626E-03    -299.770E-03     43.8660E-03    -299.065E-03     598.641E-03    -299.726E-03     41.5759E-03
            2204     4.66742E-03     23.3003E-03    -39.2969E+06    -33.1371E+06    -15.9907E+06     996.574E+03    -299.490E-03     599.400E-03    -299.909E-03     38.5053E-03    -299.668E-03     599.366E-03    -299.884E-03     36.5363E-03
            2205     4.00062E-03     23.2329E-03    -42.4360E+06    -38.4005E+06    -23.3340E+06     478.297E+03    -299.717E-03     599.717E-03    -300.000E-03     33.0069E-03    -299.871E-03     599.652E-03    -300.000E-03     31.5546E-03
            2206     3.33278E-03     23.1756E-03    -45.4423E+06    -43.9131E+06    -31.8843E+06     443.972E+03    -299.646E-03     599.736E-03    -300.090E-03     27.0554E-03    -299.778E-03     599.643E-03    -300.120E-03     26.0159E-03
            2207     2.66574E-03     23.1235E-03    -48.0311E+06    -49.4462E+06    -40.6690E+06    -245.814E+03    -299.838E-03     600.027E-03    -300.189E-03     21.0651E-03    -299.950E-03     599.911E-03    -300.251E-03     20.1952E-03
            2208     1.99813E-03     23.0869E-03    -49.2408E+06    -52.9388E+06    -46.1768E+06    -1.97269E+06    -300.204E-03     600.460E-03    -300.256E-03     15.6666E-03    -300.297E-03     600.326E-03    -300.339E-03     14.9741E-03
            2209     1.33335E-03     23.0589E-03    -50.7429E+06    -55.0971E+06    -47.9893E+06    -2.56015E+06    -300.520E-03     600.736E-03    -300.216E-03     10.6677E-03    -300.602E-03     600.586E-03    -300.303E-03     10.1180E-03
            2210     666.558E-06     23.0437E-03    -55.8385E+06    -62.6036E+06    -53.4081E+06    -1.22868E+06    -300.179E-03     600.361E-03    -300.182E-03     5.63587E-03    -300.221E-03     600.209E-03    -300.277E-03     5.36093E-03
            2211     12.7198E-03     23.0182E-03    -2.70906E+06     20.4508E+06     43.2527E+06     284.541E+03    -292.085E-03     588.163E-03    -296.078E-03     81.3641E-03    -292.464E-03     588.480E-03    -295.888E-03     76.3253E-03
            2212     12.0468E-03     22.8724E-03    -5.86503E+06     17.6723E+06     39.9864E+06     394.817E+03    -292.183E-03     588.606E-03    -296.423E-03     85.4274E-03    -292.663E-03     589.012E-03    -296.240E-03     79.2185E-03
            2213     11.3719E-03     22.7330E-03    -7.57504E+06     15.5339E+06     37.7366E+06     59.5378E+03    -291.817E-03     588.634E-03    -296.816E-03     83.4089E-03    -292.315E-03     589.050E-03    -296.639E-03     76.9478E-03
            2214     10.6990E-03     22.5915E-03    -9.32485E+06     13.8505E+06     36.2434E+06     740.482E+03    -292.878E-03     590.108E-03    -297.230E-03     81.5294E-03    -293.373E-03     590.514E-03    -297.056E-03     75.1174E-03
            2215     10.0257E-03     22.4495E-03    -12.2559E+06     10.9376E+06     33.5804E+06     2.33400E+06    -294.230E-03     591.835E-03    -297.605E-03     77.6874E-03    -294.688E-03     592.191E-03    -297.435E-03     71.7903E-03
            2216     9.35501E-03     22.3142E-03    -15.6445E+06     7.15805E+06     29.2161E+06     684.186E+03    -294.971E-03     592.908E-03    -297.938E-03     73.2474E-03    -295.389E-03     593.212E-03    -297.779E-03     67.8266E-03
            2217     8.68326E-03     22.1890E-03    -18.1806E+06     4.36437E+06     25.9830E+06    -1.90127E+06    -295.975E-03     594.215E-03    -298.239E-03     68.2840E-03    -296.354E-03     594.469E-03    -298.089E-03     63.2894E-03
            2218     8.01275E-03     22.0635E-03    -23.2844E+06    -625.233E+03     21.2221E+06    -1.66794E+06    -297.395E-03     595.864E-03    -298.469E-03     63.0694E-03    -297.738E-03     596.060E-03    -298.328E-03     58.6841E-03
            2219     7.34509E-03     21.9479E-03    -27.8839E+06    -6.07423E+06     14.5728E+06    -605.155E+03    -297.868E-03     596.492E-03    -298.624E-03     57.3104E-03    -298.179E-03     596.640E-03    -298.502E-03     53.3837E-03
            2220     6.67585E-03     21.8451E-03    -30.0918E+06    -10.3594E+06     7.05438E+06    -117.832E+03    -297.686E-03     596.454E-03    -298.769E-03     52.0213E-03    -297.950E-03     596.555E-03    -298.675E-03     48.8328E-03
            2221     6.00684E-03     21.7444E-03    -34.7732E+06    -19.5681E+06    -1.65710E+06    -1.55310E+06    -298.000E-03     596.928E-03    -298.927E-03     46.4457E-03    -298.227E-03     596.966E-03    -298.857E-03     43.9063E-03
            2222     5.33791E-03     21.6559E-03    -37.3378E+06    -27.8814E+06    -7.98989E+06    -698.989E+03    -298.516E-03     597.578E-03    -299.062E-03     40.7524E-03    -298.714E-03     597.567E-03    -299.007E-03     38.5550E-03
            2223     4.66974E-03     21.5758E-03    -39.2395E+06    -32.9181E+06    -15.0269E+06    -161.179E+03    -298.936E-03     598.073E-03    -299.137E-03     35.1793E-03    -299.107E-03     598.032E-03    -299.108E-03     33.2851E-03
            2224     4.00175E-03     21.5071E-03    -42.9005E+06    -38.0431E+06    -22.7862E+06    -426.715E+03    -299.469E-03     598.608E-03    -299.139E-03     29.5091E-03    -299.624E-03     598.541E-03    -299.135E-03     27.9857E-03
            2225     3.33624E-03     21.4471E-03    -45.7183E+06    -43.0152E+06    -30.2185E+06     329.198E+03    -299.596E-03     598.659E-03    -299.063E-03     24.3674E-03    -299.731E-03     598.567E-03    -299.085E-03     23.2585E-03
            2226     2.66952E-03     21.3996E-03    -47.9112E+06    -47.7761E+06    -37.3699E+06     227.447E+03    -299.140E-03     598.131E-03    -298.990E-03     19.2797E-03    -299.257E-03     598.016E-03    -299.039E-03     18.4544E-03
            2227     2.00262E-03     21.3596E-03    -50.0044E+06    -52.5507E+06    -44.3338E+06     444.593E+03    -298.878E-03     597.864E-03    -298.986E-03     14.3042E-03    -298.975E-03     597.727E-03    -299.059E-03     13.7058E-03
            2228     1.33383E-03     21.3324E-03    -53.3154E+06    -57.6961E+06    -50.9630E+06     267.238E+03    -298.967E-03     597.988E-03    -299.021E-03     9.76343E-03    -299.048E-03     597.827E-03    -299.115E-03     9.34735E-03
            2229     667.701E-06     21.3148E-03    -55.3865E+06    -63.2697E+06    -56.1057E+06     482.767E+03    -298.971E-03     598.157E-03    -299.187E-03     5.10787E-03    -299.002E-03     598.000E-03    -299.295E-03     4.89147E-03
            2230     12.7191E-03     21.3139E-03    -2.54488E+06     20.6073E+06     43.6724E+06     94.5939E+03    -291.716E-03     587.847E-03    -296.131E-03     81.4212E-03    -292.111E-03     588.180E-03    -295.939E-03     76.1342E-03
            2231     12.0453E-03     21.1675E-03    -3.91853E+06     19.5767E+06     41.8073E+06    -550.719E+03    -292.820E-03     589.288E-03    -296.469E-03     84.4768E-03    -293.306E-03     589.709E-03    -296.282E-03     78.0630E-03
            2232     11.3730E-03     21.0287E-03    -6.81574E+06     16.6697E+06     39.0726E+06    -158.357E+03    -293.906E-03     590.685E-03    -296.779E-03     83.0210E-03    -294.420E-03     591.121E-03    -296.598E-03     76.2930E-03
            2233     10.7004E-03     20.8820E-03    -10.4239E+06     13.1501E+06     35.8182E+06     696.280E+03    -295.063E-03     592.112E-03    -297.049E-03     81.4311E-03    -295.576E-03     592.531E-03    -296.874E-03     74.7855E-03
            2234     10.0301E-03     20.7401E-03    -12.6435E+06     10.7917E+06     33.7475E+06     906.519E+03    -295.454E-03     592.749E-03    -297.295E-03     76.3966E-03    -295.913E-03     593.103E-03    -297.123E-03     70.3927E-03
            2235     9.35715E-03     20.6038E-03    -15.1489E+06     8.23460E+06     31.3513E+06     438.603E+03    -296.240E-03     593.753E-03    -297.512E-03     70.8386E-03    -296.646E-03     594.044E-03    -297.346E-03     65.4935E-03
            2236     8.68794E-03     20.4716E-03    -20.1227E+06     3.10683E+06     25.9221E+06     161.922E+03    -297.513E-03     595.167E-03    -297.654E-03     65.3265E-03    -297.877E-03     595.396E-03    -297.500E-03     60.6256E-03
            2237     8.02019E-03     20.3467E-03    -24.2433E+06    -2.14733E+06     18.8495E+06     14.3709E+03    -297.747E-03     595.477E-03    -297.729E-03     59.9163E-03    -298.070E-03     595.651E-03    -297.597E-03     55.8165E-03
            2238     7.34958E-03     20.2302E-03    -26.6887E+06    -6.00922E+06     12.8598E+06    -2.17850E+06    -297.819E-03     595.606E-03    -297.787E-03     54.2497E-03    -298.113E-03     595.746E-03    -297.675E-03     50.3446E-03
            2239     6.68123E-03     20.1251E-03    -30.0417E+06    -10.2431E+06     7.33139E+06    -1.42374E+06    -298.451E-03     596.253E-03    -297.802E-03     48.5102E-03    -298.713E-03     596.351E-03    -297.707E-03     45.1595E-03
            2240     6.01342E-03     20.0252E-03    -32.8557E+06    -17.6976E+06     463.006E+03    -508.931E+03    -298.547E-03     596.308E-03    -297.760E-03     42.5226E-03    -298.765E-03     596.344E-03    -297.685E-03     39.9499E-03
            2241     5.34569E-03     19.9352E-03    -36.6950E+06    -28.0102E+06    -8.60070E+06    -2.31975E+06    -298.377E-03     596.066E-03    -297.689E-03     36.3763E-03    -298.563E-03     596.047E-03    -297.638E-03     34.2336E-03
            2242     4.67799E-03     19.8545E-03    -41.1058E+06    -35.3769E+06    -17.1398E+06    -1.64500E+06    -298.370E-03     595.963E-03    -297.592E-03     30.7717E-03    -298.537E-03     595.907E-03    -297.567E-03     29.0057E-03
            2243     4.01092E-03     19.7841E-03    -44.0735E+06    -40.0684E+06    -24.3725E+06    -1.37510E+06    -298.232E-03     595.697E-03    -297.465E-03     25.6958E-03    -298.382E-03     595.618E-03    -297.464E-03     24.2050E-03
            2244     3.34177E-03     19.7250E-03    -46.6631E+06    -44.4600E+06    -30.8513E+06    -1.68381E+06    -297.941E-03     595.268E-03    -297.327E-03     21.0984E-03    -298.076E-03     595.168E-03    -297.349E-03     19.9099E-03
            2245     2.67361E-03     19.6769E-03    -48.7984E+06    -48.8837E+06    -36.9231E+06    -1.31520E+06    -297.587E-03     594.790E-03    -297.203E-03     17.0409E-03    -297.706E-03     594.669E-03    -297.246E-03     16.0779E-03
            2246     2.00498E-03     19.6396E-03    -51.6671E+06    -54.0300E+06    -43.6729E+06     245.868E+03    -297.198E-03     594.325E-03    -297.127E-03     13.0651E-03    -297.299E-03     594.180E-03    -297.193E-03     12.4390E-03
            2247     1.33755E-03     19.6109E-03    -51.8102E+06    -56.1471E+06    -47.1225E+06     1.45933E+06    -296.943E-03     594.114E-03    -297.171E-03     8.59522E-03    -297.016E-03     593.947E-03    -297.250E-03     8.30581E-03
            2248     667.186E-06     19.5949E-03    -51.0276E+06    -58.7020E+06    -49.5304E+06     149.707E+03    -297.240E-03     594.534E-03    -297.295E-03     4.43273E-03    -297.254E-03     594.364E-03    -297.383E-03     4.21003E-03
            2249     12.7197E-03     19.6120E-03    -2.00456E+06     20.9672E+06     43.3822E+06    -114.953E+03    -292.344E-03     588.413E-03    -296.070E-03     80.6457E-03    -292.747E-03     588.759E-03    -295.880E-03     75.1506E-03
            2250     12.0461E-03     19.4625E-03    -4.85403E+06     18.6282E+06     40.5152E+06     71.8310E+03    -293.769E-03     590.121E-03    -296.352E-03     82.7963E-03    -294.255E-03     590.539E-03    -296.169E-03     76.3278E-03
            2251     11.3738E-03     19.3185E-03    -7.54455E+06     15.9008E+06     37.8318E+06     85.2221E+03    -295.766E-03     592.330E-03    -296.564E-03     81.1648E-03    -296.269E-03     592.752E-03    -296.387E-03     74.5102E-03
            2252     10.7043E-03     19.1706E-03    -9.76672E+06     13.7400E+06     35.9062E+06    -602.591E+03    -297.017E-03     593.711E-03    -296.694E-03     78.9123E-03    -297.514E-03     594.118E-03    -296.520E-03     72.2787E-03
            2253     10.0335E-03     19.0279E-03    -12.8666E+06     10.9670E+06     34.1762E+06    -769.551E+03    -297.615E-03     594.383E-03    -296.768E-03     73.7065E-03    -298.069E-03     594.732E-03    -296.595E-03     67.5953E-03
            2254     9.36608E-03     18.8904E-03    -16.7220E+06     7.32430E+06     31.3235E+06     59.3855E+03    -298.346E-03     595.128E-03    -296.782E-03     68.5037E-03    -298.754E-03     595.412E-03    -296.612E-03     63.0782E-03
            2255     8.69716E-03     18.7547E-03    -19.6984E+06     3.79895E+06     27.2174E+06     47.0486E+03    -298.534E-03     595.269E-03    -296.735E-03     62.5995E-03    -298.890E-03     595.490E-03    -296.576E-03     57.8983E-03
            2256     8.02749E-03     18.6311E-03    -22.1354E+06     175.775E+03     21.8951E+06    -869.929E+03    -298.469E-03     595.115E-03    -296.647E-03     56.3870E-03    -298.783E-03     595.288E-03    -296.505E-03     52.1818E-03
            2257     7.35983E-03     18.5151E-03    -26.4402E+06    -5.43484E+06     14.4025E+06    -494.287E+03    -298.808E-03     595.309E-03    -296.501E-03     49.9642E-03    -299.087E-03     595.433E-03    -296.383E-03     46.2900E-03
            2258     6.69188E-03     18.4052E-03    -30.8502E+06    -11.2804E+06     6.43046E+06    -1.18714E+06    -299.075E-03     595.347E-03    -296.272E-03     43.4130E-03    -299.324E-03     595.428E-03    -296.178E-03     40.1927E-03
            2259     6.02455E-03     18.3073E-03    -33.3856E+06    -15.5608E+06    -369.274E+03    -1.49102E+06    -298.700E-03     594.682E-03    -295.982E-03     37.6700E-03    -298.920E-03     594.729E-03    -295.913E-03     34.9097E-03
            2260     5.35657E-03     18.2174E-03    -37.5567E+06    -26.0825E+06    -9.95658E+06    -1.29488E+06    -297.983E-03     593.657E-03    -295.674E-03     32.4088E-03    -298.169E-03     593.646E-03    -295.632E-03     30.2816E-03
            2261     4.68827E-03     18.1376E-03    -41.1774E+06    -36.5130E+06    -18.5301E+06    -1.85246E+06    -297.133E-03     592.522E-03    -295.390E-03     27.5349E-03    -297.291E-03     592.459E-03    -295.370E-03     25.8030E-03
            2262     4.01873E-03     18.0682E-03    -43.9405E+06    -41.4987E+06    -24.9937E+06    -2.21295E+06    -296.316E-03     591.464E-03    -295.148E-03     23.1295E-03    -296.460E-03     591.376E-03    -295.149E-03     21.6659E-03
            2263     3.35048E-03     18.0102E-03    -47.1229E+06    -46.7046E+06    -32.4924E+06    -2.58984E+06    -295.839E-03     590.769E-03    -294.930E-03     18.6588E-03    -295.967E-03     590.658E-03    -294.957E-03     17.4922E-03
            2264     2.68064E-03     17.9627E-03    -49.1768E+06    -51.1626E+06    -38.8596E+06    -2.47144E+06    -295.532E-03     590.239E-03    -294.707E-03     14.2141E-03    -295.643E-03     590.107E-03    -294.756E-03     13.2816E-03
            2265     2.01101E-03     17.9252E-03    -51.6930E+06    -55.6376E+06    -44.6629E+06    -2.63467E+06    -295.124E-03     589.591E-03    -294.467E-03     10.1313E-03    -295.220E-03     589.438E-03    -294.535E-03     9.39591E-03
            2266     1.33980E-03     17.8980E-03    -52.8650E+06    -58.7522E+06    -48.5703E+06    -2.58268E+06    -294.636E-03     588.880E-03    -294.244E-03     6.48688E-03    -294.707E-03     588.703E-03    -294.325E-03     6.02443E-03
            2267     671.543E-06     17.8795E-03    -54.5943E+06    -62.6718E+06    -51.0191E+06    -1.66188E+06    -294.321E-03     588.352E-03    -294.031E-03     3.76518E-03    -294.338E-03     588.158E-03    -294.116E-03     3.53205E-03
            2268     12.7225E-03     17.9078E-03    -2.27350E+06     20.9260E+06     42.9971E+06     44.0053E+03    -294.347E-03     590.257E-03    -295.910E-03     80.2719E-03    -294.755E-03     590.607E-03    -295.722E-03     74.6781E-03
            2269     12.0506E-03     17.7569E-03    -4.85317E+06     18.6745E+06     40.0071E+06    -21.6692E+03    -295.852E-03     591.919E-03    -296.067E-03     82.7844E-03    -296.344E-03     592.344E-03    -295.887E-03     76.2182E-03
            2270     11.3802E-03     17.6070E-03    -7.16934E+06     16.2179E+06     37.5388E+06    -575.645E+03    -297.655E-03     593.798E-03    -296.143E-03     80.2818E-03    -298.150E-03     594.217E-03    -295.969E-03     73.6375E-03
            2271     10.7104E-03     17.4568E-03    -10.0984E+06     13.6172E+06     35.6479E+06    -790.359E+03    -299.155E-03     595.270E-03    -296.115E-03     76.5458E-03    -299.639E-03     595.663E-03    -295.942E-03     69.9785E-03
            2272     10.0429E-03     17.3143E-03    -13.5143E+06     10.5230E+06     33.5064E+06    -337.049E+03    -300.281E-03     596.258E-03    -295.977E-03     71.0412E-03    -300.726E-03     596.595E-03    -295.805E-03     64.9625E-03
            2273     9.37405E-03     17.1719E-03    -16.0069E+06     7.89873E+06     31.1970E+06    -812.483E+03    -300.760E-03     596.495E-03    -295.735E-03     64.8055E-03    -301.160E-03     596.777E-03    -295.567E-03     59.2146E-03
            2274     8.70688E-03     17.0411E-03    -18.8352E+06     4.54041E+06     27.6506E+06    -1.41225E+06    -300.287E-03     595.711E-03    -295.424E-03     57.3272E-03    -300.640E-03     595.934E-03    -295.265E-03     52.2797E-03
            2275     8.03990E-03     16.9151E-03    -22.7831E+06    -107.189E+03     22.4310E+06    -1.02455E+06    -299.955E-03     595.017E-03    -295.062E-03     50.2144E-03    -300.262E-03     595.178E-03    -294.917E-03     45.9028E-03
            2276     7.37281E-03     16.7979E-03    -25.7929E+06    -4.36096E+06     16.6598E+06    -134.316E+03    -299.756E-03     594.386E-03    -294.630E-03     43.8480E-03    -300.020E-03     594.495E-03    -294.503E-03     40.2802E-03
            2277     6.70628E-03     16.6895E-03    -29.1778E+06    -9.65891E+06     8.77371E+06    -647.834E+03    -299.104E-03     593.234E-03    -294.130E-03     37.7350E-03    -299.336E-03     593.302E-03    -294.030E-03     34.7001E-03
            2278     6.03852E-03     16.5931E-03    -34.0618E+06    -16.4210E+06    -461.262E+03    -1.88082E+06    -298.198E-03     591.789E-03    -293.591E-03     32.0828E-03    -298.409E-03     591.822E-03    -293.520E-03     29.3677E-03
            2279     5.37038E-03     16.5051E-03    -36.9245E+06    -25.9440E+06    -8.90377E+06    -1.78414E+06    -297.003E-03     590.050E-03    -293.047E-03     26.8870E-03    -297.184E-03     590.033E-03    -293.000E-03     24.6293E-03
            2280     4.70120E-03     16.4281E-03    -39.1687E+06    -35.4153E+06    -17.0902E+06    -1.86104E+06    -295.589E-03     588.121E-03    -292.532E-03     21.7531E-03    -295.738E-03     588.055E-03    -292.510E-03     19.9187E-03
            2281     4.03138E-03     16.3610E-03    -42.8857E+06    -42.0551E+06    -25.7950E+06    -1.79498E+06    -294.239E-03     586.312E-03    -292.073E-03     17.1723E-03    -294.372E-03     586.218E-03    -292.079E-03     15.6627E-03
            2282     3.35949E-03     16.3031E-03    -46.2883E+06    -48.0738E+06    -34.0567E+06    -2.36324E+06    -293.202E-03     584.880E-03    -291.678E-03     13.4094E-03    -293.319E-03     584.760E-03    -291.711E-03     12.2269E-03
            2283     2.68905E-03     16.2561E-03    -49.6943E+06    -53.9741E+06    -41.7396E+06    -1.93499E+06    -292.494E-03     583.817E-03    -291.323E-03     10.3531E-03    -292.597E-03     583.672E-03    -291.381E-03     9.47217E-03
            2284     2.01787E-03     16.2205E-03    -49.7433E+06    -56.2816E+06    -45.8487E+06    -1.48308E+06    -291.851E-03     582.847E-03    -290.996E-03     7.93978E-03    -291.932E-03     582.686E-03    -291.072E-03     7.30743E-03
            2285     1.34731E-03     16.1949E-03    -53.3771E+06    -61.6013E+06    -51.8180E+06    -1.50526E+06    -291.234E-03     581.935E-03    -290.700E-03     5.78878E-03    -291.302E-03     581.750E-03    -290.793E-03     5.37087E-03
            2286     672.434E-06     16.1798E-03    -59.2407E+06    -70.2402E+06    -58.7133E+06    -541.753E+03    -290.663E-03     581.197E-03    -290.535E-03     3.66598E-03    -290.684E-03     580.988E-03    -290.640E-03     3.48542E-03
            2287     12.7240E-03     16.1988E-03    -1.98935E+06     21.3297E+06     42.5635E+06    -162.228E+03    -296.812E-03     592.526E-03    -295.714E-03     81.5365E-03    -297.231E-03     592.891E-03    -295.529E-03     75.7994E-03
            2288     12.0544E-03     16.0464E-03    -4.11267E+06     19.6182E+06     40.1841E+06    -546.570E+03    -299.253E-03     594.955E-03    -295.702E-03     83.8696E-03    -299.765E-03     595.406E-03    -295.523E-03     77.0077E-03
            2289     11.3856E-03     15.8929E-03    -7.19565E+06      16.478E+06     37.3243E+06    -251.120E+03    -300.980E-03     596.537E-03    -295.556E-03     79.2524E-03    -301.485E-03     596.966E-03    -295.383E-03     72.4016E-03
            2290     10.7186E-03     15.7415E-03    -10.4594E+06     13.2835E+06     34.5999E+06    -214.418E+03    -302.305E-03     597.580E-03    -295.275E-03     73.4367E-03    -302.781E-03     597.966E-03    -295.107E-03     66.7990E-03
            2291     10.0519E-03     15.5942E-03    -12.7507E+06     11.0572E+06     32.9512E+06    -869.844E+03    -303.459E-03     598.310E-03    -294.850E-03     66.4676E-03    -303.886E-03     598.635E-03    -294.683E-03     60.3186E-03
            2292     9.38862E-03     15.4543E-03    -15.1812E+06     8.55123E+06     31.0557E+06    -1.51740E+06    -303.545E-03     597.835E-03    -294.290E-03     58.6469E-03    -303.927E-03     598.103E-03    -294.125E-03     52.9441E-03
            2293     8.72394E-03     15.3229E-03    -18.8276E+06     4.54670E+06     27.3634E+06    -1.59703E+06    -302.943E-03     596.571E-03    -293.628E-03     51.0508E-03    -303.286E-03     596.784E-03    -293.471E-03     45.8038E-03
            2294     8.05870E-03     15.2009E-03    -22.1487E+06     147.945E+03     22.0203E+06    -1.23478E+06    -302.034E-03     594.917E-03    -292.884E-03     43.8056E-03    -302.325E-03     595.068E-03    -292.742E-03     39.3928E-03
            2295     7.39254E-03     15.0841E-03    -25.7125E+06    -5.07417E+06     15.0536E+06    -1.59926E+06    -300.507E-03     592.594E-03    -292.087E-03     36.5770E-03    -300.758E-03     592.692E-03    -291.967E-03     32.8258E-03
            2296     6.72484E-03     14.9797E-03    -29.0275E+06    -10.0969E+06     8.29128E+06    -1.47425E+06    -298.866E-03     590.137E-03    -291.271E-03     29.8473E-03    -299.086E-03     590.195E-03    -291.173E-03     26.6422E-03
            2297     6.05720E-03     14.8834E-03    -32.5054E+06    -15.5436E+06     730.391E+03    -1.35894E+06    -297.264E-03     587.704E-03    -290.440E-03     23.9054E-03    -297.460E-03     587.727E-03    -290.367E-03     21.1598E-03
            2298     5.38870E-03     14.8006E-03    -35.9834E+06    -26.2652E+06    -8.68609E+06    -1.48639E+06    -295.521E-03     585.127E-03    -289.607E-03     19.0649E-03    -295.688E-03     585.099E-03    -289.560E-03     16.6604E-03
            2299     4.71893E-03     14.7257E-03    -38.9005E+06    -36.8048E+06    -17.8237E+06    -1.41780E+06    -293.753E-03     582.546E-03    -288.793E-03     14.7858E-03    -293.892E-03     582.468E-03    -288.773E-03     12.8219E-03
            2300     4.04806E-03     14.6628E-03    -41.9640E+06    -42.5983E+06    -25.8269E+06    -812.119E+03    -291.849E-03     579.877E-03    -288.029E-03     10.9139E-03    -291.971E-03     579.774E-03    -288.035E-03     9.35441E-03
            2301     3.37659E-03     14.6087E-03    -44.4175E+06    -47.9032E+06    -33.4089E+06     303.636E+03    -289.812E-03     577.189E-03    -287.377E-03     8.05047E-03    -289.918E-03     577.063E-03    -287.410E-03     6.85849E-03
            2302     2.70166E-03     14.5640E-03    -46.9401E+06    -53.8088E+06    -41.4456E+06     6.88049E+03    -288.208E-03     575.093E-03    -286.885E-03     5.74643E-03    -288.296E-03     574.943E-03    -286.946E-03     4.82087E-03
            2303     2.02612E-03     14.5294E-03    -50.0311E+06    -58.9848E+06    -48.2267E+06    -55.0982E+03    -287.233E-03     573.775E-03    -286.542E-03     3.71927E-03    -287.308E-03     573.603E-03    -286.625E-03     3.08535E-03
            2304     1.34905E-03     14.5052E-03    -53.9179E+06    -63.5754E+06    -52.6734E+06     1.05887E+06    -286.694E-03     572.987E-03    -286.293E-03     2.27181E-03    -286.758E-03     572.790E-03    -286.386E-03     1.87276E-03
            2305     676.033E-06     14.4895E-03    -55.0627E+06    -68.2491E+06    -54.6869E+06     1.54179E+06    -285.979E-03     572.431E-03    -286.452E-03     1.39181E-03    -285.994E-03     572.222E-03    -286.547E-03     1.15400E-03
            2306     12.7270E-03     14.4882E-03    -2.18990E+06     21.3472E+06     41.6415E+06    -438.308E+03    -300.683E-03     596.148E-03    -295.464E-03     81.8028E-03    -301.120E-03     596.532E-03    -295.284E-03     75.7764E-03
            2307     12.0592E-03     14.3284E-03    -4.51044E+06     19.4798E+06     39.2152E+06    -271.177E+03    -303.526E-03     598.734E-03    -295.208E-03     82.5085E-03    -304.049E-03     599.197E-03    -295.034E-03     75.3781E-03
            2308     11.3953E-03     14.1726E-03    -7.08121E+06     16.6468E+06     36.3946E+06    -205.129E+03    -305.700E-03     600.457E-03    -294.757E-03     76.2388E-03    -306.203E-03     600.889E-03    -294.589E-03     69.1636E-03
            2309     10.7315E-03     14.0218E-03    -9.02758E+06     14.6326E+06     34.5917E+06    -682.580E+03    -306.968E-03     601.085E-03    -294.117E-03     69.0821E-03    -307.430E-03     601.467E-03    -293.953E-03     62.2887E-03
            2310     10.0695E-03     13.8716E-03    -11.4802E+06     12.2818E+06     33.1655E+06    -1.09571E+06    -307.086E-03     600.404E-03    -293.318E-03     60.7752E-03    -307.495E-03     600.720E-03    -293.153E-03     54.4951E-03
            2311     9.40570E-03     13.7336E-03    -15.0282E+06     8.53567E+06     30.1499E+06    -1.35607E+06    -306.555E-03     598.937E-03    -292.381E-03     52.0892E-03    -306.919E-03     599.191E-03    -292.221E-03     46.2523E-03
            2312     8.74235E-03     13.6051E-03    -17.9791E+06     4.73829E+06     26.0319E+06    -2.02436E+06    -305.849E-03     597.158E-03    -291.309E-03     43.8515E-03    -306.169E-03     597.357E-03    -291.160E-03     38.4630E-03
            2313     8.07937E-03     13.4839E-03    -20.7856E+06     617.497E+03     21.0314E+06    -2.20469E+06    -304.395E-03     594.513E-03    -290.117E-03     35.4644E-03    -304.669E-03     594.655E-03    -289.983E-03     30.6967E-03
            2314     7.41563E-03     13.3748E-03    -24.2488E+06    -4.61860E+06     14.4228E+06    -1.59604E+06    -301.982E-03     590.838E-03    -288.857E-03     27.6152E-03    -302.217E-03     590.930E-03    -288.743E-03     23.4321E-03
            2315     6.75037E-03     13.2738E-03    -28.1025E+06    -10.9480E+06     5.75777E+06    -1.56309E+06    -299.007E-03     586.596E-03    -287.589E-03     20.5689E-03    -299.209E-03     586.643E-03    -287.503E-03     16.9619E-03
            2316     6.08251E-03     13.1840E-03    -30.8420E+06    -16.3357E+06    -2.07247E+06    -1.25462E+06    -295.912E-03     582.285E-03    -286.372E-03     14.7449E-03    -296.086E-03     582.297E-03    -286.314E-03     11.6702E-03
            2317     5.41242E-03     13.1046E-03    -34.6381E+06    -27.6179E+06    -11.4472E+06    -704.850E+03    -293.163E-03     578.388E-03    -285.224E-03     10.5180E-03    -293.311E-03     578.347E-03    -285.191E-03     7.88750E-03
            2318     4.74104E-03     13.0355E-03    -38.2245E+06    -38.6527E+06    -20.0255E+06    -250.009E+03    -290.586E-03     574.736E-03    -284.150E-03     7.42355E-03    -290.711E-03     574.645E-03    -284.139E-03     5.21936E-03
            2319     4.06778E-03     12.9762E-03    -40.9681E+06    -43.5690E+06    -26.3984E+06     180.650E+03    -288.125E-03     571.289E-03    -283.164E-03     5.01037E-03    -288.236E-03     571.176E-03    -283.174E-03     3.21893E-03
            2320     3.39207E-03     12.9283E-03    -43.3433E+06    -48.0768E+06    -32.3614E+06     1.47349E+06    -285.963E-03     568.243E-03    -282.280E-03     3.32174E-03    -286.060E-03     568.108E-03    -282.309E-03     1.93268E-03
            2321     2.71623E-03     12.8877E-03    -46.0932E+06    -52.5208E+06    -37.0108E+06     2.67999E+06    -284.011E-03     565.522E-03    -281.512E-03     1.61002E-03    -284.100E-03     565.368E-03    -281.554E-03     614.381E-06
            2322     2.03886E-03     12.8557E-03    -52.0053E+06    -59.5548E+06    -44.2558E+06     3.05716E+06    -282.427E-03     563.280E-03    -280.852E-03    -74.4439E-06    -282.515E-03     563.100E-03    -280.912E-03    -759.627E-06
            2323     1.36174E-03     12.8327E-03    -51.9105E+06    -61.8520E+06    -47.9215E+06     1.95944E+06    -281.194E-03     561.498E-03    -280.305E-03    -874.073E-06    -281.247E-03     561.291E-03    -280.379E-03    -1.36909E-03
            2324     679.757E-06     12.8183E-03    -50.0711E+06    -64.6076E+06    -49.6719E+06    -68.6629E+03    -280.152E-03     560.170E-03    -280.018E-03    -1.00519E-03    -280.150E-03     559.951E-03    -280.100E-03    -1.38356E-03
            2325     12.7314E-03     12.7667E-03    -2.37443E+06     21.4855E+06     40.4396E+06    -215.658E+03    -306.442E-03     601.565E-03    -295.123E-03     82.0541E-03    -306.892E-03     601.966E-03    -294.949E-03     75.7838E-03
            2326     12.0690E-03     12.6060E-03    -4.52680E+06     19.4798E+06     37.8748E+06    -417.183E+03    -309.231E-03     603.760E-03    -294.529E-03     81.5044E-03    -309.763E-03     604.235E-03    -294.361E-03     74.1154E-03
            2327     11.4059E-03     12.4458E-03    -6.13191E+06     17.6804E+06     35.9231E+06    -1.30320E+06    -311.500E-03     605.193E-03    -293.694E-03     73.2348E-03    -312.001E-03     605.633E-03    -293.531E-03     65.8564E-03
            2328     10.7471E-03     12.2919E-03    -8.36964E+06     15.4879E+06     34.0716E+06    -1.53406E+06    -312.426E-03     605.046E-03    -292.620E-03     63.7633E-03    -312.881E-03     605.429E-03    -292.460E-03     56.6063E-03
            2329     10.0875E-03     12.1471E-03    -10.9917E+06     12.5372E+06     31.7942E+06    -1.40483E+06    -311.876E-03     603.227E-03    -291.351E-03     53.7707E-03    -312.277E-03     603.543E-03    -291.194E-03     46.9784E-03
            2330     9.42826E-03     12.0119E-03    -13.3395E+06     9.41214E+06     28.8498E+06    -1.78042E+06    -310.879E-03     600.790E-03    -289.911E-03     42.8260E-03    -311.219E-03     601.035E-03    -289.761E-03     36.5316E-03
            2331     8.76908E-03     11.8846E-03    -16.3223E+06     5.32877E+06     24.6722E+06    -1.80716E+06    -309.069E-03     597.386E-03    -288.317E-03     32.4256E-03    -309.356E-03     597.564E-03    -288.177E-03     26.7236E-03
            2332     8.10849E-03     11.7704E-03    -20.2112E+06    -352.989E+03     18.0874E+06    -1.65346E+06    -306.090E-03     592.710E-03    -286.620E-03     23.8018E-03    -306.336E-03     592.832E-03    -286.499E-03     18.5996E-03
            2333     7.44563E-03     11.6666E-03    -23.4429E+06    -6.09905E+06     10.4267E+06    -1.30724E+06    -302.476E-03     587.370E-03    -284.894E-03     17.0593E-03    -302.686E-03     587.445E-03    -284.799E-03     12.4381E-03
            2334     6.78055E-03     11.5748E-03    -26.2599E+06    -11.5636E+06     3.04256E+06    -917.165E+03    -298.433E-03     581.639E-03    -283.205E-03     11.6733E-03    -298.612E-03     581.675E-03    -283.135E-03     7.60597E-03
            2335     6.11235E-03     11.4942E-03    -29.3189E+06    -17.3363E+06    -4.62983E+06    -313.419E+03    -294.313E-03     575.914E-03    -281.601E-03     7.18736E-03    -294.468E-03     575.917E-03    -281.557E-03     3.68908E-03
            2336     5.44139E-03     11.4220E-03    -33.0295E+06    -28.9062E+06    -13.8312E+06     791.056E+03    -290.365E-03     570.481E-03    -280.116E-03     3.43181E-03    -290.492E-03     570.428E-03    -280.095E-03     560.626E-06
            2337     4.76732E-03     11.3598E-03    -36.2836E+06    -39.5687E+06    -21.4058E+06     1.64567E+06    -286.689E-03     565.469E-03    -278.779E-03     725.527E-06    -286.794E-03     565.365E-03    -278.776E-03    -1.70813E-03
            2338     4.09063E-03     11.3075E-03    -39.0053E+06    -43.7744E+06    -26.0567E+06     1.56298E+06    -283.695E-03     561.278E-03    -277.583E-03    -1.06629E-03    -283.792E-03     561.155E-03    -277.593E-03    -3.14794E-03
            2339     3.41297E-03     11.2631E-03    -43.2831E+06    -49.0687E+06    -31.0883E+06     1.90844E+06    -281.260E-03     557.743E-03    -276.483E-03    -2.26585E-03    -281.354E-03     557.598E-03    -276.505E-03    -3.97870E-03
            2340     2.73315E-03     11.2273E-03    -45.1138E+06    -52.6143E+06    -34.9805E+06     2.83836E+06    -278.804E-03     554.293E-03    -275.489E-03    -2.48405E-03    -278.890E-03     554.131E-03    -275.522E-03    -3.78463E-03
            2341     2.05178E-03     11.2002E-03    -44.8188E+06    -54.6127E+06    -38.6668E+06     2.62053E+06    -276.555E-03     551.231E-03    -274.676E-03    -1.61025E-03    -276.619E-03     551.054E-03    -274.725E-03    -2.54804E-03
            2342     1.36762E-03     11.1808E-03    -45.2753E+06    -57.1571E+06    -42.4507E+06     2.06694E+06    -275.025E-03     549.099E-03    -274.074E-03    -804.496E-06    -275.055E-03     548.895E-03    -274.138E-03    -1.37264E-03
            2343     685.665E-06     11.1711E-03    -45.5974E+06    -60.4000E+06    -44.4794E+06     1.48443E+06    -274.550E-03     547.718E-03    -273.168E-03    -604.768E-06    -274.527E-03     547.494E-03    -273.236E-03    -840.235E-06
            2344     12.7365E-03     11.0375E-03    -2.09213E+06     22.8863E+06     39.2522E+06    -489.513E+03    -314.237E-03     608.959E-03    -294.722E-03     82.8948E-03    -314.708E-03     609.390E-03    -294.556E-03     76.2552E-03
            2345     12.0768E-03     10.8719E-03    -3.82067E+06     21.6585E+06     37.1630E+06    -1.22440E+06    -317.481E-03     611.143E-03    -293.661E-03     78.9607E-03    -318.025E-03     611.642E-03    -293.501E-03     71.1083E-03
            2346     11.4227E-03     10.7094E-03    -6.21505E+06     18.4363E+06     34.3495E+06    -1.83890E+06    -318.766E-03     611.073E-03    -292.307E-03     67.5921E-03    -319.267E-03     611.519E-03    -292.153E-03     59.7102E-03
            2347     10.7672E-03     10.5570E-03    -8.56718E+06     15.0939E+06     31.5043E+06    -2.12262E+06    -318.861E-03     609.551E-03    -290.691E-03     55.3904E-03    -319.302E-03     609.926E-03    -290.543E-03     47.6990E-03
            2348     10.1129E-03     10.4163E-03    -10.3224E+06     12.4621E+06     29.1584E+06    -2.53625E+06    -318.056E-03     606.893E-03    -288.837E-03     43.2128E-03    -318.431E-03     607.193E-03    -288.694E-03     35.8456E-03
            2349     9.45860E-03     10.2828E-03    -12.4372E+06     9.08448E+06     25.9553E+06    -1.96390E+06    -315.553E-03     602.347E-03    -286.793E-03     31.7896E-03    -315.862E-03     602.570E-03    -286.659E-03     25.0371E-03
            2350     8.80252E-03     10.1656E-03    -15.7164E+06     3.92175E+06     20.4606E+06    -718.754E+03    -311.471E-03     596.124E-03    -284.653E-03     22.1095E-03    -311.725E-03     596.278E-03    -284.534E-03     16.0655E-03
            2351     8.14302E-03     10.0601E-03    -18.7779E+06    -1.57281E+06     13.9611E+06    -891.650E+03    -306.621E-03     589.128E-03    -282.508E-03     14.7876E-03    -306.835E-03     589.231E-03    -282.408E-03     9.23877E-03
            2352     7.48035E-03     9.96775E-03    -21.6636E+06    -7.02521E+06     7.31681E+06    -256.102E+03    -301.591E-03     582.007E-03    -280.416E-03     9.02099E-03    -301.772E-03     582.066E-03    -280.338E-03     4.09939E-03
            2353     6.81340E-03     9.88592E-03    -25.0278E+06    -13.0861E+06    -199.524E+03     257.617E+03    -296.679E-03     575.083E-03    -278.405E-03     4.35855E-03    -296.833E-03     575.104E-03    -278.350E-03    -47.9131E-06
            2354     6.14388E-03     9.81474E-03    -28.9696E+06    -19.5503E+06    -7.80356E+06     1.04119E+06    -291.866E-03     568.367E-03    -276.501E-03     1.00585E-03    -292.004E-03     568.355E-03    -276.469E-03    -2.83728E-03
            2355     5.47114E-03     9.75270E-03    -31.5287E+06    -29.4246E+06    -14.0360E+06     3.03725E+06    -287.227E-03     561.968E-03    -274.741E-03    -1.50951E-03    -287.341E-03     561.906E-03    -274.723E-03    -4.66240E-03
            2356     4.79506E-03     9.70067E-03    -34.0680E+06    -38.9265E+06    -19.5680E+06     3.78872E+06    -282.979E-03     556.118E-03    -273.140E-03    -3.36782E-03    -283.073E-03     556.009E-03    -273.132E-03    -6.04845E-03
            2357     4.11633E-03     9.65453E-03    -36.4764E+06    -42.8942E+06    -23.6849E+06     3.54712E+06    -279.141E-03     550.844E-03    -271.703E-03    -4.19455E-03    -279.227E-03     550.715E-03    -271.706E-03    -6.45882E-03
            2358     3.43477E-03     9.61672E-03    -38.0300E+06    -46.8611E+06    -28.5510E+06     2.60139E+06    -275.628E-03     546.085E-03    -270.458E-03    -4.26722E-03    -275.703E-03     545.940E-03    -270.477E-03    -6.14031E-03
            2359     2.75089E-03     9.58803E-03    -39.3710E+06    -51.0544E+06    -34.5257E+06     2.14869E+06    -272.640E-03     542.086E-03    -269.446E-03    -3.67039E-03    -272.701E-03     541.924E-03    -269.487E-03    -5.15565E-03
            2360     2.06419E-03     9.56651E-03    -38.0736E+06    -51.9844E+06    -37.4080E+06     1.27552E+06    -270.398E-03     539.096E-03    -268.698E-03    -2.78684E-03    -270.432E-03     538.919E-03    -268.754E-03    -3.91515E-03
            2361     1.37718E-03     9.55007E-03    -39.0026E+06    -54.2884E+06    -40.6178E+06     384.262E+03    -268.867E-03     537.090E-03    -268.223E-03    -2.12782E-03    -268.871E-03     536.889E-03    -268.291E-03    -2.90247E-03
            2362     687.252E-06     9.53974E-03    -40.0412E+06    -57.3651E+06    -41.1819E+06     793.732E+03    -268.207E-03     536.231E-03    -268.024E-03    -886.040E-06    -268.151E-03     536.000E-03    -268.089E-03    -1.25846E-03
            2363     12.7406E-03     9.29061E-03    -2.31410E+06     24.5283E+06     38.5041E+06    -873.641E+03    -324.484E-03     618.743E-03    -294.259E-03     83.1642E-03    -324.988E-03     619.215E-03    -294.099E-03     75.9206E-03
            2364     12.0925E-03     9.12157E-03    -3.95546E+06     23.2392E+06     35.3963E+06    -1.67950E+06    -327.904E-03     620.504E-03    -292.600E-03     76.4297E-03    -328.476E-03     621.043E-03    -292.451E-03     67.7957E-03
            2365     11.4421E-03     8.96279E-03    -5.47550E+06     19.7167E+06     31.9724E+06    -2.20701E+06    -328.754E-03     619.331E-03    -290.577E-03     61.2872E-03    -329.250E-03     619.787E-03    -290.438E-03     52.7437E-03
            2366     10.7935E-03     8.81400E-03    -7.29969E+06     15.8181E+06     28.8319E+06    -2.54611E+06    -327.359E-03     615.621E-03    -288.262E-03     45.4868E-03    -327.762E-03     615.974E-03    -288.130E-03     37.3830E-03
            2367     10.1451E-03     8.67504E-03    -10.3107E+06     11.2871E+06     25.2587E+06    -2.27552E+06    -323.694E-03     609.449E-03    -285.755E-03     31.9391E-03    -324.025E-03     609.713E-03    -285.630E-03     24.3087E-03
            2368     9.49396E-03     8.55572E-03    -13.3780E+06     6.29191E+06     20.8651E+06    -1.32830E+06    -318.248E-03     601.424E-03    -283.176E-03     21.3337E-03    -318.519E-03     601.612E-03    -283.061E-03     14.3202E-03
            2369     8.83814E-03     8.44883E-03    -15.6393E+06     1.48210E+06     15.7145E+06    -350.506E+03    -312.024E-03     592.649E-03    -280.624E-03     13.0515E-03    -312.244E-03     592.774E-03    -280.525E-03     6.75875E-03
            2370     8.17880E-03     8.35803E-03    -17.1773E+06    -2.74930E+06     10.7981E+06     869.635E+03    -305.840E-03     583.997E-03    -278.157E-03     7.03978E-03    -306.019E-03     584.075E-03    -278.074E-03     1.40024E-03
            2371     7.51468E-03     8.27761E-03    -20.3486E+06    -8.41011E+06     4.50479E+06     1.64493E+06    -299.869E-03     575.662E-03    -275.793E-03     2.49674E-03    -300.021E-03     575.700E-03    -275.729E-03    -2.51659E-03
            2372     6.84786E-03     8.20818E-03    -24.4650E+06    -14.7621E+06    -2.22617E+06     1.92272E+06    -293.957E-03     567.518E-03    -273.561E-03    -812.128E-06    -294.091E-03     567.520E-03    -273.516E-03    -5.25030E-03
            2373     6.17605E-03     8.14922E-03    -27.2012E+06    -19.3005E+06    -6.68536E+06     2.70492E+06    -288.380E-03     559.874E-03    -271.494E-03    -2.72561E-03    -288.503E-03     559.851E-03    -271.460E-03    -6.62415E-03
            2374     5.50017E-03     8.09851E-03    -29.5915E+06    -28.8155E+06    -12.2086E+06     3.25055E+06    -283.275E-03     552.872E-03    -269.597E-03    -3.86963E-03    -283.379E-03     552.803E-03    -269.573E-03    -7.22831E-03
            2375     4.82144E-03     8.05486E-03    -30.4357E+06    -37.2158E+06    -17.1751E+06     3.58998E+06    -278.485E-03     546.374E-03    -267.889E-03    -4.03232E-03    -278.566E-03     546.263E-03    -267.877E-03    -6.85378E-03
            2376     4.13936E-03     8.01976E-03    -31.5301E+06    -40.9890E+06    -22.3154E+06     3.86771E+06    -273.985E-03     540.394E-03    -266.409E-03    -3.34930E-03    -274.053E-03     540.268E-03    -266.416E-03    -5.66107E-03
            2377     3.45347E-03     7.99045E-03    -32.6717E+06    -44.7051E+06    -27.3934E+06     2.60405E+06    -270.166E-03     535.371E-03    -265.204E-03    -2.82188E-03    -270.221E-03     535.228E-03    -265.229E-03    -4.74442E-03
            2378     2.76473E-03     7.96838E-03    -34.4124E+06    -47.9566E+06    -31.1907E+06     1.44801E+06    -267.427E-03     531.681E-03    -264.254E-03    -2.40839E-03    -267.473E-03     531.524E-03    -264.291E-03    -3.96356E-03
            2379     2.07558E-03     7.94992E-03    -36.6635E+06    -50.5512E+06    -33.4478E+06     1.35788E+06    -265.415E-03     528.917E-03    -263.502E-03    -1.91181E-03    -265.450E-03     528.742E-03    -263.543E-03    -3.04592E-03
            2380     1.38444E-03     7.93791E-03    -37.5674E+06    -51.7171E+06    -34.2010E+06     1.51430E+06    -263.857E-03     526.796E-03    -262.938E-03    -1.41285E-03    -263.862E-03     526.593E-03    -262.980E-03    -2.16713E-03
            2381     693.380E-06     7.93057E-03    -38.0177E+06    -55.2518E+06    -36.6633E+06     124.462E+03    -262.651E-03     525.508E-03    -262.858E-03    -992.926E-06    -262.576E-03     525.271E-03    -262.906E-03    -1.44553E-03
            2382     12.7497E-03     7.52670E-03    -1.55912E+06     26.3724E+06     37.1841E+06    -1.24833E+06    -337.739E-03     631.441E-03    -293.702E-03     82.2189E-03    -338.270E-03     631.953E-03    -293.552E-03     74.2709E-03
            2383     12.1036E-03     7.35454E-03    -3.16506E+06     24.2201E+06     32.8057E+06    -2.34250E+06    -340.127E-03     631.439E-03    -291.312E-03     70.9610E-03    -340.699E-03     631.992E-03    -291.179E-03     61.6264E-03
            2384     11.4647E-03     7.19627E-03    -4.54154E+06     20.1506E+06     28.9941E+06    -2.21242E+06    -339.793E-03     628.323E-03    -288.530E-03     52.4021E-03    -340.250E-03     628.755E-03    -288.408E-03     43.4866E-03
            2385     10.8260E-03     7.05526E-03    -6.72400E+06     15.1445E+06     25.4631E+06    -1.31317E+06    -335.323E-03     620.821E-03    -285.498E-03     35.7146E-03    -335.680E-03     621.138E-03    -285.383E-03     27.3876E-03
            2386     10.1814E-03     6.93529E-03    -9.61518E+06     9.87745E+06     21.5865E+06    -354.062E+03    -327.628E-03     610.048E-03    -282.420E-03     23.1005E-03    -327.912E-03     610.274E-03    -282.312E-03     15.4557E-03
            2387     9.53076E-03     6.82930E-03    -12.8538E+06     4.43574E+06     17.4213E+06     28.8565E+03    -319.376E-03     598.816E-03    -279.440E-03     13.7915E-03    -319.605E-03     598.967E-03    -279.340E-03     6.92359E-03
            2388     8.87593E-03     6.74103E-03    -14.4974E+06     856.553E+03     14.9024E+06     851.189E+03    -311.525E-03     588.131E-03    -276.606E-03     6.61311E-03    -311.709E-03     588.225E-03    -276.512E-03     538.059E-06
            2389     8.21468E-03     6.66469E-03    -18.3175E+06    -5.14916E+06     9.19345E+06     2.44872E+06    -304.028E-03     577.953E-03    -273.924E-03     1.69674E-03    -304.183E-03     577.999E-03    -273.844E-03    -3.59414E-03
            2390     7.55002E-03     6.59820E-03    -21.0378E+06    -10.2844E+06     3.67640E+06     2.47039E+06    -296.701E-03     568.132E-03    -271.431E-03    -1.20213E-03    -296.836E-03     568.146E-03    -271.367E-03    -5.95595E-03
            2391     6.87877E-03     6.54456E-03    -22.1216E+06    -13.4079E+06     582.492E+03     3.26831E+06    -289.916E-03     559.078E-03    -269.163E-03    -2.42157E-03    -290.036E-03     559.071E-03    -269.108E-03    -6.57938E-03
            2392     6.20385E-03     6.49735E-03    -25.7765E+06    -18.5661E+06    -4.19507E+06     3.34724E+06    -283.867E-03     550.982E-03    -267.116E-03    -2.56453E-03    -283.983E-03     550.953E-03    -267.072E-03    -6.15868E-03
            2393     5.52555E-03     6.45859E-03    -27.8729E+06    -28.2540E+06    -10.5718E+06     1.96445E+06    -278.270E-03     543.569E-03    -265.299E-03    -1.95071E-03    -278.368E-03     543.497E-03    -265.270E-03    -5.11809E-03
            2394     4.84239E-03     6.42712E-03    -27.4341E+06    -36.1999E+06    -16.1098E+06     1.84375E+06    -273.366E-03     537.100E-03    -263.733E-03    -1.04047E-03    -273.436E-03     536.990E-03    -263.722E-03    -3.68395E-03
            2395     4.15536E-03     6.40087E-03    -28.3384E+06    -39.0982E+06    -19.8802E+06     1.84695E+06    -269.288E-03     531.708E-03    -262.420E-03    -563.021E-06    -269.345E-03     531.583E-03    -262.422E-03    -2.74778E-03
            2396     3.46651E-03     6.37982E-03    -31.2202E+06    -42.8549E+06    -23.4061E+06     1.82542E+06    -266.039E-03     527.377E-03    -261.337E-03    -234.589E-06    -266.093E-03     527.235E-03    -261.347E-03    -2.01013E-03
            2397     2.77627E-03     6.36209E-03    -32.3028E+06    -44.8688E+06    -25.3412E+06     1.23850E+06    -263.505E-03     523.958E-03    -260.453E-03    -34.5689E-06    -263.554E-03     523.806E-03    -260.468E-03    -1.42115E-03
            2398     2.08344E-03     6.34897E-03    -34.7392E+06    -48.5816E+06    -29.7784E+06     683.344E+03    -261.495E-03     521.241E-03    -259.746E-03    -10.7545E-06    -261.531E-03     521.071E-03    -259.774E-03    -1.01189E-03
            2399     1.38962E-03     6.34027E-03    -35.5454E+06    -51.1862E+06    -33.2771E+06     209.896E+03    -260.151E-03     519.355E-03    -259.204E-03     238.376E-06    -260.149E-03     519.152E-03    -259.245E-03    -406.770E-06
            2400     694.831E-06     6.33332E-03    -34.3821E+06    -52.1367E+06    -32.7043E+06    -716.605E+03    -259.300E-03     518.077E-03    -258.777E-03     500.998E-06    -259.210E-03     517.861E-03    -258.815E-03     128.405E-06
            2401     12.7556E-03     5.73489E-03    -796.266E+03     28.6883E+06     34.8260E+06    -2.75930E+06    -355.557E-03     648.846E-03    -293.289E-03     88.3434E-03    -356.154E-03     649.440E-03    -293.155E-03     79.3874E-03
            2402     12.1271E-03     5.56701E-03    -2.20417E+06     24.9833E+06     29.9702E+06    -3.06014E+06    -356.587E-03     646.577E-03    -289.990E-03     69.5500E-03    -357.168E-03     647.156E-03    -289.873E-03     59.5515E-03
            2403     11.4938E-03     5.41398E-03    -4.49100E+06     18.6147E+06     25.2961E+06    -888.042E+03    -350.754E-03     637.129E-03    -286.375E-03     45.0074E-03    -351.142E-03     637.499E-03    -286.269E-03     36.6300E-03
            2404     10.8561E-03     5.29089E-03    -7.10304E+06     12.5312E+06     21.5648E+06     107.800E+03    -340.841E-03     623.572E-03    -282.731E-03     26.0595E-03    -341.123E-03     623.816E-03    -282.631E-03     18.5791E-03
            2405     10.2136E-03     5.19285E-03    -9.20968E+06     8.23978E+06     19.4104E+06     1.19758E+06    -329.584E-03     608.843E-03    -279.259E-03     14.8729E-03    -329.805E-03     609.008E-03    -279.160E-03     8.16838E-03
            2406     9.56453E-03     5.10954E-03    -11.3127E+06     4.55449E+06     17.8402E+06     2.06031E+06    -319.099E-03     595.136E-03    -276.037E-03     8.67454E-03    -319.281E-03     595.245E-03    -275.938E-03     2.73392E-03
            2407     8.90761E-03     5.03928E-03    -15.4277E+06    -857.322E+03     14.3045E+06     2.65043E+06    -309.786E-03     582.844E-03    -273.058E-03     3.98957E-03    -309.945E-03     582.906E-03    -272.963E-03    -1.27251E-03
            2408     8.24661E-03     4.98056E-03    -18.4845E+06    -5.32449E+06     11.2937E+06     2.67075E+06    -300.724E-03     571.066E-03    -270.343E-03     1.25056E-03    -300.867E-03     571.094E-03    -270.252E-03    -3.33296E-03
            2409     7.57730E-03     4.93379E-03    -20.3771E+06    -8.88294E+06     8.51204E+06     2.46003E+06    -292.279E-03     560.206E-03    -267.927E-03     561.785E-06    -292.411E-03     560.210E-03    -267.842E-03    -3.43581E-03
            2410     6.90372E-03     4.89396E-03    -22.4515E+06    -13.0964E+06     4.02512E+06     3.32607E+06    -285.148E-03     550.950E-03    -265.802E-03     883.774E-06    -285.269E-03     550.934E-03    -265.730E-03    -2.52916E-03
            2411     6.22507E-03     4.86040E-03    -23.9109E+06    -17.2896E+06    -1.73006E+06     2.48468E+06    -278.849E-03     542.801E-03    -263.952E-03     1.32191E-03    -278.957E-03     542.768E-03    -263.901E-03    -1.57778E-03
            2412     5.54096E-03     4.83469E-03    -24.6467E+06    -25.8205E+06    -7.23957E+06     417.448E+03    -273.519E-03     535.905E-03    -262.386E-03     2.01797E-03    -273.607E-03     535.834E-03    -262.349E-03    -490.677E-06
            2413     4.85430E-03     4.81192E-03    -28.5062E+06    -36.3192E+06    -13.3224E+06     321.153E+03    -269.336E-03     530.401E-03    -261.065E-03     2.52148E-03    -269.413E-03     530.286E-03    -261.037E-03     415.726E-06
            2414     4.16616E-03     4.79374E-03    -30.5345E+06    -39.2940E+06    -16.3596E+06     720.153E+03    -265.951E-03     525.894E-03    -259.943E-03     2.56127E-03    -266.019E-03     525.762E-03    -259.924E-03     853.271E-06
            2415     3.47507E-03     4.77892E-03    -29.9369E+06    -40.5960E+06    -18.7796E+06     1.16505E+06    -263.140E-03     522.138E-03    -258.998E-03     2.65150E-03    -263.192E-03     521.994E-03    -258.990E-03     1.32387E-03
            2416     2.78176E-03     4.76636E-03    -31.7956E+06    -44.6855E+06    -24.4602E+06     1.20146E+06    -260.815E-03     519.041E-03    -258.226E-03     2.48596E-03    -260.861E-03     518.886E-03    -258.237E-03     1.48904E-03
            2417     2.08762E-03     4.75805E-03    -32.3940E+06    -47.1507E+06    -28.6638E+06     782.203E+03    -259.142E-03     516.768E-03    -257.626E-03     2.02474E-03    -259.169E-03     516.598E-03    -257.654E-03     1.30915E-03
            2418     1.39247E-03     4.75089E-03    -32.2275E+06    -48.6323E+06    -31.0257E+06    -894.176E+03    -257.957E-03     515.133E-03    -257.176E-03     1.39586E-03    -257.954E-03     514.940E-03    -257.214E-03     891.136E-06
            2419     696.373E-06     4.74802E-03    -34.7454E+06    -53.6037E+06    -34.4011E+06    -484.152E+03    -257.174E-03     514.106E-03    -256.932E-03     709.836E-06    -257.079E-03     513.921E-03    -256.976E-03     460.810E-06
            2420     12.7530E-03     3.90084E-03    -2.17873E+06     28.8413E+06     31.4520E+06    -4.13755E+06    -382.086E-03     675.355E-03    -293.269E-03     91.9279E-03    -382.685E-03     675.957E-03    -293.151E-03     82.6939E-03
            2421     12.1343E-03     3.73890E-03    -3.12090E+06     23.5441E+06     28.1019E+06    -2.44516E+06    -376.006E-03     664.816E-03    -288.809E-03     56.0123E-03    -376.482E-03     665.291E-03    -288.698E-03     46.8491E-03
            2422     11.5150E-03     3.61607E-03    -4.59637E+06     17.6466E+06     24.8778E+06     871.552E+03    -360.665E-03     644.992E-03    -284.327E-03     29.0072E-03    -360.935E-03     645.244E-03    -284.221E-03     22.3620E-03
            2423     10.8852E-03     3.52233E-03    -7.25316E+06     11.8252E+06     21.9907E+06     1.57144E+06    -344.025E-03     624.213E-03    -280.188E-03     11.6198E-03    -344.213E-03     624.360E-03    -280.085E-03     5.79786E-03
            2424     10.2431E-03     3.45502E-03    -9.96641E+06     7.30283E+06     19.9763E+06     2.02506E+06    -328.398E-03     604.910E-03    -276.513E-03     4.76095E-03    -328.553E-03     605.003E-03    -276.409E-03    -480.315E-06
            2425     9.59111E-03     3.39607E-03    -12.2589E+06     3.69343E+06     18.6212E+06     2.50975E+06    -316.099E-03     589.373E-03    -273.274E-03     4.27534E-03    -316.240E-03     589.432E-03    -273.168E-03     8.06856E-06
            2426     8.93343E-03     3.34644E-03    -14.9665E+06    -238.561E+03     16.6870E+06     3.18186E+06    -305.786E-03     576.174E-03    -270.387E-03     2.70426E-03    -305.919E-03     576.206E-03    -270.282E-03    -1.06127E-03
            2427     8.26636E-03     3.31000E-03    -17.0904E+06    -3.80944E+06     14.5582E+06     2.54058E+06    -295.843E-03     563.696E-03    -267.853E-03     2.02569E-03    -295.971E-03     563.709E-03    -267.750E-03    -1.43455E-03
            2428     7.59431E-03     3.28133E-03    -19.2191E+06    -7.55678E+06     11.5152E+06     2.07354E+06    -287.385E-03     553.069E-03    -265.684E-03     3.42114E-03    -287.506E-03     553.063E-03    -265.588E-03     602.926E-06
            2429     6.91626E-03     3.25519E-03    -21.5531E+06    -11.7220E+06     7.24154E+06     1.40067E+06    -280.742E-03     544.569E-03    -263.827E-03     4.60416E-03    -280.858E-03     544.546E-03    -263.742E-03     2.33517E-03
            2430     6.23386E-03     3.23630E-03    -22.1921E+06    -14.4444E+06     3.63560E+06     279.781E+03    -275.209E-03     537.441E-03    -262.233E-03     4.41173E-03    -275.313E-03     537.405E-03    -262.161E-03     2.47163E-03
            2431     5.54901E-03     3.21929E-03    -24.4689E+06    -24.5607E+06    -3.44338E+06     297.356E+03    -270.607E-03     531.478E-03    -260.871E-03     4.40993E-03    -270.694E-03     531.402E-03    -260.817E-03     2.79132E-03
            2432     4.86114E-03     3.20535E-03    -27.9561E+06    -35.9012E+06    -11.6751E+06     8.66993E+03    -266.898E-03     526.614E-03    -259.716E-03     4.37028E-03    -266.970E-03     526.493E-03    -259.681E-03     3.03778E-03
            2433     4.16973E-03     3.19347E-03    -29.5684E+06    -39.2988E+06    -16.4164E+06    -341.916E+03    -263.844E-03     522.593E-03    -258.749E-03     4.11491E-03    -263.904E-03     522.457E-03    -258.731E-03     3.04176E-03
            2434     3.47754E-03     3.18390E-03    -29.8124E+06    -41.3114E+06    -20.0058E+06    -88.4795E+03    -261.414E-03     519.367E-03    -257.954E-03     3.88070E-03    -261.462E-03     519.221E-03    -257.951E-03     3.04079E-03
            2435     2.78394E-03     3.17688E-03    -30.6620E+06    -44.1427E+06    -24.2779E+06    -154.668E+03    -259.575E-03     516.875E-03    -257.300E-03     3.30268E-03    -259.615E-03     516.721E-03    -257.313E-03     2.63807E-03
            2436     2.08881E-03     3.17032E-03    -31.4744E+06    -46.2578E+06    -27.3861E+06    -764.003E+03    -258.134E-03     514.910E-03    -256.775E-03     2.43972E-03    -258.159E-03     514.740E-03    -256.800E-03     1.92513E-03
            2437     1.39301E-03     3.16670E-03    -33.7153E+06    -48.8144E+06    -29.4515E+06     282.522E+03    -257.098E-03     513.465E-03    -256.367E-03     1.59499E-03    -257.111E-03     513.277E-03    -256.395E-03     1.27278E-03
            2438     696.988E-06     3.16419E-03    -35.7090E+06    -54.0416E+06    -33.9448E+06     1.46028E+06    -256.172E-03     512.497E-03    -256.325E-03     1.11887E-03    -256.066E-03     512.325E-03    -256.364E-03     971.538E-06
            2439     12.7522E-03     1.99194E-03    -2.49637E+06     29.0054E+06     31.2425E+06    -2.37889E+06    -429.269E-03     723.052E-03    -293.783E-03     77.6989E-03    -429.757E-03     723.560E-03    -293.665E-03     69.1643E-03
            2440     12.1597E-03     1.88362E-03    -4.84656E+06     22.2664E+06     28.5563E+06    -1.94597E+06    -394.548E-03     682.257E-03    -287.709E-03     27.7071E-03    -394.790E-03     682.497E-03    -287.592E-03     21.7407E-03
            2441     11.5423E-03     1.80726E-03    -7.00583E+06     16.6685E+06     26.3274E+06     693.088E+03    -365.470E-03     648.006E-03    -282.536E-03     9.54748E-03    -365.615E-03     648.122E-03    -282.419E-03     5.80756E-03
            2442     10.9111E-03     1.75226E-03    -8.48627E+06     12.3899E+06     25.0118E+06     2.24621E+06    -343.110E-03     621.309E-03    -278.199E-03     1.29016E-03    -343.229E-03     621.377E-03    -278.080E-03    -1.90566E-03
            2443     10.2664E-03     1.72972E-03    -10.0245E+06     8.76713E+06     23.6774E+06     1.65594E+06    -326.102E-03     600.629E-03    -274.527E-03    -39.6727E-06    -326.213E-03     600.672E-03    -274.407E-03    -3.12020E-03
            2444     9.61072E-03     1.69315E-03    -11.8008E+06     5.11428E+06     22.1252E+06     2.48561E+06    -312.113E-03     583.509E-03    -271.396E-03     1.14900E-03    -312.219E-03     583.530E-03    -271.275E-03    -918.953E-06
            2445     8.94675E-03     1.66623E-03    -13.0095E+06     2.12566E+06     20.7722E+06     2.18980E+06    -300.259E-03     569.010E-03    -268.750E-03     736.067E-06    -300.363E-03     569.016E-03    -268.630E-03    -1.04083E-03
            2446     8.27786E-03     1.65108E-03    -14.7527E+06    -1.50359E+06     17.6449E+06     1.48408E+06    -291.100E-03     557.614E-03    -266.514E-03     1.82048E-03    -291.202E-03     557.609E-03    -266.402E-03    -44.8726E-06
            2447     7.60128E-03     1.63942E-03    -17.1510E+06    -6.01648E+06     12.7192E+06     560.484E+03    -283.927E-03     548.523E-03    -264.597E-03     3.28958E-03    -284.023E-03     548.502E-03    -264.499E-03     1.80364E-03
            2448     6.92085E-03     1.62595E-03    -18.7580E+06    -9.79010E+06     8.12507E+06    -868.299E+03    -277.941E-03     540.890E-03    -262.949E-03     3.65018E-03    -278.030E-03     540.855E-03    -262.867E-03     2.55157E-03
            2449     6.23788E-03     1.61576E-03    -21.8656E+06    -14.7289E+06     2.51578E+06    -262.377E+03    -273.123E-03     534.654E-03    -261.531E-03     3.31028E-03    -273.211E-03     534.605E-03    -261.465E-03     2.38213E-03
            2450     5.55113E-03     1.60943E-03    -24.5818E+06    -25.2487E+06    -4.80069E+06     500.961E+03    -269.207E-03     529.510E-03    -260.303E-03     3.59050E-03    -269.281E-03     529.421E-03    -260.255E-03     2.81647E-03
            2451     4.86172E-03     1.60191E-03    -25.4927E+06    -34.4423E+06    -11.3933E+06     134.138E+03    -265.880E-03     525.126E-03    -259.246E-03     3.44356E-03    -265.933E-03     525.000E-03    -259.216E-03     2.84317E-03
            2452     4.17155E-03     1.59682E-03    -27.5513E+06    -38.3445E+06    -16.7776E+06    -941.719E+03    -263.093E-03     521.444E-03    -258.351E-03     2.80770E-03    -263.137E-03     521.303E-03    -258.339E-03     2.28877E-03
            2453     3.47824E-03     1.59212E-03    -30.2395E+06    -42.1267E+06    -21.5309E+06    -1.75032E+06    -260.861E-03     518.471E-03    -257.610E-03     2.34609E-03    -260.901E-03     518.317E-03    -257.613E-03     1.89481E-03
            2454     2.78408E-03     1.58739E-03    -31.4784E+06    -44.7500E+06    -24.7757E+06    -1.43460E+06    -259.100E-03     516.108E-03    -257.007E-03     1.88224E-03    -259.136E-03     515.946E-03    -257.020E-03     1.52742E-03
            2455     2.08942E-03     1.58504E-03    -33.2896E+06    -47.7744E+06    -28.5811E+06    -614.659E+03    -257.715E-03     514.250E-03    -256.535E-03     1.42462E-03    -257.738E-03     514.072E-03    -256.560E-03     1.17147E-03
            2456     1.39341E-03     1.58333E-03    -35.4937E+06    -50.9567E+06    -31.9179E+06    -105.280E+03    -256.803E-03     512.988E-03    -256.185E-03     1.04813E-03    -256.800E-03     512.783E-03    -256.219E-03     900.709E-06
            2457     696.680E-06     1.58201E-03    -35.9148E+06    -53.5427E+06    -34.0151E+06    -660.665E+03    -256.358E-03     512.253E-03    -255.895E-03     249.369E-06    -256.212E-03     512.048E-03    -255.936E-03     140.388E-06


