********************************************************************************
Field Output Report, written Wed May 29 00:12:49 2024

Source 1
---------

   ODB: G:/Abaqus_calc_2019/1740/Vel_5/odb/zeides_2a_16_red_250_cal_50_vel_5_fric_050.odb
   Step: Step-1
   Frame: Increment  13692541: Step Time =    1.767

Loc 1 : Nodal values from source 1

Output sorted by column "Nodal Label".

Field Output reported at nodes for region: DIE_2A_16_D0_36-1.Region_1
   Computation algorithm: EXTRAPOLATE_COMPUTE_AVERAGE
   Averaged at nodes
   Averaging regions: ODB_REGIONS

      Node Label     COORD.COOR1     COORD.COOR2
                          @Loc 1          @Loc 1
-------------------------------------------------
               1     19.9925E-03     117.782E-03


Field Output reported at nodes for region: DIE_2A_16_D0_36-1.Region_2
   Computation algorithm: EXTRAPOLATE_COMPUTE_AVERAGE
   Averaged at nodes
   Averaging regions: ODB_REGIONS

      Node Label     COORD.COOR1     COORD.COOR2
                          @Loc 1          @Loc 1
-------------------------------------------------
               1     19.9925E-03     117.782E-03


Field Output reported at nodes for part: WIRE-1
   Computation algorithm: EXTRAPOLATE_COMPUTE_AVERAGE
   Averaged at nodes
   Averaging regions: ODB_REGIONS

      Node Label     COORD.COOR1     COORD.COOR2           S.S11           S.S22           S.S33           S.S12         PE.PE11         PE.PE22         PE.PE33         PE.PE12         LE.LE11         LE.LE22         LE.LE33         LE.LE12
                          @Loc 1          @Loc 1          @Loc 1          @Loc 1          @Loc 1          @Loc 1          @Loc 1          @Loc 1          @Loc 1          @Loc 1          @Loc 1          @Loc 1          @Loc 1          @Loc 1
-------------------------------------------------------------------------------------------------------------------------------------------------------------------------------------------------------------------------------------------------
               1    -161.403E-09     57.4818E-03    -29.9642E+06    -118.465E+06    -30.1119E+06     79.6179E+03    -26.3909E-03     52.7840E-03    -26.3930E-03     3.37711E-03    -26.3253E-03     52.2791E-03    -26.3284E-03     3.37661E-03
               2     17.5353E-03     58.4789E-03    -2.07986E+06     138.407E+06     86.3932E+06     388.358E+03    -25.7377E-03     52.1415E-03    -26.4038E-03     32.3474E-03    -26.3182E-03     52.9555E-03    -26.1695E-03     32.6286E-03
               3     17.2875E-03     116.811E-03     24.2740E+06    -16.6827E+06     17.2212E+06     14.8586E+06     17.8034E-03     16.1273E-03    -33.9307E-03     683.371E-06     17.8762E-03     15.9358E-03    -33.8556E-03     874.989E-06
               4    -842.749E-09     115.192E-03     27.9300E+06     1.47203E+06     25.4654E+06    -1.45470E+06    -27.8809E-03     56.2425E-03    -28.3616E-03    -1.23350E-03    -27.7817E-03     56.1712E-03    -28.2769E-03    -1.25236E-03
               5    -112.182E-09    -409.395E-18    -11.2903E+06    -93.2139E+06    -11.9734E+06     44.9979E+03    -21.0671E-03     42.2003E-03    -21.1332E-03     194.237E-06    -20.9703E-03     41.7684E-03    -21.0415E-03     195.267E-06
               6     17.4050E-03    -409.395E-18     7.75121E+06     113.354E+06     81.6419E+06    -148.559E+03    -47.7843E-03     79.4201E-03    -31.6358E-03     65.2730E-03    -48.1415E-03     79.9701E-03    -31.4032E-03     65.0033E-03
               7     876.632E-06     57.4849E-03    -29.7775E+06    -117.855E+06    -29.0682E+06     50.3734E+03    -26.4154E-03     52.8169E-03    -26.4014E-03     5.72671E-03    -26.3514E-03     52.3132E-03    -26.3327E-03     5.72466E-03
               8     1.75322E-03     57.4927E-03    -29.0272E+06    -116.402E+06    -26.5132E+06     165.277E+03    -26.4418E-03     52.8594E-03    -26.4176E-03     10.6395E-03    -26.3801E-03     52.3584E-03    -26.3393E-03     10.6364E-03
               9     2.62980E-03     57.5052E-03    -27.7299E+06    -112.879E+06    -23.2724E+06     282.911E+03    -26.4513E-03     52.8782E-03    -26.4269E-03     15.7862E-03    -26.3935E-03     52.3887E-03    -26.3394E-03     15.7816E-03
              10     3.50643E-03     57.5227E-03    -26.0410E+06    -107.933E+06    -19.1710E+06     164.488E+03    -26.4814E-03     52.9141E-03    -26.4327E-03     20.9696E-03    -26.4291E-03     52.4419E-03    -26.3343E-03     20.9600E-03
              11     4.38306E-03     57.5451E-03    -24.0496E+06    -103.128E+06    -13.8304E+06     128.935E+03    -26.5305E-03     52.9746E-03    -26.4441E-03     26.1714E-03    -26.4844E-03     52.5171E-03    -26.3288E-03     26.1570E-03
              12     5.25970E-03     57.5725E-03    -21.9295E+06    -97.7003E+06    -8.65861E+06     182.293E+03    -26.5870E-03     53.0403E-03    -26.4533E-03     31.3449E-03    -26.5476E-03     52.6013E-03    -26.3231E-03     31.3258E-03
              13     6.13636E-03     57.6046E-03    -19.7208E+06    -90.9623E+06    -4.55171E+06     224.429E+03    -26.6526E-03     53.1070E-03    -26.4545E-03     36.4533E-03    -26.6207E-03     52.6955E-03    -26.3167E-03     36.4281E-03
              14     7.01303E-03     57.6418E-03    -17.6103E+06    -84.0805E+06    -1.24131E+06        224.E+03    -26.7311E-03     53.1821E-03    -26.4510E-03     41.4792E-03    -26.7075E-03     52.8012E-03    -26.3098E-03     41.4458E-03
              15     7.88972E-03     57.6834E-03    -15.6945E+06    -78.0226E+06     998.055E+03     236.953E+03    -26.8238E-03     53.2675E-03    -26.4436E-03     46.3916E-03    -26.8086E-03     52.9166E-03    -26.3028E-03     46.3484E-03
              16     8.76641E-03     57.7299E-03    -13.9777E+06    -71.7884E+06     1.75881E+06     269.432E+03    -26.9273E-03     53.3565E-03    -26.4292E-03     51.1788E-03    -26.9217E-03     53.0413E-03    -26.2961E-03     51.1240E-03
              17     9.64312E-03     57.7805E-03    -12.4550E+06    -64.6866E+06     2.03548E+06     360.764E+03    -27.0351E-03     53.4468E-03    -26.4117E-03     55.8405E-03    -27.0440E-03     53.1760E-03    -26.2897E-03     55.7724E-03
              18     10.5198E-03     57.8359E-03    -11.0846E+06    -57.7292E+06     1.48963E+06     476.040E+03    -27.1628E-03     53.5541E-03    -26.3913E-03     60.6391E-03    -27.1906E-03     53.3333E-03    -26.2840E-03     60.5550E-03
              19     11.3965E-03     57.8956E-03    -9.87934E+06    -48.8946E+06    -277.017E+03     596.238E+03    -27.2745E-03     53.6368E-03    -26.3623E-03     65.4604E-03    -27.3304E-03     53.4849E-03    -26.2785E-03     65.3573E-03
              20     12.2733E-03     57.9601E-03    -9.19716E+06    -36.7721E+06    -1.26762E+06     197.518E+03    -27.3919E-03     53.7247E-03    -26.3328E-03     70.5841E-03    -27.4974E-03     53.6707E-03    -26.2725E-03     70.4514E-03
              21     13.1500E-03     58.0295E-03    -9.00812E+06    -16.9184E+06    -3.95899E+06     724.979E+03    -27.5598E-03     53.8431E-03    -26.2832E-03     77.9965E-03    -27.7526E-03     53.9553E-03    -26.2654E-03     77.8437E-03
              22     14.0268E-03     58.1082E-03    -9.66165E+06     16.9575E+06    -8.71897E+06     520.484E+03    -27.7612E-03     53.9621E-03    -26.2009E-03     88.6609E-03    -28.1247E-03     54.3768E-03    -26.2551E-03     88.4804E-03
              23     14.9036E-03     58.1976E-03    -9.66939E+06     72.8228E+06    -3.26706E+06    -1.71766E+06    -28.0967E-03     54.2267E-03    -26.1300E-03     106.086E-03    -28.8691E-03     55.2328E-03    -26.2379E-03     105.893E-03
              24     15.7807E-03     58.3104E-03    -7.31994E+06     125.027E+06     33.1548E+06    -538.720E+03    -28.6113E-03     54.8165E-03    -26.2051E-03     131.085E-03    -30.1950E-03     56.7219E-03    -26.2100E-03     131.211E-03
              25     16.6604E-03     58.4499E-03    -3.88684E+06     140.074E+06     74.1654E+06     1.00688E+06    -27.3204E-03     53.6749E-03    -26.3546E-03     88.5309E-03    -28.6610E-03     55.2839E-03    -26.1812E-03     88.8866E-03
              26     17.5348E-03     59.4811E-03    -956.138E+03     139.499E+06     87.8393E+06     1.08339E+06    -25.1762E-03     51.6059E-03    -26.4297E-03     31.6025E-03    -25.7533E-03     52.4202E-03    -26.1914E-03     31.9005E-03
              27     17.5349E-03     60.4761E-03    -2.80085E+06     137.806E+06     85.9923E+06    -15.3658E+03    -25.6475E-03     52.0683E-03    -26.4209E-03     32.4931E-03    -26.2320E-03     52.8828E-03    -26.1867E-03     32.7767E-03
              28     17.5348E-03     61.4789E-03    -3.08423E+06     137.039E+06     85.3709E+06    -183.381E+03    -25.5150E-03     51.9201E-03    -26.4052E-03     31.6859E-03    -26.0940E-03     52.7272E-03    -26.1725E-03     31.9613E-03
              29     17.5362E-03     62.4775E-03    -1.08793E+06     139.070E+06     87.3137E+06    -880.394E+03    -24.6222E-03     51.0372E-03    -26.4150E-03     33.3444E-03    -25.2081E-03     51.8598E-03    -26.1785E-03     33.6273E-03
              30     17.5347E-03     63.4746E-03    -3.37922E+06     137.557E+06     85.6323E+06    -607.380E+03    -25.9022E-03     52.2939E-03    -26.3917E-03     32.7125E-03    -26.4899E-03     53.1097E-03    -26.1581E-03     32.9800E-03
              31     17.5354E-03     64.4769E-03    -2.76132E+06     137.964E+06     85.9570E+06    -39.9602E+03    -26.1378E-03     52.5340E-03    -26.3961E-03     32.1411E-03    -26.7195E-03     53.3464E-03    -26.1624E-03     32.4114E-03
              32     17.5348E-03     65.4753E-03    -1.36526E+06     139.417E+06     87.1878E+06     973.261E+03    -25.4239E-03     51.8294E-03    -26.4055E-03     33.4552E-03    -26.0073E-03     52.6501E-03    -26.1697E-03     33.7533E-03
              33     17.5361E-03     66.4754E-03    -3.35915E+06     138.239E+06     85.6099E+06     1.09865E+06    -25.0449E-03     51.4456E-03    -26.4007E-03     33.4354E-03    -25.6331E-03     52.2643E-03    -26.1682E-03     33.7394E-03
              34     17.5349E-03     67.4740E-03    -2.91709E+06     138.672E+06     85.9530E+06    -561.928E+03    -24.7839E-03     51.2154E-03    -26.4315E-03     32.5035E-03    -25.3720E-03     52.0362E-03    -26.1986E-03     32.7907E-03
              35     17.5344E-03     68.4710E-03    -1.10224E+06     140.396E+06     87.6999E+06     842.538E+03    -25.2638E-03     51.7081E-03    -26.4442E-03     31.6316E-03    -25.8447E-03     52.5291E-03    -26.2077E-03     31.9291E-03
              36     17.5351E-03     69.4697E-03    -2.48614E+06     139.949E+06     86.8675E+06     709.485E+03    -25.7726E-03     52.1779E-03    -26.4054E-03     32.3846E-03    -26.3593E-03     53.0008E-03    -26.1704E-03     32.6720E-03
              37     17.5358E-03     70.4738E-03    -547.482E+03     141.591E+06     88.6884E+06    -5.26206E+03    -24.7962E-03     51.2128E-03    -26.4166E-03     33.6244E-03    -25.3835E-03     52.0437E-03    -26.1777E-03     33.9157E-03
              38     17.5349E-03     71.4693E-03    -701.368E+03     141.314E+06     88.5107E+06     311.734E+03    -24.4714E-03     50.9192E-03    -26.4478E-03     33.2298E-03    -25.0573E-03     51.7476E-03    -26.2091E-03     33.5296E-03
              39     17.5344E-03     72.4653E-03    -5.46231E+06     137.571E+06     83.9998E+06    -14.6110E+03    -26.5154E-03     52.9185E-03    -26.4030E-03     31.3745E-03    -27.1047E-03     53.7332E-03    -26.1746E-03     31.6372E-03
              40     17.5350E-03     73.4693E-03    -3.20961E+06     139.850E+06     86.1329E+06     148.069E+03    -27.0423E-03     53.4468E-03    -26.4046E-03     29.2975E-03    -27.6218E-03     54.2617E-03    -26.1720E-03     29.5543E-03
              41     17.5335E-03     74.4687E-03    -205.567E+03     142.959E+06     88.7974E+06     1.04532E+06    -24.7713E-03     51.2310E-03    -26.4597E-03     28.8788E-03    -25.3454E-03     52.0545E-03    -26.2227E-03     29.1825E-03
              42     17.5364E-03     75.4631E-03    -1.82290E+06     140.887E+06     86.5496E+06    -801.306E+03    -24.0633E-03     50.4966E-03    -26.4333E-03     30.7534E-03    -24.6421E-03     51.3181E-03    -26.2022E-03     31.0431E-03
              43     17.5348E-03     76.4679E-03     549.379E+03     143.150E+06     89.0042E+06    -954.734E+03    -24.6346E-03     51.0512E-03    -26.4165E-03     33.0032E-03    -25.2241E-03     51.8927E-03    -26.1799E-03     33.2876E-03
              44     17.5357E-03     77.4648E-03    -3.30982E+06     141.095E+06     86.0458E+06    -364.844E+03    -26.7170E-03     53.1009E-03    -26.3839E-03     37.2275E-03    -27.3424E-03     53.9660E-03    -26.1534E-03     37.5065E-03
              45     17.5337E-03     78.4684E-03    -6.63983E+06     138.535E+06     83.1690E+06    -26.6244E+03    -27.3104E-03     53.6805E-03    -26.3702E-03     34.5872E-03    -27.9266E-03     54.5243E-03    -26.1456E-03     34.8508E-03
              46     17.5362E-03     79.4679E-03     305.929E+03     144.952E+06     89.4640E+06     830.877E+03    -23.7475E-03     50.1952E-03    -26.4477E-03     33.5121E-03    -24.3358E-03     51.0403E-03    -26.2110E-03     33.8271E-03
              47     17.5350E-03     80.4603E-03    -1.39948E+06     143.966E+06     88.0534E+06    -277.024E+03    -23.8424E-03     50.2819E-03    -26.4395E-03     33.1132E-03    -24.4306E-03     51.1210E-03    -26.2059E-03     33.4115E-03
              48     17.5351E-03     81.4613E-03    -3.73959E+06     142.256E+06     86.1828E+06    -368.320E+03    -25.8665E-03     52.2675E-03    -26.4011E-03     30.9447E-03    -26.4535E-03     53.0964E-03    -26.1710E-03     31.2093E-03
              49     17.5349E-03     82.4604E-03    -2.17252E+06     143.652E+06     87.4490E+06      29.549E+03    -25.7461E-03     52.1536E-03    -26.4075E-03     31.4275E-03    -26.3317E-03     52.9879E-03    -26.1754E-03     31.7000E-03
              50     17.5351E-03     83.4609E-03    -2.60519E+06     143.042E+06     86.3963E+06    -473.620E+03    -25.4684E-03     51.8795E-03    -26.4111E-03     31.6930E-03    -26.0564E-03     52.7156E-03    -26.1828E-03     31.9663E-03
              51     17.5348E-03     84.4592E-03    -2.36920E+06     143.026E+06     86.5379E+06    -457.899E+03    -25.6141E-03     52.0237E-03    -26.4096E-03     32.8516E-03    -26.2060E-03     52.8640E-03    -26.1808E-03     33.1283E-03
              52     17.5351E-03     85.4611E-03    -1.32489E+06     143.437E+06     87.6418E+06     1.05889E+06    -25.1896E-03     51.5977E-03    -26.4081E-03     33.8034E-03    -25.7810E-03     52.4395E-03    -26.1759E-03     34.1057E-03
              53     17.5360E-03     86.4583E-03    -2.74750E+06     141.465E+06     85.8372E+06     718.854E+03    -25.0980E-03     51.4935E-03    -26.3955E-03     34.5717E-03    -25.6952E-03     52.3343E-03    -26.1675E-03     34.8737E-03
              54     17.5347E-03     87.4586E-03    -3.25473E+06     141.489E+06     85.7076E+06      649.66E+03    -25.0303E-03     51.4424E-03    -26.4121E-03     31.9054E-03    -25.6238E-03     52.2781E-03    -26.1840E-03     32.2011E-03
              55     17.5353E-03     88.4539E-03    -2.28394E+06     143.327E+06     87.2660E+06     213.809E+03    -25.2959E-03     51.6987E-03    -26.4027E-03     31.7854E-03    -25.8905E-03     52.5410E-03    -26.1709E-03     32.0730E-03
              56     17.5358E-03     89.4543E-03    -2.54340E+06     143.209E+06     87.2325E+06    -151.238E+03    -25.9289E-03     52.2822E-03    -26.3533E-03     31.4447E-03    -26.5183E-03     53.1182E-03    -26.1211E-03     31.7167E-03
              57     17.5365E-03     90.4575E-03    -398.835E+03     145.768E+06     89.8164E+06    -257.619E+03    -24.3806E-03     50.7557E-03    -26.3751E-03     32.9945E-03    -24.9728E-03     51.6037E-03    -26.1369E-03     33.2872E-03
              58     17.5363E-03     91.4520E-03    -1.40319E+06     144.631E+06     88.8612E+06    -724.131E+03    -24.4511E-03     50.7982E-03    -26.3471E-03     34.8203E-03    -25.0522E-03     51.6501E-03    -26.1105E-03     35.1074E-03
              59     17.5377E-03     92.4507E-03    -4.20395E+06     142.104E+06     86.5306E+06    -598.972E+03    -26.4111E-03     52.6710E-03    -26.2598E-03     32.2786E-03    -27.0079E-03     53.5063E-03    -26.0271E-03     32.5344E-03
              60     17.5373E-03     93.4525E-03    -2.56970E+06     143.157E+06     87.8654E+06    -23.8117E+03    -26.3199E-03     52.5663E-03    -26.2464E-03     30.4496E-03    -26.9094E-03     53.4001E-03    -26.0109E-03     30.7139E-03
              61     17.5380E-03     94.4503E-03    -3.14661E+06     142.218E+06     87.2475E+06     514.006E+03    -26.0874E-03     52.3049E-03    -26.2174E-03     31.3638E-03    -26.6843E-03     53.1425E-03    -25.9828E-03     31.6447E-03
              62     17.5394E-03     95.4503E-03    -2.01198E+06     142.057E+06     88.0361E+06     299.985E+03    -26.1684E-03     52.3124E-03    -26.1439E-03     31.8664E-03    -26.7617E-03     53.1476E-03    -25.9068E-03     32.1449E-03
              63     17.5410E-03     96.4532E-03     2.12378E+06     145.159E+06     92.0362E+06    -200.403E+03    -25.3490E-03     51.4372E-03    -26.0882E-03     34.4274E-03    -25.9452E-03     52.2895E-03    -25.8416E-03     34.7146E-03
              64     17.5423E-03     97.4497E-03    -2.53038E+06     138.437E+06     87.3698E+06    -1.40195E+06    -27.5301E-03     53.4736E-03    -25.9435E-03     37.0674E-03    -28.1459E-03     54.3186E-03    -25.7037E-03     37.3170E-03
              65     17.5436E-03     98.4536E-03    -5.39880E+06     133.856E+06     84.9464E+06    -1.43399E+06    -29.9494E-03     55.7468E-03    -25.7974E-03     33.8019E-03    -30.5554E-03     56.5625E-03    -25.5589E-03     34.0111E-03
              66     17.5452E-03     99.4563E-03    -475.025E+03     135.740E+06     89.1730E+06    -403.340E+03    -30.5127E-03     56.2260E-03    -25.7133E-03     34.4591E-03    -31.1072E-03     57.0421E-03    -25.4635E-03     34.6801E-03
              67     17.5463E-03     100.461E-03    -4.22727E+06     130.151E+06     85.8146E+06    -832.072E+03    -32.4394E-03     58.0278E-03    -25.5884E-03     34.9570E-03    -33.0408E-03     58.8275E-03    -25.3419E-03     35.1508E-03
              68     17.5475E-03     101.468E-03    -654.141E+03     129.465E+06     87.0373E+06    -347.477E+03    -33.3422E-03     58.8335E-03    -25.4913E-03     33.6705E-03    -33.9230E-03     59.6191E-03    -25.2429E-03     33.8569E-03
              69     17.5492E-03     102.473E-03    -2.60317E+06     124.964E+06     85.9360E+06    -2.33898E+06    -36.3188E-03     61.6848E-03    -25.3661E-03     36.2779E-03    -36.9179E-03     62.4694E-03    -25.1138E-03     36.4073E-03
              70     17.5483E-03     103.488E-03    -3.33070E+06     118.311E+06     84.2469E+06    -1.23496E+06    -39.8826E-03     65.1271E-03    -25.2444E-03     35.6396E-03    -40.4745E-03     65.8831E-03    -24.9899E-03     35.7291E-03
              71     17.5507E-03     104.500E-03    -462.267E+03     117.943E+06     86.4378E+06     72.1735E+03    -40.9447E-03     66.1116E-03    -25.1669E-03     36.4593E-03    -41.5324E-03     66.8659E-03    -24.9051E-03     36.5457E-03
              72     17.5508E-03     105.513E-03    -699.474E+03     111.670E+06     85.0228E+06    -2.92483E+06    -45.3330E-03     70.3377E-03    -25.0046E-03     38.8841E-03    -45.9249E-03     71.0776E-03    -24.7404E-03     38.8648E-03
              73     17.5520E-03     106.539E-03    -4.65029E+06     101.557E+06     81.3585E+06    -4.80926E+06    -51.6077E-03     76.4253E-03    -24.8176E-03     42.2332E-03    -52.2298E-03     77.1562E-03    -24.5513E-03     42.0890E-03
              74     17.5518E-03     107.566E-03    -2.75189E+06     96.5558E+06     83.5621E+06    -3.26676E+06    -57.6371E-03     82.2910E-03    -24.6538E-03     48.0648E-03    -58.2947E-03     83.0401E-03    -24.3721E-03     47.8343E-03
              75     17.5532E-03     108.603E-03    -6.54551E+06     90.9581E+06     82.3980E+06    -3.42391E+06    -63.5890E-03     88.0669E-03    -24.4778E-03     54.7415E-03    -64.3164E-03     88.8566E-03    -24.1882E-03     54.3767E-03
              76     17.5534E-03     109.647E-03     1.11642E+06     81.4432E+06     82.5082E+06    -1.03132E+06    -67.8820E-03     92.2177E-03    -24.3357E-03     66.1527E-03    -68.6667E-03     93.0590E-03    -24.0429E-03     65.6903E-03
              77     17.5550E-03     110.698E-03    -6.60167E+06     78.3415E+06     82.4570E+06    -498.360E+03    -71.1148E-03     95.3553E-03    -24.2405E-03     83.5734E-03    -72.1160E-03     96.3759E-03    -23.9323E-03     82.9757E-03
              78     17.5546E-03     111.752E-03     3.97555E+06     79.6901E+06     87.7559E+06     2.39710E+06    -75.4119E-03     99.5206E-03    -24.1087E-03     107.263E-03    -76.6132E-03     100.769E-03    -23.7912E-03     106.515E-03
              79     17.5580E-03     112.813E-03    -11.6855E+06     65.8558E+06     65.6834E+06    -8.42657E+06    -76.9329E-03     100.890E-03    -23.9572E-03     133.062E-03    -78.4185E-03     102.384E-03    -23.7073E-03     131.975E-03
              80     17.5573E-03     113.876E-03    -1.16820E+06     31.5380E+06     32.9581E+06    -18.4631E+06    -67.3495E-03     91.4013E-03    -24.0518E-03     165.887E-03    -68.7691E-03     92.8400E-03    -23.9310E-03     164.755E-03
              81     17.5608E-03     114.918E-03     9.40631E+06      83.973E+03     8.95035E+06    -11.3645E+06    -29.3202E-03     54.4807E-03    -25.1606E-03     172.465E-03    -30.0011E-03     55.1854E-03    -25.1296E-03     171.977E-03
              82     17.5388E-03     115.861E-03    -12.9885E+06    -14.1202E+06    -287.029E+03     952.844E+03     9.09526E-03     20.9262E-03    -30.0214E-03     80.0748E-03     8.94853E-03     20.9427E-03    -29.9835E-03     80.1052E-03
              83     16.4368E-03     116.604E-03    -1.80411E+06     21.2864E+06     40.3946E+06     2.67471E+06     11.6296E-03     23.0865E-03    -34.7161E-03     17.2215E-03     11.5120E-03     23.1190E-03    -34.5424E-03     17.2552E-03
              84     15.5349E-03     116.427E-03    -19.4089E+06    -2.25519E+06     50.8600E+06    -7.39658E+06    -7.53078E-03     43.3284E-03    -35.7976E-03     25.3472E-03    -7.70125E-03     43.2738E-03    -35.5119E-03     25.2399E-03
              85     14.6796E-03     116.232E-03    -6.03240E+06    -8.55369E+06     53.3337E+06    -7.99819E+06    -21.0413E-03     57.0643E-03    -36.0230E-03     12.0276E-03    -21.1508E-03     56.9444E-03    -35.7351E-03     11.9040E-03
              86     13.8221E-03     116.068E-03     1.57212E+06     2.35675E+06     59.3951E+06    -7.63072E+06    -25.2966E-03     61.1706E-03    -35.8740E-03     2.40111E-03    -25.3891E-03     61.0857E-03    -35.5828E-03     2.28028E-03
              87     12.9649E-03     115.931E-03     7.84282E+06    -7.64356E+06     59.8900E+06    -4.49748E+06    -32.1270E-03     67.6674E-03    -35.5404E-03    -4.71671E-03    -32.1721E-03     67.5234E-03    -35.2413E-03    -4.80432E-03
              88     12.1128E-03     115.808E-03     13.7703E+06     1.17497E+06     61.1210E+06    -3.61814E+06    -36.6243E-03     71.5359E-03    -34.9116E-03    -7.86084E-03    -36.6535E-03     71.4254E-03    -34.6277E-03    -7.94017E-03
              89     11.2603E-03     115.703E-03     17.5508E+06    -4.48504E+06     58.3172E+06    -2.18737E+06    -38.2789E-03     72.4094E-03    -34.1304E-03    -8.60857E-03    -38.2755E-03     72.2701E-03    -33.8578E-03    -8.66744E-03
              90     10.4062E-03     115.612E-03     19.1866E+06     1.20077E+06     59.4806E+06    -1.20532E+06    -38.3654E-03     71.6769E-03    -33.3115E-03    -8.22116E-03    -38.3624E-03     71.5633E-03    -33.0436E-03    -8.26345E-03
              91     9.54914E-03     115.535E-03     19.4353E+06    -1.43513E+06     56.3855E+06    -911.064E+03    -37.7287E-03     70.2198E-03    -32.4911E-03    -7.34402E-03    -37.7151E-03     70.0983E-03    -32.2353E-03    -7.37842E-03
              92     8.68987E-03     115.468E-03     19.4403E+06     744.622E+03     52.6390E+06    -1.03053E+06    -36.5607E-03     68.2554E-03    -31.6948E-03    -6.32372E-03    -36.5441E-03     68.1510E-03    -31.4608E-03    -6.35582E-03
              93     7.82798E-03     115.411E-03     19.3412E+06    -646.926E+03     48.2403E+06    -1.13865E+06    -35.1064E-03     66.0675E-03    -30.9611E-03    -5.31697E-03    -35.0814E-03     65.9634E-03    -30.7470E-03    -5.34696E-03
              94     6.96368E-03     115.362E-03     19.6192E+06     745.748E+03     45.3310E+06    -1.59454E+06    -33.6436E-03     63.9505E-03    -30.3069E-03    -4.43296E-03    -33.6145E-03     63.8577E-03    -30.1098E-03    -4.46588E-03
              95     6.09731E-03     115.321E-03     20.3701E+06    -776.698E+03     40.7013E+06    -1.70784E+06    -32.2871E-03     62.0163E-03    -29.7292E-03    -3.68054E-03    -32.2450E-03     61.9218E-03    -29.5541E-03    -3.71250E-03
              96     5.22915E-03     115.286E-03     21.2028E+06     294.155E+03     36.9300E+06    -1.55869E+06    -31.0865E-03     60.3212E-03    -29.2348E-03    -3.05162E-03    -31.0362E-03     60.2366E-03    -29.0813E-03    -3.07966E-03
              97     4.35959E-03     115.257E-03     22.1195E+06    -328.538E+03     33.9671E+06    -1.65948E+06    -30.0691E-03     58.8984E-03    -28.8293E-03    -2.49534E-03    -30.0089E-03     58.8138E-03    -28.6911E-03    -2.52303E-03
              98     3.48879E-03     115.234E-03     23.3202E+06    -40.4276E+03     31.4381E+06    -1.72647E+06    -29.2485E-03     57.7554E-03    -28.5069E-03    -2.00130E-03    -29.1790E-03     57.6742E-03    -28.3834E-03    -2.02844E-03
              99     2.61726E-03     115.216E-03     24.6201E+06    -606.307E+03     28.9586E+06    -1.54932E+06    -28.6300E-03     56.8995E-03    -28.2695E-03    -1.58911E-03    -28.5495E-03     56.8173E-03    -28.1595E-03    -1.61272E-03
             100     1.74482E-03     115.203E-03     25.6671E+06    -317.593E+03     27.3574E+06    -1.11167E+06    -28.1790E-03     56.3149E-03    -28.1359E-03    -1.23216E-03    -28.0913E-03     56.2350E-03    -28.0358E-03    -1.24900E-03
             101     872.124E-06     115.195E-03     27.0283E+06    -512.000E+03     25.7071E+06    -1.19601E+06    -27.9351E-03     56.1652E-03    -28.2300E-03    -1.14832E-03    -27.8380E-03     56.0848E-03    -28.1399E-03    -1.16477E-03
             102     418.992E-09     114.189E-03     22.6480E+06    -2.21661E+06     22.9414E+06    -764.575E+03    -25.2039E-03     50.5899E-03    -25.3860E-03    -75.7626E-06    -25.1215E-03     50.5119E-03    -25.3009E-03    -86.1560E-06
             103    -296.294E-09     113.197E-03     13.1004E+06    -6.20055E+06     14.3384E+06    -1.31693E+06    -20.6838E-03     41.3153E-03    -20.6315E-03     1.19402E-03    -20.6303E-03     41.2444E-03    -20.5698E-03     1.17610E-03
             104     283.940E-09     112.213E-03     372.196E+03    -12.0212E+06     315.558E+03    -2.37571E+06    -17.6843E-03     35.3107E-03    -17.6264E-03     1.62170E-03    -17.6654E-03     35.2498E-03    -17.6080E-03     1.59031E-03
             105    -168.917E-09     111.233E-03    -16.7536E+06    -19.3004E+06    -16.6704E+06    -1.82601E+06    -15.7704E-03     31.5154E-03    -15.7450E-03     2.15876E-03    -15.8019E-03     31.4676E-03    -15.7760E-03     2.13470E-03
             106     98.1251E-09     110.256E-03    -35.6590E+06    -26.1942E+06    -35.2697E+06    -2.39602E+06    -14.6959E-03     29.4764E-03    -14.7805E-03     2.56858E-03    -14.7848E-03     29.4486E-03    -14.8672E-03     2.53729E-03
             107    -176.231E-09     109.280E-03    -55.1646E+06    -34.5367E+06    -55.3871E+06    -2.45709E+06    -14.3733E-03     28.8033E-03    -14.4300E-03     2.87328E-03    -14.5186E-03     28.7912E-03    -14.5768E-03     2.84137E-03
             108     147.356E-09     108.304E-03    -77.0625E+06    -42.7275E+06    -76.9870E+06    -2.46892E+06    -14.5250E-03     29.0551E-03    -14.5301E-03     3.07767E-03    -14.7366E-03     29.0651E-03    -14.7413E-03     3.04571E-03
             109    -131.121E-09     107.327E-03    -91.6214E+06    -48.2578E+06    -92.7181E+06    -388.993E+03    -14.9759E-03     29.9458E-03    -14.9699E-03     3.24623E-03    -15.2295E-03     29.9721E-03    -15.2306E-03     3.24120E-03
             110     108.181E-09     106.350E-03    -76.8364E+06    -41.6325E+06    -78.2814E+06     4.20748E+06    -15.7443E-03     31.5132E-03    -15.7689E-03     3.36981E-03    -15.9545E-03     31.5302E-03    -15.9885E-03     3.42415E-03
             111    -150.574E-09     105.370E-03    -45.3883E+06    -23.6252E+06    -45.2646E+06     6.59584E+06    -16.8284E-03     33.7043E-03    -16.8759E-03     3.51857E-03    -16.9554E-03     33.7179E-03    -17.0022E-03     3.60376E-03
             112     104.601E-09     104.388E-03    -23.4075E+06    -6.34167E+06    -21.4475E+06     3.79811E+06    -18.1833E-03     36.3085E-03    -18.1252E-03     3.63805E-03    -18.2601E-03     36.3421E-03    -18.1893E-03     3.68709E-03
             113     60.6535E-09     103.403E-03    -9.41430E+06    -1.24223E+06    -8.65157E+06    -531.384E+03    -19.5670E-03     39.0361E-03    -19.4691E-03     3.68895E-03    -19.5997E-03     39.0563E-03    -19.4969E-03     3.68202E-03
             114    -49.9741E-09     102.416E-03    -2.37831E+06    -5.01521E+06    -2.36379E+06    -1.72488E+06    -20.8079E-03     41.6501E-03    -20.8422E-03     3.64177E-03    -20.8090E-03     41.6321E-03    -20.8433E-03     3.61933E-03
             115    -26.5087E-09     101.426E-03    -406.737E+03    -11.7577E+06    -347.421E+03    -2.19989E+06    -21.9809E-03     44.0144E-03    -22.0334E-03     3.63422E-03    -21.9654E-03     43.9569E-03    -22.0175E-03     3.60548E-03
             116     5.54061E-09     100.434E-03    -1.20774E+06    -19.3068E+06    -1.49189E+06    -2.43158E+06    -23.0382E-03     46.0112E-03    -22.9730E-03     3.66255E-03    -23.0141E-03     45.9189E-03    -22.9507E-03     3.63058E-03
             117     120.935E-09     99.4401E-03    -2.60067E+06    -27.2783E+06    -2.63061E+06    -2.26478E+06    -23.8667E-03     47.6824E-03    -23.8156E-03     3.63610E-03    -23.8364E-03     47.5538E-03    -23.7854E-03     3.60604E-03
             118    -163.626E-09     98.4451E-03    -5.59581E+06    -34.9085E+06    -5.49019E+06    -2.31751E+06    -24.4665E-03     49.0396E-03    -24.5731E-03     3.53757E-03    -24.4358E-03     48.8814E-03    -24.5418E-03     3.50665E-03
             119     14.7029E-09     97.4485E-03    -9.55808E+06    -42.6423E+06    -9.59666E+06    -2.49320E+06    -25.0568E-03     50.1268E-03    -25.0700E-03     3.47571E-03    -25.0288E-03     49.9416E-03    -25.0423E-03     3.44238E-03
             120     105.023E-09     96.4512E-03    -12.6916E+06    -50.6115E+06    -12.9756E+06    -2.11795E+06    -25.5189E-03     50.9670E-03    -25.4481E-03     3.47479E-03    -25.4901E-03     50.7514E-03    -25.4212E-03     3.44619E-03
             121    -109.174E-09     95.4533E-03    -16.6376E+06    -57.8681E+06    -16.5266E+06    -2.15451E+06    -25.7600E-03     51.5671E-03    -25.8071E-03     3.45694E-03    -25.7353E-03     51.3262E-03    -25.7817E-03     3.42774E-03
             122     26.5799E-09     94.4546E-03    -20.4623E+06    -64.9918E+06    -20.6909E+06    -1.90257E+06    -26.0007E-03     52.0054E-03    -26.0047E-03     3.48943E-03    -25.9788E-03     51.7405E-03    -25.9843E-03     3.46341E-03
             123     40.8587E-09     93.4560E-03    -23.4041E+06    -71.1877E+06    -23.3486E+06    -1.71020E+06    -26.1778E-03     52.3227E-03    -26.1449E-03     3.47049E-03    -26.1577E-03     52.0349E-03    -26.1245E-03     3.44690E-03
             124    -55.6055E-09     92.4568E-03    -26.0567E+06    -76.8771E+06    -26.3869E+06    -1.71492E+06    -26.2792E-03     52.5564E-03    -26.2772E-03     3.35051E-03    -26.2597E-03     52.2484E-03    -26.2599E-03     3.32687E-03
             125     64.9188E-09     91.4579E-03    -29.3705E+06    -81.9587E+06    -29.2075E+06    -1.26528E+06    -26.3305E-03     52.6999E-03    -26.3693E-03     3.28768E-03    -26.3162E-03     52.3753E-03    -26.3539E-03     3.26995E-03
             126    -145.401E-09     90.4583E-03    -31.0082E+06    -86.5234E+06    -30.9358E+06    -1.17373E+06    -26.3873E-03     52.7749E-03    -26.3876E-03     3.28288E-03    -26.3720E-03     52.4324E-03    -26.3718E-03     3.26629E-03
             127     221.320E-09     89.4591E-03    -32.4918E+06    -91.0760E+06    -32.5504E+06    -1.23773E+06    -26.4738E-03     52.8498E-03    -26.3760E-03     3.32172E-03    -26.4569E-03     52.4891E-03    -26.3596E-03     3.30422E-03
             128    -131.647E-09     88.4596E-03    -33.4830E+06    -94.9713E+06    -33.4747E+06    -1.22082E+06    -26.4680E-03     52.9196E-03    -26.4516E-03     3.43081E-03    -26.4492E-03     52.5421E-03    -26.4327E-03     3.41343E-03
             129     65.4847E-09     87.4600E-03    -34.3630E+06    -98.7202E+06    -34.3751E+06    -1.17485E+06    -26.4210E-03     52.9080E-03    -26.4870E-03     3.49299E-03    -26.3998E-03     52.5144E-03    -26.4659E-03     3.47618E-03
             130    -120.879E-09     86.4607E-03    -34.7830E+06    -102.279E+06    -35.0805E+06    -728.401E+03    -26.4454E-03     52.8793E-03    -26.4339E-03     3.47859E-03    -26.4201E-03     52.4695E-03    -26.4106E-03     3.46761E-03
             131     187.377E-09     85.4614E-03    -35.0492E+06    -104.929E+06    -35.0680E+06    -670.012E+03    -26.5011E-03     52.8876E-03    -26.3865E-03     3.44372E-03    -26.4733E-03     52.4649E-03    -26.3588E-03     3.43346E-03
             132    -58.5865E-09     84.4620E-03    -35.3978E+06    -107.471E+06    -35.3091E+06    -937.950E+03    -26.5037E-03     52.8932E-03    -26.3895E-03     3.40536E-03    -26.4736E-03     52.4587E-03    -26.3589E-03     3.39159E-03
             133     125.634E-09     83.4629E-03    -35.0166E+06    -109.848E+06    -34.9962E+06    -688.890E+03    -26.4560E-03     52.8989E-03    -26.4429E-03     3.36428E-03    -26.4210E-03     52.4515E-03    -26.4078E-03     3.35374E-03
             134    -174.830E-09     82.4632E-03    -34.9651E+06    -112.103E+06    -34.9841E+06    -600.617E+03    -26.4044E-03     52.8712E-03    -26.4669E-03     3.34706E-03    -26.3659E-03     52.4125E-03    -26.4285E-03     3.33768E-03
             135     109.098E-09     81.4644E-03    -34.4644E+06    -113.760E+06    -34.3926E+06    -535.909E+03    -26.4144E-03     52.8683E-03    -26.4539E-03     3.33306E-03    -26.3719E-03     52.3997E-03    -26.4109E-03     3.32460E-03
             136    -116.858E-09     80.4646E-03    -33.7902E+06    -115.000E+06    -34.0828E+06    -229.889E+03    -26.4094E-03     52.8639E-03    -26.4545E-03     3.36866E-03    -26.3622E-03     52.3876E-03    -26.4091E-03     3.36415E-03
             137     37.0725E-09     79.4658E-03    -33.6334E+06    -115.774E+06    -33.6598E+06    -209.777E+03    -26.4348E-03     52.8927E-03    -26.4579E-03     3.38973E-03    -26.3863E-03     52.4117E-03    -26.4095E-03     3.38545E-03
             138    -3.40084E-09     78.4661E-03    -33.4988E+06    -116.805E+06    -33.2667E+06    -234.621E+03    -26.4705E-03     52.9109E-03    -26.4404E-03     3.41139E-03    -26.4204E-03     52.4240E-03    -26.3888E-03     3.40683E-03
             139     19.7603E-09     77.4669E-03    -33.8265E+06    -118.231E+06    -34.0957E+06    -338.948E+03    -26.4432E-03     52.8597E-03    -26.4164E-03     3.44690E-03    -26.3915E-03     52.3673E-03    -26.3664E-03     3.44093E-03
             140     2.31611E-09     76.4677E-03    -32.5039E+06    -118.615E+06    -32.4532E+06    -207.832E+03    -26.4920E-03     52.9063E-03    -26.4142E-03     3.42492E-03    -26.4355E-03     52.4077E-03    -26.3574E-03     3.42064E-03
             141     107.118E-09     75.4683E-03    -31.8399E+06    -119.158E+06    -31.9301E+06    -63.0553E+03    -26.4895E-03     52.9325E-03    -26.4430E-03     3.39119E-03    -26.4296E-03     52.4295E-03    -26.3838E-03     3.38880E-03
             142    -141.512E-09     74.4691E-03    -32.1953E+06    -119.793E+06    -32.1535E+06      39.721E+03    -26.4184E-03     52.9281E-03    -26.5097E-03     3.37119E-03    -26.3590E-03     52.4228E-03    -26.4501E-03     3.37013E-03
             143     10.9556E-09     73.4698E-03    -31.5226E+06    -119.692E+06    -31.3722E+06    -175.529E+03    -26.4464E-03     52.9451E-03    -26.4987E-03     3.34909E-03    -26.3850E-03     52.4382E-03    -26.4363E-03     3.34531E-03
             144     24.5006E-09     72.4703E-03    -31.1683E+06    -119.890E+06    -31.5557E+06     112.245E+03    -26.4452E-03     52.9127E-03    -26.4676E-03     3.44420E-03    -26.3814E-03     52.4046E-03    -26.4063E-03     3.44411E-03
             145    -109.086E-09     71.4712E-03    -31.0600E+06    -119.283E+06    -30.6809E+06     304.470E+03    -26.4350E-03     52.9074E-03    -26.4724E-03     3.45108E-03    -26.3728E-03     52.4009E-03    -26.4078E-03     3.45344E-03
             146     126.846E-09     70.4716E-03    -30.8899E+06    -119.298E+06    -31.1117E+06    -150.080E+03    -26.5182E-03     52.8869E-03    -26.3687E-03     3.42740E-03    -26.4546E-03     52.3807E-03    -26.3065E-03     3.42386E-03
             147     109.633E-09     69.4727E-03    -31.1120E+06    -119.450E+06    -30.8779E+06    -109.353E+03    -26.4778E-03     52.8537E-03    -26.3759E-03     3.46015E-03    -26.4153E-03     52.3466E-03    -26.3120E-03     3.45709E-03
             148    -170.509E-09     68.4733E-03    -30.8278E+06    -119.365E+06    -30.8815E+06    -33.6843E+03    -26.3562E-03     52.8517E-03    -26.4954E-03     3.33127E-03    -26.2925E-03     52.3446E-03    -26.4321E-03     3.32932E-03
             149    -18.4506E-09     67.4743E-03    -30.8251E+06    -119.403E+06    -31.0005E+06     126.204E+03    -26.3782E-03     52.8668E-03    -26.4886E-03     3.27113E-03    -26.3142E-03     52.3597E-03    -26.4258E-03     3.27132E-03
             150     6.89885E-09     66.4748E-03    -30.8130E+06    -119.279E+06    -30.7210E+06     13.2482E+03    -26.4216E-03     52.8572E-03    -26.4356E-03     3.39552E-03    -26.3581E-03     52.3503E-03    -26.3716E-03     3.39416E-03
             151    -24.2198E-09     65.4756E-03    -30.5397E+06    -119.190E+06    -30.7092E+06     89.5445E+03    -26.4217E-03     52.8515E-03    -26.4298E-03     3.47712E-03    -26.3571E-03     52.3447E-03    -26.3662E-03     3.47668E-03
             152     19.9277E-09     64.4764E-03    -30.4413E+06    -118.901E+06    -30.2818E+06     20.3024E+03    -26.4562E-03     52.8831E-03    -26.4269E-03     3.45204E-03    -26.3920E-03     52.3770E-03    -26.3618E-03     3.45070E-03
             153     31.8616E-09     63.4770E-03    -30.6365E+06    -119.130E+06    -30.5704E+06     23.2990E+03    -26.4806E-03     52.8615E-03    -26.3809E-03     3.45783E-03    -26.4167E-03     52.3549E-03    -26.3166E-03     3.45655E-03
             154     86.4002E-09     62.4779E-03    -30.5624E+06    -119.014E+06    -30.4096E+06    -23.1405E+03    -26.4104E-03     52.8276E-03    -26.4171E-03     3.47482E-03    -26.3466E-03     52.3212E-03    -26.3523E-03     3.47292E-03
             155    -220.302E-09     61.4787E-03    -30.2248E+06    -118.905E+06    -30.5472E+06    -23.3659E+03    -26.3572E-03     52.8290E-03    -26.4718E-03     3.34497E-03    -26.2916E-03     52.3229E-03    -26.4083E-03     3.34315E-03
             156     144.389E-09     60.4796E-03    -30.4582E+06    -119.000E+06    -30.3449E+06    -115.967E+03    -26.4308E-03     52.8691E-03    -26.4383E-03     3.32165E-03    -26.3665E-03     52.3626E-03    -26.3733E-03     3.31858E-03
             157    -85.5599E-09     59.4803E-03    -30.3131E+06    -118.762E+06    -30.3721E+06    -75.5501E+03    -26.4902E-03     52.9010E-03    -26.4108E-03     3.40410E-03    -26.4255E-03     52.3955E-03    -26.3465E-03     3.40153E-03
             158     159.791E-09     58.4808E-03    -30.2481E+06    -118.472E+06    -30.0693E+06     126.704E+03    -26.4508E-03     52.8580E-03    -26.4073E-03     3.47616E-03    -26.3866E-03     52.3534E-03    -26.3420E-03     3.47628E-03
             159     152.326E-09     56.4826E-03    -30.1112E+06    -118.421E+06    -29.9904E+06    -129.091E+03    -26.4019E-03     52.7884E-03    -26.3865E-03     3.33497E-03    -26.3373E-03     52.2838E-03    -26.3211E-03     3.33161E-03
             160    -119.956E-09     55.4835E-03    -29.7304E+06    -118.265E+06    -29.9102E+06    -193.970E+03    -26.3357E-03     52.8162E-03    -26.4805E-03     3.52050E-03    -26.2694E-03     52.3117E-03    -26.4154E-03     3.51623E-03
             161    -174.125E-09     54.4839E-03    -29.9979E+06    -118.451E+06    -30.1495E+06     310.506E+03    -26.2945E-03     52.7588E-03    -26.4643E-03     3.52311E-03    -26.2289E-03     52.2541E-03    -26.3998E-03     3.52555E-03
             162     162.917E-09     53.4852E-03    -30.5804E+06    -118.715E+06    -30.1490E+06     34.2719E+03    -26.3939E-03     52.7048E-03    -26.3108E-03     3.41816E-03    -26.3310E-03     52.1996E-03    -26.2451E-03     3.41710E-03
             163    -6.51913E-09     52.4860E-03    -29.8853E+06    -118.470E+06    -30.1276E+06    -130.960E+03    -26.4031E-03     52.6889E-03    -26.2858E-03     3.31959E-03    -26.3371E-03     52.1839E-03    -26.2213E-03     3.31635E-03
             164     47.9487E-09     51.4871E-03    -30.2837E+06    -118.646E+06    -30.2397E+06     115.175E+03    -26.3528E-03     52.6794E-03    -26.3266E-03     3.29410E-03    -26.2883E-03     52.1742E-03    -26.2618E-03     3.29412E-03
             165    -47.9484E-09     50.4879E-03    -30.3350E+06    -118.709E+06    -30.3018E+06     35.4398E+03    -26.3159E-03     52.6956E-03    -26.3797E-03     3.33790E-03    -26.2515E-03     52.1903E-03    -26.3151E-03     3.33688E-03
             166    -68.8109E-09     49.4889E-03    -30.0786E+06    -118.459E+06    -30.1412E+06    -97.6738E+03    -26.2703E-03     52.6804E-03    -26.4101E-03     3.35285E-03    -26.2052E-03     52.1757E-03    -26.3454E-03     3.35007E-03
             167    -65.4545E-09     48.4897E-03    -30.1168E+06    -118.640E+06    -30.2672E+06     188.883E+03    -26.2776E-03     52.6361E-03    -26.3585E-03     3.35559E-03    -26.2122E-03     52.1308E-03    -26.2942E-03     3.35655E-03
             168     50.7686E-09     47.4909E-03    -30.0815E+06    -118.582E+06    -29.9306E+06     67.0746E+03    -26.3728E-03     52.6231E-03    -26.2503E-03     3.32303E-03    -26.3078E-03     52.1176E-03    -26.1844E-03     3.32235E-03
             169     175.186E-09     46.4917E-03    -30.0388E+06    -118.550E+06    -29.9493E+06    -181.338E+03    -26.3486E-03     52.5810E-03    -26.2324E-03     3.35880E-03    -26.2834E-03     52.0756E-03    -26.1667E-03     3.35485E-03
             170    -201.705E-09     45.4930E-03    -29.9050E+06    -118.332E+06    -29.8271E+06    -30.7129E+03    -26.2705E-03     52.5567E-03    -26.2862E-03     3.32532E-03    -26.2051E-03     52.0520E-03    -26.2204E-03     3.32341E-03
             171     196.418E-09     44.4938E-03    -30.1691E+06    -118.617E+06    -30.3385E+06     165.001E+03    -26.2925E-03     52.5170E-03    -26.2245E-03     3.29351E-03    -26.2273E-03     52.0120E-03    -26.1605E-03     3.29416E-03
             172    -79.0123E-09     43.4951E-03    -30.0740E+06    -118.358E+06    -29.9837E+06     37.8094E+03    -26.2360E-03     52.4420E-03    -26.2060E-03     3.40573E-03    -26.1713E-03     51.9376E-03    -26.1407E-03     3.40464E-03
             173     9.91558E-09     42.4962E-03    -29.7351E+06    -118.177E+06    -29.9895E+06    -96.5058E+03    -26.1259E-03     52.3815E-03    -26.2556E-03     3.39150E-03    -26.0597E-03     51.8776E-03    -26.1911E-03     3.38872E-03
             174    -176.591E-09     41.4976E-03    -30.0252E+06    -118.238E+06    -29.8780E+06     90.9413E+03    -26.0547E-03     52.2734E-03    -26.2187E-03     3.29178E-03    -25.9900E-03     51.7694E-03    -26.1532E-03     3.29147E-03
             175     52.0894E-09     40.4990E-03    -29.9793E+06    -118.271E+06    -29.9513E+06    -36.0404E+03    -26.0576E-03     52.1841E-03    -26.1265E-03     3.24414E-03    -25.9925E-03     51.6800E-03    -26.0613E-03     3.24223E-03
             176    -52.9924E-09     39.5005E-03    -29.8168E+06    -118.198E+06    -29.9430E+06     48.7425E+03    -26.0895E-03     52.0991E-03    -26.0096E-03     3.26761E-03    -26.0237E-03     51.5951E-03    -25.9447E-03     3.26675E-03
             177     187.492E-09     38.5019E-03    -29.7399E+06    -117.928E+06    -29.6804E+06    -5.47448E+03    -26.0358E-03     51.9452E-03    -25.9094E-03     3.35929E-03    -25.9704E-03     51.4421E-03    -25.8437E-03     3.35764E-03
             178    -104.812E-09     37.5038E-03    -29.7799E+06    -117.946E+06    -30.1076E+06     86.1292E+03    -25.8482E-03     51.7320E-03    -25.8839E-03     3.29294E-03    -25.7823E-03     51.2295E-03    -25.8202E-03     3.29253E-03
             179    -49.3247E-09     36.5058E-03    -30.2530E+06    -117.983E+06    -29.9672E+06     43.9102E+03    -25.7123E-03     51.4972E-03    -25.7849E-03     3.05630E-03    -25.6490E-03     50.9949E-03    -25.7197E-03     3.05552E-03
             180     75.0662E-09     35.5082E-03    -30.1685E+06    -118.110E+06    -30.1295E+06    -128.912E+03    -25.6423E-03     51.3156E-03    -25.6734E-03     3.01325E-03    -25.5781E-03     50.8129E-03    -25.6090E-03     3.01032E-03
             181    -159.248E-09     34.5105E-03    -29.9879E+06    -117.841E+06    -29.9253E+06    -143.554E+03    -25.5900E-03     51.1269E-03    -25.5369E-03     2.99001E-03    -25.5256E-03     50.6250E-03    -25.4722E-03     2.98679E-03
             182     333.183E-09     33.5129E-03    -30.4398E+06    -117.858E+06    -30.3869E+06     2.68513E+03    -25.4424E-03     50.7730E-03    -25.3305E-03     3.07347E-03    -25.3796E-03     50.2723E-03    -25.2674E-03     3.07208E-03
             183    -314.561E-09     32.5163E-03    -30.2257E+06    -117.359E+06    -30.4546E+06     226.937E+03    -25.1891E-03     50.4030E-03    -25.2139E-03     3.06296E-03    -25.1258E-03     49.9046E-03    -25.1522E-03     3.06451E-03
             184     245.344E-09     31.5194E-03    -29.6461E+06    -116.348E+06    -29.8844E+06     466.296E+03    -25.0032E-03     50.0328E-03    -25.0295E-03     2.94807E-03    -24.9393E-03     49.5377E-03    -24.9673E-03     2.95280E-03
             185    -229.121E-09     30.5234E-03    -30.4781E+06    -114.591E+06    -30.4500E+06     563.648E+03    -24.7555E-03     49.5632E-03    -24.8077E-03     2.92737E-03    -24.6976E-03     49.0790E-03    -24.7496E-03     2.93339E-03
             186     117.590E-09     29.5276E-03    -30.9568E+06    -112.801E+06    -30.8549E+06     376.322E+03    -24.5265E-03     49.1075E-03    -24.5810E-03     2.91096E-03    -24.4729E-03     48.6335E-03    -24.5268E-03     2.91449E-03
             187    -104.524E-09     28.5321E-03    -30.1279E+06    -111.655E+06    -30.0786E+06     360.651E+03    -24.2848E-03     48.5367E-03    -24.2519E-03     2.89378E-03    -24.2298E-03     48.0660E-03    -24.1967E-03     2.89718E-03
             188     145.826E-09     27.5378E-03    -30.0859E+06    -111.194E+06    -30.0283E+06     206.470E+03    -23.9626E-03     47.9097E-03    -23.9471E-03     2.82055E-03    -23.9082E-03     47.4412E-03    -23.8924E-03     2.82203E-03
             189    -163.020E-09     26.5437E-03    -29.7774E+06    -110.419E+06    -29.7544E+06     144.958E+03    -23.6005E-03     47.2835E-03    -23.6830E-03     2.73149E-03    -23.5461E-03     46.8181E-03    -23.6285E-03     2.73226E-03
             190     31.8126E-09     25.5502E-03    -29.6228E+06    -109.757E+06    -29.8111E+06     366.253E+03    -23.2622E-03     46.5481E-03    -23.2860E-03     2.62376E-03    -23.2079E-03     46.0859E-03    -23.2329E-03     2.62744E-03
             191     52.2679E-09     24.5579E-03    -29.6338E+06    -109.037E+06    -29.4635E+06     456.870E+03    -22.9710E-03     45.8277E-03    -22.8567E-03     2.56154E-03    -22.9183E-03     45.3686E-03    -22.8030E-03     2.56639E-03
             192     63.5563E-09     23.5657E-03    -28.9861E+06    -108.077E+06    -28.9452E+06     104.076E+03    -22.5414E-03     45.0544E-03    -22.5130E-03     2.51465E-03    -22.4876E-03     44.5984E-03    -22.4590E-03     2.51493E-03
             193    -131.922E-09     22.5748E-03    -29.0570E+06    -107.833E+06    -29.1254E+06     57.8989E+03    -22.0726E-03     44.1980E-03    -22.1254E-03     2.41235E-03    -22.0192E-03     43.7436E-03    -22.0725E-03     2.41210E-03
             194     103.871E-09     21.5846E-03    -28.7567E+06    -106.922E+06    -28.7399E+06     414.400E+03    -21.6562E-03     43.2871E-03    -21.6310E-03     2.28608E-03    -21.6032E-03     42.8363E-03    -21.5779E-03     2.29052E-03
             195    -33.6479E-09     20.5952E-03    -27.6179E+06    -105.273E+06    -27.7303E+06     539.229E+03    -21.1530E-03     42.2901E-03    -21.1372E-03     2.26723E-03    -21.0981E-03     41.8444E-03    -21.0831E-03     2.27326E-03
             196    -12.5013E-09     19.6073E-03    -26.7548E+06    -103.675E+06    -26.7823E+06     313.058E+03    -20.6647E-03     41.2883E-03    -20.6236E-03     2.03252E-03    -20.6092E-03     40.8479E-03    -20.5684E-03     2.03568E-03
             197     128.824E-09     18.6198E-03    -25.9839E+06    -101.908E+06    -26.0768E+06     456.447E+03    -20.1067E-03     40.1609E-03    -20.0542E-03     1.89327E-03    -20.0509E-03     39.7272E-03    -19.9992E-03     1.89835E-03
             198    -155.391E-09     17.6338E-03    -25.0929E+06    -99.9648E+06    -25.0235E+06     502.318E+03    -19.3850E-03     38.8639E-03    -19.4789E-03     1.73870E-03    -19.3291E-03     38.4371E-03    -19.4227E-03     1.74448E-03
             199     15.4239E-09     16.6493E-03    -23.5897E+06    -97.6418E+06    -23.7920E+06     660.360E+03    -18.7298E-03     37.4045E-03    -18.6748E-03     1.30211E-03    -18.6715E-03     36.9854E-03    -18.6179E-03     1.31007E-03
             200     218.795E-09     15.6662E-03    -21.8739E+06    -94.6675E+06    -21.9010E+06     1.14399E+06    -18.0761E-03     35.8630E-03    -17.7869E-03     1.17834E-03    -18.0163E-03     35.4535E-03    -17.7274E-03     1.19262E-03
             201     57.3776E-09     14.6845E-03    -19.6123E+06    -91.1501E+06    -19.7205E+06     1.25892E+06    -17.2257E-03     34.3450E-03    -17.1193E-03     1.05424E-03    -17.1628E-03     33.9467E-03    -17.0573E-03     1.07006E-03
             202    -147.460E-09     13.7044E-03    -14.6486E+06    -87.1057E+06    -14.6037E+06     1.38460E+06    -16.3229E-03     32.6442E-03    -16.3213E-03     613.063E-06    -16.2485E-03     32.2515E-03    -16.2468E-03     630.602E-06
             203     240.899E-09     12.7261E-03    -10.8368E+06    -83.6178E+06    -10.5899E+06     660.749E+03    -15.2942E-03     30.5292E-03    -15.2350E-03     389.124E-06    -15.2116E-03     30.1426E-03    -15.1510E-03     397.348E-06
             204    -226.467E-09     11.7499E-03    -13.3030E+06    -82.5065E+06    -13.2163E+06    -229.068E+03    -14.0833E-03     28.1263E-03    -14.0430E-03     293.530E-06    -14.0107E-03     27.7526E-03    -13.9702E-03     290.225E-06
             205     284.535E-09     10.7763E-03    -18.7698E+06    -83.4365E+06    -18.6193E+06    -423.380E+03    -12.9922E-03     25.8879E-03    -12.8957E-03     285.155E-06    -12.9378E-03     25.5254E-03    -12.8406E-03     279.312E-06
             206    -169.555E-09     9.80450E-03    -22.8713E+06    -84.6404E+06    -22.6889E+06    -292.860E+03    -12.2907E-03     24.5160E-03    -12.2253E-03     529.676E-06    -12.2491E-03     24.1593E-03    -12.1829E-03     525.515E-06
             207     172.258E-09     8.83362E-03    -23.9745E+06    -85.8803E+06    -23.5006E+06    -210.872E+03    -12.3387E-03     24.6387E-03    -12.2999E-03     845.595E-06    -12.2997E-03     24.2786E-03    -12.2581E-03     842.540E-06
             208    -101.331E-09     7.86147E-03    -22.2997E+06    -87.6621E+06    -22.1250E+06    -513.713E+03    -13.0768E-03     26.1632E-03    -13.0864E-03     1.16778E-03    -13.0288E-03     25.7898E-03    -13.0376E-03     1.16087E-03
             209     14.6810E-09     6.88758E-03    -19.1139E+06    -89.7016E+06    -18.9358E+06    -543.291E+03    -14.3369E-03     28.6944E-03    -14.3575E-03     1.30702E-03    -14.2747E-03     28.3015E-03    -14.2944E-03     1.29976E-03
             210     36.8957E-09     5.91060E-03    -16.5100E+06    -91.1627E+06    -16.5946E+06    -493.296E+03    -15.8297E-03     31.6524E-03    -15.8228E-03     1.33559E-03    -15.7558E-03     31.2450E-03    -15.7496E-03     1.32898E-03
             211    -77.5132E-09     4.93074E-03    -15.8985E+06    -92.4441E+06    -16.0567E+06    -473.101E+03    -17.2400E-03     34.5154E-03    -17.2754E-03     1.30209E-03    -17.1620E-03     34.0999E-03    -17.1986E-03     1.29578E-03
             212     53.2844E-09     3.94825E-03    -15.0845E+06    -93.4289E+06    -15.3611E+06    -272.246E+03    -18.5434E-03     37.1123E-03    -18.5689E-03     1.17206E-03    -18.4609E-03     36.6898E-03    -18.4884E-03     1.16840E-03
             213    -77.7001E-09     2.96336E-03    -13.9633E+06    -94.0054E+06    -14.5315E+06    -4.35647E+03    -19.6165E-03     39.2672E-03    -19.6507E-03     927.929E-06    -19.5287E-03     38.8390E-03    -19.5668E-03     927.679E-06
             214     34.7220E-09     1.97673E-03    -13.4093E+06    -94.1270E+06    -12.9667E+06     169.581E+03    -20.4596E-03     40.8982E-03    -20.4387E-03     621.103E-06    -20.3709E-03     40.4663E-03    -20.3476E-03     623.120E-06
             215     49.3999E-09     988.632E-06    -12.2671E+06    -93.6147E+06    -11.9669E+06     81.7514E+03    -20.9513E-03     41.8919E-03    -20.9405E-03     334.144E-06    -20.8590E-03     41.4594E-03    -20.8469E-03     335.389E-06
             216     881.247E-06    -409.395E-18    -11.6426E+06    -93.4722E+06    -11.8297E+06     41.5354E+03    -21.1669E-03     42.3118E-03    -21.1449E-03     287.787E-06    -21.0720E-03     41.8787E-03    -21.0517E-03     288.524E-06
             217     1.76229E-03    -409.395E-18    -11.9207E+06    -93.7753E+06    -11.5998E+06     128.607E+03    -21.4109E-03     42.6191E-03    -21.2082E-03     532.444E-06    -21.3176E-03     42.1843E-03    -21.1130E-03     534.039E-06
             218     2.64307E-03    -409.395E-18    -12.0653E+06    -94.3167E+06    -12.0834E+06     215.763E+03    -21.7620E-03     43.0920E-03    -21.3299E-03     831.132E-06    -21.6680E-03     42.6554E-03    -21.2361E-03     833.809E-06
             219     3.52351E-03    -409.395E-18    -12.3745E+06    -95.5663E+06    -13.6722E+06     20.4176E+03    -22.2534E-03     43.7439E-03    -21.4905E-03     1.13970E-03    -22.1569E-03     43.3038E-03    -21.4023E-03     1.13981E-03
             220     4.40344E-03    -409.395E-18    -12.3279E+06    -97.1148E+06    -15.7333E+06    -568.573E+03    -22.8945E-03     44.5889E-03    -21.6944E-03     1.48933E-03    -22.7925E-03     44.1439E-03    -21.6143E-03     1.48177E-03
             221     5.28269E-03    -409.395E-18    -11.6871E+06    -98.5178E+06    -18.0622E+06    -1.12539E+06    -23.6749E-03     45.6173E-03    -21.9424E-03     1.88147E-03    -23.5643E-03     45.1678E-03    -21.8729E-03     1.86662E-03
             222     6.16124E-03    -409.395E-18    -10.4671E+06    -100.070E+06    -22.4780E+06    -1.74896E+06    -24.5993E-03     46.8247E-03    -22.2254E-03     2.35230E-03    -24.4739E-03     46.3722E-03    -22.1775E-03     2.32929E-03
             223     7.03877E-03    -409.395E-18    -8.58369E+06    -98.9391E+06    -29.3907E+06    -2.79068E+06    -25.6548E-03     48.1913E-03    -22.5365E-03     2.89821E-03    -25.5116E-03     47.7517E-03    -22.5276E-03     2.86156E-03
             224     7.91548E-03    -409.395E-18    -5.88558E+06    -93.0896E+06    -36.1900E+06    -3.54657E+06    -26.8596E-03     49.7455E-03    -22.8859E-03     3.51548E-03    -26.7016E-03     49.3411E-03    -22.9233E-03     3.46875E-03
             225     8.79090E-03    -409.395E-18    -2.72290E+06    -84.1478E+06    -44.1427E+06    -4.08299E+06    -28.2563E-03     51.5296E-03    -23.2733E-03     4.35682E-03    -28.0839E-03     51.1769E-03    -23.3681E-03     4.30286E-03
             226     9.66479E-03    -409.395E-18     757.350E+03    -72.1645E+06    -50.9437E+06    -4.91910E+06    -29.7948E-03     53.5075E-03    -23.7127E-03     5.33876E-03    -29.6125E-03     53.2195E-03    -23.8639E-03     5.27332E-03
             227     10.5376E-03    -409.395E-18     4.61301E+06    -56.3265E+06    -52.4591E+06    -4.84460E+06    -31.5457E-03     55.7716E-03    -24.2259E-03     6.44124E-03    -31.3649E-03     55.5595E-03    -24.4132E-03     6.37554E-03
             228     11.4084E-03    -409.395E-18     7.99253E+06    -36.3625E+06    -49.2676E+06    -3.67965E+06    -33.6801E-03     58.5021E-03    -24.8220E-03     8.31505E-03    -33.5161E-03     58.3803E-03    -25.0272E-03     8.26348E-03
             229     12.2762E-03    -409.395E-18     9.90398E+06    -10.4993E+06    -42.0867E+06    -3.03208E+06    -36.2016E-03     61.7127E-03    -25.5111E-03     10.9431E-03    -36.0762E-03     61.7073E-03    -25.7206E-03     10.8974E-03
             230     13.1423E-03    -409.395E-18     9.40152E+06     24.8350E+06    -34.4155E+06    -248.621E+03    -39.4061E-03     65.6987E-03    -26.2925E-03     13.8785E-03    -39.3460E-03     65.8601E-03    -26.5142E-03     13.8636E-03
             231     14.0048E-03    -409.395E-18     6.58714E+06     56.9435E+06    -21.4504E+06     3.04699E+06    -44.0356E-03     71.2910E-03    -27.2555E-03     19.6170E-03    -44.0557E-03     71.5988E-03    -27.4548E-03     19.6399E-03
             232     14.8583E-03    -409.395E-18     5.63469E+06     79.5588E+06     4.85595E+06     2.29909E+06    -48.7263E-03     77.1918E-03    -28.4655E-03     31.8777E-03    -48.8234E-03     77.5747E-03    -28.5648E-03     31.8943E-03
             233     15.7019E-03    -409.395E-18     4.95791E+06     96.8730E+06     43.4840E+06     2.04985E+06    -50.9541E-03     80.7859E-03    -29.8318E-03     50.5276E-03    -51.1459E-03     81.2082E-03    -29.7620E-03     50.5110E-03
             234     16.5480E-03    -409.395E-18     5.60607E+06     108.311E+06     73.5397E+06     1.47344E+06    -49.5232E-03     80.6096E-03    -31.0864E-03     63.1851E-03    -49.8267E-03     81.1015E-03    -30.8839E-03     63.0311E-03
             235     17.4665E-03     1.02503E-03    -899.494E+03     110.880E+06     74.3136E+06     4.58293E+06    -52.3215E-03     82.3886E-03    -30.0671E-03     58.1998E-03    -52.7393E-03     82.9840E-03    -29.8550E-03     57.9361E-03
             236     17.5033E-03     2.06776E-03    -5.79387E+06     114.540E+06     72.5136E+06     6.99426E+06    -62.4000E-03     89.9992E-03    -27.5992E-03     47.9511E-03    -62.8996E-03     90.6797E-03    -27.3943E-03     47.5723E-03
             237     17.5201E-03     3.12303E-03    -3.70459E+06     121.619E+06     78.5815E+06     4.90528E+06    -67.4041E-03     93.7812E-03    -26.3771E-03     41.7031E-03    -67.9437E-03     94.5134E-03    -26.1551E-03     41.2162E-03
             238     17.5265E-03     4.16277E-03    -1.97282E+06     126.157E+06     82.6132E+06     3.62807E+06    -63.9536E-03     89.9086E-03    -25.9550E-03     34.9499E-03    -64.4967E-03     90.6518E-03    -25.7220E-03     34.5028E-03
             239     17.5322E-03     5.19180E-03    -56.5636E+03     128.602E+06     85.1149E+06    -1.86070E+06    -61.7340E-03     87.4945E-03    -25.7605E-03     28.4920E-03    -62.2583E-03     88.2276E-03    -25.5213E-03     28.0231E-03
             240     17.5317E-03     6.22946E-03    -2.31507E+06     127.728E+06     83.8674E+06    -3.28141E+06    -61.9635E-03     87.6425E-03    -25.6791E-03     25.6009E-03    -62.4899E-03     88.3721E-03    -25.4416E-03     25.1303E-03
             241     17.5320E-03     7.27018E-03    -2.74718E+06     128.808E+06     83.3417E+06    -704.703E+03    -58.2171E-03     83.9981E-03    -25.7810E-03     29.4281E-03    -58.7611E-03     84.7489E-03    -25.5471E-03     29.0514E-03
             242     17.5312E-03     8.29912E-03    -2.98407E+06     129.311E+06     82.4853E+06    -138.650E+03    -52.4732E-03     78.4203E-03    -25.9471E-03     32.4719E-03    -53.0265E-03     79.1827E-03    -25.7178E-03     32.1941E-03
             243     17.5308E-03     9.32102E-03    -1.43281E+06     131.134E+06     83.7162E+06     529.096E+03    -48.1168E-03     74.1961E-03    -26.0792E-03     31.5397E-03    -48.6599E-03     74.9566E-03    -25.8487E-03     31.3469E-03
             244     17.5309E-03     10.3398E-03    -1.63749E+06     131.128E+06     83.2656E+06     155.833E+03    -46.0287E-03     72.1779E-03    -26.1492E-03     30.3554E-03    -46.5658E-03     72.9330E-03    -25.9206E-03     30.2000E-03
             245     17.5296E-03     11.3588E-03    -3.25547E+06     129.720E+06     81.6609E+06     311.615E+03    -44.5572E-03     70.7613E-03    -26.2042E-03     27.6372E-03    -45.0882E-03     71.5043E-03    -25.9792E-03     27.5190E-03
             246     17.5305E-03     12.3741E-03    -2.26726E+06     130.875E+06     82.4937E+06     562.766E+03    -42.3136E-03     68.5681E-03    -26.2545E-03     26.3856E-03    -42.8358E-03     69.3075E-03    -26.0285E-03     26.3145E-03
             247     17.5305E-03     13.3890E-03    -1.84652E+06     131.396E+06     82.7216E+06     341.289E+03    -40.6800E-03     66.9536E-03    -26.2736E-03     25.4958E-03    -41.1945E-03     67.6881E-03    -26.0479E-03     25.4543E-03
             248     17.5311E-03     14.4032E-03    -1.28018E+06     131.936E+06     83.4942E+06     950.643E+03    -38.7101E-03     65.0141E-03    -26.3040E-03     24.6184E-03    -39.2182E-03     65.7439E-03    -26.0760E-03     24.6183E-03
             249     17.5314E-03     15.4131E-03    -1.06829E+06     132.350E+06     84.0956E+06     763.945E+03    -37.3806E-03     63.7055E-03    -26.3249E-03     24.3264E-03    -37.8881E-03     64.4352E-03    -26.0948E-03     24.3490E-03
             250     17.5312E-03     16.4245E-03    -2.43830E+06     131.281E+06     82.5499E+06     64.9777E+03    -36.8040E-03     63.1228E-03    -26.3189E-03     23.4754E-03    -37.3141E-03     63.8510E-03    -26.0930E-03     23.5033E-03
             251     17.5324E-03     17.4340E-03    -2.61866E+06     131.620E+06     82.6073E+06     68.8735E+03    -35.9492E-03     62.2697E-03    -26.3205E-03     23.5936E-03    -36.4647E-03     63.0036E-03    -26.0945E-03     23.6423E-03
             252     17.5316E-03     18.4449E-03    -1.58910E+06     133.172E+06     83.8794E+06     808.622E+03    -34.7778E-03     61.1066E-03    -26.3288E-03     24.9064E-03    -35.2998E-03     61.8525E-03    -26.1002E-03     24.9895E-03
             253     17.5337E-03     19.4530E-03    -3.10554E+06     132.363E+06     82.7038E+06     628.440E+03    -33.8100E-03     60.1426E-03    -26.3327E-03     26.7889E-03    -34.3477E-03     60.8995E-03    -26.1066E-03     26.8958E-03
             254     17.5316E-03     20.4619E-03    -1.23352E+06     134.732E+06     84.3536E+06     1.01047E+06    -32.3339E-03     58.6918E-03    -26.3580E-03     27.2315E-03    -32.8762E-03     59.4635E-03    -26.1298E-03     27.3696E-03
             255     17.5347E-03     21.4656E-03    -2.48097E+06     134.047E+06     83.2664E+06    -572.668E+03    -31.7747E-03     58.1234E-03    -26.3488E-03     28.9558E-03    -32.3300E-03     58.9045E-03    -26.1232E-03     29.0928E-03
             256     17.5321E-03     22.4728E-03    -1.91094E+06     134.603E+06     84.5044E+06    -753.024E+03    -30.8814E-03     57.2238E-03    -26.3424E-03     29.1191E-03    -31.4365E-03     58.0052E-03    -26.1122E-03     29.2728E-03
             257     17.5365E-03     23.4785E-03    -134.674E+03     136.629E+06     86.6769E+06    -363.233E+03    -28.7209E-03     55.0758E-03    -26.3549E-03     32.1963E-03    -29.2876E-03     55.8761E-03    -26.1194E-03     32.3906E-03
             258     17.5336E-03     24.4783E-03    -3.57977E+06     134.263E+06     84.0009E+06    -554.357E+03    -29.8896E-03     56.2390E-03    -26.3494E-03     31.0478E-03    -30.4661E-03     57.0362E-03    -26.1189E-03     31.2330E-03
             259     17.5330E-03     25.4845E-03    -2.99503E+06     135.107E+06     83.7894E+06     2.00644E+06    -30.1037E-03     56.4722E-03    -26.3685E-03     29.3179E-03    -30.6725E-03     57.2673E-03    -26.1412E-03     29.5333E-03
             260     17.5352E-03     26.4846E-03    -3.23266E+06     135.181E+06     83.5870E+06     777.450E+03    -28.6869E-03     55.0537E-03    -26.3668E-03     31.5159E-03    -29.2622E-03     55.8552E-03    -26.1402E-03     31.7413E-03
             261     17.5340E-03     27.4931E-03     386.126E+03     138.920E+06     87.7951E+06    -136.553E+03    -26.5662E-03     52.9749E-03    -26.4086E-03     32.3673E-03    -27.1425E-03     53.7912E-03    -26.1716E-03     32.6161E-03
             262     17.5358E-03     28.4875E-03    -1.86720E+06     137.029E+06     85.8240E+06    -1.10267E+06    -27.3077E-03     53.6971E-03    -26.3894E-03     35.8771E-03    -27.9070E-03     54.5275E-03    -26.1563E-03     36.1157E-03
             263     17.5332E-03     29.4924E-03    -4.74514E+06     133.642E+06     82.8205E+06    -593.588E+03    -29.1132E-03     55.4565E-03    -26.3433E-03     31.7442E-03    -29.6965E-03     56.2576E-03    -26.1161E-03     31.9545E-03
             264     17.5360E-03     30.4942E-03    -476.045E+03     137.850E+06     86.9982E+06     444.044E+03    -26.4023E-03     52.7967E-03    -26.3945E-03     31.3335E-03    -26.9703E-03     53.6005E-03    -26.1587E-03     31.5897E-03
             265     17.5348E-03     31.4909E-03    -1.98435E+06     137.148E+06     85.9861E+06    -650.656E+03    -26.3079E-03     52.6969E-03    -26.3890E-03     32.6400E-03    -26.8842E-03     53.5039E-03    -26.1550E-03     32.8904E-03
             266     17.5349E-03     32.4958E-03    -3.78595E+06     135.600E+06     84.2336E+06    -249.239E+03    -27.2356E-03     53.6143E-03    -26.3787E-03     31.9509E-03    -27.8164E-03     54.4188E-03    -26.1487E-03     32.1984E-03
             267     17.5347E-03     33.4934E-03    -2.22496E+06     137.245E+06     85.8628E+06     382.569E+03    -26.3490E-03     52.7484E-03    -26.3994E-03     32.4573E-03    -26.9281E-03     53.5578E-03    -26.1659E-03     32.7263E-03
             268     17.5354E-03     34.4952E-03    -1.50341E+06     137.946E+06     86.5664E+06     41.8464E+03    -25.9041E-03     52.3080E-03    -26.4038E-03     32.5779E-03    -26.4800E-03     53.1172E-03    -26.1689E-03     32.8480E-03
             269     17.5348E-03     35.4943E-03    -2.85794E+06     136.790E+06     85.3594E+06    -416.672E+03    -26.0994E-03     52.5016E-03    -26.4022E-03     33.2841E-03    -26.6829E-03     53.3131E-03    -26.1696E-03     33.5520E-03
             270     17.5349E-03     36.4945E-03    -2.12324E+06     137.385E+06     86.3237E+06     368.050E+03    -25.8139E-03     52.2256E-03    -26.4117E-03     32.1389E-03    -26.3905E-03     53.0321E-03    -26.1762E-03     32.4157E-03
             271     17.5353E-03     37.4929E-03    -570.716E+03     139.035E+06     87.8977E+06     1.02393E+06    -25.4933E-03     51.9087E-03    -26.4153E-03     32.5343E-03    -26.0691E-03     52.7211E-03    -26.1766E-03     32.8244E-03
             272     17.5349E-03     38.4932E-03    -3.66270E+06     136.175E+06     84.8235E+06     260.049E+03    -26.6495E-03     53.0416E-03    -26.3920E-03     33.0656E-03    -27.2360E-03     53.8525E-03    -26.1601E-03     33.3369E-03
             273     17.5344E-03     39.4949E-03    -2.75719E+06     137.057E+06     85.7617E+06     465.506E+03    -26.0747E-03     52.4886E-03    -26.4140E-03     32.1597E-03    -26.6567E-03     53.2987E-03    -26.1799E-03     32.4395E-03
             274     17.5355E-03     40.4924E-03    -1.29816E+06     138.587E+06     86.7143E+06    -4.14119E+03    -24.8656E-03     51.2946E-03    -26.4290E-03     32.6772E-03    -25.4466E-03     52.1116E-03    -26.1945E-03     32.9684E-03
             275     17.5350E-03     41.4911E-03    -2.86455E+06     137.028E+06     85.3177E+06    -893.160E+03    -26.0802E-03     52.4823E-03    -26.4021E-03     33.2468E-03    -26.6644E-03     53.2953E-03    -26.1700E-03     33.5120E-03
             276     17.5345E-03     42.4946E-03    -967.058E+03     138.631E+06     87.5383E+06     1.07836E+06    -25.3023E-03     51.7255E-03    -26.4232E-03     32.6928E-03    -25.8771E-03     52.5353E-03    -26.1851E-03     32.9855E-03
             277     17.5363E-03     43.4886E-03    -3.14204E+06     136.581E+06     85.3538E+06     -30.723E+03    -24.9997E-03     51.4244E-03    -26.4247E-03     32.8826E-03    -25.5824E-03     52.2334E-03    -26.1914E-03     33.1715E-03
             278     17.5332E-03     44.4900E-03    -3.67778E+06     135.953E+06     84.4184E+06     511.786E+03    -25.9879E-03     52.4118E-03    -26.4239E-03     29.4083E-03    -26.5624E-03     53.2113E-03    -26.1936E-03     29.6836E-03
             279     17.5356E-03     45.4872E-03    -1.59654E+06     138.342E+06     86.3724E+06     1.13563E+06    -25.8798E-03     52.3102E-03    -26.4303E-03     29.6149E-03    -26.4547E-03     53.1203E-03    -26.1967E-03     29.9015E-03
             280     17.5339E-03     46.4882E-03    -403.859E+03     139.735E+06     87.9233E+06     1.00326E+06    -25.8871E-03     52.3047E-03    -26.4176E-03     30.7601E-03    -26.4642E-03     53.1218E-03    -26.1800E-03     31.0524E-03
             281     17.5361E-03     47.4919E-03    -498.928E+03     139.648E+06     87.8424E+06    -926.279E+03    -24.3750E-03     50.8017E-03    -26.4266E-03     34.6283E-03    -24.9743E-03     51.6405E-03    -26.1892E-03     34.9251E-03
             282     17.5355E-03     48.4867E-03    -1.38273E+06     138.938E+06     87.4706E+06    -3.73026E+06    -25.2168E-03     51.6013E-03    -26.3846E-03     38.0239E-03    -25.8387E-03     52.4581E-03    -26.1467E-03     38.2825E-03
             283     17.5359E-03     49.4906E-03    -2.43621E+06     137.632E+06     86.7149E+06    -1.49197E+06    -27.1248E-03     53.4805E-03    -26.3557E-03     36.3341E-03    -27.7352E-03     54.3195E-03    -26.1182E-03     36.5883E-03
             284     17.5343E-03     50.4895E-03    -3.45953E+06     136.192E+06     84.8708E+06     976.107E+03    -25.9883E-03     52.3867E-03    -26.3984E-03     35.0936E-03    -26.5839E-03     53.2074E-03    -26.1665E-03     35.3862E-03
             285     17.5359E-03     51.4872E-03    -1.86566E+06     137.317E+06     85.9997E+06     1.23579E+06    -24.2132E-03     50.6522E-03    -26.4390E-03     33.3365E-03    -24.7889E-03     51.4594E-03    -26.2054E-03     33.6437E-03
             286     17.5347E-03     52.4837E-03    -1.55349E+06     137.638E+06     86.6764E+06     435.061E+03    -24.6458E-03     51.0829E-03    -26.4372E-03     32.0165E-03    -25.2185E-03     51.8874E-03    -26.2011E-03     32.3089E-03
             287     17.5349E-03     53.4819E-03    -4.61260E+06     134.648E+06     83.7354E+06     54.3327E+03    -26.6907E-03     53.0899E-03    -26.3992E-03     30.7255E-03    -27.2684E-03     53.8865E-03    -26.1691E-03     30.9893E-03
             288     17.5343E-03     54.4846E-03    -4.53170E+06     134.481E+06     83.6327E+06    -129.413E+03    -26.3551E-03     52.7524E-03    -26.3972E-03     30.5927E-03    -26.9322E-03     53.5483E-03    -26.1675E-03     30.8574E-03
             289     17.5361E-03     55.4844E-03    -204.957E+03     138.508E+06     87.7696E+06    -111.299E+03    -24.3680E-03     50.7963E-03    -26.4283E-03     32.0752E-03    -24.9404E-03     51.6052E-03    -26.1900E-03     32.3685E-03
             290     17.5351E-03     56.4810E-03    -1.47589E+06     138.125E+06     87.0685E+06    -42.0711E+03    -24.3723E-03     50.8034E-03    -26.4311E-03     32.3039E-03    -24.9478E-03     51.6116E-03    -26.1939E-03     32.5989E-03
             291     17.5350E-03     57.4807E-03    -3.04850E+06     137.534E+06     85.4997E+06    -256.882E+03    -25.3346E-03     51.7487E-03    -26.4141E-03     32.2055E-03    -25.9174E-03     52.5610E-03    -26.1816E-03     32.4856E-03
             292     876.572E-06     58.4842E-03    -29.9246E+06    -118.008E+06    -29.3111E+06     161.667E+03    -26.4399E-03     52.8577E-03    -26.4179E-03     5.76440E-03    -26.3760E-03     52.3539E-03    -26.3499E-03     5.76381E-03
             293     1.75316E-03     58.4918E-03    -29.0058E+06    -116.677E+06    -26.8963E+06     210.494E+03    -26.4358E-03     52.8671E-03    -26.4314E-03     10.6314E-03    -26.3730E-03     52.3652E-03    -26.3546E-03     10.6289E-03
             294     2.62979E-03     58.5045E-03    -27.6009E+06    -112.938E+06    -23.2670E+06     184.185E+03    -26.4555E-03     52.8912E-03    -26.4357E-03     15.7996E-03    -26.3970E-03     52.4013E-03    -26.3482E-03     15.7937E-03
             295     3.50640E-03     58.5219E-03    -25.9761E+06    -107.839E+06    -18.9859E+06     129.436E+03    -26.4884E-03     52.9296E-03    -26.4412E-03     20.9974E-03    -26.4363E-03     52.4575E-03    -26.3421E-03     20.9874E-03
             296     4.38303E-03     58.5444E-03    -24.1458E+06    -103.237E+06    -13.8520E+06     125.125E+03    -26.5317E-03     52.9830E-03    -26.4513E-03     26.2027E-03    -26.4858E-03     52.5251E-03    -26.3359E-03     26.1882E-03
             297     5.25968E-03     58.5716E-03    -21.9889E+06    -97.7758E+06    -8.69078E+06     173.367E+03    -26.5845E-03     53.0436E-03    -26.4591E-03     31.3725E-03    -26.5453E-03     52.6044E-03    -26.3289E-03     31.3533E-03
             298     6.13633E-03     58.6039E-03    -19.7796E+06    -91.0269E+06    -4.60608E+06     190.365E+03    -26.6481E-03     53.1068E-03    -26.4588E-03     36.4825E-03    -26.6163E-03     52.6951E-03    -26.3211E-03     36.4569E-03
             299     7.01302E-03     58.6409E-03    -17.6238E+06    -84.0804E+06    -1.32422E+06     187.954E+03    -26.7253E-03     53.1791E-03    -26.4537E-03     41.5063E-03    -26.7018E-03     52.7983E-03    -26.3129E-03     41.4725E-03
             300     7.88970E-03     58.6827E-03    -15.5969E+06    -78.1404E+06     914.547E+03     213.240E+03    -26.8197E-03     53.2650E-03    -26.4454E-03     46.4148E-03    -26.8036E-03     52.9136E-03    -26.3049E-03     46.3713E-03
             301     8.76641E-03     58.7290E-03    -13.8067E+06    -71.7655E+06     1.75595E+06     204.844E+03    -26.9250E-03     53.3553E-03    -26.4303E-03     51.1989E-03    -26.9186E-03     53.0400E-03    -26.2975E-03     51.1432E-03
             302     9.64310E-03     58.7799E-03    -12.2163E+06    -64.8570E+06     2.00099E+06     179.412E+03    -27.0408E-03     53.4536E-03    -26.4127E-03     55.8704E-03    -27.0483E-03     53.1816E-03    -26.2910E-03     55.7998E-03
             303     10.5198E-03     58.8350E-03    -10.7252E+06    -57.7235E+06     1.62249E+06     114.050E+03    -27.1605E-03     53.5530E-03    -26.3925E-03     60.6638E-03    -27.1867E-03     53.3315E-03    -26.2852E-03     60.5750E-03
             304     11.3965E-03     58.8951E-03    -9.38003E+06    -49.1613E+06    -103.499E+03     135.725E+03    -27.2876E-03     53.6517E-03    -26.3641E-03     65.4629E-03    -27.3410E-03     53.4976E-03    -26.2798E-03     65.3537E-03
             305     12.2732E-03     58.9591E-03    -8.46516E+06    -36.4998E+06    -744.681E+03     416.286E+03    -27.3911E-03     53.7265E-03    -26.3354E-03     70.5872E-03    -27.4943E-03     53.6723E-03    -26.2739E-03     70.4573E-03
             306     13.1500E-03     59.0291E-03    -7.60041E+06    -17.9418E+06    -3.04767E+06     518.975E+03    -27.5636E-03     53.8519E-03    -26.2883E-03     78.0210E-03    -27.7491E-03     53.9556E-03    -26.2665E-03     77.8657E-03
             307     14.0268E-03     59.1070E-03    -6.20363E+06     17.7497E+06    -7.23015E+06     831.519E+03    -27.8242E-03     54.0287E-03    -26.2044E-03     88.7609E-03    -28.1754E-03     54.4418E-03    -26.2573E-03     88.5839E-03
             308     14.9036E-03     59.1977E-03    -7.36958E+06     74.9743E+06    -2.77879E+06     510.595E+03    -28.2223E-03     54.3542E-03    -26.1319E-03     106.649E-03    -28.9881E-03     55.3680E-03    -26.2438E-03     106.483E-03
             309     15.7800E-03     59.3091E-03    -8.61131E+06     123.247E+06     30.2528E+06    -935.056E+03    -28.9464E-03     55.1578E-03    -26.2113E-03     131.583E-03    -30.5358E-03     57.0663E-03    -26.2263E-03     131.694E-03
             310     16.6563E-03     59.4470E-03    -4.39436E+06     139.485E+06     72.6949E+06    -281.350E+03    -27.2856E-03     53.6575E-03    -26.3719E-03     88.1743E-03    -28.6317E-03     55.2724E-03    -26.2043E-03     88.5080E-03
             311     876.559E-06     59.4834E-03    -29.9554E+06    -118.280E+06    -29.5278E+06     29.2693E+03    -26.4560E-03     52.8815E-03    -26.4255E-03     5.73737E-03    -26.3916E-03     52.3767E-03    -26.3582E-03     5.73504E-03
             312     1.75317E-03     59.4911E-03    -29.0421E+06    -116.786E+06    -26.9011E+06     115.195E+03    -26.4329E-03     52.8735E-03    -26.4405E-03     10.6472E-03    -26.3702E-03     52.3711E-03    -26.3636E-03     10.6434E-03
             313     2.62977E-03     59.5036E-03    -27.7492E+06    -112.945E+06    -23.1916E+06     99.6142E+03    -26.4568E-03     52.8985E-03    -26.4417E-03     15.8145E-03    -26.3991E-03     52.4086E-03    -26.3537E-03     15.8076E-03
             314     3.50639E-03     59.5212E-03    -26.0791E+06    -107.912E+06    -18.9860E+06     138.738E+03    -26.4885E-03     52.9343E-03    -26.4458E-03     21.0065E-03    -26.4368E-03     52.4620E-03    -26.3465E-03     20.9966E-03
             315     4.38302E-03     59.5435E-03    -24.1268E+06    -103.263E+06    -13.8436E+06     159.110E+03    -26.5289E-03     52.9836E-03    -26.4546E-03     26.2124E-03    -26.4830E-03     52.5255E-03    -26.3391E-03     26.1984E-03
             316     5.25966E-03     59.5709E-03    -21.9861E+06    -97.8277E+06    -8.76090E+06     115.454E+03    -26.5802E-03     53.0411E-03    -26.4609E-03     31.3881E-03    -26.5408E-03     52.6017E-03    -26.3310E-03     31.3682E-03
             317     6.13634E-03     59.6031E-03    -19.7006E+06    -91.0550E+06    -4.63198E+06     114.139E+03    -26.6452E-03     53.1049E-03    -26.4597E-03     36.4988E-03    -26.6130E-03     52.6930E-03    -26.3223E-03     36.4722E-03
             318     7.01300E-03     59.6402E-03    -17.5080E+06    -84.0838E+06    -1.27203E+06     94.4956E+03    -26.7240E-03     53.1785E-03    -26.4545E-03     41.5215E-03    -26.7000E-03     52.7975E-03    -26.3135E-03     41.4865E-03
             319     7.88972E-03     59.6819E-03    -15.4747E+06    -78.2199E+06     1.06038E+06     104.963E+03    -26.8189E-03     53.2653E-03    -26.4464E-03     46.4278E-03    -26.8023E-03     52.9130E-03    -26.3052E-03     46.3829E-03
             320     8.76639E-03     59.7283E-03    -13.6695E+06    -71.7346E+06     2.01074E+06     105.579E+03    -26.9255E-03     53.3571E-03    -26.4316E-03     51.2140E-03    -26.9188E-03     53.0414E-03    -26.2977E-03     51.1571E-03
             321     9.64313E-03     59.7790E-03    -12.1638E+06    -64.8506E+06     2.43648E+06     46.2036E+03    -27.0383E-03     53.4532E-03    -26.4149E-03     55.8916E-03    -27.0461E-03     53.1806E-03    -26.2911E-03     55.8193E-03
             322     10.5198E-03     59.8344E-03    -11.0558E+06    -57.5950E+06     1.94809E+06    -45.6617E+03    -27.1584E-03     53.5528E-03    -26.3944E-03     60.6727E-03    -27.1870E-03     53.3320E-03    -26.2851E-03     60.5818E-03
             323     11.3966E-03     59.8941E-03    -10.2025E+06    -49.1746E+06     163.417E+03    -186.212E+03    -27.2872E-03     53.6539E-03    -26.3667E-03     65.5144E-03    -27.3452E-03     53.5006E-03    -26.2798E-03     65.4010E-03
             324     12.2732E-03     59.9587E-03    -9.40616E+06    -37.3538E+06    -846.788E+03     192.887E+03    -27.3940E-03     53.7318E-03    -26.3379E-03     70.5725E-03    -27.5005E-03     53.6748E-03    -26.2743E-03     70.4397E-03
             325     13.1501E-03     60.0278E-03    -8.74682E+06    -17.1505E+06    -2.12078E+06    -20.2805E+03    -27.5549E-03     53.8490E-03    -26.2941E-03     78.0149E-03    -27.7488E-03     53.9571E-03    -26.2671E-03     77.8526E-03
             326     14.0268E-03     60.1069E-03    -8.79218E+06     16.5239E+06    -7.61280E+06    -136.772E+03    -27.8677E-03     54.0781E-03    -26.2104E-03     88.6844E-03    -28.2295E-03     54.4895E-03    -26.2597E-03     88.4946E-03
             327     14.9039E-03     60.1960E-03    -7.51769E+06     74.8525E+06    -924.682E+03     1.53133E+06    -28.1288E-03     54.2730E-03    -26.1442E-03     105.868E-03    -28.8941E-03     55.2800E-03    -26.2464E-03     105.715E-03
             328     15.7820E-03     60.3090E-03    -6.74294E+06     126.154E+06     35.2223E+06     903.875E+03    -28.7638E-03     54.9880E-03    -26.2242E-03     132.050E-03    -30.3534E-03     56.8994E-03    -26.2212E-03     132.186E-03
             329     16.6575E-03     60.4488E-03    -5.20137E+06     138.993E+06     73.1917E+06    -439.802E+03    -27.4887E-03     53.8570E-03    -26.3683E-03     89.7262E-03    -28.8424E-03     55.4734E-03    -26.1963E-03     90.0588E-03
             330     876.568E-06     60.4827E-03    -30.1426E+06    -118.415E+06    -29.4320E+06    -54.5806E+03    -26.4347E-03     52.8722E-03    -26.4375E-03     5.70273E-03    -26.3712E-03     52.3668E-03    -26.3692E-03     5.69932E-03
             331     1.75316E-03     60.4903E-03    -29.2086E+06    -116.849E+06    -26.8468E+06     54.3168E+03    -26.4464E-03     52.8867E-03    -26.4403E-03     10.6540E-03    -26.3846E-03     52.3842E-03    -26.3627E-03     10.6495E-03
             332     2.62976E-03     60.5029E-03    -27.8123E+06    -113.001E+06    -23.2246E+06     99.9352E+03    -26.4615E-03     52.9064E-03    -26.4449E-03     15.8182E-03    -26.4040E-03     52.4163E-03    -26.3568E-03     15.8113E-03
             333     3.50638E-03     60.5204E-03    -26.1302E+06    -107.962E+06    -18.9799E+06     81.2182E+03    -26.4846E-03     52.9333E-03    -26.4487E-03     21.0115E-03    -26.4331E-03     52.4608E-03    -26.3492E-03     21.0008E-03
             334     4.38300E-03     60.5428E-03    -24.1371E+06    -103.323E+06    -13.8612E+06     95.6605E+03    -26.5235E-03     52.9793E-03    -26.4558E-03     26.2187E-03    -26.4775E-03     52.5210E-03    -26.3403E-03     26.2038E-03
             335     5.25967E-03     60.5701E-03    -21.9274E+06    -97.7552E+06    -8.70303E+06     71.8214E+03    -26.5777E-03     53.0390E-03    -26.4612E-03     31.3948E-03    -26.5382E-03     52.5998E-03    -26.3312E-03     31.3743E-03
             336     6.13632E-03     60.6024E-03    -19.7052E+06    -91.0815E+06    -4.52562E+06    -3.68927E+03    -26.6443E-03     53.1045E-03    -26.4602E-03     36.5007E-03    -26.6123E-03     52.6923E-03    -26.3222E-03     36.4726E-03
             337     7.01303E-03     60.6394E-03    -17.5415E+06    -84.1176E+06    -1.10405E+06     42.4600E+03    -26.7241E-03     53.1795E-03    -26.4554E-03     41.5244E-03    -26.7004E-03     52.7981E-03    -26.3135E-03     41.4887E-03
             338     7.88969E-03     60.6812E-03    -15.5951E+06    -78.2393E+06     1.25685E+06     47.2842E+03    -26.8195E-03     53.2671E-03    -26.4476E-03     46.4258E-03    -26.8038E-03     52.9147E-03    -26.3053E-03     46.3802E-03
             339     8.76643E-03     60.7275E-03    -13.8960E+06    -71.7695E+06     2.11912E+06     72.2447E+03    -26.9264E-03     53.3591E-03    -26.4328E-03     51.2180E-03    -26.9210E-03     53.0435E-03    -26.2979E-03     51.1606E-03
             340     9.64308E-03     60.7784E-03    -12.5374E+06    -64.8356E+06     2.48648E+06     116.392E+03    -27.0347E-03     53.4506E-03    -26.4159E-03     55.8818E-03    -27.0445E-03     53.1786E-03    -26.2913E-03     55.8104E-03
             341     10.5199E-03     60.8335E-03    -11.5104E+06    -57.5694E+06     1.86524E+06     189.740E+03    -27.1558E-03     53.5506E-03    -26.3948E-03     60.6644E-03    -27.1866E-03     53.3307E-03    -26.2853E-03     60.5765E-03
             342     11.3965E-03     60.8936E-03    -11.0392E+06    -48.9701E+06    -153.166E+03     125.986E+03    -27.2775E-03     53.6435E-03    -26.3660E-03     65.4888E-03    -27.3395E-03     53.4929E-03    -26.2798E-03     65.3794E-03
             343     12.2734E-03     60.9577E-03    -10.3699E+06    -37.5204E+06    -1.60621E+06    -248.811E+03    -27.4168E-03     53.7533E-03    -26.3364E-03     70.5613E-03    -27.5269E-03     53.6980E-03    -26.2750E-03     70.4226E-03
             344     13.1498E-03     61.0275E-03    -9.84905E+06    -17.1373E+06    -3.38345E+06     76.6077E+03    -27.6119E-03     53.9049E-03    -26.2930E-03     77.9401E-03    -27.8097E-03     54.0167E-03    -26.2708E-03     77.7784E-03
             345     14.0269E-03     61.1055E-03    -9.87708E+06     16.5239E+06    -8.86393E+06     312.911E+03    -28.0087E-03     54.2241E-03    -26.2154E-03     88.7772E-03    -28.3739E-03     54.6387E-03    -26.2694E-03     88.5920E-03
             346     14.9028E-03     61.1965E-03    -9.98073E+06     73.3602E+06    -1.65920E+06    -62.5626E+03    -28.3295E-03     54.4959E-03    -26.1664E-03     105.492E-03    -29.1079E-03     55.5041E-03    -26.2666E-03     105.316E-03
             347     15.7790E-03     61.3062E-03    -6.95721E+06     126.620E+06     34.9225E+06     790.505E+03    -28.4065E-03     54.6474E-03    -26.2409E-03     130.767E-03    -29.9860E-03     56.5503E-03    -26.2398E-03     130.907E-03
             348     16.6604E-03     61.4472E-03    -3.39055E+06     140.263E+06     72.8118E+06     775.698E+03    -26.9830E-03     53.3431E-03    -26.3601E-03     88.6066E-03    -28.3106E-03     54.9454E-03    -26.1945E-03     88.9611E-03
             349     876.620E-06     61.4819E-03    -30.0700E+06    -118.437E+06    -29.5823E+06        -526.129    -26.4038E-03     52.8533E-03    -26.4495E-03     5.71930E-03    -26.3396E-03     52.3479E-03    -26.3821E-03     5.71661E-03
             350     1.75317E-03     61.4896E-03    -29.2983E+06    -116.939E+06    -26.8940E+06     23.1895E+03    -26.4570E-03     52.8920E-03    -26.4350E-03     10.6638E-03    -26.3954E-03     52.3892E-03    -26.3574E-03     10.6589E-03
             351     2.62976E-03     61.5021E-03    -27.8647E+06    -113.045E+06    -23.2200E+06     38.9413E+03    -26.4657E-03     52.9102E-03    -26.4446E-03     15.8252E-03    -26.4084E-03     52.4200E-03    -26.3563E-03     15.8175E-03
             352     3.50637E-03     61.5196E-03    -26.1448E+06    -107.980E+06    -18.9528E+06     58.1516E+03    -26.4835E-03     52.9325E-03    -26.4490E-03     21.0157E-03    -26.4320E-03     52.4599E-03    -26.3493E-03     21.0047E-03
             353     4.38302E-03     61.5420E-03    -24.1889E+06    -103.319E+06    -13.8076E+06     17.2447E+03    -26.5233E-03     52.9794E-03    -26.4562E-03     26.2205E-03    -26.4776E-03     52.5212E-03    -26.3403E-03     26.2046E-03
             354     5.25966E-03     61.5694E-03    -21.9930E+06    -97.7434E+06    -8.64657E+06     2.75720E+03    -26.5780E-03     53.0397E-03    -26.4617E-03     31.3952E-03    -26.5389E-03     52.6006E-03    -26.3313E-03     31.3738E-03
             355     6.13634E-03     61.6016E-03    -19.7892E+06    -91.0386E+06    -4.39735E+06     19.1058E+03    -26.6456E-03     53.1067E-03    -26.4612E-03     36.4985E-03    -26.6142E-03     52.6947E-03    -26.3225E-03     36.4707E-03
             356     7.01300E-03     61.6387E-03    -17.7222E+06    -84.2462E+06    -1.12985E+06     31.5727E+03    -26.7249E-03     53.1811E-03    -26.4561E-03     41.5211E-03    -26.7019E-03     52.7993E-03    -26.3139E-03     41.4853E-03
             357     7.88972E-03     61.6804E-03    -15.7597E+06    -78.1891E+06     1.12707E+06     77.0239E+03    -26.8212E-03     53.2689E-03    -26.4478E-03     46.4256E-03    -26.8062E-03     52.9172E-03    -26.3059E-03     46.3804E-03
             358     8.76637E-03     61.7268E-03    -14.0741E+06    -71.9121E+06     1.86403E+06     117.128E+03    -26.9251E-03     53.3577E-03    -26.4326E-03     51.2190E-03    -26.9200E-03     53.0419E-03    -26.2986E-03     51.1622E-03
             359     9.64314E-03     61.7776E-03    -12.6142E+06    -64.8599E+06     2.15993E+06     218.118E+03    -27.0341E-03     53.4490E-03    -26.4149E-03     55.8930E-03    -27.0438E-03     53.1774E-03    -26.2918E-03     55.8229E-03
             360     10.5198E-03     61.8328E-03    -11.4328E+06    -57.8447E+06     1.48500E+06     358.774E+03    -27.1500E-03     53.5433E-03    -26.3933E-03     60.6774E-03    -27.1794E-03     53.3225E-03    -26.2854E-03     60.5918E-03
             361     11.3966E-03     61.8927E-03    -10.3343E+06    -48.6738E+06    -160.761E+03     393.427E+03    -27.2796E-03     53.6438E-03    -26.3642E-03     65.5334E-03    -27.3384E-03     53.4936E-03    -26.2794E-03     65.4276E-03
             362     12.2731E-03     61.9571E-03    -10.0084E+06    -36.9849E+06    -1.65774E+06     51.4308E+03    -27.4089E-03     53.7429E-03    -26.3340E-03     70.6524E-03    -27.5177E-03     53.6897E-03    -26.2742E-03     70.5178E-03
             363     13.1501E-03     62.0266E-03    -9.69885E+06    -17.9461E+06    -4.11064E+06     75.4350E+03    -27.6204E-03     53.9093E-03    -26.2889E-03     78.1886E-03    -27.8152E-03     54.0179E-03    -26.2694E-03     78.0271E-03
             364     14.0263E-03     62.1053E-03    -9.43148E+06     16.2245E+06    -9.24314E+06      678.31E+03    -27.8957E-03     54.1030E-03    -26.2073E-03     89.4749E-03    -28.2575E-03     54.5157E-03    -26.2634E-03     89.2963E-03
             365     14.9035E-03     62.1959E-03    -9.56066E+06     74.2922E+06    -426.002E+03     668.411E+03    -28.2360E-03     54.3921E-03    -26.1561E-03     106.512E-03    -29.0164E-03     55.4035E-03    -26.2521E-03     106.348E-03
             366     15.7808E-03     62.3061E-03    -8.09494E+06     125.773E+06     33.7672E+06     379.094E+03    -28.9299E-03     55.1623E-03    -26.2323E-03     131.990E-03    -30.5293E-03     57.0814E-03    -26.2341E-03     132.118E-03
             367     16.6542E-03     62.4447E-03    -3.97576E+06     139.646E+06     71.3931E+06    -258.652E+03    -27.0133E-03     53.3746E-03    -26.3613E-03     90.1385E-03    -28.3622E-03     54.9981E-03    -26.2010E-03     90.4786E-03
             368     876.577E-06     62.4811E-03    -30.2065E+06    -118.498E+06    -29.5607E+06     3.20330E+03    -26.4280E-03     52.8487E-03    -26.4208E-03     5.78248E-03    -26.3644E-03     52.3432E-03    -26.3529E-03     5.77980E-03
             369     1.75319E-03     62.4888E-03    -29.2639E+06    -116.942E+06    -26.9306E+06     14.9900E+03    -26.4518E-03     52.8836E-03    -26.4319E-03     10.6568E-03    -26.3899E-03     52.3809E-03    -26.3545E-03     10.6518E-03
             370     2.62977E-03     62.5014E-03    -27.9046E+06    -113.071E+06    -23.2112E+06    -6.02426E+03    -26.4653E-03     52.9069E-03    -26.4417E-03     15.8154E-03    -26.4082E-03     52.4167E-03    -26.3533E-03     15.8071E-03
             371     3.50639E-03     62.5188E-03    -26.2196E+06    -108.048E+06    -18.9946E+06     41.4624E+03    -26.4889E-03     52.9363E-03    -26.4474E-03     21.0105E-03    -26.4377E-03     52.4635E-03    -26.3477E-03     20.9993E-03
             372     4.38300E-03     62.5413E-03    -24.3253E+06    -103.261E+06    -13.8786E+06     69.6220E+03    -26.5278E-03     52.9836E-03    -26.4558E-03     26.2180E-03    -26.4828E-03     52.5259E-03    -26.3402E-03     26.2028E-03
             373     5.25967E-03     62.5686E-03    -22.2536E+06    -97.7171E+06    -8.79583E+06    -2.21918E+03    -26.5790E-03     53.0408E-03    -26.4618E-03     31.3924E-03    -26.5411E-03     52.6025E-03    -26.3318E-03     31.3709E-03
             374     6.13632E-03     62.6008E-03    -20.0400E+06    -91.1222E+06    -4.67454E+06     23.2881E+03    -26.6451E-03     53.1060E-03    -26.4609E-03     36.5013E-03    -26.6144E-03     52.6943E-03    -26.3231E-03     36.4736E-03
             375     7.01301E-03     62.6379E-03    -17.8775E+06    -84.2242E+06    -1.35582E+06     49.4543E+03    -26.7253E-03     53.1811E-03    -26.4558E-03     41.5246E-03    -26.7028E-03     52.8001E-03    -26.3145E-03     41.4891E-03
             376     7.88967E-03     62.6796E-03    -15.9159E+06    -78.2987E+06     794.849E+03     62.5308E+03    -26.8172E-03     53.2640E-03    -26.4468E-03     46.4388E-03    -26.8023E-03     52.9124E-03    -26.3063E-03     46.3934E-03
             377     8.76642E-03     62.7260E-03    -14.1214E+06    -71.9084E+06     1.63985E+06     92.4200E+03    -26.9191E-03     53.3504E-03    -26.4313E-03     51.2357E-03    -26.9139E-03     53.0351E-03    -26.2984E-03     51.1786E-03
             378     9.64307E-03     62.7768E-03    -12.5355E+06    -65.0267E+06     1.98956E+06     94.3790E+03    -27.0197E-03     53.4327E-03    -26.4130E-03     55.9243E-03    -27.0285E-03     53.1604E-03    -26.2906E-03     55.8528E-03
             379     10.5199E-03     62.8321E-03    -11.0739E+06    -58.0357E+06     1.51634E+06     226.764E+03    -27.1312E-03     53.5217E-03    -26.3905E-03     60.7208E-03    -27.1585E-03     53.2993E-03    -26.2827E-03     60.6336E-03
             380     11.3965E-03     62.8919E-03    -10.1440E+06    -48.7974E+06    -121.674E+03     380.311E+03    -27.2468E-03     53.6063E-03    -26.3595E-03     65.6292E-03    -27.3045E-03     53.4551E-03    -26.2747E-03     65.5235E-03
             381     12.2734E-03     62.9564E-03    -9.54410E+06    -36.7621E+06    -1.03248E+06     642.598E+03    -27.3645E-03     53.6931E-03    -26.3286E-03     70.7615E-03    -27.4723E-03     53.6395E-03    -26.2666E-03     70.6348E-03
             382     13.1499E-03     63.0258E-03    -9.54435E+06    -18.0170E+06    -3.72735E+06     348.281E+03    -27.4797E-03     53.7570E-03    -26.2773E-03     78.2980E-03    -27.6739E-03     53.8641E-03    -26.2560E-03     78.1412E-03
             383     14.0274E-03     63.1046E-03    -9.60345E+06     15.5955E+06    -9.25960E+06     409.525E+03    -27.5948E-03     53.7768E-03    -26.1820E-03     89.4495E-03    -27.9550E-03     54.1851E-03    -26.2370E-03     89.2706E-03
             384     14.9044E-03     63.1947E-03    -8.76716E+06     74.5150E+06    -270.228E+03     994.636E+03    -27.9097E-03     54.0217E-03    -26.1120E-03     106.467E-03    -28.6820E-03     55.0282E-03    -26.2087E-03     106.312E-03
             385     15.7813E-03     63.3057E-03    -6.98245E+06     127.062E+06     35.6006E+06     230.517E+03    -28.7877E-03     54.9712E-03    -26.1835E-03     132.100E-03    -30.3900E-03     56.8965E-03    -26.1797E-03     132.231E-03
             386     16.6617E-03     63.4454E-03    -4.52727E+06     139.869E+06     72.6590E+06    -579.976E+03    -27.6595E-03     53.9889E-03    -26.3294E-03     89.8714E-03    -29.0183E-03     55.6175E-03    -26.1623E-03     90.2006E-03
             387     876.612E-06     63.4804E-03    -30.2290E+06    -118.513E+06    -29.5402E+06     10.0925E+03    -26.4579E-03     52.8650E-03    -26.4071E-03     5.76277E-03    -26.3945E-03     52.3594E-03    -26.3391E-03     5.76019E-03
             388     1.75316E-03     63.4881E-03    -29.2528E+06    -116.940E+06    -26.9014E+06    -1.55572E+03    -26.4416E-03     52.8781E-03    -26.4365E-03     10.6415E-03    -26.3797E-03     52.3753E-03    -26.3590E-03     10.6362E-03
             389     2.62979E-03     63.5006E-03    -27.9243E+06    -113.104E+06    -23.2525E+06     36.0903E+03    -26.4594E-03     52.9009E-03    -26.4415E-03     15.8027E-03    -26.4023E-03     52.4105E-03    -26.3532E-03     15.7950E-03
             390     3.50638E-03     63.5181E-03    -26.2997E+06    -108.121E+06    -18.9979E+06     69.3505E+03    -26.4901E-03     52.9369E-03    -26.4468E-03     21.0018E-03    -26.4391E-03     52.4638E-03    -26.3469E-03     20.9909E-03
             391     4.38303E-03     63.5405E-03    -24.3798E+06    -103.329E+06    -14.0106E+06     124.557E+03    -26.5304E-03     52.9854E-03    -26.4551E-03     26.2171E-03    -26.4853E-03     52.5277E-03    -26.3400E-03     26.2027E-03
             392     5.25965E-03     63.5678E-03    -22.2835E+06    -97.6027E+06    -8.94491E+06     111.666E+03    -26.5807E-03     53.0418E-03    -26.4611E-03     31.3946E-03    -26.5428E-03     52.6043E-03    -26.3320E-03     31.3747E-03
             393     6.13633E-03     63.6000E-03    -20.1672E+06    -91.1637E+06    -4.89361E+06     12.0260E+03    -26.6438E-03     53.1041E-03    -26.4603E-03     36.5077E-03    -26.6134E-03     52.6927E-03    -26.3233E-03     36.4798E-03
             394     7.01299E-03     63.6371E-03    -18.0579E+06    -84.2439E+06    -1.61695E+06     25.9801E+03    -26.7191E-03     53.1737E-03    -26.4546E-03     41.5357E-03    -26.6971E-03     52.7932E-03    -26.3143E-03     41.4999E-03
             395     7.88972E-03     63.6789E-03    -16.0645E+06     -78.315E+06     669.193E+03     25.0993E+03    -26.8092E-03     53.2547E-03    -26.4455E-03     46.4477E-03    -26.7949E-03     52.9034E-03    -26.3053E-03     46.4019E-03
             396     8.76639E-03     63.7252E-03    -14.3034E+06    -71.9156E+06     1.46145E+06    -19.9663E+03    -26.9051E-03     53.3339E-03    -26.4288E-03     51.2510E-03    -26.9006E-03     53.0190E-03    -26.2964E-03     51.1925E-03
             397     9.64317E-03     63.7761E-03    -12.7816E+06    -64.9974E+06     1.86490E+06    -63.5707E+03    -27.0017E-03     53.4113E-03    -26.4096E-03     55.9245E-03    -27.0116E-03     53.1396E-03    -26.2875E-03     55.8510E-03
             398     10.5199E-03     63.8312E-03    -11.4925E+06    -58.2546E+06     1.27508E+06    -64.9765E+03    -27.1061E-03     53.4917E-03    -26.3857E-03     60.7099E-03    -27.1348E-03     53.2692E-03    -26.2782E-03     60.6190E-03
             399     11.3967E-03     63.8912E-03    -10.3626E+06    -49.2363E+06    -383.226E+03     329.364E+03    -27.2151E-03     53.5681E-03    -26.3530E-03     65.5808E-03    -27.2729E-03     53.4154E-03    -26.2685E-03     65.4745E-03
             400     12.2734E-03     63.9555E-03    -9.59176E+06    -37.1409E+06    -1.21505E+06     665.108E+03    -27.3083E-03     53.6279E-03    -26.3196E-03     70.6798E-03    -27.4155E-03     53.5727E-03    -26.2579E-03     70.5537E-03
             401     13.1505E-03     64.0252E-03    -9.19976E+06    -17.5808E+06    -3.26780E+06     898.324E+03    -27.4335E-03     53.7009E-03    -26.2674E-03     77.9743E-03    -27.6269E-03     53.8087E-03    -26.2449E-03     77.8249E-03
             402     14.0271E-03     64.1031E-03    -9.25670E+06     15.7350E+06    -8.96088E+06     466.678E+03    -27.5847E-03     53.7567E-03    -26.1720E-03     88.7200E-03    -27.9427E-03     54.1636E-03    -26.2262E-03     88.5418E-03
             403     14.9045E-03     64.1938E-03    -8.65659E+06     74.2785E+06     -306.69E+03    -337.374E+03    -27.8688E-03     53.9714E-03    -26.1026E-03     105.626E-03    -28.6363E-03     54.9727E-03    -26.1993E-03     105.454E-03
             404     15.7824E-03     64.3043E-03    -6.76490E+06     127.169E+06     36.1560E+06     115.066E+03    -28.7785E-03     54.9571E-03    -26.1785E-03     131.042E-03    -30.3706E-03     56.8717E-03    -26.1723E-03     131.168E-03
             405     16.6565E-03     64.4442E-03    -4.23677E+06     140.063E+06     73.0693E+06     324.412E+03    -27.8036E-03     54.1337E-03    -26.3301E-03     88.9318E-03    -29.1529E-03     55.7533E-03    -26.1617E-03     89.2672E-03
             406     876.524E-06     64.4796E-03    -30.1654E+06    -118.488E+06    -29.5206E+06     35.9984E+03    -26.4436E-03     52.8760E-03    -26.4324E-03     5.76356E-03    -26.3799E-03     52.3704E-03    -26.3645E-03     5.76130E-03
             407     1.75318E-03     64.4873E-03    -29.3331E+06    -117.012E+06    -26.9699E+06     70.3394E+03    -26.4377E-03     52.8777E-03    -26.4399E-03     10.6474E-03    -26.3761E-03     52.3747E-03    -26.3626E-03     10.6431E-03
             408     2.62975E-03     64.4998E-03    -28.0127E+06    -113.173E+06    -23.2962E+06     87.3894E+03    -26.4562E-03     52.8988E-03    -26.4425E-03     15.8119E-03    -26.3994E-03     52.4083E-03    -26.3543E-03     15.8048E-03
             409     3.50640E-03     64.5173E-03    -26.3448E+06    -108.187E+06    -19.0768E+06     120.710E+03    -26.4885E-03     52.9352E-03    -26.4468E-03     21.0046E-03    -26.4375E-03     52.4620E-03    -26.3471E-03     20.9944E-03
             410     4.38300E-03     64.5397E-03    -24.4162E+06    -103.381E+06    -14.0729E+06     116.102E+03    -26.5295E-03     52.9843E-03    -26.4548E-03     26.2107E-03    -26.4845E-03     52.5264E-03    -26.3398E-03     26.1961E-03
             411     5.25968E-03     64.5671E-03    -22.2590E+06    -97.6313E+06    -9.09039E+06     149.559E+03    -26.5791E-03     53.0392E-03    -26.4601E-03     31.3934E-03    -26.5408E-03     52.6017E-03    -26.3317E-03     31.3739E-03
             412     6.13632E-03     64.5993E-03    -20.1180E+06    -91.0414E+06    -4.86491E+06     126.170E+03    -26.6415E-03     53.1011E-03    -26.4596E-03     36.5058E-03    -26.6111E-03     52.6902E-03    -26.3228E-03     36.4794E-03
             413     7.01302E-03     64.6363E-03    -18.0948E+06    -84.2924E+06    -1.66743E+06     33.0727E+03    -26.7138E-03     53.1673E-03    -26.4535E-03     41.5325E-03    -26.6918E-03     52.7866E-03    -26.3133E-03     41.4968E-03
             414     7.88970E-03     64.6781E-03    -16.1413E+06    -78.2124E+06     551.453E+03    -24.6786E+03    -26.8008E-03     53.2441E-03    -26.4433E-03     46.4418E-03    -26.7869E-03     52.8936E-03    -26.3037E-03     46.3954E-03
             415     8.76646E-03     64.7244E-03    -14.4141E+06    -71.9347E+06     1.33414E+06    -53.5962E+03    -26.8975E-03     53.3237E-03    -26.4262E-03     51.2304E-03    -26.8933E-03     53.0091E-03    -26.2943E-03     51.1714E-03
             416     9.64316E-03     64.7753E-03    -13.0668E+06    -64.9785E+06     1.61398E+06    -3.43294E+03    -26.9969E-03     53.4032E-03    -26.4063E-03     55.8886E-03    -27.0078E-03     53.1324E-03    -26.2851E-03     55.8158E-03
             417     10.5199E-03     64.8304E-03    -12.0202E+06    -58.1420E+06     918.895E+03    -112.130E+03    -27.1052E-03     53.4876E-03    -26.3823E-03     60.6410E-03    -27.1363E-03     53.2669E-03    -26.2760E-03     60.5495E-03
             418     11.3967E-03     64.8903E-03    -10.9697E+06    -49.8746E+06    -1.03905E+06    -77.8578E+03    -27.2190E-03     53.5689E-03    -26.3500E-03     65.5029E-03    -27.2779E-03     53.4149E-03    -26.2669E-03     65.3912E-03
             419     12.2735E-03     64.9548E-03    -10.1097E+06    -37.7517E+06    -1.71590E+06     606.775E+03    -27.3172E-03     53.6353E-03    -26.3182E-03     70.5016E-03    -27.4251E-03     53.5783E-03    -26.2573E-03     70.3747E-03
             420     13.1502E-03     65.0240E-03    -9.37487E+06    -17.5744E+06    -3.57845E+06     795.250E+03    -27.4892E-03     53.7574E-03    -26.2682E-03     77.7746E-03    -27.6828E-03     53.8657E-03    -26.2470E-03     77.6236E-03
             421     14.0271E-03     65.1027E-03    -8.50964E+06     16.6989E+06    -8.55166E+06     216.911E+03    -27.7780E-03     53.9597E-03    -26.1817E-03     88.5104E-03    -28.1343E-03     54.3699E-03    -26.2363E-03     88.3271E-03
             422     14.9039E-03     65.1921E-03    -8.30436E+06     74.5945E+06     -65.357E+03    -415.930E+03    -28.1488E-03     54.2756E-03    -26.1268E-03     105.400E-03    -28.9164E-03     55.2787E-03    -26.2233E-03     105.222E-03
             423     15.7804E-03     65.3037E-03    -7.66601E+06     125.857E+06     34.4297E+06    -331.443E+03    -28.8569E-03     55.0623E-03    -26.2054E-03     131.427E-03    -30.4493E-03     56.9744E-03    -26.2046E-03     131.544E-03
             424     16.6594E-03     65.4445E-03    -4.08519E+06     139.992E+06     72.3357E+06     557.971E+03    -27.3885E-03     53.7348E-03    -26.3463E-03     90.0420E-03    -28.7374E-03     55.3564E-03    -26.1817E-03     90.3872E-03
             425     876.629E-06     65.4789E-03    -30.2554E+06    -118.638E+06    -29.6953E+06     75.7225E+03    -26.4306E-03     52.8611E-03    -26.4305E-03     5.77103E-03    -26.3669E-03     52.3551E-03    -26.3630E-03     5.76929E-03
             426     1.75315E-03     65.4865E-03    -29.3914E+06    -117.106E+06    -27.0405E+06     110.498E+03    -26.4439E-03     52.8792E-03    -26.4353E-03     10.6484E-03    -26.3823E-03     52.3759E-03    -26.3580E-03     10.6446E-03
             427     2.62979E-03     65.4991E-03    -28.0504E+06    -113.220E+06    -23.3252E+06     149.257E+03    -26.4607E-03     52.9022E-03    -26.4416E-03     15.8195E-03    -26.4039E-03     52.4116E-03    -26.3533E-03     15.8132E-03
             428     3.50637E-03     65.5165E-03    -26.4042E+06    -108.271E+06    -19.1700E+06     149.079E+03    -26.4898E-03     52.9364E-03    -26.4466E-03     21.0038E-03    -26.4389E-03     52.4630E-03    -26.3472E-03     20.9940E-03
             429     4.38303E-03     65.5390E-03    -24.5315E+06    -103.388E+06    -14.2574E+06     166.295E+03    -26.5276E-03     52.9817E-03    -26.4541E-03     26.2070E-03    -26.4829E-03     52.5242E-03    -26.3399E-03     26.1931E-03
             430     5.25965E-03     65.5663E-03    -22.4294E+06    -97.6483E+06    -9.20642E+06     93.0674E+03    -26.5761E-03     53.0357E-03    -26.4595E-03     31.3888E-03    -26.5385E-03     52.5985E-03    -26.3314E-03     31.3686E-03
             431     6.13635E-03     65.5985E-03    -20.1495E+06    -91.0717E+06    -5.00870E+06     118.417E+03    -26.6383E-03     53.0966E-03    -26.4584E-03     36.4996E-03    -26.6078E-03     52.6858E-03    -26.3222E-03     36.4731E-03
             432     7.01300E-03     65.6356E-03    -17.9942E+06    -84.1609E+06    -1.61778E+06     90.8611E+03    -26.7138E-03     53.1664E-03    -26.4526E-03     41.5194E-03    -26.6916E-03     52.7862E-03    -26.3126E-03     41.4844E-03
             433     7.88974E-03     65.6773E-03    -16.0874E+06    -78.1547E+06     491.860E+03    -28.4579E+03    -26.8015E-03     53.2437E-03    -26.4422E-03     46.4205E-03    -26.7873E-03     52.8935E-03    -26.3031E-03     46.3740E-03
             434     8.76643E-03     65.7237E-03    -14.4127E+06    -71.9458E+06     1.28192E+06    -24.1910E+03    -26.9029E-03     53.3287E-03    -26.4257E-03     51.1992E-03    -26.8986E-03     53.0141E-03    -26.2941E-03     51.1407E-03
             435     9.64318E-03     65.7744E-03    -12.9757E+06    -65.1676E+06     1.56093E+06     96.9112E+03    -27.0072E-03     53.4139E-03    -26.4068E-03     55.8436E-03    -27.0173E-03     53.1421E-03    -26.2857E-03     55.7721E-03
             436     10.5199E-03     65.8296E-03    -11.9053E+06    -57.8553E+06     1.03570E+06     130.837E+03    -27.1252E-03     53.5094E-03    -26.3842E-03     60.5890E-03    -27.1563E-03     53.2898E-03    -26.2779E-03     60.5005E-03
             437     11.3967E-03     65.8895E-03    -11.3415E+06    -49.9735E+06    -1.15065E+06    -65.6843E+03    -27.2418E-03     53.5955E-03    -26.3537E-03     65.4266E-03    -27.3023E-03     53.4416E-03    -26.2705E-03     65.3150E-03
             438     12.2734E-03     65.9539E-03    -10.3685E+06    -38.6053E+06    -2.35237E+06     36.8064E+03    -27.3538E-03     53.6760E-03    -26.3222E-03     70.4783E-03    -27.4607E-03     53.6159E-03    -26.2629E-03     70.3440E-03
             439     13.1501E-03     66.0234E-03    -9.19724E+06    -17.3783E+06    -3.95804E+06     220.216E+03    -27.5298E-03     53.8032E-03    -26.2735E-03     77.7971E-03    -27.7221E-03     53.9127E-03    -26.2547E-03     77.6385E-03
             440     14.0270E-03     66.1015E-03    -8.93462E+06     17.0817E+06    -8.80346E+06     24.4864E+03    -27.8255E-03     54.0157E-03    -26.1902E-03     88.6791E-03    -28.1843E-03     54.4289E-03    -26.2461E-03     88.4926E-03
             441     14.9036E-03     66.1920E-03    -9.22847E+06     74.4185E+06    -306.991E+03     332.258E+03    -28.3211E-03     54.4629E-03    -26.1418E-03     105.930E-03    -29.0959E-03     55.4700E-03    -26.2379E-03     105.760E-03
             442     15.7808E-03     66.3026E-03    -7.62251E+06     126.511E+06      35.244E+06    -147.351E+03    -28.8295E-03     55.0553E-03    -26.2258E-03     131.541E-03    -30.4276E-03     56.9732E-03    -26.2220E-03     131.662E-03
             443     16.6570E-03     66.4427E-03    -4.59508E+06     140.097E+06     72.4710E+06    -6.74164E+03    -27.0354E-03     53.3903E-03    -26.3549E-03     89.7885E-03    -28.3875E-03     55.0133E-03    -26.1890E-03     90.1320E-03
             444     876.561E-06     66.4781E-03    -30.4918E+06    -118.785E+06    -29.8261E+06     66.5942E+03    -26.4232E-03     52.8549E-03    -26.4318E-03     5.72841E-03    -26.3602E-03     52.3487E-03    -26.3644E-03     5.72659E-03
             445     1.75321E-03     66.4858E-03    -29.5449E+06    -117.207E+06    -27.1313E+06     101.178E+03    -26.4438E-03     52.8770E-03    -26.4332E-03     10.6401E-03    -26.3827E-03     52.3736E-03    -26.3561E-03     10.6362E-03
             446     2.62976E-03     66.4983E-03    -28.1202E+06    -113.317E+06    -23.4280E+06     140.653E+03    -26.4671E-03     52.9081E-03    -26.4410E-03     15.8108E-03    -26.4104E-03     52.4173E-03    -26.3531E-03     15.8044E-03
             447     3.50640E-03     66.5158E-03    -26.4010E+06    -108.314E+06    -19.1820E+06     167.196E+03    -26.4887E-03     52.9360E-03    -26.4473E-03     20.9965E-03    -26.4377E-03     52.4624E-03    -26.3479E-03     20.9869E-03
             448     4.38300E-03     66.5382E-03    -24.4387E+06    -103.492E+06    -14.1718E+06     186.278E+03    -26.5264E-03     52.9812E-03    -26.4548E-03     26.2001E-03    -26.4812E-03     52.5229E-03    -26.3402E-03     26.1864E-03
             449     5.25968E-03     66.5655E-03    -22.3476E+06    -97.4864E+06    -9.17582E+06     143.012E+03    -26.5762E-03     53.0355E-03    -26.4594E-03     31.3830E-03    -26.5384E-03     52.5990E-03    -26.3315E-03     31.3634E-03
             450     6.13631E-03     66.5977E-03    -20.1973E+06    -91.1270E+06    -5.08298E+06    -6.04162E+03    -26.6402E-03     53.0986E-03    -26.4584E-03     36.4897E-03    -26.6098E-03     52.6877E-03    -26.3224E-03     36.4616E-03
             451     7.01304E-03     66.6348E-03    -17.9990E+06    -84.1508E+06    -1.68917E+06     39.4846E+03    -26.7167E-03     53.1695E-03    -26.4528E-03     41.5063E-03    -26.6944E-03     52.7894E-03    -26.3131E-03     41.4706E-03
             452     7.88970E-03     66.6765E-03    -16.0326E+06    -78.0571E+06     635.430E+03     42.2633E+03    -26.8124E-03     53.2563E-03    -26.4440E-03     46.3992E-03    -26.7982E-03     52.9064E-03    -26.3044E-03     46.3535E-03
             453     8.76643E-03     66.7228E-03    -14.3867E+06    -72.0240E+06     1.33376E+06     22.3022E+03    -26.9159E-03     53.3444E-03    -26.4284E-03     51.1750E-03    -26.9115E-03     53.0293E-03    -26.2965E-03     51.1169E-03
             454     9.64312E-03     66.7737E-03    -12.8671E+06    -65.2044E+06     1.64802E+06    -3.58717E+03    -27.0249E-03     53.4356E-03    -26.4107E-03     55.8160E-03    -27.0346E-03     53.1634E-03    -26.2892E-03     55.7431E-03
             455     10.5199E-03     66.8288E-03    -11.5066E+06    -58.1524E+06     1.12702E+06     223.116E+03    -27.1487E-03     53.5381E-03    -26.3895E-03     60.5672E-03    -27.1775E-03     53.3164E-03    -26.2828E-03     60.4798E-03
             456     11.3965E-03     66.8887E-03    -10.5167E+06    -49.4802E+06    -517.990E+03     255.164E+03    -27.2698E-03     53.6311E-03    -26.3613E-03     65.3856E-03    -27.3278E-03     53.4777E-03    -26.2769E-03     65.2779E-03
             457     12.2733E-03     66.9530E-03    -9.82001E+06    -38.3883E+06    -2.24996E+06    -553.512E+03    -27.3646E-03     53.6935E-03    -26.3289E-03     70.4428E-03    -27.4692E-03     53.6335E-03    -26.2702E-03     70.3007E-03
             458     13.1501E-03     67.0226E-03    -8.97776E+06    -17.9412E+06    -3.99898E+06    -400.212E+03    -27.5524E-03     53.8339E-03    -26.2816E-03     77.8288E-03    -27.7428E-03     53.9404E-03    -26.2625E-03     77.6618E-03
             459     14.0268E-03     67.1009E-03    -8.94150E+06     16.3701E+06    -9.21024E+06     646.684E+03    -27.7108E-03     53.9045E-03    -26.1938E-03     88.6257E-03    -28.0680E-03     54.3148E-03    -26.2506E-03     88.4477E-03
             460     14.9041E-03     67.1909E-03    -8.56527E+06     74.8237E+06       8.621E+03     558.300E+03    -28.1861E-03     54.3240E-03    -26.1379E-03     106.416E-03    -28.9582E-03     55.3313E-03    -26.2339E-03     106.250E-03
             461     15.7804E-03     67.3028E-03    -7.33696E+06     127.073E+06     36.6504E+06     437.637E+03    -29.2364E-03     55.4708E-03    -26.2344E-03     131.525E-03    -30.8426E-03     57.3957E-03    -26.2247E-03     131.648E-03
             462     16.6585E-03     67.4412E-03    -4.94193E+06     139.997E+06     72.8224E+06     113.346E+03    -27.3021E-03     53.6818E-03    -26.3797E-03     88.7361E-03    -28.6637E-03     55.3117E-03    -26.2114E-03     89.0770E-03
             463     876.580E-06     67.4773E-03    -30.5470E+06    -118.847E+06    -29.9826E+06     71.7911E+03    -26.4039E-03     52.8647E-03    -26.4608E-03     5.68712E-03    -26.3409E-03     52.3586E-03    -26.3941E-03     5.68540E-03
             464     1.75316E-03     67.4850E-03    -29.6480E+06    -117.289E+06    -27.2325E+06     57.6689E+03    -26.4419E-03     52.8786E-03    -26.4368E-03     10.6569E-03    -26.3810E-03     52.3751E-03    -26.3599E-03     10.6524E-03
             465     2.62978E-03     67.4976E-03    -28.2148E+06    -113.427E+06    -23.5133E+06     81.1012E+03    -26.4633E-03     52.9058E-03    -26.4425E-03     15.8073E-03    -26.4068E-03     52.4146E-03    -26.3547E-03     15.8002E-03
             466     3.50637E-03     67.5150E-03    -26.4778E+06    -108.389E+06    -19.2334E+06     122.872E+03    -26.4885E-03     52.9364E-03    -26.4479E-03     20.9973E-03    -26.4377E-03     52.4626E-03    -26.3485E-03     20.9871E-03
             467     4.38302E-03     67.5374E-03    -24.4839E+06    -103.535E+06    -14.1176E+06     137.024E+03    -26.5282E-03     52.9841E-03    -26.4559E-03     26.1958E-03    -26.4832E-03     52.5256E-03    -26.3409E-03     26.1815E-03
             468     5.25964E-03     67.5647E-03    -22.2771E+06    -97.4797E+06    -9.12502E+06     144.474E+03    -26.5805E-03     53.0412E-03    -26.4606E-03     31.3734E-03    -26.5425E-03     52.6045E-03    -26.3326E-03     31.3538E-03
             469     6.13634E-03     67.5970E-03    -20.1231E+06    -90.9116E+06    -4.92827E+06     58.4930E+03    -26.6474E-03     53.1079E-03    -26.4605E-03     36.4736E-03    -26.6171E-03     52.6977E-03    -26.3241E-03     36.4463E-03
             470     7.01298E-03     67.6340E-03    -18.0718E+06    -84.2809E+06    -1.70799E+06    -66.9195E+03    -26.7267E-03     53.1823E-03    -26.4557E-03     41.4875E-03    -26.7045E-03     52.8018E-03    -26.3158E-03     41.4504E-03
             471     7.88971E-03     67.6758E-03    -16.0687E+06    -78.0683E+06     583.837E+03     50.3293E+03    -26.8230E-03     53.2704E-03    -26.4474E-03     46.3839E-03    -26.8090E-03     52.9205E-03    -26.3080E-03     46.3383E-03
             472     8.76636E-03     67.7221E-03    -14.2891E+06    -71.9710E+06     1.41555E+06     13.5814E+03    -26.9325E-03     53.3658E-03    -26.4332E-03     51.1526E-03    -26.9278E-03     53.0507E-03    -26.3011E-03     51.0943E-03
             473     9.64309E-03     67.7729E-03    -12.8655E+06    -65.1643E+06     1.56943E+06    -52.3630E+03    -27.0422E-03     53.4582E-03    -26.4160E-03     55.8050E-03    -27.0518E-03     53.1863E-03    -26.2950E-03     55.7314E-03
             474     10.5198E-03     67.8281E-03    -11.5598E+06    -58.4635E+06     922.138E+03    -67.9842E+03    -27.1673E-03     53.5631E-03    -26.3958E-03     60.5607E-03    -27.1957E-03     53.3402E-03    -26.2896E-03     60.4694E-03
             475     11.3965E-03     67.8880E-03    -10.2665E+06    -49.4101E+06    -502.371E+03     34.9998E+03    -27.2928E-03     53.6616E-03    -26.3688E-03     65.3717E-03    -27.3497E-03     53.5081E-03    -26.2848E-03     65.2610E-03
             476     12.2732E-03     67.9523E-03    -9.77315E+06    -37.2761E+06    -1.75407E+06    -157.230E+03    -27.4068E-03     53.7462E-03    -26.3395E-03     70.3633E-03    -27.5138E-03     53.6913E-03    -26.2800E-03     70.2258E-03
             477     13.1499E-03     68.0217E-03    -9.78571E+06    -18.5455E+06    -4.37020E+06    -750.240E+03    -27.5449E-03     53.8373E-03    -26.2924E-03     77.7620E-03    -27.7381E-03     53.9426E-03    -26.2732E-03     77.5903E-03
             478     14.0268E-03     68.1003E-03    -8.38131E+06     15.3255E+06    -9.04423E+06    -318.993E+03    -27.8113E-03     54.0202E-03    -26.2088E-03     88.2079E-03    -28.1660E-03     54.4257E-03    -26.2641E-03     88.0156E-03
             479     14.9039E-03     68.1893E-03    -7.10497E+06     74.4675E+06    -21.5185E+03      533.34E+03    -28.1885E-03     54.3420E-03    -26.1535E-03     105.726E-03    -28.9546E-03     55.3473E-03    -26.2513E-03     105.558E-03
             480     15.7815E-03     68.3031E-03    -7.09464E+06     126.444E+06     35.3887E+06     506.168E+03    -29.0061E-03     55.2454E-03    -26.2392E-03     131.696E-03    -30.6068E-03     57.1671E-03    -26.2353E-03     131.824E-03
             481     16.6555E-03     68.4415E-03    -4.07605E+06     140.560E+06     73.2614E+06     553.533E+03    -27.4486E-03     53.8346E-03    -26.3860E-03     88.7344E-03    -28.8040E-03     55.4621E-03    -26.2176E-03     89.0807E-03
             482     876.591E-06     68.4766E-03    -30.5353E+06    -118.884E+06    -30.0028E+06    -16.4383E+03    -26.4014E-03     52.8655E-03    -26.4641E-03     5.71712E-03    -26.3383E-03     52.3591E-03    -26.3974E-03     5.71422E-03
             483     1.75316E-03     68.4842E-03    -29.6416E+06    -117.348E+06    -27.3462E+06     2.87396E+03    -26.4489E-03     52.8867E-03    -26.4379E-03     10.6624E-03    -26.3877E-03     52.3831E-03    -26.3615E-03     10.6572E-03
             484     2.62977E-03     68.4968E-03    -28.2528E+06    -113.475E+06    -23.6000E+06     42.2329E+03    -26.4611E-03     52.9054E-03    -26.4443E-03     15.8049E-03    -26.4046E-03     52.4142E-03    -26.3568E-03     15.7973E-03
             485     3.50639E-03     68.5143E-03    -26.5575E+06    -108.494E+06    -19.3540E+06     83.0772E+03    -26.4910E-03     52.9402E-03    -26.4491E-03     20.9851E-03    -26.4403E-03     52.4661E-03    -26.3501E-03     20.9744E-03
             486     4.38300E-03     68.5366E-03    -24.5910E+06    -103.509E+06    -14.2535E+06     75.4760E+03    -26.5344E-03     52.9920E-03    -26.4575E-03     26.1866E-03    -26.4898E-03     52.5340E-03    -26.3431E-03     26.1715E-03
             487     5.25966E-03     68.5640E-03    -22.4093E+06    -97.5488E+06    -9.22033E+06     60.8021E+03    -26.5882E-03     53.0517E-03    -26.4635E-03     31.3611E-03    -26.5506E-03     52.6151E-03    -26.3357E-03     31.3405E-03
             488     6.13629E-03     68.5962E-03    -20.1733E+06    -90.8303E+06    -5.05972E+06     96.7840E+03    -26.6561E-03     53.1197E-03    -26.4637E-03     36.4643E-03    -26.6260E-03     52.7103E-03    -26.3280E-03     36.4375E-03
             489     7.01298E-03     68.6333E-03    -18.1057E+06    -84.1176E+06    -1.75530E+06    -2.03549E+03    -26.7394E-03     53.1994E-03    -26.4600E-03     41.4759E-03    -26.7176E-03     52.8198E-03    -26.3206E-03     41.4395E-03
             490     7.88962E-03     68.6750E-03    -16.1631E+06    -78.2731E+06     264.938E+03    -83.7367E+03    -26.8338E-03     53.2856E-03    -26.4518E-03     46.3789E-03    -26.8195E-03     52.9353E-03    -26.3136E-03     46.3315E-03
             491     8.76635E-03     68.7214E-03    -14.4160E+06    -71.8359E+06     1.18131E+06    -4.30744E+03    -26.9429E-03     53.3810E-03    -26.4382E-03     51.1566E-03    -26.9386E-03     53.0672E-03    -26.3072E-03     51.0981E-03
             492     9.64298E-03     68.7722E-03    -12.9735E+06    -65.1961E+06     1.41413E+06    -47.3585E+03    -27.0565E-03     53.4786E-03    -26.4221E-03     55.8044E-03    -27.0664E-03     53.2070E-03    -26.3017E-03     55.7307E-03
             493     10.5197E-03     68.8274E-03    -11.8997E+06    -58.2977E+06     698.501E+03    -135.855E+03    -27.1793E-03     53.5815E-03    -26.4022E-03     60.5769E-03    -27.2094E-03     53.3603E-03    -26.2969E-03     60.4847E-03
             494     11.3963E-03     68.8872E-03    -11.1577E+06    -49.5794E+06    -1.20096E+06    -252.322E+03    -27.3135E-03     53.6884E-03    -26.3750E-03     65.3955E-03    -27.3737E-03     53.5365E-03    -26.2929E-03     65.2810E-03
             495     12.2731E-03     68.9516E-03    -10.4336E+06    -37.3524E+06    -2.33665E+06     170.358E+03    -27.4459E-03     53.7933E-03    -26.3474E-03     70.4117E-03    -27.5555E-03     53.7400E-03    -26.2898E-03     70.2781E-03
             496     13.1497E-03     69.0210E-03    -10.3922E+06    -17.1582E+06    -4.32766E+06    -221.039E+03    -27.6365E-03     53.9417E-03    -26.3052E-03     77.6855E-03    -27.8353E-03     54.0552E-03    -26.2869E-03     77.5198E-03
             497     14.0265E-03     69.0992E-03    -10.8856E+06     15.2818E+06    -10.0077E+06    -1.54019E+06    -28.1243E-03     54.3577E-03    -26.2334E-03     88.4196E-03    -28.4922E-03     54.7702E-03    -26.2898E-03     88.2088E-03
             498     14.9023E-03     69.1897E-03    -10.5159E+06     72.2961E+06    -2.81109E+06    -786.353E+03    -28.3648E-03     54.5523E-03    -26.1875E-03     105.379E-03    -29.1444E-03     55.5593E-03    -26.2911E-03     105.192E-03
             499     15.7790E-03     69.3003E-03    -6.87661E+06     126.386E+06     34.3137E+06     997.949E+03    -28.1278E-03     54.3810E-03    -26.2532E-03     131.545E-03    -29.7059E-03     56.2839E-03    -26.2549E-03     131.694E-03
             500     16.6602E-03     69.4422E-03    -3.12769E+06     141.574E+06     73.7430E+06     1.16333E+06    -26.8942E-03     53.2582E-03    -26.3640E-03     89.6358E-03    -28.2257E-03     54.8674E-03    -26.1961E-03     90.0002E-03
             501     876.578E-06     69.4758E-03    -30.6641E+06    -118.907E+06    -29.9575E+06    -61.2684E+03    -26.4666E-03     52.8730E-03    -26.4064E-03     5.76165E-03    -26.4042E-03     52.3667E-03    -26.3393E-03     5.75811E-03
             502     1.75318E-03     69.4835E-03    -29.6598E+06    -117.342E+06    -27.3392E+06     3.39130E+03    -26.4558E-03     52.8983E-03    -26.4425E-03     10.6313E-03    -26.3948E-03     52.3947E-03    -26.3660E-03     10.6262E-03
             503     2.62975E-03     69.4960E-03    -28.3182E+06    -113.519E+06    -23.6683E+06        -289.055    -26.4660E-03     52.9153E-03    -26.4493E-03     15.7899E-03    -26.4096E-03     52.4241E-03    -26.3620E-03     15.7817E-03
             504     3.50636E-03     69.5135E-03    -26.5956E+06    -108.566E+06    -19.4293E+06     30.1742E+03    -26.4960E-03     52.9501E-03    -26.4541E-03     20.9729E-03    -26.4452E-03     52.4758E-03    -26.3553E-03     20.9615E-03
             505     4.38298E-03     69.5359E-03    -24.6631E+06    -103.504E+06    -14.4897E+06     59.1872E+03    -26.5392E-03     53.0008E-03    -26.4616E-03     26.1740E-03    -26.4946E-03     52.5432E-03    -26.3482E-03     26.1586E-03
             506     5.25961E-03     69.5632E-03    -22.5613E+06    -97.5266E+06    -9.53513E+06     14.1847E+03    -26.5946E-03     53.0620E-03    -26.4674E-03     31.3544E-03    -26.5574E-03     52.6262E-03    -26.3410E-03     31.3331E-03
             507     6.13627E-03     69.5955E-03    -20.3212E+06    -90.8709E+06    -5.41271E+06    -28.2487E+03    -26.6636E-03     53.1314E-03    -26.4678E-03     36.4620E-03    -26.6337E-03     52.7225E-03    -26.3336E-03     36.4335E-03
             508     7.01291E-03     69.6325E-03    -18.0782E+06    -83.9767E+06    -1.99247E+06    -36.7548E+03    -26.7452E-03     53.2095E-03    -26.4643E-03     41.4821E-03    -26.7231E-03     52.8309E-03    -26.3263E-03     41.4452E-03
             509     7.88961E-03     69.6743E-03    -16.1309E+06    -78.2483E+06     172.995E+03    -92.4682E+03    -26.8426E-03     53.2997E-03    -26.4571E-03     46.3852E-03    -26.8281E-03     52.9497E-03    -26.3194E-03     46.3376E-03
             510     8.76625E-03     69.7206E-03    -14.4265E+06    -71.9598E+06     918.238E+03    -87.9541E+03    -26.9456E-03     53.3885E-03    -26.4428E-03     51.1823E-03    -26.9409E-03     53.0744E-03    -26.3130E-03     51.1227E-03
             511     9.64297E-03     69.7715E-03    -12.9728E+06    -65.1129E+06     1.30193E+06    -5.55859E+03    -27.0587E-03     53.4855E-03    -26.4268E-03     55.8404E-03    -27.0686E-03     53.2144E-03    -26.3071E-03     55.7673E-03
             512     10.5196E-03     69.8266E-03    -11.8643E+06    -58.2899E+06     609.371E+03     4.65575E+03    -27.1807E-03     53.5873E-03    -26.4066E-03     60.6300E-03    -27.2104E-03     53.3662E-03    -26.3018E-03     60.5395E-03
             513     11.3963E-03     69.8866E-03    -11.2493E+06    -49.5013E+06    -1.33158E+06     116.343E+03    -27.3157E-03     53.6945E-03    -26.3788E-03     65.5002E-03    -27.3763E-03     53.5434E-03    -26.2974E-03     65.3905E-03
             514     12.2730E-03     69.9509E-03    -10.8255E+06    -37.7108E+06    -3.06996E+06    -38.3443E+03    -27.4633E-03     53.8127E-03    -26.3494E-03     70.5416E-03    -27.5733E-03     53.7593E-03    -26.2943E-03     70.4054E-03
             515     13.1497E-03     70.0204E-03    -9.94917E+06    -16.4561E+06    -4.37581E+06     148.368E+03    -27.7270E-03     54.0375E-03    -26.3105E-03     77.9773E-03    -27.9251E-03     54.1546E-03    -26.2941E-03     77.8158E-03
             516     14.0259E-03     70.0989E-03    -10.5027E+06     16.5313E+06    -10.1935E+06    -185.787E+03    -28.0318E-03     54.2670E-03    -26.2352E-03     89.2864E-03    -28.3991E-03     54.6852E-03    -26.2949E-03     89.0948E-03
             517     14.9028E-03     70.1898E-03    -11.3286E+06     72.1030E+06    -3.27652E+06    -1.14682E+06    -28.2825E-03     54.4661E-03    -26.1836E-03     106.296E-03    -29.0641E-03     55.4730E-03    -26.2881E-03     106.108E-03
             518     15.7801E-03     70.2990E-03    -8.55751E+06     124.617E+06     31.4078E+06    -336.296E+03    -28.4847E-03     54.7332E-03    -26.2485E-03     130.788E-03    -30.0627E-03     56.6321E-03    -26.2597E-03     130.913E-03
             519     16.6571E-03     70.4373E-03    -3.30373E+06     140.864E+06     71.3183E+06     320.719E+03    -26.6728E-03     53.0378E-03    -26.3650E-03     89.2249E-03    -28.0019E-03     54.6485E-03    -26.2079E-03     89.5766E-03
             520     876.590E-06     70.4752E-03    -30.6445E+06    -118.869E+06    -30.1073E+06    -73.9089E+03    -26.4869E-03     52.8955E-03    -26.4086E-03     5.73469E-03    -26.4242E-03     52.3896E-03    -26.3424E-03     5.73102E-03
             521     1.75311E-03     70.4827E-03    -29.7971E+06    -117.363E+06    -27.4084E+06    -26.3039E+03    -26.4597E-03     52.9122E-03    -26.4525E-03     10.6184E-03    -26.3992E-03     52.4087E-03    -26.3761E-03     10.6128E-03
             522     2.62974E-03     70.4953E-03    -28.3701E+06    -113.480E+06    -23.7319E+06    -53.3483E+03    -26.4726E-03     52.9301E-03    -26.4575E-03     15.7851E-03    -26.4165E-03     52.4392E-03    -26.3705E-03     15.7762E-03
             523     3.50633E-03     70.5128E-03    -26.6150E+06    -108.617E+06    -19.4973E+06    -56.2514E+03    -26.5003E-03     52.9619E-03    -26.4616E-03     20.9715E-03    -26.4495E-03     52.4876E-03    -26.3630E-03     20.9590E-03
             524     4.38295E-03     70.5351E-03    -24.6357E+06    -103.586E+06    -14.6059E+06     21.4323E+03    -26.5439E-03     53.0121E-03    -26.4682E-03     26.1752E-03    -26.4989E-03     52.5543E-03    -26.3553E-03     26.1594E-03
             525     5.25959E-03     70.5625E-03    -22.4970E+06    -97.3660E+06    -9.69636E+06    -29.3743E+03    -26.5993E-03     53.0721E-03    -26.4729E-03     31.3565E-03    -26.5617E-03     52.6372E-03    -26.3475E-03     31.3346E-03
             526     6.13621E-03     70.5947E-03    -20.2663E+06    -90.7867E+06    -5.58139E+06    -199.765E+03    -26.6663E-03     53.1391E-03    -26.4728E-03     36.4674E-03    -26.6360E-03     52.7307E-03    -26.3397E-03     36.4367E-03
             527     7.01289E-03     70.6318E-03    -18.0782E+06    -84.0030E+06    -2.21414E+06    -229.764E+03    -26.7451E-03     53.2138E-03    -26.4687E-03     41.4948E-03    -26.7227E-03     52.8354E-03    -26.3317E-03     41.4555E-03
             528     7.88955E-03     70.6735E-03    -15.9607E+06    -78.1833E+06     173.309E+03    -194.807E+03    -26.8406E-03     53.3020E-03    -26.4614E-03     46.4046E-03    -26.8253E-03     52.9520E-03    -26.3240E-03     46.3557E-03
             529     8.76624E-03     70.7199E-03    -14.1408E+06    -72.0141E+06     939.832E+03    -191.538E+03    -26.9407E-03     53.3869E-03    -26.4462E-03     51.2048E-03    -26.9345E-03     53.0722E-03    -26.3166E-03     51.1439E-03
             530     9.64292E-03     70.7707E-03    -12.5877E+06    -65.2541E+06     1.33535E+06    -90.1877E+03    -27.0439E-03     53.4727E-03    -26.4288E-03     55.8920E-03    -27.0517E-03     53.2003E-03    -26.3093E-03     55.8178E-03
             531     10.5196E-03     70.8260E-03    -11.3831E+06    -58.4300E+06     759.278E+03     140.660E+03    -27.1634E-03     53.5707E-03    -26.4072E-03     60.6803E-03    -27.1908E-03     53.3480E-03    -26.3022E-03     60.5917E-03
             532     11.3963E-03     70.8858E-03    -10.3888E+06     -49.688E+06    -926.899E+03     265.029E+03    -27.2824E-03     53.6602E-03    -26.3778E-03     65.6015E-03    -27.3390E-03     53.5062E-03    -26.2954E-03     65.4939E-03
             533     12.2731E-03     70.9504E-03    -9.91933E+06    -37.4546E+06    -2.65951E+06     420.899E+03    -27.4352E-03     53.7801E-03    -26.3449E-03     70.7521E-03    -27.5416E-03     53.7261E-03    -26.2896E-03     70.6221E-03
             534     13.1496E-03     71.0197E-03    -10.0091E+06    -16.7301E+06    -4.63739E+06     38.6396E+03    -27.5825E-03     53.8812E-03    -26.2987E-03     78.3409E-03    -27.7801E-03     53.9973E-03    -26.2831E-03     78.1790E-03
             535     14.0267E-03     71.0986E-03    -9.30070E+06     16.8423E+06    -9.26079E+06     251.345E+03    -27.6369E-03     53.8467E-03    -26.2099E-03     89.4556E-03    -27.9982E-03     54.2617E-03    -26.2671E-03     89.2734E-03
             536     14.9040E-03     71.1881E-03    -8.51446E+06     73.9512E+06    -1.07881E+06     251.285E+03    -28.0371E-03     54.1786E-03    -26.1414E-03     106.589E-03    -28.8063E-03     55.1831E-03    -26.2417E-03     106.422E-03
             537     15.7805E-03     71.2995E-03    -8.87929E+06     124.303E+06     32.0861E+06    -1.63663E+06    -29.3491E-03     55.5728E-03    -26.2237E-03     131.513E-03    -30.9567E-03     57.4971E-03    -26.2307E-03     131.607E-03
             538     16.6563E-03     71.4369E-03    -5.02883E+06     139.532E+06     70.9092E+06    -1.24050E+06    -27.3681E-03     53.7487E-03    -26.3806E-03     89.3847E-03    -28.7328E-03     55.3853E-03    -26.2211E-03     89.7040E-03
             539     876.520E-06     71.4743E-03    -30.8205E+06    -118.851E+06    -29.9560E+06     115.790E+03    -26.4451E-03     52.9087E-03    -26.4636E-03     5.75779E-03    -26.3835E-03     52.4028E-03    -26.3963E-03     5.75658E-03
             540     1.75317E-03     71.4821E-03    -29.9350E+06    -117.361E+06    -27.4882E+06    -29.0402E+03    -26.4663E-03     52.9253E-03    -26.4590E-03     10.6300E-03    -26.4064E-03     52.4222E-03    -26.3829E-03     10.6244E-03
             541     2.62968E-03     71.4945E-03    -28.4786E+06    -113.265E+06    -23.9595E+06    -164.033E+03    -26.4815E-03     52.9449E-03    -26.4634E-03     15.7884E-03    -26.4259E-03     52.4556E-03    -26.3777E-03     15.7780E-03
             542     3.50631E-03     71.5120E-03    -26.6904E+06    -108.678E+06    -19.6268E+06    -216.290E+03    -26.5064E-03     52.9750E-03    -26.4686E-03     20.9781E-03    -26.4557E-03     52.5007E-03    -26.3704E-03     20.9635E-03
             543     4.38291E-03     71.5344E-03    -24.6363E+06    -103.699E+06    -14.5402E+06    -100.639E+03    -26.5498E-03     53.0256E-03    -26.4758E-03     26.1820E-03    -26.5048E-03     52.5671E-03    -26.3624E-03     26.1646E-03
             544     5.25954E-03     71.5618E-03    -22.3918E+06    -97.1070E+06    -9.78798E+06    -187.173E+03    -26.6005E-03     53.0789E-03    -26.4784E-03     31.3629E-03    -26.5627E-03     52.6452E-03    -26.3541E-03     31.3390E-03
             545     6.13619E-03     71.5940E-03    -20.1512E+06    -90.6224E+06    -5.64773E+06    -343.677E+03    -26.6636E-03     53.1411E-03    -26.4775E-03     36.4765E-03    -26.6328E-03     52.7335E-03    -26.3451E-03     36.4439E-03
             546     7.01285E-03     71.6310E-03    -17.9997E+06    -83.9945E+06    -2.31442E+06    -399.356E+03    -26.7402E-03     53.2124E-03    -26.4722E-03     41.5109E-03    -26.7172E-03     52.8341E-03    -26.3359E-03     41.4694E-03
             547     7.88953E-03     71.6728E-03    -15.9594E+06    -78.0898E+06     12.7828E+03    -477.913E+03    -26.8296E-03     53.2928E-03    -26.4632E-03     46.4265E-03    -26.8141E-03     52.9435E-03    -26.3268E-03     46.3741E-03
             548     8.76622E-03     71.7191E-03    -14.0506E+06    -72.1491E+06     903.414E+03    -401.285E+03    -26.9283E-03     53.3757E-03    -26.4474E-03     51.2202E-03    -26.9214E-03     53.0601E-03    -26.3179E-03     51.1566E-03
             549     9.64293E-03     71.7700E-03    -12.4507E+06    -65.3179E+06     1.30384E+06    -316.921E+03    -27.0238E-03     53.4519E-03    -26.4281E-03     55.9060E-03    -27.0308E-03     53.1790E-03    -26.3088E-03     55.8290E-03
             550     10.5197E-03     71.8252E-03    -10.9346E+06    -58.8654E+06     830.540E+03    -113.977E+03    -27.1336E-03     53.5385E-03    -26.4049E-03     60.6981E-03    -27.1581E-03     53.3128E-03    -26.2995E-03     60.6064E-03
             551     11.3964E-03     71.8851E-03    -9.81269E+06    -49.7253E+06    -762.411E+03     96.8106E+03    -27.2306E-03     53.6027E-03    -26.3721E-03     65.5932E-03    -27.2844E-03     53.4474E-03    -26.2896E-03     65.4837E-03
             552     12.2732E-03     71.9494E-03    -8.69450E+06    -37.9550E+06    -2.17983E+06     324.296E+03    -27.3196E-03     53.6543E-03    -26.3346E-03     70.8285E-03    -27.4197E-03     53.5950E-03    -26.2779E-03     70.6980E-03
             553     13.1501E-03     72.0193E-03    -8.03099E+06    -16.1220E+06    -3.88143E+06     595.732E+03    -27.3940E-03     53.6714E-03    -26.2774E-03     78.1857E-03    -27.5831E-03     53.7860E-03    -26.2618E-03     78.0325E-03
             554     14.0272E-03     72.0970E-03    -8.25891E+06     17.0580E+06    -7.90599E+06    -60.4712E+03    -27.4428E-03     53.6262E-03    -26.1834E-03     88.9565E-03    -27.7998E-03     54.0374E-03    -26.2357E-03     88.7720E-03
             555     14.9043E-03     72.1874E-03    -7.44531E+06     73.1474E+06     48.8192E+03    -43.3753E+03    -27.7537E-03     53.8571E-03    -26.1033E-03     106.658E-03    -28.5150E-03     54.8514E-03    -26.1983E-03     106.490E-03
             556     15.7819E-03     72.2986E-03    -6.68062E+06     127.116E+06     38.4462E+06    -567.684E+03    -28.9386E-03     55.1232E-03    -26.1846E-03     133.149E-03    -30.5530E-03     57.0537E-03    -26.1670E-03     133.272E-03
             557     16.6584E-03     72.4392E-03    -6.11169E+06     139.753E+06     74.9182E+06    -867.825E+03    -28.1798E-03     54.5263E-03    -26.3464E-03     89.7733E-03    -29.5584E-03     56.1620E-03    -26.1656E-03     90.0938E-03
             558     876.613E-06     72.4737E-03    -30.8275E+06    -119.047E+06    -30.2647E+06     200.259E+03    -26.4552E-03     52.9197E-03    -26.4645E-03     5.75027E-03    -26.3929E-03     52.4133E-03    -26.3985E-03     5.75016E-03
             559     1.75308E-03     72.4813E-03    -29.8658E+06    -117.076E+06    -27.3705E+06        -64.0820    -26.4705E-03     52.9350E-03    -26.4646E-03     10.6228E-03    -26.4108E-03     52.4331E-03    -26.3884E-03     10.6175E-03
             560     2.62972E-03     72.4939E-03    -28.4125E+06    -112.936E+06    -23.8731E+06    -331.205E+03    -26.4857E-03     52.9541E-03    -26.4684E-03     15.7873E-03    -26.4304E-03     52.4663E-03    -26.3828E-03     15.7748E-03
             561     3.50627E-03     72.5113E-03    -26.6865E+06    -108.786E+06    -19.4364E+06    -316.371E+03    -26.5151E-03     52.9902E-03    -26.4751E-03     20.9860E-03    -26.4645E-03     52.5150E-03    -26.3759E-03     20.9701E-03
             562     4.38289E-03     72.5337E-03    -24.6998E+06    -103.686E+06    -14.5953E+06    -262.598E+03    -26.5524E-03     53.0336E-03    -26.4811E-03     26.1962E-03    -26.5077E-03     52.5753E-03    -26.3680E-03     26.1766E-03
             563     5.25952E-03     72.5610E-03    -22.5191E+06    -96.8357E+06    -10.0475E+06    -382.511E+03    -26.5986E-03     53.0802E-03    -26.4816E-03     31.3760E-03    -26.5614E-03     52.6485E-03    -26.3588E-03     31.3496E-03
             564     6.13616E-03     72.5933E-03    -20.2909E+06    -90.4561E+06    -5.88080E+06    -513.969E+03    -26.6598E-03     53.1398E-03    -26.4800E-03     36.4880E-03    -26.6296E-03     52.7335E-03    -26.3489E-03     36.4533E-03
             565     7.01284E-03     72.6303E-03    -18.0696E+06    -83.8348E+06    -2.50057E+06    -636.908E+03    -26.7325E-03     53.2063E-03    -26.4738E-03     41.5187E-03    -26.7099E-03     52.8291E-03    -26.3385E-03     41.4742E-03
             566     7.88953E-03     72.6721E-03    -16.0205E+06    -77.9997E+06    -158.850E+03    -667.635E+03    -26.8196E-03     53.2833E-03    -26.4637E-03     46.4285E-03    -26.8044E-03     52.9347E-03    -26.3281E-03     46.3736E-03
             567     8.76622E-03     72.7184E-03    -14.2407E+06    -72.1757E+06     716.173E+03    -706.986E+03    -26.9169E-03     53.3639E-03    -26.4469E-03     51.2153E-03    -26.9107E-03     53.0487E-03    -26.3181E-03     51.1478E-03
             568     9.64296E-03     72.7692E-03    -12.5953E+06    -65.4269E+06     1.03169E+06    -605.811E+03    -27.0142E-03     53.4406E-03    -26.4264E-03     55.8807E-03    -27.0214E-03     53.1678E-03    -26.3081E-03     55.8000E-03
             569     10.5197E-03     72.8244E-03    -11.1988E+06    -58.9425E+06     621.151E+03    -635.511E+03    -27.1127E-03     53.5153E-03    -26.4026E-03     60.6488E-03    -27.1381E-03     53.2899E-03    -26.2978E-03     60.5504E-03
             570     11.3965E-03     72.8842E-03    -9.81958E+06    -50.1932E+06    -1.11821E+06    -345.013E+03    -27.2083E-03     53.5763E-03    -26.3680E-03     65.4827E-03    -27.2610E-03     53.4192E-03    -26.2865E-03     65.3675E-03
             571     12.2733E-03     72.9487E-03    -9.01125E+06    -38.0336E+06    -2.35001E+06    -211.637E+03    -27.2565E-03     53.5855E-03    -26.3290E-03     70.5588E-03    -27.3576E-03     53.5264E-03    -26.2726E-03     70.4216E-03
             572     13.1503E-03     73.0181E-03    -8.00415E+06    -16.6000E+06    -4.02523E+06    -2.68031E+03    -27.4119E-03     53.6836E-03    -26.2718E-03     77.7178E-03    -27.5994E-03     53.7955E-03    -26.2562E-03     77.5568E-03
             573     14.0272E-03     73.0963E-03    -6.99726E+06     18.0500E+06    -4.79436E+06     59.8071E+03    -27.5774E-03     53.7747E-03    -26.1973E-03     87.8817E-03    -27.9348E-03     54.1852E-03    -26.2373E-03     87.6963E-03
             574     14.9049E-03     73.1854E-03    -6.95800E+06     72.9027E+06    -567.223E+03    -1.17971E+06    -27.6366E-03     53.7427E-03    -26.1060E-03     105.054E-03    -28.3891E-03     54.7309E-03    -26.2045E-03     104.872E-03
             575     15.7826E-03     73.2976E-03    -6.56378E+06     124.975E+06     34.4802E+06     275.976E+03    -28.5919E-03     54.7570E-03    -26.1651E-03     131.621E-03    -30.1680E-03     56.6534E-03    -26.1644E-03     131.756E-03
             576     16.6610E-03     73.4385E-03    -4.71370E+06     140.761E+06     76.0584E+06     1.28432E+06    -28.2720E-03     54.6142E-03    -26.3423E-03     88.0147E-03    -29.6214E-03     56.2261E-03    -26.1593E-03     88.3573E-03
             577     876.484E-06     73.4729E-03    -31.2004E+06    -119.323E+06    -30.6587E+06     51.7153E+03    -26.4516E-03     52.9341E-03    -26.4825E-03     5.70747E-03    -26.3902E-03     52.4275E-03    -26.4176E-03     5.70546E-03
             578     1.75314E-03     73.4806E-03    -30.3100E+06    -116.591E+06    -28.2849E+06    -75.4909E+03    -26.4663E-03     52.9324E-03    -26.4660E-03     10.6320E-03    -26.4083E-03     52.4348E-03    -26.3945E-03     10.6258E-03
             579     2.62966E-03     73.4931E-03    -28.9189E+06    -112.502E+06    -24.3668E+06    -499.208E+03    -26.4859E-03     52.9556E-03    -26.4698E-03     15.7920E-03    -26.4330E-03     52.4714E-03    -26.3865E-03     15.7774E-03
             580     3.50629E-03     73.5106E-03    -27.0652E+06    -108.970E+06    -19.6233E+06    -429.824E+03    -26.5148E-03     52.9930E-03    -26.4782E-03     20.9926E-03    -26.4655E-03     52.5177E-03    -26.3791E-03     20.9753E-03
             581     4.38287E-03     73.5330E-03    -24.9748E+06    -103.458E+06    -14.8908E+06    -420.927E+03    -26.5519E-03     53.0344E-03    -26.4825E-03     26.2052E-03    -26.5084E-03     52.5781E-03    -26.3707E-03     26.1836E-03
             582     5.25951E-03     73.5603E-03    -22.7728E+06    -96.6065E+06    -10.3514E+06    -566.320E+03    -26.5973E-03     53.0797E-03    -26.4825E-03     31.3834E-03    -26.5612E-03     52.6499E-03    -26.3611E-03     31.3546E-03
             583     6.13615E-03     73.5925E-03    -20.5241E+06    -90.1655E+06    -6.16673E+06    -743.521E+03    -26.6586E-03     53.1390E-03    -26.4805E-03     36.4933E-03    -26.6296E-03     52.7350E-03    -26.3508E-03     36.4556E-03
             584     7.01282E-03     73.6296E-03    -18.3142E+06    -83.5982E+06    -2.77319E+06    -919.825E+03    -26.7311E-03     53.2052E-03    -26.4741E-03     41.5150E-03    -26.7096E-03     52.8300E-03    -26.3402E-03     41.4668E-03
             585     7.88951E-03     73.6713E-03    -16.2015E+06    -77.9955E+06    -467.520E+03    -940.126E+03    -26.8176E-03     53.2814E-03    -26.4638E-03     46.4155E-03    -26.8028E-03     52.9336E-03    -26.3296E-03     46.3571E-03
             586     8.76623E-03     73.7177E-03    -14.3155E+06    -71.9844E+06     525.002E+03    -933.576E+03    -26.9173E-03     53.3644E-03    -26.4471E-03     51.1907E-03    -26.9114E-03     53.0506E-03    -26.3194E-03     51.1202E-03
             587     9.64293E-03     73.7685E-03    -12.7463E+06    -65.5634E+06     748.237E+03    -961.831E+03    -27.0218E-03     53.4489E-03    -26.4271E-03     55.8356E-03    -27.0291E-03     53.1760E-03    -26.3098E-03     55.7502E-03
             588     10.5197E-03     73.8236E-03    -11.4583E+06    -58.7802E+06     347.854E+03    -852.941E+03    -27.1303E-03     53.5345E-03    -26.4042E-03     60.5569E-03    -27.1569E-03     53.3107E-03    -26.3006E-03     60.4555E-03
             589     11.3964E-03     73.8835E-03    -10.5180E+06    -50.5297E+06    -1.67602E+06    -937.995E+03    -27.2488E-03     53.6207E-03    -26.3719E-03     65.3434E-03    -27.3037E-03     53.4637E-03    -26.2918E-03     65.2204E-03
             590     12.2732E-03     73.9478E-03    -9.41106E+06    -38.1811E+06    -3.06230E+06    -638.381E+03    -27.3690E-03     53.7062E-03    -26.3372E-03     70.2582E-03    -27.4709E-03     53.6480E-03    -26.2835E-03     70.1148E-03
             591     13.1499E-03     74.0171E-03    -8.86970E+06    -16.7763E+06    -5.13752E+06    -625.698E+03    -27.6287E-03     53.9183E-03    -26.2896E-03     77.4751E-03    -27.8189E-03     54.0323E-03    -26.2781E-03     77.3046E-03
             592     14.0265E-03     74.0956E-03    -8.17892E+06     18.6850E+06    -4.92387E+06    -1.19330E+06    -28.0758E-03     54.3172E-03    -26.2414E-03     87.3690E-03    -28.4416E-03     54.7346E-03    -26.2813E-03     87.1623E-03
             593     14.9026E-03     74.1843E-03    -7.81127E+06     72.4638E+06    -3.40337E+06    -243.027E+03    -28.2380E-03     54.4093E-03    -26.1713E-03     103.321E-03    -28.9904E-03     55.4010E-03    -26.2820E-03     103.142E-03
             594     15.7800E-03     74.2951E-03    -8.03699E+06     121.953E+06     28.8490E+06     978.612E+03    -28.9553E-03     55.2022E-03    -26.2469E-03     131.101E-03    -30.5264E-03     57.0939E-03    -26.2678E-03     131.226E-03
             595     16.6547E-03     74.4393E-03    -3.96203E+06     141.408E+06     75.4347E+06     1.12447E+06    -27.2631E-03     53.6811E-03    -26.4180E-03     88.5236E-03    -28.6109E-03     55.2980E-03    -26.2401E-03     88.8687E-03
             596     876.590E-06     74.4723E-03    -31.7466E+06    -119.379E+06    -31.1668E+06    -79.3660E+03    -26.4459E-03     52.9348E-03    -26.4889E-03     5.72113E-03    -26.3865E-03     52.4294E-03    -26.4256E-03     5.71740E-03
             597     1.75308E-03     74.4799E-03    -30.7522E+06    -116.050E+06    -29.1013E+06    -328.249E+03    -26.4697E-03     52.9343E-03    -26.4645E-03     10.6304E-03    -26.4134E-03     52.4412E-03    -26.3972E-03     10.6209E-03
             598     2.62970E-03     74.4925E-03    -29.5185E+06    -111.999E+06    -25.3976E+06    -579.620E+03    -26.4801E-03     52.9472E-03    -26.4671E-03     15.7931E-03    -26.4294E-03     52.4678E-03    -26.3889E-03     15.7774E-03
             599     3.50625E-03     74.5098E-03    -27.7984E+06    -109.033E+06    -20.3483E+06    -669.774E+03    -26.5122E-03     52.9892E-03    -26.4770E-03     20.9991E-03    -26.4655E-03     52.5157E-03    -26.3803E-03     20.9786E-03
             600     4.38289E-03     74.5323E-03    -25.5776E+06    -103.139E+06    -15.4395E+06    -690.296E+03    -26.5492E-03     53.0303E-03    -26.4811E-03     26.2078E-03    -26.5083E-03     52.5773E-03    -26.3717E-03     26.1828E-03
             601     5.25949E-03     74.5596E-03    -23.1929E+06    -96.3043E+06    -10.7258E+06    -884.560E+03    -26.5966E-03     53.0783E-03    -26.4817E-03     31.3846E-03    -26.5626E-03     52.6511E-03    -26.3620E-03     31.3517E-03
             602     6.13615E-03     74.5918E-03    -20.7900E+06    -89.8098E+06    -6.52492E+06    -1.06273E+06    -26.6583E-03     53.1378E-03    -26.4795E-03     36.4962E-03    -26.6307E-03     52.7365E-03    -26.3518E-03     36.4543E-03
             603     7.01281E-03     74.6288E-03    -18.5241E+06    -83.3440E+06    -3.12425E+06    -1.19334E+06    -26.7345E-03     53.2080E-03    -26.4735E-03     41.5160E-03    -26.7139E-03     52.8348E-03    -26.3414E-03     41.4643E-03
             604     7.88951E-03     74.6706E-03    -16.4368E+06    -77.8548E+06    -879.278E+03    -1.29042E+06    -26.8245E-03     53.2881E-03    -26.4636E-03     46.4134E-03    -26.8105E-03     52.9419E-03    -26.3313E-03     46.3504E-03
             605     8.76618E-03     74.7169E-03    -14.5112E+06    -71.9014E+06     47.4548E+03    -1.29499E+06    -26.9262E-03     53.3735E-03    -26.4473E-03     51.1937E-03    -26.9207E-03     53.0611E-03    -26.3218E-03     51.1186E-03
             606     9.64290E-03     74.7677E-03    -12.8364E+06    -65.4870E+06     403.190E+03    -1.24521E+06    -27.0373E-03     53.4660E-03    -26.4287E-03     55.8378E-03    -27.0447E-03     53.1942E-03    -26.3131E-03     55.7488E-03
             607     10.5196E-03     74.8229E-03    -11.4183E+06    -58.9029E+06    -98.2380E+03    -1.16642E+06    -27.1711E-03     53.5785E-03    -26.4074E-03     60.5743E-03    -27.1967E-03     53.3547E-03    -26.3059E-03     60.4689E-03
             608     11.3963E-03     74.8827E-03    -10.3401E+06    -50.2871E+06    -1.93713E+06    -1.05651E+06    -27.3249E-03     53.7040E-03    -26.3792E-03     65.3856E-03    -27.3789E-03     53.5484E-03    -26.3009E-03     65.2607E-03
             609     12.2729E-03     74.9471E-03    -9.52076E+06    -38.2096E+06    -3.79137E+06    -1.43845E+06    -27.5066E-03     53.8562E-03    -26.3495E-03     70.4129E-03    -27.6080E-03     53.7991E-03    -26.2993E-03     70.2587E-03
             610     13.1494E-03     75.0165E-03    -8.85383E+06    -17.7518E+06    -5.93492E+06    -529.070E+03    -27.7854E-03     54.0960E-03    -26.3106E-03     77.9163E-03    -27.9735E-03     54.2069E-03    -26.3017E-03     77.7460E-03
             611     14.0258E-03     75.0953E-03    -10.5779E+06     19.3401E+06    -5.66687E+06     372.614E+03    -28.1975E-03     54.4665E-03    -26.2689E-03     88.6625E-03    -28.5750E-03     54.8915E-03    -26.3100E-03     88.4763E-03
             612     14.9017E-03     75.1851E-03    -12.6749E+06     71.2536E+06    -6.65362E+06    -38.9564E+03    -28.8261E-03     55.0340E-03    -26.2079E-03     105.002E-03    -29.6078E-03     56.0429E-03    -26.3261E-03     104.819E-03
             613     15.7776E-03     75.2933E-03    -7.68631E+06     122.073E+06     26.7008E+06     913.468E+03    -28.8302E-03     55.1148E-03    -26.2846E-03     133.253E-03    -30.4106E-03     57.0239E-03    -26.3170E-03     133.389E-03
             614     16.6572E-03     75.4396E-03    -2.21653E+06     142.669E+06     74.6208E+06     501.681E+03    -26.2538E-03     52.6732E-03    -26.4193E-03     90.9150E-03    -27.5967E-03     54.2983E-03    -26.2499E-03     91.2766E-03
             615     876.529E-06     75.4716E-03    -31.4829E+06    -118.775E+06    -31.0698E+06    -350.954E+03    -26.4809E-03     52.9363E-03    -26.4554E-03     5.71677E-03    -26.4211E-03     52.4334E-03    -26.3929E-03     5.70953E-03
             616     1.75310E-03     75.4792E-03    -30.6633E+06    -115.670E+06    -29.0163E+06    -583.061E+03    -26.4689E-03     52.9339E-03    -26.4650E-03     10.6212E-03    -26.4129E-03     52.4425E-03    -26.3979E-03     10.6084E-03
             617     2.62966E-03     75.4917E-03    -29.5516E+06    -111.622E+06    -25.4647E+06    -560.666E+03    -26.4787E-03     52.9452E-03    -26.4665E-03     15.7981E-03    -26.4287E-03     52.4678E-03    -26.3891E-03     15.7827E-03
             618     3.50629E-03     75.5092E-03    -27.9398E+06    -108.634E+06    -20.5062E+06    -792.567E+03    -26.5112E-03     52.9870E-03    -26.4759E-03     21.0001E-03    -26.4655E-03     52.5160E-03    -26.3804E-03     20.9781E-03
             619     4.38286E-03     75.5315E-03    -25.8556E+06    -102.854E+06    -15.7934E+06    -1.03987E+06    -26.5473E-03     53.0266E-03    -26.4793E-03     26.2123E-03    -26.5077E-03     52.5759E-03    -26.3716E-03     26.1827E-03
             620     5.25951E-03     75.5589E-03    -23.5453E+06    -95.7753E+06    -11.2483E+06    -1.24785E+06    -26.5930E-03     53.0716E-03    -26.4786E-03     31.3927E-03    -26.5607E-03     52.6483E-03    -26.3618E-03     31.3552E-03
             621     6.13614E-03     75.5911E-03    -21.1930E+06     -89.493E+06    -7.07047E+06    -1.48225E+06    -26.6554E-03     53.1319E-03    -26.4765E-03     36.5086E-03    -26.6294E-03     52.7335E-03    -26.3513E-03     36.4614E-03
             622     7.01283E-03     75.6281E-03    -18.8374E+06    -83.0236E+06    -3.67129E+06    -1.58599E+06    -26.7324E-03     53.2026E-03    -26.4702E-03     41.5397E-03    -26.7131E-03     52.8323E-03    -26.3408E-03     41.4830E-03
             623     7.88948E-03     75.6698E-03    -16.6255E+06    -77.6182E+06    -1.31330E+06    -1.68629E+06    -26.8262E-03     53.2871E-03    -26.4609E-03     46.4460E-03    -26.8128E-03     52.9430E-03    -26.3308E-03     46.3780E-03
             624     8.76620E-03     75.7162E-03    -14.6611E+06    -71.7564E+06    -408.919E+03    -1.74469E+06    -26.9274E-03     53.3720E-03    -26.4447E-03     51.2494E-03    -26.9221E-03     53.0612E-03    -26.3214E-03     51.1686E-03
             625     9.64286E-03     75.7670E-03    -12.9121E+06    -65.4554E+06        -461.291    -1.70606E+06    -27.0396E-03     53.4660E-03    -26.4264E-03     55.9243E-03    -27.0468E-03     53.1950E-03    -26.3128E-03     55.8295E-03
             626     10.5196E-03     75.8222E-03    -11.3463E+06    -58.8339E+06    -338.109E+03    -1.67776E+06    -27.1781E-03     53.5838E-03    -26.4057E-03     60.7247E-03    -27.2030E-03     53.3606E-03    -26.3056E-03     60.6127E-03
             627     11.3962E-03     75.8821E-03    -9.98111E+06    -50.5031E+06    -2.05443E+06    -1.51437E+06    -27.3228E-03     53.7005E-03    -26.3777E-03     65.6395E-03    -27.3744E-03     53.5433E-03    -26.3003E-03     65.5091E-03
             628     12.2729E-03     75.9465E-03    -9.47546E+06    -37.6774E+06    -3.51018E+06    -1.26412E+06    -27.4741E-03     53.8214E-03    -26.3473E-03     70.8937E-03    -27.5765E-03     53.7665E-03    -26.2965E-03     70.7421E-03
             629     13.1495E-03     76.0161E-03    -9.68945E+06    -20.0161E+06    -6.63535E+06    -587.622E+03    -27.6421E-03     53.9439E-03    -26.3018E-03     78.6063E-03    -27.8304E-03     54.0460E-03    -26.2919E-03     78.4363E-03
             630     14.0263E-03     76.0948E-03    -8.84810E+06     17.5557E+06    -6.75099E+06     1.93611E+06    -27.6915E-03     53.9231E-03    -26.2317E-03     89.6147E-03    -28.0535E-03     54.3356E-03    -26.2780E-03     89.4543E-03
             631     14.9039E-03     76.1847E-03    -8.49493E+06     75.0483E+06    -3.56090E+06     1.65290E+06    -28.4858E-03     54.6368E-03    -26.1510E-03     107.180E-03    -29.2608E-03     55.6584E-03    -26.2653E-03     107.026E-03
             632     15.7798E-03     76.2954E-03    -8.52668E+06     121.260E+06     25.2184E+06    -893.548E+03    -28.9993E-03     55.2151E-03    -26.2158E-03     132.361E-03    -30.5788E-03     57.1217E-03    -26.2531E-03     132.480E-03
             633     16.6587E-03     76.4320E-03    -3.70249E+06     140.728E+06     71.2680E+06    -1.08718E+06    -26.6593E-03     53.0283E-03    -26.3690E-03     89.5620E-03    -28.0007E-03     54.6496E-03    -26.2114E-03     89.9058E-03
             634     876.538E-06     76.4709E-03    -32.3218E+06    -117.904E+06    -31.7749E+06    -422.710E+03    -26.4771E-03     52.9115E-03    -26.4344E-03     5.73808E-03    -26.4218E-03     52.4152E-03    -26.3755E-03     5.72992E-03
             635     1.75312E-03     76.4785E-03    -31.6096E+06    -115.279E+06    -29.4575E+06    -624.575E+03    -26.4677E-03     52.9253E-03    -26.4576E-03     10.6264E-03    -26.4163E-03     52.4379E-03    -26.3919E-03     10.6131E-03
             636     2.62970E-03     76.4911E-03    -30.1576E+06    -111.323E+06    -25.5194E+06    -702.753E+03    -26.4815E-03     52.9459E-03    -26.4644E-03     15.7991E-03    -26.4348E-03     52.4710E-03    -26.3869E-03     15.7818E-03
             637     3.50626E-03     76.5084E-03    -28.1914E+06    -107.947E+06    -20.7226E+06    -971.671E+03    -26.5071E-03     52.9803E-03    -26.4732E-03     21.0029E-03    -26.4634E-03     52.5133E-03    -26.3794E-03     20.9786E-03
             638     4.38289E-03     76.5309E-03    -26.0052E+06    -102.328E+06    -16.0851E+06    -1.33277E+06    -26.5417E-03     53.0175E-03    -26.4758E-03     26.2168E-03    -26.5032E-03     52.5701E-03    -26.3702E-03     26.1835E-03
             639     5.25950E-03     76.5581E-03    -23.6871E+06    -95.1940E+06    -11.6953E+06    -1.64416E+06    -26.5851E-03     53.0587E-03    -26.4736E-03     31.4037E-03    -26.5538E-03     52.6392E-03    -26.3597E-03     31.3611E-03
             640     6.13618E-03     76.5904E-03    -21.3106E+06    -89.0024E+06    -7.41604E+06    -1.89284E+06    -26.6467E-03     53.1180E-03    -26.4713E-03     36.5277E-03    -26.6216E-03     52.7227E-03    -26.3484E-03     36.4752E-03
             641     7.01282E-03     76.6273E-03    -18.9779E+06    -82.6680E+06    -3.97662E+06    -2.09975E+06    -26.7201E-03     53.1846E-03    -26.4645E-03     41.5692E-03    -26.7015E-03     52.8167E-03    -26.3370E-03     41.5059E-03
             642     7.88956E-03     76.6691E-03    -16.7205E+06    -77.3056E+06    -1.55004E+06    -2.18883E+06    -26.8113E-03     53.2658E-03    -26.4545E-03     46.4940E-03    -26.7985E-03     52.9237E-03    -26.3259E-03     46.4196E-03
             643     8.76621E-03     76.7154E-03    -14.6993E+06     -71.539E+06    -547.214E+03    -2.24478E+06    -26.9132E-03     53.3510E-03    -26.4378E-03     51.3040E-03    -26.9083E-03     53.0415E-03    -26.3155E-03     51.2168E-03
             644     9.64299E-03     76.7663E-03    -12.9733E+06    -65.3564E+06    -68.1253E+03    -2.21809E+06    -27.0164E-03     53.4352E-03    -26.4188E-03     56.0073E-03    -27.0239E-03     53.1648E-03    -26.3056E-03     55.9060E-03
             645     10.5197E-03     76.8214E-03    -11.6173E+06    -58.7804E+06    -485.925E+03    -2.13589E+06    -27.1283E-03     53.5238E-03    -26.3955E-03     60.8469E-03    -27.1544E-03     53.3014E-03    -26.2958E-03     60.7293E-03
             646     11.3965E-03     76.8814E-03    -10.6715E+06    -50.6685E+06    -2.24421E+06    -2.02025E+06    -27.2230E-03     53.5861E-03    -26.3631E-03     65.7772E-03    -27.2774E-03     53.4293E-03    -26.2854E-03     65.6407E-03
             647     12.2732E-03     76.9457E-03    -9.81444E+06    -38.5311E+06    -3.57413E+06    -1.17380E+06    -27.3196E-03     53.6451E-03    -26.3255E-03     71.0881E-03    -27.4224E-03     53.5867E-03    -26.2733E-03     70.9384E-03
             648     13.1502E-03     77.0155E-03    -8.82021E+06    -20.1951E+06    -5.73739E+06    -809.059E+03    -27.3725E-03     53.6419E-03    -26.2694E-03     78.5493E-03    -27.5569E-03     53.7400E-03    -26.2560E-03     78.3783E-03
             649     14.0274E-03     77.0936E-03    -7.37519E+06     14.2850E+06    -9.11674E+06    -154.321E+03    -27.4532E-03     53.6264E-03    -26.1731E-03     89.1332E-03    -27.7994E-03     54.0235E-03    -26.2287E-03     88.9476E-03
             650     14.9047E-03     77.1831E-03    -5.06050E+06     75.4716E+06    -641.124E+03     2.08100E+06    -27.7527E-03     53.8383E-03    -26.0855E-03     106.903E-03    -28.5075E-03     54.8448E-03    -26.1908E-03     106.765E-03
             651     15.7825E-03     77.2964E-03    -6.07180E+06     125.593E+06     33.7299E+06     620.144E+03    -28.7126E-03     54.8619E-03    -26.1493E-03     132.441E-03    -30.2950E-03     56.7707E-03    -26.1539E-03     132.583E-03
             652     16.6558E-03     77.4317E-03    -5.90954E+06     139.790E+06     71.9866E+06    -1.20884E+06    -28.0888E-03     54.4005E-03    -26.3118E-03     91.7291E-03    -29.4579E-03     56.0362E-03    -26.1459E-03     92.0575E-03
             653     876.617E-06     77.4702E-03    -33.4667E+06    -117.127E+06    -32.8586E+06    -468.019E+03    -26.4535E-03     52.8830E-03    -26.4295E-03     5.74074E-03    -26.4035E-03     52.3938E-03    -26.3754E-03     5.73199E-03
             654     1.75312E-03     77.4778E-03    -32.3373E+06    -114.613E+06    -29.7309E+06    -740.994E+03    -26.4677E-03     52.9175E-03    -26.4498E-03     10.6162E-03    -26.4206E-03     52.4349E-03    -26.3854E-03     10.6014E-03
             655     2.62968E-03     77.4903E-03    -30.6237E+06    -110.815E+06    -25.7712E+06    -1.01660E+06    -26.4779E-03     52.9376E-03    -26.4597E-03     15.7976E-03    -26.4339E-03     52.4663E-03    -26.3835E-03     15.7763E-03
             656     3.50629E-03     77.5078E-03    -28.5510E+06    -107.179E+06    -21.1298E+06    -1.33822E+06    -26.5008E-03     52.9683E-03    -26.4675E-03     21.0071E-03    -26.4594E-03     52.5063E-03    -26.3763E-03     20.9780E-03
             657     4.38288E-03     77.5301E-03    -26.2589E+06    -101.594E+06    -16.4275E+06    -1.71392E+06    -26.5324E-03     53.0023E-03    -26.4699E-03     26.2239E-03    -26.4958E-03     52.5595E-03    -26.3666E-03     26.1857E-03
             658     5.25955E-03     77.5575E-03    -23.8889E+06    -94.4806E+06    -11.9582E+06    -2.09060E+06    -26.5752E-03     53.0425E-03    -26.4672E-03     31.4095E-03    -26.5455E-03     52.6272E-03    -26.3554E-03     31.3611E-03
             659     6.13619E-03     77.5896E-03    -21.4808E+06    -88.4332E+06    -7.67447E+06    -2.38556E+06    -26.6333E-03     53.0976E-03    -26.4643E-03     36.5338E-03    -26.6094E-03     52.7058E-03    -26.3433E-03     36.4750E-03
             660     7.01291E-03     77.6267E-03    -19.1226E+06    -82.1412E+06    -4.14330E+06    -2.57786E+06    -26.7038E-03     53.1608E-03    -26.4570E-03     41.5704E-03    -26.6864E-03     52.7959E-03    -26.3309E-03     41.5010E-03
             661     7.88958E-03     77.6683E-03    -16.9443E+06    -76.9759E+06    -1.78079E+06    -2.72697E+06    -26.7908E-03     53.2366E-03    -26.4458E-03     46.4950E-03    -26.7792E-03     52.8968E-03    -26.3185E-03     46.4137E-03
             662     8.76636E-03     77.7147E-03    -15.0108E+06    -71.2637E+06    -841.250E+03    -2.71759E+06    -26.8896E-03     53.3173E-03    -26.4277E-03     51.3018E-03    -26.8862E-03     53.0101E-03    -26.3068E-03     51.2085E-03
             663     9.64304E-03     77.7654E-03    -13.3605E+06    -65.2306E+06    -411.655E+03    -2.69122E+06    -26.9844E-03     53.3916E-03    -26.4072E-03     55.9878E-03    -26.9935E-03     53.1229E-03    -26.2953E-03     55.8804E-03
             664     10.5199E-03     77.8207E-03    -11.9813E+06    -58.8691E+06    -977.587E+03    -2.45351E+06    -27.0724E-03     53.4533E-03    -26.3809E-03     60.7901E-03    -27.0994E-03     53.2316E-03    -26.2831E-03     60.6686E-03
             665     11.3967E-03     77.8804E-03    -11.0332E+06    -50.6704E+06    -2.74564E+06    -2.15724E+06    -27.1602E-03     53.5053E-03    -26.3451E-03     65.6266E-03    -27.2157E-03     53.3498E-03    -26.2694E-03     65.4884E-03
             666     12.2736E-03     77.9448E-03    -10.0116E+06    -39.4222E+06    -4.31356E+06    -1.98838E+06    -27.2339E-03     53.5377E-03    -26.3039E-03     70.8158E-03    -27.3352E-03     53.4761E-03    -26.2537E-03     70.6560E-03
             667     13.1505E-03     78.0145E-03    -9.15390E+06    -20.0924E+06    -5.88487E+06    -1.47149E+06    -27.3277E-03     53.5753E-03    -26.2476E-03     77.8718E-03    -27.5132E-03     53.6741E-03    -26.2346E-03     77.6924E-03
             668     14.0277E-03     78.0922E-03    -8.95434E+06     13.1929E+06    -10.0626E+06    -1.19772E+06    -27.6784E-03     53.8382E-03    -26.1598E-03     88.4081E-03    -28.0314E-03     54.2354E-03    -26.2162E-03     88.2066E-03
             669     14.9043E-03     78.1825E-03    -8.69945E+06     72.1177E+06    -2.03423E+06    -557.768E+03    -27.6813E-03     53.7678E-03    -26.0865E-03     104.967E-03    -28.4401E-03     54.7576E-03    -26.1886E-03     104.794E-03
             670     15.7830E-03     78.2925E-03    -4.76043E+06     127.848E+06     36.8535E+06     1.61756E+06    -28.2377E-03     54.3882E-03    -26.1505E-03     129.896E-03    -29.7953E-03     56.2757E-03    -26.1447E-03     130.046E-03
             671     16.6655E-03     78.4338E-03    -3.82995E+06     142.046E+06     73.8219E+06     1.51869E+06    -28.1948E-03     54.4966E-03    -26.3018E-03     89.5878E-03    -29.5341E-03     56.1124E-03    -26.1331E-03     89.9346E-03
             672     876.511E-06     78.4695E-03    -33.1651E+06    -116.040E+06    -32.4076E+06    -479.413E+03    -26.4529E-03     52.8976E-03    -26.4447E-03     5.72402E-03    -26.4036E-03     52.4128E-03    -26.3904E-03     5.71515E-03
             673     1.75313E-03     78.4771E-03    -32.2236E+06    -113.849E+06    -29.9181E+06    -896.478E+03    -26.4477E-03     52.8974E-03    -26.4497E-03     10.6138E-03    -26.4008E-03     52.4187E-03    -26.3875E-03     10.5970E-03
             674     2.62971E-03     78.4896E-03    -30.7373E+06    -109.975E+06    -26.1516E+06    -1.29579E+06    -26.4686E-03     52.9214E-03    -26.4528E-03     15.7958E-03    -26.4259E-03     52.4549E-03    -26.3795E-03     15.7708E-03
             675     3.50629E-03     78.5070E-03    -28.7948E+06    -106.293E+06    -21.4458E+06    -1.73573E+06    -26.4927E-03     52.9528E-03    -26.4601E-03     21.0038E-03    -26.4533E-03     52.4961E-03    -26.3715E-03     20.9696E-03
             676     4.38293E-03     78.5294E-03    -26.5592E+06    -100.731E+06    -16.7367E+06    -2.14763E+06    -26.5244E-03     52.9869E-03    -26.4625E-03     26.2202E-03    -26.4901E-03     52.5493E-03    -26.3616E-03     26.1764E-03
             677     5.25955E-03     78.5566E-03    -24.2277E+06    -93.6348E+06    -12.2817E+06    -2.53258E+06    -26.5679E-03     53.0277E-03    -26.4598E-03     31.4037E-03    -26.5406E-03     52.6177E-03    -26.3503E-03     31.3496E-03
             678     6.13625E-03     78.5889E-03    -21.8808E+06    -87.7139E+06    -8.05874E+06    -2.87559E+06    -26.6259E-03     53.0829E-03    -26.4569E-03     36.5122E-03    -26.6045E-03     52.6958E-03    -26.3383E-03     36.4471E-03
             679     7.01292E-03     78.6258E-03    -19.5536E+06    -81.6157E+06    -4.66161E+06    -3.08186E+06    -26.6956E-03     53.1449E-03    -26.4493E-03     41.5400E-03    -26.6804E-03     52.7841E-03    -26.3259E-03     41.4641E-03
             680     7.88967E-03     78.6676E-03    -17.3817E+06    -76.4794E+06    -2.32811E+06    -3.18660E+06    -26.7823E-03     53.2204E-03    -26.4380E-03     46.4457E-03    -26.7729E-03     52.8845E-03    -26.3136E-03     46.3584E-03
             681     8.76636E-03     78.7138E-03    -15.4342E+06    -71.0831E+06    -1.55083E+06    -3.21751E+06    -26.8753E-03     53.2946E-03    -26.4193E-03     51.2332E-03    -26.8733E-03     52.9899E-03    -26.3016E-03     51.1335E-03
             682     9.64319E-03     78.7647E-03    -13.7385E+06    -64.9410E+06    -1.16568E+06    -3.14267E+06    -26.9717E-03     53.3697E-03    -26.3980E-03     55.8853E-03    -26.9821E-03     53.1041E-03    -26.2897E-03     55.7720E-03
             683     10.5199E-03     78.8197E-03    -12.2400E+06    -59.0586E+06    -1.80637E+06    -3.00827E+06    -27.0704E-03     53.4425E-03    -26.3721E-03     60.6175E-03    -27.0973E-03     53.2215E-03    -26.2777E-03     60.4886E-03
             684     11.3968E-03     78.8796E-03    -10.7340E+06    -50.7370E+06    -3.38692E+06    -2.65259E+06    -27.1901E-03     53.5282E-03    -26.3381E-03     65.4254E-03    -27.2432E-03     53.3729E-03    -26.2659E-03     65.2805E-03
             685     12.2735E-03     78.9438E-03    -10.0544E+06    -39.5837E+06    -4.79328E+06    -2.35018E+06    -27.2824E-03     53.5842E-03    -26.3019E-03     70.4448E-03    -27.3828E-03     53.5224E-03    -26.2539E-03     70.2800E-03
             686     13.1505E-03     79.0134E-03    -9.83032E+06    -20.8911E+06    -7.04067E+06    -1.66961E+06    -27.5047E-03     53.7570E-03    -26.2524E-03     77.5580E-03    -27.6906E-03     53.8543E-03    -26.2430E-03     77.3751E-03
             687     14.0269E-03     79.0913E-03    -9.84179E+06     13.0515E+06    -11.9303E+06    -1.25654E+06    -27.9403E-03     54.1143E-03    -26.1740E-03     88.3274E-03    -28.2949E-03     54.5149E-03    -26.2383E-03     88.1231E-03
             688     14.9038E-03     79.1820E-03    -9.91543E+06     71.8982E+06    -2.93418E+06    -936.853E+03    -28.4834E-03     54.6208E-03    -26.1374E-03     104.078E-03    -29.2471E-03     55.6131E-03    -26.2420E-03     103.888E-03
             689     15.7798E-03     79.2901E-03    -8.90607E+06     123.630E+06     30.7515E+06     391.519E+03    -29.4299E-03     55.6703E-03    -26.2404E-03     129.430E-03    -31.0119E-03     57.5702E-03    -26.2530E-03     129.532E-03
             690     16.6506E-03     79.4328E-03    -3.93039E+06     141.247E+06     70.6723E+06     997.235E+03    -26.9070E-03     53.2969E-03    -26.3898E-03     89.4314E-03    -28.2534E-03     54.9257E-03    -26.2356E-03     89.7705E-03
             691     876.554E-06     79.4687E-03    -33.3045E+06    -115.071E+06    -32.7950E+06    -428.671E+03    -26.4378E-03     52.8886E-03    -26.4509E-03     5.72280E-03    -26.3900E-03     52.4094E-03    -26.3997E-03     5.71457E-03
             692     1.75311E-03     79.4764E-03    -32.4370E+06    -112.761E+06    -30.3871E+06    -953.085E+03    -26.4440E-03     52.8880E-03    -26.4440E-03     10.6279E-03    -26.3991E-03     52.4157E-03    -26.3854E-03     10.6104E-03
             693     2.62971E-03     79.4888E-03    -31.0497E+06    -108.854E+06    -26.7070E+06    -1.55570E+06    -26.4582E-03     52.9042E-03    -26.4459E-03     15.7878E-03    -26.4179E-03     52.4446E-03    -26.3766E-03     15.7595E-03
             694     3.50633E-03     79.5063E-03    -29.1432E+06    -105.241E+06    -21.9356E+06    -2.09602E+06    -26.4862E-03     52.9392E-03    -26.4530E-03     20.9837E-03    -26.4494E-03     52.4889E-03    -26.3678E-03     20.9449E-03
             695     4.38293E-03     79.5286E-03    -26.9308E+06    -99.7076E+06    -17.1793E+06    -2.57664E+06    -26.5213E-03     52.9773E-03    -26.4560E-03     26.1995E-03    -26.4897E-03     52.5459E-03    -26.3583E-03     26.1502E-03
             696     5.25960E-03     79.5560E-03    -24.5767E+06    -92.7167E+06    -12.7596E+06    -2.98340E+06    -26.5668E-03     53.0207E-03    -26.4540E-03     31.3734E-03    -26.5419E-03     52.6165E-03    -26.3477E-03     31.3134E-03
             697     6.13624E-03     79.5880E-03    -22.2207E+06    -86.8650E+06    -8.57798E+06    -3.31974E+06    -26.6280E-03     53.0798E-03    -26.4518E-03     36.4737E-03    -26.6088E-03     52.6982E-03    -26.3365E-03     36.4027E-03
             698     7.01295E-03     79.6251E-03    -19.9072E+06    -80.9570E+06    -5.27945E+06    -3.61140E+06    -26.7010E-03     53.1461E-03    -26.4451E-03     41.4926E-03    -26.6877E-03     52.7900E-03    -26.3252E-03     41.4097E-03
             699     7.88963E-03     79.6667E-03    -17.6542E+06    -75.9850E+06    -3.02610E+06    -3.74478E+06    -26.7873E-03     53.2217E-03    -26.4345E-03     46.3910E-03    -26.7789E-03     52.8898E-03    -26.3138E-03     46.2964E-03
             700     8.76639E-03     79.7131E-03    -15.6129E+06    -70.6928E+06    -2.19868E+06    -3.79649E+06    -26.8816E-03     53.2984E-03    -26.4168E-03     51.1614E-03    -26.8801E-03     52.9968E-03    -26.3026E-03     51.0541E-03
             701     9.64308E-03     79.7637E-03    -13.8336E+06    -64.8328E+06    -1.85915E+06    -3.70859E+06    -26.9777E-03     53.3739E-03    -26.3962E-03     55.8095E-03    -26.9876E-03     53.1100E-03    -26.2915E-03     55.6889E-03
             702     10.5199E-03     79.8190E-03    -12.3547E+06    -58.8147E+06    -2.36011E+06    -3.59954E+06    -27.1011E-03     53.4735E-03    -26.3724E-03     60.5427E-03    -27.1281E-03     53.2546E-03    -26.2810E-03     60.4062E-03
             703     11.3966E-03     79.8786E-03    -11.2960E+06    -51.1368E+06    -4.27744E+06    -3.41168E+06    -27.2346E-03     53.5757E-03    -26.3411E-03     65.4007E-03    -27.2886E-03     53.4204E-03    -26.2720E-03     65.2461E-03
             704     12.2734E-03     79.9433E-03    -10.3674E+06    -40.1996E+06    -5.30345E+06    -2.42207E+06    -27.3601E-03     53.6708E-03    -26.3108E-03     70.4151E-03    -27.4602E-03     53.6068E-03    -26.2640E-03     70.2492E-03
             705     13.1500E-03     80.0122E-03    -9.73534E+06    -21.4038E+06    -7.42104E+06    -1.92909E+06    -27.5788E-03     53.8439E-03    -26.2651E-03     77.8628E-03    -27.7628E-03     53.9389E-03    -26.2570E-03     77.6764E-03
             706     14.0268E-03     80.0913E-03    -9.62969E+06     12.4337E+06    -12.5264E+06    -1.12570E+06    -27.9520E-03     54.1379E-03    -26.1859E-03     89.0087E-03    -28.3027E-03     54.5349E-03    -26.2526E-03     88.8066E-03
             707     14.9032E-03     80.1809E-03    -10.1002E+06     70.9386E+06    -4.50712E+06     363.308E+03    -28.7336E-03     54.8812E-03    -26.1476E-03     106.218E-03    -29.5028E-03     55.8794E-03    -26.2583E-03     106.041E-03
             708     15.7783E-03     80.2926E-03    -8.65745E+06     123.550E+06     29.8230E+06     63.6319E+03    -29.4932E-03     55.7431E-03    -26.2499E-03     133.143E-03    -31.1077E-03     57.6789E-03    -26.2674E-03     133.254E-03
             709     16.6599E-03     80.4323E-03    -4.07793E+06     141.614E+06     70.6196E+06    -455.904E+03    -26.7673E-03     53.1586E-03    -26.3913E-03     91.1341E-03    -28.1381E-03     54.8129E-03    -26.2377E-03     91.4712E-03
             710     876.598E-06     80.4681E-03    -33.6213E+06    -114.034E+06    -33.2776E+06    -559.757E+03    -26.4255E-03     52.8693E-03    -26.4438E-03     5.69520E-03    -26.3801E-03     52.3964E-03    -26.3961E-03     5.68527E-03
             711     1.75314E-03     80.4756E-03    -32.8023E+06    -111.483E+06    -30.8076E+06    -1.16395E+06    -26.4483E-03     52.8850E-03    -26.4367E-03     10.6104E-03    -26.4064E-03     52.4203E-03    -26.3815E-03     10.5901E-03
             712     2.62971E-03     80.4882E-03    -31.3447E+06    -107.468E+06    -27.0546E+06    -1.79945E+06    -26.4588E-03     52.9011E-03    -26.4423E-03     15.7745E-03    -26.4214E-03     52.4494E-03    -26.3763E-03     15.7430E-03
             713     3.50631E-03     80.5055E-03    -29.4904E+06    -103.957E+06    -22.4364E+06    -2.47223E+06    -26.4841E-03     52.9337E-03    -26.4495E-03     20.9632E-03    -26.4502E-03     52.4910E-03    -26.3682E-03     20.9195E-03
             714     4.38295E-03     80.5279E-03       -27.3E+06    -98.5673E+06    -17.7553E+06    -3.00664E+06    -26.5238E-03     52.9767E-03    -26.4529E-03     26.1770E-03    -26.4948E-03     52.5524E-03    -26.3592E-03     26.1221E-03
             715     5.25956E-03     80.5551E-03    -24.9803E+06    -91.6509E+06    -13.3509E+06    -3.47384E+06    -26.5703E-03     53.0222E-03    -26.4519E-03     31.3450E-03    -26.5482E-03     52.6247E-03    -26.3495E-03     31.2786E-03
             716     6.13624E-03     80.5874E-03    -22.5499E+06    -85.9253E+06    -9.18784E+06    -3.87944E+06    -26.6335E-03     53.0840E-03    -26.4505E-03     36.4447E-03    -26.6164E-03     52.7085E-03    -26.3392E-03     36.3665E-03
             717     7.01289E-03     80.6242E-03    -20.1324E+06    -80.0975E+06    -5.82346E+06    -4.20397E+06    -26.7089E-03     53.1538E-03    -26.4449E-03     41.4634E-03    -26.6971E-03     52.8031E-03    -26.3287E-03     41.3729E-03
             718     7.88961E-03     80.6660E-03    -17.8602E+06    -75.4066E+06    -3.58145E+06    -4.43505E+06    -26.7941E-03     53.2295E-03    -26.4353E-03     46.3633E-03    -26.7869E-03     52.9015E-03    -26.3180E-03     46.2598E-03
             719     8.76630E-03     80.7122E-03    -15.7755E+06    -70.2544E+06    -2.69574E+06    -4.47790E+06    -26.8879E-03     53.3064E-03    -26.4185E-03     51.1450E-03    -26.8871E-03     53.0080E-03    -26.3072E-03     51.0289E-03
             720     9.64307E-03     80.7631E-03    -13.9638E+06    -64.6564E+06    -2.28936E+06    -4.39944E+06    -26.9871E-03     53.3861E-03    -26.3990E-03     55.7984E-03    -26.9973E-03     53.1238E-03    -26.2964E-03     55.6690E-03
             721     10.5198E-03     80.8180E-03    -12.4832E+06    -58.7460E+06    -2.77497E+06    -4.11455E+06    -27.1133E-03     53.4891E-03    -26.3758E-03     60.5820E-03    -27.1403E-03     53.2713E-03    -26.2864E-03     60.4389E-03
             722     11.3966E-03     80.8781E-03    -11.5071E+06    -51.2440E+06    -4.65728E+06    -3.73734E+06    -27.2433E-03     53.5887E-03    -26.3454E-03     65.4413E-03    -27.2974E-03     53.4336E-03    -26.2777E-03     65.2825E-03
             723     12.2733E-03     80.9421E-03    -10.3245E+06    -41.1045E+06    -6.03054E+06    -3.44968E+06    -27.3563E-03     53.6699E-03    -26.3136E-03     70.5484E-03    -27.4538E-03     53.6023E-03    -26.2692E-03     70.3694E-03
             724     13.1501E-03     81.0119E-03    -9.07485E+06    -21.9480E+06    -7.76083E+06    -2.52059E+06    -27.5193E-03     53.7848E-03    -26.2654E-03     78.0454E-03    -27.6988E-03     53.8766E-03    -26.2592E-03     77.8516E-03
             725     14.0270E-03     81.0899E-03    -8.89429E+06     10.3592E+06    -12.9861E+06    -858.437E+03    -27.7070E-03     53.8843E-03    -26.1774E-03     89.2191E-03    -28.0494E-03     54.2696E-03    -26.2444E-03     89.0225E-03
             726     14.9042E-03     81.1811E-03    -8.36616E+06     69.7889E+06    -4.85807E+06     89.9779E+03    -28.0338E-03     54.1417E-03    -26.1079E-03     106.905E-03    -28.7920E-03     55.1321E-03    -26.2213E-03     106.735E-03
             727     15.7829E-03     81.2918E-03    -6.55176E+06     125.573E+06     32.5120E+06    -116.594E+03    -28.8093E-03     54.9935E-03    -26.1842E-03     132.253E-03    -30.4067E-03     56.9192E-03    -26.1942E-03     132.382E-03
             728     16.6567E-03     81.4305E-03    -4.61141E+06     141.727E+06     72.0785E+06    -382.533E+03    -27.6042E-03     53.9418E-03    -26.3376E-03     88.6413E-03    -28.9619E-03     55.5772E-03    -26.1760E-03     88.9739E-03
             729     876.510E-06     81.4672E-03    -34.1370E+06    -112.685E+06    -33.6270E+06    -764.819E+03    -26.4272E-03     52.8712E-03    -26.4440E-03     5.68972E-03    -26.3859E-03     52.4064E-03    -26.3992E-03     5.67714E-03
             730     1.75313E-03     81.4750E-03    -33.2042E+06    -109.995E+06    -31.2112E+06    -1.38987E+06    -26.4454E-03     52.8822E-03    -26.4368E-03     10.6042E-03    -26.4071E-03     52.4261E-03    -26.3852E-03     10.5810E-03
             731     2.62970E-03     81.4874E-03    -31.7131E+06    -105.938E+06    -27.5089E+06    -2.13302E+06    -26.4606E-03     52.9023E-03    -26.4416E-03     15.7560E-03    -26.4267E-03     52.4594E-03    -26.3796E-03     15.7202E-03
             732     3.50631E-03     81.5049E-03    -29.8226E+06    -102.447E+06    -22.8689E+06    -2.82380E+06    -26.4901E-03     52.9400E-03    -26.4500E-03     20.9520E-03    -26.4593E-03     52.5061E-03    -26.3725E-03     20.9037E-03
             733     4.38290E-03     81.5271E-03    -27.6542E+06    -97.2339E+06    -18.2359E+06    -3.47986E+06    -26.5265E-03     52.9806E-03    -26.4541E-03     26.1607E-03    -26.5006E-03     52.5642E-03    -26.3642E-03     26.0996E-03
             734     5.25956E-03     81.5545E-03    -25.2537E+06    -90.3865E+06    -13.8490E+06    -4.04744E+06    -26.5735E-03     53.0266E-03    -26.4531E-03     31.3333E-03    -26.5538E-03     52.6366E-03    -26.3547E-03     31.2595E-03
             735     6.13618E-03     81.5865E-03    -22.7941E+06    -84.8094E+06    -9.63521E+06    -4.54257E+06    -26.6367E-03     53.0891E-03    -26.4523E-03     36.4359E-03    -26.6219E-03     52.7201E-03    -26.3445E-03     36.3491E-03
             736     7.01288E-03     81.6236E-03    -20.3544E+06    -79.1568E+06    -6.23965E+06    -4.90813E+06    -26.7090E-03     53.1559E-03    -26.4469E-03     41.4594E-03    -26.6991E-03     52.8109E-03    -26.3338E-03     41.3597E-03
             737     7.88955E-03     81.6652E-03    -18.0372E+06    -74.6371E+06    -3.91879E+06    -5.15155E+06    -26.7946E-03     53.2323E-03    -26.4376E-03     46.3600E-03    -26.7889E-03     52.9089E-03    -26.3228E-03     46.2472E-03
             738     8.76629E-03     81.7115E-03    -15.9635E+06    -69.7989E+06    -3.12825E+06    -5.24050E+06    -26.8892E-03     53.3097E-03    -26.4205E-03     51.1474E-03    -26.8893E-03     53.0144E-03    -26.3118E-03     51.0215E-03
             739     9.64300E-03     81.7621E-03    -14.1136E+06    -64.3372E+06    -2.73220E+06    -5.15454E+06    -26.9941E-03     53.3952E-03    -26.4011E-03     55.8041E-03    -27.0048E-03     53.1354E-03    -26.3010E-03     55.6648E-03
             740     10.5198E-03     81.8174E-03    -12.5121E+06    -58.9542E+06    -3.33333E+06    -4.81404E+06    -27.1125E-03     53.4904E-03    -26.3779E-03     60.5984E-03    -27.1386E-03     53.2724E-03    -26.2909E-03     60.4462E-03
             741     11.3965E-03     81.8770E-03    -11.0514E+06    -51.3408E+06    -4.91067E+06    -4.31356E+06    -27.2238E-03     53.5707E-03    -26.3469E-03     65.4475E-03    -27.2752E-03     53.4148E-03    -26.2809E-03     65.2812E-03
             742     12.2733E-03     81.9415E-03    -10.3774E+06    -41.0290E+06    -6.32748E+06    -4.10705E+06    -27.3278E-03     53.6411E-03    -26.3133E-03     70.5322E-03    -27.4253E-03     53.5745E-03    -26.2704E-03     70.3445E-03
             743     13.1501E-03     82.0106E-03    -9.90697E+06    -23.4218E+06    -8.63997E+06    -3.40834E+06    -27.4908E-03     53.7546E-03    -26.2638E-03     77.9544E-03    -27.6714E-03     53.8420E-03    -26.2587E-03     77.7490E-03
             744     14.0269E-03     82.0895E-03    -8.72465E+06     8.34203E+06    -13.5815E+06    -1.84106E+06    -27.6614E-03     53.8366E-03    -26.1751E-03     88.6756E-03    -27.9997E-03     54.2128E-03    -26.2425E-03     88.4663E-03
             745     14.9044E-03     82.1788E-03    -7.93039E+06     69.4461E+06    -4.25057E+06    -806.303E+03    -27.9800E-03     54.0887E-03    -26.1087E-03     105.708E-03    -28.7345E-03     55.0739E-03    -26.2191E-03     105.528E-03
             746     15.7807E-03     82.2912E-03    -7.72082E+06     124.925E+06     32.6182E+06    -147.622E+03    -28.8282E-03     55.0167E-03    -26.1885E-03     130.910E-03    -30.4180E-03     56.9279E-03    -26.1953E-03     131.034E-03
             747     16.6599E-03     82.4311E-03    -4.91392E+06     141.402E+06     72.0663E+06     181.887E+03    -27.5829E-03     53.9255E-03    -26.3426E-03     88.2757E-03    -28.9323E-03     55.5505E-03    -26.1802E-03     88.6125E-03
             748     876.621E-06     82.4667E-03    -34.5529E+06    -110.966E+06    -34.0275E+06    -951.729E+03    -26.4242E-03     52.8764E-03    -26.4522E-03     5.69129E-03    -26.3868E-03     52.4213E-03    -26.4113E-03     5.67625E-03
             749     1.75310E-03     82.4741E-03    -33.4989E+06    -108.233E+06    -31.5349E+06    -1.70048E+06    -26.4493E-03     52.8891E-03    -26.4398E-03     10.6020E-03    -26.4146E-03     52.4426E-03    -26.3919E-03     10.5747E-03
             750     2.62970E-03     82.4868E-03    -32.0479E+06    -104.253E+06    -27.9093E+06    -2.46844E+06    -26.4652E-03     52.9100E-03    -26.4448E-03     15.7503E-03    -26.4348E-03     52.4767E-03    -26.3867E-03     15.7102E-03
             751     3.50627E-03     82.5040E-03    -30.1597E+06    -100.783E+06    -23.2225E+06    -3.21805E+06    -26.4932E-03     52.9467E-03    -26.4535E-03     20.9394E-03    -26.4661E-03     52.5221E-03    -26.3798E-03     20.8860E-03
             752     4.38288E-03     82.5265E-03    -27.9267E+06    -95.5867E+06    -18.5466E+06    -3.99357E+06    -26.5283E-03     52.9859E-03    -26.4576E-03     26.1558E-03    -26.5056E-03     52.5786E-03    -26.3713E-03     26.0880E-03
             753     5.25949E-03     82.5537E-03    -25.5440E+06    -88.9357E+06    -14.2396E+06    -4.69836E+06    -26.5734E-03     53.0294E-03    -26.4561E-03     31.3313E-03    -26.5567E-03     52.6477E-03    -26.3613E-03     31.2490E-03
             754     6.13617E-03     82.5859E-03    -23.0802E+06    -83.5154E+06    -10.0463E+06    -5.23172E+06    -26.6343E-03     53.0890E-03    -26.4547E-03     36.4331E-03    -26.6221E-03     52.7275E-03    -26.3504E-03     36.3374E-03
             755     7.01282E-03     82.6227E-03    -20.6594E+06    -78.0757E+06    -6.67037E+06    -5.65065E+06    -26.7046E-03     53.1533E-03    -26.4487E-03     41.4539E-03    -26.6972E-03     52.8147E-03    -26.3389E-03     41.3446E-03
             756     7.88954E-03     82.6645E-03    -18.3175E+06    -73.6961E+06    -4.41663E+06    -5.96954E+06    -26.7906E-03     53.2290E-03    -26.4385E-03     46.3568E-03    -26.7869E-03     52.9115E-03    -26.3271E-03     46.2335E-03
             757     8.76624E-03     82.7106E-03    -16.1180E+06    -69.2103E+06    -3.65491E+06    -6.09597E+06    -26.8907E-03     53.3118E-03    -26.4212E-03     51.1451E-03    -26.8917E-03     53.0205E-03    -26.3157E-03     51.0081E-03
             758     9.64298E-03     82.7615E-03    -14.2209E+06    -64.0102E+06    -3.36760E+06    -5.99344E+06    -26.9970E-03     53.3985E-03    -26.4015E-03     55.8189E-03    -27.0079E-03     53.1414E-03    -26.3049E-03     55.6687E-03
             759     10.5197E-03     82.8164E-03    -12.5422E+06    -59.0203E+06    -3.95161E+06    -5.70630E+06    -27.1071E-03     53.4854E-03    -26.3783E-03     60.6027E-03    -27.1324E-03     53.2681E-03    -26.2943E-03     60.4389E-03
             760     11.3965E-03     82.8764E-03    -11.2707E+06    -51.6636E+06    -5.73786E+06    -5.18623E+06    -27.2121E-03     53.5581E-03    -26.3460E-03     65.4448E-03    -27.2630E-03     53.4022E-03    -26.2834E-03     65.2673E-03
             761     12.2733E-03     82.9404E-03    -10.4031E+06    -41.3943E+06    -6.81265E+06    -4.18487E+06    -27.3322E-03     53.6456E-03    -26.3135E-03     70.5103E-03    -27.4288E-03     53.5781E-03    -26.2724E-03     70.3215E-03
             762     13.1500E-03     83.0102E-03    -10.3022E+06    -23.9150E+06    -9.47376E+06    -3.63288E+06    -27.5002E-03     53.7635E-03    -26.2633E-03     77.9083E-03    -27.6807E-03     53.8500E-03    -26.2611E-03     77.7001E-03
             763     14.0270E-03     83.0881E-03    -10.2508E+06     7.18944E+06    -14.5682E+06    -3.30081E+06    -27.8321E-03     54.0141E-03    -26.1820E-03     88.7286E-03    -28.1762E-03     54.3895E-03    -26.2504E-03     88.4990E-03
             764     14.9032E-03     83.1786E-03    -9.66014E+06     67.2925E+06    -6.01858E+06    -1.09082E+06    -28.2722E-03     54.3979E-03    -26.1258E-03     106.224E-03    -29.0329E-03     55.3807E-03    -26.2394E-03     106.037E-03
             765     15.7805E-03     83.2901E-03    -8.05213E+06     124.510E+06     31.9112E+06     271.739E+03    -28.8394E-03     55.0508E-03    -26.2114E-03     131.858E-03    -30.4323E-03     56.9646E-03    -26.2207E-03     131.988E-03
             766     16.6562E-03     83.4293E-03    -4.63417E+06     141.829E+06     72.5066E+06    -302.505E+03    -27.3343E-03     53.6934E-03    -26.3591E-03     88.9077E-03    -28.6863E-03     55.3222E-03    -26.1955E-03     89.2432E-03
             767     876.466E-06     83.4658E-03    -34.7120E+06    -108.831E+06    -34.2642E+06    -1.12899E+06    -26.4510E-03     52.8954E-03    -26.4445E-03     5.69190E-03    -26.4171E-03     52.4516E-03    -26.4076E-03     5.67457E-03
             768     1.75313E-03     83.4736E-03    -33.8406E+06    -106.290E+06    -31.9101E+06    -1.98259E+06    -26.4519E-03     52.8995E-03    -26.4476E-03     10.5849E-03    -26.4211E-03     52.4638E-03    -26.4039E-03     10.5540E-03
             769     2.62964E-03     83.4860E-03    -32.4087E+06    -102.342E+06    -28.2265E+06    -2.81490E+06    -26.4653E-03     52.9160E-03    -26.4507E-03     15.7446E-03    -26.4390E-03     52.4932E-03    -26.3964E-03     15.6999E-03
             770     3.50624E-03     83.5034E-03    -30.4726E+06    -98.8656E+06    -23.5970E+06    -3.69075E+06    -26.4927E-03     52.9502E-03    -26.4575E-03     20.9405E-03    -26.4693E-03     52.5362E-03    -26.3880E-03     20.8810E-03
             771     4.38284E-03     83.5257E-03    -28.2092E+06    -93.7294E+06    -18.9085E+06    -4.53969E+06    -26.5284E-03     52.9892E-03    -26.4608E-03     26.1536E-03    -26.5093E-03     52.5921E-03    -26.3785E-03     26.0788E-03
             772     5.25948E-03     83.5530E-03    -25.8590E+06    -87.2487E+06    -14.5891E+06    -5.28980E+06    -26.5712E-03     53.0300E-03    -26.4588E-03     31.3286E-03    -26.5581E-03     52.6577E-03    -26.3678E-03     31.2387E-03
             773     6.13611E-03     83.5851E-03    -23.4556E+06    -82.0293E+06    -10.5562E+06    -5.95606E+06    -26.6284E-03     53.0844E-03    -26.4561E-03     36.4310E-03    -26.6195E-03     52.7317E-03    -26.3559E-03     36.3259E-03
             774     7.01281E-03     83.6221E-03    -20.9625E+06    -76.7905E+06    -7.24732E+06    -6.46472E+06    -26.6986E-03     53.1475E-03    -26.4489E-03     41.4524E-03    -26.6937E-03     52.8166E-03    -26.3434E-03     41.3326E-03
             775     7.88949E-03     83.6636E-03    -18.5835E+06    -72.5924E+06    -5.00215E+06    -6.84137E+06    -26.7853E-03     53.2233E-03    -26.4380E-03     46.3615E-03    -26.7837E-03     52.9125E-03    -26.3308E-03     46.2269E-03
             776     8.76622E-03     83.7100E-03    -16.4216E+06    -68.4276E+06    -4.30150E+06    -7.08090E+06    -26.8846E-03     53.3048E-03    -26.4201E-03     51.1589E-03    -26.8874E-03     53.0187E-03    -26.3186E-03     51.0091E-03
             777     9.64294E-03     83.7605E-03    -14.3630E+06    -63.6402E+06    -4.07764E+06    -7.03764E+06    -26.9882E-03     53.3878E-03    -26.3996E-03     55.8488E-03    -26.9993E-03     53.1338E-03    -26.3069E-03     55.6852E-03
             778     10.5197E-03     83.8158E-03    -12.5604E+06    -58.9137E+06    -4.63371E+06    -6.75382E+06    -27.0986E-03     53.4745E-03    -26.3759E-03     60.6218E-03    -27.1231E-03     53.2587E-03    -26.2954E-03     60.4446E-03
             779     11.3965E-03     83.8753E-03    -11.0951E+06    -52.2378E+06    -6.61634E+06    -6.01388E+06    -27.2249E-03     53.5680E-03    -26.3431E-03     65.4782E-03    -27.2728E-03     53.4103E-03    -26.2844E-03     65.2900E-03
             780     12.2732E-03     83.9399E-03    -9.80704E+06    -42.3461E+06    -7.62043E+06    -5.05298E+06    -27.3485E-03     53.6600E-03    -26.3115E-03     70.5422E-03    -27.4396E-03     53.5881E-03    -26.2740E-03     70.3423E-03
             781     13.1501E-03     84.0089E-03    -8.66267E+06    -24.4223E+06    -9.79555E+06    -3.78452E+06    -27.5539E-03     53.8172E-03    -26.2634E-03     77.8855E-03    -27.7251E-03     53.8994E-03    -26.2644E-03     77.6750E-03
             782     14.0268E-03     84.0876E-03    -9.16952E+06     6.71135E+06    -15.3295E+06    -2.85677E+06    -27.8889E-03     54.0720E-03    -26.1832E-03     88.8303E-03    -28.2263E-03     54.4452E-03    -26.2563E-03     88.6058E-03
             783     14.9040E-03     84.1777E-03    -9.29397E+06     64.8464E+06    -11.8808E+06    -2.48770E+06    -28.2660E-03     54.3721E-03    -26.1060E-03     106.090E-03    -29.0107E-03     55.3484E-03    -26.2460E-03     105.885E-03
             784     15.7811E-03     84.2893E-03    -6.77491E+06     123.089E+06     26.2564E+06    -554.702E+03    -28.7396E-03     54.9259E-03    -26.1863E-03     131.647E-03    -30.3090E-03     56.8320E-03    -26.2236E-03     131.766E-03
             785     16.6593E-03     84.4296E-03    -3.77742E+06     142.485E+06     72.1264E+06     304.330E+03    -27.3183E-03     53.6722E-03    -26.3539E-03     89.5289E-03    -28.6645E-03     55.3017E-03    -26.1944E-03     89.8736E-03
             786     876.605E-06     84.4653E-03    -35.0005E+06    -106.529E+06    -34.4486E+06    -1.29003E+06    -26.4842E-03     52.9048E-03    -26.4206E-03     5.71536E-03    -26.4549E-03     52.4731E-03    -26.3876E-03     5.69593E-03
             787     1.75302E-03     84.4728E-03    -34.0314E+06    -103.994E+06    -32.0166E+06    -2.17960E+06    -26.4594E-03     52.9128E-03    -26.4534E-03     10.5945E-03    -26.4328E-03     52.4890E-03    -26.4133E-03     10.5611E-03
             788     2.62965E-03     84.4854E-03    -32.5775E+06    -100.175E+06    -28.4402E+06    -3.20622E+06    -26.4642E-03     52.9198E-03    -26.4556E-03     15.7512E-03    -26.4416E-03     52.5084E-03    -26.4053E-03     15.7016E-03
             789     3.50622E-03     84.5027E-03    -30.6449E+06    -96.7099E+06    -23.9040E+06    -4.16636E+06    -26.4924E-03     52.9529E-03    -26.4605E-03     20.9420E-03    -26.4726E-03     52.5503E-03    -26.3953E-03     20.8763E-03
             790     4.38281E-03     84.5251E-03    -28.4218E+06    -91.6260E+06    -19.2607E+06    -5.13120E+06    -26.5264E-03     52.9891E-03    -26.4627E-03     26.1552E-03    -26.5110E-03     52.6033E-03    -26.3849E-03     26.0727E-03
             791     5.25943E-03     84.5522E-03    -25.9750E+06    -85.4304E+06    -14.9002E+06    -5.94204E+06    -26.5659E-03     53.0260E-03    -26.4601E-03     31.3297E-03    -26.5555E-03     52.6633E-03    -26.3730E-03     31.2314E-03
             792     6.13610E-03     84.5845E-03    -23.4978E+06    -80.2222E+06    -10.8475E+06    -6.66739E+06    -26.6200E-03     53.0759E-03    -26.4560E-03     36.4357E-03    -26.6135E-03     52.7327E-03    -26.3598E-03     36.3214E-03
             793     7.01277E-03     84.6212E-03    -21.0311E+06    -75.2562E+06    -7.64467E+06    -7.38549E+06    -26.6897E-03     53.1370E-03    -26.4474E-03     41.4670E-03    -26.6868E-03     52.8145E-03    -26.3460E-03     41.3354E-03
             794     7.88948E-03     84.6630E-03    -18.5988E+06    -71.4148E+06    -5.44539E+06    -7.78276E+06    -26.7753E-03     53.2108E-03    -26.4355E-03     46.3815E-03    -26.7748E-03     52.9066E-03    -26.3322E-03     46.2348E-03
             795     8.76621E-03     84.7090E-03    -16.3759E+06    -67.3166E+06    -4.63365E+06    -8.07834E+06    -26.8724E-03     53.2894E-03    -26.4170E-03     51.1900E-03    -26.8760E-03     53.0094E-03    -26.3188E-03     51.0275E-03
             796     9.64295E-03     84.7599E-03    -14.3836E+06    -63.0861E+06    -4.57595E+06    -8.24587E+06    -26.9735E-03     53.3688E-03    -26.3953E-03     55.8775E-03    -26.9848E-03     53.1184E-03    -26.3059E-03     55.6984E-03
             797     10.5197E-03     84.8148E-03    -12.4532E+06    -58.6891E+06    -5.15131E+06    -8.03542E+06    -27.0957E-03     53.4667E-03    -26.3710E-03     60.6570E-03    -27.1192E-03     53.2526E-03    -26.2936E-03     60.4634E-03
             798     11.3965E-03     84.8747E-03    -10.6314E+06    -52.9366E+06    -7.04560E+06    -7.35522E+06    -27.2403E-03     53.5802E-03    -26.3399E-03     65.5284E-03    -27.2843E-03     53.4190E-03    -26.2830E-03     65.3228E-03
             799     12.2733E-03     84.9388E-03    -9.11623E+06    -43.0145E+06    -7.92183E+06    -6.34027E+06    -27.3928E-03     53.7032E-03    -26.3104E-03     70.5765E-03    -27.4791E-03     53.6274E-03    -26.2744E-03     70.3597E-03
             800     13.1499E-03     85.0084E-03    -7.89087E+06    -26.2104E+06    -10.0232E+06    -4.98941E+06    -27.6174E-03     53.8846E-03    -26.2672E-03     77.9480E-03    -27.7822E-03     53.9574E-03    -26.2679E-03     77.7215E-03
             801     14.0267E-03     85.0866E-03    -6.42403E+06     5.78668E+06    -14.3647E+06    -3.15369E+06    -27.9122E-03     54.1028E-03    -26.1906E-03     88.9037E-03    -28.2356E-03     54.4656E-03    -26.2615E-03     88.6753E-03
             802     14.9031E-03     85.1771E-03    -6.54270E+06     64.1292E+06    -12.7673E+06    -2.03661E+06    -28.3121E-03     54.4167E-03    -26.1045E-03     106.148E-03    -29.0405E-03     55.3865E-03    -26.2519E-03     105.948E-03
             803     15.7798E-03     85.2883E-03    -6.90578E+06     120.843E+06     22.3576E+06    -1.42022E+06    -28.7459E-03     54.9232E-03    -26.1773E-03     131.241E-03    -30.3045E-03     56.8214E-03    -26.2307E-03     131.349E-03
             804     16.6571E-03     85.4270E-03    -3.77398E+06     142.272E+06     70.8413E+06     63.7582E+03    -27.0595E-03     53.4087E-03    -26.3492E-03     89.5650E-03    -28.4019E-03     55.0373E-03    -26.1958E-03     89.9102E-03
             805     876.476E-06     85.4646E-03    -34.8347E+06    -103.944E+06    -34.2644E+06    -1.28080E+06    -26.4800E-03     52.8972E-03    -26.4171E-03     5.72891E-03    -26.4539E-03     52.4779E-03    -26.3872E-03     5.70963E-03
             806     1.75312E-03     85.4722E-03    -33.9537E+06    -101.431E+06    -31.9692E+06    -2.45428E+06    -26.4651E-03     52.9162E-03    -26.4511E-03     10.5897E-03    -26.4419E-03     52.5051E-03    -26.4146E-03     10.5527E-03
             807     2.62961E-03     85.4846E-03    -32.4623E+06    -97.6877E+06    -28.4471E+06    -3.57447E+06    -26.4732E-03     52.9295E-03    -26.4563E-03     15.7526E-03    -26.4536E-03     52.5304E-03    -26.4098E-03     15.6982E-03
             808     3.50619E-03     85.5021E-03    -30.5710E+06    -94.3044E+06    -23.9843E+06    -4.68939E+06    -26.4901E-03     52.9518E-03    -26.4617E-03     20.9470E-03    -26.4734E-03     52.5613E-03    -26.4005E-03     20.8746E-03
             809     4.38280E-03     85.5243E-03    -28.3254E+06    -89.2649E+06    -19.4182E+06    -5.74355E+06    -26.5186E-03     52.9807E-03    -26.4621E-03     26.1632E-03    -26.5059E-03     52.6068E-03    -26.3887E-03     26.0728E-03
             810     5.25942E-03     85.5516E-03    -25.9182E+06    -83.3639E+06    -15.0778E+06    -6.70173E+06    -26.5549E-03     53.0130E-03    -26.4581E-03     31.3393E-03    -26.5469E-03     52.6608E-03    -26.3750E-03     31.2313E-03
             811     6.13609E-03     85.5836E-03    -23.3740E+06    -78.2643E+06    -11.0035E+06    -7.49315E+06    -26.6078E-03     53.0603E-03    -26.4525E-03     36.4554E-03    -26.6033E-03     52.7269E-03    -26.3602E-03     36.3306E-03
             812     7.01278E-03     85.6206E-03    -20.9145E+06    -73.3621E+06    -7.69669E+06    -8.23312E+06    -26.6753E-03     53.1184E-03    -26.4431E-03     41.4887E-03    -26.6745E-03     52.8053E-03    -26.3449E-03     41.3462E-03
             813     7.88950E-03     85.6621E-03    -18.5360E+06    -70.0592E+06    -5.58511E+06    -8.85625E+06    -26.7594E-03     53.1897E-03    -26.4302E-03     46.4117E-03    -26.7604E-03     52.8923E-03    -26.3297E-03     46.2512E-03
             814     8.76624E-03     85.7084E-03    -16.2609E+06    -66.0887E+06    -4.77222E+06    -9.14411E+06    -26.8575E-03     53.2681E-03    -26.4106E-03     51.2269E-03    -26.8621E-03     52.9942E-03    -26.3151E-03     51.0506E-03
             815     9.64301E-03     85.7589E-03    -14.3276E+06    -62.1715E+06    -4.52167E+06    -9.30331E+06    -26.9628E-03     53.3525E-03    -26.3897E-03     55.9066E-03    -26.9752E-03     53.1064E-03    -26.3014E-03     55.7139E-03
             816     10.5198E-03     85.8141E-03    -12.7640E+06    -58.3264E+06    -5.40419E+06    -9.24260E+06    -27.0941E-03     53.4591E-03    -26.3651E-03     60.7141E-03    -27.1193E-03     53.2477E-03    -26.2890E-03     60.5049E-03
             817     11.3966E-03     85.8737E-03    -11.3824E+06    -53.1857E+06    -7.41002E+06    -8.83482E+06    -27.2504E-03     53.5860E-03    -26.3356E-03     65.5979E-03    -27.2973E-03     53.4252E-03    -26.2790E-03     65.3732E-03
             818     12.2732E-03     85.9382E-03    -10.1226E+06    -44.1162E+06    -8.64658E+06    -7.71357E+06    -27.4131E-03     53.7204E-03    -26.3072E-03     70.7139E-03    -27.5019E-03     53.6417E-03    -26.2718E-03     70.4794E-03
             819     13.1500E-03     86.0075E-03    -9.10478E+06     -27.495E+06    -10.5289E+06    -6.37518E+06    -27.5930E-03     53.8586E-03    -26.2656E-03     78.1224E-03    -27.7613E-03     53.9275E-03    -26.2652E-03     77.8781E-03
             820     14.0267E-03     86.0861E-03    -8.71625E+06     3.46769E+06    -15.4985E+06    -4.75168E+06    -27.8127E-03     53.9977E-03    -26.1850E-03     89.2460E-03    -28.1423E-03     54.3535E-03    -26.2548E-03     88.9982E-03
             821     14.9039E-03     86.1763E-03    -8.48924E+06     62.3112E+06    -10.4397E+06    -1.90370E+06    -28.2139E-03     54.3225E-03    -26.1086E-03     106.719E-03    -28.9531E-03     55.2831E-03    -26.2389E-03     106.523E-03
             822     15.7813E-03     86.2878E-03    -6.65468E+06     121.289E+06     25.4645E+06    -736.337E+03    -28.8356E-03     55.0134E-03    -26.1777E-03     131.789E-03    -30.4040E-03     56.9148E-03    -26.2166E-03     131.905E-03
             823     16.6580E-03     86.4265E-03    -3.93763E+06     141.794E+06     69.4182E+06    -277.169E+03    -27.1388E-03     53.4716E-03    -26.3328E-03     90.2050E-03    -28.4866E-03     55.1075E-03    -26.1856E-03     90.5456E-03
             824     876.596E-06     86.4640E-03    -34.4914E+06    -101.076E+06    -34.2357E+06    -1.43676E+06    -26.4550E-03     52.8945E-03    -26.4395E-03     5.74886E-03    -26.4313E-03     52.4891E-03    -26.4142E-03     5.72759E-03
             825     1.75303E-03     86.4716E-03    -33.6315E+06    -98.5376E+06    -31.8238E+06    -2.76404E+06    -26.4639E-03     52.9131E-03    -26.4492E-03     10.5807E-03    -26.4435E-03     52.5158E-03    -26.4167E-03     10.5398E-03
             826     2.62962E-03     86.4841E-03    -32.2014E+06    -94.9435E+06    -28.2880E+06    -3.99314E+06    -26.4681E-03     52.9222E-03    -26.4541E-03     15.7469E-03    -26.4514E-03     52.5362E-03    -26.4112E-03     15.6870E-03
             827     3.50620E-03     86.5014E-03    -30.2802E+06    -91.5451E+06    -23.8273E+06    -5.22969E+06    -26.4849E-03     52.9434E-03    -26.4585E-03     20.9554E-03    -26.4709E-03     52.5660E-03    -26.4010E-03     20.8760E-03
             828     4.38278E-03     86.5237E-03    -28.0355E+06    -86.6971E+06    -19.3057E+06    -6.41426E+06    -26.5055E-03     52.9631E-03    -26.4576E-03     26.1709E-03    -26.4952E-03     52.6015E-03    -26.3878E-03     26.0719E-03
             829     5.25945E-03     86.5508E-03     -25.597E+06    -80.9444E+06    -14.9375E+06    -7.47248E+06    -26.5396E-03     52.9917E-03    -26.4521E-03     31.3513E-03    -26.5338E-03     52.6509E-03    -26.3723E-03     31.2333E-03
             830     6.13611E-03     86.5830E-03    -23.1342E+06    -76.1999E+06    -10.8654E+06    -8.35418E+06    -26.5909E-03     53.0364E-03    -26.4455E-03     36.4704E-03    -26.5884E-03     52.7128E-03    -26.3558E-03     36.3344E-03
             831     7.01283E-03     86.6197E-03    -20.7043E+06    -71.3526E+06    -7.53721E+06    -9.04358E+06    -26.6552E-03     53.0899E-03    -26.4348E-03     41.5113E-03    -26.6565E-03     52.7863E-03    -26.3390E-03     41.3584E-03
             832     7.88955E-03     86.6614E-03    -18.4686E+06    -68.2198E+06    -5.37379E+06    -9.76182E+06    -26.7411E-03     53.1625E-03    -26.4213E-03     46.4376E-03    -26.7447E-03     52.8739E-03    -26.3225E-03     46.2654E-03
             833     8.76632E-03     86.7075E-03    -16.4075E+06    -64.8888E+06    -4.88631E+06    -10.2149E+06    -26.8398E-03     53.2403E-03    -26.4005E-03     51.2636E-03    -26.8467E-03     52.9727E-03    -26.3070E-03     51.0737E-03
             834     9.64307E-03     86.7583E-03    -14.5526E+06    -61.1506E+06    -4.70859E+06    -10.2434E+06    -26.9521E-03     53.3312E-03    -26.3791E-03     55.9507E-03    -26.9668E-03     53.0908E-03    -26.2929E-03     55.7460E-03
             835     10.5199E-03     86.8131E-03    -13.1117E+06    -57.8203E+06    -5.69025E+06    -10.0417E+06    -27.0902E-03     53.4453E-03    -26.3551E-03     60.7800E-03    -27.1176E-03     53.2374E-03    -26.2807E-03     60.5605E-03
             836     11.3966E-03     86.8731E-03    -12.2559E+06    -53.0088E+06    -8.13429E+06    -9.62979E+06    -27.2402E-03     53.5650E-03    -26.3248E-03     65.7004E-03    -27.2908E-03     53.4075E-03    -26.2708E-03     65.4655E-03
             837     12.2734E-03     86.9372E-03    -11.3708E+06    -44.9377E+06    -10.0083E+06    -9.05998E+06    -27.3756E-03     53.6697E-03    -26.2941E-03     70.8585E-03    -27.4675E-03     53.5908E-03    -26.2625E-03     70.6067E-03
             838     13.1501E-03     87.0070E-03    -9.98347E+06    -28.3215E+06    -12.0404E+06    -8.04612E+06    -27.5555E-03     53.8048E-03    -26.2493E-03     78.2011E-03    -27.7250E-03     53.8732E-03    -26.2539E-03     77.9354E-03
             839     14.0271E-03     87.0849E-03    -8.69841E+06     371.498E+03    -17.7825E+06    -5.68814E+06    -27.7187E-03     53.8822E-03    -26.1635E-03     89.0062E-03    -28.0402E-03     54.2257E-03    -26.2403E-03     88.7469E-03
             840     14.9042E-03     87.1755E-03    -7.85018E+06     59.4347E+06    -11.1235E+06    -2.86793E+06    -28.1008E-03     54.1895E-03    -26.0887E-03     106.630E-03    -28.8309E-03     55.1350E-03    -26.2191E-03     106.422E-03
             841     15.7807E-03     87.2870E-03    -7.28788E+06     120.895E+06     25.2497E+06    -1.20509E+06    -29.1345E-03     55.2999E-03    -26.1655E-03     131.224E-03    -30.7076E-03     57.2032E-03    -26.2040E-03     131.328E-03
             842     16.6589E-03     87.4252E-03    -5.13502E+06     141.028E+06     68.1454E+06    -11.5597E+03    -27.4310E-03     53.7672E-03    -26.3362E-03     88.1658E-03    -28.7816E-03     55.4026E-03    -26.1925E-03     88.5017E-03
             843     876.488E-06     87.4634E-03    -34.0350E+06    -97.7086E+06    -33.6677E+06    -1.77178E+06    -26.4329E-03     52.9004E-03    -26.4675E-03     5.75505E-03    -26.4126E-03     52.5103E-03    -26.4448E-03     5.72942E-03
             844     1.75308E-03     87.4710E-03    -33.1354E+06    -95.3754E+06    -31.3863E+06    -3.07528E+06    -26.4488E-03     52.8972E-03    -26.4484E-03     10.5819E-03    -26.4311E-03     52.5143E-03    -26.4190E-03     10.5370E-03
             845     2.62962E-03     87.4834E-03    -31.7298E+06    -91.9088E+06    -27.8515E+06    -4.43027E+06    -26.4550E-03     52.9036E-03    -26.4486E-03     15.7461E-03    -26.4410E-03     52.5315E-03    -26.4086E-03     15.6807E-03
             846     3.50620E-03     87.5008E-03    -29.8332E+06    -88.4869E+06    -23.4228E+06    -5.78965E+06    -26.4680E-03     52.9184E-03    -26.4504E-03     20.9552E-03    -26.4568E-03     52.5551E-03    -26.3959E-03     20.8686E-03
             847     4.38284E-03     87.5229E-03    -27.5416E+06    -83.7678E+06    -18.8628E+06    -7.15899E+06    -26.4905E-03     52.9386E-03    -26.4481E-03     26.1759E-03    -26.4826E-03     52.5903E-03    -26.3810E-03     26.0673E-03
             848     5.25947E-03     87.5502E-03    -25.1213E+06    -78.4373E+06    -14.5592E+06    -8.23359E+06    -26.5216E-03     52.9633E-03    -26.4416E-03     31.3608E-03    -26.5176E-03     52.6338E-03    -26.3643E-03     31.2330E-03
             849     6.13618E-03     87.5821E-03    -22.7200E+06    -73.8585E+06    -10.5018E+06    -9.09495E+06    -26.5685E-03     53.0024E-03    -26.4338E-03     36.4826E-03    -26.5679E-03     52.6893E-03    -26.3463E-03     36.3371E-03
             850     7.01289E-03     87.6190E-03    -20.3884E+06    -69.3607E+06    -7.34222E+06    -9.83873E+06    -26.6307E-03     53.0521E-03    -26.4214E-03     41.5317E-03    -26.6336E-03     52.7576E-03    -26.3279E-03     41.3686E-03
             851     7.88967E-03     87.6605E-03    -18.2217E+06    -66.1615E+06    -5.20818E+06    -10.4327E+06    -26.7154E-03     53.1218E-03    -26.4064E-03     46.4749E-03    -26.7210E-03     52.8429E-03    -26.3101E-03     46.2942E-03
             852     8.76640E-03     87.7067E-03    -16.3423E+06    -63.3196E+06    -4.90644E+06    -11.0515E+06    -26.8158E-03     53.2002E-03    -26.3844E-03     51.3126E-03    -26.8246E-03     52.9405E-03    -26.2935E-03     51.1120E-03
             853     9.64323E-03     87.7573E-03    -14.6045E+06    -60.2970E+06    -5.16267E+06    -11.1870E+06    -26.9345E-03     53.2959E-03    -26.3614E-03     56.0433E-03    -26.9501E-03     53.0605E-03    -26.2786E-03     55.8266E-03
             854     10.5200E-03     87.8124E-03    -13.1109E+06    -57.3741E+06    -6.20799E+06    -10.7791E+06    -27.0754E-03     53.4126E-03    -26.3372E-03     60.8849E-03    -27.1026E-03     53.2076E-03    -26.2660E-03     60.6559E-03
             855     11.3968E-03     87.8721E-03    -11.7219E+06    -52.6031E+06    -8.44855E+06    -10.4023E+06    -27.2193E-03     53.5259E-03    -26.3066E-03     65.8275E-03    -27.2673E-03     53.3701E-03    -26.2556E-03     65.5828E-03
             856     12.2735E-03     87.9366E-03    -10.6879E+06    -44.8670E+06    -10.5307E+06    -10.0318E+06    -27.3762E-03     53.6513E-03    -26.2751E-03     70.9358E-03    -27.4642E-03     53.5725E-03    -26.2472E-03     70.6716E-03
             857     13.1504E-03     88.0058E-03    -10.1346E+06    -29.0233E+06    -13.0800E+06    -9.35687E+06    -27.6031E-03     53.8354E-03    -26.2323E-03     78.2064E-03    -27.7710E-03     53.9022E-03    -26.2409E-03     77.9236E-03
             858     14.0270E-03     88.0845E-03    -8.98883E+06    -2.21423E+06    -18.8569E+06    -8.00086E+06    -27.9201E-03     54.0782E-03    -26.1581E-03     88.6655E-03    -28.2392E-03     54.4123E-03    -26.2362E-03     88.3740E-03
             859     14.9041E-03     88.1736E-03    -6.59328E+06     54.9623E+06    -12.6829E+06    -4.71462E+06    -28.1700E-03     54.2608E-03    -26.0908E-03     106.036E-03    -28.8864E-03     55.1857E-03    -26.2244E-03     105.803E-03
             860     15.7818E-03     88.2870E-03    -6.60453E+06     118.000E+06     24.0023E+06    -515.147E+03    -28.9291E-03     55.0907E-03    -26.1616E-03     132.428E-03    -30.4948E-03     56.9822E-03    -26.2031E-03     132.544E-03
             861     16.6551E-03     88.4264E-03    -5.23400E+06     141.234E+06     68.7013E+06     753.280E+03    -27.4549E-03     53.7824E-03    -26.3276E-03     89.5474E-03    -28.8098E-03     55.4209E-03    -26.1813E-03     89.8948E-03
             862     876.522E-06     88.4628E-03    -33.2302E+06    -93.9943E+06    -32.7382E+06    -1.92099E+06    -26.4437E-03     52.8917E-03    -26.4480E-03     5.73629E-03    -26.4262E-03     52.5177E-03    -26.4272E-03     5.70875E-03
             863     1.75307E-03     88.4703E-03    -32.3446E+06    -91.9037E+06    -30.4459E+06    -3.35410E+06    -26.4283E-03     52.8700E-03    -26.4417E-03     10.5929E-03    -26.4130E-03     52.5020E-03    -26.4138E-03     10.5443E-03
             864     2.62963E-03     88.4828E-03    -30.9138E+06    -88.6148E+06    -27.0083E+06    -4.80671E+06    -26.4373E-03     52.8746E-03    -26.4374E-03     15.7463E-03    -26.4252E-03     52.5165E-03    -26.3991E-03     15.6760E-03
             865     3.50626E-03     88.5000E-03    -29.0830E+06    -85.0491E+06    -22.7556E+06    -6.33239E+06    -26.4485E-03     52.8848E-03    -26.4363E-03     20.9611E-03    -26.4395E-03     52.5366E-03    -26.3846E-03     20.8675E-03
             866     4.38287E-03     88.5223E-03    -26.9521E+06    -80.5353E+06    -18.3263E+06    -7.82786E+06    -26.4684E-03     52.9009E-03    -26.4325E-03     26.1788E-03    -26.4631E-03     52.5671E-03    -26.3683E-03     26.0616E-03
             867     5.25956E-03     88.5494E-03    -24.5959E+06    -75.7840E+06    -14.1322E+06    -9.00021E+06    -26.4952E-03     52.9201E-03    -26.4249E-03     31.3683E-03    -26.4930E-03     52.6026E-03    -26.3500E-03     31.2307E-03
             868     6.13626E-03     88.5814E-03    -22.1773E+06    -71.4633E+06    -10.2736E+06    -9.81914E+06    -26.5370E-03     52.9516E-03    -26.4146E-03     36.5089E-03    -26.5374E-03     52.6493E-03    -26.3301E-03     36.3542E-03
             869     7.01302E-03     88.6182E-03    -19.8991E+06    -67.1680E+06    -7.15579E+06    -10.5227E+06    -26.5957E-03     52.9959E-03    -26.4002E-03     41.5735E-03    -26.5995E-03     52.7114E-03    -26.3097E-03     41.4017E-03
             870     7.88979E-03     88.6597E-03    -17.7174E+06    -64.1614E+06    -5.14145E+06    -11.1985E+06    -26.6734E-03     53.0560E-03    -26.3826E-03     46.5472E-03    -26.6794E-03     52.7862E-03    -26.2896E-03     46.3569E-03
             871     8.76663E-03     88.7058E-03    -15.7801E+06    -61.4679E+06    -4.69260E+06    -11.6808E+06    -26.7767E-03     53.1360E-03    -26.3593E-03     51.4128E-03    -26.7856E-03     52.8843E-03    -26.2707E-03     51.2043E-03
             872     9.64340E-03     88.7565E-03    -14.2639E+06    -59.2592E+06    -5.16283E+06    -11.9699E+06    -26.8958E-03     53.2307E-03    -26.3349E-03     56.1882E-03    -26.9111E-03     52.9999E-03    -26.2541E-03     55.9616E-03
             873     10.5203E-03     88.8115E-03    -12.5785E+06    -56.6947E+06    -6.36127E+06    -11.9656E+06    -27.0489E-03     53.3580E-03    -26.3090E-03     61.0762E-03    -27.0742E-03     53.1557E-03    -26.2404E-03     60.8323E-03
             874     11.3970E-03     88.8713E-03    -10.9763E+06    -52.2122E+06    -8.61824E+06    -11.6617E+06    -27.2148E-03     53.4934E-03    -26.2786E-03     66.0034E-03    -27.2594E-03     53.3386E-03    -26.2301E-03     65.7428E-03
             875     12.2739E-03     88.9356E-03    -9.73830E+06    -44.6965E+06    -10.3952E+06    -11.0042E+06    -27.4156E-03     53.6664E-03    -26.2508E-03     71.1814E-03    -27.4993E-03     53.5870E-03    -26.2238E-03     70.9049E-03
             876     13.1504E-03     89.0053E-03    -8.71475E+06    -29.4339E+06    -13.0024E+06    -10.2055E+06    -27.7038E-03     53.9168E-03    -26.2130E-03     78.4570E-03    -27.8643E-03     53.9796E-03    -26.2227E-03     78.1631E-03
             877     14.0273E-03     89.0834E-03    -8.18308E+06    -2.79582E+06    -19.0843E+06    -9.73574E+06    -28.1910E-03     54.3408E-03    -26.1497E-03     89.1572E-03    -28.5064E-03     54.6725E-03    -26.2292E-03     88.8417E-03
             878     14.9031E-03     89.1738E-03    -9.10971E+06     48.4515E+06    -15.6381E+06    -6.26077E+06    -28.4037E-03     54.5007E-03    -26.0970E-03     105.932E-03    -29.1207E-03     55.4027E-03    -26.2323E-03     105.677E-03
             879     15.7801E-03     89.2841E-03    -6.49045E+06     113.330E+06     21.2797E+06    -97.3766E+03    -28.1809E-03     54.3298E-03    -26.1489E-03     131.978E-03    -29.7135E-03     56.1799E-03    -26.1974E-03     132.112E-03
             880     16.6632E-03     89.4264E-03    -2.65073E+06     143.112E+06     69.0451E+06     1.29195E+06    -27.0014E-03     53.2862E-03    -26.2847E-03     89.4411E-03    -28.3212E-03     54.9043E-03    -26.1432E-03     89.8022E-03
             881     876.533E-06     89.4621E-03    -32.1568E+06    -90.0322E+06    -31.6910E+06    -2.01347E+06    -26.4457E-03     52.8442E-03    -26.3985E-03     5.68752E-03    -26.4300E-03     52.4869E-03    -26.3798E-03     5.65883E-03
             882     1.75309E-03     89.4698E-03    -31.2295E+06    -88.0989E+06    -29.3063E+06    -3.63200E+06    -26.4138E-03     52.8340E-03    -26.4203E-03     10.6051E-03    -26.4001E-03     52.4818E-03    -26.3938E-03     10.5530E-03
             883     2.62971E-03     89.4820E-03    -29.7531E+06    -85.0386E+06    -25.9832E+06    -5.23320E+06    -26.4147E-03     52.8316E-03    -26.4169E-03     15.7519E-03    -26.4035E-03     52.4882E-03    -26.3804E-03     15.6761E-03
             884     3.50630E-03     89.4994E-03    -27.9690E+06    -81.4153E+06    -21.9104E+06    -6.75828E+06    -26.4235E-03     52.8374E-03    -26.4139E-03     20.9661E-03    -26.4154E-03     52.5045E-03    -26.3649E-03     20.8671E-03
             885     4.38297E-03     89.5215E-03    -26.0086E+06    -77.0197E+06    -17.6155E+06    -8.30622E+06    -26.4324E-03     52.8404E-03    -26.4080E-03     26.1967E-03    -26.4285E-03     52.5218E-03    -26.3467E-03     26.0734E-03
             886     5.25966E-03     89.5487E-03    -23.9165E+06    -72.8605E+06    -13.6409E+06    -9.61725E+06    -26.4530E-03     52.8509E-03    -26.3978E-03     31.4006E-03    -26.4524E-03     52.5462E-03    -26.3257E-03     31.2552E-03
             887     6.13642E-03     89.5805E-03    -21.7336E+06    -69.0385E+06    -10.0629E+06    -10.5116E+06    -26.4867E-03     52.8708E-03    -26.3841E-03     36.5648E-03    -26.4887E-03     52.5798E-03    -26.3028E-03     36.4013E-03
             888     7.01321E-03     89.6173E-03    -19.4094E+06    -64.7496E+06    -6.98350E+06    -11.3103E+06    -26.5361E-03     52.9022E-03    -26.3661E-03     41.6635E-03    -26.5412E-03     52.6288E-03    -26.2790E-03     41.4819E-03
             889     7.89007E-03     89.6587E-03    -17.1295E+06    -61.9746E+06    -4.85775E+06    -12.0830E+06    -26.6121E-03     52.9579E-03    -26.3458E-03     46.6695E-03    -26.6186E-03     52.6977E-03    -26.2554E-03     46.4681E-03
             890     8.76691E-03     89.7049E-03    -15.1137E+06    -59.9421E+06    -4.39091E+06    -12.4214E+06    -26.7108E-03     53.0310E-03    -26.3201E-03     51.5772E-03    -26.7189E-03     52.7853E-03    -26.2333E-03     51.3596E-03
             891     9.64383E-03     89.7555E-03    -13.3102E+06    -57.5133E+06    -4.61337E+06    -12.7475E+06    -26.8331E-03     53.1263E-03    -26.2932E-03     56.3920E-03    -26.8467E-03     52.9019E-03    -26.2136E-03     56.1560E-03
             892     10.5207E-03     89.8105E-03    -11.7728E+06    -55.5449E+06    -6.02178E+06    -13.2415E+06    -26.9937E-03     53.2588E-03    -26.2651E-03     61.3637E-03    -27.0169E-03     53.0604E-03    -26.1976E-03     61.1041E-03
             893     11.3975E-03     89.8704E-03    -10.5098E+06    -51.9908E+06    -8.68697E+06    -12.8323E+06    -27.2005E-03     53.4346E-03    -26.2341E-03     66.3606E-03    -27.2429E-03     53.2802E-03    -26.1869E-03     66.0855E-03
             894     12.2742E-03     89.9347E-03    -9.56596E+06    -44.6887E+06    -10.5970E+06    -12.1256E+06    -27.4068E-03     53.6143E-03    -26.2075E-03     71.6286E-03    -27.4891E-03     53.5347E-03    -26.1818E-03     71.3382E-03
             895     13.1511E-03     90.0047E-03    -8.66558E+06    -29.1496E+06    -12.9225E+06    -11.7084E+06    -27.7690E-03     53.9431E-03    -26.1741E-03     79.0979E-03    -27.9299E-03     54.0072E-03    -26.1839E-03     78.7849E-03
             896     14.0274E-03     90.0829E-03    -9.09926E+06    -4.34970E+06    -17.2244E+06    -9.52255E+06    -28.1663E-03     54.2920E-03    -26.1258E-03     89.9264E-03    -28.4864E-03     54.6144E-03    -26.1924E-03     89.6147E-03
             897     14.9044E-03     90.1738E-03    -10.3414E+06     43.4287E+06    -14.9318E+06    -5.41975E+06    -28.6227E-03     54.7013E-03    -26.0786E-03     106.486E-03    -29.3394E-03     55.5788E-03    -26.2013E-03     106.241E-03
             898     15.7814E-03     90.2828E-03    -8.64735E+06     108.044E+06     16.3438E+06    -1.87579E+06    -29.0142E-03     55.1502E-03    -26.1360E-03     130.877E-03    -30.5499E-03     56.9913E-03    -26.1984E-03     130.971E-03
             899     16.6553E-03     90.4219E-03    -3.56033E+06     142.069E+06     66.2666E+06    -397.089E+03    -26.7283E-03     53.0231E-03    -26.2948E-03     88.9589E-03    -28.0570E-03     54.6514E-03    -26.1643E-03     89.2960E-03
             900     876.591E-06     90.4616E-03    -30.7381E+06    -85.7484E+06    -30.2416E+06    -2.08665E+06    -26.3859E-03     52.7721E-03    -26.3861E-03     5.66050E-03    -26.3715E-03     52.4320E-03    -26.3684E-03     5.63091E-03
             901     1.75318E-03     90.4690E-03    -29.8035E+06    -83.9330E+06    -28.0702E+06    -3.95694E+06    -26.3873E-03     52.7726E-03    -26.3853E-03     10.6017E-03    -26.3743E-03     52.4373E-03    -26.3607E-03     10.5454E-03
             902     2.62975E-03     90.4814E-03    -28.3335E+06    -81.0757E+06    -24.8209E+06    -5.76607E+06    -26.3842E-03     52.7680E-03    -26.3838E-03     15.7652E-03    -26.3733E-03     52.4407E-03    -26.3493E-03     15.6826E-03
             903     3.50642E-03     90.4986E-03    -26.4503E+06    -77.7690E+06    -20.8064E+06    -7.31519E+06    -26.3769E-03     52.7560E-03    -26.3792E-03     20.9874E-03    -26.3681E-03     52.4376E-03    -26.3321E-03     20.8813E-03
             904     4.38311E-03     90.5208E-03    -24.3589E+06    -73.3401E+06    -16.4780E+06    -8.76428E+06    -26.3766E-03     52.7459E-03    -26.3692E-03     26.2357E-03    -26.3714E-03     52.4416E-03    -26.3100E-03     26.1066E-03
             905     5.25988E-03     90.5477E-03    -22.3648E+06     -69.888E+06    -12.3569E+06    -9.94387E+06    -26.3895E-03     52.7463E-03    -26.3568E-03     31.4572E-03    -26.3872E-03     52.4523E-03    -26.2848E-03     31.3077E-03
             906     6.13668E-03     90.5797E-03    -20.4324E+06    -66.2626E+06    -8.97896E+06    -10.9562E+06    -26.4115E-03     52.7498E-03    -26.3384E-03     36.6509E-03    -26.4125E-03     52.4691E-03    -26.2575E-03     36.4820E-03
             907     7.01356E-03     90.6163E-03    -18.3298E+06    -61.8970E+06    -6.25578E+06    -12.1585E+06    -26.4499E-03     52.7638E-03    -26.3140E-03     41.7958E-03    -26.4546E-03     52.5019E-03    -26.2289E-03     41.6036E-03
             908     7.89047E-03     90.6578E-03    -16.2334E+06    -59.9542E+06    -4.32478E+06    -12.8518E+06    -26.5202E-03     52.8096E-03    -26.2894E-03     46.8486E-03    -26.5257E-03     52.5572E-03    -26.2005E-03     46.6379E-03
             909     8.76743E-03     90.7038E-03    -14.3112E+06    -58.0813E+06    -3.86627E+06    -13.3187E+06    -26.6171E-03     52.8768E-03    -26.2597E-03     51.8082E-03    -26.6245E-03     52.6384E-03    -26.1740E-03     51.5798E-03
             910     9.64439E-03     90.7544E-03    -12.4311E+06    -55.6743E+06    -4.02095E+06    -13.8395E+06    -26.7423E-03     52.9716E-03    -26.2293E-03     56.6882E-03    -26.7548E-03     52.7540E-03    -26.1507E-03     56.4389E-03
             911     10.5214E-03     90.8095E-03    -11.0474E+06    -54.1026E+06    -5.34231E+06    -13.9757E+06    -26.9049E-03     53.1041E-03    -26.1993E-03     61.7014E-03    -26.9272E-03     52.9107E-03    -26.1315E-03     61.4332E-03
             912     11.3983E-03     90.8693E-03    -10.0672E+06    -51.6665E+06    -8.42731E+06    -13.8721E+06    -27.1204E-03     53.2861E-03    -26.1657E-03     66.8306E-03    -27.1611E-03     53.1320E-03    -26.1183E-03     66.5431E-03
             913     12.2752E-03     90.9340E-03    -8.97655E+06    -44.3472E+06    -10.5531E+06    -13.3331E+06    -27.3736E-03     53.5109E-03    -26.1372E-03     72.1225E-03    -27.4535E-03     53.4320E-03    -26.1127E-03     71.8173E-03
             914     13.1519E-03     91.0035E-03    -8.88247E+06    -29.6836E+06    -13.0948E+06    -12.0322E+06    -27.6813E-03     53.7855E-03    -26.1042E-03     79.8189E-03    -27.8421E-03     53.8473E-03    -26.1138E-03     79.5030E-03
             915     14.0286E-03     91.0831E-03    -9.01027E+06    -7.07043E+06    -17.0241E+06    -9.68955E+06    -28.0417E-03     54.0981E-03    -26.0564E-03     90.5082E-03    -28.3572E-03     54.4059E-03    -26.1182E-03     90.1963E-03
             916     14.9054E-03     91.1719E-03    -7.33612E+06     39.0087E+06    -15.2071E+06    -5.94274E+06    -28.6830E-03     54.6872E-03    -26.0043E-03     107.449E-03    -29.3797E-03     55.5405E-03    -26.1262E-03     107.197E-03
             917     15.7809E-03     91.2847E-03    -6.71171E+06     104.937E+06     15.2760E+06    -2.47388E+06    -29.5132E-03     55.5846E-03    -26.0714E-03     132.694E-03    -31.0634E-03     57.4392E-03    -26.1374E-03     132.782E-03
             918     16.6591E-03     91.4213E-03    -4.39816E+06     141.300E+06     65.5580E+06    -1.00275E+06    -27.1679E-03     53.4241E-03    -26.2561E-03     90.7798E-03    -28.5300E-03     55.0821E-03    -26.1268E-03     91.1113E-03
             919     876.592E-06     91.4607E-03    -28.8550E+06    -81.0749E+06    -28.4402E+06    -2.32875E+06    -26.3320E-03     52.6878E-03    -26.3557E-03     5.66439E-03    -26.3176E-03     52.3657E-03    -26.3385E-03     5.63171E-03
             920     1.75323E-03     91.4684E-03    -27.8047E+06    -79.3344E+06    -26.3375E+06    -4.37063E+06    -26.3309E-03     52.6703E-03    -26.3394E-03     10.6150E-03    -26.3171E-03     52.3525E-03    -26.3157E-03     10.5534E-03
             921     2.62990E-03     91.4806E-03    -26.4672E+06    -76.7651E+06    -23.2341E+06    -6.27596E+06    -26.3216E-03     52.6541E-03    -26.3325E-03     15.7932E-03    -26.3099E-03     52.3433E-03    -26.2990E-03     15.7041E-03
             922     3.50659E-03     91.4978E-03    -24.7244E+06    -73.8789E+06    -19.4128E+06    -8.00433E+06    -26.3069E-03     52.6303E-03    -26.3234E-03     21.0294E-03    -26.2971E-03     52.3267E-03    -26.2775E-03     20.9145E-03
             923     4.38337E-03     91.5198E-03    -22.7201E+06    -69.8030E+06    -15.3051E+06    -9.35541E+06    -26.2936E-03     52.6019E-03    -26.3083E-03     26.3010E-03    -26.2869E-03     52.3111E-03    -26.2507E-03     26.1646E-03
             924     5.26019E-03     91.5469E-03    -20.6173E+06    -66.9938E+06    -11.0630E+06    -10.3231E+06    -26.2949E-03     52.5867E-03    -26.2918E-03     31.5416E-03    -26.2898E-03     52.3027E-03    -26.2201E-03     31.3877E-03
             925     6.13711E-03     91.5786E-03    -18.4433E+06    -63.0342E+06    -7.55688E+06    -11.4350E+06    -26.3042E-03     52.5716E-03    -26.2674E-03     36.7699E-03    -26.3019E-03     52.3019E-03    -26.1870E-03     36.5954E-03
             926     7.01407E-03     91.6153E-03    -16.5054E+06    -58.8371E+06    -5.02674E+06    -12.6327E+06    -26.3305E-03     52.5669E-03    -26.2364E-03     41.9653E-03    -26.3322E-03     52.3157E-03    -26.1523E-03     41.7677E-03
             927     7.89111E-03     91.6565E-03     -14.775E+06    -57.9009E+06    -3.40621E+06    -13.4346E+06    -26.3919E-03     52.5981E-03    -26.2062E-03     47.0748E-03    -26.3942E-03     52.3523E-03    -26.1179E-03     46.8574E-03
             928     8.76819E-03     91.7026E-03    -13.1010E+06    -55.7624E+06    -3.08566E+06    -14.0454E+06    -26.4902E-03     52.6606E-03    -26.1704E-03     52.1088E-03    -26.4957E-03     52.4306E-03    -26.0860E-03     51.8719E-03
             929     9.64527E-03     91.7531E-03    -11.7980E+06    -53.8119E+06    -3.36071E+06    -14.6075E+06    -26.6224E-03     52.7592E-03    -26.1368E-03     57.0471E-03    -26.6351E-03     52.5487E-03    -26.0585E-03     56.7889E-03
             930     10.5224E-03     91.8083E-03    -10.5851E+06    -52.9582E+06    -4.90378E+06    -14.6852E+06    -26.8040E-03     52.9084E-03    -26.1044E-03     62.1154E-03    -26.8261E-03     52.7191E-03    -26.0368E-03     61.8391E-03
             931     11.3994E-03     91.8682E-03    -9.54354E+06    -50.3700E+06    -7.98848E+06    -14.7572E+06    -27.0243E-03     53.0935E-03    -26.0692E-03     67.2789E-03    -27.0646E-03     52.9442E-03    -26.0222E-03     66.9811E-03
             932     12.2764E-03     91.9328E-03    -8.75099E+06    -44.1798E+06    -10.6596E+06    -14.5284E+06    -27.3009E-03     53.3405E-03    -26.0396E-03     72.6772E-03    -27.3796E-03     53.2621E-03    -26.0161E-03     72.3577E-03
             933     13.1531E-03     92.0030E-03    -7.71942E+06    -31.5152E+06    -12.9202E+06    -12.6714E+06    -27.5530E-03     53.5608E-03    -26.0078E-03     80.1865E-03    -27.7054E-03     53.6114E-03    -26.0155E-03     79.8639E-03
             934     14.0305E-03     92.0815E-03    -6.83086E+06    -9.20298E+06    -15.9299E+06    -10.4275E+06    -27.8982E-03     53.8576E-03    -25.9594E-03     91.0304E-03    -28.2010E-03     54.1497E-03    -26.0158E-03     90.7111E-03
             935     14.9067E-03     92.1725E-03    -7.41790E+06     33.9048E+06    -16.1103E+06    -7.15902E+06    -28.4491E-03     54.3463E-03    -25.8972E-03     108.303E-03    -29.1375E-03     55.1755E-03    -26.0162E-03     108.040E-03
             936     15.7850E-03     92.2830E-03    -6.05769E+06     102.074E+06     15.3040E+06    -2.68475E+06    -29.1343E-03     55.0857E-03    -25.9513E-03     133.096E-03    -30.6703E-03     56.9181E-03    -26.0140E-03     133.192E-03
             937     16.6613E-03     92.4218E-03    -4.02524E+06     141.369E+06     65.8688E+06    -609.185E+03    -27.9697E-03     54.1193E-03    -26.1496E-03     89.5432E-03    -29.3179E-03     55.7640E-03    -26.0194E-03     89.8693E-03
             938     876.662E-06     92.4601E-03    -26.0205E+06    -75.8882E+06    -25.9873E+06    -2.67732E+06    -26.2744E-03     52.5479E-03    -26.2734E-03     5.69807E-03    -26.2569E-03     52.2441E-03    -26.2556E-03     5.66090E-03
             939     1.75335E-03     92.4674E-03    -25.4851E+06    -74.3505E+06    -24.2605E+06    -4.74298E+06    -26.2524E-03     52.5182E-03    -26.2657E-03     10.6391E-03    -26.2373E-03     52.2190E-03    -26.2423E-03     10.5728E-03
             940     2.63009E-03     92.4798E-03    -24.3015E+06    -72.2281E+06    -21.3639E+06    -6.74557E+06    -26.2247E-03     52.4784E-03    -26.2537E-03     15.8315E-03    -26.2115E-03     52.1844E-03    -26.2205E-03     15.7365E-03
             941     3.50689E-03     92.4968E-03    -22.7742E+06    -69.6094E+06    -17.7798E+06    -8.52393E+06    -26.2031E-03     52.4412E-03    -26.2381E-03     21.0796E-03    -26.1920E-03     52.1537E-03    -26.1930E-03     20.9584E-03
             942     4.38374E-03     92.5188E-03    -21.0366E+06    -66.3800E+06    -14.1552E+06    -9.91108E+06    -26.1761E-03     52.3927E-03    -26.2166E-03     26.3807E-03    -26.1676E-03     52.1149E-03    -26.1606E-03     26.2375E-03
             943     5.26070E-03     92.5457E-03    -18.9590E+06    -63.8151E+06    -10.2712E+06    -11.0502E+06    -26.1591E-03     52.3512E-03    -26.1921E-03     31.6640E-03    -26.1514E-03     52.0794E-03    -26.1234E-03     31.5011E-03
             944     6.13772E-03     92.5774E-03    -16.7151E+06    -59.7760E+06    -6.58376E+06    -12.1757E+06    -26.1553E-03     52.3164E-03    -26.1611E-03     36.9395E-03    -26.1504E-03     52.0590E-03    -26.0831E-03     36.7561E-03
             945     7.01484E-03     92.6139E-03    -14.6791E+06    -56.0735E+06    -3.74110E+06    -12.9930E+06    -26.1725E-03     52.2977E-03    -26.1252E-03     42.1781E-03    -26.1707E-03     52.0556E-03    -26.0413E-03     41.9766E-03
             946     7.89203E-03     92.6552E-03    -12.9949E+06    -55.3420E+06    -1.99463E+06    -13.7777E+06    -26.2300E-03     52.3196E-03    -26.0896E-03     47.3467E-03    -26.2290E-03     52.0818E-03    -26.0005E-03     47.1259E-03
             947     8.76925E-03     92.7011E-03    -11.6035E+06    -53.5142E+06    -1.97175E+06    -14.4866E+06    -26.3303E-03     52.3779E-03    -26.0477E-03     52.4597E-03    -26.3328E-03     52.1551E-03    -25.9631E-03     52.2183E-03
             948     9.64651E-03     92.7517E-03    -10.4163E+06    -51.8463E+06    -2.23183E+06    -14.8762E+06    -26.4837E-03     52.4948E-03    -26.0111E-03     57.4596E-03    -26.4937E-03     52.2902E-03    -25.9320E-03     57.1992E-03
             949     10.5237E-03     92.8068E-03    -9.52071E+06    -51.4760E+06    -3.78964E+06    -15.2813E+06    -26.6996E-03     52.6785E-03    -25.9789E-03     62.5927E-03    -26.7198E-03     52.4931E-03    -25.9094E-03     62.3099E-03
             950     11.4009E-03     92.8669E-03    -8.84275E+06    -49.0226E+06    -7.14218E+06    -15.3089E+06    -26.9657E-03     52.9108E-03    -25.9451E-03     67.7938E-03    -27.0054E-03     52.7658E-03    -25.8969E-03     67.4899E-03
             951     12.2778E-03     92.9316E-03    -8.57079E+06    -43.5972E+06    -10.1175E+06    -15.1294E+06    -27.2325E-03     53.1515E-03    -25.9191E-03     73.1770E-03    -27.3116E-03     53.0748E-03    -25.8940E-03     72.8511E-03
             952     13.1550E-03     93.0018E-03    -7.96370E+06    -32.6804E+06    -13.0015E+06    -14.4772E+06    -27.5947E-03     53.4882E-03    -25.8935E-03     80.4824E-03    -27.7466E-03     53.5335E-03    -25.8996E-03     80.1370E-03
             953     14.0314E-03     93.0804E-03    -7.21999E+06    -12.6254E+06    -15.5147E+06    -11.4727E+06    -27.8264E-03     53.6836E-03    -25.8572E-03     90.9012E-03    -28.1263E-03     53.9581E-03    -25.9060E-03     90.5698E-03
             954     14.9094E-03     93.1710E-03    -7.17793E+06     29.6063E+06    -16.4481E+06    -7.04149E+06    -28.4630E-03     54.2595E-03    -25.7965E-03     107.998E-03    -29.1381E-03     55.0620E-03    -25.9113E-03     107.738E-03
             955     15.7851E-03     93.2824E-03    -7.75150E+06     97.8971E+06     12.4755E+06    -3.55672E+06    -29.9013E-03     55.7710E-03    -25.8697E-03     132.022E-03    -31.4288E-03     57.5823E-03    -25.9380E-03     132.086E-03
             956     16.6623E-03     93.4215E-03    -5.40782E+06     139.533E+06     64.6769E+06    -1.11500E+06    -28.5091E-03     54.6239E-03    -26.1148E-03     87.6831E-03    -29.8562E-03     56.2596E-03    -25.9859E-03     87.9834E-03
             957     876.785E-06     93.4590E-03    -23.1516E+06    -70.3373E+06    -22.9317E+06    -2.83218E+06    -26.1698E-03     52.3206E-03    -26.1508E-03     5.74862E-03    -26.1504E-03     52.0360E-03    -26.1299E-03     5.70950E-03
             958     1.75354E-03     93.4665E-03    -22.5269E+06    -69.0614E+06    -21.3948E+06    -5.03484E+06    -26.1393E-03     52.2913E-03    -26.1520E-03     10.6533E-03    -26.1212E-03     52.0101E-03    -26.1261E-03     10.5834E-03
             959     2.63039E-03     93.4786E-03    -21.4947E+06    -67.3422E+06    -18.9099E+06    -7.16739E+06    -26.0975E-03     52.2340E-03    -26.1365E-03     15.8916E-03    -26.0808E-03     51.9568E-03    -26.1023E-03     15.7914E-03
             960     3.50730E-03     93.4957E-03    -20.0694E+06    -65.2465E+06    -15.7628E+06    -8.97030E+06    -26.0591E-03     52.1734E-03    -26.1144E-03     21.1579E-03    -26.0437E-03     51.9009E-03    -26.0695E-03     21.0312E-03
             961     4.38430E-03     93.5175E-03    -18.3570E+06    -62.6448E+06    -12.3287E+06    -10.4552E+06    -26.0165E-03     52.1026E-03    -26.0861E-03     26.4830E-03    -26.0026E-03     51.8369E-03    -26.0303E-03     26.3332E-03
             962     5.26140E-03     93.5443E-03    -16.4500E+06    -60.2247E+06    -8.73313E+06    -11.8485E+06    -25.9804E-03     52.0334E-03    -26.0530E-03     31.8179E-03    -25.9675E-03     51.7736E-03    -25.9855E-03     31.6454E-03
             963     6.13861E-03     93.5758E-03    -14.4192E+06    -56.6554E+06    -5.15008E+06    -12.9453E+06    -25.9632E-03     51.9778E-03    -26.0145E-03     37.1474E-03    -25.9532E-03     51.7304E-03    -25.9372E-03     36.9549E-03
             964     7.01590E-03     93.6123E-03    -12.4931E+06    -53.7552E+06    -2.12911E+06    -13.4655E+06    -25.9759E-03     51.9495E-03    -25.9736E-03     42.4406E-03    -25.9686E-03     51.7132E-03    -25.8882E-03     42.2341E-03
             965     7.89326E-03     93.6534E-03    -10.8872E+06    -52.5875E+06    -182.199E+03    -13.9720E+06    -26.0344E-03     51.9667E-03    -25.9324E-03     47.6863E-03    -26.0291E-03     51.7366E-03    -25.8412E-03     47.4642E-03
             966     8.77068E-03     93.6994E-03    -9.56448E+06    -51.2099E+06    -205.125E+03    -14.7152E+06    -26.1494E-03     52.0361E-03    -25.8867E-03     52.8786E-03    -26.1473E-03     51.8188E-03    -25.7996E-03     52.6356E-03
             967     9.64807E-03     93.7499E-03    -8.48827E+06    -50.0480E+06    -679.767E+03    -15.1037E+06    -26.3362E-03     52.1844E-03    -25.8482E-03     57.9721E-03    -26.3409E-03     51.9832E-03    -25.7667E-03     57.7102E-03
             968     10.5254E-03     93.8051E-03    -7.68895E+06    -49.4802E+06    -1.91861E+06    -15.3953E+06    -26.6054E-03     52.4247E-03    -25.8193E-03     63.1534E-03    -26.6217E-03     52.2436E-03    -25.7460E-03     62.8705E-03
             969     11.4026E-03     93.8653E-03    -7.32123E+06    -48.1382E+06    -5.63099E+06    -15.4397E+06    -26.9347E-03     52.7264E-03    -25.7917E-03     68.3944E-03    -26.9699E-03     52.5811E-03    -25.7395E-03     68.0901E-03
             970     12.2797E-03     93.9303E-03    -7.20912E+06    -42.3470E+06    -8.54794E+06    -15.2057E+06    -27.3270E-03     53.1044E-03    -25.7773E-03     73.6985E-03    -27.4034E-03     53.0296E-03    -25.7482E-03     73.3721E-03
             971     13.1564E-03     94.0005E-03    -7.54179E+06    -32.6613E+06    -12.1481E+06    -14.9690E+06    -27.8165E-03     53.5867E-03    -25.7702E-03     80.8865E-03    -27.9678E-03     53.6305E-03    -25.7726E-03     80.5343E-03
             972     14.0333E-03     94.0799E-03    -7.08370E+06    -15.7354E+06    -16.1159E+06    -13.4491E+06    -28.3931E-03     54.1569E-03    -25.7638E-03     90.5239E-03    -28.6889E-03     54.4184E-03    -25.8113E-03     90.1620E-03
             973     14.9096E-03     94.1688E-03    -5.23497E+06     23.4519E+06    -19.3611E+06    -8.61280E+06    -29.2099E-03     54.9481E-03    -25.7382E-03     107.358E-03    -29.8657E-03     55.7247E-03    -25.8615E-03     107.066E-03
             974     15.7863E-03     94.2840E-03    -5.42075E+06     93.5002E+06     9.42712E+06    -3.04406E+06    -30.1365E-03     55.9729E-03    -25.8364E-03     132.692E-03    -31.6427E-03     57.7644E-03    -25.9170E-03     132.757E-03
             975     16.6590E-03     94.4223E-03    -4.88586E+06     138.918E+06     63.8917E+06    -229.486E+03    -28.3201E-03     54.4091E-03    -26.0890E-03     88.8648E-03    -29.6655E-03     56.0450E-03    -25.9639E-03     89.1833E-03
             976     876.885E-06     94.4580E-03    -20.2421E+06    -64.3187E+06    -20.0496E+06    -3.08077E+06    -25.9918E-03     51.9905E-03    -25.9988E-03     5.77970E-03    -25.9707E-03     51.7276E-03    -25.9764E-03     5.73746E-03
             977     1.75384E-03     94.4652E-03    -19.4495E+06    -63.4640E+06    -18.4036E+06    -5.44203E+06    -25.9678E-03     51.9539E-03    -25.9861E-03     10.6978E-03    -25.9467E-03     51.6919E-03    -25.9579E-03     10.6228E-03
             978     2.63083E-03     94.4774E-03    -18.2592E+06    -62.1254E+06    -16.1718E+06    -7.67433E+06    -25.9233E-03     51.8901E-03    -25.9668E-03     15.9614E-03    -25.9020E-03     51.6303E-03    -25.9311E-03     15.8549E-03
             979     3.50791E-03     94.4942E-03    -16.7794E+06    -60.6897E+06    -13.2853E+06    -9.62780E+06    -25.8650E-03     51.8046E-03    -25.9396E-03     21.2658E-03    -25.8433E-03     51.5464E-03    -25.8937E-03     21.1311E-03
             980     4.38508E-03     94.5160E-03    -15.0893E+06    -58.6968E+06    -10.0228E+06    -11.1252E+06    -25.8051E-03     51.7095E-03    -25.9044E-03     26.6298E-03    -25.7838E-03     51.4553E-03    -25.8476E-03     26.4720E-03
             981     5.26239E-03     94.5425E-03    -13.3821E+06    -56.3405E+06    -6.60180E+06    -12.4610E+06    -25.7543E-03     51.6176E-03    -25.8633E-03     32.0188E-03    -25.7346E-03     51.3695E-03    -25.7952E-03     31.8392E-03
             982     6.13979E-03     94.5740E-03    -11.8196E+06    -53.7425E+06    -3.46112E+06    -13.4198E+06    -25.7223E-03     51.5393E-03    -25.8171E-03     37.4157E-03    -25.7057E-03     51.3000E-03    -25.7393E-03     37.2181E-03
             983     7.01731E-03     94.6103E-03    -10.3078E+06    -51.5013E+06    -618.315E+03    -13.8487E+06    -25.7295E-03     51.4990E-03    -25.7696E-03     42.7928E-03    -25.7164E-03     51.2684E-03    -25.6830E-03     42.5826E-03
             984     7.89492E-03     94.6513E-03    -8.63986E+06    -50.0120E+06     1.53358E+06     -14.352E+06    -25.7980E-03     51.5211E-03    -25.7231E-03     48.1441E-03    -25.7873E-03     51.2977E-03    -25.6304E-03     47.9186E-03
             985     8.77251E-03     94.6972E-03    -7.24576E+06      -48.92E+06     1.73004E+06    -14.8310E+06    -25.9432E-03     51.6191E-03    -25.6759E-03     53.4445E-03    -25.9351E-03     51.4065E-03    -25.5858E-03     53.2018E-03
             986     9.65012E-03     94.7478E-03    -6.27561E+06    -48.2038E+06     1.07208E+06    -15.2230E+06    -26.1764E-03     51.8142E-03    -25.6378E-03     58.6707E-03    -26.1747E-03     51.6160E-03    -25.5535E-03     58.4092E-03
             987     10.5275E-03     94.8032E-03    -5.53649E+06    -47.7176E+06    -141.512E+03    -15.4250E+06    -26.5188E-03     52.1331E-03    -25.6143E-03     63.9713E-03    -26.5289E-03     51.9545E-03    -25.5378E-03     63.6898E-03
             988     11.4049E-03     94.8636E-03    -5.21920E+06    -47.2016E+06    -3.74427E+06    -15.2646E+06    -26.9631E-03     52.5626E-03    -25.5995E-03     69.2505E-03    -26.9916E-03     52.4159E-03    -25.5423E-03     68.9498E-03
             989     12.2818E-03     94.9289E-03    -5.33963E+06    -41.2063E+06    -6.70366E+06    -14.9839E+06    -27.5340E-03     53.1385E-03    -25.6045E-03     74.7002E-03    -27.6054E-03     53.0641E-03    -25.5705E-03     74.3772E-03
             990     13.1584E-03     94.9998E-03    -5.89534E+06    -32.1918E+06    -9.71257E+06    -14.4062E+06    -28.2344E-03     53.8657E-03    -25.6313E-03     81.7537E-03    -28.3829E-03     53.9071E-03    -25.6246E-03     81.4071E-03
             991     14.0344E-03     95.0789E-03    -7.18825E+06    -16.5522E+06    -14.7737E+06    -13.7572E+06    -29.1708E-03     54.8379E-03    -25.6671E-03     91.7826E-03    -29.4726E-03     55.0983E-03    -25.7066E-03     91.4104E-03
             992     14.9092E-03     95.1703E-03    -8.71792E+06     16.3836E+06    -21.9743E+06    -10.6487E+06    -30.0564E-03     55.7427E-03    -25.6863E-03     108.712E-03    -30.7275E-03     56.5047E-03    -25.8073E-03     108.385E-03
             993     15.7844E-03     95.2819E-03    -6.05529E+06     86.5656E+06     3.84119E+06    -3.55468E+06    -29.8311E-03     55.6125E-03    -25.7815E-03     132.991E-03    -31.3098E-03     57.3659E-03    -25.8790E-03     133.060E-03
             994     16.6661E-03     95.4229E-03    -2.36332E+06     138.816E+06     61.2469E+06     462.192E+03    -27.7282E-03     53.7392E-03    -26.0110E-03     89.0254E-03    -29.0369E-03     55.3547E-03    -25.9026E-03     89.3665E-03
             995     877.121E-06     95.4563E-03    -16.4541E+06    -57.7873E+06    -16.3575E+06    -3.36663E+06    -25.7552E-03     51.5422E-03    -25.7870E-03     5.79992E-03    -25.7301E-03     51.3011E-03    -25.7611E-03     5.75412E-03
             996     1.75425E-03     95.4637E-03    -15.8785E+06    -57.3410E+06    -15.3132E+06    -5.96594E+06    -25.7321E-03     51.4892E-03    -25.7570E-03     10.7595E-03    -25.7066E-03     51.2481E-03    -25.7274E-03     10.6780E-03
             997     2.63143E-03     95.4756E-03    -14.8772E+06    -56.6581E+06    -13.3753E+06    -8.35279E+06    -25.6761E-03     51.4083E-03    -25.7322E-03     16.0457E-03    -25.6498E-03     51.1668E-03    -25.6953E-03     15.9309E-03
             998     3.50874E-03     95.4924E-03    -13.6534E+06    -55.7667E+06    -10.8882E+06    -10.3355E+06    -25.6009E-03     51.2987E-03    -25.6978E-03     21.4069E-03    -25.5741E-03     51.0571E-03    -25.6516E-03     21.2636E-03
             999     4.38616E-03     95.5139E-03    -12.1891E+06    -54.6682E+06    -8.07839E+06    -11.9074E+06    -25.5262E-03     51.1809E-03    -25.6547E-03     26.8275E-03    -25.4990E-03     50.9398E-03    -25.5981E-03     26.6604E-03
            1000     5.26371E-03     95.5404E-03    -10.6107E+06    -52.5409E+06    -5.00809E+06    -13.0287E+06    -25.4599E-03     51.0646E-03    -25.6046E-03     32.2964E-03    -25.4340E-03     50.8290E-03    -25.5381E-03     32.1106E-03
            1001     6.14139E-03     95.5716E-03    -9.18303E+06    -51.1381E+06    -1.88289E+06    -13.6285E+06    -25.4189E-03     50.9715E-03    -25.5526E-03     37.7738E-03    -25.3949E-03     50.7388E-03    -25.4745E-03     37.5749E-03
            1002     7.01920E-03     95.6078E-03    -7.90053E+06    -48.9801E+06     714.062E+03    -14.0293E+06    -25.4211E-03     50.9183E-03    -25.4973E-03     43.2774E-03    -25.4011E-03     50.6944E-03    -25.4112E-03     43.0666E-03
            1003     7.89705E-03     95.6488E-03    -6.62620E+06    -47.3528E+06     2.73932E+06    -14.7650E+06    -25.4997E-03     50.9447E-03    -25.4450E-03     48.7769E-03    -25.4839E-03     50.7293E-03    -25.3530E-03     48.5480E-03
            1004     8.77496E-03     95.6946E-03    -5.34634E+06    -47.1814E+06     3.05307E+06    -15.0326E+06    -25.6812E-03     51.0784E-03    -25.3972E-03     54.2521E-03    -25.6673E-03     50.8692E-03    -25.3058E-03     54.0090E-03
            1005     9.65272E-03     95.7454E-03    -4.40764E+06    -45.9967E+06     2.54694E+06    -15.2467E+06    -25.9723E-03     51.3331E-03    -25.3608E-03     59.6676E-03    -25.9658E-03     51.1402E-03    -25.2750E-03     59.4082E-03
            1006     10.5304E-03     95.8009E-03    -3.89482E+06    -46.5352E+06     1.46106E+06    -15.3535E+06    -26.4040E-03     51.7503E-03    -25.3463E-03     65.1718E-03    -26.4091E-03     51.5722E-03    -25.2659E-03     64.8937E-03
            1007     11.4077E-03     95.8618E-03    -3.61817E+06    -45.9350E+06    -1.87253E+06    -15.1374E+06    -27.0014E-03     52.3483E-03    -25.3470E-03     70.6592E-03    -27.0260E-03     52.2025E-03    -25.2845E-03     70.3620E-03
            1008     12.2846E-03     95.9274E-03    -3.61561E+06    -40.7186E+06    -4.83764E+06    -14.6672E+06    -27.6998E-03     53.0739E-03    -25.3741E-03     76.3436E-03    -27.7660E-03     52.9968E-03    -25.3340E-03     76.0259E-03
            1009     13.1610E-03     95.9992E-03    -3.85491E+06    -31.8074E+06    -7.14498E+06    -13.7759E+06    -28.6022E-03     54.0345E-03    -25.4323E-03     83.7579E-03    -28.7464E-03     54.0728E-03    -25.4163E-03     83.4189E-03
            1010     14.0366E-03     96.0791E-03    -5.13724E+06    -17.4822E+06    -13.0483E+06    -12.0359E+06    -29.5179E-03     55.0126E-03    -25.4948E-03     94.1217E-03    -29.8144E-03     55.2667E-03    -25.5272E-03     93.7709E-03
            1011     14.9127E-03     96.1711E-03    -7.27751E+06     12.7612E+06    -21.1703E+06    -9.09894E+06    -30.5465E-03     56.0882E-03    -25.5417E-03     111.033E-03    -31.2142E-03     56.8368E-03    -25.6555E-03     110.724E-03
            1012     15.7878E-03     96.2834E-03    -9.72380E+06     79.2883E+06    -1.57032E+06    -5.41874E+06    -30.7671E-03     56.4299E-03    -25.6628E-03     133.111E-03    -32.2562E-03     58.1705E-03    -25.7715E-03     133.144E-03
            1013     16.6606E-03     96.4185E-03    -4.53007E+06     134.970E+06     56.9130E+06    -1.76541E+06    -27.8400E-03     53.7664E-03    -25.9264E-03     89.3407E-03    -29.1591E-03     55.3835E-03    -25.8310E-03     89.6514E-03
            1014     877.331E-06     96.4543E-03    -12.5806E+06    -50.6814E+06    -12.6998E+06    -3.62156E+06    -25.4821E-03     50.9388E-03    -25.4567E-03     5.83704E-03    -25.4532E-03     50.7223E-03    -25.4284E-03     5.78812E-03
            1015     1.75475E-03     96.4615E-03    -12.2448E+06    -50.7056E+06    -12.1075E+06    -6.43189E+06    -25.4105E-03     50.8596E-03    -25.4491E-03     10.8422E-03    -25.3810E-03     50.6417E-03    -25.4184E-03     10.7550E-03
            1016     2.63226E-03     96.4734E-03    -11.6823E+06    -50.8791E+06    -10.8931E+06    -8.91650E+06    -25.3381E-03     50.7521E-03    -25.4141E-03     16.1734E-03    -25.3077E-03     50.5313E-03    -25.3778E-03     16.0518E-03
            1017     3.50986E-03     96.4899E-03    -10.8480E+06    -50.7107E+06    -9.02137E+06    -10.9001E+06    -25.2504E-03     50.6206E-03    -25.3702E-03     21.5936E-03    -25.2196E-03     50.3974E-03    -25.3261E-03     21.4438E-03
            1018     4.38760E-03     96.5113E-03    -9.87289E+06    -50.2875E+06    -6.73825E+06    -12.5214E+06    -25.1572E-03     50.4754E-03    -25.3181E-03     27.0972E-03    -25.1265E-03     50.2506E-03    -25.2646E-03     26.9232E-03
            1019     5.26548E-03     96.5375E-03    -8.74330E+06    -49.1189E+06    -4.30588E+06    -13.5934E+06    -25.0741E-03     50.3325E-03    -25.2584E-03     32.6656E-03    -25.0445E-03     50.1100E-03    -25.1960E-03     32.4738E-03
            1020     6.14351E-03     96.5687E-03    -7.45253E+06    -48.6445E+06    -1.43003E+06    -13.9892E+06    -25.0247E-03     50.2229E-03    -25.1982E-03     38.2677E-03    -24.9959E-03     49.9991E-03    -25.1240E-03     38.0659E-03
            1021     7.02164E-03     96.6046E-03    -6.02577E+06    -46.3382E+06     1.30240E+06    -14.3831E+06    -25.0260E-03     50.1617E-03    -25.1357E-03     43.9306E-03    -25.0008E-03     49.9468E-03    -25.0533E-03     43.7174E-03
            1022     7.89992E-03     96.6456E-03    -4.85231E+06    -44.8324E+06     3.57644E+06    -14.7747E+06    -25.1156E-03     50.1947E-03    -25.0791E-03     49.6222E-03    -25.0950E-03     49.9874E-03    -24.9892E-03     49.3958E-03
            1023     8.77810E-03     96.6914E-03    -4.04074E+06    -45.3557E+06     4.22786E+06    -15.1744E+06    -25.3344E-03     50.3662E-03    -25.0318E-03     55.3187E-03    -25.3174E-03     50.1616E-03    -24.9390E-03     55.0768E-03
            1024     9.65628E-03     96.7424E-03    -3.30655E+06    -44.2585E+06     3.81742E+06    -15.1945E+06    -25.6903E-03     50.6880E-03    -24.9977E-03     60.9781E-03    -25.6817E-03     50.4994E-03    -24.9097E-03     60.7225E-03
            1025     10.5341E-03     96.7983E-03    -2.87006E+06    -45.2081E+06     3.19126E+06    -15.0988E+06    -26.2254E-03     51.2190E-03    -24.9936E-03     66.7496E-03    -26.2289E-03     51.0426E-03    -24.9079E-03     66.4778E-03
            1026     11.4117E-03     96.8595E-03    -2.68389E+06    -44.8331E+06    -34.2588E+03    -15.0079E+06    -26.9417E-03     51.9506E-03    -25.0089E-03     72.5539E-03    -26.9652E-03     51.8056E-03    -24.9402E-03     72.2611E-03
            1027     12.2885E-03     96.9261E-03    -2.73406E+06    -40.3371E+06    -2.81511E+06    -14.4909E+06    -27.7676E-03     52.8252E-03    -25.0576E-03     78.4404E-03    -27.8331E-03     52.7459E-03    -25.0092E-03     78.1269E-03
            1028     13.1650E-03     96.9983E-03    -3.14998E+06    -32.4271E+06    -5.05234E+06    -13.2654E+06    -28.7038E-03     53.8429E-03    -25.1390E-03     86.1850E-03    -28.8477E-03     53.8751E-03    -25.1127E-03     85.8545E-03
            1029     14.0409E-03     97.0799E-03    -3.61690E+06    -18.6467E+06    -9.83206E+06    -11.2377E+06    -29.7861E-03     55.0167E-03    -25.2306E-03     96.3539E-03    -30.0816E-03     55.2617E-03    -25.2474E-03     96.0135E-03
            1030     14.9157E-03     97.1710E-03    -3.79040E+06     8.09060E+06    -16.8400E+06    -7.39670E+06    -30.7207E-03     56.0286E-03    -25.3080E-03     113.046E-03    -31.3752E-03     56.7472E-03    -25.3984E-03     112.761E-03
            1031     15.7901E-03     97.2862E-03    -4.78673E+06     77.7925E+06     3.59337E+06    -4.00849E+06    -31.1471E-03     56.5951E-03    -25.4480E-03     135.474E-03    -32.6367E-03     58.3334E-03    -25.5359E-03     135.528E-03
            1032     16.6675E-03     97.4192E-03    -4.14989E+06     134.037E+06     57.7241E+06    -2.39083E+06    -29.3720E-03     55.1228E-03    -25.7508E-03     91.8793E-03    -30.7135E-03     56.7580E-03    -25.6505E-03     92.1702E-03
            1033     877.739E-06     97.4516E-03    -9.52199E+06    -43.1037E+06    -9.55861E+06    -3.86192E+06    -25.0410E-03     50.0984E-03    -25.0574E-03     5.88268E-03    -25.0124E-03     49.9108E-03    -25.0289E-03     5.83087E-03
            1034     1.75548E-03     97.4587E-03    -9.36288E+06    -43.7377E+06    -9.32936E+06    -6.73452E+06    -24.9900E-03     50.0182E-03    -25.0283E-03     10.9671E-03    -24.9602E-03     49.8270E-03    -24.9979E-03     10.8764E-03
            1035     2.63335E-03     97.4704E-03    -8.94939E+06    -44.7456E+06    -8.64098E+06    -9.35136E+06    -24.9032E-03     49.8926E-03    -24.9894E-03     16.3494E-03    -24.8713E-03     49.6951E-03    -24.9548E-03     16.2229E-03
            1036     3.51134E-03     97.4868E-03    -8.31930E+06    -45.5443E+06    -7.43272E+06    -11.4127E+06    -24.7945E-03     49.7321E-03    -24.9376E-03     21.8354E-03    -24.7607E-03     49.5286E-03    -24.8967E-03     21.6799E-03
            1037     4.38950E-03     97.5079E-03    -7.51957E+06    -45.7864E+06    -5.64238E+06    -12.9605E+06    -24.6808E-03     49.5566E-03    -24.8758E-03     27.4382E-03    -24.6462E-03     49.3491E-03    -24.8267E-03     27.2599E-03
            1038     5.26781E-03     97.5339E-03    -6.78074E+06    -45.8397E+06    -3.67564E+06    -13.8727E+06    -24.5805E-03     49.3872E-03    -24.8067E-03     33.1246E-03    -24.5465E-03     49.1770E-03    -24.7488E-03     32.9310E-03
            1039     6.14629E-03     97.5648E-03    -5.94731E+06    -45.9577E+06    -1.35971E+06    -14.4184E+06    -24.5191E-03     49.2551E-03    -24.7360E-03     38.8890E-03    -24.4862E-03     49.0419E-03    -24.6676E-03     38.6838E-03
            1040     7.02491E-03     97.6007E-03    -5.04938E+06    -43.9336E+06     1.27501E+06    -14.6670E+06    -24.5212E-03     49.1872E-03    -24.6661E-03     44.7387E-03    -24.4938E-03     48.9823E-03    -24.5887E-03     44.5244E-03
            1041     7.90357E-03     97.6415E-03    -4.26612E+06    -42.8780E+06     3.91932E+06    -14.6426E+06    -24.6317E-03     49.2386E-03    -24.6069E-03     50.6510E-03    -24.6106E-03     49.0388E-03    -24.5190E-03     50.4294E-03
            1042     8.78229E-03     97.6875E-03    -3.76317E+06    -43.1679E+06     5.23908E+06    -14.7319E+06    -24.8912E-03     49.4521E-03    -24.5609E-03     56.5998E-03    -24.8763E-03     49.2554E-03    -24.4667E-03     56.3670E-03
            1043     9.66072E-03     97.7386E-03    -3.59006E+06    -42.9044E+06     4.79068E+06    -14.9042E+06    -25.3242E-03     49.8556E-03    -24.5315E-03     62.5362E-03    -25.3190E-03     49.6716E-03    -24.4401E-03     62.2881E-03
            1044     10.5391E-03     97.7950E-03    -3.21629E+06    -43.6673E+06     4.49275E+06    -14.8895E+06    -25.9674E-03     50.5052E-03    -24.5378E-03     68.6156E-03    -25.9756E-03     50.3339E-03    -24.4474E-03     68.3502E-03
            1045     11.4167E-03     97.8569E-03    -3.20743E+06    -44.1141E+06     1.66055E+06    -14.5533E+06    -26.8055E-03     51.3775E-03    -24.5720E-03     74.6583E-03    -26.8344E-03     51.2335E-03    -24.4950E-03     74.3748E-03
            1046     12.2940E-03     97.9242E-03    -3.72011E+06    -39.7379E+06    -932.644E+03    -13.9667E+06    -27.7786E-03     52.4230E-03    -24.6443E-03     80.6948E-03    -27.8527E-03     52.3455E-03    -24.5860E-03     80.3907E-03
            1047     13.1702E-03     97.9976E-03    -4.13501E+06    -33.1752E+06    -3.23425E+06    -13.0299E+06    -28.8514E-03     53.6068E-03    -24.7554E-03     88.3160E-03    -29.0031E-03     53.6355E-03    -24.7175E-03     87.9900E-03
            1048     14.0462E-03     98.0794E-03    -4.62268E+06    -20.5600E+06    -7.85518E+06    -10.7306E+06    -30.0464E-03     54.9273E-03    -24.8810E-03     98.6127E-03    -30.3503E-03     55.1646E-03    -24.8837E-03     98.2798E-03
            1049     14.9209E-03     98.1734E-03    -6.15449E+06     3.97239E+06    -14.0057E+06    -7.63728E+06    -31.0379E-03     56.0396E-03    -25.0017E-03     114.197E-03    -31.7046E-03     56.7392E-03    -25.0686E-03     113.910E-03
            1050     15.7978E-03     98.2847E-03    -3.74092E+06     75.2805E+06     6.52001E+06    -3.67062E+06    -31.9000E-03     57.0824E-03    -25.1823E-03     134.776E-03    -33.3848E-03     58.8022E-03    -25.2535E-03     134.817E-03
            1051     16.6724E-03     98.4221E-03    -2.76253E+06     133.391E+06     58.0472E+06    -1.28043E+06    -31.1780E-03     56.7307E-03    -25.5526E-03     89.6854E-03    -32.5050E-03     58.3530E-03    -25.4518E-03     89.9534E-03
            1052     878.188E-06     98.4479E-03    -5.53283E+06    -35.3674E+06    -5.48783E+06    -3.87242E+06    -24.4762E-03     49.0141E-03    -24.5378E-03     5.96108E-03    -24.4447E-03     48.8534E-03    -24.5060E-03     5.90941E-03
            1053     1.75647E-03     98.4550E-03    -5.43322E+06    -36.4584E+06    -5.44715E+06    -6.85058E+06    -24.4465E-03     48.9322E-03    -24.4857E-03     11.0798E-03    -24.4132E-03     48.7660E-03    -24.4522E-03     10.9881E-03
            1054     2.63477E-03     98.4665E-03    -5.44699E+06    -38.4952E+06    -5.40922E+06    -9.50682E+06    -24.3473E-03     48.7905E-03    -24.4432E-03     16.5353E-03    -24.3115E-03     48.6144E-03    -24.4065E-03     16.4076E-03
            1055     3.51328E-03     98.4826E-03    -5.46809E+06    -40.1479E+06     -5.5626E+06    -11.6406E+06    -24.2171E-03     48.5982E-03    -24.3810E-03     22.1229E-03    -24.1794E-03     48.4146E-03    -24.3427E-03     21.9656E-03
            1056     4.39193E-03     98.5036E-03    -5.45795E+06    -41.4138E+06    -5.17812E+06    -13.1669E+06    -24.0809E-03     48.3875E-03    -24.3066E-03     27.8380E-03    -24.0427E-03     48.1979E-03    -24.2645E-03     27.6585E-03
            1057     5.27080E-03     98.5293E-03    -5.34734E+06    -42.7554E+06    -3.79280E+06    -13.8606E+06    -23.9639E-03     48.1922E-03    -24.2282E-03     33.6638E-03    -23.9266E-03     47.9950E-03    -24.1775E-03     33.4723E-03
            1058     6.14983E-03     98.5600E-03    -5.31390E+06    -43.0104E+06    -1.80366E+06    -14.2638E+06    -23.8924E-03     48.0410E-03    -24.1486E-03     39.5979E-03    -23.8594E-03     47.8416E-03    -24.0875E-03     39.3972E-03
            1059     7.02900E-03     98.5956E-03    -5.50436E+06    -42.3182E+06     484.386E+03    -14.1141E+06    -23.9033E-03     47.9768E-03    -24.0735E-03     45.6510E-03    -23.8786E-03     47.7808E-03    -24.0017E-03     45.4469E-03
            1060     7.90828E-03     98.6365E-03    -5.78496E+06    -40.8285E+06     3.14010E+06    -13.9206E+06    -24.0426E-03     48.0542E-03    -24.0116E-03     51.8098E-03    -24.0299E-03     47.8668E-03    -23.9283E-03     51.6010E-03
            1061     8.78741E-03     98.6825E-03    -5.86140E+06    -41.5752E+06     4.82637E+06    -13.9499E+06    -24.3622E-03     48.3320E-03    -23.9698E-03     58.0281E-03    -24.3582E-03     48.1456E-03    -23.8769E-03     57.8093E-03
            1062     9.66649E-03     98.7341E-03    -5.97442E+06    -41.0763E+06     4.93640E+06    -13.9220E+06    -24.8988E-03     48.8493E-03    -23.9505E-03     64.2558E-03    -24.9070E-03     48.6762E-03    -23.8576E-03     64.0243E-03
            1063     10.5450E-03     98.7909E-03    -6.41476E+06    -42.1464E+06     4.61858E+06    -14.2979E+06    -25.6725E-03     49.6458E-03    -23.9733E-03     70.5978E-03    -25.6978E-03     49.4853E-03    -23.8798E-03     70.3439E-03
            1064     11.4231E-03     98.8537E-03    -6.57653E+06    -43.5980E+06     2.08157E+06    -13.9942E+06    -26.6882E-03     50.7222E-03    -24.0341E-03     76.8468E-03    -26.7345E-03     50.5844E-03    -23.9509E-03     76.5739E-03
            1065     12.3001E-03     98.9220E-03    -6.47897E+06    -38.9430E+06     7.14324E+03    -13.5897E+06    -27.8874E-03     52.0287E-03    -24.1413E-03     82.9427E-03    -27.9780E-03     51.9580E-03    -24.0754E-03     82.6456E-03
            1066     13.1767E-03     98.9965E-03    -6.56034E+06    -33.7286E+06    -1.93837E+06    -12.7116E+06    -29.2374E-03     53.5382E-03    -24.3008E-03     90.3872E-03    -29.4044E-03     53.5678E-03    -24.2520E-03     90.0652E-03
            1067     14.0517E-03     99.0796E-03    -6.88870E+06    -23.2329E+06    -6.71814E+06    -10.6665E+06    -30.5498E-03     55.0305E-03    -24.4806E-03     100.162E-03    -30.8654E-03     55.2586E-03    -24.4705E-03     99.8289E-03
            1068     14.9273E-03     99.1738E-03    -6.55176E+06     1.83189E+06    -10.4359E+06    -7.46375E+06    -32.2054E-03     56.8854E-03    -24.6799E-03     114.751E-03    -32.8817E-03     57.5753E-03    -24.7253E-03     114.451E-03
            1069     15.7986E-03     99.2872E-03    -7.70334E+06     70.9154E+06     5.93049E+06    -4.69023E+06    -33.9555E-03     58.9099E-03    -24.9544E-03     135.409E-03    -35.4817E-03     60.6434E-03    -25.0165E-03     135.391E-03
            1070     16.6699E-03     99.4254E-03    -4.93591E+06     129.440E+06     56.2827E+06    -2.19848E+06    -32.5787E-03     57.9966E-03    -25.4179E-03     90.6727E-03    -33.9346E-03     59.6313E-03    -25.3170E-03     90.8966E-03
            1071     878.801E-06     99.4431E-03    -2.68280E+06    -27.5299E+06    -2.86451E+06    -3.81092E+06    -23.8346E-03     47.6521E-03    -23.8175E-03     6.06829E-03    -23.8040E-03     47.5227E-03    -23.7881E-03     6.01771E-03
            1072     1.75759E-03     99.4500E-03    -3.02135E+06    -29.3394E+06    -3.43540E+06    -6.72501E+06    -23.7510E-03     47.5504E-03    -23.7994E-03     11.2225E-03    -23.7189E-03     47.4133E-03    -23.7697E-03     11.1331E-03
            1073     2.63660E-03     99.4614E-03    -3.51908E+06    -32.2270E+06    -4.26381E+06    -9.26711E+06    -23.6353E-03     47.3831E-03    -23.7477E-03     16.7512E-03    -23.6006E-03     47.2337E-03    -23.7172E-03     16.6275E-03
            1074     3.51568E-03     99.4773E-03    -4.19945E+06    -34.7875E+06    -5.39572E+06    -11.3467E+06    -23.4939E-03     47.1697E-03    -23.6758E-03     22.4382E-03    -23.4577E-03     47.0107E-03    -23.6462E-03     22.2860E-03
            1075     4.39503E-03     99.4979E-03    -5.17806E+06    -37.3481E+06    -6.15599E+06    -12.6148E+06    -23.3429E-03     46.9349E-03    -23.5919E-03     28.2757E-03    -23.3075E-03     46.7663E-03    -23.5611E-03     28.1051E-03
            1076     5.27452E-03     99.5234E-03    -6.33184E+06    -39.8718E+06    -5.77493E+06    -13.1549E+06    -23.2155E-03     46.7207E-03    -23.5053E-03     34.2531E-03    -23.1839E-03     46.5418E-03    -23.4671E-03     34.0730E-03
            1077     6.15424E-03     99.5538E-03    -7.53062E+06    -40.6967E+06    -4.16996E+06    -13.0493E+06    -23.1473E-03     46.5682E-03    -23.4208E-03     40.3649E-03    -23.1246E-03     46.3863E-03    -23.3718E-03     40.1825E-03
            1078     7.03408E-03     99.5893E-03    -8.55031E+06    -40.9104E+06    -1.76169E+06    -12.7320E+06    -23.1834E-03     46.5297E-03    -23.3463E-03     46.6266E-03    -23.1717E-03     46.3474E-03    -23.2833E-03     46.4435E-03
            1079     7.91392E-03     99.6301E-03    -9.42928E+06    -39.3337E+06     941.277E+03    -12.2119E+06    -23.3708E-03     46.6577E-03    -23.2869E-03     53.0394E-03    -23.3740E-03     46.4850E-03    -23.2115E-03     52.8564E-03
            1080     8.79376E-03     99.6765E-03    -10.4859E+06    -39.7055E+06     3.28891E+06    -12.2437E+06    -23.7838E-03     47.0407E-03    -23.2569E-03     59.5342E-03    -23.8020E-03     46.8712E-03    -23.1677E-03     59.3414E-03
            1081     9.67313E-03     99.7283E-03    -11.2626E+06    -39.6511E+06     3.84975E+06    -12.4898E+06    -24.4567E-03     47.7141E-03    -23.2573E-03     66.0627E-03    -24.4904E-03     47.5558E-03    -23.1643E-03     65.8539E-03
            1082     10.5522E-03     99.7860E-03    -11.9307E+06    -40.1722E+06     4.10897E+06    -12.5959E+06    -25.4172E-03     48.7254E-03    -23.3082E-03     72.6517E-03    -25.4709E-03     48.5822E-03    -23.2121E-03     72.4237E-03
            1083     11.4302E-03     99.8496E-03    -12.3823E+06    -42.2297E+06     1.97189E+06    -13.5644E+06    -26.6770E-03     50.0863E-03    -23.4094E-03     79.1179E-03    -26.7535E-03     49.9632E-03    -23.3203E-03     78.8536E-03
            1084     12.3076E-03     99.9195E-03    -12.0337E+06    -38.1413E+06     69.5063E+03    -13.7152E+06    -28.1804E-03     51.7486E-03    -23.5682E-03     85.3100E-03    -28.3006E-03     51.6905E-03    -23.4951E-03     85.0126E-03
            1085     13.1833E-03     99.9953E-03    -11.0645E+06    -34.0782E+06    -1.42371E+06    -13.2368E+06    -29.8438E-03     53.6374E-03    -23.7936E-03     92.5825E-03    -30.0360E-03     53.6735E-03    -23.7352E-03     92.2522E-03
            1086     14.0585E-03     100.080E-03    -8.99098E+06    -24.9449E+06    -5.31730E+06    -12.0751E+06    -31.6929E-03     55.7506E-03    -24.0577E-03     101.986E-03    -32.0245E-03     55.9772E-03    -24.0350E-03     101.626E-03
            1087     14.9310E-03     100.175E-03    -7.17502E+06    -3.35521E+06    -8.51161E+06    -8.86872E+06    -33.7616E-03     58.1226E-03    -24.3610E-03     116.818E-03    -34.4523E-03     58.8007E-03    -24.3883E-03     116.480E-03
            1088     15.8044E-03     100.292E-03    -4.91967E+06     69.0199E+06     10.6651E+06    -4.43316E+06    -35.2666E-03     59.9981E-03    -24.7315E-03     137.269E-03    -36.8069E-03     61.7350E-03    -24.7711E-03     137.231E-03
            1089     16.6775E-03     100.430E-03    -3.65369E+06     129.033E+06     58.6661E+06    -1.45644E+06    -34.0677E-03     59.3326E-03    -25.2649E-03     91.5069E-03    -35.4329E-03     60.9728E-03    -25.1534E-03     91.7193E-03
            1090     879.508E-06     100.437E-03    -1.63585E+06    -19.9832E+06    -2.18777E+06    -3.69967E+06    -22.9891E-03     45.9615E-03    -22.9724E-03     6.12491E-03    -22.9652E-03     45.8673E-03    -22.9520E-03     6.07614E-03
            1091     1.75914E-03     100.444E-03    -2.53418E+06    -22.5265E+06    -3.66173E+06    -6.33528E+06    -22.8884E-03     45.8350E-03    -22.9466E-03     11.3657E-03    -22.8633E-03     45.7315E-03    -22.9285E-03     11.2819E-03
            1092     2.63879E-03     100.455E-03    -3.62528E+06    -26.2124E+06    -5.41561E+06    -8.79088E+06    -22.7690E-03     45.6554E-03    -22.8864E-03     16.9926E-03    -22.7417E-03     45.5379E-03    -22.8703E-03     16.8760E-03
            1093     3.51872E-03     100.470E-03    -5.07061E+06    -30.0009E+06    -7.12371E+06    -10.4276E+06    -22.6225E-03     45.4331E-03    -22.8106E-03     22.7622E-03    -22.5949E-03     45.3015E-03    -22.7954E-03     22.6233E-03
            1094     4.39875E-03     100.491E-03    -7.01262E+06    -34.0650E+06    -8.41283E+06    -11.0892E+06    -22.4708E-03     45.1956E-03    -22.7248E-03     28.7078E-03    -22.4457E-03     45.0490E-03    -22.7073E-03     28.5587E-03
            1095     5.27908E-03     100.516E-03    -9.49535E+06    -37.6421E+06    -8.67493E+06    -10.9220E+06    -22.3517E-03     44.9889E-03    -22.6371E-03     34.8264E-03    -22.3344E-03     44.8293E-03    -22.6122E-03     34.6772E-03
            1096     6.15951E-03     100.546E-03    -12.0585E+06    -39.0943E+06    -7.62889E+06    -10.5726E+06    -22.3056E-03     44.8597E-03    -22.5542E-03     41.1160E-03    -22.3020E-03     44.6966E-03    -22.5181E-03     40.9684E-03
            1097     7.04007E-03     100.581E-03    -14.1222E+06    -39.3140E+06    -5.15132E+06    -10.4069E+06    -22.3886E-03     44.8753E-03    -22.4866E-03     47.5966E-03    -22.4012E-03     44.7130E-03    -22.4349E-03     47.4468E-03
            1098     7.92065E-03     100.622E-03    -15.4221E+06    -38.6605E+06    -1.77668E+06    -10.0193E+06    -22.6634E-03     45.1069E-03    -22.4435E-03     54.2608E-03    -22.6924E-03     44.9489E-03    -22.3739E-03     54.1097E-03
            1099     8.80097E-03     100.669E-03    -15.9304E+06    -37.4943E+06      1.8997E+06    -10.0014E+06    -23.2013E-03     45.6367E-03    -22.4354E-03     61.0584E-03    -23.2464E-03     45.4866E-03    -22.3485E-03     60.8985E-03
            1100     9.68099E-03     100.721E-03    -16.1193E+06    -38.1013E+06     3.57557E+06    -10.6939E+06    -24.0582E-03     46.5274E-03    -22.4691E-03     67.8835E-03    -24.1166E-03     46.3828E-03    -22.3726E-03     67.7018E-03
            1101     10.5601E-03     100.780E-03    -15.4950E+06    -38.2843E+06     4.59543E+06    -11.3993E+06    -25.2552E-03     47.8153E-03    -22.5601E-03     74.7912E-03    -25.3289E-03     47.6848E-03    -22.4592E-03     74.5822E-03
            1102     11.4386E-03     100.845E-03    -14.6713E+06    -39.3585E+06     3.62102E+06    -12.4822E+06    -26.8100E-03     49.5252E-03    -22.7152E-03     81.5339E-03    -26.9042E-03     49.4171E-03    -22.6187E-03     81.2858E-03
            1103     12.3153E-03     100.916E-03    -14.1276E+06    -37.1179E+06     1.33487E+06    -13.6176E+06    -28.6222E-03     51.5606E-03    -22.9384E-03     87.9530E-03    -28.7573E-03     51.5100E-03    -22.8574E-03     87.6573E-03
            1104     13.1911E-03     100.995E-03    -12.4763E+06    -32.2548E+06     67.7302E+03    -14.6399E+06    -30.6930E-03     53.9336E-03    -23.2406E-03     95.2681E-03    -30.9009E-03     53.9827E-03    -23.1754E-03     94.9161E-03
            1105     14.0646E-03     101.081E-03    -10.8103E+06    -27.2447E+06    -4.79102E+06    -13.7995E+06    -32.9850E-03     56.5847E-03    -23.5998E-03     104.854E-03    -33.3330E-03     56.8117E-03    -23.5685E-03     104.460E-03
            1106     14.9371E-03     101.180E-03    -10.1843E+06    -7.64598E+06    -8.43725E+06    -10.4014E+06    -35.4028E-03     59.4131E-03    -24.0103E-03     119.494E-03    -36.1230E-03     60.0946E-03    -24.0266E-03     119.113E-03
            1107     15.8071E-03     101.296E-03    -9.10345E+06     64.6337E+06     10.0365E+06    -6.56284E+06    -37.2129E-03     61.7067E-03    -24.4937E-03     137.808E-03    -38.7887E-03     63.4505E-03    -24.5241E-03     137.700E-03
            1108     16.6765E-03     101.436E-03    -4.41435E+06     125.464E+06     57.8312E+06    -2.47287E+06    -35.5561E-03     60.6801E-03    -25.1241E-03     90.3005E-03    -36.9249E-03     62.3110E-03    -25.0104E-03     90.4647E-03
            1109     880.395E-06     101.429E-03    -871.620E+03    -13.0448E+06    -1.34389E+06    -3.32100E+06    -21.9498E-03     43.9491E-03    -21.9994E-03     6.15969E-03    -21.9333E-03     43.8873E-03    -21.9859E-03     6.11615E-03
            1110     1.76084E-03     101.435E-03    -2.18459E+06    -16.2131E+06    -3.82728E+06    -5.67991E+06    -21.8722E-03     43.8072E-03    -21.9351E-03     11.4830E-03    -21.8542E-03     43.7350E-03    -21.9275E-03     11.4083E-03
            1111     2.64152E-03     101.446E-03    -4.42590E+06    -21.2723E+06    -6.86225E+06    -7.38887E+06    -21.7585E-03     43.6288E-03    -21.8703E-03     17.1668E-03    -21.7402E-03     43.5391E-03    -21.8673E-03     17.0694E-03
            1112     3.52221E-03     101.462E-03    -7.69728E+06    -26.4544E+06    -10.1489E+06    -8.11866E+06    -21.6164E-03     43.4089E-03    -21.7924E-03     23.0215E-03    -21.6025E-03     43.3030E-03    -21.7937E-03     22.9137E-03
            1113     4.40323E-03     101.482E-03    -11.6264E+06    -32.1345E+06    -12.3466E+06    -7.91966E+06    -21.4853E-03     43.1966E-03    -21.7113E-03     29.0686E-03    -21.4801E-03     43.0717E-03    -21.7096E-03     28.9621E-03
            1114     5.28431E-03     101.507E-03    -15.5750E+06    -36.5845E+06    -12.8890E+06    -7.12431E+06    -21.3970E-03     43.0301E-03    -21.6332E-03     35.3182E-03    -21.4049E-03     42.8902E-03    -21.6220E-03     35.2202E-03
            1115     6.16561E-03     101.537E-03    -19.0252E+06    -37.5955E+06    -11.7106E+06    -6.79692E+06    -21.3979E-03     42.9605E-03    -21.5627E-03     41.7843E-03    -21.4246E-03     42.8202E-03    -21.5391E-03     41.6880E-03
            1116     7.04694E-03     101.572E-03    -21.6909E+06    -37.9133E+06    -8.31755E+06    -6.94299E+06    -21.5641E-03     43.0811E-03    -21.5170E-03     48.4864E-03    -21.6109E-03     42.9403E-03    -21.4722E-03     48.3843E-03
            1117     7.92815E-03     101.613E-03    -22.9057E+06    -37.0281E+06    -3.80718E+06    -7.71026E+06    -21.9561E-03     43.4582E-03    -21.5022E-03     55.4197E-03    -22.0206E-03     43.3210E-03    -21.4343E-03     55.3018E-03
            1118     8.80912E-03     101.660E-03    -22.4680E+06    -35.7497E+06     416.212E+03    -8.62111E+06    -22.6446E-03     44.1704E-03    -21.5258E-03     62.5603E-03    -22.7213E-03     44.0392E-03    -21.4393E-03     62.4219E-03
            1119     9.68942E-03     101.713E-03    -21.1648E+06    -35.8451E+06     3.03257E+06    -9.48542E+06    -23.6995E-03     45.2996E-03    -21.6001E-03     69.7594E-03    -23.7841E-03     45.1730E-03    -21.5023E-03     69.5970E-03
            1120     10.5690E-03     101.773E-03    -19.7010E+06    -35.5511E+06     4.21722E+06    -11.2644E+06    -25.1438E-03     46.8824E-03    -21.7387E-03     77.1058E-03    -25.2409E-03     46.7712E-03    -21.6375E-03     76.9017E-03
            1121     11.4471E-03     101.840E-03    -17.3032E+06    -36.7696E+06     3.51285E+06    -12.9815E+06    -26.9783E-03     48.9303E-03    -21.9520E-03     84.3015E-03    -27.0890E-03     48.8389E-03    -21.8560E-03     84.0492E-03
            1122     12.3241E-03     101.914E-03    -14.2282E+06    -34.5294E+06     2.38407E+06    -14.4968E+06    -29.1364E-03     51.3840E-03    -22.2475E-03     91.0538E-03    -29.2790E-03     51.3466E-03    -22.1649E-03     90.7467E-03
            1123     13.1989E-03     101.994E-03    -11.9736E+06    -29.9669E+06     1.26908E+06    -15.8000E+06    -31.5882E-03     54.2209E-03    -22.6327E-03     98.7252E-03    -31.8037E-03     54.2840E-03    -22.5656E-03     98.3542E-03
            1124     14.0720E-03     102.083E-03    -9.59815E+06    -28.6485E+06    -3.93772E+06    -15.6777E+06    -34.2419E-03     57.3299E-03    -23.0880E-03     108.365E-03    -34.5944E-03     57.5583E-03    -23.0523E-03     107.936E-03
            1125     14.9431E-03     102.183E-03    -6.63023E+06    -13.1263E+06    -7.60944E+06    -11.4578E+06    -37.1111E-03     60.7158E-03    -23.6047E-03     123.289E-03    -37.8319E-03     61.3887E-03    -23.6141E-03     122.871E-03
            1126     15.8119E-03     102.305E-03    -5.46273E+06     61.0858E+06     11.9675E+06    -5.75567E+06    -39.0737E-03     63.2710E-03    -24.1973E-03     141.948E-03    -40.6718E-03     65.0320E-03    -24.2181E-03     141.813E-03
            1127     16.6792E-03     102.443E-03    -4.18407E+06     122.828E+06     58.5243E+06    -3.08961E+06    -37.9152E-03     62.8546E-03    -24.9394E-03     93.6235E-03    -39.3140E-03     64.5051E-03    -24.8189E-03     93.7439E-03
            1128     881.403E-06     102.418E-03    -3.11917E+06    -7.07007E+06    -3.74566E+06    -2.72899E+06    -20.7915E-03     41.6101E-03    -20.8185E-03     6.19555E-03    -20.7915E-03     41.5848E-03    -20.8225E-03     6.15995E-03
            1129     1.76296E-03     102.425E-03    -5.59507E+06    -11.7845E+06    -7.32599E+06    -3.89069E+06    -20.7244E-03     41.4926E-03    -20.7682E-03     11.5555E-03    -20.7248E-03     41.4524E-03    -20.7796E-03     11.5045E-03
            1130     2.64446E-03     102.436E-03    -9.73889E+06    -18.3913E+06    -11.8435E+06    -4.12159E+06    -20.6149E-03     41.3238E-03    -20.7090E-03     17.2692E-03    -20.6200E-03     41.2633E-03    -20.7274E-03     17.2147E-03
            1131     3.52631E-03     102.451E-03    -14.8985E+06    -25.0117E+06    -15.9909E+06    -3.63385E+06    -20.5014E-03     41.1420E-03    -20.6405E-03     23.1786E-03    -20.5169E-03     41.0620E-03    -20.6626E-03     23.1299E-03
            1132     4.40815E-03     102.471E-03    -20.2505E+06    -31.6815E+06    -18.2378E+06    -2.77106E+06    -20.4153E-03     40.9917E-03    -20.5763E-03     29.3065E-03    -20.4450E-03     40.8897E-03    -20.5922E-03     29.2680E-03
            1133     5.29023E-03     102.495E-03    -24.5944E+06    -35.9789E+06    -17.9470E+06    -2.43284E+06    -20.3859E-03     40.9069E-03    -20.5210E-03     35.6788E-03    -20.4321E-03     40.7900E-03    -20.5229E-03     35.6433E-03
            1134     6.17232E-03     102.525E-03    -27.3652E+06    -36.4294E+06    -14.9099E+06    -2.62813E+06    -20.4716E-03     40.9525E-03    -20.4810E-03     42.3212E-03    -20.5364E-03     40.8340E-03    -20.4630E-03     42.2810E-03
            1135     7.05441E-03     102.561E-03    -28.4417E+06    -36.0002E+06    -9.82165E+06    -3.65658E+06    -20.7446E-03     41.2132E-03    -20.4686E-03     49.2594E-03    -20.8248E-03     41.0930E-03    -20.4243E-03     49.2023E-03
            1136     7.93630E-03     102.602E-03    -28.3813E+06    -34.3803E+06    -4.63060E+06    -5.33484E+06    -21.2668E-03     41.7546E-03    -20.4878E-03     56.5047E-03    -21.3602E-03     41.6385E-03    -20.4199E-03     56.4204E-03
            1137     8.81773E-03     102.650E-03    -27.8439E+06    -33.3587E+06    -832.559E+03    -7.19767E+06    -22.1074E-03     42.6561E-03    -20.5487E-03     64.0405E-03    -22.2113E-03     42.5451E-03    -20.4642E-03     63.9238E-03
            1138     9.69857E-03     102.704E-03    -26.3400E+06    -33.0188E+06     1.28901E+06    -9.25350E+06    -23.3338E-03     43.9982E-03    -20.6644E-03     71.7418E-03    -23.4444E-03     43.8943E-03    -20.5719E-03     71.5859E-03
            1139     10.5783E-03     102.765E-03    -23.4770E+06    -31.2797E+06     3.04419E+06    -11.9644E+06    -24.9960E-03     45.8487E-03    -20.8528E-03     79.6532E-03    -25.1153E-03     45.7648E-03    -20.7581E-03     79.4435E-03
            1140     11.4567E-03     102.834E-03    -20.2804E+06    -33.7094E+06     2.66220E+06    -14.8788E+06    -27.1106E-03     48.2383E-03    -21.1277E-03     87.4108E-03    -27.2392E-03     48.1676E-03    -21.0361E-03     87.1365E-03
            1141     12.3332E-03     102.910E-03    -17.6624E+06    -32.0313E+06     1.80036E+06    -16.2732E+06    -29.6248E-03     51.1217E-03    -21.4969E-03     94.6773E-03    -29.7893E-03     51.1047E-03    -21.4159E-03     94.3473E-03
            1142     13.2079E-03     102.993E-03    -15.1039E+06    -27.2208E+06     1.23340E+06    -17.6201E+06    -32.4268E-03     54.3936E-03    -21.9668E-03     102.599E-03    -32.6675E-03     54.4807E-03    -21.8993E-03     102.200E-03
            1143     14.0803E-03     103.085E-03    -11.8016E+06    -27.5868E+06    -3.56390E+06    -19.3359E+06    -35.6088E-03     58.1317E-03    -22.5229E-03     112.425E-03    -35.9889E-03     58.3826E-03    -22.4836E-03     111.936E-03
            1144     14.9500E-03     103.189E-03    -8.21519E+06    -22.0197E+06    -9.32621E+06    -15.4401E+06    -38.7483E-03     61.8997E-03    -23.1513E-03     126.755E-03    -39.4892E-03     62.5605E-03    -23.1541E-03     126.261E-03
            1145     15.8187E-03     103.312E-03    -4.28003E+06     55.0659E+06     9.26252E+06    -6.68255E+06    -40.9349E-03     64.7799E-03    -23.8450E-03     142.613E-03    -42.5360E-03     66.5346E-03    -23.8723E-03     142.416E-03
            1146     16.6887E-03     103.453E-03    -2.65458E+06     122.603E+06     57.0757E+06    -1.77052E+06    -40.7938E-03     65.5189E-03    -24.7251E-03     92.6186E-03    -42.1878E-03     67.1734E-03    -24.6136E-03     92.6937E-03
            1147     882.607E-06     103.406E-03    -11.1646E+06    -3.93656E+06    -10.8840E+06    -505.950E+03    -19.5320E-03     39.0160E-03    -19.4840E-03     6.18911E-03    -19.5664E-03     39.0284E-03    -19.5166E-03     6.18244E-03
            1148     1.76510E-03     103.412E-03    -15.3232E+06    -10.7828E+06    -15.4369E+06         430.063    -19.4596E-03     38.9423E-03    -19.4827E-03     11.5129E-03    -19.4983E-03     38.9330E-03    -19.5220E-03     11.5126E-03
            1149     2.64792E-03     103.423E-03    -20.4863E+06    -18.5209E+06    -19.6406E+06     1.19731E+06    -19.3899E-03     38.8356E-03    -19.4457E-03     17.2445E-03    -19.4371E-03     38.8012E-03    -19.4873E-03     17.2594E-03
            1150     3.53060E-03     103.438E-03    -25.8947E+06    -25.9393E+06    -22.5618E+06     2.49199E+06    -19.3331E-03     38.7394E-03    -19.4063E-03     23.1806E-03    -19.3925E-03     38.6801E-03    -19.4440E-03     23.2118E-03
            1151     4.41355E-03     103.457E-03    -30.3454E+06    -31.9242E+06    -23.1795E+06     2.95960E+06    -19.3125E-03     38.6856E-03    -19.3731E-03     29.3799E-03    -19.3848E-03     38.6040E-03    -19.3987E-03     29.4166E-03
            1152     5.29644E-03     103.482E-03    -33.0010E+06    -34.8961E+06    -20.8480E+06     2.00655E+06    -19.3733E-03     38.7259E-03    -19.3526E-03     35.8736E-03    -19.4584E-03     38.6303E-03    -19.3583E-03     35.8969E-03
            1153     6.17942E-03     103.512E-03    -33.5013E+06    -34.9520E+06    -16.1578E+06     311.865E+03    -19.5596E-03     38.9096E-03    -19.3500E-03     42.7025E-03    -19.6548E-03     38.8086E-03    -19.3315E-03     42.7020E-03
            1154     7.06222E-03     103.547E-03    -32.3690E+06    -33.2359E+06    -10.4853E+06    -1.81381E+06    -19.9343E-03     39.3054E-03    -19.3711E-03     49.9048E-03    -20.0363E-03     39.2049E-03    -19.3284E-03     49.8737E-03
            1155     7.94477E-03     103.589E-03    -30.3142E+06    -31.7560E+06    -5.09204E+06    -3.93320E+06    -20.5794E-03     40.0061E-03    -19.4266E-03     57.5049E-03    -20.6844E-03     39.9054E-03    -19.3621E-03     57.4415E-03
            1156     8.82682E-03     103.638E-03    -27.9498E+06    -30.2115E+06    -968.620E+03    -5.90176E+06    -21.5622E-03     41.0892E-03    -19.5270E-03     65.4812E-03    -21.6696E-03     40.9929E-03    -19.4475E-03     65.3844E-03
            1157     9.70802E-03     103.693E-03    -25.5095E+06    -28.5193E+06     1.64039E+06    -9.12417E+06    -22.9420E-03     42.6284E-03    -19.6864E-03     73.7390E-03    -23.0539E-03     42.5437E-03    -19.5999E-03     73.5882E-03
            1158     10.5882E-03     103.757E-03    -22.8041E+06    -26.2696E+06     3.56404E+06    -13.0288E+06    -24.7949E-03     44.7188E-03    -19.9239E-03     82.2874E-03    -24.9175E-03     44.6569E-03    -19.8350E-03     82.0675E-03
            1159     11.4667E-03     103.828E-03    -20.5735E+06    -30.2551E+06     3.26855E+06    -15.5092E+06    -27.1992E-03     47.4591E-03    -20.2599E-03     90.6720E-03    -27.3350E-03     47.4051E-03    -20.1699E-03     90.3921E-03
            1160     12.3433E-03     103.906E-03    -18.5466E+06    -29.1635E+06     2.02264E+06    -17.4163E+06    -30.0536E-03     50.7509E-03    -20.6973E-03     98.5348E-03    -30.2289E-03     50.7512E-03    -20.6180E-03     98.1905E-03
            1161     13.2174E-03     103.993E-03    -15.8200E+06    -23.0153E+06     2.13556E+06    -19.8835E+06    -33.3321E-03     54.5843E-03    -21.2521E-03     106.820E-03    -33.5903E-03     54.6987E-03    -21.1852E-03     106.387E-03
            1162     14.0889E-03     104.088E-03    -14.6324E+06    -26.3845E+06    -3.23517E+06    -20.7191E+06    -37.1136E-03     59.0307E-03    -21.9171E-03     116.981E-03    -37.5248E-03     59.3060E-03    -21.8738E-03     116.460E-03
            1163     14.9574E-03     104.197E-03    -14.9738E+06    -27.6721E+06    -12.3026E+06    -18.4926E+06    -41.0861E-03     63.7644E-03    -22.6784E-03     130.277E-03    -41.8759E-03     64.4390E-03    -22.6780E-03     129.705E-03
            1164     15.8229E-03     104.322E-03    -12.0865E+06     44.4999E+06     460.712E+03    -12.2276E+06    -44.2430E-03     67.7651E-03    -23.5221E-03     145.250E-03    -45.9062E-03     69.5423E-03    -23.5668E-03     144.891E-03
            1165     16.6817E-03     104.466E-03    -4.85696E+06     116.518E+06     51.6169E+06    -3.85813E+06    -43.1906E-03     67.7525E-03    -24.5619E-03     94.5519E-03    -44.6160E-03     69.4246E-03    -24.4657E-03     94.5272E-03
            1166     883.700E-06     104.391E-03    -25.3876E+06    -8.05084E+06    -22.6263E+06     4.94221E+06    -18.1689E-03     36.3108E-03    -18.1419E-03     6.09634E-03    -18.2514E-03     36.3403E-03    -18.2065E-03     6.16016E-03
            1167     1.76758E-03     104.397E-03    -29.9065E+06    -13.7968E+06    -24.9188E+06     6.69124E+06    -18.1560E-03     36.3171E-03    -18.1612E-03     11.3565E-03    -18.2494E-03     36.3276E-03    -18.2224E-03     11.4429E-03
            1168     2.65123E-03     104.407E-03    -34.3945E+06    -21.4769E+06    -26.9298E+06     7.79645E+06    -18.1553E-03     36.3176E-03    -18.1623E-03     17.0575E-03    -18.2572E-03     36.2990E-03    -18.2159E-03     17.1580E-03
            1169     3.53515E-03     104.422E-03    -37.2904E+06    -27.9586E+06    -27.4821E+06     8.20011E+06    -18.1688E-03     36.3295E-03    -18.1607E-03     23.0034E-03    -18.2750E-03     36.2836E-03    -18.2035E-03     23.1089E-03
            1170     4.41891E-03     104.442E-03    -38.3695E+06    -31.8813E+06    -25.6044E+06     7.16817E+06    -18.2352E-03     36.3997E-03    -18.1644E-03     29.2722E-03    -18.3440E-03     36.3331E-03    -18.1906E-03     29.3640E-03
            1171     5.30281E-03     104.466E-03    -37.7922E+06    -32.8401E+06    -21.7200E+06     4.69717E+06    -18.3858E-03     36.5641E-03    -18.1784E-03     35.8878E-03    -18.4962E-03     36.4867E-03    -18.1845E-03     35.9470E-03
            1172     6.18650E-03     104.496E-03    -35.8481E+06    -32.0922E+06    -16.7205E+06     1.36697E+06    -18.6597E-03     36.8676E-03    -18.2079E-03     42.9059E-03    -18.7695E-03     36.7846E-03    -18.1930E-03     42.9206E-03
            1173     7.07012E-03     104.532E-03    -32.9791E+06    -30.3620E+06    -11.1821E+06    -1.49021E+06    -19.1252E-03     37.3867E-03    -18.2615E-03     50.3896E-03    -19.2327E-03     37.3017E-03    -18.2255E-03     50.3647E-03
            1174     7.95333E-03     104.575E-03    -29.9238E+06    -28.8364E+06    -5.87975E+06    -3.88451E+06    -19.8702E-03     38.2215E-03    -18.3513E-03     58.3636E-03    -19.9753E-03     38.1350E-03    -18.2955E-03     58.3032E-03
            1175     8.83598E-03     104.624E-03    -26.3343E+06    -26.8080E+06    -1.27087E+06    -6.52969E+06    -20.9669E-03     39.4561E-03    -18.4892E-03     66.8174E-03    -21.0693E-03     39.3735E-03    -18.4185E-03     66.7155E-03
            1176     9.71777E-03     104.681E-03    -22.3868E+06    -23.0338E+06     2.84489E+06    -9.81958E+06    -22.4864E-03     41.1771E-03    -18.6907E-03     75.6545E-03    -22.5908E-03     41.1120E-03    -18.6106E-03     75.4982E-03
            1177     10.5983E-03     104.746E-03    -19.8402E+06    -21.7798E+06     5.05707E+06    -12.8328E+06    -24.5401E-03     43.5157E-03    -18.9756E-03     84.8873E-03    -24.6551E-03     43.4683E-03    -18.8900E-03     84.6734E-03
            1178     11.4771E-03     104.820E-03    -18.1424E+06    -26.6364E+06     4.67382E+06    -15.3211E+06    -27.1966E-03     46.5612E-03    -19.3646E-03     94.0510E-03    -27.3267E-03     46.5189E-03    -19.2763E-03     93.7766E-03
            1179     12.3536E-03     104.902E-03    -15.5119E+06    -23.8812E+06     3.88916E+06    -18.8009E+06    -30.3976E-03     50.2602E-03    -19.8627E-03     102.679E-03    -30.5692E-03     50.2810E-03    -19.7861E-03     102.319E-03
            1180     13.2275E-03     104.992E-03    -12.9444E+06    -19.9788E+06     3.92739E+06    -21.0549E+06    -34.1377E-03     54.6345E-03    -20.4968E-03     111.747E-03    -34.3938E-03     54.7626E-03    -20.4294E-03     111.296E-03
            1181     14.0981E-03     105.092E-03    -11.4089E+06    -26.7666E+06    -941.244E+03    -19.9422E+06    -38.5249E-03     59.7885E-03    -21.2635E-03     122.800E-03    -38.9347E-03     60.0658E-03    -21.2129E-03     122.278E-03
            1182     14.9651E-03     105.205E-03    -10.4055E+06    -29.3764E+06    -10.3273E+06    -18.0119E+06    -43.3647E-03     65.5082E-03    -22.1435E-03     137.118E-03    -44.1639E-03     66.1967E-03    -22.1375E-03     136.516E-03
            1183     15.8275E-03     105.336E-03    -9.61180E+06     37.8021E+06     123.716E+03    -14.6662E+06    -46.8091E-03     69.9303E-03    -23.1211E-03     152.188E-03    -48.5090E-03     71.7302E-03    -23.1614E-03     151.736E-03
            1184     16.6938E-03     105.482E-03    -4.92602E+06     107.636E+06     49.9845E+06    -7.41857E+06    -46.5578E-03     70.8731E-03    -24.3153E-03     99.0053E-03    -48.0106E-03     72.5460E-03    -24.2143E-03     98.8679E-03
            1185     884.986E-06     105.373E-03    -45.2746E+06    -21.6996E+06    -42.4260E+06     9.49859E+06    -16.8496E-03     33.7270E-03    -16.8774E-03     5.91412E-03    -16.9829E-03     33.7457E-03    -16.9924E-03     6.03679E-03
            1186     1.76972E-03     105.379E-03    -45.4202E+06    -21.4741E+06    -36.9264E+06     13.3766E+06    -16.9011E-03     33.8019E-03    -16.9008E-03     11.0695E-03    -17.0435E-03     33.8138E-03    -16.9884E-03     11.2422E-03
            1187     2.65464E-03     105.389E-03    -45.7973E+06    -25.4655E+06    -33.0368E+06     13.7835E+06    -16.9700E-03     33.9094E-03    -16.9394E-03     16.7327E-03    -17.1142E-03     33.8963E-03    -17.0013E-03     16.9108E-03
            1188     3.53932E-03     105.404E-03    -45.0638E+06    -28.9975E+06    -30.3520E+06     11.6738E+06    -17.0704E-03     34.0425E-03    -16.9721E-03     22.7035E-03    -17.2097E-03     34.0068E-03    -17.0165E-03     22.8542E-03
            1189     4.42417E-03     105.424E-03    -42.2068E+06    -30.4272E+06    -26.8297E+06     8.18840E+06    -17.2188E-03     34.2250E-03    -17.0062E-03     29.0196E-03    -17.3469E-03     34.1730E-03    -17.0350E-03     29.1251E-03
            1190     5.30878E-03     105.448E-03    -38.0524E+06    -30.0242E+06    -22.4190E+06     4.44404E+06    -17.4325E-03     34.4789E-03    -17.0464E-03     35.7216E-03    -17.5470E-03     34.4167E-03    -17.0598E-03     35.7782E-03
            1191     6.19342E-03     105.479E-03    -34.3887E+06    -28.6831E+06    -17.4398E+06     1.20115E+06    -17.7721E-03     34.8736E-03    -17.1016E-03     42.9058E-03    -17.8780E-03     34.8062E-03    -17.0973E-03     42.9194E-03
            1192     7.07771E-03     105.515E-03    -31.5177E+06    -27.1123E+06    -12.1033E+06    -1.90115E+06    -18.3154E-03     35.4993E-03    -17.1839E-03     50.6517E-03    -18.4183E-03     35.4291E-03    -17.1594E-03     50.6230E-03
            1193     7.96169E-03     105.559E-03    -28.1185E+06    -25.4306E+06    -6.68653E+06    -4.83776E+06    -19.1372E-03     36.4412E-03    -17.3040E-03     58.9936E-03    -19.2360E-03     36.3693E-03    -17.2598E-03     58.9231E-03
            1194     8.84496E-03     105.609E-03    -24.1776E+06    -22.2115E+06    -1.37766E+06    -8.28599E+06    -20.3135E-03     37.7871E-03    -17.4736E-03     67.9304E-03    -20.4102E-03     37.7231E-03    -17.4133E-03     67.8086E-03
            1195     9.72733E-03     105.668E-03    -20.7669E+06    -19.1773E+06     3.08050E+06    -10.9498E+06    -21.9468E-03     39.6570E-03    -17.7102E-03     77.3750E-03    -22.0471E-03     39.6066E-03    -17.6369E-03     77.2077E-03
            1196     10.6084E-03     105.735E-03    -18.0815E+06    -18.1599E+06     5.93181E+06    -12.6014E+06    -24.1547E-03     42.1876E-03    -18.0329E-03     87.3844E-03    -24.2652E-03     42.1523E-03    -17.9507E-03     87.1777E-03
            1197     11.4875E-03     105.811E-03    -15.1118E+06    -21.0168E+06     6.89940E+06    -16.2064E+06    -27.0012E-03     45.4634E-03    -18.4622E-03     97.4955E-03    -27.1255E-03     45.4395E-03    -18.3753E-03     97.2143E-03
            1198     12.3643E-03     105.897E-03    -12.3477E+06    -18.4207E+06     6.49676E+06    -19.9883E+06    -30.4851E-03     49.4921E-03    -19.0070E-03     107.204E-03    -30.6519E-03     49.5310E-03    -18.9299E-03     106.831E-03
            1199     13.2380E-03     105.992E-03    -10.8290E+06    -18.3878E+06     5.83350E+06    -21.1818E+06    -34.6308E-03     54.3318E-03    -19.7010E-03     117.260E-03    -34.8838E-03     54.4645E-03    -19.6295E-03     116.808E-03
            1200     14.1087E-03     106.096E-03    -8.64422E+06    -26.5197E+06     1.67856E+06    -21.5205E+06    -39.4174E-03     59.9581E-03    -20.5407E-03     129.408E-03    -39.8251E-03     60.2366E-03    -20.4813E-03     128.858E-03
            1201     14.9753E-03     106.215E-03    -4.84173E+06    -31.5260E+06    -8.00006E+06    -20.1993E+06    -44.7326E-03     66.2301E-03    -21.4975E-03     144.640E-03    -45.5227E-03     66.9149E-03    -21.4848E-03     143.988E-03
            1202     15.8393E-03     106.351E-03    -2.32760E+06     32.3784E+06     1.42289E+06    -13.8127E+06    -49.5560E-03     72.1473E-03    -22.5913E-03     157.504E-03    -51.2481E-03     73.9427E-03    -22.6278E-03     156.982E-03
            1203     16.6953E-03     106.499E-03    -3.31661E+06     100.238E+06     49.0041E+06    -7.01894E+06    -51.6050E-03     75.6009E-03    -23.9959E-03     102.115E-03    -53.0744E-03     77.2730E-03    -23.8915E-03     101.869E-03
            1204     885.727E-06     106.352E-03    -73.2599E+06    -37.6736E+06    -73.0885E+06      6.9048E+06    -15.7459E-03     31.5143E-03    -15.7684E-03     5.69469E-03    -15.9516E-03     31.5383E-03    -15.9730E-03     5.78384E-03
            1205     1.77173E-03     106.359E-03    -64.3933E+06    -31.7160E+06    -59.8598E+06     11.1941E+06    -15.7758E-03     31.5688E-03    -15.7930E-03     10.6951E-03    -15.9650E-03     31.5903E-03    -15.9529E-03     10.8396E-03
            1206     2.65743E-03     106.369E-03    -54.3376E+06    -29.6937E+06    -45.3176E+06     12.5351E+06    -15.8769E-03     31.7238E-03    -15.8469E-03     16.2552E-03    -16.0398E-03     31.7198E-03    -15.9517E-03     16.4171E-03
            1207     3.54327E-03     106.384E-03    -46.2561E+06    -28.7816E+06    -34.9029E+06     10.6644E+06    -16.0492E-03     31.9506E-03    -15.9014E-03     22.2312E-03    -16.1881E-03     31.9242E-03    -15.9671E-03     22.3690E-03
            1208     4.42875E-03     106.404E-03    -41.0347E+06    -27.6896E+06    -28.7936E+06     6.92699E+06    -16.2625E-03     32.2157E-03    -15.9532E-03     28.5756E-03    -16.3857E-03     32.1784E-03    -15.9975E-03     28.6651E-03
            1209     5.31435E-03     106.429E-03    -37.6912E+06    -26.8545E+06    -24.5470E+06     3.10139E+06    -16.5291E-03     32.5402E-03    -16.0111E-03     35.3201E-03    -16.6432E-03     32.4962E-03    -16.0402E-03     35.3598E-03
            1210     6.19966E-03     106.459E-03    -34.0314E+06    -25.2014E+06    -19.6246E+06    -449.061E+03    -16.9188E-03     33.0048E-03    -16.0861E-03     42.6194E-03    -17.0245E-03     32.9571E-03    -16.0983E-03     42.6125E-03
            1211     7.08482E-03     106.497E-03    -29.2613E+06    -23.3765E+06    -13.3625E+06    -3.68588E+06    -17.5170E-03     33.7079E-03    -16.1909E-03     50.5818E-03    -17.6116E-03     33.6543E-03    -16.1814E-03     50.5314E-03
            1212     7.96939E-03     106.541E-03    -24.6016E+06    -21.4294E+06    -6.98004E+06    -6.88433E+06    -18.3910E-03     34.7253E-03    -16.3344E-03     59.2595E-03    -18.4766E-03     34.6678E-03    -16.3025E-03     59.1645E-03
            1213     8.85341E-03     106.592E-03    -21.3733E+06    -18.2760E+06    -1.21346E+06    -9.14102E+06    -19.6215E-03     36.1493E-03    -16.5278E-03     68.6475E-03    -19.7085E-03     36.0991E-03    -16.4764E-03     68.5174E-03
            1214     9.73638E-03     106.653E-03    -19.6168E+06    -16.0814E+06     3.23820E+06    -10.9070E+06    -21.3116E-03     38.0996E-03    -16.7880E-03     78.7001E-03    -21.4086E-03     38.0605E-03    -16.7201E-03     78.5371E-03
            1215     10.6180E-03     106.722E-03    -16.9216E+06    -13.8480E+06     6.85088E+06    -13.8760E+06    -23.5751E-03     40.7065E-03    -17.1314E-03     89.5671E-03    -23.6842E-03     40.6865E-03    -17.0525E-03     89.3490E-03
            1216     11.4978E-03     106.802E-03    -13.3177E+06    -14.3490E+06     9.52379E+06    -17.9248E+06    -26.5301E-03     44.1129E-03    -17.5829E-03     100.713E-03    -26.6551E-03     44.1122E-03    -17.4951E-03     100.415E-03
            1217     12.3750E-03     106.891E-03    -10.6946E+06    -14.8318E+06     9.31887E+06    -20.5935E+06    -30.2544E-03     48.4102E-03    -18.1558E-03     111.550E-03    -30.4186E-03     48.4569E-03    -18.0722E-03     111.176E-03
            1218     13.2495E-03     106.990E-03    -9.21126E+06    -17.0282E+06     8.45064E+06    -20.7850E+06    -34.8001E-03     53.6868E-03    -18.8866E-03     122.670E-03    -35.0493E-03     53.8186E-03    -18.8063E-03     122.227E-03
            1219     14.1197E-03     107.100E-03    -7.64559E+06    -21.0082E+06     5.63327E+06    -24.0064E+06    -40.1107E-03     59.8922E-03    -19.7815E-03     135.465E-03    -40.5305E-03     60.1945E-03    -19.7118E-03     134.879E-03
            1220     14.9866E-03     107.225E-03    -4.72394E+06    -35.4857E+06    -7.20517E+06    -24.7692E+06    -46.2654E-03     67.0848E-03    -20.8194E-03     150.854E-03    -47.0557E-03     67.7540E-03    -20.7972E-03     150.116E-03
            1221     15.8469E-03     107.368E-03    -4.03909E+06     19.9101E+06    -3.02763E+06    -14.6715E+06    -52.9874E-03     75.0312E-03    -22.0437E-03     164.292E-03    -54.7158E-03     76.8258E-03    -22.0819E-03     163.640E-03
            1222     16.7038E-03     107.524E-03    -3.93528E+06     93.3112E+06     47.3268E+06    -5.19159E+06    -57.0087E-03     80.6906E-03    -23.6819E-03     108.725E-03    -58.5434E-03     82.4065E-03    -23.5749E-03     108.351E-03
            1223     886.525E-06     107.330E-03    -88.5242E+06    -44.6334E+06    -89.3741E+06    -107.758E+03    -14.9580E-03     29.9237E-03    -14.9658E-03     5.49255E-03    -15.2062E-03     29.9587E-03    -15.2196E-03     5.49111E-03
            1224     1.77289E-03     107.336E-03    -80.1060E+06    -37.8229E+06    -79.5359E+06     834.953E+03    -14.9385E-03     29.9067E-03    -14.9682E-03     10.2993E-03    -15.1689E-03     29.9491E-03    -15.1949E-03     10.3100E-03
            1225     2.65963E-03     107.347E-03    -68.1972E+06    -32.8532E+06    -65.5098E+06     1.88828E+06    -14.9821E-03     29.9732E-03    -14.9911E-03     15.6314E-03    -15.1805E-03     30.0028E-03    -15.1721E-03     15.6557E-03
            1226     3.54612E-03     107.362E-03    -55.4768E+06    -28.6636E+06    -52.5788E+06     1.94330E+06    -15.1117E-03     30.1327E-03    -15.0211E-03     21.4146E-03    -15.2713E-03     30.1460E-03    -15.1619E-03     21.4397E-03
            1227     4.43274E-03     107.382E-03    -44.5837E+06    -25.8208E+06    -41.1547E+06     1.12779E+06    -15.3357E-03     30.4026E-03    -15.0669E-03     27.6797E-03    -15.4616E-03     30.3978E-03    -15.1706E-03     27.6943E-03
            1228     5.31893E-03     107.407E-03    -36.0469E+06    -23.6940E+06    -30.1036E+06    -870.255E+03    -15.6743E-03     30.8134E-03    -15.1390E-03     34.4821E-03    -15.7766E-03     30.7909E-03    -15.2029E-03     34.4708E-03
            1229     6.20504E-03     107.438E-03    -29.7237E+06    -21.3891E+06    -21.0644E+06    -3.77681E+06    -16.1470E-03     31.3792E-03    -15.2321E-03     41.9067E-03    -16.2345E-03     31.3462E-03    -15.2633E-03     41.8572E-03
            1230     7.09073E-03     107.476E-03    -25.2648E+06    -19.7289E+06    -13.9432E+06    -6.59136E+06    -16.7817E-03     32.1328E-03    -15.3510E-03     50.0129E-03    -16.8604E-03     32.0921E-03    -15.3555E-03     49.9259E-03
            1231     7.97614E-03     107.521E-03    -21.9643E+06    -17.7470E+06    -7.41779E+06    -8.69154E+06    -17.6661E-03     33.1730E-03    -15.5069E-03     58.9274E-03    -17.7424E-03     33.1298E-03    -15.4864E-03     58.8106E-03
            1232     8.86072E-03     107.574E-03    -19.0387E+06    -16.2709E+06    -885.873E+03    -9.81502E+06    -18.9121E-03     34.6276E-03    -15.7155E-03     68.6973E-03    -18.9893E-03     34.5820E-03    -15.6687E-03     68.5610E-03
            1233     9.74440E-03     107.636E-03    -15.2856E+06    -12.1243E+06     5.34613E+06    -11.5470E+06    -20.5920E-03     36.5761E-03    -15.9841E-03     79.3096E-03    -20.6735E-03     36.5448E-03    -15.9176E-03     79.1422E-03
            1234     10.6267E-03     107.707E-03    -12.2244E+06    -8.69535E+06     9.98604E+06    -14.6405E+06    -22.8417E-03     39.1725E-03    -16.3308E-03     90.9560E-03    -22.9351E-03     39.1627E-03    -16.2505E-03     90.7337E-03
            1235     11.5073E-03     107.790E-03    -11.1289E+06    -8.61184E+06     12.8301E+06    -17.7742E+06    -25.8629E-03     42.6476E-03    -16.7847E-03     103.096E-03    -25.9842E-03     42.6617E-03    -16.6920E-03     102.808E-03
            1236     12.3855E-03     107.883E-03    -10.4031E+06    -11.0603E+06     12.8162E+06    -20.6074E+06    -29.8178E-03     47.1869E-03    -17.3691E-03     115.058E-03    -29.9844E-03     47.2403E-03    -17.2739E-03     114.691E-03
            1237     13.2600E-03     107.987E-03    -8.04624E+06    -15.8964E+06     11.4951E+06    -21.9222E+06    -34.8300E-03     52.9513E-03    -18.1213E-03     127.273E-03    -35.0729E-03     53.0762E-03    -18.0291E-03     126.821E-03
            1238     14.1310E-03     108.104E-03    -6.29232E+06    -12.4469E+06     11.2848E+06    -24.1434E+06    -41.0478E-03     60.1204E-03    -19.0726E-03     140.858E-03    -41.4783E-03     60.4523E-03    -18.9890E-03     140.264E-03
            1239     14.9958E-03     108.235E-03    -8.41094E+06    -39.2752E+06    -5.06020E+06    -25.0166E+06    -48.2029E-03     68.4193E-03    -20.2164E-03     156.655E-03    -49.0054E-03     69.0681E-03    -20.1725E-03     155.880E-03
            1240     15.8565E-03     108.386E-03    -9.10331E+06     4.64522E+06    -4.35103E+06    -16.6139E+06    -55.9497E-03     77.5256E-03    -21.5758E-03     172.201E-03    -57.7272E-03     79.3012E-03    -21.5911E-03     171.408E-03
            1241     16.7077E-03     108.553E-03    -7.17514E+06     85.9638E+06     47.4382E+06    -6.59001E+06    -61.7811E-03     85.1788E-03    -23.3977E-03     117.001E-03    -63.4034E-03     86.9449E-03    -23.2747E-03     116.453E-03
            1242     886.815E-06     108.306E-03    -76.4334E+06    -40.9510E+06    -76.0009E+06    -3.77972E+06    -14.5179E-03     29.0432E-03    -14.5252E-03     5.23334E-03    -14.7305E-03     29.0596E-03    -14.7350E-03     5.18437E-03
            1243     1.77389E-03     108.313E-03    -74.2844E+06    -36.2430E+06    -72.8144E+06    -5.93839E+06    -14.5088E-03     29.0273E-03    -14.5185E-03     9.83507E-03    -14.7222E-03     29.0594E-03    -14.7223E-03     9.75808E-03
            1244     2.66070E-03     108.323E-03    -69.7907E+06    -31.5271E+06    -67.0817E+06    -7.61721E+06    -14.5087E-03     29.0276E-03    -14.5189E-03     14.8698E-03    -14.7147E-03     29.0685E-03    -14.7074E-03     14.7710E-03
            1245     3.54786E-03     108.339E-03    -62.7100E+06    -27.2229E+06    -59.9815E+06    -8.74423E+06    -14.5308E-03     29.0507E-03    -14.5199E-03     20.2557E-03    -14.7180E-03     29.0926E-03    -14.6894E-03     20.1423E-03
            1246     4.43489E-03     108.359E-03    -53.5509E+06    -24.3755E+06    -51.5071E+06    -9.32098E+06    -14.6392E-03     29.1692E-03    -14.5299E-03     26.1708E-03    -14.7971E-03     29.1998E-03    -14.6745E-03     26.0500E-03
            1247     5.32208E-03     108.384E-03    -43.6110E+06    -20.9559E+06    -41.5855E+06    -9.94479E+06    -14.9082E-03     29.4701E-03    -14.5619E-03     32.7961E-03    -15.0358E-03     29.4890E-03    -14.6762E-03     32.6672E-03
            1248     6.20880E-03     108.416E-03    -34.5333E+06    -18.6934E+06    -31.5334E+06    -10.5122E+06    -15.3825E-03     30.0108E-03    -14.6284E-03     40.2331E-03    -15.4827E-03     30.0135E-03    -14.7088E-03     40.0967E-03
            1249     7.09521E-03     108.454E-03    -27.0593E+06    -16.6285E+06    -20.1293E+06    -11.2141E+06    -16.0734E-03     30.8189E-03    -14.7454E-03     48.4986E-03    -16.1563E-03     30.8050E-03    -14.7827E-03     48.3523E-03
            1250     7.98098E-03     108.500E-03    -20.7198E+06    -15.6237E+06    -8.79070E+06    -11.9391E+06    -17.0156E-03     31.9292E-03    -14.9135E-03     57.6241E-03    -17.0861E-03     31.8961E-03    -14.9048E-03     57.4665E-03
            1251     8.86625E-03     108.554E-03    -15.2436E+06    -14.8649E+06     333.996E+03    -12.0722E+06    -18.2356E-03     33.3615E-03    -15.1259E-03     67.6421E-03    -18.2961E-03     33.3142E-03    -15.0806E-03     67.4789E-03
            1252     9.75051E-03     108.617E-03    -11.9399E+06    -8.64931E+06     7.54364E+06    -12.7830E+06    -19.8235E-03     35.2090E-03    -15.3855E-03     78.6912E-03    -19.8935E-03     35.1840E-03    -15.3179E-03     78.5118E-03
            1253     10.6336E-03     108.691E-03    -10.2012E+06    -4.46814E+06     13.0410E+06    -14.3107E+06    -22.0431E-03     37.7642E-03    -15.7211E-03     90.9927E-03    -22.1318E-03     37.7631E-03    -15.6346E-03     90.7806E-03
            1254     11.5150E-03     108.776E-03    -9.36545E+06    -4.69946E+06     16.5904E+06    -15.7263E+06    -25.1293E-03     41.2932E-03    -16.1639E-03     104.067E-03    -25.2449E-03     41.3109E-03    -16.0605E-03     103.813E-03
            1255     12.3936E-03     108.874E-03    -10.0405E+06    -5.25360E+06     17.7517E+06    -18.3801E+06    -29.2767E-03     46.0213E-03    -16.7446E-03     117.212E-03    -29.4460E-03     46.0850E-03    -16.6337E-03     116.884E-03
            1256     13.2692E-03     108.983E-03    -10.8505E+06    -11.8723E+06     14.7459E+06    -22.6204E+06    -34.9126E-03     52.4211E-03    -17.5085E-03     130.874E-03    -35.1675E-03     52.5530E-03    -17.4018E-03     130.420E-03
            1257     14.1391E-03     109.107E-03    -9.93205E+06    -8.53619E+06     14.5027E+06    -24.2947E+06    -41.9771E-03     60.4871E-03    -18.5100E-03     145.770E-03    -42.4202E-03     60.8233E-03    -18.4107E-03     145.173E-03
            1258     15.0041E-03     109.247E-03    -8.17536E+06    -40.5755E+06    -495.228E+03    -23.1596E+06    -50.0704E-03     69.8197E-03    -19.7493E-03     162.087E-03    -50.8493E-03     70.4281E-03    -19.6811E-03     161.308E-03
            1259     15.8615E-03     109.404E-03    -5.20442E+06    -6.37080E+06    -4.16199E+06    -18.9709E+06    -58.7300E-03     79.9420E-03    -21.2120E-03     179.866E-03    -60.4871E-03     81.6716E-03    -21.2161E-03     178.927E-03
            1260     16.7139E-03     109.586E-03    -900.262E+03     75.7812E+06     46.2465E+06    -8.16190E+06    -65.4875E-03     88.6565E-03    -23.1690E-03     127.633E-03    -67.1488E-03     90.4518E-03    -23.0464E-03     126.910E-03
            1261     887.178E-06     109.282E-03    -54.9076E+06    -33.2145E+06    -54.1401E+06    -4.01676E+06    -14.4108E-03     28.8363E-03    -14.4255E-03     4.88543E-03    -14.5586E-03     28.8286E-03    -14.5684E-03     4.83323E-03
            1262     1.77409E-03     109.289E-03    -53.7994E+06    -29.9429E+06    -51.0813E+06    -7.12457E+06    -14.4782E-03     28.9137E-03    -14.4355E-03     9.18636E-03    -14.6298E-03     28.9162E-03    -14.5695E-03     9.09373E-03
            1263     2.66126E-03     109.299E-03    -52.0918E+06    -25.8371E+06    -47.0279E+06    -10.1246E+06    -14.5263E-03     28.9906E-03    -14.4643E-03     13.8444E-03    -14.6813E-03     29.0053E-03    -14.5864E-03     13.7127E-03
            1264     3.54815E-03     109.314E-03    -50.2369E+06    -22.6793E+06    -42.7420E+06    -12.7143E+06    -14.5542E-03     29.0431E-03    -14.4889E-03     18.7633E-03    -14.7108E-03     29.0648E-03    -14.5969E-03     18.5979E-03
            1265     4.43534E-03     109.335E-03    -48.0516E+06    -20.4850E+06    -39.2412E+06    -14.8929E+06    -14.5902E-03     29.0928E-03    -14.5026E-03     24.1280E-03    -14.7443E-03     29.1174E-03    -14.5994E-03     23.9343E-03
            1266     5.32240E-03     109.360E-03    -44.8783E+06    -17.6515E+06    -35.9143E+06    -16.5557E+06    -14.6909E-03     29.2016E-03    -14.5107E-03     30.1503E-03    -14.8383E-03     29.2311E-03    -14.5996E-03     29.9351E-03
            1267     6.20970E-03     109.392E-03    -40.0422E+06    -16.1776E+06    -30.8531E+06    -17.5021E+06    -14.9551E-03     29.4916E-03    -14.5365E-03     37.0730E-03    -15.0879E-03     29.5143E-03    -14.6092E-03     36.8454E-03
            1268     7.09666E-03     109.431E-03    -33.6802E+06    -14.4559E+06    -23.3354E+06    -17.7631E+06    -15.4812E-03     30.0794E-03    -14.5982E-03     45.1283E-03    -15.5959E-03     30.0909E-03    -14.6451E-03     44.8970E-03
            1269     7.98313E-03     109.478E-03    -26.5867E+06    -13.4558E+06    -14.2889E+06    -18.0660E+06    -16.3357E-03     31.0468E-03    -14.7110E-03     54.4070E-03    -16.4304E-03     31.0407E-03    -14.7244E-03     54.1708E-03
            1270     8.86864E-03     109.533E-03    -18.9764E+06    -14.3210E+06    -3.97611E+06    -17.8397E+06    -17.5263E-03     32.4145E-03    -14.8882E-03     64.7301E-03    -17.5987E-03     32.3802E-03    -14.8598E-03     64.4943E-03
            1271     9.75358E-03     109.598E-03    -11.8085E+06    -8.58489E+06     7.32946E+06    -15.3839E+06    -19.1065E-03     34.2340E-03    -15.1275E-03     76.1225E-03    -19.1726E-03     34.2065E-03    -15.0613E-03     75.9129E-03
            1272     10.6373E-03     109.673E-03    -7.71403E+06    -1.99383E+06     16.3379E+06    -13.9049E+06    -21.2979E-03     36.7390E-03    -15.4411E-03     88.9390E-03    -21.3768E-03     36.7361E-03    -15.3453E-03     88.7379E-03
            1273     11.5192E-03     109.762E-03    -6.42197E+06    -3.19286E+06     20.9371E+06    -13.5186E+06    -24.3587E-03     40.2166E-03    -15.8580E-03     102.892E-03    -24.4580E-03     40.2212E-03    -15.7393E-03     102.676E-03
            1274     12.3988E-03     109.863E-03    -6.71636E+06     319.664E+03     24.0355E+06    -14.1856E+06    -28.6970E-03     45.1127E-03    -16.4157E-03     117.469E-03    -28.8511E-03     45.1746E-03    -16.2862E-03     117.208E-03
            1275     13.2742E-03     109.978E-03    -9.08463E+06    -4.29122E+06     22.1162E+06    -18.0166E+06    -34.8367E-03     52.0135E-03    -17.1769E-03     133.127E-03    -35.0822E-03     52.1480E-03    -17.0469E-03     132.745E-03
            1276     14.1447E-03     110.109E-03    -11.7510E+06    -5.01758E+06     19.5458E+06    -22.5769E+06    -42.2818E-03     60.4712E-03    -18.1895E-03     149.799E-03    -42.7107E-03     60.7847E-03    -18.0674E-03     149.237E-03
            1277     15.0086E-03     110.257E-03    -9.10356E+06    -36.7929E+06     6.50680E+06    -27.4643E+06    -51.1512E-03     70.6185E-03    -19.4673E-03     168.565E-03    -51.8910E-03     71.1777E-03    -19.3682E-03     167.727E-03
            1278     15.8659E-03     110.426E-03    -3.95991E+06    -19.0692E+06    -6.58108E+06    -23.0794E+06    -60.8315E-03     81.7929E-03    -20.9615E-03     189.047E-03    -62.5259E-03     83.4262E-03    -20.9610E-03     187.969E-03
            1279     16.7142E-03     110.617E-03    -4.49724E+06     59.1226E+06     38.4855E+06    -8.23635E+06    -68.3119E-03     91.3068E-03    -22.9949E-03     141.392E-03    -70.0490E-03     93.1290E-03    -22.8817E-03     140.521E-03
            1280     886.840E-06     110.258E-03    -35.2456E+06    -25.3726E+06    -34.1966E+06    -3.87333E+06    -14.7628E-03     29.5402E-03    -14.7775E-03     4.38193E-03    -14.8526E-03     29.5143E-03    -14.8605E-03     4.33134E-03
            1281     1.77381E-03     110.265E-03    -34.2651E+06    -22.5721E+06    -31.2416E+06    -6.95177E+06    -14.8938E-03     29.6971E-03    -14.8033E-03     8.23128E-03    -14.9872E-03     29.6793E-03    -14.8771E-03     8.14043E-03
            1282     2.66038E-03     110.275E-03    -32.9132E+06    -19.2486E+06    -27.2078E+06    -9.71123E+06    -15.0294E-03     29.8962E-03    -14.8669E-03     12.3537E-03    -15.1269E-03     29.8874E-03    -14.9273E-03     12.2266E-03
            1283     3.54714E-03     110.291E-03    -31.3345E+06    -16.6476E+06    -22.5292E+06    -12.1004E+06    -15.1801E-03     30.1200E-03    -14.9399E-03     16.6845E-03    -15.2805E-03     30.1153E-03    -14.9830E-03     16.5260E-03
            1284     4.43354E-03     110.311E-03    -29.5507E+06    -14.7582E+06    -17.4810E+06    -14.5464E+06    -15.3190E-03     30.3346E-03    -15.0157E-03     21.3735E-03    -15.4208E-03     30.3298E-03    -15.0388E-03     21.1827E-03
            1285     5.32010E-03     110.337E-03    -28.1341E+06    -13.0549E+06    -13.1770E+06    -16.5656E+06    -15.4163E-03     30.4981E-03    -15.0817E-03     26.5877E-03    -15.5202E-03     30.4938E-03    -15.0879E-03     26.3704E-03
            1286     6.20649E-03     110.368E-03    -27.5912E+06    -12.1739E+06    -10.5021E+06    -18.2297E+06    -15.5022E-03     30.6335E-03    -15.1312E-03     32.5874E-03    -15.6089E-03     30.6293E-03    -15.1261E-03     32.3483E-03
            1287     7.09312E-03     110.407E-03    -27.1311E+06    -11.3155E+06    -9.27351E+06    -19.7656E+06    -15.6614E-03     30.8277E-03    -15.1662E-03     39.7167E-03    -15.7692E-03     30.8257E-03    -15.1569E-03     39.4575E-03
            1288     7.97974E-03     110.454E-03    -25.6148E+06    -9.95614E+06    -7.48169E+06    -21.2964E+06    -16.0500E-03     31.2573E-03    -15.2073E-03     48.3154E-03    -16.1551E-03     31.2578E-03    -15.1931E-03     48.0364E-03
            1289     8.86617E-03     110.511E-03    -22.8436E+06    -12.6977E+06    -3.14716E+06    -22.2930E+06    -16.8995E-03     32.1945E-03    -15.2951E-03     58.4633E-03    -16.9942E-03     32.1722E-03    -15.2593E-03     58.1704E-03
            1290     9.75135E-03     110.577E-03    -17.7371E+06    -10.7960E+06     4.37074E+06    -21.1097E+06    -18.3428E-03     33.7914E-03    -15.4486E-03     70.2370E-03    -18.4286E-03     33.7632E-03    -15.3853E-03     69.9562E-03
            1291     10.6354E-03     110.655E-03    -10.9648E+06    -3.78287E+06     14.6591E+06    -16.7269E+06    -20.4748E-03     36.1683E-03    -15.6935E-03     83.7143E-03    -20.5589E-03     36.1576E-03    -15.5988E-03     83.4826E-03
            1292     11.5179E-03     110.745E-03    -5.83329E+06    -3.14344E+06     23.2684E+06    -13.5343E+06    -23.5305E-03     39.5892E-03    -16.0588E-03     98.5527E-03    -23.6185E-03     39.5780E-03    -15.9294E-03     98.3466E-03
            1293     12.3978E-03     110.850E-03    -3.20138E+06     996.804E+03     28.9183E+06    -11.3293E+06    -27.9234E-03     44.4908E-03    -16.5674E-03     114.750E-03    -28.0473E-03     44.5233E-03    -16.4196E-03     114.541E-03
            1294     13.2741E-03     110.972E-03    -4.64154E+06     1.47573E+06     30.7927E+06    -10.2147E+06    -33.9441E-03     51.2243E-03    -17.2801E-03     132.706E-03    -34.1527E-03     51.3328E-03    -17.1216E-03     132.449E-03
            1295     14.1448E-03     111.111E-03    -8.38655E+06     6.47587E+06     30.9153E+06    -16.7275E+06    -41.3476E-03     59.5803E-03    -18.2327E-03     151.663E-03    -41.7335E-03     59.8705E-03    -18.0754E-03     151.209E-03
            1296     15.0109E-03     111.267E-03    -10.2554E+06    -23.6698E+06     19.2010E+06    -29.5802E+06    -50.0009E-03     69.4408E-03    -19.4400E-03     173.830E-03    -50.6766E-03     69.9414E-03    -19.2948E-03     173.010E-03
            1297     15.8685E-03     111.448E-03    -9.27029E+06    -35.6679E+06    -1.87076E+06    -28.5073E+06    -60.4105E-03     81.2660E-03    -20.8555E-03     199.824E-03    -61.9818E-03     82.6848E-03    -20.7997E-03     198.672E-03
            1298     16.7195E-03     111.650E-03    -1.99035E+06     36.1249E+06     38.7328E+06    -8.87080E+06    -70.7795E-03     93.6336E-03    -22.8540E-03     160.213E-03    -72.5310E-03     95.3975E-03    -22.7099E-03     159.208E-03
            1299     886.165E-06     111.236E-03    -16.6673E+06    -17.9488E+06    -15.8356E+06    -3.51016E+06    -15.8198E-03     31.5920E-03    -15.7722E-03     3.69056E-03    -15.8542E-03     31.5496E-03    -15.8012E-03     3.64435E-03
            1300     1.77204E-03     111.242E-03    -16.0789E+06    -15.5964E+06    -13.3719E+06    -6.42903E+06    -15.9699E-03     31.8100E-03    -15.8401E-03     6.89188E-03    -16.0085E-03     31.7748E-03    -15.8610E-03     6.80713E-03
            1301     2.65802E-03     111.253E-03    -15.0189E+06    -13.1630E+06    -9.35534E+06    -8.89106E+06    -16.2115E-03     32.1499E-03    -15.9385E-03     10.2868E-03    -16.2543E-03     32.1197E-03    -15.9444E-03     10.1692E-03
            1302     3.54349E-03     111.269E-03    -13.7272E+06    -11.0848E+06    -4.52229E+06    -11.0001E+06    -16.5055E-03     32.5704E-03    -16.0649E-03     13.8286E-03    -16.5522E-03     32.5420E-03    -16.0515E-03     13.6828E-03
            1303     4.42892E-03     111.289E-03    -12.8868E+06    -9.51384E+06    -113.936E+03    -12.6373E+06    -16.7946E-03     32.9989E-03    -16.2043E-03     17.6386E-03    -16.8463E-03     32.9712E-03    -16.1724E-03     17.4705E-03
            1304     5.31393E-03     111.315E-03    -12.5686E+06    -8.58534E+06     3.13002E+06    -13.9941E+06    -17.0241E-03     33.3641E-03    -16.3400E-03     21.8914E-03    -17.0808E-03     33.3363E-03    -16.2937E-03     21.7046E-03
            1305     6.19898E-03     111.347E-03    -12.0660E+06    -7.69940E+06     5.99340E+06    -15.3614E+06    -17.1509E-03     33.6117E-03    -16.4607E-03     26.8101E-03    -17.2112E-03     33.5840E-03    -16.4021E-03     26.6048E-03
            1306     7.08392E-03     111.385E-03    -11.5636E+06    -6.93656E+06     9.26438E+06    -17.0546E+06    -17.1692E-03     33.7292E-03    -16.5600E-03     32.6384E-03    -17.2334E-03     33.7005E-03    -16.4869E-03     32.4105E-03
            1307     7.96910E-03     111.432E-03    -12.4863E+06    -6.34587E+06     11.1280E+06    -18.1564E+06    -17.1416E-03     33.7687E-03    -16.6271E-03     39.7062E-03    -17.2146E-03     33.7422E-03    -16.5442E-03     39.4640E-03
            1308     8.85449E-03     111.488E-03    -14.7067E+06    -8.54423E+06     10.7104E+06    -19.6981E+06    -17.3084E-03     33.9797E-03    -16.6713E-03     48.4784E-03    -17.3893E-03     33.9467E-03    -16.5841E-03     48.2162E-03
            1309     9.74010E-03     111.555E-03    -16.4823E+06    -9.60704E+06     10.9642E+06    -21.4912E+06    -18.0236E-03     34.7525E-03    -16.7290E-03     59.4590E-03    -18.1134E-03     34.7178E-03    -16.6363E-03     59.1730E-03
            1310     10.6248E-03     111.634E-03    -15.0772E+06    -7.53611E+06     14.9956E+06    -20.3472E+06    -19.5957E-03     36.4475E-03    -16.8518E-03     72.9579E-03    -19.6906E-03     36.4186E-03    -16.7440E-03     72.6835E-03
            1311     11.5076E-03     111.728E-03    -10.0521E+06    -4.77633E+06     23.5451E+06    -16.6481E+06    -22.3089E-03     39.4035E-03    -17.0946E-03     88.8057E-03    -22.4042E-03     39.3780E-03    -16.9554E-03     88.5697E-03
            1312     12.3880E-03     111.836E-03    -5.14927E+06    -3.32577E+06     31.4628E+06    -11.9919E+06    -26.3930E-03     43.8823E-03    -17.4892E-03     106.912E-03    -26.4998E-03     43.8680E-03    -17.3196E-03     106.714E-03
            1313     13.2650E-03     111.963E-03    -711.112E+03     899.860E+03     38.2614E+06    -7.19693E+06    -31.9715E-03     50.0449E-03    -18.0734E-03     126.961E-03    -32.1244E-03     50.0879E-03    -17.8823E-03     126.778E-03
            1314     14.1386E-03     112.109E-03     135.818E+03     18.6082E+06     45.7388E+06    -8.09795E+06    -38.7121E-03     57.5862E-03    -18.8741E-03     148.021E-03    -39.0121E-03     57.8209E-03    -18.6725E-03     147.733E-03
            1315     15.0053E-03     112.274E-03    -7.96182E+06    -1.82122E+06     36.2503E+06    -19.3559E+06    -46.1576E-03     66.0377E-03    -19.8801E-03     172.184E-03    -46.7205E-03     66.4616E-03    -19.6847E-03     171.587E-03
            1316     15.8702E-03     112.461E-03    -15.8670E+06    -40.9252E+06     6.60821E+06    -28.6924E+06    -56.6341E-03     77.6967E-03    -21.0626E-03     204.304E-03    -57.9499E-03     78.7933E-03    -20.9472E-03     203.247E-03
            1317     16.7237E-03     112.685E-03    -14.4896E+06     9.32716E+06     27.6850E+06    -19.1832E+06    -70.0835E-03     92.9089E-03    -22.8253E-03     177.992E-03    -71.7837E-03     94.5150E-03    -22.6794E-03     176.793E-03
            1318     884.439E-06     112.215E-03     435.589E+03    -11.1905E+06     809.198E+03    -3.28586E+06    -17.7587E-03     35.4314E-03    -17.6727E-03     2.79069E-03    -17.7416E-03     35.3737E-03    -17.6530E-03     2.74695E-03
            1319     1.76894E-03     112.223E-03     499.687E+03    -9.46462E+06     3.11214E+06    -5.45343E+06    -17.9821E-03     35.7643E-03    -17.7822E-03     5.18275E-03    -17.9709E-03     35.7117E-03    -17.7536E-03     5.10974E-03
            1320     2.65291E-03     112.234E-03     767.937E+03    -7.84864E+06     6.74310E+06    -7.50150E+06    -18.3284E-03     36.2567E-03    -17.9283E-03     7.64701E-03    -18.3237E-03     36.2067E-03    -17.8843E-03     7.54612E-03
            1321     3.53675E-03     112.250E-03     963.549E+03    -6.51215E+06     10.1344E+06    -8.96017E+06    -18.7355E-03     36.8425E-03    -18.1070E-03     10.1812E-03    -18.7369E-03     36.7942E-03    -18.0483E-03     10.0599E-03
            1322     4.41998E-03     112.270E-03     1.17502E+06    -5.67602E+06     13.1704E+06    -9.98445E+06    -19.1547E-03     37.4605E-03    -18.3058E-03     12.9404E-03    -19.1612E-03     37.4122E-03    -18.2334E-03     12.8041E-03
            1323     5.30299E-03     112.297E-03     1.55116E+06    -4.70678E+06     16.4716E+06    -11.0685E+06    -19.5475E-03     38.0628E-03    -18.5153E-03     16.0584E-03    -19.5589E-03     38.0145E-03    -18.4284E-03     15.9063E-03
            1324     6.18553E-03     112.328E-03     1.50239E+06    -4.11383E+06     19.7093E+06    -12.1702E+06    -19.8529E-03     38.5765E-03    -18.7237E-03     19.6775E-03    -19.8708E-03     38.5272E-03    -18.6213E-03     19.5094E-03
            1325     7.06797E-03     112.367E-03     363.274E+03    -3.46347E+06     22.1335E+06    -12.7422E+06    -20.0115E-03     38.9258E-03    -18.9142E-03     23.9899E-03    -20.0405E-03     38.8786E-03    -18.7991E-03     23.8129E-03
            1326     7.95029E-03     112.414E-03    -943.156E+03    -3.83102E+06     23.9594E+06    -13.0268E+06    -20.0011E-03     39.0769E-03    -19.0759E-03     29.2340E-03    -20.0397E-03     39.0281E-03    -18.9491E-03     29.0522E-03
            1327     8.83287E-03     112.469E-03    -1.97257E+06    -3.96411E+06     25.9128E+06    -14.0798E+06    -19.8624E-03     39.0643E-03    -19.2019E-03     35.8088E-03    -19.9098E-03     39.0142E-03    -19.0637E-03     35.6129E-03
            1328     9.71570E-03     112.535E-03    -3.61629E+06    -5.92578E+06     26.8531E+06    -15.7640E+06    -19.8039E-03     39.0990E-03    -19.2951E-03     44.2782E-03    -19.8589E-03     39.0411E-03    -19.1470E-03     44.0606E-03
            1329     10.5990E-03     112.615E-03    -6.43080E+06    -7.09916E+06     26.9111E+06    -16.7646E+06    -20.1971E-03     39.5735E-03    -19.3764E-03     55.4369E-03    -20.2660E-03     39.5152E-03    -19.2222E-03     55.2062E-03
            1330     11.4821E-03     112.709E-03    -8.15390E+06    -6.29706E+06     29.5112E+06    -16.5888E+06    -21.4439E-03     40.9412E-03    -19.4972E-03     69.8954E-03    -21.5293E-03     40.8890E-03    -19.3287E-03     69.6647E-03
            1331     12.3637E-03     112.821E-03    -5.77370E+06    -7.97800E+06     34.5600E+06    -13.6100E+06    -24.0692E-03     43.7808E-03    -19.7115E-03     88.1020E-03    -24.1565E-03     43.7190E-03    -19.5188E-03     87.9007E-03
            1332     13.2426E-03     112.951E-03     989.657E+03    -1.86506E+06     43.5885E+06    -11.4078E+06    -28.4208E-03     48.4916E-03    -20.0708E-03     109.863E-03    -28.5226E-03     48.4646E-03    -19.8516E-03     109.664E-03
            1333     14.1164E-03     113.104E-03     7.92722E+06     15.2413E+06     55.2184E+06    -4.73488E+06    -33.9776E-03     54.5876E-03    -20.6100E-03     132.586E-03    -34.1532E-03     54.6862E-03    -20.3675E-03     132.414E-03
            1334     14.9895E-03     113.273E-03     5.51325E+06     15.1869E+06     55.6156E+06    -460.782E+03    -40.3674E-03     61.6887E-03    -21.3213E-03     157.035E-03    -40.7220E-03     61.9565E-03    -21.0732E-03     156.801E-03
            1335     15.8552E-03     113.469E-03    -4.01095E+06    -20.7103E+06     29.7909E+06    -14.6076E+06    -48.7759E-03     70.9228E-03    -22.1469E-03     194.692E-03    -49.6183E-03     71.5928E-03    -21.9621E-03     194.034E-03
            1336     16.7159E-03     113.706E-03    -4.95162E+06    -7.33793E+06     20.9220E+06    -22.2502E+06    -60.5441E-03     83.8578E-03    -23.3137E-03     192.431E-03    -61.8583E-03     85.0724E-03    -23.1913E-03     191.380E-03
            1337     882.024E-06     113.201E-03     13.2367E+06    -5.63649E+06     14.8323E+06    -2.34470E+06    -20.8442E-03     41.5537E-03    -20.7096E-03     1.80673E-03    -20.7917E-03     41.4846E-03    -20.6464E-03     1.77473E-03
            1338     1.76358E-03     113.207E-03     13.3719E+06    -4.62830E+06     16.3381E+06    -4.04404E+06    -21.1885E-03     42.0690E-03    -20.8805E-03     3.03838E-03    -21.1394E-03     42.0023E-03    -20.8115E-03     2.98280E-03
            1339     2.64496E-03     113.220E-03     13.1497E+06    -3.81162E+06     18.5452E+06    -5.31897E+06    -21.5789E-03     42.6569E-03    -21.0780E-03     4.33812E-03    -21.5354E-03     42.5916E-03    -20.9988E-03     4.26427E-03
            1340     3.52570E-03     113.236E-03     12.9164E+06    -3.21821E+06     21.0800E+06    -6.22056E+06    -22.0431E-03     43.3442E-03    -21.3011E-03     5.75720E-03    -22.0056E-03     43.2787E-03    -21.2098E-03     5.66973E-03
            1341     4.40612E-03     113.258E-03     12.6983E+06    -2.55695E+06     24.0841E+06    -7.16987E+06    -22.5872E-03     44.1414E-03    -21.5542E-03     7.35273E-03    -22.5565E-03     44.0755E-03    -21.4485E-03     7.25086E-03
            1342     5.28587E-03     113.284E-03     12.1881E+06    -2.07110E+06     27.2129E+06    -7.76541E+06    -23.1701E-03     45.0056E-03    -21.8355E-03     9.17753E-03    -23.1476E-03     44.9387E-03    -21.7142E-03     9.06562E-03
            1343     6.16513E-03     113.317E-03     11.1645E+06    -1.64416E+06     29.8714E+06    -7.92773E+06    -23.7428E-03     45.8788E-03    -22.1360E-03     11.3002E-03    -23.7305E-03     45.8121E-03    -22.0005E-03     11.1836E-03
            1344     7.04376E-03     113.355E-03     10.2305E+06    -1.74358E+06     32.2565E+06    -7.93482E+06    -24.2449E-03     46.6918E-03    -22.4469E-03     13.8463E-03    -24.2414E-03     46.6230E-03    -22.2979E-03     13.7271E-03
            1345     7.92199E-03     113.402E-03     9.51030E+06    -1.38502E+06     35.1955E+06    -8.41935E+06    -24.6228E-03     47.3827E-03    -22.7599E-03     16.9596E-03    -24.6287E-03     47.3132E-03    -22.5957E-03     16.8316E-03
            1346     8.79978E-03     113.457E-03     8.24996E+06    -1.66527E+06     37.6708E+06    -8.71299E+06    -24.8192E-03     47.8808E-03    -23.0616E-03     20.8876E-03    -24.8359E-03     47.8089E-03    -22.8828E-03     20.7535E-03
            1347     9.67747E-03     113.523E-03     6.05809E+06    -2.40119E+06     39.4171E+06    -9.30978E+06    -24.7719E-03     48.1113E-03    -23.3394E-03     26.0196E-03    -24.8025E-03     48.0373E-03    -23.1476E-03     25.8760E-03
            1348     10.5552E-03     113.600E-03     4.23146E+06    -5.04848E+06     40.7013E+06    -10.2006E+06    -24.4748E-03     48.0586E-03    -23.5838E-03     32.9724E-03    -24.5139E-03     47.9731E-03    -23.3791E-03     32.8166E-03
            1349     11.4333E-03     113.694E-03     2.61303E+06    -4.47836E+06     42.4020E+06    -11.0737E+06    -24.1209E-03     47.9094E-03    -23.7885E-03     42.4989E-03    -24.1730E-03     47.8280E-03    -23.5738E-03     42.3319E-03
            1350     12.3125E-03     113.804E-03     2.32241E+06    -8.47415E+06     43.3483E+06    -12.6759E+06    -24.2651E-03     48.2398E-03    -23.9748E-03     55.7393E-03    -24.3166E-03     48.1402E-03    -23.7491E-03     55.5509E-03
            1351     13.1914E-03     113.937E-03     3.50879E+06    -3.03993E+06     48.7665E+06    -12.9370E+06    -25.1753E-03     49.3534E-03    -24.1781E-03     73.3752E-03    -25.2433E-03     49.2790E-03    -23.9350E-03     73.1782E-03
            1352     14.0705E-03     114.091E-03     8.11613E+06     3.21056E+06     56.4860E+06    -8.30558E+06    -27.2770E-03     51.7049E-03    -24.4279E-03     94.3525E-03    -27.3633E-03     51.6675E-03    -24.1619E-03     94.1947E-03
            1353     14.9431E-03     114.267E-03     18.7960E+06     9.61024E+06     65.2572E+06     3.90057E+06    -31.2926E-03     56.0496E-03    -24.7570E-03     119.629E-03    -31.4135E-03     56.0839E-03    -24.4719E-03     119.573E-03
            1354     15.8154E-03     114.465E-03     26.4541E+06     6.77225E+06     63.0826E+06     1.76474E+06    -35.3765E-03     60.4878E-03    -25.1113E-03     156.910E-03    -35.6783E-03     60.7263E-03    -24.8441E-03     156.718E-03
            1355     16.6912E-03     114.704E-03     18.5989E+06    -4.58108E+06     31.4495E+06    -9.83533E+06    -33.1244E-03     58.3431E-03    -25.2188E-03     176.231E-03    -33.6826E-03     58.8686E-03    -25.0818E-03     175.791E-03
            1356     878.114E-06     114.192E-03     22.6097E+06    -1.87613E+06     23.5198E+06    -1.28979E+06    -25.3327E-03     50.7115E-03    -25.3788E-03     95.8351E-06    -25.2521E-03     50.6343E-03    -25.2913E-03     77.7517E-06
            1357     1.75583E-03     114.200E-03     22.2691E+06    -1.48240E+06     24.6158E+06    -2.22035E+06    -25.6501E-03     51.0945E-03    -25.4444E-03     303.072E-06    -25.5735E-03     51.0180E-03    -25.3515E-03     271.330E-06
            1358     2.63299E-03     114.212E-03     21.5898E+06    -1.35283E+06     26.1071E+06    -2.77493E+06    -26.0684E-03     51.6903E-03    -25.6219E-03     445.692E-06    -25.9976E-03     51.6133E-03    -25.5207E-03     405.265E-06
            1359     3.50998E-03     114.230E-03     20.7909E+06    -1.01113E+06     28.6167E+06    -3.33778E+06    -26.6160E-03     52.4773E-03    -25.8613E-03     674.442E-06    -26.5534E-03     52.3996E-03    -25.7469E-03     625.079E-06
            1360     4.38619E-03     114.252E-03     19.8122E+06    -633.250E+03     31.5405E+06    -3.61421E+06    -27.3316E-03     53.4929E-03    -26.1613E-03     922.537E-06    -27.2789E-03     53.4143E-03    -26.0314E-03     867.756E-06
            1361     5.26170E-03     114.280E-03     18.7021E+06    -532.781E+03     34.2254E+06    -3.73596E+06    -28.1849E-03     54.7064E-03    -26.5215E-03     1.21084E-03    -28.1420E-03     54.6260E-03    -26.3767E-03     1.15240E-03
            1362     6.13623E-03     114.313E-03     17.9046E+06    -686.325E+03     37.3519E+06    -3.60409E+06    -29.1498E-03     56.0925E-03    -26.9427E-03     1.55753E-03    -29.1156E-03     56.0080E-03    -26.7809E-03     1.49838E-03
            1363     7.00976E-03     114.353E-03     17.3575E+06    -302.455E+03     41.2595E+06    -3.75058E+06    -30.1910E-03     57.6134E-03    -27.4225E-03     1.98055E-03    -30.1662E-03     57.5260E-03    -27.2409E-03     1.91673E-03
            1364     7.88210E-03     114.399E-03     16.5067E+06    -273.035E+03     44.4899E+06    -3.61316E+06    -31.2442E-03     59.1952E-03    -27.9509E-03     2.52841E-03    -31.2291E-03     59.1044E-03    -27.7520E-03     2.46321E-03
            1365     8.75329E-03     114.455E-03     15.6037E+06    -331.887E+03     47.4588E+06    -3.51100E+06    -32.2160E-03     60.7376E-03    -28.5217E-03     3.27602E-03    -32.2105E-03     60.6435E-03    -28.3065E-03     3.20867E-03
            1366     9.62325E-03     114.520E-03     15.0344E+06    -989.361E+03     50.7295E+06    -3.33068E+06    -32.9050E-03     62.0277E-03    -29.1227E-03     4.41690E-03    -32.9072E-03     61.9263E-03    -28.8894E-03     4.34838E-03
            1367     10.4922E-03     114.598E-03     13.9874E+06    -1.65224E+06     53.1790E+06    -4.41754E+06    -33.0582E-03     62.7819E-03    -29.7237E-03     6.30635E-03    -33.0697E-03     62.6751E-03    -29.4757E-03     6.22077E-03
            1368     11.3609E-03     114.688E-03     12.6944E+06    -3.64339E+06     53.7782E+06    -5.04404E+06    -32.5736E-03     62.8676E-03    -30.2940E-03     9.37515E-03    -32.5912E-03     62.7517E-03    -30.0382E-03     9.27922E-03
            1369     12.2291E-03     114.797E-03     10.8752E+06    -2.93089E+06     55.4877E+06    -7.42275E+06    -31.1764E-03     61.9889E-03    -30.8126E-03     14.3945E-03    -31.2084E-03     61.8770E-03    -30.5466E-03     14.2672E-03
            1370     13.0983E-03     114.924E-03     8.02390E+06    -5.72094E+06     56.3611E+06    -7.95218E+06    -28.1964E-03     59.4166E-03    -31.2202E-03     22.3179E-03    -28.2411E-03     59.2948E-03    -30.9417E-03     22.1866E-03
            1371     13.9691E-03     115.074E-03     5.08722E+06     608.865E+03     57.9752E+06    -8.56538E+06    -24.4055E-03     55.8526E-03    -31.4471E-03     35.0641E-03    -24.4782E-03     55.7673E-03    -31.1655E-03     34.9284E-03
            1372     14.8474E-03     115.247E-03     5.06493E+06    -4.73104E+06     58.2954E+06    -5.65619E+06    -23.2515E-03     54.8280E-03    -31.5765E-03     53.0271E-03    -23.3290E-03     54.7276E-03    -31.2855E-03     52.9196E-03
            1373     15.7229E-03     115.448E-03     11.8396E+06     7.43190E+06     64.3324E+06     -20.436E+03    -17.3985E-03     48.9062E-03    -31.5077E-03     76.6135E-03    -17.5145E-03     48.9042E-03    -31.2140E-03     76.5538E-03
            1374     16.5999E-03     115.673E-03     2.10184E+06     11.5349E+06     36.3044E+06      -8.372E+03    -897.483E-06     31.5947E-03    -30.6972E-03     85.1358E-03    -1.06110E-03     31.6894E-03    -30.5355E-03     85.1077E-03
            1375     16.6558E-03     57.4491E-03    -5.01857E+06     139.375E+06     74.2234E+06    -335.261E+03    -27.3681E-03     53.7374E-03    -26.3693E-03     89.0496E-03    -28.7278E-03     55.3588E-03    -26.1930E-03     89.3898E-03
            1376     15.7820E-03     57.3115E-03    -6.98581E+06     127.152E+06     37.8327E+06     264.942E+03    -28.9203E-03     55.1500E-03    -26.2297E-03     132.235E-03    -30.5285E-03     57.0750E-03    -26.2147E-03     132.367E-03
            1377     14.9042E-03     57.1993E-03    -8.58425E+06     72.5691E+06    -262.853E+03     437.919E+03    -28.1163E-03     54.2587E-03    -26.1424E-03     106.856E-03    -28.8881E-03     55.2585E-03    -26.2365E-03     106.690E-03
            1378     14.0268E-03     57.1087E-03    -10.3250E+06     15.5432E+06    -9.22106E+06    -147.801E+03    -27.7398E-03     53.9418E-03    -26.2020E-03     89.0475E-03    -28.1030E-03     54.3503E-03    -26.2557E-03     88.8594E-03
            1379     13.1501E-03     57.0305E-03    -10.1565E+06    -15.9806E+06    -3.73891E+06    -89.1350E+03    -27.5831E-03     53.8688E-03    -26.2858E-03     78.1372E-03    -27.7833E-03     53.9871E-03    -26.2666E-03     77.9739E-03
            1380     12.2733E-03     56.9607E-03    -10.3657E+06    -37.5458E+06    -1.87442E+06     180.245E+03    -27.4069E-03     53.7392E-03    -26.3322E-03     70.5918E-03    -27.5160E-03     53.6836E-03    -26.2721E-03     70.4592E-03
            1381     11.3966E-03     56.8965E-03    -11.0591E+06    -48.8696E+06    -576.062E+03     485.654E+03    -27.2874E-03     53.6482E-03    -26.3608E-03     65.4758E-03    -27.3488E-03     53.4985E-03    -26.2767E-03     65.3713E-03
            1382     10.5199E-03     56.8364E-03    -11.6681E+06    -57.4483E+06     1.42988E+06     434.016E+03    -27.1616E-03     53.5503E-03    -26.3886E-03     60.5954E-03    -27.1926E-03     53.3317E-03    -26.2813E-03     60.5108E-03
            1383     9.64315E-03     56.7815E-03    -12.6434E+06    -64.5928E+06     2.07561E+06     288.710E+03    -27.0331E-03     53.4420E-03    -26.4089E-03     55.8184E-03    -27.0431E-03     53.1718E-03    -26.2866E-03     55.7494E-03
            1384     8.76644E-03     56.7305E-03    -13.9580E+06    -71.6920E+06     1.76617E+06     269.577E+03    -26.9344E-03     53.3596E-03    -26.4252E-03     51.1494E-03    -26.9289E-03     53.0449E-03    -26.2922E-03     51.0946E-03
            1385     7.88976E-03     56.6843E-03    -15.6501E+06    -77.9672E+06     1.03073E+06     227.484E+03    -26.8322E-03     53.2706E-03    -26.4384E-03     46.3511E-03    -26.8168E-03     52.9199E-03    -26.2975E-03     46.3077E-03
            1386     7.01308E-03     56.6424E-03    -17.6077E+06    -84.0216E+06    -1.28237E+06     206.884E+03    -26.7365E-03     53.1803E-03    -26.4438E-03     41.4437E-03    -26.7130E-03     52.7997E-03    -26.3029E-03     41.4102E-03
            1387     6.13641E-03     56.6055E-03    -19.6822E+06    -90.9661E+06    -4.55721E+06     226.977E+03    -26.6557E-03     53.1015E-03    -26.4458E-03     36.4174E-03    -26.6237E-03     52.6899E-03    -26.3081E-03     36.3923E-03
            1388     5.25976E-03     56.5732E-03    -21.8446E+06    -97.5127E+06    -8.70682E+06     186.275E+03    -26.5844E-03     53.0270E-03    -26.4425E-03     31.3153E-03    -26.5448E-03     52.5889E-03    -26.3130E-03     31.2963E-03
            1389     4.38312E-03     56.5459E-03    -23.9541E+06    -103.129E+06    -13.8280E+06     124.959E+03    -26.5222E-03     52.9551E-03    -26.4329E-03     26.1451E-03    -26.4756E-03     52.4974E-03    -26.3177E-03     26.1306E-03
            1390     3.50648E-03     56.5234E-03    -25.8233E+06    -108.002E+06    -18.4962E+06     231.798E+03    -26.4734E-03     52.8975E-03    -26.4241E-03     20.9525E-03    -26.4210E-03     52.4236E-03    -26.3225E-03     20.9437E-03
            1391     2.62984E-03     56.5061E-03    -27.4712E+06    -112.686E+06    -22.3522E+06     154.856E+03    -26.4438E-03     52.8613E-03    -26.4175E-03     15.7753E-03    -26.3863E-03     52.3711E-03    -26.3260E-03     15.7691E-03
            1392     1.75320E-03     56.4934E-03    -28.7727E+06    -116.160E+06    -26.2642E+06     31.9927E+03    -26.4210E-03     52.8270E-03    -26.4060E-03     10.6387E-03    -26.3587E-03     52.3264E-03    -26.3272E-03     10.6339E-03
            1393     876.630E-06     56.4858E-03    -29.7114E+06    -117.883E+06    -29.0762E+06    -57.2198E+03    -26.4048E-03     52.7975E-03    -26.3928E-03     5.71345E-03    -26.3404E-03     52.2937E-03    -26.3241E-03     5.70995E-03
            1394     16.6594E-03     56.4511E-03    -3.74497E+06     139.879E+06     72.3952E+06    -269.572E+03    -26.7992E-03     53.1862E-03    -26.3870E-03     89.6749E-03    -28.1534E-03     54.8137E-03    -26.2224E-03     90.0182E-03
            1395     15.7788E-03     56.3112E-03    -8.42801E+06     125.424E+06     33.4585E+06     71.3691E+03    -29.0712E-03     55.3277E-03    -26.2565E-03     132.435E-03    -30.6824E-03     57.2572E-03    -26.2588E-03     132.558E-03
            1396     14.9032E-03     56.1998E-03    -9.96820E+06     73.0818E+06    -1.97904E+06     607.344E+03    -28.5292E-03     54.6942E-03    -26.1650E-03     106.698E-03    -29.3091E-03     55.7038E-03    -26.2664E-03     106.528E-03
            1397     14.0266E-03     56.1099E-03    -8.95967E+06     16.2481E+06    -9.39785E+06    -20.5799E+03    -27.9934E-03     54.2024E-03    -26.2090E-03     89.2131E-03    -28.3526E-03     54.6148E-03    -26.2666E-03     89.0242E-03
            1398     13.1499E-03     56.0308E-03    -9.61529E+06    -16.9326E+06    -3.44667E+06     194.093E+03    -27.6622E-03     53.9510E-03    -26.2888E-03     77.9658E-03    -27.8585E-03     54.0631E-03    -26.2676E-03     77.8057E-03
            1399     12.2733E-03     55.9617E-03    -10.8986E+06    -37.1051E+06    -1.76314E+06     528.021E+03    -27.4271E-03     53.7572E-03    -26.3301E-03     70.4624E-03    -27.5396E-03     53.7044E-03    -26.2693E-03     70.3341E-03
            1400     11.3966E-03     55.8970E-03    -11.5137E+06    -48.9292E+06    -954.913E+03    -90.7886E+03    -27.3001E-03     53.6549E-03    -26.3549E-03     65.4143E-03    -27.3631E-03     53.5062E-03    -26.2720E-03     65.3023E-03
            1401     10.5199E-03     55.8374E-03    -11.8954E+06    -57.3993E+06     1.28366E+06    -50.1698E+03    -27.1580E-03     53.5404E-03    -26.3824E-03     60.5292E-03    -27.1900E-03     53.3226E-03    -26.2755E-03     60.4383E-03
            1402     9.64319E-03     55.7821E-03    -12.7871E+06    -64.6459E+06     1.90976E+06     104.271E+03    -27.0410E-03     53.4426E-03    -26.4016E-03     55.7751E-03    -27.0514E-03     53.1726E-03    -26.2798E-03     55.7036E-03
            1403     8.76652E-03     55.7314E-03    -14.1060E+06    -71.6148E+06     1.61878E+06     131.604E+03    -26.9389E-03     53.3552E-03    -26.4163E-03     51.0975E-03    -26.9340E-03     53.0413E-03    -26.2839E-03     51.0408E-03
            1404     7.88983E-03     55.6849E-03    -15.6907E+06    -78.0068E+06     983.352E+03     189.576E+03    -26.8326E-03     53.2612E-03    -26.4286E-03     46.3036E-03    -26.8173E-03     52.9104E-03    -26.2879E-03     46.2597E-03
            1405     7.01316E-03     55.6433E-03    -17.6105E+06    -83.9195E+06    -1.15770E+06     214.662E+03    -26.7336E-03     53.1670E-03    -26.4335E-03     41.4079E-03    -26.7104E-03     52.7868E-03    -26.2920E-03     41.3745E-03
            1406     6.13649E-03     55.6062E-03    -19.6983E+06    -90.9548E+06    -4.47887E+06     154.613E+03    -26.6486E-03     53.0830E-03    -26.4344E-03     36.3954E-03    -26.6168E-03     52.6714E-03    -26.2964E-03     36.3693E-03
            1407     5.25984E-03     55.5741E-03    -21.6678E+06    -97.2506E+06    -8.53155E+06     7.45656E+03    -26.5733E-03     53.0038E-03    -26.4305E-03     31.3039E-03    -26.5334E-03     52.5666E-03    -26.3008E-03     31.2826E-03
            1408     4.38316E-03     55.5466E-03    -23.5595E+06    -103.335E+06    -12.9558E+06     20.3053E+03    -26.5122E-03     52.9367E-03    -26.4245E-03     26.1352E-03    -26.4646E-03     52.4762E-03    -26.3053E-03     26.1194E-03
            1409     3.50651E-03     55.5243E-03    -25.5147E+06    -108.009E+06    -17.6423E+06     204.299E+03    -26.4641E-03     52.8789E-03    -26.4148E-03     20.9482E-03    -26.4113E-03     52.4033E-03    -26.3094E-03     20.9390E-03
            1410     2.62989E-03     55.5068E-03    -27.3673E+06    -112.328E+06    -22.4159E+06     80.5884E+03    -26.4299E-03     52.8330E-03    -26.4031E-03     15.7843E-03    -26.3723E-03     52.3445E-03    -26.3126E-03     15.7772E-03
            1411     1.75329E-03     55.4943E-03    -28.8319E+06    -116.256E+06    -26.5050E+06    -28.7610E+03    -26.3937E-03     52.7902E-03    -26.3965E-03     10.6230E-03    -26.3313E-03     52.2896E-03    -26.3186E-03     10.6174E-03
            1412     876.565E-06     55.4866E-03    -29.5708E+06    -117.782E+06    -29.1144E+06    -50.5491E+03    -26.3525E-03     52.7899E-03    -26.4375E-03     5.78590E-03    -26.2874E-03     52.2864E-03    -26.3694E-03     5.78246E-03
            1413     16.6543E-03     55.4525E-03    -3.67654E+06     139.386E+06     71.6472E+06     725.008E+03    -26.7944E-03     53.1746E-03    -26.3802E-03     89.5812E-03    -28.1376E-03     54.7918E-03    -26.2188E-03     89.9318E-03
            1414     15.7804E-03     55.3109E-03    -8.39116E+06     125.359E+06     33.0823E+06     850.783E+03    -28.9411E-03     55.1945E-03    -26.2534E-03     131.386E-03    -30.5374E-03     57.1100E-03    -26.2576E-03     131.515E-03
            1415     14.9030E-03     55.2006E-03    -9.88802E+06     73.8864E+06    -1.13180E+06    -513.423E+03    -28.4830E-03     54.6509E-03    -26.1679E-03     105.371E-03    -29.2609E-03     55.6592E-03    -26.2663E-03     105.188E-03
            1416     14.0266E-03     55.1097E-03    -10.0490E+06     15.9134E+06    -9.52696E+06    -415.986E+03    -28.1021E-03     54.3069E-03    -26.2048E-03     88.5453E-03    -28.4664E-03     54.7197E-03    -26.2609E-03     88.3499E-03
            1417     13.1503E-03     55.0319E-03    -9.96844E+06    -17.7451E+06    -3.59855E+06     526.137E+03    -27.6685E-03     53.9467E-03    -26.2782E-03     77.5176E-03    -27.8650E-03     54.0552E-03    -26.2560E-03     77.3616E-03
            1418     12.2734E-03     54.9622E-03    -9.88929E+06    -36.1697E+06    -954.189E+03     366.354E+03    -27.3921E-03     53.7113E-03    -26.3193E-03     70.3333E-03    -27.5021E-03     53.6606E-03    -26.2572E-03     70.2030E-03
            1419     11.3968E-03     54.8980E-03    -10.2757E+06    -48.5077E+06    -216.244E+03    -233.774E+03    -27.2789E-03     53.6241E-03    -26.3452E-03     65.2978E-03    -27.3373E-03     53.4745E-03    -26.2611E-03     65.1839E-03
            1420     10.5200E-03     54.8380E-03    -11.3770E+06    -57.8834E+06     1.48719E+06    -242.685E+03    -27.1572E-03     53.5296E-03    -26.3724E-03     60.4675E-03    -27.1861E-03     53.3084E-03    -26.2646E-03     60.3741E-03
            1421     9.64334E-03     54.7830E-03    -12.6059E+06    -64.6064E+06     2.20867E+06    -7.07556E+03    -27.0439E-03     53.4347E-03    -26.3908E-03     55.7132E-03    -27.0539E-03     53.1642E-03    -26.2678E-03     55.6402E-03
            1422     8.76663E-03     54.7320E-03    -13.9945E+06    -71.6991E+06     1.89778E+06     9.62109E+03    -26.9282E-03     53.3329E-03    -26.4047E-03     51.0535E-03    -26.9230E-03     53.0180E-03    -26.2710E-03     50.9953E-03
            1423     7.88996E-03     54.6858E-03    -15.6203E+06     -78.015E+06     1.22697E+06     45.5504E+03    -26.8183E-03     53.2350E-03    -26.4167E-03     46.2768E-03    -26.8030E-03     52.8837E-03    -26.2748E-03     46.2312E-03
            1424     7.01325E-03     54.6440E-03    -17.4104E+06    -83.9811E+06    -835.001E+03     116.529E+03    -26.7178E-03     53.1399E-03    -26.4220E-03     41.3934E-03    -26.6941E-03     52.7586E-03    -26.2792E-03     41.3587E-03
            1425     6.13658E-03     54.6071E-03    -19.3954E+06    -90.7221E+06    -4.15155E+06     75.1869E+03    -26.6315E-03     53.0545E-03    -26.4230E-03     36.3898E-03    -26.5989E-03     52.6431E-03    -26.2841E-03     36.3628E-03
            1426     5.25988E-03     54.5748E-03    -21.6415E+06    -97.1276E+06    -8.34254E+06    -82.3577E+03    -26.5580E-03     52.9777E-03    -26.4197E-03     31.3014E-03    -26.5185E-03     52.5407E-03    -26.2892E-03     31.2790E-03
            1427     4.38322E-03     54.5475E-03    -24.0399E+06    -103.644E+06    -13.2056E+06     45.7144E+03    -26.5027E-03     52.9154E-03    -26.4127E-03     26.1348E-03    -26.4567E-03     52.4544E-03    -26.2936E-03     26.1193E-03
            1428     3.50658E-03     54.5251E-03    -26.1602E+06    -107.946E+06    -18.6924E+06     160.910E+03    -26.4500E-03     52.8484E-03    -26.3983E-03     20.9402E-03    -26.3991E-03     52.3755E-03    -26.2973E-03     20.9305E-03
            1429     2.62990E-03     54.5077E-03    -27.7233E+06    -112.002E+06    -23.2081E+06     15.1265E+03    -26.4055E-03     52.7948E-03    -26.3894E-03     15.7812E-03    -26.3490E-03     52.3096E-03    -26.3028E-03     15.7732E-03
            1430     1.75322E-03     54.4951E-03    -28.9256E+06    -116.351E+06    -26.5216E+06    -140.042E+03    -26.3913E-03     52.7785E-03    -26.3872E-03     10.6155E-03    -26.3292E-03     52.2776E-03    -26.3092E-03     10.6084E-03
            1431     876.651E-06     54.4876E-03    -29.7463E+06    -117.886E+06    -29.1663E+06     44.2781E+03    -26.3427E-03     52.7668E-03    -26.4242E-03     5.77146E-03    -26.2783E-03     52.2631E-03    -26.3559E-03     5.76932E-03
            1432     16.6611E-03     54.4546E-03    -4.32662E+06     139.134E+06     73.0178E+06     1.09999E+06    -27.6980E-03     54.0383E-03    -26.3403E-03     88.6658E-03    -29.0372E-03     55.6443E-03    -26.1707E-03     89.0132E-03
            1433     15.7805E-03     54.3118E-03    -6.09121E+06     128.067E+06     37.5122E+06     1.35132E+06    -28.5691E-03     54.7720E-03    -26.2029E-03     131.242E-03    -30.1573E-03     56.6845E-03    -26.1922E-03     131.386E-03
            1434     14.9041E-03     54.2012E-03    -8.89248E+06     74.6021E+06    -112.057E+03     179.550E+03    -28.1062E-03     54.2294E-03    -26.1232E-03     105.288E-03    -28.8801E-03     55.2368E-03    -26.2190E-03     105.117E-03
            1435     14.0273E-03     54.1103E-03    -10.0577E+06     15.4907E+06    -9.02918E+06    -195.309E+03    -27.8794E-03     54.0552E-03    -26.1758E-03     88.2331E-03    -28.2421E-03     54.4634E-03    -26.2288E-03     88.0424E-03
            1436     13.1504E-03     54.0325E-03    -9.84976E+06     -17.847E+06    -3.42394E+06    -677.564E+03    -27.5279E-03     53.7840E-03    -26.2561E-03     77.3439E-03    -27.7233E-03     53.8910E-03    -26.2331E-03     77.1733E-03
            1437     12.2737E-03     53.9631E-03    -9.18095E+06    -36.2751E+06    -736.093E+03    -516.252E+03    -27.3412E-03     53.6427E-03    -26.3016E-03     70.3435E-03    -27.4476E-03     53.5900E-03    -26.2393E-03     70.2022E-03
            1438     11.3969E-03     53.8987E-03    -9.59450E+06    -48.3961E+06     616.568E+03     78.3492E+03    -27.2412E-03     53.5737E-03    -26.3325E-03     65.2795E-03    -27.2975E-03     53.4224E-03    -26.2454E-03     65.1699E-03
            1439     10.5202E-03     53.8389E-03    -10.7951E+06    -57.8895E+06     2.10255E+06     19.0795E+03    -27.1467E-03     53.5065E-03    -26.3598E-03     60.4515E-03    -27.1736E-03     53.2835E-03    -26.2497E-03     60.3616E-03
            1440     9.64348E-03     53.7836E-03    -12.1325E+06    -64.7431E+06     2.77090E+06    -53.2652E+03    -27.0224E-03     53.4009E-03    -26.3784E-03     55.7018E-03    -27.0306E-03     53.1281E-03    -26.2531E-03     55.6283E-03
            1441     8.76679E-03     53.7329E-03    -13.5989E+06    -71.6384E+06     2.33068E+06    -2.02216E+03    -26.9082E-03     53.3006E-03    -26.3923E-03     51.0635E-03    -26.9017E-03     52.9847E-03    -26.2571E-03     51.0052E-03
            1442     7.89005E-03     53.6865E-03    -15.3348E+06    -78.0777E+06     1.41627E+06    -30.8293E+03    -26.7996E-03     53.2038E-03    -26.4042E-03     46.2873E-03    -26.7830E-03     52.8515E-03    -26.2617E-03     46.2408E-03
            1443     7.01335E-03     53.6449E-03    -17.2743E+06    -84.0099E+06    -875.794E+03    -19.8689E+03    -26.6992E-03     53.1086E-03    -26.4094E-03     41.3970E-03    -26.6746E-03     52.7270E-03    -26.2669E-03     41.3606E-03
            1444     6.13663E-03     53.6078E-03    -19.3428E+06    -90.6703E+06    -4.20479E+06     21.3722E+03    -26.6159E-03     53.0270E-03    -26.4111E-03     36.3877E-03    -26.5831E-03     52.6158E-03    -26.2726E-03     36.3600E-03
            1445     5.25995E-03     53.5757E-03    -21.6512E+06    -97.1544E+06    -8.43391E+06     181.361E+03    -26.5463E-03     52.9543E-03    -26.4081E-03     31.2854E-03    -26.5066E-03     52.5174E-03    -26.2780E-03     31.2664E-03
            1446     4.38326E-03     53.5483E-03    -23.9944E+06    -103.734E+06    -13.2976E+06     206.138E+03    -26.4885E-03     52.8900E-03    -26.4015E-03     26.1259E-03    -26.4420E-03     52.4286E-03    -26.2828E-03     26.1126E-03
            1447     3.50660E-03     53.5260E-03    -25.9525E+06    -107.721E+06    -18.5379E+06     49.9591E+03    -26.4382E-03     52.8266E-03    -26.3884E-03     20.9333E-03    -26.3868E-03     52.3544E-03    -26.2872E-03     20.9223E-03
            1448     2.62995E-03     53.5085E-03    -27.5346E+06    -111.870E+06    -23.0389E+06    -130.110E+03    -26.3974E-03     52.7771E-03    -26.3796E-03     15.7687E-03    -26.3405E-03     52.2920E-03    -26.2927E-03     15.7588E-03
            1449     1.75329E-03     53.4961E-03    -28.9006E+06    -116.433E+06    -26.5048E+06    -109.248E+03    -26.3893E-03     52.7636E-03    -26.3743E-03     10.6295E-03    -26.3270E-03     52.2622E-03    -26.2960E-03     10.6229E-03
            1450     876.642E-06     53.4883E-03    -30.0559E+06    -118.079E+06    -29.1748E+06     17.8181E+03    -26.3949E-03     52.7345E-03    -26.3395E-03     5.73555E-03    -26.3318E-03     52.2303E-03    -26.2706E-03     5.73311E-03
            1451     16.6577E-03     53.4544E-03    -5.65251E+06     138.116E+06     73.1362E+06    -566.685E+03    -28.1247E-03     54.4596E-03    -26.3348E-03     89.1859E-03    -29.4861E-03     56.0791E-03    -26.1612E-03     89.5118E-03
            1452     15.7832E-03     53.3144E-03    -6.40970E+06     127.158E+06     36.8560E+06     717.006E+03    -28.9071E-03     55.0805E-03    -26.1734E-03     132.899E-03    -30.5135E-03     57.0087E-03    -26.1642E-03     133.036E-03
            1453     14.9045E-03     53.2016E-03    -6.74460E+06     75.9316E+06     441.649E+03     1.81300E+06    -28.1125E-03     54.1990E-03    -26.0865E-03     106.408E-03    -28.8787E-03     55.2095E-03    -26.1846E-03     106.258E-03
            1454     14.0278E-03     53.1115E-03    -7.06277E+06     16.8228E+06    -6.65389E+06     59.4449E+03    -27.7050E-03     53.8583E-03    -26.1533E-03     88.4116E-03    -28.0559E-03     54.2631E-03    -26.2007E-03     88.2261E-03
            1455     13.1508E-03     53.0334E-03    -7.39857E+06    -17.6792E+06    -2.14810E+06    -790.685E+03    -27.4165E-03     53.6561E-03    -26.2396E-03     77.6218E-03    -27.6010E-03     53.7578E-03    -26.2140E-03     77.4510E-03
            1456     12.2739E-03     52.9640E-03    -8.83417E+06    -37.1210E+06    -865.104E+03    -465.124E+03    -27.3336E-03     53.6198E-03    -26.2863E-03     70.4154E-03    -27.4368E-03     53.5625E-03    -26.2240E-03     70.2749E-03
            1457     11.3971E-03     52.8996E-03    -9.82163E+06    -48.7726E+06     536.475E+03     16.7409E+03    -27.2234E-03     53.5412E-03    -26.3178E-03     65.3567E-03    -27.2801E-03     53.3883E-03    -26.2301E-03     65.2466E-03
            1458     10.5203E-03     52.8396E-03    -10.5382E+06    -57.5772E+06     2.24053E+06      162.45E+03    -27.1124E-03     53.4579E-03    -26.3455E-03     60.4918E-03    -27.1386E-03     53.2358E-03    -26.2355E-03     60.4040E-03
            1459     9.64361E-03     52.7846E-03    -11.8153E+06    -64.8642E+06     2.62713E+06     63.4468E+03    -26.9945E-03     53.3596E-03    -26.3651E-03     55.7381E-03    -27.0007E-03     53.0859E-03    -26.2407E-03     55.6664E-03
            1460     8.76685E-03     52.7337E-03    -13.4317E+06    -71.5802E+06     2.17333E+06     96.7788E+03    -26.8883E-03     53.2686E-03    -26.3802E-03     51.0970E-03    -26.8808E-03     52.9530E-03    -26.2461E-03     51.0402E-03
            1461     7.89015E-03     52.6874E-03    -15.2898E+06    -78.0585E+06     1.17144E+06     81.6669E+03    -26.7873E-03     53.1800E-03    -26.3926E-03     46.3095E-03    -26.7702E-03     52.8280E-03    -26.2514E-03     46.2646E-03
            1462     7.01341E-03     52.6457E-03    -17.3793E+06    -83.9652E+06    -1.14238E+06     37.0045E+03    -26.6892E-03     53.0873E-03    -26.3981E-03     41.4069E-03    -26.6648E-03     52.7065E-03    -26.2569E-03     41.3713E-03
            1463     6.13671E-03     52.6088E-03    -19.6165E+06    -90.7903E+06    -4.47230E+06     66.2006E+03    -26.6033E-03     53.0037E-03    -26.4004E-03     36.3968E-03    -26.5713E-03     52.5927E-03    -26.2627E-03     36.3698E-03
            1464     5.26000E-03     52.5765E-03    -21.7375E+06    -97.3229E+06    -8.54062E+06     196.153E+03    -26.5309E-03     52.9295E-03    -26.3987E-03     31.3015E-03    -26.4912E-03     52.4920E-03    -26.2688E-03     31.2827E-03
            1465     4.38333E-03     52.5493E-03    -23.7484E+06    -103.505E+06    -13.0383E+06     214.648E+03    -26.4741E-03     52.8682E-03    -26.3941E-03     26.1433E-03    -26.4270E-03     52.4072E-03    -26.2748E-03     26.1301E-03
            1466     3.50663E-03     52.5268E-03    -25.7514E+06    -107.465E+06    -18.2346E+06    -7.74790E+03    -26.4284E-03     52.8108E-03    -26.3824E-03     20.9460E-03    -26.3768E-03     52.3391E-03    -26.2804E-03     20.9342E-03
            1467     2.62995E-03     52.5095E-03    -27.5425E+06    -111.879E+06    -23.0092E+06    -74.1880E+03    -26.4029E-03     52.7738E-03    -26.3710E-03     15.7727E-03    -26.3460E-03     52.2887E-03    -26.2839E-03     15.7636E-03
            1468     1.75330E-03     52.4969E-03    -28.9903E+06    -116.599E+06    -26.6893E+06         964.859    -26.3837E-03     52.7444E-03    -26.3607E-03     10.6438E-03    -26.3213E-03     52.2426E-03    -26.2831E-03     10.6386E-03
            1469     876.666E-06     52.4892E-03    -29.7542E+06    -118.060E+06    -29.2970E+06    -65.5267E+03    -26.3863E-03     52.7055E-03    -26.3192E-03     5.70293E-03    -26.3215E-03     52.2011E-03    -26.2514E-03     5.69941E-03
            1470     16.6583E-03     52.4533E-03    -5.35896E+06     138.325E+06     72.3889E+06    -748.585E+03    -27.4345E-03     53.8164E-03    -26.3819E-03     89.8235E-03    -28.8090E-03     55.4530E-03    -26.2128E-03     90.1496E-03
            1471     15.7799E-03     52.3151E-03    -8.86029E+06     123.644E+06     31.1720E+06    -1.44942E+06    -29.8516E-03     56.0514E-03    -26.1998E-03     133.150E-03    -31.4733E-03     57.9902E-03    -26.2104E-03     133.241E-03
            1472     14.9048E-03     52.2020E-03    -6.41228E+06     75.9597E+06    -1.53663E+06     86.2014E+03    -28.6796E-03     54.7607E-03    -26.0811E-03     106.406E-03    -29.4409E-03     55.7734E-03    -26.1896E-03     106.226E-03
            1473     14.0278E-03     52.1128E-03    -5.01449E+06     18.2827E+06    -6.41725E+06     790.601E+03    -27.6815E-03     53.8203E-03    -26.1388E-03     88.3916E-03    -28.0226E-03     54.2271E-03    -26.1901E-03     88.2169E-03
            1474     13.1507E-03     52.0343E-03    -6.67665E+06    -17.9643E+06    -2.86256E+06     706.930E+03    -27.4352E-03     53.6602E-03    -26.2250E-03     77.8629E-03    -27.6147E-03     53.7605E-03    -26.2036E-03     77.7118E-03
            1475     12.2740E-03     51.9648E-03    -8.18440E+06    -36.7794E+06    -872.649E+03     534.247E+03    -27.3338E-03     53.6075E-03    -26.2737E-03     70.4319E-03    -27.4343E-03     53.5509E-03    -26.2129E-03     70.3044E-03
            1476     11.3973E-03     51.9004E-03    -9.43010E+06    -49.0762E+06    -143.048E+03     119.648E+03    -27.2108E-03     53.5140E-03    -26.3031E-03     65.4209E-03    -27.2641E-03     53.3600E-03    -26.2190E-03     65.3123E-03
            1477     10.5204E-03     51.8405E-03    -10.6731E+06    -57.5707E+06     1.72279E+06     261.034E+03    -27.0828E-03     53.4160E-03    -26.3332E-03     60.5563E-03    -27.1088E-03     53.1947E-03    -26.2256E-03     60.4700E-03
            1478     9.64368E-03     51.7854E-03    -12.0608E+06    -64.7983E+06     2.14336E+06     313.313E+03    -26.9752E-03     53.3297E-03    -26.3544E-03     55.7743E-03    -26.9820E-03     53.0574E-03    -26.2323E-03     55.7060E-03
            1479     8.76694E-03     51.7346E-03    -13.6882E+06    -71.5504E+06     1.91304E+06     245.035E+03    -26.8741E-03     53.2458E-03    -26.3716E-03     51.1252E-03    -26.8676E-03     52.9310E-03    -26.2385E-03     51.0703E-03
            1480     7.89018E-03     51.6882E-03    -15.4834E+06    -77.9627E+06     1.06626E+06     212.601E+03    -26.7735E-03     53.1588E-03    -26.3853E-03     46.3303E-03    -26.7573E-03     52.8077E-03    -26.2445E-03     46.2871E-03
            1481     7.01347E-03     51.6466E-03    -17.5247E+06    -83.9370E+06    -1.13627E+06     184.121E+03    -26.6785E-03     53.0704E-03    -26.3919E-03     41.4315E-03    -26.6548E-03     52.6899E-03    -26.2505E-03     41.3979E-03
            1482     6.13674E-03     51.6096E-03    -19.7071E+06    -90.7459E+06    -4.38288E+06     133.237E+03    -26.5907E-03     52.9860E-03    -26.3953E-03     36.4225E-03    -26.5593E-03     52.5752E-03    -26.2571E-03     36.3964E-03
            1483     5.26002E-03     51.5775E-03    -22.0259E+06    -97.4949E+06    -8.47041E+06     153.123E+03    -26.5186E-03     52.9138E-03    -26.3952E-03     31.3277E-03    -26.4802E-03     52.4757E-03    -26.2642E-03     31.3085E-03
            1484     4.38330E-03     51.5501E-03    -24.2983E+06    -103.253E+06    -13.7983E+06     154.687E+03    -26.4687E-03     52.8555E-03    -26.3868E-03     26.1558E-03    -26.4237E-03     52.3976E-03    -26.2708E-03     26.1418E-03
            1485     3.50664E-03     51.5278E-03    -26.1933E+06    -107.230E+06    -19.1621E+06    -18.0475E+03    -26.4296E-03     52.8027E-03    -26.3731E-03     20.9456E-03    -26.3791E-03     52.3341E-03    -26.2754E-03     20.9338E-03
            1486     2.62997E-03     51.5103E-03    -27.7439E+06    -112.057E+06    -23.2425E+06    -45.3526E+03    -26.3999E-03     52.7637E-03    -26.3638E-03     15.7634E-03    -26.3434E-03     52.2783E-03    -26.2773E-03     15.7547E-03
            1487     1.75334E-03     51.4978E-03    -28.9766E+06    -116.540E+06    -26.6501E+06    -25.2684E+03    -26.3747E-03     52.7288E-03    -26.3541E-03     10.6343E-03    -26.3124E-03     52.2272E-03    -26.2764E-03     10.6288E-03
            1488     876.658E-06     51.4901E-03    -29.8882E+06    -118.108E+06    -29.3152E+06     17.8621E+03    -26.3563E-03     52.6928E-03    -26.3366E-03     5.68974E-03    -26.2920E-03     52.1884E-03    -26.2685E-03     5.68732E-03
            1489     16.6547E-03     51.4549E-03    -3.97676E+06     139.723E+06     74.0141E+06     496.784E+03    -27.3485E-03     53.7407E-03    -26.3923E-03     90.0545E-03    -28.7172E-03     55.3767E-03    -26.2190E-03     90.3853E-03
            1490     15.7804E-03     51.3125E-03    -7.61618E+06     125.175E+06     33.4594E+06    -2.19361E+06    -29.9389E-03     56.1481E-03    -26.2092E-03     130.816E-03    -31.5462E-03     58.0757E-03    -26.2124E-03     130.884E-03
            1491     14.9046E-03     51.2027E-03    -9.63712E+06     72.8194E+06    -2.72711E+06    -2.58885E+06    -28.5525E-03     54.6327E-03    -26.0802E-03     104.441E-03    -29.3149E-03     55.6273E-03    -26.1854E-03     104.228E-03
            1492     14.0278E-03     51.1139E-03    -9.75054E+06     16.9172E+06    -8.67347E+06     527.294E+03    -27.6660E-03     53.7978E-03    -26.1318E-03     88.3716E-03    -28.0266E-03     54.2090E-03    -26.1856E-03     88.1940E-03
            1493     13.1510E-03     51.0351E-03    -9.24320E+06    -17.1910E+06    -4.43741E+06     1.18393E+06    -27.4724E-03     53.6855E-03    -26.2131E-03     77.9459E-03    -27.6646E-03     53.7967E-03    -26.1970E-03     77.8004E-03
            1494     12.2742E-03     50.9657E-03    -9.25359E+06    -36.6937E+06    -1.57002E+06     666.297E+03    -27.2824E-03     53.5472E-03    -26.2648E-03     70.5342E-03    -27.3876E-03     53.4938E-03    -26.2061E-03     70.4085E-03
            1495     11.3973E-03     50.9013E-03    -10.0107E+06    -48.6155E+06    -316.454E+03     685.218E+03    -27.1918E-03     53.4896E-03    -26.2978E-03     65.5081E-03    -27.2487E-03     53.3392E-03    -26.2143E-03     65.4066E-03
            1496     10.5205E-03     50.8414E-03    -11.2617E+06    -57.7688E+06     1.52638E+06     404.468E+03    -27.0752E-03     53.4046E-03    -26.3293E-03     60.6388E-03    -27.1037E-03     53.1835E-03    -26.2216E-03     60.5544E-03
            1497     9.64372E-03     50.7863E-03    -12.4927E+06    -64.5738E+06     2.20476E+06     396.696E+03    -26.9669E-03     53.3183E-03    -26.3514E-03     55.8565E-03    -26.9762E-03     53.0476E-03    -26.2286E-03     55.7892E-03
            1498     8.76697E-03     50.7354E-03    -13.9002E+06    -71.5147E+06     2.05424E+06     308.385E+03    -26.8691E-03     53.2383E-03    -26.3692E-03     51.1758E-03    -26.8638E-03     52.9239E-03    -26.2351E-03     51.1219E-03
            1499     7.89023E-03     50.6892E-03    -15.6533E+06    -77.8268E+06     1.22797E+06     256.653E+03    -26.7615E-03     53.1449E-03    -26.3834E-03     46.3755E-03    -26.7466E-03     52.7945E-03    -26.2417E-03     46.3329E-03
            1500     7.01346E-03     50.6474E-03    -17.5811E+06    -83.8936E+06    -998.805E+03     170.745E+03    -26.6679E-03     53.0589E-03    -26.3910E-03     41.4627E-03    -26.6448E-03     52.6785E-03    -26.2488E-03     41.4290E-03
            1501     6.13674E-03     50.6105E-03    -19.6914E+06    -90.7058E+06    -4.24329E+06     194.931E+03    -26.5895E-03     52.9843E-03    -26.3948E-03     36.4326E-03    -26.5583E-03     52.5735E-03    -26.2560E-03     36.4073E-03
            1502     5.26002E-03     50.5783E-03    -21.9562E+06    -97.5083E+06    -8.39456E+06     223.607E+03    -26.5232E-03     52.9171E-03    -26.3939E-03     31.3288E-03    -26.4846E-03     52.4787E-03    -26.2627E-03     31.3105E-03
            1503     4.38335E-03     50.5511E-03    -24.0790E+06    -103.041E+06    -13.5808E+06     127.123E+03    -26.4710E-03     52.8557E-03    -26.3848E-03     26.1589E-03    -26.4254E-03     52.3983E-03    -26.2683E-03     26.1447E-03
            1504     3.50666E-03     50.5286E-03    -26.0130E+06    -107.091E+06    -19.0734E+06     21.9705E+03    -26.4287E-03     52.7987E-03    -26.3700E-03     20.9551E-03    -26.3777E-03     52.3304E-03    -26.2723E-03     20.9438E-03
            1505     2.63001E-03     50.5113E-03    -27.7031E+06    -112.114E+06    -23.3513E+06    -50.6274E+03    -26.3939E-03     52.7546E-03    -26.3607E-03     15.7724E-03    -26.3370E-03     52.2690E-03    -26.2747E-03     15.7637E-03
            1506     1.75329E-03     50.4987E-03    -29.0809E+06    -116.565E+06    -26.6917E+06    -35.0056E+03    -26.3651E-03     52.7196E-03    -26.3545E-03     10.6296E-03    -26.3032E-03     52.2181E-03    -26.2768E-03     10.6240E-03
            1507     876.664E-06     50.4911E-03    -30.0265E+06    -118.113E+06    -29.3033E+06     27.9018E+03    -26.3331E-03     52.6979E-03    -26.3649E-03     5.70432E-03    -26.2696E-03     52.1937E-03    -26.2966E-03     5.70203E-03
            1508     16.6602E-03     50.4554E-03    -2.94793E+06     140.790E+06     75.0247E+06     52.9881E+03    -28.1892E-03     54.5211E-03    -26.3319E-03     90.7948E-03    -29.5512E-03     56.1549E-03    -26.1567E-03     91.1105E-03
            1509     15.7827E-03     50.3119E-03    -5.55907E+06     127.939E+06     37.7480E+06    -714.564E+03    -29.1114E-03     55.2695E-03    -26.1581E-03     130.012E-03    -30.6986E-03     57.1817E-03    -26.1468E-03     130.108E-03
            1510     14.9052E-03     50.2045E-03    -10.3476E+06     70.9896E+06    -1.46525E+06    -839.913E+03    -27.7549E-03     53.8219E-03    -26.0669E-03     104.152E-03    -28.5148E-03     54.8013E-03    -26.1622E-03     103.975E-03
            1511     14.0277E-03     50.1144E-03    -11.6230E+06     14.6398E+06    -9.27926E+06    -692.462E+03    -27.6243E-03     53.7597E-03    -26.1354E-03     88.7430E-03    -27.9934E-03     54.1664E-03    -26.1861E-03     88.5492E-03
            1512     13.1510E-03     50.0362E-03    -10.9134E+06    -16.6467E+06    -3.94833E+06     69.1457E+03    -27.4351E-03     53.6557E-03    -26.2206E-03     78.1513E-03    -27.6380E-03     53.7722E-03    -26.2004E-03     77.9910E-03
            1513     12.2740E-03     49.9667E-03    -10.8260E+06    -37.0703E+06    -1.75792E+06     315.344E+03    -27.2753E-03     53.5472E-03    -26.2720E-03     70.8461E-03    -27.3878E-03     53.4949E-03    -26.2113E-03     70.7158E-03
            1514     11.3973E-03     49.9022E-03    -11.0935E+06    -48.3929E+06    -136.489E+03     438.008E+03    -27.1975E-03     53.5032E-03    -26.3057E-03     65.6838E-03    -27.2604E-03     53.3554E-03    -26.2201E-03     65.5791E-03
            1515     10.5205E-03     49.8424E-03    -11.6026E+06    -57.5481E+06     1.62633E+06     393.115E+03    -27.0933E-03     53.4287E-03    -26.3354E-03     60.7866E-03    -27.1240E-03     53.2092E-03    -26.2270E-03     60.7020E-03
            1516     9.64370E-03     49.7871E-03    -12.6637E+06    -64.5170E+06     2.27598E+06     226.613E+03    -26.9898E-03     53.3460E-03    -26.3561E-03     55.9675E-03    -27.0002E-03     53.0757E-03    -26.2328E-03     55.8981E-03
            1517     8.76694E-03     49.7363E-03    -14.0243E+06    -71.4749E+06     2.06643E+06     282.937E+03    -26.8802E-03     53.2528E-03    -26.3725E-03     51.2343E-03    -26.8756E-03     52.9387E-03    -26.2382E-03     51.1801E-03
            1518     7.89019E-03     49.6900E-03    -15.7102E+06    -77.7023E+06     1.28333E+06     230.347E+03    -26.7700E-03     53.1560E-03    -26.3860E-03     46.4098E-03    -26.7555E-03     52.8062E-03    -26.2442E-03     46.3670E-03
            1519     7.01346E-03     49.6484E-03    -17.6932E+06    -83.7661E+06    -1.05454E+06     141.551E+03    -26.6749E-03     53.0674E-03    -26.3925E-03     41.4805E-03    -26.6524E-03     52.6878E-03    -26.2506E-03     41.4465E-03
            1520     6.13673E-03     49.6113E-03    -19.8113E+06    -90.8238E+06    -4.44240E+06     151.703E+03    -26.6011E-03     52.9960E-03    -26.3949E-03     36.4348E-03    -26.5700E-03     52.5850E-03    -26.2566E-03     36.4090E-03
            1521     5.26004E-03     49.5792E-03    -21.8964E+06    -97.3494E+06    -8.59112E+06     158.845E+03    -26.5350E-03     52.9264E-03    -26.3914E-03     31.3205E-03    -26.4960E-03     52.4890E-03    -26.2615E-03     31.3014E-03
            1522     4.38332E-03     49.5519E-03    -24.0151E+06    -102.974E+06    -13.6074E+06     118.457E+03    -26.4709E-03     52.8529E-03    -26.3820E-03     26.1469E-03    -26.4251E-03     52.3957E-03    -26.2659E-03     26.1325E-03
            1523     3.50665E-03     49.5296E-03    -25.9722E+06    -106.986E+06    -18.9997E+06     115.487E+03    -26.4200E-03     52.7882E-03    -26.3683E-03     20.9444E-03    -26.3690E-03     52.3204E-03    -26.2705E-03     20.9343E-03
            1524     2.62995E-03     49.5121E-03    -27.6486E+06    -112.030E+06    -23.2738E+06     59.5967E+03    -26.3948E-03     52.7542E-03    -26.3594E-03     15.7464E-03    -26.3379E-03     52.2689E-03    -26.2732E-03     15.7390E-03
            1525     1.75335E-03     49.4997E-03    -29.0362E+06    -116.638E+06    -26.7820E+06     21.6362E+03    -26.3695E-03     52.7197E-03    -26.3502E-03     10.5805E-03    -26.3071E-03     52.2178E-03    -26.2729E-03     10.5756E-03
            1526     876.631E-06     49.4920E-03    -29.8503E+06    -118.081E+06    -29.3693E+06    -45.8401E+03    -26.3099E-03     52.6863E-03    -26.3764E-03     5.68346E-03    -26.2454E-03     52.1820E-03    -26.3088E-03     5.68023E-03
            1527     16.6585E-03     49.4526E-03    -2.76767E+06     140.629E+06     72.8511E+06    -625.781E+03    -28.0563E-03     54.3314E-03    -26.2751E-03     91.1041E-03    -29.4014E-03     55.9546E-03    -26.1107E-03     91.4295E-03
            1528     15.7830E-03     49.3148E-03    -6.05918E+06     126.608E+06     33.6724E+06     846.927E+03    -28.1632E-03     54.2878E-03    -26.1246E-03     130.929E-03    -29.7316E-03     56.1865E-03    -26.1311E-03     131.073E-03
            1529     14.9045E-03     49.2057E-03    -8.87031E+06     72.3507E+06    -2.44582E+06     1.03884E+06    -27.5869E-03     53.6654E-03    -26.0785E-03     105.941E-03    -28.3486E-03     54.6595E-03    -26.1828E-03     105.792E-03
            1530     14.0278E-03     49.1154E-03    -9.46993E+06     15.0284E+06    -9.57687E+06    -92.0418E+03    -27.7118E-03     53.8708E-03    -26.1590E-03     89.5680E-03    -28.0725E-03     54.2789E-03    -26.2149E-03     89.3807E-03
            1531     13.1505E-03     49.0373E-03    -10.4322E+06    -17.5051E+06    -4.05813E+06    -502.076E+03    -27.5228E-03     53.7706E-03    -26.2478E-03     78.5965E-03    -27.7224E-03     53.8828E-03    -26.2275E-03     78.4282E-03
            1532     12.2738E-03     48.9674E-03    -10.5970E+06    -37.0732E+06    -1.75105E+06    -145.090E+03    -27.3909E-03     53.6855E-03    -26.2946E-03     71.1071E-03    -27.5024E-03     53.6329E-03    -26.2343E-03     70.9703E-03
            1533     11.3970E-03     48.9031E-03    -10.9583E+06    -48.7623E+06    -358.247E+03     11.4889E+03    -27.2742E-03     53.5972E-03    -26.3230E-03     65.8274E-03    -27.3356E-03     53.4476E-03    -26.2382E-03     65.7171E-03
            1534     10.5203E-03     48.8431E-03    -11.7773E+06    -57.2830E+06     1.48791E+06     156.838E+03    -27.1620E-03     53.5104E-03    -26.3484E-03     60.8521E-03    -27.1938E-03     53.2926E-03    -26.2408E-03     60.7643E-03
            1535     9.64356E-03     48.7880E-03    -12.8678E+06    -64.5086E+06     2.05972E+06     111.162E+03    -27.0357E-03     53.4009E-03    -26.3652E-03     55.9688E-03    -27.0468E-03     53.1313E-03    -26.2427E-03     55.8978E-03
            1536     8.76685E-03     48.7371E-03    -14.2327E+06    -71.4965E+06     1.82744E+06     94.1158E+03    -26.9128E-03     53.2913E-03    -26.3785E-03     51.2245E-03    -26.9088E-03     52.9777E-03    -26.2451E-03     51.1678E-03
            1537     7.89015E-03     48.6909E-03    -15.8036E+06    -77.6399E+06     1.14286E+06     148.192E+03    -26.7982E-03     53.1877E-03    -26.3895E-03     46.3830E-03    -26.7841E-03     52.8386E-03    -26.2483E-03     46.3391E-03
            1538     7.01343E-03     48.6492E-03    -17.7177E+06    -83.7093E+06    -1.19224E+06     162.566E+03    -26.6968E-03     53.0900E-03    -26.3932E-03     41.4486E-03    -26.6743E-03     52.7109E-03    -26.2520E-03     41.4148E-03
            1539     6.13672E-03     48.6123E-03    -19.8569E+06    -90.7861E+06    -4.65532E+06     107.270E+03    -26.6165E-03     53.0091E-03    -26.3927E-03     36.4051E-03    -26.5853E-03     52.5987E-03    -26.2555E-03     36.3787E-03
            1540     5.26004E-03     48.5801E-03    -22.0388E+06    -97.3017E+06    -8.87944E+06     72.5748E+03    -26.5454E-03     52.9319E-03    -26.3865E-03     31.2782E-03    -26.5068E-03     52.4954E-03    -26.2579E-03     31.2579E-03
            1541     4.38338E-03     48.5528E-03    -24.1072E+06    -102.978E+06    -13.9060E+06     114.855E+03    -26.4762E-03     52.8507E-03    -26.3745E-03     26.0917E-03    -26.4304E-03     52.3941E-03    -26.2598E-03     26.0773E-03
            1542     3.50667E-03     48.5305E-03    -25.9688E+06    -106.932E+06    -19.0061E+06     141.956E+03    -26.4180E-03     52.7780E-03    -26.3600E-03     20.8974E-03    -26.3671E-03     52.3104E-03    -26.2623E-03     20.8876E-03
            1543     2.63003E-03     48.5131E-03    -27.5696E+06    -111.924E+06    -23.1914E+06     127.850E+03    -26.3866E-03     52.7369E-03    -26.3504E-03     15.7134E-03    -26.3295E-03     52.2519E-03    -26.2641E-03     15.7069E-03
            1544     1.75333E-03     48.5006E-03    -28.8779E+06    -116.544E+06    -26.6159E+06     44.3062E+03    -26.3666E-03     52.7058E-03    -26.3392E-03     10.5479E-03    -26.3038E-03     52.2040E-03    -26.2615E-03     10.5434E-03
            1545     876.719E-06     48.4930E-03    -29.7819E+06    -118.083E+06    -29.2487E+06     98.8038E+03    -26.3154E-03     52.6599E-03    -26.3446E-03     5.66703E-03    -26.2507E-03     52.1554E-03    -26.2764E-03     5.66568E-03
            1546     16.6616E-03     48.4548E-03    -4.12220E+06     139.267E+06     71.4444E+06    -997.088E+03    -26.9510E-03     53.2839E-03    -26.3328E-03     92.7183E-03    -28.3026E-03     54.9080E-03    -26.1716E-03     93.0641E-03
            1547     15.7805E-03     48.3171E-03    -7.45855E+06     125.307E+06     32.3903E+06     1.90059E+06    -28.4483E-03     54.6611E-03    -26.2128E-03     132.576E-03    -30.0251E-03     56.5622E-03    -26.2217E-03     132.734E-03
            1548     14.9035E-03     48.2063E-03    -9.06900E+06     73.7087E+06    -2.45207E+06     1.52535E+06    -28.1557E-03     54.3076E-03    -26.1519E-03     106.939E-03    -28.9287E-03     55.3172E-03    -26.2579E-03     106.788E-03
            1549     14.0262E-03     48.1163E-03    -9.74977E+06     16.2137E+06    -9.90797E+06     532.085E+03    -28.0092E-03     54.2198E-03    -26.2106E-03     89.7060E-03    -28.3728E-03     54.6350E-03    -26.2695E-03     89.5240E-03
            1550     13.1499E-03     48.0377E-03    -9.76747E+06    -17.3328E+06    -4.01647E+06    -274.168E+03    -27.7838E-03     54.0703E-03    -26.2866E-03     78.5086E-03    -27.9807E-03     54.1827E-03    -26.2673E-03     78.3414E-03
            1551     12.2733E-03     47.9683E-03    -10.4812E+06    -37.4420E+06    -2.02018E+06    -457.397E+03    -27.5567E-03     53.8776E-03    -26.3209E-03     70.9276E-03    -27.6668E-03     53.8235E-03    -26.2615E-03     70.7860E-03
            1552     11.3967E-03     47.9037E-03    -11.0711E+06    -48.9823E+06    -550.064E+03    -174.366E+03    -27.3942E-03     53.7347E-03    -26.3405E-03     65.6706E-03    -27.4556E-03     53.5845E-03    -26.2562E-03     65.5573E-03
            1553     10.5201E-03     47.8439E-03    -11.8175E+06    -57.3641E+06     1.43443E+06    -50.3836E+03    -27.2348E-03     53.5942E-03    -26.3594E-03     60.6996E-03    -27.2667E-03     53.3763E-03    -26.2519E-03     60.6087E-03
            1554     9.64349E-03     47.7887E-03    -12.9134E+06    -64.4489E+06     2.02437E+06    -15.1939E+03    -27.0771E-03     53.4487E-03    -26.3716E-03     55.8450E-03    -27.0885E-03     53.1796E-03    -26.2493E-03     55.7722E-03
            1555     8.76682E-03     47.7380E-03    -14.2725E+06    -71.4938E+06     1.63872E+06    -52.5919E+03    -26.9487E-03     53.3294E-03    -26.3807E-03     51.1268E-03    -26.9447E-03     53.0162E-03    -26.2482E-03     51.0681E-03
            1556     7.89014E-03     47.6917E-03    -15.9074E+06    -77.7409E+06     846.249E+03    -10.5170E+03    -26.8287E-03     53.2165E-03    -26.3878E-03     46.2930E-03    -26.8146E-03     52.8675E-03    -26.2477E-03     46.2469E-03
            1557     7.01346E-03     47.6501E-03    -17.7531E+06    -83.7446E+06    -1.40531E+06     124.751E+03    -26.7190E-03     53.1071E-03    -26.3880E-03     41.3671E-03    -26.6964E-03     52.7282E-03    -26.2479E-03     41.3327E-03
            1558     6.13678E-03     47.6131E-03    -19.8138E+06    -90.6476E+06    -4.78181E+06     137.463E+03    -26.6264E-03     53.0110E-03    -26.3846E-03     36.3360E-03    -26.5951E-03     52.6014E-03    -26.2483E-03     36.3099E-03
            1559     5.26010E-03     47.5810E-03    -22.0263E+06    -97.3143E+06    -9.02440E+06     101.046E+03    -26.5462E-03     52.9226E-03    -26.3764E-03     31.2150E-03    -26.5073E-03     52.4862E-03    -26.2484E-03     31.1950E-03
            1560     4.38340E-03     47.5537E-03    -24.1944E+06    -102.974E+06    -14.0213E+06     100.698E+03    -26.4775E-03     52.8398E-03    -26.3623E-03     26.0428E-03    -26.4320E-03     52.3835E-03    -26.2480E-03     26.0282E-03
            1561     3.50676E-03     47.5314E-03    -26.0488E+06    -106.914E+06    -19.1103E+06     102.364E+03    -26.4142E-03     52.7592E-03    -26.3450E-03     20.8679E-03    -26.3636E-03     52.2920E-03    -26.2478E-03     20.8576E-03
            1562     2.63002E-03     47.5140E-03    -27.5677E+06    -111.826E+06    -23.1519E+06     83.5490E+03    -26.3694E-03     52.7040E-03    -26.3346E-03     15.6956E-03    -26.3125E-03     52.2194E-03    -26.2482E-03     15.6885E-03
            1563     1.75338E-03     47.5015E-03    -28.8617E+06    -116.433E+06    -26.4840E+06     79.0396E+03    -26.3444E-03     52.6705E-03    -26.3261E-03     10.5190E-03    -26.2819E-03     52.1690E-03    -26.2478E-03     10.5149E-03
            1564     876.654E-06     47.4940E-03    -29.7748E+06    -118.031E+06    -29.0601E+06     72.1789E+03    -26.3524E-03     52.6372E-03    -26.2848E-03     5.62918E-03    -26.2881E-03     52.1326E-03    -26.2157E-03     5.62747E-03
            1565     16.6518E-03     47.4551E-03    -4.47080E+06     138.806E+06     72.3405E+06    -878.118E+03    -26.3270E-03     52.7235E-03    -26.3965E-03     89.9586E-03    -27.6517E-03     54.3153E-03    -26.2296E-03     90.3050E-03
            1566     15.7784E-03     47.3166E-03    -9.12898E+06     123.546E+06     32.1435E+06     847.586E+03    -28.5107E-03     54.7980E-03    -26.2873E-03     131.003E-03    -30.0743E-03     56.6744E-03    -26.2925E-03     131.141E-03
            1567     14.9021E-03     47.2070E-03    -9.79691E+06     74.4284E+06    -2.46099E+06     1.53827E+06    -28.6455E-03     54.8508E-03    -26.2052E-03     105.874E-03    -29.4245E-03     55.8663E-03    -26.3112E-03     105.714E-03
            1568     14.0262E-03     47.1163E-03    -9.48158E+06     17.3974E+06    -8.64518E+06    -3.28232E+03    -28.3028E-03     54.5465E-03    -26.2437E-03     88.7337E-03    -28.6687E-03     54.9656E-03    -26.2984E-03     88.5413E-03
            1569     13.1496E-03     47.0382E-03    -9.32714E+06    -17.3301E+06    -3.28147E+06    -234.012E+03    -27.8952E-03     54.1997E-03    -26.3046E-03     77.7568E-03    -28.0905E-03     54.3100E-03    -26.2823E-03     77.5892E-03
            1570     12.2732E-03     46.9687E-03    -9.90583E+06    -37.3110E+06    -1.52238E+06    -168.754E+03    -27.6319E-03     53.9621E-03    -26.3302E-03     70.4090E-03    -27.7401E-03     53.9071E-03    -26.2693E-03     70.2703E-03
            1571     11.3968E-03     46.9044E-03    -10.7540E+06    -49.2310E+06    -565.253E+03    -350.045E+03    -27.4380E-03     53.7812E-03    -26.3432E-03     65.3636E-03    -27.4976E-03     53.6294E-03    -26.2590E-03     65.2476E-03
            1572     10.5201E-03     46.8445E-03    -11.5838E+06    -57.4935E+06     1.28465E+06    -197.968E+03    -27.2554E-03     53.6137E-03    -26.3583E-03     60.4906E-03    -27.2857E-03     53.3951E-03    -26.2517E-03     60.3976E-03
            1573     9.64352E-03     46.7895E-03    -12.7038E+06    -64.5062E+06     1.88795E+06    -80.3398E+03    -27.1010E-03     53.4690E-03    -26.3681E-03     55.7000E-03    -27.1111E-03     53.1996E-03    -26.2467E-03     55.6261E-03
            1574     8.76687E-03     46.7387E-03    -14.1991E+06    -71.4293E+06     1.42746E+06    -42.8655E+03    -26.9740E-03     53.3479E-03    -26.3738E-03     51.0054E-03    -26.9695E-03     53.0352E-03    -26.2425E-03     50.9466E-03
            1575     7.89022E-03     46.6925E-03    -15.9925E+06    -77.8976E+06     529.716E+03    -14.1618E+03    -26.8477E-03     53.2252E-03    -26.3775E-03     46.1800E-03    -26.8333E-03     52.8760E-03    -26.2387E-03     46.1337E-03
            1576     7.01354E-03     46.6509E-03    -17.9621E+06     -83.777E+06    -1.71037E+06     41.5850E+03    -26.7292E-03     53.1038E-03    -26.3746E-03     41.2736E-03    -26.7072E-03     52.7255E-03    -26.2356E-03     41.2380E-03
            1577     6.13687E-03     46.6140E-03    -19.9777E+06    -90.6434E+06    -4.91865E+06     89.3427E+03    -26.6245E-03     52.9937E-03    -26.3692E-03     36.2543E-03    -26.5938E-03     52.5846E-03    -26.2334E-03     36.2276E-03
            1578     5.26017E-03     46.5818E-03    -22.0929E+06    -97.2868E+06    -8.97169E+06     130.977E+03    -26.5350E-03     52.8951E-03    -26.3601E-03     31.1457E-03    -26.4965E-03     52.4588E-03    -26.2318E-03     31.1261E-03
            1579     4.38350E-03     46.5546E-03    -24.1891E+06    -102.891E+06    -13.8888E+06     92.4031E+03    -26.4644E-03     52.8095E-03    -26.3451E-03     25.9820E-03    -26.4191E-03     52.3534E-03    -26.2303E-03     25.9672E-03
            1580     3.50677E-03     46.5323E-03    -26.0539E+06    -106.858E+06    -19.0276E+06     16.0484E+03    -26.4015E-03     52.7276E-03    -26.3261E-03     20.8089E-03    -26.3510E-03     52.2605E-03    -26.2285E-03     20.7975E-03
            1581     2.63013E-03     46.5150E-03    -27.5971E+06    -111.831E+06    -23.1510E+06         649.144    -26.3507E-03     52.6648E-03    -26.3141E-03     15.6578E-03    -26.2940E-03     52.1802E-03    -26.2277E-03     15.6497E-03
            1582     1.75339E-03     46.5025E-03    -28.8281E+06    -116.389E+06    -26.4756E+06     24.0611E+03    -26.3226E-03     52.6279E-03    -26.3053E-03     10.4934E-03    -26.2600E-03     52.1266E-03    -26.2271E-03     10.4886E-03
            1583     876.722E-06     46.4950E-03    -29.6959E+06    -117.956E+06    -29.0427E+06    -70.4069E+03    -26.3308E-03     52.5964E-03    -26.2656E-03     5.63014E-03    -26.2663E-03     52.0921E-03    -26.1967E-03     5.62657E-03
            1584     16.6640E-03     46.4605E-03    -3.95748E+06     139.389E+06     73.8254E+06     738.769E+03    -26.9805E-03     53.3564E-03    -26.3759E-03     88.7022E-03    -28.2983E-03     54.9408E-03    -26.2031E-03     89.0578E-03
            1585     15.7799E-03     46.3186E-03    -8.66226E+06     122.391E+06     30.1687E+06    -360.097E+03    -28.2978E-03     54.5386E-03    -26.2409E-03     131.404E-03    -29.8532E-03     56.4101E-03    -26.2549E-03     131.530E-03
            1586     14.9027E-03     46.2060E-03    -8.04210E+06     74.3486E+06    -4.43966E+06    -439.243E+03    -28.4717E-03     54.6363E-03    -26.1646E-03     104.856E-03    -29.2333E-03     55.6462E-03    -26.2830E-03     104.673E-03
            1587     14.0265E-03     46.1169E-03    -6.79930E+06     18.1913E+06    -7.79841E+06     299.951E+03    -28.1886E-03     54.4082E-03    -26.2195E-03     87.7573E-03    -28.5427E-03     54.8252E-03    -26.2750E-03     87.5695E-03
            1588     13.1501E-03     46.0384E-03    -7.87868E+06    -17.7220E+06    -3.52670E+06     353.877E+03    -27.7921E-03     54.0746E-03    -26.2826E-03     77.3218E-03    -27.9788E-03     54.1808E-03    -26.2631E-03     77.1625E-03
            1589     12.2735E-03     45.9693E-03    -8.97657E+06    -36.8016E+06    -1.46297E+06     342.265E+03    -27.5539E-03     53.8676E-03    -26.3137E-03     70.1222E-03    -27.6581E-03     53.8135E-03    -26.2546E-03     69.9904E-03
            1590     11.3969E-03     45.9050E-03    -10.1553E+06    -49.1338E+06    -828.913E+03     43.8786E+03    -27.4004E-03     53.7295E-03    -26.3290E-03     65.1761E-03    -27.4567E-03     53.5777E-03    -26.2472E-03     65.0652E-03
            1591     10.5203E-03     45.8453E-03    -11.4663E+06    -57.5693E+06     980.157E+03    -130.352E+03    -27.2460E-03     53.5915E-03    -26.3456E-03     60.3289E-03    -27.2751E-03     53.3728E-03    -26.2406E-03     60.2367E-03
            1592     9.64363E-03     45.7902E-03    -12.8018E+06    -64.6223E+06     1.57752E+06    -48.5460E+03    -27.1073E-03     53.4617E-03    -26.3544E-03     55.5682E-03    -27.1173E-03     53.1923E-03    -26.2343E-03     55.4946E-03
            1593     8.76700E-03     45.7395E-03    -14.3002E+06    -71.4432E+06     1.33537E+06     29.0297E+03    -26.9780E-03     53.3369E-03    -26.3590E-03     50.8835E-03    -26.9738E-03     53.0245E-03    -26.2280E-03     50.8255E-03
            1594     7.89035E-03     45.6933E-03    -16.0295E+06    -77.9123E+06     539.553E+03     39.5795E+03    -26.8490E-03     53.2098E-03    -26.3608E-03     46.0832E-03    -26.8348E-03     52.8606E-03    -26.2219E-03     46.0376E-03
            1595     7.01370E-03     45.6517E-03    -17.9494E+06    -83.7783E+06    -1.56087E+06     7.89168E+03    -26.7249E-03     53.0812E-03    -26.3563E-03     41.1879E-03    -26.7030E-03     52.7027E-03    -26.2166E-03     41.1519E-03
            1596     6.13701E-03     45.6148E-03    -20.0302E+06    -90.6766E+06    -4.73534E+06    -4.67278E+03    -26.6111E-03     52.9606E-03    -26.3495E-03     36.1841E-03    -26.5809E-03     52.5511E-03    -26.2127E-03     36.1562E-03
            1597     5.26032E-03     45.5828E-03    -22.1103E+06    -97.2998E+06    -8.68113E+06     7.24529E+03    -26.5175E-03     52.8572E-03    -26.3397E-03     31.0983E-03    -26.4795E-03     52.4205E-03    -26.2100E-03     31.0771E-03
            1598     4.38359E-03     45.5556E-03    -24.1070E+06    -102.774E+06    -13.6564E+06    -2.48815E+03    -26.4450E-03     52.7683E-03    -26.3233E-03     25.9457E-03    -26.3999E-03     52.3124E-03    -26.2076E-03     25.9297E-03
            1599     3.50692E-03     45.5333E-03    -25.9452E+06    -106.814E+06    -18.8999E+06    -47.7383E+03    -26.3811E-03     52.6841E-03    -26.3030E-03     20.7698E-03    -26.3304E-03     52.2169E-03    -26.2050E-03     20.7576E-03
            1600     2.63015E-03     45.5160E-03    -27.5196E+06    -111.855E+06    -23.1238E+06    -55.1663E+03    -26.3273E-03     52.6174E-03    -26.2901E-03     15.6244E-03    -26.2701E-03     52.1325E-03    -26.2037E-03     15.6156E-03
            1601     1.75345E-03     45.5036E-03    -28.8126E+06    -116.455E+06    -26.5668E+06    -67.4540E+03    -26.2923E-03     52.5753E-03    -26.2830E-03     10.4942E-03    -26.2295E-03     52.0738E-03    -26.2052E-03     10.4882E-03
            1602     876.725E-06     45.4960E-03    -29.6549E+06    -117.919E+06    -29.0695E+06    -58.9707E+03    -26.2745E-03     52.5567E-03    -26.2822E-03     5.62685E-03    -26.2097E-03     52.0526E-03    -26.2136E-03     5.62345E-03
            1603     16.6527E-03     45.4609E-03    -4.91342E+06     138.976E+06     74.1304E+06     893.411E+03    -27.9014E-03     54.2728E-03    -26.3714E-03     88.4399E-03    -29.2539E-03     55.8863E-03    -26.1952E-03     88.7801E-03
            1604     15.7813E-03     45.3195E-03    -7.70829E+06     124.722E+06     34.3454E+06    -869.349E+03    -29.0856E-03     55.2872E-03    -26.2016E-03     132.182E-03    -30.6773E-03     57.1945E-03    -26.1995E-03     132.292E-03
            1605     14.9044E-03     45.2071E-03    -7.97063E+06     73.5225E+06    -2.26731E+06    -1.64646E+06    -28.0467E-03     54.1566E-03    -26.1099E-03     105.470E-03    -28.8081E-03     55.1573E-03    -26.2163E-03     105.277E-03
            1606     14.0273E-03     45.1173E-03    -8.36647E+06     16.7042E+06    -8.89680E+06     368.769E+03    -27.7944E-03     53.9687E-03    -26.1743E-03     87.8665E-03    -28.1509E-03     54.3806E-03    -26.2309E-03     87.6834E-03
            1607     13.1505E-03     45.0393E-03    -8.58079E+06    -17.1228E+06    -4.00703E+06     1.25848E+06    -27.6220E-03     53.8739E-03    -26.2519E-03     77.3478E-03    -27.8121E-03     53.9843E-03    -26.2346E-03     77.2011E-03
            1608     12.2737E-03     44.9699E-03    -9.64096E+06    -36.5360E+06    -1.56287E+06     798.115E+03    -27.4663E-03     53.7585E-03    -26.2922E-03     70.1282E-03    -27.5739E-03     53.7067E-03    -26.2330E-03     70.0027E-03
            1609     11.3971E-03     44.9057E-03    -10.5188E+06    -48.4540E+06    -642.622E+03     390.141E+03    -27.3639E-03     53.6746E-03    -26.3106E-03     65.0779E-03    -27.4231E-03     53.5263E-03    -26.2283E-03     64.9716E-03
            1610     10.5205E-03     44.8460E-03    -11.4651E+06    -57.6205E+06     1.20572E+06     49.5956E+03    -27.2338E-03     53.5617E-03    -26.3279E-03     60.2367E-03    -27.2631E-03     53.3423E-03    -26.2217E-03     60.1468E-03
            1611     9.64386E-03     44.7909E-03    -12.6882E+06    -64.6177E+06     1.93664E+06        -521.289    -27.1001E-03     53.4362E-03    -26.3361E-03     55.4687E-03    -27.1101E-03     53.1661E-03    -26.2143E-03     55.3957E-03
            1612     8.76720E-03     44.7403E-03    -14.0819E+06    -71.5323E+06     1.79334E+06    -6.28326E+03    -26.9620E-03     53.3020E-03    -26.3401E-03     50.8003E-03    -26.9572E-03     52.9882E-03    -26.2070E-03     50.7419E-03
            1613     7.89054E-03     44.6941E-03    -15.6857E+06    -77.8022E+06     1.09032E+06    -25.3693E+03    -26.8317E-03     53.1730E-03    -26.3413E-03     46.0167E-03    -26.8167E-03     52.8230E-03    -26.2003E-03     45.9703E-03
            1614     7.01385E-03     44.6526E-03    -17.5492E+06     -83.821E+06    -1.02417E+06    -47.4955E+03    -26.7063E-03     53.0427E-03    -26.3363E-03     41.1294E-03    -26.6831E-03     52.6625E-03    -26.1945E-03     41.0928E-03
            1615     6.13715E-03     44.6158E-03    -19.5954E+06    -90.6278E+06    -4.26875E+06    -36.5997E+03    -26.5932E-03     52.9217E-03    -26.3285E-03     36.1387E-03    -26.5616E-03     52.5111E-03    -26.1900E-03     36.1104E-03
            1616     5.26042E-03     44.5838E-03    -21.8113E+06    -97.3036E+06    -8.40675E+06    -85.3879E+03    -26.4985E-03     52.8159E-03    -26.3174E-03     31.0654E-03    -26.4593E-03     52.3783E-03    -26.1867E-03     31.0430E-03
            1617     4.38371E-03     44.5566E-03    -23.9577E+06    -102.783E+06    -13.5839E+06    -91.6897E+03    -26.4191E-03     52.7192E-03    -26.3001E-03     25.9193E-03    -26.3733E-03     52.2629E-03    -26.1843E-03     25.9022E-03
            1618     3.50694E-03     44.5344E-03    -25.8389E+06    -106.826E+06    -18.9424E+06    -52.4498E+03    -26.3553E-03     52.6354E-03    -26.2801E-03     20.7516E-03    -26.3040E-03     52.1680E-03    -26.1824E-03     20.7393E-03
            1619     2.63025E-03     44.5171E-03    -27.4845E+06    -111.879E+06    -23.1658E+06    -32.7185E+03    -26.3077E-03     52.5750E-03    -26.2673E-03     15.6005E-03    -26.2502E-03     52.0900E-03    -26.1811E-03     15.5920E-03
            1620     1.75348E-03     44.5047E-03    -28.7982E+06    -116.450E+06    -26.5808E+06    -35.0580E+03    -26.2683E-03     52.5284E-03    -26.2601E-03     10.4696E-03    -26.2053E-03     52.0269E-03    -26.1824E-03     10.4641E-03
            1621     876.693E-06     44.4971E-03     -29.748E+06    -118.012E+06    -29.2743E+06     62.0980E+03    -26.2707E-03     52.5110E-03    -26.2403E-03     5.60488E-03    -26.2060E-03     52.0068E-03    -26.1724E-03     5.60308E-03
            1622     16.6620E-03     44.4594E-03    -4.69388E+06     139.273E+06     74.2625E+06     192.800E+03    -28.0137E-03     54.3769E-03    -26.3632E-03     87.5313E-03    -29.3742E-03     55.9998E-03    -26.1870E-03     87.8620E-03
            1623     15.7823E-03     44.3206E-03    -7.30864E+06     126.917E+06     38.1846E+06    -308.644E+03    -29.2275E-03     55.4253E-03    -26.1978E-03     131.876E-03    -30.8415E-03     57.3532E-03    -26.1804E-03     131.993E-03
            1624     14.9046E-03     44.2085E-03    -9.94816E+06     73.0438E+06    -283.478E+03    -400.058E+03    -28.0805E-03     54.1784E-03    -26.0979E-03     106.605E-03    -28.8580E-03     55.1807E-03    -26.1908E-03     106.429E-03
            1625     14.0276E-03     44.1182E-03    -11.2057E+06     15.1626E+06    -9.21116E+06    -61.2963E+03    -27.6998E-03     53.8563E-03    -26.1564E-03     88.6718E-03    -28.0670E-03     54.2642E-03    -26.2082E-03     88.4845E-03
            1626     13.1506E-03     44.0401E-03    -10.7118E+06    -17.2324E+06    -3.61709E+06     503.667E+03    -27.5918E-03     53.8297E-03    -26.2379E-03     77.5981E-03    -27.7930E-03     53.9421E-03    -26.2154E-03     77.4418E-03
            1627     12.2740E-03     43.9706E-03    -9.99048E+06    -36.0400E+06    -793.191E+03     571.416E+03    -27.4640E-03     53.7402E-03    -26.2763E-03     70.1896E-03    -27.5750E-03     53.6902E-03    -26.2135E-03     70.0613E-03
            1628     11.3973E-03     43.9065E-03    -10.1679E+06    -47.9374E+06     442.541E+03     202.774E+03    -27.3490E-03     53.6434E-03    -26.2944E-03     65.0728E-03    -27.4087E-03     53.4955E-03    -26.2079E-03     64.9643E-03
            1629     10.5207E-03     43.8467E-03    -10.8781E+06    -57.5802E+06     1.92810E+06     55.7308E+03    -27.2257E-03     53.5352E-03    -26.3095E-03     60.2317E-03    -27.2532E-03     53.3140E-03    -26.2006E-03     60.1420E-03
            1630     9.64408E-03     43.7917E-03    -12.0070E+06    -64.5557E+06     2.67779E+06     34.1964E+03    -27.0827E-03     53.3996E-03    -26.3170E-03     55.4385E-03    -27.0903E-03     53.1277E-03    -26.1925E-03     55.3661E-03
            1631     8.76741E-03     43.7411E-03    -13.4613E+06    -71.5018E+06     2.29060E+06    -30.5945E+03    -26.9454E-03     53.2650E-03    -26.3195E-03     50.7783E-03    -26.9383E-03     52.9495E-03    -26.1849E-03     50.7197E-03
            1632     7.89072E-03     43.6950E-03    -15.2198E+06    -77.8035E+06     1.42142E+06    -44.3147E+03    -26.8095E-03     53.1296E-03    -26.3201E-03     45.9867E-03    -26.7926E-03     52.7784E-03    -26.1781E-03     45.9401E-03
            1633     7.01401E-03     43.6535E-03    -17.2218E+06    -83.7887E+06    -887.519E+03    -50.2025E+03    -26.6847E-03     52.9990E-03    -26.3144E-03     41.0890E-03    -26.6600E-03     52.6183E-03    -26.1723E-03     41.0525E-03
            1634     6.13728E-03     43.6168E-03    -19.3685E+06    -90.6833E+06    -4.26975E+06    -47.3432E+03    -26.5781E-03     52.8837E-03    -26.3056E-03     36.0924E-03    -26.5452E-03     52.4725E-03    -26.1673E-03     36.0641E-03
            1635     5.26056E-03     43.5848E-03    -21.5618E+06    -97.2381E+06    -8.48821E+06    -19.4483E+03    -26.4814E-03     52.7743E-03    -26.2929E-03     31.0158E-03    -26.4410E-03     52.3367E-03    -26.1631E-03     30.9945E-03
            1636     4.38379E-03     43.5576E-03    -23.7959E+06    -102.857E+06    -13.5928E+06    -17.6596E+03    -26.3975E-03     52.6730E-03    -26.2755E-03     25.8656E-03    -26.3507E-03     52.2161E-03    -26.1598E-03     25.8495E-03
            1637     3.50706E-03     43.5355E-03    -25.8088E+06    -106.861E+06    -19.0111E+06     25.2895E+03    -26.3312E-03     52.5861E-03    -26.2549E-03     20.6963E-03    -26.2795E-03     52.1186E-03    -26.1576E-03     20.6851E-03
            1638     2.63026E-03     43.5182E-03    -27.4553E+06    -111.905E+06    -23.2947E+06     58.4221E+03    -26.2842E-03     52.5256E-03    -26.2414E-03     15.5409E-03    -26.2263E-03     52.0406E-03    -26.1558E-03     15.5337E-03
            1639     1.75353E-03     43.5058E-03    -28.8626E+06    -116.431E+06    -26.6296E+06     128.404E+03    -26.2496E-03     52.4816E-03    -26.2320E-03     10.4383E-03    -26.1869E-03     51.9803E-03    -26.1544E-03     10.4349E-03
            1640     876.820E-06     43.4982E-03    -29.8068E+06    -117.907E+06    -29.1466E+06     102.968E+03    -26.2344E-03     52.4501E-03    -26.2157E-03     5.66204E-03    -26.1703E-03     51.9464E-03    -26.1473E-03     5.66072E-03
            1641     16.6552E-03     43.4601E-03    -4.56289E+06     139.253E+06     73.9241E+06    -530.712E+03    -27.4653E-03     53.8415E-03    -26.3761E-03     89.9940E-03    -28.8280E-03     55.4679E-03    -26.2018E-03     90.3232E-03
            1642     15.7802E-03     43.3205E-03    -6.61729E+06     125.914E+06     34.7554E+06     494.960E+03    -29.3889E-03     55.5996E-03    -26.2107E-03     132.270E-03    -30.9918E-03     57.5252E-03    -26.2099E-03     132.391E-03
            1643     14.9043E-03     43.2095E-03    -8.31124E+06     73.6084E+06    -2.30452E+06     1.32518E+06    -28.4347E-03     54.5367E-03    -26.1020E-03     106.451E-03    -29.2022E-03     55.5427E-03    -26.2082E-03     106.293E-03
            1644     14.0274E-03     43.1191E-03    -9.23358E+06     15.5974E+06    -8.00457E+06     4.18434E+03    -27.9267E-03     54.0868E-03    -26.1601E-03     88.9892E-03    -28.2872E-03     54.4931E-03    -26.2094E-03     88.8014E-03
            1645     13.1508E-03     43.0407E-03    -9.14754E+06    -17.6599E+06    -2.95020E+06    -582.494E+03    -27.7143E-03     53.9447E-03    -26.2304E-03     77.7338E-03    -27.9081E-03     54.0519E-03    -26.2062E-03     77.5630E-03
            1646     12.2742E-03     42.9714E-03    -8.96392E+06    -36.0350E+06    -547.251E+03    -370.539E+03    -27.5016E-03     53.7628E-03    -26.2612E-03     70.2308E-03    -27.6076E-03     53.7107E-03    -26.1987E-03     70.0905E-03
            1647     11.3976E-03     42.9072E-03    -9.14523E+06    -48.0472E+06     874.350E+03     59.9926E+03    -27.3493E-03     53.6276E-03    -26.2784E-03     65.1355E-03    -27.4041E-03     53.4769E-03    -26.1911E-03     65.0254E-03
            1648     10.5209E-03     42.8475E-03    -10.1839E+06    -57.4007E+06     2.10584E+06     196.003E+03    -27.2199E-03     53.5114E-03    -26.2916E-03     60.2639E-03    -27.2442E-03     53.2897E-03    -26.1830E-03     60.1763E-03
            1649     9.64425E-03     42.7925E-03    -11.5553E+06    -64.5715E+06     2.62620E+06     113.419E+03    -27.0789E-03     53.3766E-03    -26.2977E-03     55.4444E-03    -27.0840E-03     53.1038E-03    -26.1742E-03     55.3733E-03
            1650     8.76757E-03     42.7420E-03    -13.1553E+06    -71.4056E+06     2.17270E+06     149.603E+03    -26.9400E-03     53.2388E-03    -26.2988E-03     50.7491E-03    -26.9312E-03     52.9235E-03    -26.1653E-03     50.6931E-03
            1651     7.89087E-03     42.6959E-03    -15.0403E+06    -77.8192E+06     1.19000E+06     113.682E+03    -26.7998E-03     53.0976E-03    -26.2978E-03     45.9411E-03    -26.7816E-03     52.7463E-03    -26.1572E-03     45.8968E-03
            1652     7.01415E-03     42.6545E-03    -17.1698E+06    -83.7530E+06    -1.12365E+06     131.417E+03    -26.6739E-03     52.9647E-03    -26.2908E-03     41.0333E-03    -26.6486E-03     52.5845E-03    -26.1501E-03     40.9992E-03
            1653     6.13743E-03     42.6178E-03    -19.4892E+06    -90.6410E+06    -4.54788E+06     88.1210E+03    -26.5651E-03     52.8456E-03    -26.2804E-03     36.0298E-03    -26.5325E-03     52.4351E-03    -26.1435E-03     36.0033E-03
            1654     5.26067E-03     42.5858E-03    -21.7899E+06    -97.2403E+06    -8.71548E+06     40.2769E+03    -26.4665E-03     52.7328E-03    -26.2663E-03     30.9472E-03    -26.4269E-03     52.2959E-03    -26.1373E-03     30.9266E-03
            1655     4.38394E-03     42.5588E-03    -23.9023E+06    -102.889E+06    -13.8119E+06     86.8330E+03    -26.3809E-03     52.6274E-03    -26.2465E-03     25.8031E-03    -26.3343E-03     52.1708E-03    -26.1317E-03     25.7885E-03
            1656     3.50715E-03     42.5366E-03    -25.8421E+06    -106.908E+06    -19.1269E+06     162.762E+03    -26.3088E-03     52.5328E-03    -26.2240E-03     20.6470E-03    -26.2571E-03     52.0653E-03    -26.1272E-03     20.6376E-03
            1657     2.63041E-03     42.5194E-03    -27.5560E+06    -111.871E+06    -23.2969E+06     224.353E+03    -26.2538E-03     52.4634E-03    -26.2096E-03     15.4948E-03    -26.1965E-03     51.9787E-03    -26.1239E-03     15.4898E-03
            1658     1.75359E-03     42.5070E-03    -28.8809E+06    -116.316E+06    -26.5656E+06     158.912E+03    -26.2156E-03     52.4158E-03    -26.2002E-03     10.4061E-03    -26.1532E-03     51.9150E-03    -26.1225E-03     10.4031E-03
            1659     876.732E-06     42.4995E-03    -29.5653E+06    -117.709E+06    -29.0707E+06     5.58824E+03    -26.1626E-03     52.3876E-03    -26.2249E-03     5.64565E-03    -26.0977E-03     51.8843E-03    -26.1567E-03     5.64308E-03
            1660     16.6578E-03     42.4594E-03    -3.75404E+06     139.632E+06     73.2626E+06    -112.220E+03    -27.3245E-03     53.6902E-03    -26.3657E-03     88.2581E-03    -28.6605E-03     55.2962E-03    -26.1965E-03     88.5891E-03
            1661     15.7810E-03     42.3204E-03    -7.56957E+06     123.566E+06     29.7332E+06    -859.400E+03    -28.9775E-03     55.1715E-03    -26.1940E-03     130.285E-03    -30.5519E-03     57.0715E-03    -26.2136E-03     130.393E-03
            1662     14.9039E-03     42.2100E-03    -7.38773E+06     73.1122E+06    -4.89422E+06     456.281E+03    -28.4721E-03     54.5709E-03    -26.0988E-03     105.891E-03    -29.2306E-03     55.5769E-03    -26.2186E-03     105.721E-03
            1663     14.0274E-03     42.1196E-03    -6.70822E+06     17.0908E+06    -8.05024E+06       676.7E+03    -28.1214E-03     54.2784E-03    -26.1569E-03     88.8049E-03    -28.4731E-03     54.6902E-03    -26.2122E-03     88.6236E-03
            1664     13.1509E-03     42.0413E-03    -7.57627E+06    -17.2193E+06    -3.53418E+06    -377.974E+03    -27.7694E-03     53.9891E-03    -26.2197E-03     77.7305E-03    -27.9547E-03     54.0967E-03    -26.2014E-03     77.5625E-03
            1665     12.2743E-03     41.9721E-03    -8.57967E+06    -36.6630E+06    -1.39700E+06    -465.953E+03    -27.5438E-03     53.7929E-03    -26.2491E-03     70.2269E-03    -27.6457E-03     53.7382E-03    -26.1905E-03     70.0853E-03
            1666     11.3977E-03     41.9080E-03    -9.66515E+06    -48.6295E+06    -339.871E+03     125.036E+03    -27.3804E-03     53.6429E-03    -26.2625E-03     65.1608E-03    -27.4351E-03     53.4916E-03    -26.1796E-03     65.0517E-03
            1667     10.5210E-03     41.8483E-03    -10.6375E+06    -57.1515E+06     1.50216E+06     352.014E+03    -27.2318E-03     53.5064E-03    -26.2746E-03     60.2297E-03    -27.2577E-03     53.2873E-03    -26.1688E-03     60.1443E-03
            1668     9.64439E-03     41.7934E-03    -11.9316E+06    -64.6115E+06     2.01150E+06     310.347E+03    -27.0886E-03     53.3670E-03    -26.2784E-03     55.3787E-03    -27.0945E-03     53.0954E-03    -26.1574E-03     55.3103E-03
            1669     8.76773E-03     41.7429E-03    -13.5086E+06    -71.3415E+06     1.78037E+06     322.781E+03    -26.9469E-03     53.2245E-03    -26.2777E-03     50.6619E-03    -26.9393E-03     52.9105E-03    -26.1457E-03     50.6082E-03
            1670     7.89105E-03     41.6969E-03    -15.2890E+06    -77.7297E+06     915.549E+03     300.912E+03    -26.8024E-03     53.0764E-03    -26.2740E-03     45.8411E-03    -26.7851E-03     52.7263E-03    -26.1346E-03     45.7993E-03
            1671     7.01433E-03     41.6555E-03    -17.2885E+06    -83.7874E+06    -1.26581E+06     297.835E+03    -26.6682E-03     52.9329E-03    -26.2647E-03     40.9351E-03    -26.6432E-03     52.5528E-03    -26.1245E-03     40.9032E-03
            1672     6.13759E-03     41.6188E-03    -19.4823E+06    -90.5002E+06    -4.53500E+06     342.019E+03    -26.5524E-03     52.8044E-03    -26.2520E-03     35.9299E-03    -26.5199E-03     52.3946E-03    -26.1152E-03     35.9067E-03
            1673     5.26085E-03     41.5869E-03    -21.8800E+06    -97.0884E+06    -8.67175E+06     208.883E+03    -26.4467E-03     52.6825E-03    -26.2358E-03     30.8521E-03    -26.4078E-03     52.2464E-03    -26.1066E-03     30.8337E-03
            1674     4.38406E-03     41.5599E-03    -24.1708E+06    -102.956E+06    -13.9441E+06     115.705E+03    -26.3556E-03     52.5692E-03    -26.2137E-03     25.7288E-03    -26.3100E-03     52.1128E-03    -26.0991E-03     25.7145E-03
            1675     3.50728E-03     41.5378E-03    -26.0582E+06    -106.966E+06    -19.1448E+06     230.591E+03    -26.2786E-03     52.4687E-03    -26.1900E-03     20.5886E-03    -26.2279E-03     52.0012E-03    -26.0929E-03     20.5801E-03
            1676     2.63044E-03     41.5206E-03    -27.5676E+06    -111.646E+06    -22.9925E+06     192.164E+03    -26.2212E-03     52.3962E-03    -26.1751E-03     15.4490E-03    -26.1647E-03     51.9123E-03    -26.0882E-03     15.4435E-03
            1677     1.75365E-03     41.5083E-03    -28.7371E+06    -116.123E+06    -26.3542E+06     7.97146E+03    -26.1893E-03     52.3502E-03    -26.1609E-03     10.3736E-03    -26.1268E-03     51.8498E-03    -26.0826E-03     10.3687E-03
            1678     876.888E-06     41.5007E-03    -29.6390E+06    -117.721E+06    -28.9876E+06     3.80478E+03    -26.1161E-03     52.3009E-03    -26.1849E-03     5.58247E-03    -26.0516E-03     51.7976E-03    -26.1161E-03     5.57992E-03
            1679     16.6603E-03     41.4611E-03    -3.27195E+06     140.417E+06     74.8319E+06     637.191E+03    -27.4894E-03     53.8438E-03    -26.3543E-03     89.8367E-03    -28.8352E-03     55.4594E-03    -26.1790E-03     90.1846E-03
            1680     15.7812E-03     41.3226E-03    -6.70607E+06     125.245E+06     33.2757E+06     481.557E+03    -28.7860E-03     54.9826E-03    -26.1966E-03     132.042E-03    -30.3709E-03     56.8917E-03    -26.2021E-03     132.175E-03
            1681     14.9039E-03     41.2099E-03    -10.0248E+06     71.6702E+06    -5.39072E+06    -1.07390E+06    -28.4974E-03     54.5956E-03    -26.0983E-03     106.108E-03    -29.2666E-03     55.5993E-03    -26.2146E-03     105.918E-03
            1682     14.0276E-03     41.1203E-03    -9.07688E+06     16.8520E+06    -9.53923E+06    -283.205E+03    -28.1125E-03     54.2605E-03    -26.1480E-03     88.5044E-03    -28.4725E-03     54.6757E-03    -26.2070E-03     88.3107E-03
            1683     13.1509E-03     41.0418E-03    -8.49001E+06    -16.6248E+06    -3.91080E+06     307.272E+03    -27.7548E-03     53.9672E-03    -26.2124E-03     77.6064E-03    -27.9446E-03     54.0791E-03    -26.1955E-03     77.4476E-03
            1684     12.2743E-03     40.9728E-03    -9.76143E+06    -37.0724E+06    -1.93239E+06     305.257E+03    -27.5609E-03     53.8026E-03    -26.2417E-03     70.1051E-03    -27.6672E-03     53.7482E-03    -26.1834E-03     69.9734E-03
            1685     11.3978E-03     40.9087E-03    -10.7834E+06    -48.6749E+06    -985.386E+03     153.933E+03    -27.4362E-03     53.6860E-03    -26.2497E-03     65.0449E-03    -27.4955E-03     53.5370E-03    -26.1685E-03     64.9359E-03
            1686     10.5212E-03     40.8491E-03    -11.5690E+06    -57.3366E+06     1.06315E+06     178.111E+03    -27.2687E-03     53.5261E-03    -26.2574E-03     60.1094E-03    -27.2983E-03     53.3080E-03    -26.1522E-03     60.0216E-03
            1687     9.64458E-03     40.7942E-03    -12.5719E+06    -64.5190E+06     1.76662E+06     364.117E+03    -27.1033E-03     53.3602E-03    -26.2569E-03     55.2425E-03    -27.1121E-03     53.0903E-03    -26.1363E-03     55.1747E-03
            1688     8.76794E-03     40.7438E-03    -13.9432E+06    -71.3529E+06     1.62483E+06     347.087E+03    -26.9523E-03     53.2050E-03    -26.2527E-03     50.5232E-03    -26.9465E-03     52.8917E-03    -26.1209E-03     50.4698E-03
            1689     7.89127E-03     40.6978E-03    -15.6107E+06    -77.5828E+06     899.029E+03     332.438E+03    -26.8048E-03     53.0504E-03    -26.2456E-03     45.7065E-03    -26.7892E-03     52.7014E-03    -26.1060E-03     45.6651E-03
            1690     7.01456E-03     40.6565E-03    -17.4874E+06    -83.7959E+06    -1.27208E+06     288.544E+03    -26.6627E-03     52.8952E-03    -26.2325E-03     40.8063E-03    -26.6387E-03     52.5153E-03    -26.0920E-03     40.7744E-03
            1691     6.13782E-03     40.6199E-03    -19.4509E+06    -90.5262E+06    -4.52744E+06     359.059E+03    -26.5332E-03     52.7495E-03    -26.2163E-03     35.8097E-03    -26.5005E-03     52.3395E-03    -26.0795E-03     35.7868E-03
            1692     5.26104E-03     40.5881E-03    -21.4765E+06    -96.7273E+06    -8.47647E+06     321.504E+03    -26.4188E-03     52.6164E-03    -26.1977E-03     30.7400E-03    -26.3786E-03     52.1813E-03    -26.0687E-03     30.7232E-03
            1693     4.38424E-03     40.5611E-03    -23.6103E+06    -102.971E+06    -12.8845E+06     183.451E+03    -26.3262E-03     52.5044E-03    -26.1783E-03     25.6310E-03    -26.2793E-03     52.0456E-03    -26.0591E-03     25.6177E-03
            1694     3.50742E-03     40.5390E-03    -25.6210E+06    -106.966E+06    -18.0562E+06     177.745E+03    -26.2457E-03     52.3984E-03    -26.1526E-03     20.4954E-03    -26.1944E-03     51.9287E-03    -26.0507E-03     20.4863E-03
            1695     2.63060E-03     40.5219E-03    -27.2761E+06    -111.340E+06    -22.7357E+06     69.4077E+03    -26.1836E-03     52.3145E-03    -26.1309E-03     15.3727E-03    -26.1265E-03     51.8312E-03    -26.0436E-03     15.3657E-03
            1696     1.75374E-03     40.5096E-03    -28.7020E+06    -116.105E+06    -26.3250E+06     5.92217E+03    -26.1444E-03     52.2593E-03    -26.1149E-03     10.3326E-03    -26.0818E-03     51.7590E-03    -26.0365E-03     10.3277E-03
            1697     876.852E-06     40.5021E-03    -29.6755E+06    -117.730E+06    -29.0175E+06     24.9529E+03    -26.0921E-03     52.2077E-03    -26.1156E-03     5.54565E-03    -26.0278E-03     51.7045E-03    -26.0470E-03     5.54340E-03
            1698     16.6551E-03     40.4620E-03    -5.35748E+06     138.629E+06     73.7764E+06    -349.125E+03    -27.4160E-03     53.7973E-03    -26.3813E-03     89.4851E-03    -28.7711E-03     55.4116E-03    -26.2057E-03     89.8138E-03
            1699     15.7801E-03     40.3220E-03    -8.74564E+06     125.682E+06     37.6549E+06     427.534E+03    -29.4604E-03     55.6899E-03    -26.2295E-03     131.396E-03    -31.0649E-03     57.6002E-03    -26.2108E-03     131.510E-03
            1700     14.9044E-03     40.2108E-03    -8.98648E+06     73.7249E+06     891.017E+03    -78.4396E+03    -28.5249E-03     54.6364E-03    -26.1115E-03     105.609E-03    -29.2993E-03     55.6380E-03    -26.2009E-03     105.430E-03
            1701     14.0276E-03     40.1206E-03    -10.3422E+06     15.2818E+06    -9.66462E+06    -1.21055E+06    -28.0102E-03     54.1482E-03    -26.1380E-03     88.4040E-03    -28.3729E-03     54.5565E-03    -26.1935E-03     88.1997E-03
            1702     13.1511E-03     40.0427E-03    -10.4700E+06    -17.3640E+06    -4.11271E+06     29.2593E+03    -27.7677E-03     53.9707E-03    -26.2030E-03     77.3986E-03    -27.9661E-03     54.0822E-03    -26.1832E-03     77.2358E-03
            1703     12.2745E-03     39.9734E-03    -10.2177E+06    -36.6686E+06    -1.44762E+06     401.337E+03    -27.5731E-03     53.8023E-03    -26.2291E-03     69.9683E-03    -27.6828E-03     53.7497E-03    -26.1684E-03     69.8378E-03
            1704     11.3980E-03     39.9094E-03    -10.5926E+06    -48.4826E+06    -520.011E+03      60.867E+03    -27.4654E-03     53.6986E-03    -26.2331E-03     64.8527E-03    -27.5246E-03     53.5495E-03    -26.1501E-03     64.7423E-03
            1705     10.5214E-03     39.8498E-03    -11.5007E+06    -57.6327E+06     1.21245E+06     129.085E+03    -27.3026E-03     53.5381E-03    -26.2355E-03     59.9440E-03    -27.3315E-03     53.3181E-03    -26.1292E-03     59.8556E-03
            1706     9.64488E-03     39.7951E-03    -12.6952E+06    -64.5077E+06     1.85350E+06     240.353E+03    -27.1242E-03     53.3537E-03    -26.2295E-03     55.0874E-03    -27.1337E-03     53.0837E-03    -26.1083E-03     55.0181E-03
            1707     8.76823E-03     39.7447E-03    -14.0537E+06    -71.3234E+06     1.65327E+06     284.999E+03    -26.9571E-03     53.1775E-03    -26.2204E-03     50.3753E-03    -26.9519E-03     52.8644E-03    -26.0883E-03     50.3212E-03
            1708     7.89155E-03     39.6988E-03    -15.6626E+06    -77.4698E+06     954.309E+03     243.266E+03    -26.8007E-03     53.0098E-03    -26.2090E-03     45.5560E-03    -26.7856E-03     52.6613E-03    -26.0692E-03     45.5135E-03
            1709     7.01484E-03     39.6576E-03    -17.5439E+06    -83.7815E+06    -1.27912E+06     240.089E+03    -26.6506E-03     52.8423E-03    -26.1917E-03     40.6546E-03    -26.6268E-03     52.4625E-03    -26.0512E-03     40.6221E-03
            1710     6.13809E-03     39.6211E-03    -19.5711E+06    -90.4974E+06    -4.62648E+06     202.145E+03    -26.5085E-03     52.6800E-03    -26.1715E-03     35.6723E-03    -26.4763E-03     52.2704E-03    -26.0350E-03     35.6474E-03
            1711     5.26128E-03     39.5893E-03    -21.5793E+06    -96.5848E+06    -8.59173E+06     172.127E+03    -26.3881E-03     52.5374E-03    -26.1493E-03     30.6125E-03    -26.3484E-03     52.1032E-03    -26.0209E-03     30.5939E-03
            1712     4.38446E-03     39.5624E-03    -23.6374E+06    -102.882E+06    -12.9870E+06     196.967E+03    -26.2891E-03     52.4158E-03    -26.1267E-03     25.5099E-03    -26.2424E-03     51.9576E-03    -26.0082E-03     25.4968E-03
            1713     3.50761E-03     39.5404E-03    -25.6006E+06    -106.854E+06    -18.1042E+06     107.076E+03    -26.1998E-03     52.2984E-03    -26.0986E-03     20.3948E-03    -26.1484E-03     51.8293E-03    -25.9971E-03     20.3848E-03
            1714     2.63073E-03     39.5233E-03    -27.2858E+06    -111.259E+06    -22.7969E+06     103.542E+03    -26.1331E-03     52.2079E-03    -26.0748E-03     15.3029E-03    -26.0761E-03     51.7252E-03    -25.9879E-03     15.2964E-03
            1715     1.75383E-03     39.5111E-03    -28.6578E+06    -116.051E+06    -26.4184E+06     124.931E+03    -26.0819E-03     52.1414E-03    -26.0595E-03     10.2648E-03    -26.0190E-03     51.6415E-03    -25.9818E-03     10.2614E-03
            1716     876.924E-06     39.5036E-03    -29.5401E+06    -117.631E+06    -29.0315E+06     50.0976E+03    -26.0716E-03     52.1022E-03    -26.0305E-03     5.51254E-03    -26.0068E-03     51.5992E-03    -25.9623E-03     5.51062E-03
            1717     16.6592E-03     39.4624E-03    -4.43347E+06     139.281E+06     73.6306E+06     655.032E+03    -27.9130E-03     54.2614E-03    -26.3483E-03     88.3335E-03    -29.2511E-03     55.8646E-03    -26.1757E-03     88.6668E-03
            1718     15.7821E-03     39.3217E-03    -7.88040E+06     126.135E+06     36.9417E+06    -275.849E+03    -29.0620E-03     55.2490E-03    -26.1870E-03     130.279E-03    -30.6480E-03     57.1476E-03    -26.1737E-03     130.390E-03
            1719     14.9047E-03     39.2119E-03    -9.18235E+06     74.1061E+06     22.3749E+03    -449.652E+03    -28.2581E-03     54.3431E-03    -26.0851E-03     105.554E-03    -29.0315E-03     55.3470E-03    -26.1791E-03     105.374E-03
            1720     14.0279E-03     39.1212E-03    -9.30380E+06     15.5525E+06    -9.21613E+06     28.6735E+03    -28.0197E-03     54.1429E-03    -26.1232E-03     88.5468E-03    -28.3789E-03     54.5510E-03    -26.1783E-03     88.3583E-03
            1721     13.1513E-03     39.0433E-03    -9.98234E+06    -18.1893E+06    -4.22823E+06    -649.166E+03    -27.8049E-03     53.9904E-03    -26.1855E-03     77.3426E-03    -27.9994E-03     54.0972E-03    -26.1658E-03     77.1708E-03
            1722     12.2749E-03     38.9741E-03    -9.94351E+06    -36.8392E+06    -1.74874E+06    -340.079E+03    -27.6273E-03     53.8329E-03    -26.2056E-03     69.9094E-03    -27.7348E-03     53.7794E-03    -26.1465E-03     69.7691E-03
            1723     11.3983E-03     38.9100E-03    -10.4056E+06    -48.5583E+06    -439.711E+03     229.258E+03    -27.4797E-03     53.6868E-03    -26.2071E-03     64.7315E-03    -27.5377E-03     53.5368E-03    -26.1238E-03     64.6234E-03
            1724     10.5218E-03     38.8506E-03    -11.5404E+06    -57.5834E+06     1.15035E+06     220.059E+03    -27.3212E-03     53.5262E-03    -26.2050E-03     59.7688E-03    -27.3502E-03     53.3064E-03    -26.0990E-03     59.6816E-03
            1725     9.64518E-03     38.7959E-03    -12.7555E+06    -64.5938E+06     1.74347E+06     186.538E+03    -27.1406E-03     53.3348E-03    -26.1941E-03     54.9182E-03    -27.1500E-03     53.0645E-03    -26.0733E-03     54.8482E-03
            1726     8.76858E-03     38.7456E-03    -14.1254E+06    -71.2024E+06     1.50689E+06     154.154E+03    -26.9699E-03     53.1490E-03    -26.1791E-03     50.2042E-03    -26.9649E-03     52.8367E-03    -26.0478E-03     50.1485E-03
            1727     7.89192E-03     38.6999E-03    -15.7460E+06    -77.5027E+06     803.546E+03     160.448E+03    -26.7956E-03     52.9581E-03    -26.1626E-03     45.3833E-03    -26.7805E-03     52.6097E-03    -26.0234E-03     45.3399E-03
            1728     7.01520E-03     38.6587E-03    -17.6529E+06    -83.7457E+06    -1.39369E+06     215.495E+03    -26.6311E-03     52.7717E-03    -26.1406E-03     40.4705E-03    -26.6076E-03     52.3924E-03    -26.0006E-03     40.4378E-03
            1729     6.13841E-03     38.6223E-03    -19.7341E+06    -90.3325E+06    -4.70922E+06     146.620E+03    -26.4822E-03     52.5981E-03    -26.1159E-03     35.4977E-03    -26.4508E-03     52.1896E-03    -25.9798E-03     35.4723E-03
            1730     5.26161E-03     38.5906E-03    -21.9840E+06    -96.6700E+06    -8.90223E+06     151.158E+03    -26.3519E-03     52.4405E-03    -26.0887E-03     30.4598E-03    -26.3136E-03     52.0069E-03    -25.9611E-03     30.4410E-03
            1731     4.38474E-03     38.5638E-03    -24.1639E+06    -102.743E+06    -14.0139E+06     168.526E+03    -26.2389E-03     52.2973E-03    -26.0584E-03     25.3690E-03    -26.1935E-03     51.8420E-03    -25.9444E-03     25.3556E-03
            1732     3.50784E-03     38.5418E-03    -26.0194E+06    -106.675E+06    -19.1135E+06     32.7959E+03    -26.1377E-03     52.1654E-03    -26.0276E-03     20.2761E-03    -26.0872E-03     51.6992E-03    -25.9308E-03     20.2652E-03
            1733     2.63090E-03     38.5248E-03    -27.5073E+06    -111.400E+06    -23.0245E+06     26.1946E+03    -26.0662E-03     52.0731E-03    -26.0068E-03     15.2114E-03    -26.0098E-03     51.5903E-03    -25.9205E-03     15.2039E-03
            1734     1.75396E-03     38.5126E-03    -28.6802E+06    -115.928E+06    -26.3959E+06     114.284E+03    -26.0186E-03     52.0088E-03    -25.9901E-03     10.1876E-03    -25.9560E-03     51.5094E-03    -25.9124E-03     10.1842E-03
            1735     876.966E-06     38.5052E-03     -29.468E+06    -117.459E+06    -28.9151E+06     56.9096E+03    -26.0154E-03     51.9601E-03    -25.9447E-03     5.52055E-03    -25.9506E-03     51.4577E-03    -25.8762E-03     5.51871E-03
            1736     16.6594E-03     38.4617E-03    -4.24709E+06     139.403E+06     73.5699E+06    -16.1087E+03    -27.9700E-03     54.2972E-03    -26.3272E-03     89.4763E-03    -29.3130E-03     55.9066E-03    -26.1553E-03     89.8057E-03
            1737     15.7820E-03     38.3242E-03    -6.08447E+06     126.892E+06     35.9486E+06     261.742E+03    -28.8557E-03     55.0213E-03    -26.1655E-03     131.761E-03    -30.4390E-03     56.9292E-03    -26.1610E-03     131.886E-03
            1738     14.9045E-03     38.2120E-03    -8.36195E+06     73.4954E+06    -1.68576E+06     313.284E+03    -28.3682E-03     54.4380E-03    -26.0698E-03     106.250E-03    -29.1366E-03     55.4425E-03    -26.1727E-03     106.079E-03
            1739     14.0281E-03     38.1221E-03    -8.89230E+06     16.0011E+06    -9.36545E+06    -63.2628E+03    -28.1421E-03     54.2508E-03    -26.1086E-03     88.5461E-03    -28.4996E-03     54.6606E-03    -26.1658E-03     88.3553E-03
            1740     13.1515E-03     38.0436E-03    -8.92420E+06    -17.6456E+06    -4.16816E+06    -173.999E+03    -27.8731E-03     54.0370E-03    -26.1640E-03     77.3195E-03    -28.0628E-03     54.1446E-03    -26.1463E-03     77.1537E-03
            1741     12.2751E-03     37.9748E-03    -10.2884E+06    -37.6628E+06    -2.38676E+06    -246.959E+03    -27.6906E-03     53.8691E-03    -26.1785E-03     69.7448E-03    -27.7976E-03     53.8128E-03    -26.1209E-03     69.6055E-03
            1742     11.3987E-03     37.9107E-03    -11.2170E+06    -48.7656E+06    -1.05713E+06     114.802E+03    -27.5172E-03     53.6908E-03    -26.1735E-03     64.5953E-03    -27.5778E-03     53.5415E-03    -26.0918E-03     64.4858E-03
            1743     10.5221E-03     37.8514E-03    -11.8864E+06    -57.4432E+06     940.845E+03     240.347E+03    -27.3399E-03     53.5065E-03    -26.1666E-03     59.5803E-03    -27.3703E-03     53.2881E-03    -26.0614E-03     59.4935E-03
            1744     9.64562E-03     37.7968E-03    -12.9931E+06    -64.4576E+06     1.48189E+06     47.6711E+03    -27.1589E-03     53.3085E-03    -26.1496E-03     54.7165E-03    -27.1691E-03     53.0395E-03    -26.0299E-03     54.6450E-03
            1745     8.76901E-03     37.7466E-03    -14.2604E+06    -71.2439E+06     1.27008E+06     15.5125E+03    -26.9769E-03     53.1055E-03    -26.1286E-03     49.9947E-03    -26.9721E-03     52.7934E-03    -25.9983E-03     49.9374E-03
            1746     7.89236E-03     37.7010E-03    -15.9070E+06     -77.595E+06     611.608E+03     137.619E+03    -26.7907E-03     52.8969E-03    -26.1062E-03     45.1753E-03    -26.7760E-03     52.5484E-03    -25.9676E-03     45.1318E-03
            1747     7.01563E-03     37.6599E-03    -17.8224E+06    -83.6852E+06    -1.54937E+06     166.098E+03    -26.6132E-03     52.6912E-03    -26.0780E-03     40.2678E-03    -26.5904E-03     52.3125E-03    -25.9386E-03     40.2346E-03
            1748     6.13885E-03     37.6236E-03    -19.8877E+06    -90.2389E+06    -4.86266E+06     155.600E+03    -26.4492E-03     52.4966E-03    -26.0473E-03     35.2974E-03    -26.4184E-03     52.0889E-03    -25.9120E-03     35.2722E-03
            1749     5.26198E-03     37.5920E-03    -21.9969E+06    -96.7258E+06    -8.98459E+06     177.421E+03    -26.3010E-03     52.3166E-03    -26.0156E-03     30.2874E-03    -26.2626E-03     51.8829E-03    -25.8884E-03     30.2691E-03
            1750     4.38509E-03     37.5653E-03    -24.0016E+06    -102.557E+06    -13.9055E+06     123.102E+03    -26.1777E-03     52.1596E-03    -25.9820E-03     25.2196E-03    -26.1318E-03     51.7048E-03    -25.8680E-03     25.2058E-03
            1751     3.50812E-03     37.5435E-03    -25.8360E+06    -106.543E+06    -19.0038E+06     28.9792E+03    -26.0718E-03     52.0195E-03    -25.9477E-03     20.1500E-03    -26.0206E-03     51.5536E-03    -25.8508E-03     20.1392E-03
            1752     2.63113E-03     37.5264E-03    -27.5098E+06    -111.466E+06    -23.0974E+06    -14.4065E+03    -25.9936E-03     51.9163E-03    -25.9228E-03     15.1085E-03    -25.9369E-03     51.4333E-03    -25.8367E-03     15.1006E-03
            1753     1.75409E-03     37.5143E-03    -28.8573E+06    -115.915E+06    -26.3875E+06    -30.0283E+03    -25.9438E-03     51.8443E-03    -25.9005E-03     10.0972E-03    -25.8821E-03     51.3453E-03    -25.8225E-03     10.0919E-03
            1754     877.082E-06     37.5069E-03    -29.5964E+06    -117.384E+06    -29.0469E+06     35.3725E+03    -25.8853E-03     51.7707E-03    -25.8854E-03     5.44981E-03    -25.8211E-03     51.2691E-03    -25.8175E-03     5.44773E-03
            1755     16.6573E-03     37.4626E-03    -4.44744E+06     138.808E+06     71.3069E+06     -95.471E+03    -27.6051E-03     53.9481E-03    -26.3431E-03     88.8388E-03    -28.9459E-03     55.5592E-03    -26.1813E-03     89.1647E-03
            1756     15.7806E-03     37.3241E-03    -8.98261E+06     125.127E+06     34.1674E+06    -649.748E+03    -29.3668E-03     55.5504E-03    -26.1837E-03     131.098E-03    -30.9640E-03     57.4609E-03    -26.1812E-03     131.200E-03
            1757     14.9049E-03     37.2126E-03    -9.10114E+06     74.2424E+06     262.229E+03     9.33159E+03    -28.6874E-03     54.7614E-03    -26.0740E-03     105.830E-03    -29.4643E-03     55.7689E-03    -26.1672E-03     105.649E-03
            1758     14.0282E-03     37.1224E-03    -9.00894E+06     15.8187E+06    -9.64871E+06    -9.08094E+03    -28.2297E-03     54.3177E-03    -26.0879E-03     88.2715E-03    -28.5865E-03     54.7266E-03    -26.1461E-03     88.0806E-03
            1759     13.1519E-03     37.0443E-03    -9.81424E+06    -17.7416E+06    -4.14937E+06     349.894E+03    -27.9436E-03     54.0820E-03    -26.1384E-03     77.0822E-03    -28.1376E-03     54.1901E-03    -26.1192E-03     76.9225E-03
            1760     12.2755E-03     36.9752E-03    -10.4200E+06    -37.2809E+06    -2.10926E+06     341.399E+03    -27.7189E-03     53.8650E-03    -26.1461E-03     69.5169E-03    -27.8271E-03     53.8099E-03    -26.0875E-03     69.3852E-03
            1761     11.3991E-03     36.9115E-03    -11.1620E+06    -48.9973E+06    -1.16722E+06    -144.034E+03    -27.5571E-03     53.6911E-03    -26.1340E-03     64.3842E-03    -27.6167E-03     53.5405E-03    -26.0526E-03     64.2714E-03
            1762     10.5226E-03     36.8521E-03    -11.8479E+06    -57.4592E+06     890.425E+03    -66.1442E+03    -27.3699E-03     53.4903E-03    -26.1205E-03     59.3860E-03    -27.3997E-03     53.2716E-03    -26.0155E-03     59.2953E-03
            1763     9.64613E-03     36.7977E-03    -12.7957E+06    -64.3214E+06     1.61759E+06     16.8245E+03    -27.1774E-03     53.2744E-03    -26.0971E-03     54.4883E-03    -27.1868E-03     53.0054E-03    -25.9771E-03     54.4165E-03
            1764     8.76954E-03     36.7476E-03    -14.3415E+06    -71.2993E+06     1.16548E+06    -14.9466E+03    -26.9784E-03     53.0471E-03    -26.0686E-03     49.7682E-03    -26.9736E-03     52.7348E-03    -25.9386E-03     49.7107E-03
            1765     7.89288E-03     36.7021E-03    -15.9899E+06    -77.7445E+06     471.274E+03     59.7651E+03    -26.7814E-03     52.8207E-03    -26.0394E-03     44.9456E-03    -26.7664E-03     52.4717E-03    -25.9011E-03     44.9013E-03
            1766     7.01615E-03     36.6612E-03    -17.8437E+06    -83.6033E+06    -1.61079E+06     131.737E+03    -26.5898E-03     52.5941E-03    -26.0043E-03     40.0503E-03    -26.5670E-03     52.2158E-03    -25.8652E-03     40.0169E-03
            1767     6.13933E-03     36.6250E-03    -19.8759E+06    -90.2239E+06    -4.87320E+06     104.233E+03    -26.4095E-03     52.3768E-03    -25.9673E-03     35.0877E-03    -26.3786E-03     51.9692E-03    -25.8321E-03     35.0620E-03
            1768     5.26245E-03     36.5936E-03    -21.9527E+06    -96.6923E+06    -8.94466E+06     90.8647E+03    -26.2443E-03     52.1742E-03    -25.9300E-03     30.0920E-03    -26.2057E-03     51.7404E-03    -25.8027E-03     30.0727E-03
            1769     4.38546E-03     36.5669E-03    -24.0156E+06    -102.451E+06    -13.9172E+06     75.6157E+03    -26.1047E-03     51.9960E-03    -25.8914E-03     25.0437E-03    -26.0590E-03     51.5418E-03    -25.7776E-03     25.0295E-03
            1770     3.50846E-03     36.5452E-03    -25.9158E+06    -106.482E+06    -18.9711E+06     71.7419E+03    -25.9902E-03     51.8439E-03    -25.8537E-03     20.0034E-03    -25.9396E-03     51.3783E-03    -25.7566E-03     19.9932E-03
            1771     2.63138E-03     36.5283E-03    -27.5210E+06    -111.369E+06    -23.0207E+06     13.2434E+03    -25.9077E-03     51.7324E-03    -25.8246E-03     15.0086E-03    -25.8513E-03     51.2497E-03    -25.7384E-03     15.0011E-03
            1772     1.75432E-03     36.5162E-03    -28.8668E+06    -115.940E+06    -26.5026E+06    -72.5258E+03    -25.8545E-03     51.6500E-03    -25.7955E-03     10.0342E-03    -25.7927E-03     51.1510E-03    -25.7180E-03     10.0284E-03
            1773     877.179E-06     36.5089E-03    -29.8690E+06    -117.487E+06    -29.1289E+06    -32.1853E+03    -25.7716E-03     51.5527E-03    -25.7811E-03     5.30721E-03    -25.7084E-03     51.0511E-03    -25.7131E-03     5.30436E-03
            1774     16.6581E-03     36.4631E-03    -3.53278E+06     139.737E+06     72.8278E+06     816.965E+03    -27.8651E-03     54.2048E-03    -26.3396E-03     88.1388E-03    -29.2007E-03     55.8126E-03    -26.1730E-03     88.4697E-03
            1775     15.7820E-03     36.3239E-03    -7.08291E+06     126.092E+06     34.5786E+06     212.160E+03    -29.4105E-03     55.5726E-03    -26.1621E-03     130.199E-03    -30.9947E-03     57.4790E-03    -26.1618E-03     130.307E-03
            1776     14.9051E-03     36.2132E-03    -9.91857E+06     73.6358E+06    -1.50490E+06     -627.71E+03    -28.6735E-03     54.7174E-03    -26.0438E-03     105.505E-03    -29.4489E-03     55.7233E-03    -26.1437E-03     105.316E-03
            1777     14.0289E-03     36.1228E-03    -10.1983E+06     15.5497E+06    -9.43437E+06     5.77175E+03    -28.2945E-03     54.3583E-03    -26.0638E-03     88.2657E-03    -28.6571E-03     54.7673E-03    -26.1187E-03     88.0741E-03
            1778     13.1524E-03     36.0448E-03    -9.63816E+06    -18.0729E+06    -3.85331E+06     217.898E+03    -27.9963E-03     54.1030E-03    -26.1067E-03     76.9764E-03    -28.1888E-03     54.2084E-03    -26.0858E-03     76.8148E-03
            1779     12.2761E-03     35.9759E-03    -9.63242E+06    -36.8172E+06    -1.50146E+06     164.414E+03    -27.7657E-03     53.8736E-03    -26.1079E-03     69.4167E-03    -27.8712E-03     53.8185E-03    -26.0480E-03     69.2828E-03
            1780     11.3996E-03     35.9121E-03    -10.1157E+06    -48.7235E+06    -523.624E+03     32.6167E+03    -27.6024E-03     53.6916E-03    -26.0892E-03     64.2041E-03    -27.6578E-03     53.5397E-03    -26.0065E-03     64.0935E-03
            1781     10.5232E-03     35.8529E-03    -11.2154E+06    -57.6635E+06     1.04820E+06    -131.255E+03    -27.4076E-03     53.4746E-03    -26.0670E-03     59.1823E-03    -27.4340E-03     53.2534E-03    -25.9618E-03     59.0909E-03
            1782     9.64672E-03     35.7986E-03    -12.5566E+06    -64.4163E+06     1.71363E+06     77.1913E+03    -27.1970E-03     53.2328E-03    -26.0358E-03     54.2593E-03    -27.2050E-03     52.9626E-03    -25.9156E-03     54.1884E-03
            1783     8.77016E-03     35.7487E-03    -14.0290E+06    -71.2102E+06     1.40793E+06     145.068E+03    -26.9881E-03     52.9877E-03    -25.9996E-03     49.5093E-03    -26.9820E-03     52.6749E-03    -25.8690E-03     49.4541E-03
            1784     7.89350E-03     35.7033E-03    -15.8626E+06    -77.7633E+06     467.325E+03     47.9545E+03    -26.7692E-03     52.7305E-03    -25.9613E-03     44.6848E-03    -26.7535E-03     52.3810E-03    -25.8232E-03     44.6406E-03
            1785     7.01674E-03     35.6626E-03    -17.7493E+06    -83.6318E+06    -1.60688E+06     37.9120E+03    -26.5571E-03     52.4758E-03    -25.9188E-03     39.7887E-03    -26.5336E-03     52.0972E-03    -25.7798E-03     39.7543E-03
            1786     6.13990E-03     35.6266E-03    -19.7569E+06    -90.1622E+06    -4.83775E+06     68.6950E+03    -26.3633E-03     52.2379E-03    -25.8746E-03     34.8384E-03    -26.3319E-03     51.8303E-03    -25.7394E-03     34.8125E-03
            1787     5.26296E-03     35.5953E-03    -21.9182E+06    -96.6917E+06    -8.96137E+06     63.0293E+03    -26.1850E-03     52.0149E-03    -25.8299E-03     29.8542E-03    -26.1462E-03     51.5810E-03    -25.7027E-03     29.8347E-03
            1788     4.38596E-03     35.5688E-03    -24.0397E+06    -102.432E+06    -13.8948E+06     108.349E+03    -26.0233E-03     51.8084E-03    -25.7850E-03     24.8409E-03    -25.9778E-03     51.3542E-03    -25.6711E-03     24.8272E-03
            1789     3.50884E-03     35.5471E-03    -25.9211E+06    -106.379E+06    -18.9732E+06     57.1725E+03    -25.8904E-03     51.6331E-03    -25.7427E-03     19.8349E-03    -25.8399E-03     51.1680E-03    -25.6457E-03     19.8247E-03
            1790     2.63169E-03     35.5303E-03    -27.5132E+06    -111.323E+06    -23.1494E+06    -4.63988E+03    -25.7928E-03     51.5045E-03    -25.7117E-03     14.8845E-03    -25.7362E-03     51.0223E-03    -25.6262E-03     14.8769E-03
            1791     1.75446E-03     35.5183E-03    -28.8240E+06    -115.929E+06    -26.5925E+06     4.69570E+03    -25.7291E-03     51.4167E-03    -25.6876E-03     9.96248E-03    -25.6669E-03     50.9178E-03    -25.6106E-03     9.95775E-03
            1792     877.278E-06     35.5110E-03    -29.7822E+06    -117.524E+06    -29.1830E+06    -58.7828E+03    -25.6730E-03     51.3470E-03    -25.6739E-03     5.25660E-03    -25.6093E-03     50.8451E-03    -25.6063E-03     5.25346E-03
            1793     16.6592E-03     35.4627E-03    -4.19820E+06     139.257E+06     72.9267E+06    -146.683E+03    -27.9958E-03     54.3284E-03    -26.3325E-03     89.1896E-03    -29.3376E-03     55.9381E-03    -26.1637E-03     89.5085E-03
            1794     15.7821E-03     35.3248E-03    -6.54404E+06     126.447E+06     35.4416E+06     792.946E+03    -29.4636E-03     55.6168E-03    -26.1531E-03     131.072E-03    -31.0478E-03     57.5238E-03    -26.1498E-03     131.186E-03
            1795     14.9054E-03     35.2135E-03    -7.91784E+06     74.0837E+06    -762.528E+03     1.02757E+06    -28.8404E-03     54.8678E-03    -26.0274E-03     105.836E-03    -29.6075E-03     55.8720E-03    -26.1272E-03     105.666E-03
            1796     14.0290E-03     35.1233E-03    -8.70221E+06     15.8614E+06    -8.99286E+06     10.9495E+03    -28.4192E-03     54.4570E-03    -26.0377E-03     88.1866E-03    -28.7748E-03     54.8641E-03    -26.0931E-03     87.9942E-03
            1797     13.1528E-03     35.0453E-03    -9.03224E+06    -18.0782E+06    -4.12272E+06    -384.411E+03    -28.0687E-03     54.1395E-03    -26.0708E-03     76.8870E-03    -28.2572E-03     54.2437E-03    -26.0521E-03     76.7177E-03
            1798     12.2765E-03     34.9765E-03    -9.13399E+06    -37.1337E+06    -1.76429E+06    -80.9336E+03    -27.8588E-03     53.9230E-03    -26.0641E-03     69.2616E-03    -27.9606E-03     53.8657E-03    -26.0059E-03     69.1243E-03
            1799     11.4002E-03     34.9128E-03    -9.86976E+06    -48.6057E+06    -555.141E+03     276.275E+03    -27.6698E-03     53.7065E-03    -26.0367E-03     63.9917E-03    -27.7237E-03     53.5544E-03    -25.9546E-03     63.8844E-03
            1800     10.5238E-03     34.8538E-03    -11.0838E+06    -57.5489E+06     1.04451E+06     322.298E+03    -27.4538E-03     53.4589E-03    -26.0052E-03     58.9192E-03    -27.4793E-03     53.2378E-03    -25.9004E-03     58.8339E-03
            1801     9.64739E-03     34.7996E-03    -12.5144E+06    -64.5181E+06     1.57525E+06     158.940E+03    -27.2280E-03     53.1920E-03    -25.9640E-03     53.9749E-03    -27.2351E-03     52.9211E-03    -25.8445E-03     53.9054E-03
            1802     8.77086E-03     34.7499E-03    -14.0209E+06    -71.2197E+06     1.40238E+06     242.939E+03    -26.9972E-03     52.9157E-03    -25.9185E-03     49.1986E-03    -26.9907E-03     52.6026E-03    -25.7879E-03     49.1450E-03
            1803     7.89422E-03     34.7047E-03    -15.7266E+06    -77.5034E+06     544.766E+03     174.186E+03    -26.7555E-03     52.6261E-03    -25.8705E-03     44.3712E-03    -26.7394E-03     52.2774E-03    -25.7326E-03     44.3289E-03
            1804     7.01745E-03     34.6641E-03    -17.7374E+06    -83.6560E+06    -1.79276E+06     11.6608E+03    -26.5196E-03     52.3380E-03    -25.8183E-03     39.4861E-03    -26.4957E-03     51.9593E-03    -25.6803E-03     39.4516E-03
            1805     6.14056E-03     34.6283E-03    -19.8357E+06    -90.2050E+06    -5.04930E+06     68.4513E+03    -26.3031E-03     52.0693E-03    -25.7662E-03     34.5578E-03    -26.2716E-03     51.6618E-03    -25.6319E-03     34.5321E-03
            1806     5.26359E-03     34.5971E-03    -22.0218E+06    -96.6691E+06    -9.10562E+06     135.092E+03    -26.1055E-03     51.8203E-03    -25.7147E-03     29.6001E-03    -26.0670E-03     51.3868E-03    -25.5882E-03     29.5818E-03
            1807     4.38647E-03     34.5708E-03    -24.1252E+06    -102.373E+06    -13.8755E+06     66.1748E+03    -25.9321E-03     51.5961E-03    -25.6640E-03     24.6295E-03    -25.8870E-03     51.1422E-03    -25.5500E-03     24.6154E-03
            1808     3.50931E-03     34.5493E-03    -25.9482E+06    -106.307E+06    -19.0572E+06     26.5419E+03    -25.7819E-03     51.3971E-03    -25.6151E-03     19.6574E-03    -25.7316E-03     50.9325E-03    -25.5187E-03     19.6469E-03
            1809     2.63202E-03     34.5326E-03    -27.5577E+06    -111.331E+06    -23.3306E+06     62.8621E+03    -25.6647E-03     51.2454E-03    -25.5808E-03     14.7333E-03    -25.6081E-03     50.7634E-03    -25.4960E-03     14.7267E-03
            1810     1.75472E-03     34.5206E-03    -28.9040E+06    -115.917E+06    -26.6891E+06     61.9878E+03    -25.5782E-03     51.1411E-03    -25.5629E-03     9.84493E-03    -25.5163E-03     50.6425E-03    -25.4864E-03     9.84104E-03
            1811     877.302E-06     34.5134E-03    -29.7415E+06    -117.394E+06    -29.1473E+06    -59.9930E+03    -25.5645E-03     51.1110E-03    -25.5465E-03     5.19283E-03    -25.5008E-03     50.6097E-03    -25.4789E-03     5.18968E-03
            1812     16.6572E-03     34.4627E-03    -4.60041E+06     138.665E+06     71.7511E+06    -46.0371E+03    -27.8588E-03     54.1895E-03    -26.3307E-03     88.7002E-03    -29.1943E-03     55.7928E-03    -26.1663E-03     89.0165E-03
            1813     15.7812E-03     34.3246E-03    -8.78064E+06     125.277E+06     34.8542E+06    -96.3387E+03    -29.6597E-03     55.8143E-03    -26.1546E-03     130.594E-03    -31.2492E-03     57.7163E-03    -26.1493E-03     130.690E-03
            1814     14.9054E-03     34.2133E-03    -9.01037E+06     74.6376E+06     170.242E+03     117.244E+03    -29.1247E-03     55.1404E-03    -26.0157E-03     105.189E-03    -29.8988E-03     56.1470E-03    -26.1100E-03     105.003E-03
            1815     14.0296E-03     34.1236E-03    -7.97633E+06     16.4910E+06    -9.13576E+06     347.169E+03    -28.5192E-03     54.5223E-03    -26.0031E-03     87.7165E-03    -28.8706E-03     54.9304E-03    -26.0611E-03     87.5278E-03
            1816     13.1533E-03     34.0458E-03    -8.66255E+06    -17.9562E+06    -4.31342E+06     133.127E+03    -28.1561E-03     54.1840E-03    -26.0279E-03     76.5939E-03    -28.3421E-03     54.2879E-03    -26.0108E-03     76.4309E-03
            1817     12.2771E-03     33.9769E-03    -10.0764E+06    -37.5110E+06    -2.51716E+06     86.3342E+03    -27.9322E-03     53.9438E-03    -26.0116E-03     68.9601E-03    -28.0366E-03     53.8865E-03    -25.9552E-03     68.8248E-03
            1818     11.4009E-03     33.9135E-03    -10.9011E+06    -48.8266E+06    -1.20642E+06     300.579E+03    -27.7398E-03     53.7137E-03    -25.9740E-03     63.6696E-03    -27.7972E-03     53.5626E-03    -25.8934E-03     63.5625E-03
            1819     10.5246E-03     33.8546E-03    -11.5831E+06    -57.3314E+06     822.470E+03     339.839E+03    -27.5075E-03     53.4393E-03    -25.9319E-03     58.5791E-03    -27.5351E-03     53.2199E-03    -25.8278E-03     58.4941E-03
            1820     9.64822E-03     33.8006E-03    -12.6617E+06    -64.4427E+06     1.41340E+06     317.838E+03    -27.2538E-03     53.1333E-03    -25.8795E-03     53.6160E-03    -27.2612E-03     52.8628E-03    -25.7606E-03     53.5489E-03
            1821     8.77169E-03     33.7511E-03    -14.1063E+06    -71.2174E+06     1.17220E+06     224.474E+03    -26.9946E-03     52.8177E-03    -25.8232E-03     48.8486E-03    -26.9879E-03     52.5048E-03    -25.6936E-03     48.7950E-03
            1822     7.89504E-03     33.7061E-03    -15.7746E+06    -77.3600E+06     478.731E+03     235.759E+03    -26.7310E-03     52.4968E-03    -25.7658E-03     44.0213E-03    -26.7150E-03     52.1488E-03    -25.6283E-03     43.9801E-03
            1823     7.01825E-03     33.6658E-03    -17.7503E+06    -83.4749E+06    -1.86842E+06     172.828E+03    -26.4745E-03     52.1784E-03    -25.7038E-03     39.1567E-03    -26.4507E-03     51.8005E-03    -25.5664E-03     39.1247E-03
            1824     6.14133E-03     33.6301E-03    -19.9080E+06    -90.3053E+06    -5.20317E+06     85.4528E+03    -26.2309E-03     51.8739E-03    -25.6431E-03     34.2412E-03    -26.1992E-03     51.4661E-03    -25.5093E-03     34.2161E-03
            1825     5.26424E-03     33.5992E-03    -21.9783E+06    -96.6171E+06    -9.22227E+06     117.614E+03    -26.0110E-03     51.5951E-03    -25.5841E-03     29.3134E-03    -25.9721E-03     51.1619E-03    -25.4582E-03     29.2951E-03
            1826     4.38708E-03     33.5731E-03    -24.0402E+06    -102.262E+06    -14.0717E+06     88.2537E+03    -25.8245E-03     51.3509E-03    -25.5264E-03     24.3742E-03    -25.7789E-03     50.8976E-03    -25.4136E-03     24.3606E-03
            1827     3.50979E-03     33.5517E-03    -26.0206E+06    -106.341E+06    -19.2818E+06     102.748E+03    -25.6604E-03     51.1321E-03    -25.4717E-03     19.4451E-03    -25.6099E-03     50.6677E-03    -25.3762E-03     19.4358E-03
            1828     2.63243E-03     33.5352E-03    -27.6569E+06    -111.299E+06    -23.4524E+06     146.161E+03    -25.5290E-03     50.9616E-03    -25.4327E-03     14.5733E-03    -25.4727E-03     50.4801E-03    -25.3484E-03     14.5678E-03
            1829     1.75497E-03     33.5233E-03    -28.9465E+06    -115.800E+06    -26.8112E+06     134.260E+03    -25.4424E-03     50.8498E-03    -25.4074E-03     9.73172E-03    -25.3807E-03     50.3520E-03    -25.3316E-03     9.72884E-03
            1830     877.487E-06     33.5161E-03    -29.9742E+06    -117.331E+06    -29.4644E+06     72.8157E+03    -25.4263E-03     50.7892E-03    -25.3629E-03     5.19155E-03    -25.3634E-03     50.2891E-03    -25.2967E-03     5.19011E-03
            1831     16.6598E-03     33.4647E-03    -4.64743E+06     138.643E+06     72.2982E+06     460.690E+03    -28.4289E-03     54.7437E-03    -26.3148E-03     88.5221E-03    -29.7657E-03     56.3466E-03    -26.1476E-03     88.8316E-03
            1832     15.7825E-03     33.3238E-03    -7.14948E+06     126.309E+06     35.7645E+06    -98.8443E+03    -29.8570E-03     55.9702E-03    -26.1132E-03     129.825E-03    -31.4358E-03     57.8683E-03    -26.1071E-03     129.912E-03
            1833     14.9065E-03     33.2135E-03    -8.42649E+06     74.3613E+06    -286.019E+03    -640.257E+03    -28.9354E-03     54.9016E-03    -25.9662E-03     104.383E-03    -29.6994E-03     55.9005E-03    -26.0633E-03     104.189E-03
            1834     14.0301E-03     33.1239E-03    -9.48749E+06     15.6116E+06    -9.70121E+06     73.5517E+03    -28.5298E-03     54.4875E-03    -25.9577E-03     87.4097E-03    -28.8852E-03     54.8927E-03    -26.0151E-03     87.2173E-03
            1835     13.1541E-03     33.0462E-03    -9.54187E+06    -17.6165E+06    -3.92484E+06     796.691E+03    -28.2356E-03     54.2128E-03    -25.9772E-03     76.3105E-03    -28.4264E-03     54.3186E-03    -25.9575E-03     76.1555E-03
            1836     12.2779E-03     32.9775E-03    -10.0812E+06    -37.2231E+06    -1.95230E+06     464.424E+03    -27.9965E-03     53.9472E-03    -25.9507E-03     68.6785E-03    -28.1015E-03     53.8899E-03    -25.8919E-03     68.5481E-03
            1837     11.4017E-03     32.9141E-03    -10.6952E+06    -48.8958E+06    -1.13436E+06     90.9112E+03    -27.8090E-03     53.7091E-03    -25.9001E-03     63.3308E-03    -27.8649E-03     53.5567E-03    -25.8194E-03     63.2211E-03
            1838     10.5255E-03     32.8554E-03    -11.4998E+06    -57.4397E+06     734.996E+03     244.270E+03    -27.5533E-03     53.3988E-03    -25.8456E-03     58.2015E-03    -27.5797E-03     53.1784E-03    -25.7419E-03     58.1157E-03
            1839     9.64915E-03     32.8017E-03    -12.6462E+06    -64.3177E+06     1.38169E+06     324.122E+03    -27.2670E-03     53.0488E-03    -25.7818E-03     53.2367E-03    -27.2740E-03     52.7786E-03    -25.6633E-03     53.1700E-03
            1840     8.77265E-03     32.7524E-03    -14.0393E+06    -71.0973E+06     1.10328E+06     272.583E+03    -26.9856E-03     52.6999E-03    -25.7143E-03     48.4618E-03    -26.9784E-03     52.3873E-03    -25.5854E-03     48.4093E-03
            1841     7.89597E-03     32.7077E-03    -15.7540E+06    -77.4015E+06     394.112E+03     266.576E+03    -26.6984E-03     52.3448E-03    -25.6465E-03     43.6281E-03    -26.6818E-03     51.9964E-03    -25.5094E-03     43.5877E-03
            1842     7.01915E-03     32.6676E-03    -17.7077E+06    -83.3257E+06    -1.83709E+06     317.429E+03    -26.4163E-03     51.9909E-03    -25.5746E-03     38.7688E-03    -26.3923E-03     51.6136E-03    -25.4373E-03     38.7390E-03
            1843     6.14217E-03     32.6322E-03    -19.8314E+06    -90.1232E+06    -5.21020E+06     176.357E+03    -26.1516E-03     51.6554E-03    -25.5039E-03     33.8755E-03    -26.1196E-03     51.2483E-03    -25.3705E-03     33.8518E-03
            1844     5.26505E-03     32.6016E-03    -22.0045E+06    -96.6440E+06    -9.29426E+06     50.6596E+03    -25.9088E-03     51.3449E-03    -25.4361E-03     28.9848E-03    -25.8697E-03     50.9116E-03    -25.3105E-03     28.9659E-03
            1845     4.38775E-03     32.5756E-03    -24.0704E+06    -102.296E+06    -14.2985E+06     196.921E+03    -25.6958E-03     51.0663E-03    -25.3704E-03     24.0855E-03    -25.6499E-03     50.6132E-03    -25.2587E-03     24.0735E-03
            1846     3.51037E-03     32.5545E-03    -25.9495E+06    -106.322E+06    -19.5577E+06     278.004E+03    -25.5170E-03     50.8270E-03    -25.3100E-03     19.2030E-03    -25.4658E-03     50.3630E-03    -25.2160E-03     19.1961E-03
            1847     2.63285E-03     32.5380E-03    -27.5806E+06    -111.228E+06    -23.7263E+06     300.030E+03    -25.3783E-03     50.6443E-03    -25.2660E-03     14.3859E-03    -25.3214E-03     50.1634E-03    -25.1834E-03     14.3826E-03
            1848     1.75527E-03     32.5263E-03    -29.0071E+06    -115.645E+06    -26.9717E+06     383.652E+03    -25.2863E-03     50.5211E-03    -25.2348E-03     9.63867E-03    -25.2249E-03     50.0244E-03    -25.1599E-03     9.63908E-03
            1849     877.708E-06     32.5191E-03    -29.9576E+06    -116.959E+06    -29.5012E+06     318.440E+03    -25.2197E-03     50.4364E-03    -25.2166E-03     5.17326E-03    -25.1572E-03     49.9381E-03    -25.1511E-03     5.17502E-03
            1850     16.6575E-03     32.4615E-03    -4.09338E+06     139.116E+06     72.6978E+06    -253.711E+03    -28.8042E-03     55.0913E-03    -26.2871E-03     88.0825E-03    -30.1384E-03     56.6940E-03    -26.1194E-03     88.3802E-03
            1851     15.7843E-03     32.3246E-03    -6.11788E+06     126.822E+06     35.7796E+06     212.573E+03    -29.7932E-03     55.8665E-03    -26.0733E-03     130.295E-03    -31.3673E-03     57.7654E-03    -26.0695E-03     130.390E-03
            1852     14.9070E-03     32.2140E-03    -8.56204E+06     73.9553E+06    -1.43266E+06     908.101E+03    -29.0331E-03     54.9557E-03    -25.9226E-03     105.097E-03    -29.7947E-03     55.9536E-03    -26.0245E-03     104.921E-03
            1853     14.0310E-03     32.1241E-03    -9.81756E+06     15.9008E+06    -9.95053E+06     570.769E+03    -28.6653E-03     54.5749E-03    -25.9095E-03     87.4655E-03    -29.0209E-03     54.9809E-03    -25.9681E-03     87.2787E-03
            1854     13.1548E-03     32.0465E-03    -9.88755E+06    -17.7975E+06    -4.58837E+06    -10.0286E+03    -28.3594E-03     54.2753E-03    -25.9159E-03     76.1867E-03    -28.5499E-03     54.3808E-03    -25.8987E-03     76.0211E-03
            1855     12.2788E-03     31.9780E-03    -9.36396E+06    -37.0334E+06    -2.10142E+06     265.837E+03    -28.1185E-03     53.9951E-03    -25.8766E-03     68.4204E-03    -28.2193E-03     53.9373E-03    -25.8198E-03     68.2873E-03
            1856     11.4027E-03     31.9147E-03    -10.0539E+06    -48.7862E+06    -1.09287E+06     473.800E+03    -27.8718E-03     53.6858E-03    -25.8140E-03     63.0040E-03    -27.9240E-03     53.5323E-03    -25.7342E-03     62.8996E-03
            1857     10.5265E-03     31.8564E-03    -11.3826E+06    -57.5046E+06     515.278E+03     383.922E+03    -27.5935E-03     53.3406E-03    -25.7471E-03     57.8155E-03    -27.6184E-03     53.1194E-03    -25.6446E-03     57.7318E-03
            1858     9.65022E-03     31.8029E-03    -12.6454E+06    -64.2251E+06     1.21057E+06     362.539E+03    -27.2868E-03     52.9578E-03    -25.6710E-03     52.8255E-03    -27.2934E-03     52.6879E-03    -25.5535E-03     52.7598E-03
            1859     8.77371E-03     31.7539E-03    -14.1421E+06    -71.0336E+06     911.070E+03     362.327E+03    -26.9786E-03     52.5695E-03    -25.5908E-03     48.0256E-03    -26.9714E-03     52.2572E-03    -25.4628E-03     47.9747E-03
            1860     7.89705E-03     31.7094E-03    -15.8771E+06    -77.3458E+06     148.951E+03     342.936E+03    -26.6621E-03     52.1725E-03    -25.5104E-03     43.1847E-03    -26.6456E-03     51.8246E-03    -25.3744E-03     43.1457E-03
            1861     7.02019E-03     31.6697E-03    -17.7847E+06    -83.3323E+06    -2.11287E+06     349.173E+03    -26.3481E-03     51.7750E-03    -25.4268E-03     38.3318E-03    -26.3239E-03     51.3979E-03    -25.2908E-03     38.3028E-03
            1862     6.14314E-03     31.6346E-03    -19.9310E+06    -89.8709E+06    -5.39118E+06     391.469E+03    -26.0556E-03     51.4016E-03    -25.3459E-03     33.4683E-03    -26.0242E-03     50.9959E-03    -25.2137E-03     33.4479E-03
            1863     5.26591E-03     31.6041E-03    -22.3241E+06    -96.4689E+06    -9.45193E+06     231.904E+03    -25.7888E-03     51.0581E-03    -25.2694E-03     28.6152E-03    -25.7513E-03     50.6263E-03    -25.1444E-03     28.5989E-03
            1864     4.38853E-03     31.5785E-03    -24.4963E+06    -102.446E+06    -14.5407E+06     124.844E+03    -25.5497E-03     50.7458E-03    -25.1961E-03     23.7696E-03    -25.5053E-03     50.2929E-03    -25.0847E-03     23.7569E-03
            1865     3.51098E-03     31.5575E-03    -26.2000E+06    -106.375E+06    -19.7812E+06     342.539E+03    -25.3524E-03     50.4821E-03    -25.1297E-03     18.9478E-03    -25.3020E-03     50.0184E-03    -25.0364E-03     18.9419E-03
            1866     2.63334E-03     31.5412E-03    -27.7084E+06    -111.109E+06    -23.7320E+06     508.396E+03    -25.2082E-03     50.2894E-03    -25.0813E-03     14.1882E-03    -25.1520E-03     49.8093E-03    -24.9986E-03     14.1877E-03
            1867     1.75562E-03     31.5295E-03    -28.8854E+06    -115.384E+06    -26.8031E+06     468.525E+03    -25.1012E-03     50.1477E-03    -25.0464E-03     9.49404E-03    -25.0398E-03     49.6519E-03    -24.9712E-03     9.49563E-03
            1868     877.728E-06     31.5225E-03    -29.4793E+06    -116.274E+06    -29.0999E+06     447.752E+03    -25.0281E-03     50.0578E-03    -25.0297E-03     5.05385E-03    -24.9648E-03     49.5616E-03    -24.9638E-03     5.05736E-03
            1869     16.6623E-03     31.4631E-03    -4.23224E+06     138.705E+06     71.4557E+06    -383.940E+03    -28.4891E-03     54.7884E-03    -26.2993E-03     89.7172E-03    -29.8317E-03     56.4012E-03    -26.1370E-03     90.0093E-03
            1870     15.7817E-03     31.3244E-03    -8.05167E+06     125.224E+06     33.6391E+06     391.487E+03    -30.4182E-03     56.4993E-03    -26.0812E-03     131.002E-03    -32.0054E-03     58.4049E-03    -26.0829E-03     131.084E-03
            1871     14.9070E-03     31.2134E-03    -9.33089E+06     74.2147E+06    -1.45005E+06     916.300E+03    -29.5869E-03     55.4899E-03    -25.9030E-03     104.357E-03    -30.3509E-03     56.4885E-03    -26.0043E-03     104.173E-03
            1872     14.0314E-03     31.1245E-03    -8.59884E+06     16.7723E+06    -9.93749E+06     601.873E+03    -28.8839E-03     54.7436E-03    -25.8597E-03     87.1812E-03    -29.2341E-03     55.1517E-03    -25.9212E-03     86.9935E-03
            1873     13.1556E-03     31.0467E-03    -8.89397E+06    -17.6424E+06    -4.70499E+06     217.779E+03    -28.5525E-03     54.4019E-03    -25.8494E-03     75.8469E-03    -28.7377E-03     54.5066E-03    -25.8345E-03     75.6831E-03
            1874     12.2798E-03     30.9785E-03    -10.3339E+06    -37.4315E+06    -2.90234E+06     284.001E+03    -28.2192E-03     54.0136E-03    -25.7945E-03     68.0476E-03    -28.3225E-03     53.9558E-03    -25.7397E-03     67.9147E-03
            1875     11.4038E-03     30.9155E-03    -11.0910E+06    -48.7832E+06    -1.81809E+06     535.062E+03    -27.9468E-03     53.6645E-03    -25.7177E-03     62.6355E-03    -28.0026E-03     53.5130E-03    -25.6400E-03     62.5321E-03
            1876     10.5277E-03     30.8573E-03    -11.6799E+06    -57.2537E+06     222.444E+03     500.004E+03    -27.6407E-03     53.2781E-03    -25.6374E-03     57.3786E-03    -27.6665E-03     53.0585E-03    -25.5363E-03     57.2968E-03
            1877     9.65140E-03     30.8042E-03    -12.8416E+06    -64.2449E+06     868.268E+03     413.960E+03    -27.3155E-03     52.8622E-03    -25.5467E-03     52.3543E-03    -27.3220E-03     52.5925E-03    -25.4306E-03     52.2896E-03
            1878     8.77493E-03     30.7554E-03    -14.2297E+06    -70.9309E+06       691.6E+03     445.606E+03    -26.9736E-03     52.4257E-03    -25.4521E-03     47.5383E-03    -26.9662E-03     52.1140E-03    -25.3252E-03     47.4890E-03
            1879     7.89825E-03     30.7114E-03    -15.8832E+06    -77.2497E+06    -1.55595E+03     398.418E+03    -26.6205E-03     51.9784E-03    -25.3579E-03     42.6917E-03    -26.6037E-03     51.6310E-03    -25.2229E-03     42.6540E-03
            1880     7.02134E-03     30.6719E-03    -17.8101E+06    -83.3463E+06    -2.23653E+06     428.853E+03    -26.2733E-03     51.5351E-03    -25.2618E-03     37.8481E-03    -26.2488E-03     51.1580E-03    -25.1263E-03     37.8206E-03
            1881     6.14423E-03     30.6372E-03    -19.8768E+06    -89.8596E+06    -5.56377E+06     542.329E+03    -25.9472E-03     51.1161E-03    -25.1689E-03     33.0161E-03    -25.9151E-03     50.7106E-03    -25.0376E-03     32.9979E-03
            1882     5.26690E-03     30.6070E-03    -21.9194E+06    -95.9260E+06    -9.44254E+06     390.302E+03    -25.6535E-03     50.7354E-03    -25.0820E-03     28.1977E-03    -25.6146E-03     50.3056E-03    -24.9583E-03     28.1839E-03
            1883     4.38938E-03     30.5816E-03    -24.0129E+06    -102.509E+06    -13.8355E+06     139.787E+03    -25.3948E-03     50.3988E-03    -25.0040E-03     23.3937E-03    -25.3488E-03     49.9438E-03    -24.8897E-03     23.3815E-03
            1884     3.51169E-03     30.5609E-03    -26.0480E+06    -106.690E+06    -18.9641E+06     387.846E+03    -25.1749E-03     50.1060E-03    -24.9311E-03     18.6453E-03    -25.1244E-03     49.6393E-03    -24.8334E-03     18.6402E-03
            1885     2.63388E-03     30.5447E-03    -27.6586E+06    -110.732E+06    -23.3169E+06     506.308E+03    -25.0106E-03     49.8844E-03    -24.8738E-03     13.9508E-03    -24.9553E-03     49.4055E-03    -24.7898E-03     13.9504E-03
            1886     1.75597E-03     30.5333E-03    -28.9731E+06    -115.238E+06    -26.5927E+06     463.364E+03    -24.8997E-03     49.7320E-03    -24.8323E-03     9.33726E-03    -24.8393E-03     49.2368E-03    -24.7562E-03     9.33887E-03
            1887     878.119E-06     30.5262E-03    -30.0547E+06    -115.440E+06    -29.3876E+06     563.829E+03    -24.8047E-03     49.6142E-03    -24.8095E-03     4.99693E-03    -24.7450E-03     49.1235E-03    -24.7455E-03     5.00197E-03
            1888     16.6530E-03     30.4624E-03    -4.11421E+06     138.243E+06     71.3100E+06     467.730E+03    -28.9432E-03     55.2309E-03    -26.2877E-03     87.6430E-03    -30.2652E-03     56.8223E-03    -26.1256E-03     87.9208E-03
            1889     15.7833E-03     30.3208E-03    -8.39726E+06     125.033E+06     34.2473E+06    -134.534E+03    -30.6280E-03     56.6746E-03    -26.0466E-03     128.127E-03    -32.1945E-03     58.5556E-03    -26.0445E-03     128.183E-03
            1890     14.9085E-03     30.2142E-03    -8.99978E+06     74.2084E+06    -598.267E+03    -405.075E+03    -29.4869E-03     55.3424E-03    -25.8555E-03     102.924E-03    -30.2455E-03     56.3342E-03    -25.9530E-03     102.725E-03
            1891     14.0322E-03     30.1240E-03    -9.05774E+06     16.2867E+06    -10.3671E+06     560.921E+03    -29.0404E-03     54.8398E-03    -25.7994E-03     86.8646E-03    -29.3921E-03     55.2472E-03    -25.8617E-03     86.6744E-03
            1892     13.1569E-03     30.0470E-03    -9.67107E+06     -17.319E+06    -4.50482E+06     1.16300E+06    -28.6602E-03     54.4378E-03    -25.7776E-03     75.4038E-03    -28.8495E-03     54.5444E-03    -25.7610E-03     75.2514E-03
            1893     12.2808E-03     29.9789E-03    -10.4201E+06    -37.0514E+06    -2.53443E+06     762.960E+03    -28.3283E-03     54.0365E-03    -25.7082E-03     67.7202E-03    -28.4326E-03     53.9796E-03    -25.6520E-03     67.5931E-03
            1894     11.4050E-03     29.9161E-03    -11.0675E+06    -48.7487E+06    -1.84479E+06     251.895E+03    -28.0489E-03     53.6628E-03    -25.6139E-03     62.1937E-03    -28.1039E-03     53.5108E-03    -25.5364E-03     62.0867E-03
            1895     10.5290E-03     29.8584E-03    -11.7845E+06    -57.2661E+06     171.507E+03     328.067E+03    -27.7067E-03     53.2236E-03    -25.5169E-03     56.9067E-03    -27.7323E-03     53.0035E-03    -25.4159E-03     56.8231E-03
            1896     9.65272E-03     29.8055E-03    -12.7147E+06    -64.1721E+06     973.219E+03     436.500E+03    -27.3475E-03     52.7573E-03    -25.4099E-03     51.8280E-03    -27.3531E-03     52.4872E-03    -25.2935E-03     51.7641E-03
            1897     8.77628E-03     29.7572E-03    -14.0206E+06    -70.8694E+06     828.044E+03     399.643E+03    -26.9684E-03     52.2674E-03    -25.2990E-03     46.9841E-03    -26.9598E-03     51.9551E-03    -25.1718E-03     46.9348E-03
            1898     7.89958E-03     29.7135E-03    -15.6000E+06    -77.1957E+06     226.908E+03     452.990E+03    -26.5747E-03     51.7644E-03    -25.1897E-03     42.1342E-03    -26.5566E-03     51.4162E-03    -25.0540E-03     42.0977E-03
            1899     7.02264E-03     29.6744E-03    -17.4541E+06    -83.3512E+06    -2.03085E+06     503.559E+03    -26.1927E-03     51.2716E-03    -25.0790E-03     37.3046E-03    -26.1664E-03     50.8934E-03    -24.9429E-03     37.2786E-03
            1900     6.14542E-03     29.6400E-03    -19.3224E+06    -89.7887E+06    -5.45636E+06     484.641E+03    -25.8357E-03     50.8074E-03    -24.9716E-03     32.5026E-03    -25.8009E-03     50.4010E-03    -24.8407E-03     32.4842E-03
            1901     5.26800E-03     29.6103E-03    -21.2514E+06    -95.5383E+06    -9.43828E+06     410.915E+03    -25.5067E-03     50.3781E-03    -24.8714E-03     27.7272E-03    -25.4650E-03     49.9492E-03    -24.7493E-03     27.7141E-03
            1902     4.39034E-03     29.5851E-03    -23.4676E+06    -102.512E+06    -13.1308E+06     447.306E+03    -25.2233E-03     50.0103E-03    -24.7870E-03     22.9750E-03    -25.1756E-03     49.5534E-03    -24.6700E-03     22.9671E-03
            1903     3.51252E-03     29.5647E-03    -25.6847E+06    -106.818E+06    -18.1118E+06     519.836E+03    -24.9803E-03     49.6857E-03    -24.7054E-03     18.3039E-03    -24.9290E-03     49.2166E-03    -24.6038E-03     18.3008E-03
            1904     2.63452E-03     29.5488E-03    -27.5493E+06    -110.440E+06    -23.3017E+06     614.032E+03    -24.7891E-03     49.4252E-03    -24.6361E-03     13.6935E-03    -24.7336E-03     48.9475E-03    -24.5525E-03     13.6946E-03
            1905     1.75642E-03     29.5374E-03    -29.2030E+06    -115.044E+06    -26.5946E+06     689.636E+03    -24.6515E-03     49.2456E-03    -24.5941E-03     9.15856E-03    -24.5924E-03     48.7516E-03    -24.5179E-03     9.16320E-03
            1906     878.125E-06     29.5305E-03    -30.4832E+06    -114.370E+06    -29.4320E+06     538.169E+03    -24.5577E-03     49.1366E-03    -24.5788E-03     4.92131E-03    -24.5017E-03     48.6519E-03    -24.5160E-03     4.92604E-03
            1907     16.6667E-03     29.4608E-03    -3.36112E+06     139.083E+06     73.1673E+06     520.701E+03    -29.9042E-03     56.1288E-03    -26.2245E-03     87.5041E-03    -31.2151E-03     57.7093E-03    -26.0555E-03     87.7798E-03
            1908     15.7861E-03     29.3225E-03    -5.37442E+06     126.891E+06     35.9935E+06     975.908E+03    -29.9399E-03     55.9087E-03    -25.9688E-03     128.749E-03    -31.4827E-03     57.7783E-03    -25.9651E-03     128.836E-03
            1909     14.9083E-03     29.2135E-03    -9.52090E+06     73.4883E+06    -2.89881E+06     454.904E+03    -29.3577E-03     55.1458E-03    -25.7881E-03     103.685E-03    -30.1149E-03     56.1385E-03    -25.8953E-03     103.498E-03
            1910     14.0336E-03     29.1240E-03    -10.4149E+06     16.1982E+06    -10.4018E+06     747.625E+03    -29.1848E-03     54.9253E-03    -25.7404E-03     86.7243E-03    -29.5421E-03     55.3332E-03    -25.8008E-03     86.5346E-03
            1911     13.1574E-03     29.0472E-03    -10.1418E+06    -17.3169E+06    -4.29609E+06     769.379E+03    -28.7718E-03     54.4771E-03    -25.7054E-03     75.3473E-03    -28.9626E-03     54.5829E-03    -25.6870E-03     75.1895E-03
            1912     12.2821E-03     28.9792E-03    -9.80206E+06    -36.3964E+06    -1.99501E+06     580.474E+03    -28.5366E-03     54.1543E-03    -25.6178E-03     67.3858E-03    -28.6386E-03     54.0982E-03    -25.5608E-03     67.2559E-03
            1913     11.4063E-03     28.9169E-03    -10.2471E+06    -48.4823E+06    -1.20910E+06     405.265E+03    -28.1881E-03     53.6912E-03    -25.5031E-03     61.7213E-03    -28.2394E-03     53.5375E-03    -25.4240E-03     61.6165E-03
            1914     10.5303E-03     28.8594E-03    -11.1908E+06    -57.3778E+06     536.888E+03     258.024E+03    -27.8032E-03     53.1887E-03    -25.3855E-03     56.3636E-03    -27.8254E-03     52.9660E-03    -25.2834E-03     56.2795E-03
            1915     9.65421E-03     28.8070E-03    -12.2846E+06    -64.1845E+06     1.26272E+06     358.299E+03    -27.3914E-03     52.6500E-03    -25.2586E-03     51.2290E-03    -27.3946E-03     52.3781E-03    -25.1414E-03     51.1647E-03
            1916     8.77777E-03     28.7590E-03    -13.6181E+06    -70.8198E+06     957.185E+03     461.763E+03    -26.9642E-03     52.0925E-03    -25.1283E-03     46.3473E-03    -26.9534E-03     51.7792E-03    -25.0011E-03     46.2994E-03
            1917     7.90108E-03     28.7159E-03    -15.3268E+06    -77.2027E+06     168.700E+03     508.580E+03    -26.5273E-03     51.5282E-03    -25.0008E-03     41.4955E-03    -26.5073E-03     51.1792E-03    -24.8658E-03     41.4604E-03
            1918     7.02405E-03     28.6772E-03    -17.1918E+06    -83.2955E+06    -2.21404E+06     562.000E+03    -26.1055E-03     50.9784E-03    -24.8729E-03     36.6842E-03    -26.0775E-03     50.6001E-03    -24.7383E-03     36.6595E-03
            1919     6.14680E-03     28.6432E-03    -19.2604E+06    -89.5955E+06    -5.72495E+06     532.385E+03    -25.7076E-03     50.4576E-03    -24.7500E-03     31.9207E-03    -25.6722E-03     50.0523E-03    -24.6208E-03     31.9033E-03
            1920     5.26923E-03     28.6139E-03    -21.5336E+06    -95.6510E+06    -9.84046E+06     703.081E+03    -25.3427E-03     49.9791E-03    -24.6364E-03     27.2013E-03    -25.3015E-03     49.5504E-03    -24.5156E-03     27.1923E-03
            1921     4.39143E-03     28.5891E-03    -23.7893E+06    -102.145E+06    -14.0995E+06     726.317E+03    -25.0266E-03     49.5630E-03    -24.5364E-03     22.5219E-03    -24.9795E-03     49.1097E-03    -24.4243E-03     22.5179E-03
            1922     3.51340E-03     28.5689E-03    -25.6754E+06    -106.733E+06    -18.3861E+06     495.785E+03    -24.7582E-03     49.2063E-03    -24.4481E-03     17.9267E-03    -24.7066E-03     48.7379E-03    -24.3480E-03     17.9234E-03
            1923     2.63521E-03     28.5532E-03    -27.2784E+06    -110.566E+06    -22.5752E+06     800.205E+03    -24.5419E-03     48.9180E-03    -24.3761E-03     13.4101E-03    -24.4860E-03     48.4382E-03    -24.2891E-03     13.4138E-03
            1924     1.75687E-03     28.5420E-03    -28.7705E+06    -114.205E+06    -26.1578E+06     819.509E+03    -24.3955E-03     48.7197E-03    -24.3243E-03     8.95255E-03    -24.3361E-03     48.2287E-03    -24.2478E-03     8.95897E-03
            1925     878.508E-06     28.5352E-03    -29.7975E+06    -113.474E+06    -28.9318E+06     411.666E+03    -24.3129E-03     48.5900E-03    -24.2771E-03     4.81814E-03    -24.2555E-03     48.1081E-03    -24.2140E-03     4.82130E-03
            1926     16.6562E-03     28.4578E-03    -5.55401E+06     137.187E+06     71.4577E+06    -1.33310E+06    -29.5800E-03     55.8541E-03    -26.2741E-03     90.4112E-03    -30.9234E-03     57.4576E-03    -26.1077E-03     90.6651E-03
            1927     15.7839E-03     28.3238E-03    -7.71443E+06     124.086E+06     32.9528E+06     1.10951E+06    -31.1569E-03     57.1524E-03    -25.9955E-03     130.469E-03    -32.7219E-03     59.0349E-03    -25.9995E-03     130.532E-03
            1928     14.9097E-03     28.2121E-03    -7.39558E+06     75.3066E+06    -2.06615E+06     2.76080E+06    -30.0647E-03     55.8364E-03    -25.7717E-03     104.435E-03    -30.8168E-03     56.8355E-03    -25.8805E-03     104.266E-03
            1929     14.0337E-03     28.1245E-03    -8.47986E+06     16.9944E+06    -9.33479E+06     795.991E+03    -29.5127E-03     55.2086E-03    -25.6958E-03     86.5976E-03    -29.8613E-03     55.6144E-03    -25.7548E-03     86.4057E-03
            1930     13.1586E-03     28.0468E-03    -8.47138E+06    -17.4229E+06    -3.77542E+06     263.223E+03    -29.1391E-03     54.7726E-03    -25.6335E-03     75.0864E-03    -29.3207E-03     54.8733E-03    -25.6149E-03     74.9205E-03
            1931     12.2831E-03     27.9795E-03    -8.98313E+06    -36.2323E+06    -1.94847E+06     510.038E+03    -28.7627E-03     54.2803E-03    -25.5177E-03     66.8089E-03    -28.8596E-03     54.2224E-03    -25.4618E-03     66.6779E-03
            1932     11.4076E-03     27.9174E-03    -9.65346E+06    -48.3206E+06    -1.13927E+06     442.687E+03    -28.3780E-03     53.7566E-03    -25.3786E-03     61.0558E-03    -28.4257E-03     53.6018E-03    -25.3002E-03     60.9516E-03
            1933     10.5319E-03     27.8605E-03    -10.4821E+06    -57.2771E+06     495.165E+03     511.227E+03    -27.9143E-03     53.1504E-03    -25.2361E-03     55.6517E-03    -27.9322E-03     52.9264E-03    -25.1354E-03     55.5713E-03
            1934     9.65582E-03     27.8085E-03    -11.8276E+06    -64.2784E+06     871.279E+03     524.131E+03    -27.4365E-03     52.5226E-03    -25.0861E-03     50.5010E-03    -27.4361E-03     52.2496E-03    -24.9714E-03     50.4396E-03
            1935     8.77946E-03     27.7612E-03    -13.4034E+06    -70.8428E+06     505.705E+03     677.574E+03    -26.9559E-03     51.8913E-03    -24.9355E-03     45.6130E-03    -26.9428E-03     51.5777E-03    -24.8108E-03     45.5686E-03
            1936     7.90272E-03     27.7184E-03    -15.1901E+06    -77.1276E+06    -309.497E+03     761.492E+03    -26.4747E-03     51.2631E-03    -24.7884E-03     40.7728E-03    -26.4531E-03     50.9146E-03    -24.6561E-03     40.7416E-03
            1937     7.02571E-03     27.6803E-03    -17.2835E+06    -83.2098E+06    -2.63665E+06     781.966E+03    -26.0033E-03     50.6462E-03    -24.6429E-03     35.9901E-03    -25.9749E-03     50.2687E-03    -24.5104E-03     35.9688E-03
            1938     6.14828E-03     27.6468E-03    -19.5121E+06    -89.5204E+06    -6.05285E+06     898.108E+03    -25.5593E-03     50.0636E-03    -24.5043E-03     31.2731E-03    -25.5245E-03     49.6594E-03    -24.3765E-03     31.2610E-03
            1939     5.27060E-03     27.6179E-03    -21.7276E+06    -95.7667E+06    -10.1167E+06     1.04259E+06    -25.1561E-03     49.5328E-03    -24.3767E-03     26.6195E-03    -25.1152E-03     49.1041E-03    -24.2569E-03     26.6153E-03
            1940     4.39262E-03     27.5935E-03    -23.6826E+06    -101.367E+06    -14.7488E+06     822.687E+03    -24.8066E-03     49.0674E-03    -24.2608E-03     22.0339E-03    -24.7591E-03     48.6187E-03    -24.1532E-03     22.0315E-03
            1941     3.51442E-03     27.5736E-03    -25.5028E+06    -106.594E+06    -18.6563E+06     477.329E+03    -24.5142E-03     48.6786E-03    -24.1644E-03     17.5196E-03    -24.4615E-03     48.2110E-03    -24.0662E-03     17.5164E-03
            1942     2.63599E-03     27.5582E-03    -27.1447E+06    -110.826E+06    -22.0840E+06     648.547E+03    -24.2748E-03     48.3621E-03    -24.0874E-03     13.0826E-03    -24.2185E-03     47.8801E-03    -23.9978E-03     13.0845E-03
            1943     1.75740E-03     27.5472E-03    -28.4084E+06    -113.181E+06    -25.6434E+06     725.393E+03    -24.1110E-03     48.1359E-03    -24.0249E-03     8.76734E-03    -24.0520E-03     47.6487E-03    -23.9479E-03     8.77266E-03
            1944     878.742E-06     27.5405E-03    -29.5303E+06    -112.736E+06    -28.6377E+06     394.942E+03    -24.0085E-03     47.9814E-03    -23.9728E-03     4.73291E-03    -23.9513E-03     47.5023E-03    -23.9097E-03     4.73593E-03
            1945     16.6575E-03     27.4554E-03    -4.15980E+06     137.813E+06     71.9923E+06    -249.273E+03    -28.8940E-03     55.1990E-03    -26.3050E-03     86.9089E-03    -30.1904E-03     56.7611E-03    -26.1389E-03     87.1688E-03
            1946     15.7832E-03     27.3192E-03    -9.74150E+06     120.780E+06     28.3085E+06    -93.6008E+03    -31.3714E-03     57.3894E-03    -26.0180E-03     127.859E-03    -32.9017E-03     59.2318E-03    -26.0375E-03     127.891E-03
            1947     14.9088E-03     27.2124E-03    -8.93454E+06     74.9198E+06    -5.38469E+06     938.571E+03    -30.9778E-03     56.7360E-03    -25.7582E-03     103.344E-03    -31.7311E-03     57.7392E-03    -25.8808E-03     103.138E-03
            1948     14.0343E-03     27.1228E-03    -7.08203E+06     18.6919E+06    -9.74113E+06     1.15762E+06    -30.1549E-03     55.7933E-03    -25.6384E-03     85.7436E-03    -30.4968E-03     56.2047E-03    -25.7040E-03     85.5507E-03
            1949     13.1597E-03     27.0469E-03    -7.57510E+06    -17.9149E+06    -5.15339E+06     720.423E+03    -29.5347E-03     55.0702E-03    -25.5355E-03     74.0851E-03    -29.7077E-03     55.1676E-03    -25.5243E-03     73.9231E-03
            1950     12.2846E-03     26.9794E-03    -8.31031E+06    -35.8372E+06    -2.55706E+06     799.557E+03    -28.9838E-03     54.3761E-03    -25.3922E-03     65.9527E-03    -29.0758E-03     54.3187E-03    -25.3410E-03     65.8251E-03
            1951     11.4093E-03     26.9181E-03    -9.19958E+06    -48.3833E+06    -1.96616E+06     791.058E+03    -28.5239E-03     53.7517E-03    -25.2278E-03     60.1255E-03    -28.5670E-03     53.5961E-03    -25.1541E-03     60.0259E-03
            1952     10.5337E-03     26.8615E-03    -10.5437E+06    -57.2132E+06    -227.817E+03     931.850E+03    -27.9960E-03     53.0588E-03    -25.0627E-03     54.7671E-03    -28.0125E-03     52.8354E-03    -24.9656E-03     54.6926E-03
            1953     9.65772E-03     26.8102E-03    -12.0237E+06    -64.1921E+06     224.600E+03     1.00701E+06    -27.4552E-03     52.3465E-03    -24.8913E-03     49.6539E-03    -27.4543E-03     52.0743E-03    -24.7796E-03     49.5993E-03
            1954     8.78129E-03     26.7634E-03    -13.6566E+06    -70.8294E+06     5.55338E+03     960.738E+03    -26.9293E-03     51.6499E-03    -24.7206E-03     44.7904E-03    -26.9163E-03     51.3370E-03    -24.5981E-03     44.7503E-03
            1955     7.90461E-03     26.7213E-03    -15.3750E+06    -77.0293E+06    -604.191E+03     1.01321E+06    -26.3998E-03     50.9542E-03    -24.5544E-03     39.9724E-03    -26.3785E-03     50.6065E-03    -24.4234E-03     39.9451E-03
            1956     7.02742E-03     26.6837E-03    -17.2596E+06    -83.1192E+06    -2.62701E+06     1.08924E+06    -25.8819E-03     50.2732E-03    -24.3913E-03     35.2284E-03    -25.8533E-03     49.8959E-03    -24.2589E-03     35.2117E-03
            1957     6.14998E-03     26.6508E-03    -19.3063E+06    -89.5049E+06    -5.93923E+06     1.21101E+06    -25.3939E-03     49.6299E-03    -24.2360E-03     30.5686E-03    -25.3581E-03     49.2250E-03    -24.1079E-03     30.5611E-03
            1958     5.27210E-03     26.6223E-03    -21.3212E+06    -95.4732E+06    -9.88807E+06     1.18776E+06    -24.9494E-03     49.0424E-03    -24.0931E-03     25.9904E-03    -24.9070E-03     48.6141E-03    -23.9732E-03     25.9885E-03
            1959     4.39393E-03     26.5984E-03    -23.3076E+06    -100.697E+06    -14.3802E+06     955.395E+03    -24.5615E-03     48.5260E-03    -23.9645E-03     21.4923E-03    -24.5135E-03     48.0795E-03    -23.8566E-03     21.4920E-03
            1960     3.51547E-03     26.5789E-03    -25.2967E+06    -106.258E+06    -18.6828E+06     736.153E+03    -24.2399E-03     48.0966E-03    -23.8567E-03     17.0787E-03    -24.1866E-03     47.6304E-03    -23.7593E-03     17.0792E-03
            1961     2.63684E-03     26.5638E-03    -27.1136E+06    -110.735E+06    -22.4991E+06     552.789E+03    -23.9869E-03     47.7557E-03    -23.7688E-03     12.7588E-03    -23.9299E-03     47.2746E-03    -23.6814E-03     12.7597E-03
            1962     1.75800E-03     26.5531E-03    -28.4962E+06    -112.639E+06    -25.8415E+06     506.484E+03    -23.7913E-03     47.4919E-03    -23.7007E-03     8.54872E-03    -23.7332E-03     47.0078E-03    -23.6252E-03     8.55136E-03
            1963     878.990E-06     26.5464E-03    -29.4083E+06    -111.924E+06    -28.5208E+06     339.809E+03    -23.6536E-03     47.3318E-03    -23.6782E-03     4.59917E-03    -23.5970E-03     46.8565E-03    -23.6159E-03     4.60158E-03
            1964     16.6632E-03     26.4593E-03    -2.98699E+06     138.905E+06     74.8652E+06     2.04991E+06    -29.8969E-03     56.1562E-03    -26.2593E-03     87.6979E-03    -31.1806E-03     57.7054E-03    -26.0821E-03     87.9678E-03
            1965     15.7830E-03     26.3180E-03    -6.59473E+06     124.033E+06     33.9015E+06     469.869E+03    -31.1476E-03     57.1068E-03    -25.9592E-03     127.639E-03    -32.6581E-03     58.9358E-03    -25.9600E-03     127.675E-03
            1966     14.9095E-03     26.2091E-03    -10.2358E+06     72.5076E+06    -5.25610E+06    -1.87495E+06    -31.0360E-03     56.7189E-03    -25.6829E-03     100.578E-03    -31.7823E-03     57.7015E-03    -25.7995E-03     100.331E-03
            1967     14.0361E-03     26.1222E-03    -9.47779E+06     17.6591E+06    -10.6682E+06     260.100E+03    -30.4082E-03     55.9430E-03    -25.5348E-03     83.7662E-03    -30.7561E-03     56.3509E-03    -25.6000E-03     83.5587E-03
            1968     13.1613E-03     26.0460E-03    -8.98761E+06    -17.0712E+06    -6.37952E+06     1.09739E+06    -29.6596E-03     55.0614E-03    -25.4018E-03     72.8772E-03    -29.8374E-03     55.1652E-03    -25.3960E-03     72.7194E-03
            1969     12.2866E-03     25.9797E-03    -9.42221E+06    -36.2192E+06    -3.57228E+06     855.666E+03    -29.1149E-03     54.3544E-03    -25.2395E-03     64.9872E-03    -29.2090E-03     54.2969E-03    -25.1912E-03     64.8601E-03
            1970     11.4113E-03     25.9185E-03    -10.2245E+06    -48.2431E+06    -2.42485E+06     1.34606E+06    -28.5863E-03     53.6418E-03    -25.0555E-03     59.2461E-03    -28.6329E-03     53.4879E-03    -24.9829E-03     59.1542E-03
            1971     10.5358E-03     25.8629E-03    -11.2260E+06    -57.2036E+06    -463.919E+03     1.29020E+06    -28.0346E-03     52.9049E-03    -24.8703E-03     53.8610E-03    -28.0532E-03     52.6819E-03    -24.7734E-03     53.7919E-03
            1972     9.65974E-03     25.8120E-03    -12.3747E+06    -63.9542E+06     192.564E+03     1.26360E+06    -27.4584E-03     52.1357E-03    -24.6773E-03     48.7764E-03    -27.4587E-03     51.8645E-03    -24.5657E-03     48.7259E-03
            1973     8.78344E-03     25.7660E-03    -13.7565E+06    -70.7173E+06     83.8242E+03     1.27297E+06    -26.8821E-03     51.3678E-03    -24.4857E-03     43.9063E-03    -26.8693E-03     51.0549E-03    -24.3628E-03     43.8711E-03
            1974     7.90658E-03     25.7244E-03    -15.4837E+06    -76.7548E+06    -608.066E+03     1.16207E+06    -26.3003E-03     50.5989E-03    -24.2986E-03     39.1151E-03    -26.2794E-03     50.2523E-03    -24.1679E-03     39.0906E-03
            1975     7.02943E-03     25.6876E-03    -17.2728E+06    -83.1487E+06    -2.65021E+06     1.15941E+06    -25.7377E-03     49.8547E-03    -24.1170E-03     34.4126E-03    -25.7087E-03     49.4769E-03    -23.9847E-03     34.3976E-03
            1976     6.15173E-03     25.6552E-03    -19.1167E+06    -89.3887E+06    -5.81441E+06     1.32677E+06    -25.2053E-03     49.1501E-03    -23.9447E-03     29.8183E-03    -25.1687E-03     48.7451E-03    -23.8165E-03     29.8129E-03
            1977     5.27374E-03     25.6273E-03    -21.0974E+06    -95.0307E+06    -9.68366E+06     1.29697E+06    -24.7210E-03     48.5073E-03    -23.7863E-03     25.3264E-03    -24.6783E-03     48.0804E-03    -23.6663E-03     25.3265E-03
            1978     4.39536E-03     25.6039E-03    -23.0885E+06    -100.245E+06    -14.1976E+06     1.20344E+06    -24.2953E-03     47.9396E-03    -23.6443E-03     20.9197E-03    -24.2470E-03     47.4947E-03    -23.5364E-03     20.9231E-03
            1979     3.51668E-03     25.5848E-03    -24.9944E+06    -105.731E+06    -18.5079E+06     1.03349E+06    -23.9408E-03     47.4665E-03    -23.5257E-03     16.6044E-03    -23.8869E-03     47.0022E-03    -23.4287E-03     16.6090E-03
            1980     2.63770E-03     25.5700E-03    -26.7577E+06    -110.259E+06    -22.5138E+06     789.578E+03    -23.6643E-03     47.0940E-03    -23.4297E-03     12.3949E-03    -23.6062E-03     46.6148E-03    -23.3436E-03     12.3991E-03
            1981     1.75858E-03     25.5595E-03    -28.2871E+06    -112.160E+06    -26.1424E+06     514.240E+03    -23.4657E-03     46.8182E-03    -23.3525E-03     8.30386E-03    -23.4069E-03     46.3366E-03    -23.2796E-03     8.30676E-03
            1982     879.360E-06     25.5531E-03    -29.3003E+06    -111.302E+06    -28.6788E+06     360.909E+03    -23.3247E-03     46.6278E-03    -23.3032E-03     4.45386E-03    -23.2682E-03     46.1557E-03    -23.2427E-03     4.45662E-03
            1983     16.6564E-03     25.4540E-03    -5.23920E+06     137.173E+06     74.3425E+06     535.386E+03    -31.6694E-03     57.8809E-03    -26.2115E-03     85.0044E-03    -32.9760E-03     59.4403E-03    -26.0310E-03     85.2165E-03
            1984     15.7888E-03     25.3175E-03    -6.41532E+06     126.232E+06     39.4478E+06    -303.184E+03    -31.9647E-03     57.8158E-03    -25.8510E-03     126.469E-03    -33.4964E-03     59.6583E-03    -25.8275E-03     126.473E-03
            1985     14.9132E-03     25.2076E-03    -7.10735E+06     73.0643E+06    -427.476E+03     268.409E+03    -30.5366E-03     56.0876E-03    -25.5510E-03     100.734E-03    -31.2656E-03     57.0519E-03    -25.6487E-03     100.521E-03
            1986     14.0381E-03     25.1210E-03    -9.51821E+06     15.5938E+06    -10.8308E+06     389.272E+03    -30.2085E-03     55.6074E-03    -25.3989E-03     83.3558E-03    -30.5497E-03     56.0016E-03    -25.4619E-03     83.1518E-03
            1987     13.1637E-03     25.0457E-03    -10.2200E+06    -16.3050E+06    -5.63337E+06     861.434E+03    -29.7550E-03     55.0159E-03    -25.2609E-03     72.4467E-03    -29.9391E-03     55.1222E-03    -25.2506E-03     72.2858E-03
            1988     12.2886E-03     24.9796E-03    -10.5807E+06    -36.7152E+06    -3.70902E+06     1.05689E+06    -29.2149E-03     54.2917E-03    -25.0768E-03     64.3258E-03    -29.3120E-03     54.2317E-03    -25.0268E-03     64.2020E-03
            1989     11.4135E-03     24.9194E-03    -10.9637E+06    -48.2139E+06    -2.32799E+06     1.13007E+06    -28.6682E-03     53.5392E-03    -24.8710E-03     58.4688E-03    -28.7172E-03     53.3849E-03    -24.7968E-03     58.3750E-03
            1990     10.5379E-03     24.8642E-03    -11.3388E+06    -57.1196E+06    -342.338E+03     1.27977E+06    -28.0821E-03     52.7441E-03    -24.6620E-03     52.9938E-03    -28.1004E-03     52.5203E-03    -24.5644E-03     52.9256E-03
            1991     9.66208E-03     24.8142E-03    -12.2291E+06    -63.7370E+06     430.544E+03     1.28666E+06    -27.4634E-03     51.9089E-03    -24.4455E-03     47.8533E-03    -27.4628E-03     51.6374E-03    -24.3332E-03     47.8042E-03
            1992     8.78562E-03     24.7687E-03    -13.4243E+06    -70.6083E+06     189.140E+03     1.33096E+06    -26.8239E-03     51.0544E-03    -24.2305E-03     42.9873E-03    -26.8090E-03     50.7406E-03    -24.1077E-03     42.9539E-03
            1993     7.90884E-03     24.7280E-03    -14.9082E+06    -76.4194E+06    -310.331E+03     1.37416E+06    -26.1873E-03     50.2103E-03    -24.0230E-03     38.2122E-03    -26.1639E-03     49.8635E-03    -23.8921E-03     38.1914E-03
            1994     7.03144E-03     24.6918E-03    -16.8665E+06    -83.0560E+06    -2.52305E+06     1.33040E+06    -25.5742E-03     49.3963E-03    -23.8222E-03     33.5522E-03    -25.5431E-03     49.0179E-03    -23.6899E-03     33.5402E-03
            1995     6.15372E-03     24.6601E-03    -18.9119E+06    -89.3079E+06    -5.81263E+06     1.39646E+06    -25.0000E-03     48.6321E-03    -23.6321E-03     29.0190E-03    -24.9622E-03     48.2270E-03    -23.5042E-03     29.0152E-03
            1996     5.27546E-03     24.6329E-03    -20.8775E+06    -94.6135E+06    -9.73340E+06     1.46256E+06    -24.4712E-03     47.9283E-03    -23.4571E-03     24.6045E-03    -24.4277E-03     47.5030E-03    -23.3383E-03     24.6073E-03
            1997     4.39685E-03     24.6100E-03    -22.8239E+06    -99.8722E+06    -14.1128E+06     1.39112E+06    -24.0088E-03     47.3112E-03    -23.3024E-03     20.2980E-03    -23.9597E-03     46.8675E-03    -23.1951E-03     20.3043E-03
            1998     3.51789E-03     24.5913E-03    -24.6792E+06    -105.160E+06    -18.4088E+06     1.32010E+06    -23.6250E-03     46.7974E-03    -23.1724E-03     16.0995E-03    -23.5704E-03     46.3353E-03    -23.0762E-03     16.1082E-03
            1999     2.63870E-03     24.5769E-03    -26.4375E+06    -109.604E+06    -22.3912E+06     1.15173E+06    -23.3204E-03     46.3886E-03    -23.0681E-03     12.0049E-03    -23.2619E-03     45.9120E-03    -22.9828E-03     12.0141E-03
            2000     1.75923E-03     24.5667E-03    -27.9583E+06    -111.383E+06    -25.9456E+06     847.771E+03    -23.1006E-03     46.0886E-03    -22.9880E-03     8.05087E-03    -23.0415E-03     45.6101E-03    -22.9157E-03     8.05823E-03
            2001     879.662E-06     24.5603E-03    -29.1324E+06    -110.573E+06    -28.4504E+06     550.766E+03    -22.9931E-03     45.8993E-03    -22.9061E-03     4.33757E-03    -22.9372E-03     45.4302E-03    -22.8458E-03     4.34284E-03
            2002     16.6667E-03     24.4499E-03    -4.03197E+06     137.843E+06     72.2454E+06    -548.839E+03    -31.7330E-03     57.9082E-03    -26.1751E-03     86.4926E-03    -33.0413E-03     59.4819E-03    -26.0079E-03     86.6848E-03
            2003     15.7883E-03     24.3159E-03    -6.76411E+06     124.831E+06     34.1067E+06     489.454E+03    -32.6241E-03     58.4108E-03    -25.7867E-03     128.249E-03    -34.1575E-03     60.2643E-03    -25.7873E-03     128.250E-03
            2004     14.9140E-03     24.2073E-03    -9.11209E+06     73.1704E+06    -4.27822E+06     2.00383E+06    -31.1760E-03     56.6362E-03    -25.4602E-03     102.653E-03    -31.9104E-03     57.6105E-03    -25.5745E-03     102.456E-03
            2005     14.0394E-03     24.1199E-03    -9.38706E+06     16.5580E+06    -11.9156E+06     1.59558E+06    -30.5473E-03     55.8345E-03    -25.2872E-03     83.9456E-03    -30.8843E-03     56.2315E-03    -25.3572E-03     83.7558E-03
            2006     13.1650E-03     24.0452E-03    -9.85868E+06    -16.8324E+06    -5.68163E+06     945.614E+03    -30.0957E-03     55.2232E-03    -25.1274E-03     71.9990E-03    -30.2748E-03     55.3240E-03    -25.1171E-03     71.8383E-03
            2007     12.2907E-03     23.9797E-03    -10.1309E+06    -36.2132E+06    -3.57533E+06     940.221E+03    -29.4699E-03     54.3808E-03    -24.9108E-03     63.5934E-03    -29.5638E-03     54.3205E-03    -24.8615E-03     63.4683E-03
            2008     11.4156E-03     23.9202E-03    -10.4207E+06    -48.4479E+06    -2.38771E+06     821.733E+03    -28.8316E-03     53.5062E-03    -24.6746E-03     57.5486E-03    -28.8757E-03     53.3483E-03    -24.6012E-03     57.4517E-03
            2009     10.5404E-03     23.8657E-03    -11.0720E+06    -57.0743E+06    -382.867E+03     1.05902E+06    -28.1523E-03     52.5901E-03    -24.4378E-03     52.0211E-03    -28.1679E-03     52.3649E-03    -24.3409E-03     51.9512E-03
            2010     9.66441E-03     23.8165E-03    -11.9362E+06    -63.7470E+06     443.396E+03     1.25080E+06    -27.4567E-03     51.6531E-03    -24.1964E-03     46.8418E-03    -27.4537E-03     51.3801E-03    -24.0844E-03     46.7935E-03
            2011     8.78809E-03     23.7719E-03    -13.1495E+06    -70.4229E+06     40.5736E+03     1.32242E+06    -26.7590E-03     50.7159E-03    -23.9569E-03     41.9925E-03    -26.7420E-03     50.4021E-03    -23.8355E-03     41.9602E-03
            2012     7.91110E-03     23.7319E-03    -14.6353E+06    -76.4097E+06    -573.912E+03     1.45840E+06    -26.0647E-03     49.7919E-03    -23.7272E-03     37.2345E-03    -26.0390E-03     49.4447E-03    -23.5980E-03     37.2158E-03
            2013     7.03372E-03     23.6965E-03    -16.3779E+06    -82.8174E+06    -2.52386E+06     1.68608E+06    -25.3989E-03     48.9059E-03    -23.5070E-03     32.6122E-03    -25.3654E-03     48.5275E-03    -23.3758E-03     32.6057E-03
            2014     6.15571E-03     23.6655E-03    -18.5015E+06    -89.1209E+06    -5.91163E+06     1.71912E+06    -24.7764E-03     48.0749E-03    -23.2985E-03     28.1526E-03    -24.7364E-03     47.6699E-03    -23.1720E-03     28.1537E-03
            2015     5.27733E-03     23.6390E-03    -20.6801E+06    -94.2613E+06    -9.86448E+06     1.71332E+06    -24.2095E-03     47.3163E-03    -23.1068E-03     23.8241E-03    -24.1651E-03     46.8925E-03    -22.9895E-03     23.8307E-03
            2016     4.39846E-03     23.6167E-03    -22.7298E+06    -99.4049E+06    -14.3183E+06     1.67332E+06    -23.7076E-03     46.6443E-03    -22.9368E-03     19.6106E-03    -23.6583E-03     46.2030E-03    -22.8313E-03     19.6210E-03
            2017     3.51924E-03     23.5986E-03    -24.5918E+06    -104.624E+06    -18.4775E+06     1.56112E+06    -23.2823E-03     46.0779E-03    -22.7956E-03     15.5282E-03    -23.2279E-03     45.6184E-03    -22.7006E-03     15.5404E-03
            2018     2.63966E-03     23.5846E-03    -26.1852E+06    -108.882E+06    -22.1832E+06     1.43907E+06    -22.9530E-03     45.6374E-03    -22.6843E-03     11.5833E-03    -22.8945E-03     45.1637E-03    -22.5994E-03     11.5964E-03
            2019     1.75993E-03     23.5746E-03    -27.6110E+06    -110.320E+06    -25.3929E+06     1.16812E+06    -22.7164E-03     45.3171E-03    -22.6008E-03     7.76116E-03    -22.6579E-03     44.8427E-03    -22.5277E-03     7.77281E-03
            2020     879.954E-06     23.5685E-03    -28.6359E+06    -109.419E+06    -27.8115E+06     547.129E+03    -22.5805E-03     45.1207E-03    -22.5403E-03     4.19238E-03    -22.5247E-03     44.6558E-03    -22.4791E-03     4.19767E-03
            2021     16.6540E-03     23.4454E-03    -3.49723E+06     137.279E+06     71.0723E+06    -188.216E+03    -30.9811E-03     57.1707E-03    -26.1897E-03     86.3960E-03    -32.2589E-03     58.7174E-03    -26.0283E-03     86.5859E-03
            2022     15.7856E-03     23.3115E-03    -8.33638E+06     122.017E+06     29.6687E+06     1.33372E+06    -33.0561E-03     58.8527E-03    -25.7966E-03     126.062E-03    -34.5612E-03     60.6751E-03    -25.8131E-03     126.049E-03
            2023     14.9136E-03     23.2051E-03    -10.4095E+06     73.3604E+06    -5.68786E+06     1.95410E+06    -32.3131E-03     57.7419E-03    -25.4288E-03     100.727E-03    -33.0506E-03     58.7194E-03    -25.5485E-03     100.510E-03
            2024     14.0405E-03     23.1184E-03    -10.2830E+06     17.8576E+06    -11.5209E+06     1.05370E+06    -31.3414E-03     56.5376E-03    -25.1962E-03     82.8466E-03    -31.6826E-03     56.9391E-03    -25.2648E-03     82.6428E-03
            2025     13.1670E-03     23.0442E-03    -9.41280E+06    -16.7580E+06    -5.75871E+06     734.970E+03    -30.5065E-03     55.4914E-03    -24.9849E-03     70.7114E-03    -30.6804E-03     55.5891E-03    -24.9757E-03     70.5463E-03
            2026     12.2927E-03     22.9796E-03    -9.38611E+06    -35.9645E+06    -3.41943E+06     644.100E+03    -29.7373E-03     54.4692E-03    -24.7319E-03     62.3942E-03    -29.8256E-03     54.4064E-03    -24.6832E-03     62.2654E-03
            2027     11.4182E-03     22.9209E-03    -9.74054E+06    -48.5490E+06    -2.33920E+06     793.244E+03    -28.9966E-03     53.4596E-03    -24.4631E-03     56.3732E-03    -29.0355E-03     53.2984E-03    -24.3902E-03     56.2767E-03
            2028     10.5428E-03     22.8675E-03    -10.4195E+06    -57.2492E+06    -491.176E+03     1.02640E+06    -28.2108E-03     52.4074E-03    -24.1965E-03     50.8950E-03    -28.2214E-03     52.1791E-03    -24.1008E-03     50.8259E-03
            2029     9.66705E-03     22.8190E-03    -11.4696E+06    -63.8219E+06     260.538E+03     1.29568E+06    -27.4415E-03     51.3705E-03    -23.9289E-03     45.7289E-03    -27.4347E-03     51.0956E-03    -23.8184E-03     45.6825E-03
            2030     8.79058E-03     22.7753E-03    -12.8174E+06    -70.3590E+06    -186.576E+03     1.54336E+06    -26.6870E-03     50.3517E-03    -23.6648E-03     40.8750E-03    -26.6673E-03     50.0373E-03    -23.5451E-03     40.8468E-03
            2031     7.91365E-03     22.7363E-03    -14.4664E+06    -76.3351E+06    -1.12813E+06     1.63820E+06    -25.9339E-03     49.3444E-03    -23.4105E-03     36.1488E-03    -25.9061E-03     48.9975E-03    -23.2844E-03     36.1335E-03
            2032     7.03602E-03     22.7017E-03    -16.2438E+06    -82.9089E+06    -2.97588E+06     1.87249E+06    -25.2122E-03     48.3819E-03    -23.1696E-03     31.5778E-03    -25.1768E-03     48.0030E-03    -23.0407E-03     31.5747E-03
            2033     6.15794E-03     22.6716E-03    -18.1474E+06    -88.7858E+06    -5.97790E+06     2.20133E+06    -24.5371E-03     47.4798E-03    -22.9427E-03     27.1852E-03    -24.4955E-03     47.0759E-03    -22.8175E-03     27.1934E-03
            2034     5.27925E-03     22.6457E-03    -20.3548E+06    -93.8221E+06    -9.84203E+06     2.18745E+06    -23.9235E-03     46.6578E-03    -22.7343E-03     22.9601E-03    -23.8781E-03     46.2356E-03    -22.6180E-03     22.9735E-03
            2035     4.40018E-03     22.6241E-03    -22.5080E+06    -98.8294E+06    -14.1745E+06     2.07779E+06    -23.3842E-03     45.9340E-03    -22.5498E-03     18.8703E-03    -23.3347E-03     45.4949E-03    -22.4448E-03     18.8864E-03
            2036     3.52064E-03     22.6065E-03    -24.4555E+06    -103.855E+06    -18.2740E+06     1.84640E+06    -22.9282E-03     45.3235E-03    -22.3953E-03     14.9230E-03    -22.8745E-03     44.8673E-03    -22.3006E-03     14.9392E-03
            2037     2.64080E-03     22.5930E-03    -26.2378E+06    -108.216E+06    -21.9188E+06     1.64117E+06    -22.5668E-03     44.8401E-03    -22.2733E-03     11.1037E-03    -22.5098E-03     44.3694E-03    -22.1880E-03     11.1197E-03
            2038     1.76062E-03     22.5832E-03    -27.6292E+06    -108.878E+06    -25.4599E+06     1.35364E+06    -22.3056E-03     44.4845E-03    -22.1789E-03     7.44380E-03    -22.2492E-03     44.0173E-03    -22.1083E-03     7.45802E-03
            2039     880.432E-06     22.5773E-03    -28.6322E+06    -108.108E+06    -28.0732E+06     560.336E+03    -22.1381E-03     44.2707E-03    -22.1326E-03     4.03692E-03    -22.0838E-03     43.8126E-03    -22.0747E-03     4.04246E-03
            2040     16.6670E-03     22.4453E-03    -3.21389E+06     137.383E+06     74.0568E+06     1.00998E+06    -32.0495E-03     58.2165E-03    -26.1670E-03     84.2859E-03    -33.2975E-03     59.7260E-03    -25.9913E-03     84.4657E-03
            2041     15.7885E-03     22.3077E-03    -6.50406E+06     121.696E+06     30.2773E+06     2.08656E+06    -33.0968E-03     58.8228E-03    -25.7259E-03     124.441E-03    -34.5573E-03     60.6042E-03    -25.7416E-03     124.427E-03
            2042     14.9153E-03     22.2021E-03    -7.88783E+06     73.5980E+06    -8.51804E+06     1.60866E+06    -32.7087E-03     58.0265E-03    -25.3177E-03     98.6023E-03    -33.4171E-03     58.9928E-03    -25.4556E-03     98.3728E-03
            2043     14.0426E-03     22.1160E-03    -7.66995E+06     19.1541E+06    -11.0236E+06     1.12711E+06    -31.8553E-03     56.9164E-03    -25.0612E-03     80.9978E-03    -32.1810E-03     57.3149E-03    -25.1330E-03     80.7904E-03
            2044     13.1692E-03     22.0433E-03    -8.13891E+06    -16.6042E+06    -5.72200E+06     468.525E+03    -30.7940E-03     55.6064E-03    -24.8124E-03     69.2787E-03    -30.9578E-03     55.6990E-03    -24.8051E-03     69.1099E-03
            2045     12.2954E-03     21.9794E-03    -8.38933E+06    -36.0382E+06    -3.57350E+06     661.914E+03    -29.9136E-03     54.4415E-03    -24.5279E-03     61.1079E-03    -29.9939E-03     54.3744E-03    -24.4813E-03     60.9803E-03
            2046     11.4207E-03     21.9218E-03    -9.04066E+06    -48.8527E+06    -2.72522E+06     1.03277E+06    -29.0980E-03     53.3280E-03    -24.2300E-03     55.0907E-03    -29.1303E-03     53.1627E-03    -24.1597E-03     54.9986E-03
            2047     10.5456E-03     21.8693E-03    -10.0672E+06    -57.2458E+06    -796.637E+03     1.28037E+06    -28.2573E-03     52.1934E-03    -23.9361E-03     49.6256E-03    -28.2641E-03     51.9636E-03    -23.8425E-03     49.5613E-03
            2048     9.66976E-03     21.8219E-03    -11.2102E+06    -64.0214E+06    -67.0919E+03     1.49506E+06    -27.4204E-03     51.0621E-03    -23.6417E-03     44.4938E-03    -27.4103E-03     50.7852E-03    -23.5329E-03     44.4513E-03
            2049     8.79337E-03     21.7791E-03    -12.4937E+06    -70.3630E+06    -419.640E+03     1.78079E+06    -26.6031E-03     49.9550E-03    -23.3519E-03     39.6453E-03    -26.5806E-03     49.6396E-03    -23.2339E-03     39.6214E-03
            2050     7.91626E-03     21.7411E-03    -14.0423E+06    -76.2139E+06    -1.36964E+06     2.02680E+06    -25.7907E-03     48.8636E-03    -23.0730E-03     34.9538E-03    -25.7599E-03     48.5164E-03    -22.9489E-03     34.9447E-03
            2051     7.03860E-03     21.7074E-03    -15.9869E+06    -82.9976E+06    -3.33558E+06     2.27651E+06    -25.0123E-03     47.8217E-03    -22.8094E-03     30.4447E-03    -24.9745E-03     47.4422E-03    -22.6825E-03     30.4478E-03
            2052     6.16025E-03     21.6782E-03    -18.0673E+06    -88.6279E+06    -6.24525E+06     2.55725E+06    -24.2804E-03     46.8426E-03    -22.5622E-03     26.1429E-03    -24.2378E-03     46.4394E-03    -22.4387E-03     26.1565E-03
            2053     5.28141E-03     21.6531E-03    -20.0477E+06    -93.1694E+06    -9.70392E+06     2.66735E+06    -23.6123E-03     45.9494E-03    -22.3371E-03     22.0266E-03    -23.5662E-03     45.5295E-03    -22.2215E-03     22.0468E-03
            2054     4.40196E-03     21.6322E-03    -22.1027E+06    -98.1532E+06    -13.7891E+06     2.51460E+06    -23.0324E-03     45.1714E-03    -22.1390E-03     18.0554E-03    -22.9823E-03     44.7344E-03    -22.0335E-03     18.0777E-03
            2055     3.52213E-03     21.6153E-03    -24.1227E+06    -102.857E+06    -17.8878E+06     2.28075E+06    -22.5507E-03     44.5215E-03    -21.9708E-03     14.2600E-03    -22.4972E-03     44.0691E-03    -21.8762E-03     14.2823E-03
            2056     2.64194E-03     21.6021E-03    -26.0119E+06    -107.276E+06    -21.4998E+06     1.93652E+06    -22.1673E-03     44.0029E-03    -21.8357E-03     10.6084E-03    -22.1111E-03     43.5360E-03    -21.7499E-03     10.6285E-03
            2057     1.76149E-03     21.5928E-03    -27.5364E+06    -107.358E+06    -25.4131E+06     1.48009E+06    -21.8722E-03     43.5989E-03    -21.7267E-03     7.10469E-03    -21.8176E-03     43.1391E-03    -21.6581E-03     7.12072E-03
            2058     880.689E-06     21.5870E-03    -28.4362E+06    -106.571E+06    -28.1149E+06     821.972E+03    -21.7010E-03     43.3560E-03    -21.6550E-03     3.84457E-03    -21.6479E-03     42.9054E-03    -21.5998E-03     3.85359E-03
            2059     16.6580E-03     21.4397E-03    -5.09078E+06     135.663E+06     74.3225E+06    -114.585E+03    -33.3674E-03     59.5179E-03    -26.1505E-03     84.8394E-03    -34.6313E-03     61.0298E-03    -25.9682E-03     84.9706E-03
            2060     15.7898E-03     21.3058E-03    -7.20341E+06     121.590E+06     33.7292E+06     1.36009E+06    -34.2214E-03     59.8768E-03    -25.6555E-03     125.297E-03    -35.6911E-03     61.6548E-03    -25.6527E-03     125.244E-03
            2061     14.9173E-03     21.1979E-03    -6.98209E+06     74.4578E+06    -5.78889E+06     1.77784E+06    -33.0461E-03     58.2400E-03    -25.1939E-03     98.0130E-03    -33.7427E-03     59.1930E-03    -25.3207E-03     97.7801E-03
            2062     14.0450E-03     21.1141E-03    -6.85026E+06     19.6925E+06    -10.9185E+06     1.40310E+06    -32.0751E-03     56.9722E-03    -24.8971E-03     79.5129E-03    -32.3903E-03     57.3647E-03    -24.9704E-03     79.3083E-03
            2063     13.1718E-03     21.0418E-03    -7.12651E+06    -16.0587E+06    -5.91507E+06     1.39455E+06    -31.0224E-03     55.6402E-03    -24.6178E-03     67.8984E-03    -31.1773E-03     55.7300E-03    -24.6137E-03     67.7421E-03
            2064     12.2980E-03     20.9796E-03    -8.52468E+06    -36.1991E+06    -4.23000E+06     1.22989E+06    -30.0656E-03     54.3692E-03    -24.3036E-03     59.7527E-03    -30.1424E-03     54.2996E-03    -24.2599E-03     59.6336E-03
            2065     11.4236E-03     20.9226E-03    -9.47565E+06    -48.9455E+06    -3.37479E+06     1.33977E+06    -29.1833E-03     53.1604E-03    -23.9771E-03     53.7230E-03    -29.2145E-03     52.9941E-03    -23.9093E-03     53.6364E-03
            2066     10.5485E-03     20.8715E-03     -10.171E+06    -57.3133E+06    -1.00801E+06     1.52349E+06    -28.2861E-03     51.9424E-03    -23.6563E-03     48.2309E-03    -28.2914E-03     51.7111E-03    -23.5635E-03     48.1712E-03
            2067     9.67277E-03     20.8250E-03    -11.1811E+06    -64.0297E+06    -397.041E+03     1.68836E+06    -27.3869E-03     50.7199E-03    -23.3330E-03     43.1462E-03    -27.3750E-03     50.4422E-03    -23.2260E-03     43.1076E-03
            2068     8.79628E-03     20.7834E-03    -12.3734E+06    -70.5298E+06    -763.870E+03     1.94441E+06    -26.4999E-03     49.5167E-03    -23.0168E-03     38.3184E-03    -26.4752E-03     49.1999E-03    -22.9004E-03     38.2979E-03
            2069     7.91914E-03     20.7463E-03    -13.8224E+06    -76.2611E+06    -1.68892E+06     2.37402E+06    -25.6275E-03     48.3404E-03    -22.7129E-03     33.6759E-03    -25.5945E-03     47.9924E-03    -22.5907E-03     33.6725E-03
            2070     7.04126E-03     20.7137E-03    -15.5885E+06    -83.0314E+06    -3.47110E+06     2.85330E+06    -24.7936E-03     47.2203E-03    -22.4267E-03     29.2370E-03    -24.7531E-03     46.8398E-03    -22.3011E-03     29.2486E-03
            2071     6.16277E-03     20.6854E-03    -17.6126E+06    -88.2080E+06    -6.18998E+06     3.03360E+06    -24.0071E-03     46.1655E-03    -22.1584E-03     25.0252E-03    -23.9627E-03     45.7633E-03    -22.0359E-03     25.0458E-03
            2072     5.28359E-03     20.6612E-03    -19.6705E+06    -92.6160E+06    -9.72774E+06     2.98642E+06    -23.2905E-03     45.2039E-03    -21.9133E-03     21.0179E-03    -23.2431E-03     44.7861E-03    -21.7992E-03     21.0430E-03
            2073     4.40393E-03     20.6411E-03    -21.6211E+06    -97.3268E+06    -13.7756E+06     2.99740E+06    -22.6665E-03     44.3640E-03    -21.6975E-03     17.1792E-03    -22.6151E-03     43.9303E-03    -21.5939E-03     17.2082E-03
            2074     3.52373E-03     20.6248E-03    -23.5518E+06    -101.730E+06    -17.6725E+06     2.75140E+06    -22.1417E-03     43.6573E-03    -21.5156E-03     13.5238E-03    -22.0872E-03     43.2093E-03    -21.4223E-03     13.5525E-03
            2075     2.64315E-03     20.6122E-03    -25.3371E+06    -105.905E+06    -21.0559E+06     2.25794E+06    -21.7280E-03     43.0982E-03    -21.3702E-03     10.0430E-03    -21.6710E-03     42.6364E-03    -21.2852E-03     10.0675E-03
            2076     1.76227E-03     20.6032E-03    -26.8026E+06    -105.741E+06    -24.4810E+06     1.55527E+06    -21.4216E-03     42.6734E-03    -21.2519E-03     6.72965E-03    -21.3670E-03     42.2193E-03    -21.1821E-03     6.74685E-03
            2077     881.300E-06     20.5978E-03    -27.5364E+06    -104.877E+06    -26.9118E+06     841.741E+03    -21.2241E-03     42.3926E-03    -21.1685E-03     3.68891E-03    -21.1707E-03     41.9474E-03    -21.1110E-03     3.69826E-03
            2078     16.6637E-03     20.4337E-03    -5.12044E+06     135.280E+06     73.7784E+06     140.176E+03    -34.2144E-03     60.3435E-03    -26.1291E-03     82.2861E-03    -35.4627E-03     61.8399E-03    -25.9490E-03     82.3851E-03
            2079     15.7909E-03     20.3001E-03    -9.26290E+06     119.982E+06     32.8025E+06    -559.196E+03    -35.2565E-03     60.8324E-03    -25.5759E-03     122.880E-03    -36.7184E-03     62.5922E-03    -25.5724E-03     122.766E-03
            2080     14.9198E-03     20.1951E-03    -8.60971E+06     74.3554E+06    -5.81367E+06     678.285E+03    -33.6223E-03     58.6805E-03    -25.0582E-03     96.7451E-03    -34.3167E-03     59.6252E-03    -25.1826E-03     96.4876E-03
            2081     14.0472E-03     20.1112E-03    -8.02495E+06     19.8537E+06    -11.6677E+06     1.60872E+06    -32.3251E-03     57.0442E-03    -24.7191E-03     78.1258E-03    -32.6373E-03     57.4322E-03    -24.7946E-03     77.9231E-03
            2082     13.1746E-03     20.0410E-03    -8.38020E+06    -16.1035E+06    -6.12102E+06     1.94464E+06    -31.2530E-03     55.6645E-03    -24.4115E-03     66.3361E-03    -31.4094E-03     55.7518E-03    -24.4066E-03     66.1871E-03
            2083     12.3010E-03     19.9793E-03    -8.61729E+06    -35.4569E+06    -3.71409E+06     1.92055E+06    -30.2203E-03     54.2865E-03    -24.0662E-03     58.2790E-03    -30.2963E-03     54.2168E-03    -24.0208E-03     58.1699E-03
            2084     11.4268E-03     19.9240E-03    -9.14359E+06    -48.8649E+06    -3.47808E+06     1.45456E+06    -29.2668E-03     52.9731E-03    -23.7063E-03     52.2612E-03    -29.2941E-03     52.8046E-03    -23.6396E-03     52.1777E-03
            2085     10.5517E-03     19.8736E-03    -9.83281E+06    -57.4734E+06    -1.25842E+06     1.66481E+06    -28.2969E-03     51.6529E-03    -23.3559E-03     46.8062E-03    -28.2983E-03     51.4190E-03    -23.2646E-03     46.7499E-03
            2086     9.67596E-03     19.8286E-03    -10.8731E+06    -63.9942E+06    -452.506E+03     1.98293E+06    -27.3395E-03     50.3447E-03    -23.0052E-03     41.7274E-03    -27.3248E-03     50.0656E-03    -22.8989E-03     41.6942E-03
            2087     8.79944E-03     19.7880E-03    -12.2560E+06    -70.6035E+06    -1.10758E+06     2.20784E+06    -26.3853E-03     49.0460E-03    -22.6607E-03     36.9284E-03    -26.3584E-03     48.7282E-03    -22.5461E-03     36.9128E-03
            2088     7.92215E-03     19.7521E-03    -13.7738E+06    -76.6279E+06    -2.09179E+06     2.69985E+06    -25.4496E-03     47.7810E-03    -22.3314E-03     32.3219E-03    -25.4145E-03     47.4310E-03    -22.2108E-03     32.3240E-03
            2089     7.04413E-03     19.7206E-03    -15.4095E+06    -82.9542E+06    -3.83630E+06     3.21162E+06    -24.5599E-03     46.5804E-03    -22.0205E-03     27.9517E-03    -24.5176E-03     46.2000E-03    -21.8970E-03     27.9691E-03
            2090     6.16539E-03     19.6934E-03    -17.0854E+06    -87.6817E+06    -6.29969E+06     3.41718E+06    -23.7283E-03     45.4573E-03    -21.7289E-03     23.8228E-03    -23.6815E-03     45.0568E-03    -21.6085E-03     23.8493E-03
            2091     5.28601E-03     19.6701E-03    -19.0104E+06    -92.0289E+06    -9.68272E+06     3.53725E+06    -22.9629E-03     44.4248E-03    -21.4618E-03     19.9139E-03    -22.9129E-03     44.0087E-03    -21.3492E-03     19.9469E-03
            2092     4.40598E-03     19.6508E-03    -21.0248E+06    -96.3801E+06    -13.7027E+06     3.43334E+06    -22.2811E-03     43.5067E-03    -21.2256E-03     16.2154E-03    -22.2281E-03     43.0766E-03    -21.1238E-03     16.2507E-03
            2093     3.52545E-03     19.6352E-03    -22.7320E+06    -100.463E+06    -17.3524E+06     3.15345E+06    -21.7107E-03     42.7382E-03    -21.0274E-03     12.7350E-03    -21.6543E-03     42.2948E-03    -20.9356E-03     12.7694E-03
            2094     2.64451E-03     19.6232E-03    -24.3419E+06    -104.167E+06    -20.3711E+06     2.57210E+06    -21.2560E-03     42.1267E-03    -20.8707E-03     9.42708E-03    -21.1976E-03     41.6711E-03    -20.7862E-03     9.45600E-03
            2095     1.76319E-03     19.6146E-03    -25.7358E+06    -103.824E+06    -23.6099E+06     1.59552E+06    -20.9192E-03     41.6668E-03    -20.7476E-03     6.31957E-03    -20.8633E-03     41.2194E-03    -20.6777E-03     6.33748E-03
            2096     881.582E-06     19.6093E-03    -26.5228E+06    -103.257E+06    -26.0889E+06     679.269E+03    -20.7252E-03     41.3841E-03    -20.6589E-03     3.42831E-03    -20.6702E-03     40.9443E-03    -20.6012E-03     3.43566E-03
            2097     16.6618E-03     19.4277E-03    -3.79389E+06     136.195E+06     75.3362E+06     950.294E+03    -35.2183E-03     61.3021E-03    -26.0837E-03     82.2265E-03    -36.4464E-03     62.7818E-03    -25.8990E-03     82.3064E-03
            2098     15.7927E-03     19.2945E-03    -6.74876E+06     120.977E+06     32.6923E+06     582.123E+03    -35.8658E-03     61.3397E-03    -25.4739E-03     122.012E-03    -37.2960E-03     63.0806E-03    -25.4760E-03     121.887E-03
            2099     14.9216E-03     19.1910E-03    -9.83250E+06     72.7851E+06    -8.68365E+06     158.972E+03    -34.2405E-03     59.1479E-03    -24.9073E-03     95.0474E-03    -34.9221E-03     60.0782E-03    -25.0420E-03     94.7730E-03
            2100     14.0502E-03     19.1088E-03    -9.80700E+06     19.6827E+06    -12.3679E+06     1.07465E+06    -32.7065E-03     57.2407E-03    -24.5342E-03     76.6653E-03    -33.0178E-03     57.6230E-03    -24.6103E-03     76.4548E-03
            2101     13.1775E-03     19.0395E-03    -8.55629E+06    -16.1507E+06    -7.18205E+06     1.36549E+06    -31.4765E-03     55.6632E-03    -24.1867E-03     64.8300E-03    -31.6271E-03     55.7469E-03    -24.1868E-03     64.6745E-03
            2102     12.3042E-03     18.9795E-03    -7.97472E+06    -35.3345E+06    -4.26175E+06     1.60518E+06    -30.3854E-03     54.1954E-03    -23.8100E-03     56.8310E-03    -30.4544E-03     54.1231E-03    -23.7685E-03     56.7194E-03
            2103     11.4300E-03     18.9251E-03    -8.31735E+06    -48.4451E+06    -3.27115E+06     2.00684E+06    -29.3401E-03     52.7623E-03    -23.4222E-03     50.7940E-03    -29.3618E-03     52.5920E-03    -23.3562E-03     50.7194E-03
            2104     10.5551E-03     18.8763E-03    -9.39396E+06    -57.6110E+06    -1.45321E+06     1.94303E+06    -28.3115E-03     51.3528E-03    -23.0413E-03     45.3618E-03    -28.3084E-03     51.1161E-03    -22.9514E-03     45.3110E-03
            2105     9.67927E-03     18.8323E-03    -10.4461E+06    -64.1359E+06    -554.661E+03     2.29097E+06    -27.2967E-03     49.9581E-03    -22.6613E-03     40.2655E-03    -27.2782E-03     49.6764E-03    -22.5560E-03     40.2381E-03
            2106     8.80272E-03     18.7932E-03    -11.7816E+06    -70.6562E+06    -1.25160E+06     2.75242E+06    -26.2869E-03     48.5735E-03    -22.2866E-03     35.4371E-03    -26.2563E-03     48.2540E-03    -22.1734E-03     35.4302E-03
            2107     7.92533E-03     18.7584E-03    -13.4619E+06    -76.8536E+06    -2.54671E+06     3.16599E+06    -25.2872E-03     47.2140E-03    -21.9268E-03     30.8462E-03    -25.2488E-03     46.8624E-03    -21.8086E-03     30.8558E-03
            2108     7.04715E-03     18.7282E-03    -15.0820E+06    -82.7050E+06    -4.28837E+06     3.45143E+06    -24.3353E-03     45.9220E-03    -21.5867E-03     26.5209E-03    -24.2905E-03     45.5425E-03    -21.4664E-03     26.5426E-03
            2109     6.16819E-03     18.7020E-03    -16.7565E+06    -87.3854E+06    -6.69745E+06     3.72477E+06    -23.4418E-03     44.7099E-03    -21.2680E-03     22.4690E-03    -23.3928E-03     44.3106E-03    -21.1505E-03     22.5005E-03
            2110     5.28853E-03     18.6798E-03    -18.5363E+06    -91.4743E+06    -9.61214E+06     4.07172E+06    -22.6192E-03     43.5960E-03    -20.9768E-03     18.6679E-03    -22.5675E-03     43.1816E-03    -20.8653E-03     18.7087E-03
            2111     4.40823E-03     18.6614E-03    -20.3839E+06    -95.0258E+06    -13.4077E+06     3.94009E+06    -21.8817E-03     42.5976E-03    -20.7159E-03     15.1108E-03    -21.8277E-03     42.1728E-03    -20.6156E-03     15.1533E-03
            2112     3.52730E-03     18.6465E-03    -22.1960E+06    -99.2213E+06    -16.9624E+06     3.50599E+06    -21.2489E-03     41.7466E-03    -20.4977E-03     11.7999E-03    -21.1921E-03     41.3079E-03    -20.4064E-03     11.8394E-03
            2113     2.64589E-03     18.6351E-03    -23.7693E+06    -102.046E+06    -20.3628E+06     2.94680E+06    -20.7475E-03     41.0693E-03    -20.3218E-03     8.70289E-03    -20.6892E-03     40.6234E-03    -20.2412E-03     8.73702E-03
            2114     1.76415E-03     18.6270E-03    -25.0147E+06    -101.596E+06    -23.7137E+06     1.82447E+06    -20.3804E-03     40.5666E-03    -20.1862E-03     5.81321E-03    -20.3240E-03     40.1295E-03    -20.1212E-03     5.83432E-03
            2115     882.176E-06     18.6220E-03    -25.7620E+06    -101.650E+06    -25.5353E+06     803.247E+03    -20.1678E-03     40.2608E-03    -20.0930E-03     3.15762E-03    -20.1122E-03     39.8272E-03    -20.0359E-03     3.16668E-03
            2116     16.6641E-03     18.4203E-03    -4.40265E+06     135.087E+06     74.6813E+06     340.951E+03    -36.2024E-03     62.2513E-03    -26.0489E-03     80.6664E-03    -37.4149E-03     63.7112E-03    -25.8650E-03     80.7030E-03
            2117     15.7938E-03     18.2881E-03    -7.46736E+06     120.563E+06     33.3577E+06     720.582E+03    -36.7280E-03     62.1164E-03    -25.3885E-03     120.298E-03    -38.1417E-03     63.8350E-03    -25.3857E-03     120.144E-03
            2118     14.9240E-03     18.1864E-03    -7.63444E+06     73.2771E+06    -6.76225E+06     1.27581E+06    -34.8611E-03     59.6304E-03    -24.7693E-03     92.9172E-03    -35.5198E-03     60.5419E-03    -24.8983E-03     92.6469E-03
            2119     14.0527E-03     18.1060E-03    -7.84200E+06     19.4813E+06    -12.6108E+06     741.014E+03    -33.1131E-03     57.4550E-03    -24.3419E-03     74.8803E-03    -33.4052E-03     57.8251E-03    -24.4218E-03     74.6642E-03
            2120     13.1805E-03     18.0383E-03    -8.26402E+06    -16.0489E+06    -7.95369E+06     975.509E+03    -31.7108E-03     55.6677E-03    -23.9570E-03     63.2978E-03    -31.8536E-03     55.7474E-03    -23.9615E-03     63.1386E-03
            2121     12.3073E-03     17.9794E-03    -8.76733E+06    -35.9145E+06    -5.44608E+06     1.50698E+06    -30.5410E-03     54.0889E-03    -23.5479E-03     55.3102E-03    -30.6078E-03     54.0129E-03    -23.5104E-03     55.1990E-03
            2122     11.4334E-03     17.9267E-03    -9.03328E+06    -48.4482E+06    -4.15183E+06     1.98441E+06    -29.4530E-03     52.5804E-03    -23.1274E-03     49.2712E-03    -29.4743E-03     52.4098E-03    -23.0648E-03     49.1984E-03
            2123     10.5584E-03     17.8791E-03    -9.32727E+06    -57.4439E+06    -1.95002E+06     2.32524E+06    -28.3745E-03     51.0870E-03    -22.7125E-03     43.7695E-03    -28.3685E-03     50.8497E-03    -22.6254E-03     43.7257E-03
            2124     9.68275E-03     17.8366E-03    -10.3531E+06    -64.4671E+06    -1.14662E+06     2.57256E+06    -27.2983E-03     49.5956E-03    -22.2973E-03     38.6062E-03    -27.2764E-03     49.3115E-03    -22.1946E-03     38.5843E-03
            2125     8.80616E-03     17.7986E-03    -11.5250E+06    -70.8831E+06    -1.61498E+06     3.20690E+06    -26.2225E-03     48.1100E-03    -21.8875E-03     33.7169E-03    -26.1887E-03     47.7883E-03    -21.7761E-03     33.7177E-03
            2126     7.92874E-03     17.7654E-03    -12.7991E+06    -76.6944E+06    -2.70073E+06     3.63142E+06    -25.1563E-03     46.6478E-03    -21.4915E-03     29.1312E-03    -25.1138E-03     46.2954E-03    -21.3752E-03     29.1484E-03
            2127     7.05041E-03     17.7363E-03    -14.3969E+06    -82.4282E+06    -4.27304E+06     3.88312E+06    -24.1265E-03     45.2430E-03    -21.1165E-03     24.8570E-03    -24.0781E-03     44.8633E-03    -20.9974E-03     24.8857E-03
            2128     6.17130E-03     17.7114E-03    -16.2193E+06    -87.1485E+06    -6.56303E+06     4.23914E+06    -23.1482E-03     43.9133E-03    -20.7651E-03     20.8844E-03    -23.0966E-03     43.5139E-03    -20.6481E-03     20.9237E-03
            2129     5.29133E-03     17.6903E-03    -18.0562E+06    -90.8373E+06    -9.73066E+06     4.45926E+06    -22.2458E-03     42.6875E-03    -20.4417E-03     17.2177E-03    -22.1921E-03     42.2755E-03    -20.3325E-03     17.2643E-03
            2130     4.41067E-03     17.6728E-03    -19.7317E+06    -93.6368E+06    -13.3051E+06     4.41097E+06    -21.4474E-03     41.6002E-03    -20.1527E-03     13.8409E-03    -21.3921E-03     41.1810E-03    -20.0549E-03     13.8902E-03
            2131     3.52940E-03     17.6589E-03    -21.4590E+06    -97.7099E+06    -16.6061E+06     4.09602E+06    -20.7607E-03     40.6695E-03    -19.9088E-03     10.7243E-03    -20.7028E-03     40.2367E-03    -19.8190E-03     10.7719E-03
            2132     2.64755E-03     17.6482E-03    -23.1287E+06    -99.7519E+06    -20.1909E+06     3.38924E+06    -20.1923E-03     39.9002E-03    -19.7079E-03     7.86071E-03    -20.1343E-03     39.4646E-03    -19.6307E-03     7.90094E-03
            2133     1.76526E-03     17.6405E-03    -24.2467E+06    -98.9854E+06    -23.2805E+06     2.21975E+06    -19.7796E-03     39.3353E-03    -19.5557E-03     5.24153E-03    -19.7237E-03     38.9095E-03    -19.4934E-03     5.26800E-03
            2134     882.694E-06     17.6359E-03    -24.8625E+06    -99.7221E+06    -24.6337E+06     994.345E+03    -19.5032E-03     38.9909E-03    -19.4876E-03     2.86186E-03    -19.4472E-03     38.5643E-03    -19.4301E-03     2.87353E-03
            2135     16.6636E-03     17.4123E-03    -3.89947E+06     135.022E+06     74.5595E+06     869.412E+03    -37.3956E-03     63.4046E-03    -26.0090E-03     79.3431E-03    -38.5879E-03     64.8462E-03    -25.8263E-03     79.3472E-03
            2136     15.7956E-03     17.2806E-03    -7.15300E+06     120.778E+06     34.0950E+06     721.824E+03    -37.5962E-03     62.8867E-03    -25.2905E-03     118.269E-03    -38.9828E-03     64.5779E-03    -25.2848E-03     118.082E-03
            2137     14.9262E-03     17.1813E-03    -8.73408E+06     73.0825E+06    -7.74382E+06     585.224E+03    -35.3050E-03     59.9210E-03    -24.6159E-03     90.5696E-03    -35.9475E-03     60.8145E-03    -24.7480E-03     90.2830E-03
            2138     14.0555E-03     17.1030E-03    -8.56185E+06     19.8171E+06    -14.3999E+06     1.52431E+06    -33.4631E-03     57.6073E-03    -24.1442E-03     72.9815E-03    -33.7464E-03     57.9724E-03    -24.2325E-03     72.7753E-03
            2139     13.1835E-03     17.0369E-03    -9.06919E+06    -16.0581E+06    -9.14797E+06     1.43188E+06    -31.9998E-03     55.7251E-03    -23.7253E-03     61.6207E-03    -32.1389E-03     55.8016E-03    -23.7346E-03     61.4685E-03
            2140     12.3106E-03     16.9797E-03    -9.22962E+06    -36.1674E+06    -6.49012E+06     1.51843E+06    -30.7900E-03     54.0683E-03    -23.2783E-03     53.6431E-03    -30.8530E-03     53.9890E-03    -23.2449E-03     53.5339E-03
            2141     11.4367E-03     16.9282E-03    -9.45560E+06    -48.7621E+06    -5.02989E+06     1.85518E+06    -29.6735E-03     52.4905E-03    -22.8169E-03     47.4212E-03    -29.6921E-03     52.3170E-03    -22.7577E-03     47.3486E-03
            2142     10.5621E-03     16.8822E-03    -10.0021E+06    -57.5325E+06    -2.53969E+06     2.26564E+06    -28.5257E-03     50.8846E-03    -22.3589E-03     41.8079E-03    -28.5198E-03     50.6463E-03    -22.2736E-03     41.7654E-03
            2143     9.68650E-03     16.8410E-03    -10.5927E+06    -64.6892E+06    -1.41856E+06     2.79069E+06    -27.3658E-03     49.2650E-03    -21.8992E-03     36.5374E-03    -27.3426E-03     48.9787E-03    -21.7971E-03     36.5205E-03
            2144     8.81002E-03     16.8047E-03    -11.3935E+06    -71.1140E+06    -1.80714E+06     3.18453E+06    -26.1941E-03     47.6380E-03    -21.4439E-03     31.6013E-03    -26.1576E-03     47.3139E-03    -21.3333E-03     31.6039E-03
            2145     7.93251E-03     16.7727E-03    -12.2666E+06    -76.7376E+06    -2.65878E+06     3.79151E+06    -25.0305E-03     46.0347E-03    -21.0041E-03     27.0291E-03    -24.9843E-03     45.6803E-03    -20.8884E-03     27.0502E-03
            2146     7.05412E-03     16.7452E-03    -13.6202E+06    -82.3111E+06    -4.07155E+06     4.50048E+06    -23.8944E-03     44.4822E-03    -20.5878E-03     22.8431E-03    -23.8418E-03     44.1009E-03    -20.4691E-03     22.8813E-03
            2147     6.17473E-03     16.7215E-03    -15.4859E+06    -86.6990E+06    -6.19541E+06     4.91563E+06    -22.8142E-03     43.0133E-03    -20.1991E-03     19.0235E-03    -22.7597E-03     42.6141E-03    -20.0819E-03     19.0729E-03
            2148     5.29452E-03     16.7017E-03    -17.4044E+06    -89.9190E+06    -9.61114E+06     4.99632E+06    -21.8186E-03     41.6592E-03    -19.8406E-03     15.5567E-03    -21.7629E-03     41.2504E-03    -19.7330E-03     15.6113E-03
            2149     4.41345E-03     16.6854E-03    -19.1335E+06    -92.3810E+06    -13.6644E+06     4.88020E+06    -20.9360E-03     40.4568E-03    -19.5209E-03     12.4223E-03    -20.8788E-03     40.0434E-03    -19.4275E-03     12.4784E-03
            2150     3.53167E-03     16.6723E-03    -20.5724E+06    -95.9302E+06    -16.3114E+06     4.56607E+06    -20.1973E-03     39.4522E-03    -19.2549E-03     9.57146E-03    -20.1379E-03     39.0265E-03    -19.1675E-03     9.62568E-03
            2151     2.64936E-03     16.6624E-03    -21.7570E+06    -97.1519E+06    -18.7685E+06     3.74453E+06    -19.5918E-03     38.6248E-03    -19.0330E-03     6.98160E-03    -19.5328E-03     38.1980E-03    -18.9544E-03     7.02679E-03
            2152     1.76651E-03     16.6554E-03    -22.7128E+06    -96.2412E+06    -21.5991E+06     2.52722E+06    -19.1279E-03     37.9838E-03    -18.8558E-03     4.61809E-03    -19.0707E-03     37.5669E-03    -18.7913E-03     4.64877E-03
            2153     883.355E-06     16.6510E-03    -23.3599E+06    -97.2565E+06    -23.2595E+06     1.30520E+06    -18.8346E-03     37.5635E-03    -18.7289E-03     2.39169E-03    -18.7766E-03     37.1450E-03    -18.6703E-03     2.40756E-03
            2154     16.6648E-03     16.4016E-03    -4.46349E+06     133.975E+06     74.3585E+06     87.8893E+03    -38.4187E-03     64.3990E-03    -25.9803E-03     78.4859E-03    -39.5936E-03     65.8181E-03    -25.7963E-03     78.4414E-03
            2155     15.7977E-03     16.2726E-03    -7.38332E+06     120.864E+06     36.5276E+06     1.36829E+06    -38.5454E-03     63.7586E-03    -25.2132E-03     116.157E-03    -39.9057E-03     65.4159E-03    -25.1951E-03     115.942E-03
            2156     14.9285E-03     16.1763E-03    -9.67253E+06     73.3744E+06    -5.62705E+06     1.76837E+06    -35.8953E-03     60.3776E-03    -24.4823E-03     88.2371E-03    -36.5236E-03     61.2485E-03    -24.6028E-03     87.9568E-03
            2157     14.0580E-03     16.0995E-03    -10.3611E+06     19.6885E+06    -13.8512E+06     1.09779E+06    -33.9099E-03     57.8681E-03    -23.9582E-03     70.8740E-03    -34.1910E-03     58.2225E-03    -24.0409E-03     70.6618E-03
            2158     13.1864E-03     16.0356E-03    -9.41451E+06    -15.7612E+06    -8.37690E+06     1.39574E+06    -32.4501E-03     55.9407E-03    -23.4906E-03     59.5245E-03    -32.5857E-03     56.0113E-03    -23.4960E-03     59.3724E-03
            2159     12.3139E-03     15.9795E-03    -9.42616E+06    -36.2708E+06    -6.25629E+06     1.43427E+06    -31.2181E-03     54.2069E-03    -22.9888E-03     51.4603E-03    -31.2776E-03     54.1224E-03    -22.9538E-03     51.3513E-03
            2160     11.4407E-03     15.9299E-03    -9.50857E+06    -48.9004E+06    -4.53113E+06     1.61092E+06    -30.0105E-03     52.4832E-03    -22.4727E-03     45.0500E-03    -30.0263E-03     52.3048E-03    -22.4106E-03     44.9762E-03
            2161     10.5662E-03     15.8853E-03    -9.58479E+06    -58.0375E+06    -2.22039E+06     2.11770E+06    -28.7696E-03     50.7259E-03    -21.9563E-03     39.3419E-03    -28.7586E-03     50.4813E-03    -21.8693E-03     39.2999E-03
            2162     9.69096E-03     15.8459E-03    -10.0921E+06    -64.7977E+06    -1.03351E+06     2.61965E+06    -27.4904E-03     48.9290E-03    -21.4386E-03     33.9689E-03    -27.4629E-03     48.6388E-03    -21.3352E-03     33.9522E-03
            2163     8.81451E-03     15.8111E-03    -10.7327E+06    -71.2371E+06    -1.64108E+06     3.04261E+06    -26.1803E-03     47.1066E-03    -20.9263E-03     29.0177E-03    -26.1390E-03     46.7791E-03    -20.8156E-03     29.0208E-03
            2164     7.93705E-03     15.7809E-03    -11.6118E+06    -77.2485E+06    -2.49346E+06     3.76824E+06    -24.8655E-03     45.3013E-03    -20.4358E-03     24.5068E-03    -24.8144E-03     44.9421E-03    -20.3195E-03     24.5297E-03
            2165     7.05841E-03     15.7548E-03    -12.6477E+06    -82.5757E+06    -3.71905E+06     4.82433E+06    -23.5850E-03     43.5600E-03    -19.9749E-03     20.4697E-03    -23.5270E-03     43.1747E-03    -19.8554E-03     20.5139E-03
            2166     6.17879E-03     15.7327E-03    -13.9436E+06    -86.0387E+06    -5.41628E+06     5.48735E+06    -22.3777E-03     41.9269E-03    -19.5493E-03     16.8821E-03    -22.3170E-03     41.5271E-03    -19.4314E-03     16.9402E-03
            2167     5.29809E-03     15.7142E-03    -15.4568E+06    -88.7728E+06    -8.13761E+06     5.51421E+06    -21.2815E-03     40.4453E-03    -19.1638E-03     13.6981E-03    -21.2196E-03     40.0369E-03    -19.0533E-03     13.7604E-03
            2168     4.41657E-03     15.6991E-03    -17.0325E+06    -91.1669E+06    -11.5861E+06     5.49945E+06    -20.3238E-03     39.1483E-03    -18.8246E-03     10.8839E-03    -20.2607E-03     38.7348E-03    -18.7256E-03     10.9488E-03
            2169     3.53424E-03     15.6871E-03    -18.7496E+06    -93.6999E+06    -14.5005E+06     5.07612E+06    -19.5281E-03     38.0684E-03    -18.5403E-03     8.34958E-03    -19.4654E-03     37.6485E-03    -18.4497E-03     8.41091E-03
            2170     2.65126E-03     15.6780E-03    -20.2115E+06    -94.3400E+06    -17.4408E+06     3.90352E+06    -18.9063E-03     37.2073E-03    -18.3010E-03     6.06375E-03    -18.8455E-03     36.7904E-03    -18.2221E-03     6.11134E-03
            2171     1.76790E-03     15.6716E-03    -21.1032E+06    -93.4824E+06    -20.0735E+06     2.75780E+06    -18.4191E-03     36.5253E-03    -18.1062E-03     3.98102E-03    -18.3600E-03     36.1177E-03    -18.0404E-03     4.01490E-03
            2172     884.098E-06     15.6677E-03    -21.6510E+06    -94.3122E+06    -21.4009E+06     1.69648E+06    -18.1390E-03     36.0445E-03    -17.9055E-03     2.07344E-03    -18.0794E-03     35.6356E-03    -17.8444E-03     2.09448E-03
            2173     16.6645E-03     15.3905E-03    -4.13533E+06     133.724E+06     74.1095E+06     156.152E+03    -39.2625E-03     65.2200E-03    -25.9574E-03     77.9286E-03    -40.4095E-03     66.6121E-03    -25.7748E-03     77.8476E-03
            2174     15.7978E-03     15.2630E-03    -7.87151E+06     117.842E+06     31.8771E+06     797.542E+03    -39.6288E-03     64.7436E-03    -25.1148E-03     113.117E-03    -40.9357E-03     66.3486E-03    -25.1149E-03     112.854E-03
            2175     14.9305E-03     15.1702E-03    -7.66019E+06     74.2427E+06    -8.33104E+06     2.39773E+06    -36.7727E-03     61.0885E-03    -24.3159E-03     84.7904E-03    -37.3607E-03     61.9373E-03    -24.4541E-03     84.5070E-03
            2176     14.0610E-03     15.0960E-03    -7.50575E+06     21.1184E+06    -13.2255E+06     1.65519E+06    -34.6112E-03     58.3535E-03    -23.7423E-03     68.1712E-03    -34.8679E-03     58.6970E-03    -23.8282E-03     67.9643E-03
            2177     13.1901E-03     15.0336E-03    -8.13606E+06    -16.2398E+06    -8.18849E+06     1.05056E+06    -33.1060E-03     56.3199E-03    -23.2139E-03     56.9017E-03    -33.2270E-03     56.3783E-03    -23.2195E-03     56.7450E-03
            2178     12.3183E-03     14.9794E-03    -7.78459E+06    -35.7164E+06    -5.52669E+06     1.29341E+06    -31.7803E-03     54.4256E-03    -22.6454E-03     48.7794E-03    -31.8279E-03     54.3350E-03    -22.6099E-03     48.6702E-03
            2179     11.4453E-03     14.9314E-03    -7.79628E+06    -49.4886E+06    -3.93751E+06     1.43045E+06    -30.4714E-03     52.5317E-03    -22.0602E-03     42.2135E-03    -30.4745E-03     52.3429E-03    -21.9969E-03     42.1398E-03
            2180     10.5714E-03     14.8887E-03    -8.32522E+06    -58.4157E+06    -1.98605E+06     2.13012E+06    -29.0920E-03     50.5631E-03    -21.4711E-03     36.3604E-03    -29.0714E-03     50.3114E-03    -21.3843E-03     36.3213E-03
            2181     9.69626E-03     14.8509E-03    -9.07278E+06    -65.0060E+06    -788.259E+03     2.63650E+06    -27.6336E-03     48.5177E-03    -20.8841E-03     30.8991E-03    -27.5989E-03     48.2224E-03    -20.7806E-03     30.8854E-03
            2182     8.82000E-03     14.8181E-03    -10.0820E+06    -71.3198E+06    -1.24850E+06     3.07875E+06    -26.1206E-03     46.4296E-03    -20.3090E-03     25.9664E-03    -26.0750E-03     46.0987E-03    -20.1972E-03     25.9724E-03
            2183     7.94236E-03     14.7897E-03    -11.1297E+06    -77.8983E+06    -2.16897E+06     3.81139E+06    -24.6092E-03     44.3733E-03    -19.7640E-03     21.6063E-03    -24.5542E-03     44.0085E-03    -19.6458E-03     21.6320E-03
            2184     7.06353E-03     14.7655E-03    -12.2012E+06    -82.9824E+06    -3.25321E+06     4.79575E+06    -23.1602E-03     42.4186E-03    -19.2583E-03     17.7918E-03    -23.0994E-03     42.0293E-03    -19.1366E-03     17.8374E-03
            2185     6.18340E-03     14.7450E-03    -13.0608E+06    -85.3903E+06    -5.18916E+06     5.39068E+06    -21.8109E-03     40.6053E-03    -18.7944E-03     14.4784E-03    -21.7467E-03     40.2067E-03    -18.6776E-03     14.5367E-03
            2186     5.30222E-03     14.7280E-03    -13.8686E+06    -87.7758E+06    -7.20085E+06     5.65806E+06    -20.6069E-03     38.9936E-03    -18.3867E-03     11.6008E-03    -20.5396E-03     38.5863E-03    -18.2753E-03     11.6661E-03
            2187     4.41999E-03     14.7142E-03    -15.0311E+06    -90.0572E+06    -9.16064E+06     5.92281E+06    -19.5779E-03     37.6172E-03    -18.0393E-03     9.13179E-03    -19.5098E-03     37.2026E-03    -17.9328E-03     9.20288E-03
            2188     3.53700E-03     14.7033E-03    -16.2295E+06    -90.9374E+06    -11.9145E+06     5.50669E+06    -18.7388E-03     36.4847E-03    -17.7459E-03     6.97691E-03    -18.6712E-03     36.0712E-03    -17.6501E-03     7.04434E-03
            2189     2.65339E-03     14.6950E-03    -17.4048E+06    -91.4290E+06    -15.0232E+06     4.28296E+06    -18.0863E-03     35.5942E-03    -17.5079E-03     5.06800E-03    -18.0192E-03     35.1842E-03    -17.4252E-03     5.12086E-03
            2190     1.76921E-03     14.6892E-03    -18.4994E+06    -90.7014E+06    -17.5823E+06     3.14304E+06    -17.6035E-03     34.9307E-03    -17.3273E-03     3.29350E-03    -17.5390E-03     34.5296E-03    -17.2568E-03     3.33259E-03
            2191     884.683E-06     14.6859E-03    -19.2810E+06    -90.7467E+06    -19.1951E+06     1.99076E+06    -17.3151E-03     34.5007E-03    -17.1856E-03     1.72979E-03    -17.2520E-03     34.1030E-03    -17.1220E-03     1.75474E-03
            2192     16.6647E-03     14.3779E-03    -3.44967E+06     133.850E+06     74.9595E+06     712.551E+03    -40.4617E-03     66.3686E-03    -25.9069E-03     76.2573E-03    -41.5700E-03     67.7225E-03    -25.7212E-03     76.1404E-03
            2193     15.8005E-03     14.2523E-03    -7.02393E+06     116.268E+06     29.7942E+06     696.438E+03    -40.5405E-03     65.5242E-03    -24.9837E-03     108.746E-03    -41.7781E-03     67.0635E-03    -24.9932E-03     108.445E-03
            2194     14.9334E-03     14.1637E-03    -8.74985E+06     73.4581E+06    -11.3516E+06     1.57935E+06    -37.5684E-03     61.6835E-03    -24.1151E-03     80.6169E-03    -38.1251E-03     62.5030E-03    -24.2657E-03     80.3139E-03
            2195     14.0644E-03     14.0915E-03    -8.26041E+06     23.1755E+06    -13.8695E+06     1.91446E+06    -35.4502E-03     58.9286E-03    -23.4784E-03     65.0386E-03    -35.6987E-03     59.2704E-03    -23.5694E-03     64.8325E-03
            2196     13.1945E-03     14.0313E-03    -7.31858E+06    -15.8606E+06    -10.0093E+06     919.735E+03    -33.9096E-03     56.7765E-03    -22.8669E-03     53.8935E-03    -34.0158E-03     56.8295E-03    -22.8833E-03     53.7353E-03
            2197     12.3232E-03     13.9789E-03    -7.17940E+06    -36.1067E+06    -6.65083E+06     938.609E+03    -32.4922E-03     54.7127E-03    -22.2205E-03     45.6255E-03    -32.5286E-03     54.6148E-03    -22.1910E-03     45.5133E-03
            2198     11.4511E-03     13.9328E-03    -7.48674E+06    -49.9279E+06    -4.10351E+06     1.83161E+06    -31.0329E-03     52.5874E-03    -21.5546E-03     38.8016E-03    -31.0291E-03     52.3919E-03    -21.4918E-03     38.7355E-03
            2199     10.5775E-03     13.8921E-03    -8.22124E+06    -58.8243E+06    -1.94342E+06     2.31435E+06    -29.4372E-03     50.3189E-03    -20.8818E-03     32.8166E-03    -29.4122E-03     50.0618E-03    -20.7943E-03     32.7828E-03
            2200     9.70282E-03     13.8565E-03    -9.00288E+06    -65.0710E+06    -668.781E+03     2.76594E+06    -27.7253E-03     47.9414E-03    -20.2161E-03     27.3332E-03    -27.6880E-03     47.6433E-03    -20.1121E-03     27.3242E-03
            2201     8.82649E-03     13.8258E-03    -9.86974E+06    -71.5237E+06    -629.292E+03     3.23026E+06    -25.9664E-03     45.5413E-03    -19.5749E-03     22.4877E-03    -25.9187E-03     45.2066E-03    -19.4600E-03     22.4985E-03
            2202     7.94872E-03     13.7996E-03    -11.0640E+06    -78.4312E+06    -1.39549E+06     4.00405E+06    -24.2445E-03     43.2184E-03    -18.9740E-03     18.3223E-03    -24.1884E-03     42.8488E-03    -18.8512E-03     18.3528E-03
            2203     7.06942E-03     13.7773E-03    -12.1400E+06    -82.8709E+06    -2.64526E+06     4.52966E+06    -22.6192E-03     41.0390E-03    -18.4197E-03     14.7655E-03    -22.5584E-03     40.6486E-03    -18.2952E-03     14.8095E-03
            2204     6.18885E-03     13.7588E-03    -12.8495E+06    -84.9759E+06    -4.39757E+06     4.80713E+06    -21.1316E-03     39.0511E-03    -17.9195E-03     11.7472E-03    -21.0677E-03     38.6527E-03    -17.7997E-03     11.7994E-03
            2205     5.30696E-03     13.7434E-03    -13.6436E+06    -87.3410E+06    -6.60594E+06     5.47423E+06    -19.8201E-03     37.3037E-03    -17.4836E-03     9.19738E-03    -19.7529E-03     36.8972E-03    -17.3702E-03     9.26132E-03
            2206     4.42407E-03     13.7310E-03    -14.2978E+06    -88.5175E+06    -8.58917E+06     5.58679E+06    -18.7036E-03     35.8201E-03    -17.1165E-03     7.08696E-03    -18.6347E-03     35.4111E-03    -17.0104E-03     7.15450E-03
            2207     3.54025E-03     13.7211E-03    -14.4504E+06    -88.4975E+06    -10.4330E+06     4.96099E+06    -17.7992E-03     34.6191E-03    -16.8199E-03     5.33526E-03    -17.7283E-03     34.2129E-03    -16.7228E-03     5.39622E-03
            2208     2.65572E-03     13.7137E-03    -14.4968E+06    -88.6195E+06    -12.1332E+06     4.21244E+06    -17.1206E-03     33.7167E-03    -16.5960E-03     3.81585E-03    -17.0472E-03     33.3123E-03    -16.5072E-03     3.86821E-03
            2209     1.77072E-03     13.7085E-03    -14.6147E+06    -87.7200E+06    -13.4775E+06     3.16786E+06    -16.6615E-03     33.1027E-03    -16.4412E-03     2.43738E-03    -16.5879E-03     32.7048E-03    -16.3602E-03     2.47706E-03
            2210     885.464E-06     13.7056E-03    -14.6521E+06    -86.9306E+06    -14.3262E+06     1.97488E+06    -16.4049E-03     32.7556E-03    -16.3507E-03     1.19130E-03    -16.3313E-03     32.3631E-03    -16.2750E-03     1.21619E-03
            2211     16.6681E-03     13.3645E-03    -3.57731E+06     133.355E+06     75.9076E+06     759.152E+03    -42.0264E-03     67.8676E-03    -25.8412E-03     75.7817E-03    -43.1089E-03     69.1907E-03    -25.6499E-03     75.6187E-03
            2212     15.8028E-03     13.2412E-03    -7.20676E+06     115.803E+06     32.0528E+06     1.54314E+06    -41.6638E-03     66.5072E-03    -24.8433E-03     105.659E-03    -42.8552E-03     67.9914E-03    -24.8405E-03     105.328E-03
            2213     14.9368E-03     13.1563E-03    -8.97116E+06     73.2022E+06    -9.93767E+06     1.74460E+06    -38.6605E-03     62.5501E-03    -23.8896E-03     76.6844E-03    -39.1908E-03     63.3374E-03    -24.0324E-03     76.3703E-03
            2214     14.0690E-03     13.0866E-03    -8.63686E+06     24.3552E+06    -13.2969E+06     1.18457E+06    -36.4986E-03     59.6571E-03    -23.1585E-03     61.5468E-03    -36.7367E-03     59.9898E-03    -23.2478E-03     61.3278E-03
            2215     13.1998E-03     13.0284E-03    -8.46324E+06    -15.0933E+06    -10.4729E+06     876.188E+03    -34.8925E-03     57.3408E-03    -22.4483E-03     50.3070E-03    -34.9958E-03     57.3910E-03    -22.4665E-03     50.1477E-03
            2216     12.3297E-03     12.9780E-03    -8.83759E+06    -36.8906E+06    -7.41552E+06     1.17854E+06    -33.3242E-03     55.0268E-03    -21.7027E-03     41.8186E-03    -33.3603E-03     54.9223E-03    -21.6734E-03     41.7110E-03
            2217     11.4581E-03     12.9342E-03    -9.18035E+06    -50.3695E+06    -4.47986E+06     1.76728E+06    -31.5978E-03     52.5365E-03    -20.9387E-03     34.8599E-03    -31.5967E-03     52.3372E-03    -20.8747E-03     34.7960E-03
            2218     10.5852E-03     12.8958E-03    -9.27498E+06    -58.9186E+06    -2.06725E+06     2.21373E+06    -29.7093E-03     49.8828E-03    -20.1735E-03     28.8313E-03    -29.6860E-03     49.6237E-03    -20.0850E-03     28.7996E-03
            2219     9.71052E-03     12.8628E-03    -9.59943E+06    -65.2205E+06    -587.540E+03     2.51758E+06    -27.6998E-03     47.1271E-03    -19.4272E-03     23.4269E-03    -27.6632E-03     46.8267E-03    -19.3217E-03     23.4180E-03
            2220     8.83419E-03     12.8346E-03    -10.4284E+06    -72.0874E+06    -107.045E+03     3.37534E+06    -25.6952E-03     44.4149E-03    -18.7197E-03     18.7731E-03    -25.6488E-03     44.0760E-03    -18.6006E-03     18.7886E-03
            2221     7.95608E-03     12.8107E-03    -11.6180E+06    -78.4991E+06    -246.331E+03     4.07939E+06    -23.7711E-03     41.8336E-03    -18.0625E-03     14.8640E-03    -23.7184E-03     41.4619E-03    -17.9331E-03     14.8977E-03
            2222     7.07642E-03     12.7907E-03    -12.6427E+06    -82.1414E+06    -1.98768E+06     4.03544E+06    -21.9710E-03     39.4269E-03    -17.4559E-03     11.6308E-03    -21.9141E-03     39.0394E-03    -17.3284E-03     11.6702E-03
            2223     6.19515E-03     12.7741E-03    -13.5822E+06    -84.9331E+06    -3.74572E+06     4.26049E+06    -20.3474E-03     37.2650E-03    -16.9176E-03     8.96540E-03    -20.2878E-03     36.8666E-03    -16.7935E-03     9.01185E-03
            2224     5.31262E-03     12.7606E-03    -14.1797E+06    -86.8034E+06    -5.42944E+06     4.60638E+06    -18.9285E-03     35.3804E-03    -16.4519E-03     6.80512E-03    -18.8663E-03     34.9754E-03    -16.3326E-03     6.85876E-03
            2225     4.42887E-03     12.7496E-03    -14.1374E+06    -86.6857E+06    -7.39824E+06     4.26216E+06    -17.7236E-03     33.7826E-03    -16.0590E-03     5.09689E-03    -17.6582E-03     33.3807E-03    -15.9498E-03     5.14795E-03
            2226     3.54417E-03     12.7410E-03    -13.8754E+06    -86.6251E+06    -9.19025E+06     3.59605E+06    -16.7531E-03     32.5012E-03    -15.7481E-03     3.74418E-03    -16.6837E-03     32.1016E-03    -15.6483E-03     3.78794E-03
            2227     2.65871E-03     12.7344E-03    -13.3033E+06    -86.2824E+06    -10.4004E+06     2.82111E+06    -16.0375E-03     31.5583E-03    -15.5208E-03     2.62766E-03    -15.9640E-03     31.1613E-03    -15.4284E-03     2.66235E-03
            2228     1.77272E-03     12.7299E-03    -12.2815E+06    -85.1567E+06    -10.7201E+06     1.88305E+06    -15.5765E-03     30.9487E-03    -15.3722E-03     1.66456E-03    -15.4990E-03     30.5563E-03    -15.2845E-03     1.68783E-03
            2229     886.370E-06     12.7271E-03    -11.2733E+06    -84.0492E+06    -10.7345E+06     1.02930E+06    -15.3506E-03     30.6258E-03    -15.2752E-03     801.962E-06    -15.2695E-03     30.2377E-03    -15.1907E-03     814.729E-06
            2230     16.6664E-03     12.3490E-03    -4.20656E+06     132.269E+06     76.0198E+06     855.769E+03    -43.8361E-03     69.6094E-03    -25.7734E-03     73.9649E-03    -44.8889E-03     70.8966E-03    -25.5790E-03     73.7461E-03
            2231     15.8051E-03     12.2285E-03    -7.00695E+06     115.404E+06     33.6963E+06     1.51067E+06    -43.3238E-03     67.9972E-03    -24.6733E-03     100.714E-03    -44.4608E-03     69.4215E-03    -24.6620E-03     100.329E-03
            2232     14.9410E-03     12.1475E-03    -8.11552E+06     73.9337E+06    -8.28402E+06     1.63365E+06    -40.0292E-03     63.6375E-03    -23.6082E-03     71.9324E-03    -40.5288E-03     64.3950E-03    -23.7451E-03     71.6008E-03
            2233     14.0745E-03     12.0808E-03    -8.35844E+06     25.1086E+06    -12.5674E+06     1.40031E+06    -37.8444E-03     60.6076E-03    -22.7632E-03     57.5839E-03    -38.0686E-03     60.9279E-03    -22.8503E-03     57.3625E-03
            2234     13.2068E-03     12.0247E-03    -8.63087E+06    -14.8002E+06    -10.0980E+06     1.37733E+06    -36.0407E-03     57.9777E-03    -21.9370E-03     46.3626E-03    -36.1366E-03     58.0200E-03    -21.9536E-03     46.2091E-03
            2235     12.3374E-03     11.9769E-03    -9.00601E+06    -37.1729E+06    -7.34921E+06     1.57654E+06    -34.1613E-03     55.2392E-03    -21.0778E-03     37.6678E-03    -34.1915E-03     55.1269E-03    -21.0476E-03     37.5676E-03
            2236     11.4667E-03     11.9356E-03    -9.57148E+06    -50.5295E+06    -4.17054E+06     1.84314E+06    -32.0659E-03     52.2775E-03    -20.2117E-03     30.6621E-03    -32.0624E-03     52.0730E-03    -20.1454E-03     30.6030E-03
            2237     10.5940E-03     11.9001E-03    -10.2485E+06    -58.6876E+06    -1.89961E+06     1.80621E+06    -29.8094E-03     49.1660E-03    -19.3566E-03     24.7091E-03    -29.7886E-03     48.9061E-03    -19.2661E-03     24.6762E-03
            2238     9.71943E-03     11.8699E-03    -10.8704E+06    -65.6776E+06    -336.811E+03     2.18540E+06    -27.4963E-03     46.0339E-03    -18.5376E-03     19.5321E-03    -27.4638E-03     45.7308E-03    -18.4283E-03     19.5225E-03
            2239     8.84280E-03     11.8445E-03    -11.5976E+06    -72.8760E+06     372.196E+03     3.10665E+06    -25.2474E-03     43.0180E-03    -17.7707E-03     15.2344E-03    -25.2051E-03     42.6750E-03    -17.6463E-03     15.2493E-03
            2240     7.96433E-03     11.8233E-03    -12.2419E+06    -77.9990E+06     1.03391E+06     3.55073E+06    -23.1279E-03     40.1939E-03    -17.0660E-03     11.7444E-03    -23.0802E-03     39.8230E-03    -16.9300E-03     11.7735E-03
            2241     7.08400E-03     11.8058E-03    -13.2919E+06    -81.6085E+06     68.2790E+03     3.63375E+06    -21.1814E-03     37.6059E-03    -16.4245E-03     8.95358E-03    -21.1311E-03     37.2186E-03    -16.2866E-03     8.98922E-03
            2242     6.20209E-03     11.7914E-03    -14.5294E+06    -84.4858E+06    -2.49661E+06     3.60672E+06    -19.4468E-03     35.2990E-03    -15.8521E-03     6.74048E-03    -19.3942E-03     34.9021E-03    -15.7210E-03     6.77937E-03
            2243     5.31867E-03     11.7797E-03    -15.1745E+06    -85.5834E+06    -4.56909E+06     3.01712E+06    -17.9437E-03     33.3033E-03    -15.3596E-03     5.00547E-03    -17.8894E-03     32.9045E-03    -15.2364E-03     5.03913E-03
            2244     4.43403E-03     11.7703E-03    -15.2631E+06    -85.3008E+06    -6.19276E+06     2.29887E+06    -16.6854E-03     31.6344E-03    -14.9490E-03     3.67693E-03    -16.6294E-03     31.2393E-03    -14.8341E-03     3.70293E-03
            2245     3.54836E-03     11.7629E-03    -15.0410E+06    -85.1263E+06    -8.43228E+06     1.65904E+06    -15.6857E-03     30.3028E-03    -14.6170E-03     2.65876E-03    -15.6255E-03     29.9113E-03    -14.5139E-03     2.67765E-03
            2246     2.66189E-03     11.7574E-03    -14.5299E+06    -84.6462E+06    -10.8038E+06     853.366E+03    -14.9352E-03     29.2992E-03    -14.3640E-03     1.84890E-03    -14.8696E-03     28.9128E-03    -14.2742E-03     1.85823E-03
            2247     1.77483E-03     11.7533E-03    -14.0867E+06    -83.9075E+06    -12.4947E+06     199.818E+03    -14.4280E-03     28.6195E-03    -14.1916E-03     1.17062E-03    -14.3587E-03     28.2385E-03    -14.1120E-03     1.17216E-03
            2248     887.557E-06     11.7509E-03    -13.6378E+06    -83.0290E+06    -13.2081E+06    -128.000E+03    -14.1601E-03     28.2441E-03    -14.0841E-03     571.823E-06    -14.0886E-03     27.8681E-03    -14.0099E-03     569.621E-06
            2249     16.6706E-03     11.3302E-03    -4.18985E+06     131.641E+06     76.3198E+06     644.778E+03    -45.8394E-03     71.5081E-03    -25.6687E-03     71.9281E-03    -46.8558E-03     72.7558E-03    -25.4719E-03     71.6479E-03
            2250     15.8100E-03     11.2149E-03    -6.78406E+06     114.688E+06     34.7759E+06     1.35321E+06    -45.0384E-03     69.4946E-03    -24.4562E-03     95.9064E-03    -46.1159E-03     70.8548E-03    -24.4388E-03     95.4708E-03
            2251     14.9463E-03     11.1378E-03    -8.44231E+06     74.1753E+06    -7.50781E+06     2.07190E+06    -41.7163E-03     64.9843E-03    -23.2679E-03     67.6155E-03    -42.1896E-03     65.7130E-03    -23.4008E-03     67.2731E-03
            2252     14.0814E-03     11.0737E-03    -8.72072E+06     26.2863E+06    -11.9748E+06     2.00907E+06    -39.3929E-03     61.6850E-03    -22.2921E-03     53.4313E-03    -39.6058E-03     61.9953E-03    -22.3775E-03     53.2131E-03
            2253     13.2147E-03     11.0205E-03    -8.94976E+06    -14.6222E+06    -9.70519E+06     1.69598E+06    -37.2246E-03     58.5632E-03    -21.3387E-03     42.2179E-03    -37.3132E-03     58.5967E-03    -21.3530E-03     42.0694E-03
            2254     12.3466E-03     10.9754E-03    -9.34620E+06    -37.3406E+06    -6.67059E+06     2.06857E+06    -34.8810E-03     55.2469E-03    -20.3659E-03     33.3583E-03    -34.9072E-03     55.1270E-03    -20.3316E-03     33.2682E-03
            2255     11.4762E-03     10.9375E-03    -9.99430E+06     -49.908E+06    -3.05006E+06     2.02084E+06    -32.3001E-03     51.7050E-03    -19.4048E-03     26.4789E-03    -32.2970E-03     51.4984E-03    -19.3332E-03     26.4268E-03
            2256     10.6037E-03     10.9051E-03    -10.6138E+06    -58.3321E+06    -662.578E+03     1.68172E+06    -29.6317E-03     48.1085E-03    -18.4768E-03     20.8232E-03    -29.6123E-03     47.8465E-03    -18.3802E-03     20.7932E-03
            2257     9.72882E-03     10.8783E-03    -11.5269E+06    -66.2211E+06     787.143E+03     1.98042E+06    -27.0007E-03     44.6067E-03    -17.6061E-03     16.1231E-03    -26.9707E-03     44.2986E-03    -17.4894E-03     16.1144E-03
            2258     8.85177E-03     10.8559E-03    -12.3626E+06    -73.0909E+06     1.47778E+06     2.34972E+06    -24.5194E-03     41.3232E-03    -16.8038E-03     12.4026E-03    -24.4815E-03     40.9777E-03    -16.6725E-03     12.4102E-03
            2259     7.97253E-03     10.8377E-03    -13.1685E+06    -77.8130E+06     2.00099E+06     2.66003E+06    -22.2391E-03     38.3173E-03    -16.0782E-03     9.48786E-03    -22.1973E-03     37.9468E-03    -15.9363E-03     9.50708E-03
            2260     7.09142E-03     10.8227E-03    -14.1527E+06    -81.2662E+06     1.86203E+06     2.92942E+06    -20.2067E-03     35.6383E-03    -15.4317E-03     7.23382E-03    -20.1637E-03     35.2512E-03    -15.2840E-03     7.26137E-03
            2261     6.20857E-03     10.8106E-03    -15.1355E+06    -83.3277E+06    -174.690E+03     2.51077E+06    -18.4367E-03     33.2947E-03    -14.8580E-03     5.50075E-03    -18.3921E-03     32.9011E-03    -14.7161E-03     5.52602E-03
            2262     5.32427E-03     10.8009E-03    -16.0303E+06    -84.0326E+06    -3.22452E+06     1.45283E+06    -16.9358E-03     31.2959E-03    -14.3601E-03     4.16475E-03    -16.8899E-03     30.9041E-03    -14.2311E-03     4.17844E-03
            2263     4.43871E-03     10.7931E-03    -16.8091E+06    -84.2843E+06    -5.99074E+06     422.214E+03    -15.7039E-03     29.6459E-03    -13.9420E-03     3.11864E-03    -15.6574E-03     29.2579E-03    -13.8253E-03     3.12044E-03
            2264     3.55216E-03     10.7871E-03    -17.4081E+06    -84.2260E+06    -9.68580E+06    -255.238E+03    -14.7192E-03     28.3122E-03    -13.5930E-03     2.29346E-03    -14.6703E-03     27.9305E-03    -13.4940E-03     2.28756E-03
            2265     2.66485E-03     10.7824E-03    -17.9295E+06    -84.0882E+06    -13.7702E+06    -604.877E+03    -13.9601E-03     27.2728E-03    -13.3127E-03     1.61887E-03    -13.9079E-03     26.8984E-03    -13.2336E-03     1.60927E-03
            2266     1.77695E-03     10.7792E-03    -18.3666E+06    -83.8407E+06    -16.7509E+06    -674.801E+03    -13.4046E-03     26.5127E-03    -13.1081E-03     1.04160E-03    -13.3507E-03     26.1445E-03    -13.0437E-03     1.03175E-03
            2267     888.502E-06     10.7771E-03    -18.6521E+06    -83.5649E+06    -18.2420E+06    -543.427E+03    -13.0834E-03     26.0440E-03    -12.9606E-03     526.996E-06    -13.0290E-03     25.6799E-03    -12.9036E-03     519.373E-06
            2268     16.6712E-03     10.3100E-03    -4.53042E+06     130.519E+06     75.7418E+06     281.356E+03    -47.5525E-03     73.1135E-03    -25.5611E-03     71.6054E-03    -48.5403E-03     74.3291E-03    -25.3650E-03     71.2631E-03
            2269     15.8120E-03     10.1994E-03    -8.20947E+06     112.337E+06     34.1790E+06     1.43588E+06    -47.3447E-03     71.5756E-03    -24.2309E-03     91.8766E-03    -48.3737E-03     72.8755E-03    -24.2110E-03     91.3829E-03
            2270     14.9519E-03     10.1256E-03    -9.31902E+06     74.4002E+06    -6.32864E+06     2.63574E+06    -44.0477E-03     66.9393E-03    -22.8916E-03     62.7759E-03    -44.4985E-03     67.6401E-03    -23.0176E-03     62.4175E-03
            2271     14.0889E-03     10.0658E-03    -9.59167E+06     27.7244E+06    -11.0829E+06     2.44020E+06    -41.0497E-03     62.8086E-03    -21.7589E-03     48.6986E-03    -41.2542E-03     63.1100E-03    -21.8406E-03     48.4828E-03
            2272     13.2238E-03     10.0152E-03    -9.94401E+06    -14.2860E+06    -9.07878E+06     2.13138E+06    -38.1970E-03     58.8747E-03    -20.6777E-03     37.7630E-03    -38.2823E-03     58.9007E-03    -20.6880E-03     37.6235E-03
            2273     12.3563E-03     9.97426E-03    -10.2776E+06    -37.1858E+06    -6.02391E+06     2.11320E+06    -35.2463E-03     54.8524E-03    -19.6061E-03     29.1391E-03    -35.2722E-03     54.7276E-03    -19.5674E-03     29.0552E-03
            2274     11.4862E-03     9.93984E-03    -10.2623E+06    -48.8416E+06    -1.70358E+06     1.69283E+06    -32.1353E-03     50.7120E-03    -18.5767E-03     22.7062E-03    -32.1334E-03     50.5055E-03    -18.4995E-03     22.6556E-03
            2275     10.6133E-03     9.91147E-03    -10.5948E+06    -58.1530E+06     976.481E+03     1.41888E+06    -29.0324E-03     46.6437E-03    -17.6113E-03     17.6452E-03    -29.0135E-03     46.3782E-03    -17.5068E-03     17.6165E-03
            2276     9.73786E-03     9.88814E-03    -11.2753E+06    -66.4526E+06     2.60345E+06     1.65887E+06    -26.1046E-03     42.8340E-03    -16.7294E-03     13.6657E-03    -26.0746E-03     42.5206E-03    -16.6037E-03     13.6563E-03
            2277     8.85984E-03     9.86923E-03    -12.4192E+06    -72.9111E+06     3.58901E+06     1.86094E+06    -23.4437E-03     39.3820E-03    -15.9383E-03     10.6622E-03    -23.4089E-03     39.0340E-03    -15.7966E-03     10.6658E-03
            2278     7.97965E-03     9.85390E-03    -13.8610E+06    -77.7831E+06     3.61964E+06     1.89631E+06    -21.0915E-03     36.3293E-03    -15.2378E-03     8.41688E-03    -21.0554E-03     35.9574E-03    -15.0868E-03     8.42760E-03
            2279     7.09746E-03     9.84160E-03    -15.0455E+06    -80.6926E+06     2.74871E+06     1.68495E+06    -19.0685E-03     33.6926E-03    -14.6241E-03     6.75397E-03    -19.0320E-03     33.3084E-03    -14.4716E-03     6.76617E-03
            2280     6.21363E-03     9.83173E-03    -16.0078E+06    -82.0073E+06     925.172E+03     974.599E+03    -17.3776E-03     31.4692E-03    -14.0915E-03     5.47043E-03    -17.3410E-03     31.0819E-03    -13.9448E-03     5.47619E-03
            2281     5.32839E-03     9.82391E-03    -17.0257E+06    -82.7453E+06    -2.26782E+06     5.29312E+03    -15.9902E-03     29.6218E-03    -13.6315E-03     4.45847E-03    -15.9527E-03     29.2366E-03    -13.4982E-03     4.45356E-03
            2282     4.44205E-03     9.81770E-03    -18.3017E+06    -83.5096E+06    -6.81546E+06    -839.896E+03    -14.8720E-03     28.1086E-03    -13.2365E-03     3.61629E-03    -14.8329E-03     27.7278E-03    -13.1230E-03     3.60179E-03
            2283     3.55484E-03     9.81292E-03    -19.7670E+06    -84.1075E+06    -12.3113E+06    -1.27835E+06    -13.9729E-03     26.8742E-03    -12.9013E-03     2.86777E-03    -13.9321E-03     26.5004E-03    -12.8122E-03     2.84862E-03
            2284     2.66682E-03     9.80930E-03    -21.0915E+06    -84.4622E+06    -16.9434E+06    -1.25143E+06    -13.2565E-03     25.8887E-03    -12.6322E-03     2.18704E-03    -13.2151E-03     25.5217E-03    -12.5639E-03     2.16906E-03
            2285     1.77823E-03     9.80674E-03    -21.9496E+06    -84.5279E+06    -20.1299E+06    -970.607E+03    -12.7289E-03     25.1609E-03    -12.4320E-03     1.51593E-03    -12.6870E-03     24.7994E-03    -12.3783E-03     1.50225E-03
            2286     889.336E-06     9.80524E-03    -22.5418E+06    -84.5952E+06    -22.0542E+06    -537.894E+03    -12.4023E-03     24.6894E-03    -12.2871E-03     853.493E-06    -12.3603E-03     24.3313E-03    -12.2420E-03     845.935E-06
            2287     16.6723E-03     9.28894E-03    -4.40052E+06     129.586E+06     75.6707E+06     904.125E+03    -49.9477E-03     75.3690E-03    -25.4212E-03     69.0507E-03    -50.8933E-03     76.5396E-03    -25.2244E-03     68.6487E-03
            2288     15.8167E-03     9.17974E-03     -8.6024E+06     110.841E+06     34.9672E+06     1.73064E+06    -49.8682E-03     73.8128E-03    -23.9446E-03     84.9995E-03    -50.8311E-03     75.0378E-03    -23.9180E-03     84.4489E-03
            2289     14.9587E-03     9.11179E-03    -9.66489E+06     74.4698E+06    -4.21386E+06     2.31013E+06    -46.0608E-03     68.5102E-03    -22.4494E-03     56.0210E-03    -46.4826E-03     69.1749E-03    -22.5644E-03     55.6425E-03
            2290     14.0977E-03     9.05598E-03    -9.54804E+06     28.5080E+06    -9.15816E+06     2.67540E+06    -42.2982E-03     63.4752E-03    -21.1771E-03     43.1922E-03    -42.4903E-03     63.7618E-03    -21.2503E-03     42.9804E-03
            2291     13.2334E-03     9.01048E-03    -9.81386E+06    -13.4598E+06    -7.05573E+06     2.69537E+06    -38.6040E-03     58.6014E-03    -19.9974E-03     33.2351E-03    -38.6836E-03     58.6193E-03    -19.9989E-03     33.1099E-03
            2292     12.3659E-03     8.97330E-03    -10.1508E+06    -35.9949E+06    -4.14655E+06     1.81264E+06    -34.9732E-03     53.8409E-03    -18.8677E-03     25.3736E-03    -34.9977E-03     53.7140E-03    -18.8216E-03     25.2937E-03
            2293     11.4954E-03     8.94363E-03    -10.4352E+06    -48.1274E+06     115.467E+03     1.04393E+06    -31.3668E-03     49.1871E-03    -17.8202E-03     19.6896E-03    -31.3666E-03     48.9789E-03    -17.7347E-03     19.6371E-03
            2294     10.6217E-03     8.91931E-03    -10.9867E+06    -58.0110E+06     3.07597E+06     964.684E+03    -27.8952E-03     44.7677E-03    -16.8725E-03     15.5380E-03    -27.8801E-03     44.4989E-03    -16.7570E-03     15.5082E-03
            2295     9.74509E-03     8.89999E-03    -11.8409E+06    -66.4634E+06     4.92746E+06     1.00553E+06    -24.7620E-03     40.7987E-03    -16.0368E-03     12.4806E-03    -24.7376E-03     40.4822E-03    -15.8986E-03     12.4661E-03
            2296     8.86588E-03     8.88443E-03    -12.6328E+06    -72.8000E+06     6.18278E+06     1.09965E+06    -22.0395E-03     37.3533E-03    -15.3138E-03     10.3035E-03    -22.0094E-03     37.0021E-03    -15.1590E-03     10.2994E-03
            2297     7.98437E-03     8.87213E-03    -13.5898E+06    -77.4245E+06     6.30541E+06     1.03118E+06    -19.7440E-03     34.4397E-03    -14.6957E-03     8.75546E-03    -19.7110E-03     34.0654E-03    -14.5322E-03     8.75623E-03
            2298     7.10101E-03     8.86230E-03    -14.9184E+06    -79.7662E+06     4.53690E+06     401.184E+03    -17.8625E-03     32.0308E-03    -14.1683E-03     7.64060E-03    -17.8294E-03     31.6485E-03    -14.0084E-03     7.63690E-03
            2299     6.21613E-03     8.85448E-03    -16.2436E+06    -80.9226E+06     1.58793E+06    -564.769E+03    -16.3645E-03     30.0881E-03    -13.7236E-03     6.75911E-03    -16.3316E-03     29.7057E-03    -13.5748E-03     6.74538E-03
            2300     5.33009E-03     8.84831E-03    -17.6322E+06    -82.0873E+06    -2.35665E+06    -1.30736E+06    -15.1969E-03     28.5473E-03    -13.3504E-03     5.96234E-03    -15.1633E-03     28.1665E-03    -13.2176E-03     5.94073E-03
            2301     4.44308E-03     8.84347E-03    -19.2221E+06    -83.3772E+06    -7.99661E+06    -1.59772E+06    -14.2792E-03     27.3131E-03    -13.0339E-03     5.17670E-03    -14.2432E-03     26.9361E-03    -12.9251E-03     5.15260E-03
            2302     3.55532E-03     8.83976E-03    -20.8445E+06    -84.5149E+06    -13.8975E+06    -1.58867E+06    -13.5635E-03     26.3369E-03    -12.7734E-03     4.34105E-03    -13.5253E-03     25.9649E-03    -12.6901E-03     4.31805E-03
            2303     2.66704E-03     8.83706E-03    -22.2207E+06    -85.2098E+06    -18.2813E+06    -1.46284E+06    -13.0157E-03     25.5886E-03    -12.5730E-03     3.44096E-03    -12.9769E-03     25.2215E-03    -12.5086E-03     3.42038E-03
            2304     1.77825E-03     8.83516E-03    -23.2223E+06    -85.5679E+06    -21.2679E+06    -1.18585E+06    -12.6236E-03     25.0550E-03    -12.4314E-03     2.43883E-03    -12.5849E-03     24.6917E-03    -12.3800E-03     2.42248E-03
            2305     889.116E-06     8.83400E-03    -23.8101E+06    -85.8376E+06    -23.0157E+06    -603.506E+03    -12.4038E-03     24.7414E-03    -12.3375E-03     1.37292E-03    -12.3649E-03     24.3803E-03    -12.2936E-03     1.36458E-03
            2306     16.6779E-03     8.26365E-03    -4.47633E+06     128.300E+06     76.3106E+06     990.022E+03    -53.4751E-03     78.6714E-03    -25.1963E-03     66.5738E-03    -54.3758E-03     79.7906E-03    -24.9943E-03     66.0970E-03
            2307     15.8240E-03     8.15939E-03    -6.84810E+06     110.757E+06     37.7292E+06     2.30542E+06    -51.9407E-03     75.4947E-03    -23.5540E-03     78.5351E-03    -52.8255E-03     76.6398E-03    -23.5161E-03     77.9528E-03
            2308     14.9671E-03     8.09605E-03    -8.22094E+06     74.3966E+06    -932.414E+03     2.75908E+06    -47.1058E-03     69.0457E-03    -21.9399E-03     49.4832E-03    -47.4888E-03     69.6671E-03    -22.0405E-03     49.1142E-03
            2309     14.1066E-03     8.04640E-03    -9.48347E+06     28.7299E+06    -6.13590E+06     3.33325E+06    -42.5556E-03     63.1446E-03    -20.5889E-03     37.8359E-03    -42.7357E-03     63.4114E-03    -20.6475E-03     37.6440E-03
            2310     13.2423E-03     8.00577E-03    -10.3314E+06    -11.6820E+06    -3.89316E+06     2.79929E+06    -38.1235E-03     57.4956E-03    -19.3721E-03     29.2334E-03    -38.2043E-03     57.5101E-03    -19.3596E-03     29.1214E-03
            2311     12.3743E-03     7.97405E-03    -10.5794E+06    -34.3253E+06    -686.054E+03     1.43476E+06    -33.8684E-03     52.1212E-03    -18.2527E-03     22.5830E-03    -33.8981E-03     51.9938E-03    -18.1910E-03     22.5085E-03
            2312     11.5025E-03     7.94886E-03    -11.2039E+06    -47.4870E+06     3.29671E+06     619.077E+03    -29.8474E-03     47.1046E-03    -17.2572E-03     17.9400E-03    -29.8544E-03     46.8940E-03    -17.1556E-03     17.8897E-03
            2313     10.6274E-03     7.92938E-03    -11.9181E+06    -57.6361E+06     6.25249E+06     79.6574E+03    -26.1801E-03     42.5763E-03    -16.3962E-03     14.9188E-03    -26.1739E-03     42.3053E-03    -16.2641E-03     14.8828E-03
            2314     9.74922E-03     7.91379E-03    -12.3073E+06    -66.3109E+06     8.30775E+06    -257.196E+03    -23.0194E-03     38.6930E-03    -15.6736E-03     12.9265E-03    -23.0021E-03     38.3728E-03    -15.5181E-03     12.8991E-03
            2315     8.86841E-03     7.90170E-03    -12.9420E+06    -72.8566E+06     9.27485E+06    -311.742E+03    -20.4172E-03     35.4972E-03    -15.0799E-03     11.5854E-03    -20.3931E-03     35.1417E-03    -14.9091E-03     11.5652E-03
            2316     7.98550E-03     7.89203E-03    -13.8513E+06    -77.0434E+06     8.38342E+06    -436.135E+03    -18.3551E-03     32.9511E-03    -14.5960E-03     10.6641E-03    -18.3270E-03     32.5761E-03    -14.4223E-03     10.6472E-03
            2317     7.10096E-03     7.88440E-03    -14.7598E+06    -78.7519E+06     5.85246E+06    -1.07385E+06    -16.7721E-03     30.9768E-03    -14.2047E-03     9.90707E-03    -16.7417E-03     30.5975E-03    -14.0399E-03     9.88519E-03
            2318     6.21516E-03     7.87828E-03    -15.8915E+06    -80.1827E+06     1.89356E+06    -1.96551E+06    -15.5877E-03     29.4809E-03    -13.8932E-03     9.18174E-03    -15.5546E-03     29.1013E-03    -13.7444E-03     9.15057E-03
            2319     5.32844E-03     7.87336E-03    -17.2388E+06    -82.1931E+06    -2.91978E+06    -2.39234E+06    -14.7314E-03     28.3803E-03    -13.6489E-03     8.34190E-03    -14.6948E-03     27.9993E-03    -13.5193E-03     8.30680E-03
            2320     4.44111E-03     7.86956E-03    -18.6786E+06    -83.9448E+06    -8.34398E+06    -2.25097E+06    -14.1223E-03     27.5792E-03    -13.4569E-03     7.33827E-03    -14.0823E-03     27.1990E-03    -13.3498E-03     7.30617E-03
            2321     3.55330E-03     7.86661E-03    -19.8837E+06    -85.2544E+06    -13.3822E+06    -1.96423E+06    -13.6883E-03     26.9992E-03    -13.3109E-03     6.15393E-03    -13.6450E-03     26.6213E-03    -13.2253E-03     6.12643E-03
            2322     2.66514E-03     7.86445E-03    -20.7841E+06    -86.0520E+06    -16.9319E+06    -1.69655E+06    -13.3964E-03     26.6049E-03    -13.2085E-03     4.83514E-03    -13.3512E-03     26.2294E-03    -13.1382E-03     4.81180E-03
            2323     1.77686E-03     7.86292E-03    -21.6154E+06    -86.7690E+06    -19.6108E+06    -1.39616E+06    -13.2186E-03     26.3580E-03    -13.1393E-03     3.37511E-03    -13.1726E-03     25.9839E-03    -13.0802E-03     3.35621E-03
            2324     888.498E-06     7.86202E-03    -22.1655E+06    -87.4681E+06    -21.5362E+06    -872.521E+03    -13.1149E-03     26.2137E-03    -13.0988E-03     1.88001E-03    -13.0676E-03     25.8399E-03    -13.0475E-03     1.86829E-03
            2325     16.6819E-03     7.23567E-03    -4.25839E+06     126.833E+06     76.4329E+06    -35.1016E+03    -57.2005E-03     82.1229E-03    -24.9224E-03     61.9469E-03    -58.0459E-03     83.1826E-03    -24.7180E-03     61.3922E-03
            2326     15.8311E-03     7.13653E-03    -6.55775E+06     108.748E+06     38.3137E+06     2.34693E+06    -53.0980E-03     76.2281E-03    -23.1302E-03     72.3733E-03    -53.9084E-03     77.2911E-03    -23.0868E-03     71.7798E-03
            2327     14.9755E-03     7.08085E-03    -8.92649E+06     73.8086E+06     1.85223E+06     4.82774E+06    -47.1974E-03     68.6567E-03    -21.4593E-03     44.1292E-03    -47.5537E-03     69.2388E-03    -21.5441E-03     43.8059E-03
            2328     14.1147E-03     7.03706E-03    -11.2581E+06     30.3457E+06    -2.18975E+06     4.59069E+06    -41.7368E-03     61.8372E-03    -20.1005E-03     33.9073E-03    -41.9183E-03     62.0935E-03    -20.1391E-03     33.7528E-03
            2329     13.2494E-03     7.00293E-03    -12.4464E+06    -9.06827E+06     169.824E+03     2.60916E+06    -36.6083E-03     55.5325E-03    -18.9242E-03     26.7656E-03    -36.7019E-03     55.5498E-03    -18.8922E-03     26.6682E-03
            2330     12.3796E-03     6.97645E-03    -13.0924E+06    -32.5061E+06     3.05272E+06     714.346E+03    -31.8612E-03     49.7565E-03    -17.8953E-03     21.5354E-03    -31.9079E-03     49.6329E-03    -17.8139E-03     21.4646E-03
            2331     11.5060E-03     6.95669E-03    -13.1514E+06    -46.5109E+06     6.85847E+06    -661.117E+03    -27.6146E-03     44.6465E-03    -17.0319E-03     18.1910E-03    -27.6364E-03     44.4369E-03    -16.9111E-03     18.1331E-03
            2332     10.6287E-03     6.94148E-03    -12.9190E+06    -56.8021E+06     10.0974E+06    -1.70371E+06    -24.0141E-03     40.3470E-03    -16.3329E-03     16.3490E-03    -24.0191E-03     40.0754E-03    -16.1813E-03     16.2956E-03
            2333     9.74864E-03     6.92976E-03    -12.9784E+06    -66.3083E+06     12.0913E+06    -2.33851E+06    -21.1116E-03     36.8990E-03    -15.7874E-03     15.2558E-03    -21.1029E-03     36.5740E-03    -15.6120E-03     15.2050E-03
            2334     8.86612E-03     6.92051E-03    -13.3296E+06    -73.2795E+06     12.2949E+06    -2.19857E+06    -18.8841E-03     34.2545E-03    -15.3705E-03     14.4925E-03    -18.8656E-03     33.8931E-03    -15.1834E-03     14.4502E-03
            2335     7.98192E-03     6.91313E-03    -13.9283E+06    -76.6111E+06     9.82014E+06    -2.42418E+06    -17.2678E-03     32.3196E-03    -15.0518E-03     13.8149E-03    -17.2428E-03     31.9447E-03    -14.8714E-03     13.7739E-03
            2336     7.09646E-03     6.90710E-03    -14.4704E+06    -78.1867E+06     6.08172E+06    -3.17701E+06    -16.1424E-03     30.9584E-03    -14.8159E-03     13.0128E-03    -16.1116E-03     30.5810E-03    -14.6512E-03     12.9649E-03
            2337     6.21023E-03     6.90214E-03    -14.9990E+06    -80.2188E+06     1.54323E+06    -3.53107E+06    -15.3838E-03     30.0313E-03    -14.6475E-03     11.9934E-03    -15.3456E-03     29.6506E-03    -14.5017E-03     11.9429E-03
            2338     5.32345E-03     6.89807E-03    -15.8695E+06    -82.8736E+06    -3.53821E+06    -3.43671E+06    -14.8932E-03     29.4248E-03    -14.5316E-03     10.7383E-03    -14.8479E-03     29.0391E-03    -14.4061E-03     10.6904E-03
            2339     4.43632E-03     6.89473E-03    -16.7171E+06    -84.9446E+06    -8.00358E+06    -3.16986E+06    -14.6131E-03     29.0695E-03    -14.4563E-03     9.25150E-03    -14.5624E-03     28.6809E-03    -14.3490E-03     9.20807E-03
            2340     3.54911E-03     6.89215E-03    -17.2217E+06    -86.3476E+06    -11.6443E+06    -2.77138E+06    -14.4675E-03     28.8758E-03    -14.4083E-03     7.57938E-03    -14.4118E-03     28.4861E-03    -14.3163E-03     7.54183E-03
            2341     2.66186E-03     6.89019E-03    -17.6251E+06    -87.2945E+06    -14.2415E+06    -2.23787E+06    -14.3908E-03     28.7712E-03    -14.3803E-03     5.81886E-03    -14.3319E-03     28.3809E-03    -14.2994E-03     5.78877E-03
            2342     1.77454E-03     6.88873E-03    -18.0740E+06    -88.2319E+06    -16.3900E+06    -1.59578E+06    -14.3631E-03     28.7270E-03    -14.3639E-03     4.00081E-03    -14.3019E-03     28.3358E-03    -14.2917E-03     3.97947E-03
            2343     887.273E-06     6.88787E-03    -18.6922E+06    -89.2654E+06    -18.2419E+06    -894.386E+03    -14.3494E-03     28.7065E-03    -14.3572E-03     2.18932E-03    -14.2869E-03     28.3140E-03    -14.2919E-03     2.17737E-03
            2344     16.6898E-03     6.20622E-03    -3.48766E+06     125.307E+06     77.1260E+06    -221.533E+03    -59.9217E-03     84.6681E-03    -24.7464E-03     58.6641E-03    -60.7171E-03     85.6734E-03    -24.5374E-03     58.0649E-03
            2345     15.8378E-03     6.11403E-03    -8.03445E+06     104.909E+06     39.2378E+06     4.70102E+06    -53.9132E-03     76.7690E-03    -22.8558E-03     68.9237E-03    -54.6656E-03     77.7527E-03    -22.8001E-03     68.3678E-03
            2346     14.9810E-03     6.06579E-03    -12.2883E+06     73.3722E+06     4.74599E+06     6.78368E+06    -46.4726E-03     67.6448E-03    -21.1721E-03     40.6991E-03    -46.8158E-03     68.1920E-03    -21.2370E-03     40.4373E-03
            2347     14.1190E-03     6.02968E-03    -14.1285E+06     34.0006E+06     2.10504E+06     5.61837E+06    -39.9395E-03     59.8103E-03    -19.8708E-03     32.0002E-03    -40.1326E-03     60.0687E-03    -19.8891E-03     31.8887E-03
            2348     13.2517E-03     6.00206E-03    -15.7150E+06    -5.71674E+06     4.33780E+06     2.47036E+06    -34.1391E-03     52.9568E-03    -18.8177E-03     26.4604E-03    -34.2536E-03     52.9832E-03    -18.7649E-03     26.3824E-03
            2349     12.3797E-03     5.98165E-03    -16.1673E+06    -29.3801E+06     7.03261E+06    -1.01422E+06    -29.0876E-03     47.0506E-03    -17.9630E-03     22.7947E-03    -29.1570E-03     46.9384E-03    -17.8618E-03     22.7160E-03
            2350     11.5034E-03     5.96692E-03    -15.5175E+06    -45.4528E+06     9.99155E+06    -3.47470E+06    -24.9885E-03     42.2940E-03    -17.3055E-03     20.8020E-03    -25.0269E-03     42.0873E-03    -17.1672E-03     20.7168E-03
            2351     10.6239E-03     5.95575E-03    -14.9515E+06    -56.2513E+06     13.0747E+06    -4.37076E+06    -21.8602E-03     38.6833E-03    -16.8231E-03     19.8109E-03    -21.8798E-03     38.4125E-03    -16.6545E-03     19.7287E-03
            2352     9.74190E-03     5.94713E-03    -14.9247E+06    -66.3367E+06     14.8820E+06    -4.96175E+06    -19.5829E-03     36.0669E-03    -16.4841E-03     19.0559E-03    -19.5876E-03     35.7402E-03    -16.2918E-03     18.9747E-03
            2353     8.85822E-03     5.94011E-03    -14.6302E+06    -73.9723E+06     13.6841E+06    -5.38404E+06    -18.0209E-03     34.2648E-03    -16.2439E-03     18.2308E-03    -18.0097E-03     33.8994E-03    -16.0470E-03     18.1497E-03
            2354     7.97336E-03     5.93422E-03    -13.7273E+06     -76.602E+06     10.0175E+06    -5.47462E+06    -17.0105E-03     33.0816E-03    -16.0712E-03     17.1415E-03    -16.9845E-03     32.7059E-03    -15.8901E-03     17.0628E-03
            2355     7.08789E-03     5.92913E-03    -13.2730E+06    -78.5516E+06     5.38743E+06    -5.55115E+06    -16.3941E-03     32.3498E-03    -15.9557E-03     15.7367E-03    -16.3557E-03     31.9697E-03    -15.7956E-03     15.6593E-03
            2356     6.20202E-03     5.92477E-03    -13.5785E+06     -81.366E+06     154.977E+03    -5.16713E+06    -16.0362E-03     31.9187E-03    -15.8825E-03     14.0585E-03    -15.9871E-03     31.5320E-03    -15.7441E-03     13.9877E-03
            2357     5.31600E-03     5.92104E-03    -14.0213E+06     -84.039E+06    -4.57689E+06    -4.56706E+06    -15.8457E-03     31.6868E-03    -15.8411E-03     12.2211E-03    -15.7879E-03     31.2940E-03    -15.7218E-03     12.1592E-03
            2358     4.42995E-03     5.91787E-03    -14.4287E+06    -86.2191E+06    -8.53046E+06    -4.11352E+06    -15.7686E-03     31.5900E-03    -15.8214E-03     10.2553E-03    -15.7037E-03     31.1924E-03    -15.7181E-03     10.2001E-03
            2359     3.54386E-03     5.91528E-03    -14.8580E+06    -87.9212E+06    -11.5105E+06    -3.48822E+06    -15.7649E-03     31.5797E-03    -15.8148E-03     8.20417E-03    -15.6952E-03     31.1784E-03    -15.7234E-03     8.15760E-03
            2360     2.65785E-03     5.91331E-03    -15.3957E+06    -89.0876E+06    -13.3905E+06    -2.61243E+06    -15.7814E-03     31.5964E-03    -15.8151E-03     6.17871E-03    -15.7100E-03     31.1927E-03    -15.7305E-03     6.14392E-03
            2361     1.77189E-03     5.91188E-03    -16.0223E+06    -90.0974E+06    -14.9462E+06    -1.61055E+06    -15.7923E-03     31.6102E-03    -15.8178E-03     4.18375E-03    -15.7203E-03     31.2045E-03    -15.7387E-03     4.16229E-03
            2362     885.897E-06     5.91096E-03    -16.4356E+06    -90.9192E+06    -16.2106E+06    -782.329E+03    -15.8135E-03     31.6346E-03    -15.8211E-03     2.25876E-03    -15.7403E-03     31.2276E-03    -15.7465E-03     2.24829E-03
            2363     16.6837E-03     5.17141E-03    -5.61950E+06     120.720E+06     75.7045E+06     955.553E+03    -61.1711E-03     85.9672E-03    -24.7960E-03     56.6947E-03    -61.9278E-03     86.9136E-03    -24.5844E-03     56.0800E-03
            2364     15.8370E-03     5.08990E-03    -11.4118E+06     99.7642E+06     43.5393E+06     6.09232E+06    -54.8167E-03     77.6921E-03    -22.8754E-03     62.4218E-03    -55.5127E-03     78.5773E-03    -22.7858E-03     61.8925E-03
            2365     14.9812E-03     5.05219E-03    -14.1846E+06     74.3513E+06     11.7684E+06     8.79964E+06    -44.5577E-03     65.7769E-03    -21.2192E-03     36.6150E-03    -44.8847E-03     66.2846E-03    -21.2476E-03     36.4313E-03
            2366     14.1172E-03     5.02438E-03    -18.1667E+06     38.8861E+06     4.42801E+06     6.79520E+06    -36.7730E-03     56.8189E-03    -20.0460E-03     31.4568E-03    -36.9841E-03     57.0916E-03    -20.0539E-03     31.3956E-03
            2367     13.2473E-03     5.00396E-03    -19.4913E+06     490.669E+03     7.35998E+06     864.942E+03    -30.7610E-03     49.9780E-03    -19.2169E-03     28.4184E-03    -30.9022E-03     50.0310E-03    -19.1526E-03     28.3423E-03
            2368     12.3720E-03     4.98964E-03    -18.6003E+06    -25.9899E+06     9.39840E+06    -4.39746E+06    -26.0918E-03     44.7019E-03    -18.6101E-03     26.4697E-03    -26.1790E-03     44.6040E-03    -18.4985E-03     26.3611E-03
            2369     11.4933E-03     4.97919E-03    -17.5583E+06    -44.5141E+06     11.2046E+06    -6.76904E+06    -22.7882E-03     40.9807E-03    -18.1925E-03     25.2750E-03    -22.8384E-03     40.7783E-03    -18.0465E-03     25.1555E-03
            2370     10.6119E-03     4.97116E-03    -16.8351E+06    -56.4776E+06     13.2460E+06    -7.77023E+06    -20.6091E-03     38.5266E-03    -17.9175E-03     24.2123E-03    -20.6371E-03     38.2560E-03    -17.7450E-03     24.0912E-03
            2371     9.72903E-03     4.96452E-03    -15.8742E+06    -66.3582E+06     14.3065E+06    -8.45902E+06    -19.2473E-03     36.9863E-03    -17.7390E-03     22.8551E-03    -19.2552E-03     36.6608E-03    -17.5483E-03     22.7320E-03
            2372     8.84530E-03     4.95882E-03    -14.7823E+06    -74.2772E+06     12.1610E+06    -9.46604E+06    -18.4390E-03     36.0498E-03    -17.6108E-03     21.1829E-03    -18.4254E-03     35.6846E-03    -17.4209E-03     21.0511E-03
            2373     7.96118E-03     4.95364E-03    -13.4019E+06    -78.1033E+06     7.61248E+06    -9.60861E+06    -17.9620E-03     35.4706E-03    -17.5086E-03     19.2078E-03    -17.9285E-03     35.0900E-03    -17.3379E-03     19.0770E-03
            2374     7.07678E-03     4.94899E-03    -12.1238E+06    -80.6732E+06     2.74003E+06    -8.15720E+06    -17.6764E-03     35.1083E-03    -17.4319E-03     16.9944E-03    -17.6251E-03     34.7194E-03    -17.2837E-03     16.8843E-03
            2375     6.19230E-03     4.94486E-03    -11.7114E+06    -83.4766E+06    -2.15154E+06    -6.57244E+06    -17.5067E-03     34.8826E-03    -17.3758E-03     14.6988E-03    -17.4418E-03     34.4858E-03    -17.2486E-03     14.6104E-03
            2376     5.30773E-03     4.94124E-03    -12.0498E+06    -85.8504E+06    -6.24208E+06    -5.36632E+06    -17.4061E-03     34.7428E-03    -17.3367E-03     12.4490E-03    -17.3333E-03     34.3403E-03    -17.2260E-03     12.3772E-03
            2377     4.42310E-03     4.93810E-03    -12.7762E+06     -87.994E+06    -9.78552E+06    -4.29082E+06    -17.3474E-03     34.6560E-03    -17.3086E-03     10.2336E-03    -17.2698E-03     34.2488E-03    -17.2114E-03     10.1764E-03
            2378     3.53851E-03     4.93551E-03    -13.7647E+06    -89.8881E+06    -12.6124E+06    -3.25255E+06    -17.3118E-03     34.6011E-03    -17.2892E-03     8.05336E-03    -17.2323E-03     34.1899E-03    -17.2020E-03     8.00999E-03
            2379     2.65388E-03     4.93352E-03    -14.7616E+06    -91.0632E+06    -14.0947E+06    -2.23339E+06    -17.2932E-03     34.5714E-03    -17.2782E-03     5.97425E-03    -17.2147E-03     34.1579E-03    -17.1952E-03     5.94443E-03
            2380     1.76925E-03     4.93206E-03    -15.5549E+06    -91.8717E+06    -15.1162E+06    -1.32114E+06    -17.2800E-03     34.5488E-03    -17.2688E-03     4.00204E-03    -17.2028E-03     34.1339E-03    -17.1886E-03     3.98436E-03
            2381     884.667E-06     4.93117E-03    -15.8878E+06    -92.3512E+06    -15.8534E+06    -697.144E+03    -17.2561E-03     34.5257E-03    -17.2696E-03     2.16679E-03    -17.1786E-03     34.1101E-03    -17.1919E-03     2.15745E-03
            2382     16.6821E-03     4.13038E-03    -5.78454E+06     117.344E+06     74.8293E+06     3.98321E+06    -62.0152E-03     86.9903E-03    -24.9752E-03     51.2520E-03    -62.6890E-03     87.8443E-03    -24.7628E-03     50.6820E-03
            2383     15.8359E-03     4.06521E-03    -12.5464E+06     95.0976E+06     47.7025E+06     6.30279E+06    -52.2822E-03     75.4084E-03    -23.1262E-03     50.2452E-03    -52.8691E-03     76.1525E-03    -23.0074E-03     49.7978E-03
            2384     14.9765E-03     4.04191E-03    -16.2498E+06     73.3948E+06     19.5295E+06     9.75293E+06    -39.7925E-03     61.4886E-03    -21.6961E-03     33.7416E-03    -40.1043E-03     61.9480E-03    -21.6813E-03     33.6427E-03
            2385     14.1078E-03     4.02267E-03    -17.5726E+06     46.8751E+06     9.51316E+06     6.97701E+06    -32.1858E-03     52.9867E-03    -20.8009E-03     34.2774E-03    -32.4020E-03     53.2802E-03    -20.7958E-03     34.2559E-03
            2386     13.2333E-03     4.00910E-03    -18.1413E+06     8.85904E+06     7.72015E+06    -1.78844E+06    -27.3585E-03     47.6110E-03    -20.2525E-03     33.2230E-03    -27.4995E-03     47.6972E-03    -20.2004E-03     33.1342E-03
            2387     12.3554E-03     3.99931E-03    -18.0948E+06    -23.6715E+06     6.64526E+06    -7.55958E+06    -24.2179E-03     44.1125E-03    -19.8946E-03     31.5547E-03    -24.2984E-03     44.0256E-03    -19.8008E-03     31.4172E-03
            2388     11.4751E-03     3.99194E-03    -17.5650E+06    -43.7142E+06     6.22011E+06    -9.92412E+06    -22.3023E-03     41.9549E-03    -19.6526E-03     29.6424E-03    -22.3443E-03     41.7612E-03    -19.5327E-03     29.4890E-03
            2389     10.5938E-03     3.98547E-03    -16.1666E+06    -56.6617E+06     5.94591E+06    -11.6158E+06    -21.2306E-03     40.7103E-03    -19.4797E-03     27.3121E-03    -21.2431E-03     40.4467E-03    -19.3443E-03     27.1454E-03
            2390     9.71197E-03     3.97989E-03    -14.1185E+06    -66.8172E+06     5.33387E+06    -12.6832E+06    -20.6310E-03     39.9743E-03    -19.3433E-03     24.6530E-03    -20.6156E-03     39.6558E-03    -19.1993E-03     24.4778E-03
            2391     8.82992E-03     3.97464E-03    -12.2182E+06    -74.9229E+06     3.95061E+06    -13.2209E+06    -20.2558E-03     39.4786E-03    -19.2227E-03     21.8976E-03    -20.2160E-03     39.1176E-03    -19.0766E-03     21.7189E-03
            2392     7.94766E-03     3.96992E-03    -11.2617E+06    -80.9771E+06     830.302E+03    -12.6312E+06    -19.9574E-03     39.0623E-03    -19.1049E-03     19.1450E-03    -19.8988E-03     38.6735E-03    -18.9670E-03     18.9763E-03
            2393     7.06522E-03     3.96551E-03    -10.7873E+06    -84.7328E+06    -2.98239E+06    -10.4431E+06    -19.6826E-03     38.6746E-03    -18.9920E-03     16.4606E-03    -19.6102E-03     38.2715E-03    -18.8684E-03     16.3217E-03
            2394     6.18256E-03     3.96165E-03    -10.4880E+06    -86.8754E+06    -5.98540E+06    -7.55203E+06    -19.4393E-03     38.3312E-03    -18.8919E-03     13.9163E-03    -19.3576E-03     37.9210E-03    -18.7806E-03     13.8158E-03
            2395     5.29970E-03     3.95819E-03    -10.9776E+06    -88.5062E+06    -8.36001E+06    -5.21720E+06    -19.2247E-03     38.0304E-03    -18.8056E-03     11.5557E-03    -19.1395E-03     37.6160E-03    -18.7032E-03     11.4862E-03
            2396     4.41673E-03     3.95521E-03    -12.1204E+06    -90.2745E+06    -10.9190E+06    -3.50258E+06    -19.0269E-03     37.7574E-03    -18.7305E-03     9.34683E-03    -18.9410E-03     37.3395E-03    -18.6366E-03     9.29999E-03
            2397     3.53354E-03     3.95276E-03    -13.2435E+06    -91.7802E+06    -13.0840E+06    -2.26950E+06    -18.8629E-03     37.5319E-03    -18.6690E-03     7.28606E-03    -18.7772E-03     37.1112E-03    -18.5822E-03     7.25557E-03
            2398     2.65028E-03     3.95085E-03    -14.1034E+06    -92.6182E+06    -14.1482E+06    -1.44778E+06    -18.7399E-03     37.3624E-03    -18.6226E-03     5.36454E-03    -18.6557E-03     36.9403E-03    -18.5385E-03     5.34500E-03
            2399     1.76692E-03     3.94946E-03    -14.7194E+06    -93.1534E+06    -14.7678E+06    -860.068E+03    -18.6457E-03     37.2330E-03    -18.5873E-03     3.55990E-03    -18.5629E-03     36.8100E-03    -18.5047E-03     3.54824E-03
            2400     883.448E-06     3.94862E-03    -15.0223E+06    -93.4139E+06    -15.2212E+06    -435.244E+03    -18.5739E-03     37.1444E-03    -18.5705E-03     1.92557E-03    -18.4914E-03     36.7214E-03    -18.4894E-03     1.91967E-03
            2401     16.6812E-03     3.08784E-03    -6.79718E+06     113.206E+06     70.5210E+06     6.87562E+06    -60.1413E-03     85.5923E-03    -25.4510E-03     50.0923E-03    -60.7180E-03     86.3452E-03    -25.2527E-03     49.6400E-03
            2402     15.8287E-03     3.04851E-03    -12.0195E+06     93.0203E+06     47.3165E+06     9.30160E+06    -45.1566E-03     69.0360E-03    -23.8794E-03     47.7884E-03    -45.6286E-03     69.6610E-03    -23.7603E-03     47.5396E-03
            2403     14.9605E-03     3.03710E-03    -14.0227E+06     74.2875E+06     25.1637E+06     7.89174E+06    -34.0062E-03     56.8811E-03    -22.8749E-03     39.7043E-03    -34.2909E-03     57.3077E-03    -22.8365E-03     39.6531E-03
            2404     14.0861E-03     3.02527E-03    -12.0445E+06     54.1574E+06     11.0476E+06     3.47138E+06    -28.9169E-03     51.2019E-03    -22.2850E-03     41.4960E-03    -29.1068E-03     51.5095E-03    -22.2908E-03     41.4611E-03
            2405     13.2091E-03     3.01524E-03    -10.8136E+06     16.1966E+06      977.11E+03    -2.42256E+06    -26.4379E-03     48.3595E-03    -21.9216E-03     38.7466E-03    -26.5357E-03     48.4734E-03    -21.9245E-03     38.6673E-03
            2406     12.3309E-03     3.00816E-03    -12.2044E+06    -21.2501E+06    -3.85940E+06    -8.00366E+06    -25.1887E-03     46.8581E-03    -21.6694E-03     34.7869E-03    -25.2236E-03     46.7850E-03    -21.6402E-03     34.6533E-03
            2407     11.4523E-03     3.00183E-03    -12.6938E+06    -42.2746E+06    -7.70055E+06    -11.7780E+06    -24.4293E-03     45.8625E-03    -21.4332E-03     30.7041E-03    -24.4263E-03     45.6862E-03    -21.3920E-03     30.5320E-03
            2408     10.5734E-03     2.99629E-03    -11.8176E+06     -56.494E+06    -10.7060E+06    -14.2242E+06    -23.8451E-03     45.0525E-03    -21.2074E-03     26.7890E-03    -23.8103E-03     44.8058E-03    -21.1619E-03     26.5918E-03
            2409     9.69429E-03     2.99110E-03    -10.5911E+06    -67.7366E+06    -12.5450E+06    -15.3940E+06    -23.3745E-03     44.3669E-03    -20.9924E-03     23.1786E-03    -23.3132E-03     44.0635E-03    -20.9415E-03     22.9705E-03
            2410     8.81482E-03     2.98647E-03    -9.70396E+06    -77.3469E+06    -12.7508E+06    -14.9764E+06    -22.9073E-03     43.6971E-03    -20.7899E-03     19.8582E-03    -22.8265E-03     43.3440E-03    -20.7274E-03     19.6582E-03
            2411     7.93495E-03     2.98216E-03    -9.54902E+06    -84.6345E+06    -11.9267E+06    -13.2163E+06    -22.3971E-03     42.9967E-03    -20.5996E-03     16.8912E-03    -22.3057E-03     42.6052E-03    -20.5227E-03     16.7158E-03
            2412     7.05463E-03     2.97839E-03    -10.0513E+06    -89.5536E+06    -11.7629E+06    -10.7198E+06    -21.8951E-03     42.3124E-03    -20.4172E-03     14.2331E-03    -21.7990E-03     41.8965E-03    -20.3316E-03     14.0914E-03
            2413     6.17387E-03     2.97496E-03    -10.6922E+06    -91.5263E+06    -11.3097E+06    -7.54414E+06    -21.4167E-03     41.6651E-03    -20.2484E-03     11.8406E-03    -21.3215E-03     41.2396E-03    -20.1567E-03     11.7408E-03
            2414     5.29276E-03     2.97194E-03    -11.2653E+06    -91.9102E+06    -11.0397E+06    -4.51232E+06    -20.9688E-03     41.0640E-03    -20.0952E-03     9.69180E-03    -20.8761E-03     40.6369E-03    -20.0008E-03     9.63178E-03
            2415     4.41121E-03     2.96940E-03    -11.9798E+06    -92.5685E+06    -11.9689E+06    -2.47892E+06    -20.5723E-03     40.5309E-03    -19.9586E-03     7.75468E-03    -20.4808E-03     40.1028E-03    -19.8668E-03     7.72137E-03
            2416     3.52937E-03     2.96728E-03    -12.6849E+06    -93.2376E+06    -13.1291E+06    -1.33143E+06    -20.2427E-03     40.0870E-03    -19.8442E-03     6.00211E-03    -20.1521E-03     39.6582E-03    -19.7563E-03     5.98398E-03
            2417     2.64725E-03     2.96561E-03    -13.2602E+06    -93.6260E+06    -13.7406E+06    -661.390E+03    -19.9857E-03     39.7412E-03    -19.7555E-03     4.39510E-03    -19.8964E-03     39.3122E-03    -19.6692E-03     4.38590E-03
            2418     1.76495E-03     2.96443E-03    -13.7233E+06    -93.8217E+06    -13.9846E+06    -278.797E+03    -19.8002E-03     39.4909E-03    -19.6907E-03     2.89706E-03    -19.7126E-03     39.0619E-03    -19.6046E-03     2.89302E-03
            2419     882.539E-06     2.96371E-03    -13.9490E+06    -93.9529E+06    -14.3137E+06    -95.2375E+03    -19.6707E-03     39.3279E-03    -19.6572E-03     1.55068E-03    -19.5833E-03     38.8993E-03    -19.5723E-03     1.54918E-03
            2420     16.6607E-03     2.05666E-03    -6.82465E+06     108.438E+06     66.6578E+06     8.07955E+06    -53.4347E-03     80.3094E-03    -26.8747E-03     54.9591E-03    -53.9217E-03     80.9676E-03    -26.6888E-03     54.6651E-03
            2421     15.7971E-03     2.03843E-03    -7.29471E+06     95.1127E+06     50.4128E+06     8.06502E+06    -39.3926E-03     65.1063E-03    -25.7137E-03     55.4294E-03    -39.7719E-03     65.6523E-03    -25.5889E-03     55.2992E-03
            2422     14.9263E-03     2.03565E-03    -5.80504E+06     78.9166E+06     26.5853E+06     3.91838E+06    -33.1727E-03     58.1395E-03    -24.9667E-03     49.6818E-03    -33.4021E-03     58.5506E-03    -24.9398E-03     49.6265E-03
            2423     14.0528E-03     2.02626E-03    -4.63971E+06     56.2104E+06     2.83272E+06     461.156E+03    -31.4305E-03     55.8300E-03    -24.3995E-03     46.4245E-03    -31.5610E-03     56.1341E-03    -24.4601E-03     46.3748E-03
            2424     13.1787E-03     2.01846E-03    -4.31311E+06     19.9485E+06    -10.9243E+06    -1.44162E+06    -30.2701E-03     54.2159E-03    -23.9458E-03     38.4045E-03    -30.3155E-03     54.3475E-03    -24.0231E-03     38.3523E-03
            2425     12.3045E-03     2.01161E-03     -4.5138E+06    -16.4163E+06    -17.5038E+06    -6.13174E+06    -29.2402E-03     52.7919E-03    -23.5518E-03     31.3832E-03    -29.2194E-03     52.7469E-03    -23.6089E-03     31.2816E-03
            2426     11.4302E-03     2.00639E-03    -5.05630E+06    -39.9581E+06    -24.2806E+06    -11.0955E+06    -28.3362E-03     51.4912E-03    -23.1549E-03     26.0047E-03    -28.2717E-03     51.3367E-03    -23.2110E-03     25.8463E-03
            2427     10.5551E-03     2.00185E-03    -5.43932E+06    -56.3561E+06    -30.0213E+06    -13.5380E+06    -27.4368E-03     50.2028E-03    -22.7660E-03     21.7335E-03    -27.3408E-03     49.9740E-03    -22.8265E-03     21.5486E-03
            2428     9.67901E-03     1.99764E-03    -6.09127E+06    -69.3145E+06    -30.8358E+06    -14.0222E+06    -26.4820E-03     48.8970E-03    -22.4150E-03     18.1538E-03    -26.3684E-03     48.6048E-03    -22.4598E-03     17.9658E-03
            2429     8.80222E-03     1.99392E-03    -7.24414E+06    -80.5919E+06    -28.9589E+06    -13.1376E+06    -25.5491E-03     47.6479E-03    -22.0988E-03     15.1741E-03    -25.4272E-03     47.2980E-03    -22.1163E-03     14.9997E-03
            2430     7.92459E-03     1.99072E-03    -8.44480E+06    -88.7708E+06    -25.1670E+06    -11.2503E+06    -24.6785E-03     46.4911E-03    -21.8126E-03     12.6635E-03    -24.5559E-03     46.0962E-03    -21.7975E-03     12.5148E-03
            2431     7.04616E-03     1.98778E-03    -9.62156E+06    -94.0443E+06    -19.9118E+06    -8.71074E+06    -23.8518E-03     45.4076E-03    -21.5558E-03     10.4980E-03    -23.7350E-03     44.9803E-03    -21.5050E-03     10.3831E-03
            2432     6.16711E-03     1.98522E-03    -10.8078E+06    -95.9933E+06    -16.9560E+06    -6.08418E+06    -23.0872E-03     44.3992E-03    -21.3120E-03     8.64191E-03    -22.9776E-03     43.9596E-03    -21.2419E-03     8.56166E-03
            2433     5.28731E-03     1.98300E-03    -11.5754E+06    -95.3619E+06    -14.9772E+06    -3.63822E+06    -22.4007E-03     43.4919E-03    -21.0911E-03     7.01684E-03    -22.2987E-03     43.0536E-03    -21.0109E-03     6.96866E-03
            2434     4.40700E-03     1.98109E-03    -11.8925E+06    -94.6341E+06    -13.4612E+06    -1.75411E+06    -21.8148E-03     42.7155E-03    -20.9007E-03     5.57026E-03    -21.7176E-03     42.2791E-03    -20.8135E-03     5.54673E-03
            2435     3.52619E-03     1.97954E-03    -12.2246E+06    -94.3401E+06    -13.0743E+06    -606.731E+03    -21.3302E-03     42.0695E-03    -20.7393E-03     4.28142E-03    -21.2356E-03     41.6345E-03    -20.6502E-03     4.27295E-03
            2436     2.64499E-03     1.97831E-03    -12.5785E+06    -94.2207E+06    -13.1745E+06    -28.6410E+03    -20.9431E-03     41.5547E-03    -20.6116E-03     3.11465E-03    -20.8503E-03     41.1209E-03    -20.5226E-03     3.11382E-03
            2437     1.76349E-03     1.97742E-03    -12.7531E+06    -93.9583E+06    -13.0735E+06     147.815E+03    -20.6677E-03     41.1892E-03    -20.5214E-03     2.05361E-03    -20.5763E-03     40.7568E-03    -20.4321E-03     2.05523E-03
            2438     881.786E-06     1.97689E-03    -13.0939E+06    -93.9514E+06    -12.9457E+06     171.535E+03    -20.5102E-03     40.9725E-03    -20.4623E-03     1.08647E-03    -20.4204E-03     40.5407E-03    -20.3718E-03     1.08850E-03
            2439     16.6102E-03     1.03146E-03     641.631E+03     107.839E+06     70.6921E+06     4.98229E+06    -49.3043E-03     78.8073E-03    -29.5029E-03     60.7030E-03    -49.6747E-03     79.3581E-03    -29.3068E-03     60.5227E-03
            2440     15.7480E-03     1.02938E-03     1.66790E+06     97.3526E+06     49.4673E+06     3.56910E+06    -44.4530E-03     72.8498E-03    -28.3968E-03     55.2225E-03    -44.7127E-03     73.3151E-03    -28.2931E-03     55.1542E-03
            2441     14.8813E-03     1.02622E-03     2.23679E+06     80.3128E+06     15.1516E+06     1.86584E+06    -41.7531E-03     69.1059E-03    -27.3528E-03     42.8525E-03    -41.8988E-03     69.4985E-03    -27.3967E-03     42.8265E-03
            2442     14.0173E-03     1.01814E-03     3.31329E+06     56.4929E+06    -11.8797E+06     1.65632E+06    -39.3461E-03     65.7645E-03    -26.4184E-03     33.2921E-03    -39.4023E-03     66.0662E-03    -26.5645E-03     33.2830E-03
            2443     13.1525E-03     1.01237E-03     3.77228E+06     22.7367E+06    -25.5839E+06    -552.649E+03    -36.4748E-03     62.1168E-03    -25.6420E-03     24.8056E-03    -36.4556E-03     62.2653E-03    -25.8084E-03     24.7793E-03
            2444     12.2848E-03     1.00851E-03     4.27694E+06    -11.8293E+06    -32.9632E+06    -3.99292E+06    -34.0491E-03     59.0341E-03    -24.9849E-03     19.1725E-03    -33.9649E-03     59.0183E-03    -25.1388E-03     19.1083E-03
            2445     11.4140E-03     1.00516E-03     3.37816E+06    -37.4887E+06    -40.4452E+06    -6.85943E+06    -32.0820E-03     56.4684E-03    -24.3865E-03     15.1772E-03    -31.9532E-03     56.3357E-03    -24.5393E-03     15.0805E-03
            2446     10.5420E-03     1.00228E-03     1.17513E+06    -56.3637E+06    -45.7785E+06    -8.53355E+06    -30.4205E-03     54.2652E-03    -23.8447E-03     12.2545E-03    -30.2672E-03     54.0486E-03    -23.9936E-03     12.1387E-03
            2447     9.66876E-03     1.00005E-03    -1.43548E+06    -71.2330E+06    -44.7712E+06    -8.50520E+06    -28.8912E-03     52.2678E-03    -23.3766E-03     10.0471E-03    -28.7305E-03     51.9789E-03    -23.4950E-03     9.93354E-03
            2448     8.79380E-03     998.019E-06    -4.12096E+06    -83.1327E+06    -39.5892E+06    -7.65669E+06    -27.5094E-03     50.4803E-03    -22.9709E-03     8.27905E-03    -27.3523E-03     50.1282E-03    -23.0423E-03     8.17767E-03
            2449     7.91777E-03     996.140E-06    -6.64002E+06    -91.9897E+06    -33.3475E+06    -6.56537E+06    -26.2882E-03     48.8971E-03    -22.6089E-03     6.80343E-03    -26.1397E-03     48.4952E-03    -22.6327E-03     6.71689E-03
            2450     7.04077E-03     994.602E-06    -8.78146E+06    -97.5384E+06    -26.1737E+06    -5.01726E+06    -25.1851E-03     47.4727E-03    -22.2876E-03     5.59259E-03    -25.0497E-03     47.0357E-03    -22.2643E-03     5.52657E-03
            2451     6.16268E-03     993.228E-06    -10.4420E+06    -98.9983E+06    -21.1263E+06    -3.37019E+06    -24.2025E-03     46.1931E-03    -21.9906E-03     4.57319E-03    -24.0805E-03     45.7439E-03    -21.9376E-03     4.52882E-03
            2452     5.28389E-03     992.026E-06    -11.5436E+06    -97.7411E+06    -17.7137E+06    -2.11377E+06    -23.3466E-03     45.0693E-03    -21.7227E-03     3.68797E-03    -23.2369E-03     44.6230E-03    -21.6528E-03     3.66007E-03
            2453     4.40432E-03     991.019E-06    -12.1017E+06    -96.3742E+06    -15.0757E+06    -1.01854E+06    -22.6176E-03     44.1099E-03    -21.4923E-03     2.91714E-03    -22.5165E-03     43.6675E-03    -21.4104E-03     2.90355E-03
            2454     3.52419E-03     990.172E-06    -12.2418E+06    -95.2034E+06    -13.3855E+06    -129.979E+03    -22.0202E-03     43.3199E-03    -21.2997E-03     2.23208E-03    -21.9239E-03     42.8810E-03    -21.2109E-03     2.23009E-03
            2455     2.64358E-03     989.544E-06    -12.1932E+06    -94.3551E+06    -12.4665E+06     215.199E+03    -21.5522E-03     42.6989E-03    -21.1467E-03     1.61948E-03    -21.4583E-03     42.2629E-03    -21.0545E-03     1.62203E-03
            2456     1.76258E-03     989.079E-06    -12.1353E+06    -93.8640E+06    -12.1438E+06     209.000E+03    -21.2150E-03     42.2505E-03    -21.0354E-03     1.06230E-03    -21.1220E-03     41.8163E-03    -20.9424E-03     1.06486E-03
            2457     881.337E-06     988.768E-06    -12.1897E+06    -93.6437E+06    -12.0142E+06     130.659E+03    -21.0156E-03     41.9812E-03    -20.9656E-03     563.710E-06    -20.9230E-03     41.5483E-03    -20.8722E-03     565.454E-06


