********************************************************************************
Field Output Report, written Wed May 29 01:11:44 2024

Source 1
---------

   ODB: G:/Abaqus_calc_2019/1740/Vel_5/odb/zeides_2a_40_red_1000_cal_75_vel_5_fric_025.odb
   Step: Step-1
   Frame: Increment  20473113: Step Time =    2.288

Loc 1 : Nodal values from source 1

Output sorted by column "Nodal Label".

Field Output reported at nodes for region: DIE_2A_40_D0_36-1.Region_1
   Computation algorithm: EXTRAPOLATE_COMPUTE_AVERAGE
   Averaged at nodes
   Averaging regions: ODB_REGIONS

      Node Label     COORD.COOR1     COORD.COOR2
                          @Loc 1          @Loc 1
-------------------------------------------------
               1     21.7407E-03     125.548E-03


Field Output reported at nodes for region: DIE_2A_40_D0_36-1.Region_2
   Computation algorithm: EXTRAPOLATE_COMPUTE_AVERAGE
   Averaged at nodes
   Averaging regions: ODB_REGIONS

      Node Label     COORD.COOR1     COORD.COOR2
                          @Loc 1          @Loc 1
-------------------------------------------------
               1     21.7407E-03     125.548E-03


Field Output reported at nodes for part: WIRE-1
   Computation algorithm: EXTRAPOLATE_COMPUTE_AVERAGE
   Averaged at nodes
   Averaging regions: ODB_REGIONS

      Node Label     COORD.COOR1     COORD.COOR2           S.S11           S.S22           S.S33           S.S12         PE.PE11         PE.PE22         PE.PE33         PE.PE12         LE.LE11         LE.LE22         LE.LE33         LE.LE12
                          @Loc 1          @Loc 1          @Loc 1          @Loc 1          @Loc 1          @Loc 1          @Loc 1          @Loc 1          @Loc 1          @Loc 1          @Loc 1          @Loc 1          @Loc 1          @Loc 1
-------------------------------------------------------------------------------------------------------------------------------------------------------------------------------------------------------------------------------------------------
               1    -83.4974E-09     67.2624E-03    -82.3378E+06    -232.511E+06    -81.9194E+06    -259.704E+03    -111.265E-03     222.517E-03    -111.252E-03     9.35275E-03    -111.224E-03     221.598E-03    -111.205E-03     9.13844E-03
               2     16.1119E-03     70.2254E-03    -3.00477E+06     121.491E+06     94.1359E+06    -254.481E+03    -109.246E-03     220.307E-03    -111.062E-03     102.563E-03    -114.281E-03     225.490E-03    -110.763E-03     99.2926E-03
               3     15.0591E-03     139.982E-03    -4.34611E+06    -27.7481E+06     772.188E+03    -19.5623E+06     86.7387E-03     76.8829E-03    -163.622E-03     172.233E-06     86.9657E-03     76.9585E-03    -163.571E-03    -80.3807E-06
               4    -122.953E-09     134.245E-03     36.9840E+06    -11.6614E+06     37.8031E+06    -4.15481E+06    -107.038E-03     214.534E-03    -107.496E-03    -14.4583E-03    -106.971E-03     214.284E-03    -107.344E-03    -14.5991E-03
               5     781.734E-09    -8.31279E-15    -46.7903E+06    -199.377E+06    -46.6217E+06     1.10851E+06    -113.680E-03     227.027E-03    -113.347E-03     1.11792E-03    -113.552E-03     226.167E-03    -113.223E-03     1.12139E-03
               6     15.6301E-03    -8.31279E-15    -4.06992E+06     98.4429E+06     89.0061E+06     5.69775E+06    -269.385E-03     400.032E-03    -130.647E-03     293.772E-03    -276.099E-03     406.740E-03    -130.339E-03     274.392E-03
               7     805.194E-06     67.2730E-03    -81.3759E+06    -231.070E+06    -79.6910E+06    -100.598E+03    -111.321E-03     222.581E-03    -111.260E-03     15.5808E-03    -111.290E-03     221.673E-03    -111.205E-03     15.2383E-03
               8     1.61058E-03     67.2974E-03    -78.8976E+06    -226.801E+06    -73.1101E+06     237.055E+03    -111.423E-03     222.697E-03    -111.274E-03     28.5169E-03    -111.422E-03     221.823E-03    -111.196E-03     27.8921E-03
               9     2.41589E-03     67.3367E-03    -75.4703E+06    -219.949E+06    -63.3376E+06     340.718E+03    -111.571E-03     222.855E-03    -111.284E-03     42.0485E-03    -111.625E-03     222.044E-03    -111.172E-03     41.0966E-03
              10     3.22127E-03     67.3914E-03    -71.2033E+06    -209.045E+06    -52.4532E+06     127.989E+03    -111.843E-03     223.129E-03    -111.287E-03     55.6318E-03    -111.979E-03     222.423E-03    -111.142E-03     54.3172E-03
              11     4.02678E-03     67.4610E-03    -66.1459E+06    -194.833E+06    -41.3876E+06    -45.9781E+03    -112.198E-03     223.486E-03    -111.288E-03     69.0135E-03    -112.446E-03     222.928E-03    -111.117E-03     67.3008E-03
              12     4.83222E-03     67.5454E-03    -61.0363E+06    -179.680E+06    -31.1152E+06     344.711E+03    -112.594E-03     223.880E-03    -111.287E-03     82.1171E-03    -112.988E-03     223.511E-03    -111.093E-03     79.9673E-03
              13     5.63772E-03     67.6440E-03    -56.3904E+06    -169.653E+06    -22.8881E+06     490.113E+03    -113.058E-03     224.343E-03    -111.285E-03     94.9633E-03    -113.636E-03     224.185E-03    -111.071E-03     92.3148E-03
              14     6.44328E-03     67.7567E-03    -51.8935E+06    -150.134E+06    -16.5744E+06     32.2191E+03    -113.522E-03     224.783E-03    -111.260E-03     107.694E-03    -114.350E-03     224.941E-03    -111.050E-03     104.479E-03
              15     7.24876E-03     67.8834E-03    -47.6240E+06    -135.070E+06    -10.2929E+06     65.6691E+03    -114.018E-03     225.262E-03    -111.244E-03     120.188E-03    -115.163E-03     225.788E-03    -111.030E-03     116.335E-03
              16     8.05428E-03     68.0235E-03    -43.6554E+06    -122.438E+06    -5.76265E+06     174.215E+03    -114.528E-03     225.754E-03    -111.225E-03     132.702E-03    -116.081E-03     226.733E-03    -111.013E-03     128.122E-03
              17     8.85992E-03     68.1773E-03    -40.1273E+06    -94.7785E+06    -4.03123E+06    -15.8047E+03    -114.921E-03     226.092E-03    -111.171E-03     145.596E-03    -117.027E-03     227.731E-03    -110.996E-03     140.194E-03
              18     9.66563E-03     68.3452E-03    -36.9537E+06    -63.6763E+06    -1.33222E+06    -238.197E+03    -115.130E-03     226.240E-03    -111.110E-03     158.439E-03    -117.967E-03     228.723E-03    -110.971E-03     152.107E-03
              19     10.4716E-03     68.5265E-03    -33.9523E+06    -16.7077E+06     4.88751E+06    -146.446E+03    -115.211E-03     226.244E-03    -111.033E-03     172.255E-03    -119.066E-03     229.905E-03    -110.935E-03     164.860E-03
              20     11.2776E-03     68.7246E-03    -31.1633E+06     40.0117E+06     12.2348E+06    -177.219E+03    -115.550E-03     226.492E-03    -110.943E-03     191.213E-03    -120.956E-03     231.895E-03    -110.894E-03     182.516E-03
              21     12.0834E-03     68.9471E-03    -27.7388E+06     77.1407E+06     31.6304E+06    -558.284E+03    -116.708E-03     227.656E-03    -110.947E-03     220.868E-03    -124.717E-03     235.748E-03    -110.861E-03     210.446E-03
              22     12.8895E-03     69.2111E-03    -22.8313E+06     94.3051E+06     64.0907E+06     83.6756E+03    -118.609E-03     229.668E-03    -111.059E-03     260.475E-03    -130.598E-03     241.725E-03    -110.842E-03     248.282E-03
              23     13.6945E-03     69.5254E-03    -16.8084E+06     108.754E+06     89.1343E+06     667.182E+03    -118.468E-03     229.613E-03    -111.144E-03     283.103E-03    -134.240E-03     245.452E-03    -110.832E-03     270.757E-03
              24     14.4991E-03     69.8425E-03    -10.4578E+06     121.050E+06     99.4695E+06     433.572E+03    -113.929E-03     225.072E-03    -111.143E-03     260.110E-03    -130.389E-03     241.636E-03    -110.806E-03     250.708E-03
              25     15.3082E-03     70.1070E-03    -5.13012E+06     124.247E+06     97.5318E+06     64.3564E+03    -109.907E-03     220.996E-03    -111.089E-03     169.240E-03    -120.273E-03     231.502E-03    -110.774E-03     164.062E-03
              26     16.1130E-03     71.4092E-03    -3.28158E+06     121.178E+06     93.9373E+06     239.833E+03    -107.900E-03     218.990E-03    -111.090E-03     104.697E-03    -112.995E-03     224.232E-03    -110.791E-03     101.505E-03
              27     16.1128E-03     72.5864E-03    -1.89164E+06     122.215E+06     94.9229E+06     388.986E+03    -107.772E-03     218.851E-03    -111.079E-03     100.925E-03    -112.754E-03     223.985E-03    -110.779E-03     97.7688E-03
              28     16.1129E-03     73.7692E-03    -2.16580E+06     122.325E+06     94.8758E+06    -335.824E+03    -108.757E-03     219.790E-03    -111.033E-03     100.820E-03    -113.731E-03     224.915E-03    -110.732E-03     97.5725E-03
              29     16.1142E-03     74.9586E-03    -2.51204E+06     122.326E+06     94.9291E+06     170.578E+03    -108.682E-03     219.689E-03    -111.006E-03     104.058E-03    -113.725E-03     224.881E-03    -110.705E-03     100.836E-03
              30     16.1136E-03     76.1424E-03    -2.32754E+06     122.475E+06     94.9521E+06    -374.720E+03    -108.243E-03     219.272E-03    -111.028E-03     104.058E-03    -113.331E-03     224.511E-03    -110.728E-03     100.858E-03
              31     16.1128E-03     77.3199E-03    -2.59523E+06     122.040E+06     94.6829E+06    -119.041E+03    -108.697E-03     219.741E-03    -111.045E-03     101.037E-03    -113.680E-03     224.874E-03    -110.744E-03     97.8621E-03
              32     16.1131E-03     78.5063E-03    -2.04311E+06     122.539E+06     95.3138E+06     222.414E+03    -108.202E-03     219.244E-03    -111.042E-03     101.674E-03    -113.150E-03     224.344E-03    -110.740E-03     98.5499E-03
              33     16.1145E-03     79.6913E-03    -2.32534E+06     122.575E+06     95.4802E+06     48.3600E+03    -107.327E-03     218.374E-03    -111.047E-03     103.910E-03    -112.355E-03     223.552E-03    -110.744E-03     100.836E-03
              34     16.1127E-03     80.8708E-03    -2.66229E+06     122.416E+06     95.1722E+06    -144.923E+03    -108.085E-03     219.134E-03    -111.049E-03     100.840E-03    -113.066E-03     224.264E-03    -110.747E-03     97.7179E-03
              35     16.1132E-03     82.0495E-03    -2.70221E+06     122.118E+06     94.9468E+06    -76.3524E+03    -108.856E-03     219.892E-03    -111.036E-03     98.3642E-03    -113.746E-03     224.931E-03    -110.734E-03     95.1711E-03
              36     16.1134E-03     83.2408E-03    -2.48593E+06     121.720E+06     95.0650E+06    -202.564E+03    -108.026E-03     219.066E-03    -111.040E-03     101.937E-03    -113.014E-03     224.201E-03    -110.737E-03     98.7838E-03
              37     16.1139E-03     84.4234E-03    -2.70027E+06     121.252E+06     95.0867E+06     102.783E+03    -107.526E-03     218.580E-03    -111.054E-03     104.022E-03    -112.581E-03     223.780E-03    -110.750E-03     100.908E-03
              38     16.1128E-03     85.6009E-03    -1.96039E+06     121.731E+06     95.8443E+06     110.012E+03    -108.916E-03     219.949E-03    -111.033E-03     99.5215E-03    -113.821E-03     225.001E-03    -110.727E-03     96.3069E-03
              39     16.1134E-03     86.7842E-03    -2.18373E+06     120.542E+06     95.5773E+06    -912.359E+03    -109.786E-03     220.804E-03    -111.018E-03     98.5529E-03    -114.642E-03     225.802E-03    -110.711E-03     95.2367E-03
              40     16.1128E-03     87.9786E-03    -2.66239E+06     119.724E+06     95.1954E+06     374.711E+03    -108.529E-03     219.581E-03    -111.053E-03     103.899E-03    -113.557E-03     224.750E-03    -110.746E-03     100.709E-03
              41     16.1135E-03     89.1571E-03    -2.66117E+06     121.252E+06     95.4765E+06     619.384E+03    -107.843E-03     218.912E-03    -111.069E-03     104.188E-03    -112.916E-03     224.130E-03    -110.764E-03     101.035E-03
              42     16.1127E-03     90.3351E-03    -2.78796E+06     121.564E+06     95.4595E+06     49.3973E+03    -108.513E-03     219.572E-03    -111.059E-03     99.6294E-03    -113.427E-03     224.632E-03    -110.754E-03     96.4586E-03
              43     16.1129E-03     91.5241E-03    -1.90147E+06     121.845E+06     96.1038E+06    -14.6505E+03    -108.055E-03     219.126E-03    -111.071E-03     101.548E-03    -113.014E-03     224.232E-03    -110.764E-03     98.4243E-03
              44     16.1135E-03     92.7062E-03    -2.97268E+06     121.342E+06     96.1417E+06    -485.409E+03    -107.676E-03     218.747E-03    -111.072E-03     103.827E-03    -112.713E-03     223.927E-03    -110.763E-03     100.699E-03
              45     16.1129E-03     93.8876E-03    -2.05755E+06     120.069E+06     96.6902E+06    -348.539E+03    -108.582E-03     219.631E-03    -111.049E-03     100.814E-03    -113.543E-03     224.731E-03    -110.737E-03     97.6132E-03
              46     16.1135E-03     95.0679E-03    -1.52654E+06     119.877E+06     97.1063E+06     258.718E+03    -109.059E-03     220.076E-03    -111.017E-03     99.8742E-03    -113.975E-03     225.131E-03    -110.703E-03     96.6192E-03
              47     16.1143E-03     96.2595E-03    -2.91299E+06     121.910E+06     97.2277E+06     910.389E+03    -108.379E-03     219.398E-03    -111.019E-03     102.655E-03    -113.398E-03     224.558E-03    -110.706E-03     99.4860E-03
              48     16.1132E-03     97.4406E-03    -2.90642E+06     123.190E+06     97.6731E+06    -175.937E+03    -107.971E-03     218.996E-03    -111.025E-03     104.168E-03    -113.067E-03     224.235E-03    -110.711E-03     101.006E-03
              49     16.1150E-03     98.6193E-03    -2.32083E+06     122.289E+06     97.7980E+06    -371.981E+03    -108.507E-03     219.511E-03    -111.005E-03     102.261E-03    -113.508E-03     224.655E-03    -110.690E-03     99.0696E-03
              50     16.1129E-03     99.8102E-03    -2.26908E+06     122.624E+06     98.1579E+06     235.782E+03    -108.082E-03     219.106E-03    -111.024E-03     103.424E-03    -113.126E-03     224.293E-03    -110.708E-03     100.252E-03
              51     16.1148E-03     100.987E-03    -3.07885E+06     124.613E+06     98.6578E+06     1.27194E+06    -107.896E-03     218.921E-03    -111.026E-03     104.365E-03    -112.964E-03     224.135E-03    -110.709E-03     101.239E-03
              52     16.1134E-03     102.172E-03    -1.79138E+06     128.677E+06     100.179E+06     1.42104E+06    -107.877E-03     218.879E-03    -111.002E-03     101.518E-03    -112.859E-03     224.021E-03    -110.685E-03     98.3779E-03
              53     16.1157E-03     103.352E-03    -3.50178E+06     130.998E+06     100.054E+06     923.507E+03    -108.426E-03     219.401E-03    -110.975E-03     101.908E-03    -113.415E-03     224.552E-03    -110.659E-03     98.7224E-03
              54     16.1132E-03     104.539E-03    -3.59265E+06     132.858E+06     100.555E+06     364.275E+03    -108.859E-03     219.826E-03    -110.967E-03     100.840E-03    -113.827E-03     224.961E-03    -110.652E-03     97.6454E-03
              55     16.1156E-03     105.720E-03    -1.36980E+06     132.839E+06     101.165E+06    -721.861E+03    -107.060E-03     218.014E-03    -110.954E-03     101.193E-03    -112.002E-03     223.129E-03    -110.639E-03     98.0624E-03
              56     16.1171E-03     106.899E-03    -2.02067E+06     131.434E+06     101.307E+06     559.903E+03    -107.318E-03     218.176E-03    -110.858E-03     101.215E-03    -112.218E-03     223.242E-03    -110.539E-03     98.1288E-03
              57     16.1176E-03     108.086E-03    -2.50483E+06     134.102E+06     102.889E+06     1.13773E+06    -108.353E-03     219.093E-03    -110.740E-03     100.653E-03    -113.267E-03     224.176E-03    -110.417E-03     97.4630E-03
              58     16.1211E-03     109.264E-03    -4.05654E+06     135.910E+06     102.867E+06     489.087E+03    -107.915E-03     218.515E-03    -110.600E-03     102.350E-03    -112.871E-03     223.640E-03    -110.277E-03     99.1500E-03
              59     16.1233E-03     110.453E-03    -1.96915E+06     135.318E+06     103.424E+06    -274.939E+03    -106.872E-03     217.289E-03    -110.417E-03     102.962E-03    -111.849E-03     222.439E-03    -110.093E-03     99.7895E-03
              60     16.1286E-03     111.625E-03    -1.53090E+06     134.076E+06     103.681E+06     501.218E+03    -107.218E-03     217.334E-03    -110.117E-03     105.436E-03    -112.263E-03     222.550E-03    -109.790E-03     102.212E-03
              61     16.1343E-03     112.814E-03    -3.13676E+06     137.222E+06     106.726E+06     2.51415E+06    -108.721E-03     218.402E-03    -109.681E-03     107.801E-03    -113.835E-03     223.683E-03    -109.342E-03     104.482E-03
              62     16.1435E-03     113.996E-03    -4.19988E+06     139.522E+06     109.454E+06     646.731E+03    -109.469E-03     218.632E-03    -109.162E-03     110.226E-03    -114.670E-03     223.995E-03    -108.811E-03     106.772E-03
              63     16.1517E-03     115.177E-03    -2.06647E+06     137.262E+06     107.867E+06     115.656E+03    -112.542E-03     221.054E-03    -108.512E-03     111.367E-03    -117.796E-03     226.476E-03    -108.169E-03     107.658E-03
              64     16.1617E-03     116.370E-03    -3.55354E+06     135.502E+06     104.590E+06     344.827E+03    -117.484E-03     225.269E-03    -107.784E-03     113.996E-03    -122.874E-03     230.824E-03    -107.453E-03     109.833E-03
              65     16.1708E-03     117.564E-03    -1.86479E+06     136.073E+06     106.753E+06     1.96561E+06    -123.595E-03     230.640E-03    -107.044E-03     117.693E-03    -129.154E-03     236.366E-03    -106.705E-03     112.984E-03
              66     16.1801E-03     118.768E-03    -4.13838E+06     136.886E+06     108.569E+06     840.024E+03    -132.626E-03     238.908E-03    -106.282E-03     119.627E-03    -138.349E-03     244.789E-03    -105.932E-03     114.046E-03
              67     16.1869E-03     119.983E-03    -1.24347E+06     137.308E+06     109.633E+06     1.48150E+06    -144.707E-03     250.248E-03    -105.541E-03     123.409E-03    -150.637E-03     256.346E-03    -105.190E-03     116.608E-03
              68     16.1921E-03     121.222E-03    -5.65254E+06     138.849E+06     109.991E+06     669.062E+03    -158.685E-03     263.577E-03    -104.892E-03     130.484E-03    -165.015E-03     270.064E-03    -104.535E-03     122.061E-03
              69     16.1949E-03     122.470E-03    -1.35777E+06     139.316E+06     112.241E+06     274.871E+03    -173.732E-03     278.040E-03    -104.308E-03     139.162E-03    -180.412E-03     284.888E-03    -103.947E-03     128.916E-03
              70     16.1990E-03     123.744E-03    -5.34702E+06     132.390E+06     109.424E+06    -2.66616E+06    -187.881E-03     291.679E-03    -103.798E-03     146.647E-03    -194.900E-03     298.836E-03    -103.435E-03     134.530E-03
              71     16.1997E-03     125.027E-03    -1.10526E+06     121.011E+06     107.772E+06    -2.97991E+06    -203.716E-03     307.046E-03    -103.330E-03     155.637E-03    -211.214E-03     314.661E-03    -102.965E-03     141.083E-03
              72     16.2010E-03     126.335E-03    -4.04891E+06     108.458E+06     105.573E+06    -3.32898E+06    -223.757E-03     326.611E-03    -102.854E-03     165.553E-03    -231.681E-03     334.610E-03    -102.478E-03     148.068E-03
              73     16.2003E-03     127.680E-03    -926.064E+03     100.454E+06     106.959E+06    -1.02171E+06    -243.653E-03     346.047E-03    -102.394E-03     181.660E-03    -252.188E-03     354.638E-03    -102.004E-03     161.207E-03
              74     16.2039E-03     129.042E-03    -5.68155E+06     81.2944E+06     101.408E+06    -7.63222E+06    -258.655E-03     360.667E-03    -102.012E-03     193.847E-03    -267.798E-03     369.793E-03    -101.614E-03     170.555E-03
              75     16.2022E-03     130.412E-03     1.26694E+06     60.4491E+06     102.707E+06    -3.26058E+06    -269.610E-03     371.354E-03    -101.744E-03     203.922E-03    -279.348E-03     381.021E-03    -101.320E-03     177.950E-03
              76     16.2064E-03     131.800E-03    -5.79375E+06     34.8881E+06     104.462E+06    -7.27343E+06    -281.744E-03     383.248E-03    -101.505E-03     223.968E-03    -292.444E-03     393.770E-03    -101.025E-03     194.785E-03
              77     16.2043E-03     133.223E-03    -554.472E+03     9.07837E+06     121.000E+06    -5.61648E+06    -295.526E-03     396.869E-03    -101.343E-03     262.800E-03    -307.716E-03     408.779E-03    -100.750E-03     230.240E-03
              78     16.2104E-03     134.673E-03     4.36552E+06     28.2183E+06     165.147E+06     11.9059E+06    -288.234E-03     389.970E-03    -101.737E-03     309.250E-03    -303.021E-03     404.435E-03    -100.958E-03     274.911E-03
              79     16.2052E-03     136.052E-03    -11.6883E+06     36.2618E+06     129.885E+06    -5.37842E+06    -241.328E-03     344.093E-03    -102.765E-03     383.308E-03    -259.085E-03     361.595E-03    -102.152E-03     352.567E-03
              80     16.2202E-03     137.346E-03    -1.81967E+06    -13.3833E+06     43.1053E+06    -26.0751E+06    -121.372E-03     228.156E-03    -106.783E-03     416.751E-03    -133.413E-03     240.143E-03    -106.546E-03     402.792E-03
              81     16.1060E-03     138.250E-03    -7.22148E+06    -4.82361E+06     65.1543E+06     13.4730E+06     20.2478E-03     100.409E-03    -120.657E-03     251.192E-03     17.4960E-03     102.796E-03    -120.314E-03     251.057E-03
              82     15.5731E-03     139.053E-03     5.94737E+06     6.40659E+06     63.8229E+06     23.4388E+06     80.6408E-03     66.7251E-03    -147.366E-03     54.1911E-03     80.5511E-03     66.6420E-03    -147.065E-03     54.4941E-03
              83     14.1893E-03     139.396E-03    -21.7988E+06     3.20554E+06     24.6687E+06     7.07849E+06     83.6971E-03     81.8175E-03    -165.515E-03     16.1884E-03     83.6077E-03     81.8920E-03    -165.364E-03     16.2800E-03
              84     13.3983E-03     138.841E-03    -21.1133E+06     35.3983E+06     80.5622E+06    -19.7271E+06     53.2014E-03     114.415E-03    -167.617E-03     3.04947E-03     52.8974E-03     114.489E-03    -167.235E-03     2.72722E-03
              85     12.6471E-03     138.238E-03    -19.7414E+06    -29.0140E+06     96.2136E+06    -19.8670E+06     17.9413E-03     148.084E-03    -166.026E-03    -60.6762E-03     17.7284E-03     147.755E-03    -165.474E-03    -61.2055E-03
              86     11.9606E-03     137.677E-03    -15.8158E+06    -15.6333E+06     94.4862E+06    -11.7471E+06     1.89966E-03     159.804E-03    -161.704E-03    -112.799E-03     1.69775E-03     159.396E-03    -161.186E-03    -113.451E-03
              87     11.2611E-03     137.160E-03    -2.89476E+06    -6.95017E+06     95.3889E+06    -24.0775E+06    -16.6284E-03     173.144E-03    -156.516E-03    -152.281E-03    -16.6802E-03     172.650E-03    -156.025E-03    -153.335E-03
              88     10.5703E-03     136.698E-03     3.75006E+06    -24.3480E+06     97.9814E+06    -9.06668E+06    -36.8320E-03     187.747E-03    -150.915E-03    -186.224E-03    -36.7508E-03     187.023E-03    -150.395E-03    -187.320E-03
              89     9.87757E-03     136.285E-03     16.9507E+06    -8.71242E+06     105.276E+06    -9.28524E+06    -55.8863E-03     201.003E-03    -145.116E-03    -203.494E-03    -55.7312E-03     200.279E-03    -144.602E-03    -204.714E-03
              90     9.17473E-03     135.927E-03     19.7668E+06    -12.8849E+06     102.413E+06     1.18320E+06    -73.5872E-03     213.070E-03    -139.482E-03    -207.113E-03    -73.4140E-03     212.334E-03    -138.980E-03    -208.230E-03
              91     8.46434E-03     135.614E-03     22.8116E+06    -3.59255E+06     96.8481E+06    -346.826E+03    -88.7305E-03     222.830E-03    -134.100E-03    -198.363E-03    -88.5812E-03     222.198E-03    -133.644E-03    -199.461E-03
              92     7.74164E-03     135.344E-03     24.6519E+06    -3.95670E+06     89.2032E+06    -313.379E+03    -99.6766E-03     228.777E-03    -129.100E-03    -181.166E-03    -99.5452E-03     228.222E-03    -128.684E-03    -182.193E-03
              93     7.00707E-03     135.112E-03     28.1934E+06     737.624E+03     85.2698E+06    -2.63279E+06    -106.773E-03     231.336E-03    -124.563E-03    -159.905E-03    -106.665E-03     230.876E-03    -124.178E-03    -160.858E-03
              94     6.26042E-03     134.916E-03     29.8598E+06    -3.44343E+06     77.2760E+06    -787.180E+03    -110.659E-03     231.156E-03    -120.496E-03    -137.434E-03    -110.562E-03     230.752E-03    -120.148E-03    -138.235E-03
              95     5.50254E-03     134.750E-03     31.3457E+06     1.93628E+06     71.3234E+06    -1.95891E+06    -112.015E-03     228.926E-03    -116.910E-03    -115.508E-03    -111.939E-03     228.610E-03    -116.602E-03    -116.192E-03
              96     4.73475E-03     134.613E-03     32.4724E+06    -472.320E+03     64.1615E+06    -2.73207E+06    -111.717E-03     225.531E-03    -113.814E-03    -95.0832E-03    -111.643E-03     225.256E-03    -113.540E-03    -95.6540E-03
              97     3.95805E-03     134.499E-03     34.8700E+06     1.11505E+06     60.3287E+06    -4.09769E+06    -110.304E-03     221.525E-03    -111.221E-03    -76.7211E-03    -110.229E-03     221.292E-03    -110.972E-03    -77.2028E-03
              98     3.17382E-03     134.410E-03     37.7863E+06    -937.995E+03     55.2996E+06    -4.15554E+06    -108.268E-03     217.444E-03    -109.176E-03    -60.3532E-03    -108.179E-03     217.226E-03    -108.953E-03    -60.7404E-03
              99     2.38364E-03     134.339E-03     40.6896E+06    -447.316E+03     48.0323E+06    -4.42978E+06    -105.965E-03     213.804E-03    -107.839E-03    -46.4913E-03    -105.858E-03     213.612E-03    -107.658E-03    -46.8023E-03
             100     1.58710E-03     134.290E-03     42.8446E+06    -648.521E+03     45.1170E+06    -5.19209E+06    -105.157E-03     212.518E-03    -107.361E-03    -35.0065E-03    -105.043E-03     212.333E-03    -107.196E-03    -35.2592E-03
             101     790.052E-06     134.261E-03     40.0956E+06    -4.90974E+06     42.4382E+06    -4.77924E+06    -106.282E-03     213.700E-03    -107.418E-03    -22.0211E-03    -106.197E-03     213.487E-03    -107.257E-03    -22.2022E-03
             102     102.853E-09     133.071E-03     23.2387E+06    -11.3491E+06     23.1713E+06    -2.92427E+06    -90.6697E-03     181.912E-03    -91.2418E-03    -7.25832E-03    -90.6176E-03     181.739E-03    -91.1432E-03    -7.35752E-03
             103    -602.674E-09     131.973E-03    -8.65435E+06    -22.7979E+06    -10.4474E+06    -2.80979E+06    -65.1526E-03     130.863E-03    -65.7101E-03     423.559E-06    -65.1591E-03     130.765E-03    -65.7167E-03     359.632E-06
             104     279.026E-09     130.911E-03    -46.1577E+06    -37.9835E+06    -45.6839E+06    -3.06449E+06    -50.0012E-03     99.9578E-03    -49.9566E-03     3.45130E-03    -50.1160E-03     99.8969E-03    -50.0630E-03     3.39555E-03
             105     192.713E-09     129.877E-03    -85.0602E+06    -54.5256E+06    -82.7984E+06    -6.11662E+06    -40.2156E-03     80.4444E-03    -40.2288E-03     6.70070E-03    -40.4427E-03     80.4157E-03    -40.4404E-03     6.61343E-03
             106    -668.108E-09     128.857E-03    -122.458E+06    -79.0875E+06    -122.818E+06    -7.10823E+06    -35.0828E-03     70.4734E-03    -35.3906E-03     8.28449E-03    -35.4017E-03     70.4351E-03    -35.7124E-03     8.19205E-03
             107     577.001E-09     127.843E-03    -160.116E+06    -98.0734E+06    -160.118E+06    -3.32559E+06    -34.6570E-03     69.1523E-03    -34.4953E-03     10.0415E-03    -35.0822E-03     69.1278E-03    -34.9216E-03     10.0030E-03
             108    -250.772E-09     126.827E-03    -156.473E+06    -100.601E+06    -157.598E+06     2.53315E+06    -38.5027E-03     76.7850E-03    -38.2823E-03     11.5100E-03    -38.9110E-03     76.7374E-03    -38.6976E-03     11.5506E-03
             109     245.837E-09     125.797E-03    -112.176E+06    -89.2672E+06    -110.417E+06     4.29941E+06    -45.7956E-03     91.4006E-03    -45.6049E-03     12.4897E-03    -46.0688E-03     91.2756E-03    -45.8649E-03     12.5520E-03
             110     58.0421E-09     124.749E-03    -75.6512E+06    -83.0810E+06    -74.1137E+06    -1.46313E+06    -54.8328E-03     109.330E-03    -54.4968E-03     13.1984E-03    -54.9860E-03     109.130E-03    -54.6372E-03     13.1757E-03
             111     179.257E-09     123.681E-03    -61.7740E+06    -90.6664E+06    -61.8645E+06    -3.89700E+06    -63.9242E-03     127.545E-03    -63.6206E-03     13.2541E-03    -64.0150E-03     127.270E-03    -63.7088E-03     13.1847E-03
             112     43.5240E-09     122.594E-03    -57.1420E+06    -102.237E+06    -58.2737E+06    -1.45961E+06    -72.7138E-03     144.932E-03    -72.2181E-03     13.0292E-03    -72.7700E-03     144.588E-03    -72.2784E-03     12.9767E-03
             113     496.944E-09     121.489E-03    -56.2778E+06    -108.186E+06    -55.1110E+06    -1.67445E+06    -80.9431E-03     161.213E-03    -80.2703E-03     12.5664E-03    -80.9909E-03     160.835E-03    -80.3074E-03     12.4922E-03
             114     41.1862E-09     120.366E-03    -56.0648E+06    -120.697E+06    -55.7410E+06    -4.71960E+06    -87.9943E-03     175.421E-03    -87.4265E-03     11.8507E-03    -88.0216E-03     174.981E-03    -87.4489E-03     11.7133E-03
             115     311.308E-09     119.229E-03    -59.1652E+06    -139.446E+06    -62.4434E+06    -4.25020E+06    -93.7884E-03     187.196E-03    -93.4072E-03     11.6199E-03    -93.7944E-03     186.678E-03    -93.4314E-03     11.4647E-03
             116    -124.263E-09     118.080E-03    -66.1323E+06    -154.981E+06    -66.2121E+06    -3.27525E+06    -98.4890E-03     196.769E-03    -98.2799E-03     11.4450E-03    -98.5018E-03     196.190E-03    -98.2904E-03     11.2774E-03
             117     224.549E-09     116.921E-03    -69.3610E+06    -167.539E+06    -69.9534E+06    -2.79097E+06    -102.413E-03     204.443E-03    -102.030E-03     11.1704E-03    -102.419E-03     203.812E-03    -102.036E-03     10.9857E-03
             118     239.288E-09     115.755E-03    -74.4766E+06    -176.728E+06    -75.1324E+06    -1.49626E+06    -105.561E-03     210.459E-03    -104.898E-03     10.5562E-03    -105.571E-03     209.797E-03    -104.909E-03     10.3682E-03
             119     317.171E-09     114.581E-03    -75.8586E+06    -183.775E+06    -75.3683E+06    -1.86346E+06    -107.613E-03     214.597E-03    -106.984E-03     10.0635E-03    -107.620E-03     213.903E-03    -106.984E-03     9.85937E-03
             120     105.868E-09     113.405E-03    -77.6307E+06    -194.283E+06    -77.6738E+06    -2.97919E+06    -108.772E-03     217.201E-03    -108.430E-03     9.71830E-03    -108.768E-03     216.460E-03    -108.424E-03     9.49794E-03
             121    -17.7142E-09     112.227E-03    -79.6976E+06    -206.589E+06    -80.4064E+06    -2.22847E+06    -109.670E-03     219.318E-03    -109.648E-03     9.36726E-03    -109.655E-03     218.522E-03    -109.635E-03     9.15257E-03
             122    -80.3744E-09     111.046E-03    -81.5131E+06    -215.935E+06    -81.2593E+06    -1.88912E+06    -110.572E-03     221.033E-03    -110.460E-03     9.18126E-03    -110.552E-03     220.194E-03    -110.435E-03     8.96491E-03
             123     325.392E-09     109.862E-03    -84.3850E+06    -221.046E+06    -85.1338E+06    -583.812E+03    -111.056E-03     221.733E-03    -110.677E-03     9.33805E-03    -111.037E-03     220.879E-03    -110.660E-03     9.13025E-03
             124    -6.14003E-09     108.680E-03    -85.7206E+06    -221.567E+06    -85.4598E+06     258.441E+03    -111.132E-03     222.037E-03    -110.906E-03     9.43658E-03    -111.118E-03     221.183E-03    -110.887E-03     9.23287E-03
             125     15.2262E-09     107.497E-03    -83.0439E+06    -221.782E+06    -83.1281E+06    -261.798E+03    -111.265E-03     222.538E-03    -111.273E-03     9.19477E-03    -111.241E-03     221.676E-03    -111.247E-03     8.97663E-03
             126    -74.6555E-09     106.313E-03    -83.9834E+06    -224.051E+06    -83.8257E+06    -795.460E+03    -111.271E-03     222.740E-03    -111.470E-03     9.13331E-03    -111.248E-03     221.869E-03    -111.442E-03     8.90635E-03
             127    -219.748E-09     105.129E-03    -85.2138E+06    -227.938E+06    -85.1516E+06    -957.983E+03    -111.297E-03     222.540E-03    -111.243E-03     9.09237E-03    -111.272E-03     221.653E-03    -111.215E-03     8.87241E-03
             128     567.225E-09     103.946E-03    -85.4310E+06    -231.784E+06    -85.7491E+06    -521.135E+03    -111.396E-03     222.349E-03    -110.952E-03     9.17171E-03    -111.366E-03     221.444E-03    -110.921E-03     8.96127E-03
             129    -238.546E-09     102.763E-03    -85.5105E+06    -233.392E+06    -85.6858E+06    -316.980E+03    -111.274E-03     222.247E-03    -110.972E-03     9.05445E-03    -111.242E-03     221.333E-03    -110.938E-03     8.85084E-03
             130     359.297E-09     101.580E-03    -85.6372E+06    -233.588E+06    -85.3639E+06    -151.310E+03    -111.191E-03     222.188E-03    -110.997E-03     9.08642E-03    -111.160E-03     221.274E-03    -110.961E-03     8.88301E-03
             131    -200.062E-09     100.396E-03    -86.7930E+06    -235.075E+06    -86.8307E+06    -399.116E+03    -111.048E-03     222.129E-03    -111.081E-03     9.10847E-03    -111.018E-03     221.211E-03    -111.049E-03     8.89824E-03
             132    -48.7644E-09     99.2139E-03    -87.1836E+06    -236.018E+06    -87.1691E+06     66.5517E+03    -111.102E-03     222.299E-03    -111.197E-03     9.08677E-03    -111.072E-03     221.377E-03    -111.164E-03     8.88897E-03
             133     109.160E-09     98.0299E-03    -86.7299E+06    -235.828E+06    -86.3201E+06    -224.916E+03    -111.361E-03     222.536E-03    -111.175E-03     9.08383E-03    -111.330E-03     221.613E-03    -111.139E-03     8.88257E-03
             134     97.9394E-09     96.8467E-03    -86.1966E+06    -235.969E+06    -86.6269E+06    -49.8061E+03    -111.373E-03     222.567E-03    -111.194E-03     9.13656E-03    -111.340E-03     221.644E-03    -111.160E-03     8.93385E-03
             135    -56.7017E-09     95.6630E-03    -85.6639E+06    -235.568E+06    -85.5594E+06     375.743E+03    -111.356E-03     222.628E-03    -111.272E-03     9.16062E-03    -111.321E-03     221.704E-03    -111.234E-03     8.96102E-03
             136     114.683E-09     94.4792E-03    -84.5472E+06    -234.602E+06    -84.3223E+06     185.534E+03    -111.359E-03     222.492E-03    -111.132E-03     9.01803E-03    -111.323E-03     221.569E-03    -111.091E-03     8.81677E-03
             137     160.521E-09     93.2963E-03    -82.8847E+06    -233.332E+06    -83.1882E+06     360.595E+03    -111.357E-03     222.367E-03    -111.010E-03     9.11743E-03    -111.316E-03     221.447E-03    -110.968E-03     8.91775E-03
             138     84.2874E-09     92.1126E-03    -82.6194E+06    -232.869E+06    -82.5187E+06    -299.738E+03    -111.371E-03     222.482E-03    -111.111E-03     9.30956E-03    -111.330E-03     221.563E-03    -111.066E-03     9.09722E-03
             139     52.8283E-09     90.9289E-03    -82.3148E+06    -232.915E+06    -82.5317E+06     103.418E+03    -111.519E-03     222.563E-03    -111.044E-03     9.09220E-03    -111.476E-03     221.643E-03    -110.999E-03     8.89290E-03
             140     537.457E-09     89.7463E-03    -81.6614E+06    -232.310E+06    -81.6981E+06     505.185E+03    -111.602E-03     222.463E-03    -110.861E-03     8.77221E-03    -111.558E-03     221.544E-03    -110.815E-03     8.58150E-03
             141     31.5516E-09     88.5623E-03    -81.1415E+06    -231.152E+06    -80.4484E+06     54.8833E+03    -111.389E-03     222.334E-03    -110.946E-03     9.16150E-03    -111.346E-03     221.418E-03    -110.895E-03     8.96177E-03
             142     83.9165E-09     87.3788E-03    -80.7106E+06    -231.218E+06    -80.9965E+06    -252.006E+03    -111.270E-03     222.256E-03    -110.986E-03     9.46058E-03    -111.224E-03     221.340E-03    -110.939E-03     9.25706E-03
             143     216.443E-09     86.1955E-03    -81.4666E+06    -231.743E+06    -81.5984E+06     157.032E+03    -111.109E-03     222.156E-03    -111.047E-03     9.48863E-03    -111.065E-03     221.239E-03    -111.001E-03     9.28846E-03
             144    -457.238E-09     85.0135E-03    -80.8248E+06    -230.583E+06    -80.7570E+06     396.228E+03    -110.933E-03     222.304E-03    -111.371E-03     8.99031E-03    -110.889E-03     221.391E-03    -111.324E-03     8.79628E-03
             145    -42.1048E-09     83.8299E-03    -80.9325E+06    -230.870E+06    -80.7010E+06    -648.321E+03    -111.155E-03     222.481E-03    -111.326E-03     8.61122E-03    -111.110E-03     221.566E-03    -111.277E-03     8.40709E-03
             146     236.499E-09     82.6460E-03    -81.3494E+06    -232.067E+06    -81.8992E+06    -28.0817E+03    -111.338E-03     222.311E-03    -110.973E-03     8.91766E-03    -111.293E-03     221.393E-03    -110.928E-03     8.71950E-03
             147     117.333E-09     81.4631E-03    -82.4412E+06    -232.399E+06    -81.9080E+06     158.351E+03    -111.251E-03     222.179E-03    -110.927E-03     9.19101E-03    -111.211E-03     221.260E-03    -110.880E-03     8.99187E-03
             148     19.3537E-09     80.2800E-03    -82.7452E+06    -232.856E+06    -82.9994E+06    -230.224E+03    -111.298E-03     222.329E-03    -111.030E-03     9.20923E-03    -111.257E-03     221.410E-03    -110.988E-03     9.00246E-03
             149     237.005E-09     79.0964E-03    -82.1899E+06    -232.474E+06    -82.1162E+06     308.241E+03    -111.436E-03     222.463E-03    -111.028E-03     9.24193E-03    -111.393E-03     221.545E-03    -110.982E-03     9.03985E-03
             150     127.516E-09     77.9130E-03    -81.5448E+06    -231.960E+06    -81.3493E+06    -48.8875E+03    -111.357E-03     222.452E-03    -111.095E-03     9.36708E-03    -111.314E-03     221.534E-03    -111.047E-03     9.16329E-03
             151    -105.733E-09     76.7295E-03    -81.6960E+06    -232.453E+06    -82.0366E+06    -120.382E+03    -111.224E-03     222.394E-03    -111.170E-03     9.38679E-03    -111.180E-03     221.475E-03    -111.124E-03     9.18406E-03
             152     130.131E-09     75.5461E-03    -81.7574E+06    -231.938E+06    -81.0933E+06     119.465E+03    -111.253E-03     222.419E-03    -111.166E-03     9.43245E-03    -111.211E-03     221.501E-03    -111.117E-03     9.23309E-03
             153    -46.1274E-09     74.3629E-03    -80.9609E+06    -231.531E+06    -81.5801E+06     199.743E+03    -111.294E-03     222.453E-03    -111.159E-03     9.26524E-03    -111.248E-03     221.536E-03    -111.114E-03     9.06666E-03
             154     136.240E-09     73.1795E-03    -81.4943E+06    -231.546E+06    -81.0765E+06     2.62722E+03    -111.295E-03     222.391E-03    -111.096E-03     9.19291E-03    -111.252E-03     221.475E-03    -111.048E-03     8.99096E-03
             155     61.0281E-09     71.9962E-03    -80.8728E+06    -231.257E+06    -81.1909E+06    -119.424E+03    -111.244E-03     222.361E-03    -111.117E-03     9.33559E-03    -111.198E-03     221.445E-03    -111.070E-03     9.13117E-03
             156    -94.0808E-09     70.8129E-03    -81.4841E+06    -231.374E+06    -80.8596E+06    -103.438E+03    -111.238E-03     222.415E-03    -111.176E-03     9.27479E-03    -111.196E-03     221.499E-03    -111.127E-03     9.07140E-03
             157     195.681E-09     69.6295E-03    -81.8452E+06    -232.503E+06    -82.0591E+06    -152.165E+03    -111.371E-03     222.449E-03    -111.078E-03     9.24817E-03    -111.327E-03     221.529E-03    -111.032E-03     9.04192E-03
             158     136.351E-09     68.4459E-03    -81.7740E+06    -232.510E+06    -82.2196E+06    -40.3384E+03    -111.388E-03     222.511E-03    -111.122E-03     9.50639E-03    -111.344E-03     221.592E-03    -111.078E-03     9.29576E-03
             159     17.7554E-09     66.0793E-03    -82.3176E+06    -232.849E+06    -82.8716E+06     415.058E+03    -111.223E-03     222.496E-03    -111.273E-03     9.08867E-03    -111.179E-03     221.577E-03    -111.231E-03     8.88988E-03
             160    -74.9279E-09     64.8960E-03    -82.3574E+06    -231.778E+06    -81.8789E+06     456.857E+03    -111.289E-03     222.518E-03    -111.228E-03     8.82633E-03    -111.249E-03     221.602E-03    -111.182E-03     8.63578E-03
             161     201.701E-09     63.7123E-03    -81.8969E+06    -232.149E+06    -82.4544E+06    -515.778E+03    -111.309E-03     222.350E-03    -111.042E-03     8.71508E-03    -111.264E-03     221.433E-03    -110.998E-03     8.51294E-03
             162     63.0014E-09     62.5296E-03    -83.4967E+06    -233.941E+06    -83.4363E+06    -490.644E+03    -111.148E-03     222.255E-03    -111.107E-03     9.12526E-03    -111.108E-03     221.333E-03    -111.064E-03     8.91801E-03
             163    -297.429E-09     61.3453E-03    -84.1571E+06    -234.683E+06    -83.9433E+06    -86.9145E+03    -110.959E-03     222.290E-03    -111.331E-03     9.29826E-03    -110.921E-03     221.366E-03    -111.288E-03     9.09550E-03
             164    -101.367E-09     60.1629E-03    -82.6216E+06    -233.374E+06    -82.7917E+06     330.971E+03    -111.192E-03     222.214E-03    -111.022E-03     8.80115E-03    -111.149E-03     221.292E-03    -110.978E-03     8.60865E-03
             165     737.602E-09     58.9800E-03    -81.8804E+06    -232.423E+06    -81.8233E+06     61.6944E+03    -111.479E-03     222.110E-03    -110.631E-03     8.81000E-03    -111.436E-03     221.191E-03    -110.585E-03     8.60947E-03
             166    -40.9815E-09     57.7966E-03    -82.1026E+06    -232.454E+06    -81.7650E+06     162.944E+03    -111.289E-03     222.081E-03    -110.792E-03     9.21101E-03    -111.247E-03     221.162E-03    -110.745E-03     9.01051E-03
             167     112.570E-09     56.6137E-03    -82.0064E+06    -232.246E+06    -81.7186E+06     88.5161E+03    -111.045E-03     222.037E-03    -110.992E-03     9.16687E-03    -111.003E-03     221.118E-03    -110.944E-03     8.96816E-03
             168    -131.304E-09     55.4308E-03    -81.4854E+06    -232.290E+06    -81.7152E+06    -227.997E+03    -111.076E-03     222.077E-03    -111.001E-03     9.22182E-03    -111.031E-03     221.158E-03    -110.955E-03     9.01971E-03
             169     231.763E-09     54.2477E-03    -81.0709E+06    -231.932E+06    -81.3948E+06     168.594E+03    -111.254E-03     222.261E-03    -111.006E-03     9.23948E-03    -111.208E-03     221.342E-03    -110.960E-03     9.04628E-03
             170     26.4146E-09     53.0643E-03    -81.6432E+06    -232.126E+06    -82.0962E+06    -210.573E+03    -111.281E-03     222.296E-03    -111.015E-03     9.16015E-03    -111.236E-03     221.379E-03    -110.971E-03     8.95987E-03
             171     102.392E-09     51.8816E-03    -82.6914E+06    -232.803E+06    -82.4252E+06      29.287E+03    -111.203E-03     222.183E-03    -110.980E-03     9.08262E-03    -111.162E-03     221.264E-03    -110.934E-03     8.88132E-03
             172     95.6890E-09     50.6980E-03    -82.9155E+06    -233.175E+06    -82.9413E+06     135.703E+03    -111.042E-03     221.880E-03    -110.838E-03     9.14507E-03    -111.001E-03     220.960E-03    -110.795E-03     8.94711E-03
             173    -2.83890E-09     49.5159E-03    -82.8048E+06    -233.262E+06    -82.6400E+06    -397.666E+03    -110.941E-03     221.695E-03    -110.754E-03     9.26880E-03    -110.900E-03     220.775E-03    -110.709E-03     9.05733E-03
             174     175.306E-09     48.3333E-03    -83.3415E+06    -234.120E+06    -83.2974E+06    -39.2824E+03    -111.040E-03     221.776E-03    -110.736E-03     9.22906E-03    -110.999E-03     220.853E-03    -110.692E-03     9.02122E-03
             175     106.519E-09     47.1504E-03    -83.0500E+06    -233.719E+06    -83.1411E+06     402.634E+03    -110.861E-03     221.617E-03    -110.756E-03     9.29454E-03    -110.819E-03     220.695E-03    -110.712E-03     9.10047E-03
             176    -257.476E-09     45.9683E-03    -82.2415E+06    -232.744E+06    -82.0671E+06    -118.705E+03    -110.512E-03     221.112E-03    -110.601E-03     9.07230E-03    -110.469E-03     220.193E-03    -110.554E-03     8.87405E-03
             177     231.193E-09     44.7870E-03    -82.4854E+06    -233.795E+06    -83.4993E+06    -71.1978E+03    -110.345E-03     220.646E-03    -110.301E-03     9.13344E-03    -110.300E-03     219.724E-03    -110.260E-03     8.93593E-03
             178    -180.294E-09     43.6057E-03    -82.1960E+06    -232.621E+06    -81.6474E+06     277.430E+03    -110.219E-03     220.440E-03    -110.222E-03     9.18798E-03    -110.176E-03     219.520E-03    -110.173E-03     8.99450E-03
             179     93.3003E-09     42.4252E-03    -82.9476E+06    -233.142E+06    -83.0010E+06     -453.61E+03    -110.085E-03     220.056E-03    -109.971E-03     8.69962E-03    -110.044E-03     219.137E-03    -109.928E-03     8.49818E-03
             180     144.733E-09     41.2451E-03    -84.0621E+06    -234.575E+06    -84.4864E+06    -232.823E+03    -109.892E-03     219.627E-03    -109.735E-03     8.89195E-03    -109.852E-03     218.704E-03    -109.695E-03     8.69089E-03
             181    -168.398E-09     40.0647E-03    -83.8121E+06    -234.274E+06    -83.5439E+06     245.007E+03    -109.717E-03     219.305E-03    -109.588E-03     8.97037E-03    -109.678E-03     218.382E-03    -109.545E-03     8.77582E-03
             182     367.311E-09     38.8854E-03    -83.6433E+06    -234.412E+06    -83.9364E+06     221.596E+03    -109.523E-03     218.651E-03    -109.128E-03     8.71929E-03    -109.482E-03     217.728E-03    -109.087E-03     8.53084E-03
             183     35.2604E-09     37.7075E-03    -83.6308E+06    -233.944E+06    -83.0318E+06    -78.3945E+03    -109.033E-03     217.801E-03    -108.768E-03     8.57494E-03    -108.994E-03     216.878E-03    -108.722E-03     8.38421E-03
             184    -35.0947E-09     36.5298E-03    -83.0195E+06    -233.693E+06    -83.3733E+06    -115.038E+03    -108.468E-03     216.932E-03    -108.464E-03     8.54049E-03    -108.425E-03     216.010E-03    -108.422E-03     8.35243E-03
             185     5.37823E-09     35.3534E-03    -83.0962E+06    -233.595E+06    -83.3163E+06     410.230E+03    -108.124E-03     215.944E-03    -107.820E-03     8.57027E-03    -108.082E-03     215.022E-03    -107.777E-03     8.39380E-03
             186     481.651E-09     34.1782E-03    -83.1504E+06    -233.112E+06    -82.7443E+06     22.1856E+03    -107.657E-03     214.881E-03    -107.224E-03     8.64999E-03    -107.617E-03     213.961E-03    -107.179E-03     8.46826E-03
             187    -296.033E-09     33.0049E-03    -82.4948E+06    -232.618E+06    -82.4130E+06    -328.307E+03    -107.033E-03     213.837E-03    -106.804E-03     8.41137E-03    -106.991E-03     212.919E-03    -106.760E-03     8.22423E-03
             188     450.122E-09     31.8318E-03    -81.8540E+06    -232.120E+06    -82.2628E+06     303.435E+03    -106.416E-03     212.525E-03    -106.109E-03     8.28831E-03    -106.372E-03     211.607E-03    -106.065E-03     8.11246E-03
             189    -140.248E-09     30.6610E-03    -81.7880E+06    -231.513E+06    -82.0644E+06     371.754E+03    -105.405E-03     210.767E-03    -105.361E-03     8.44556E-03    -105.362E-03     209.852E-03    -105.317E-03     8.27825E-03
             190    -132.356E-09     29.4926E-03    -82.1368E+06    -231.187E+06    -81.7970E+06     9.41879E+03    -104.469E-03     208.849E-03    -104.381E-03     7.99983E-03    -104.428E-03     207.936E-03    -104.335E-03     7.83598E-03
             191     524.508E-09     28.3267E-03    -82.7581E+06    -231.843E+06    -83.2767E+06     431.755E+03    -103.682E-03     207.144E-03    -103.462E-03     7.88874E-03    -103.640E-03     206.230E-03    -103.422E-03     7.73325E-03
             192    -592.766E-09     27.1625E-03    -83.6823E+06    -231.997E+06    -83.6488E+06     329.266E+03    -102.684E-03     205.539E-03    -102.855E-03     7.48419E-03    -102.646E-03     204.627E-03    -102.815E-03     7.32684E-03
             193     359.972E-09     25.9996E-03    -82.8087E+06    -230.559E+06    -82.6510E+06    -450.406E+03    -101.847E-03     203.621E-03    -101.775E-03     7.21601E-03    -101.808E-03     202.713E-03    -101.734E-03     7.05065E-03
             194    -29.9723E-09     24.8398E-03    -82.7225E+06    -230.174E+06    -83.0862E+06     580.451E+03    -100.937E-03     201.594E-03    -100.657E-03     7.19714E-03    -100.898E-03     200.689E-03    -100.619E-03     7.05034E-03
             195     129.169E-09     23.6823E-03    -82.1970E+06    -228.851E+06    -81.6495E+06     963.492E+03    -100.086E-03     199.816E-03    -99.7307E-03     6.82960E-03    -100.048E-03     198.914E-03    -99.6879E-03     6.69110E-03
             196     335.938E-09     22.5263E-03    -80.9565E+06    -227.402E+06    -80.6959E+06    -101.762E+03    -99.2732E-03     198.079E-03    -98.8061E-03     6.84578E-03    -99.2328E-03     197.181E-03    -98.7625E-03     6.69732E-03
             197    -56.6293E-09     21.3722E-03    -81.4387E+06    -226.949E+06    -81.4606E+06     311.026E+03    -98.3261E-03     196.238E-03    -97.9118E-03     6.72608E-03    -98.2875E-03     195.344E-03    -97.8719E-03     6.58752E-03
             198     434.111E-09     20.2211E-03    -81.5180E+06    -225.525E+06    -81.5785E+06     20.5632E+03    -97.4358E-03     194.349E-03    -96.9134E-03     6.17668E-03    -97.3992E-03     193.463E-03    -96.8761E-03     6.03772E-03
             199     24.9626E-09     19.0720E-03    -82.1553E+06    -224.847E+06    -82.2951E+06    -217.009E+03    -96.1395E-03     192.149E-03    -96.0091E-03     5.49282E-03    -96.1058E-03     191.267E-03    -95.9754E-03     5.35730E-03
             200    -285.319E-09     17.9257E-03    -82.7026E+06    -224.331E+06    -83.0068E+06     281.612E+03    -94.4632E-03     189.031E-03    -94.5676E-03     4.47622E-03    -94.4318E-03     188.153E-03    -94.5374E-03     4.35472E-03
             201     364.958E-09     16.7831E-03    -81.7786E+06    -222.169E+06    -82.2164E+06     262.177E+03    -92.4155E-03     184.652E-03    -92.2370E-03     3.75508E-03    -92.3835E-03     183.783E-03    -92.2074E-03     3.64324E-03
             202    -159.756E-09     15.6474E-03    -79.5193E+06    -218.487E+06    -79.7080E+06     30.1614E+03    -89.6104E-03     179.191E-03    -89.5802E-03     2.91174E-03    -89.5760E-03     178.332E-03    -89.5466E-03     2.81111E-03
             203     1.05846E-09     14.5174E-03    -78.4947E+06    -216.147E+06    -78.7732E+06     533.318E+03    -86.2069E-03     172.335E-03    -86.1281E-03     1.66664E-03    -86.1721E-03     171.485E-03    -86.0948E-03     1.59088E-03
             204     290.212E-09     13.3966E-03    -76.8298E+06    -212.230E+06    -77.0490E+06     1.61331E+06    -82.0752E-03     163.929E-03    -81.8533E-03     1.16780E-03    -82.0402E-03     163.093E-03    -81.8194E-03     1.12094E-03
             205    -209.735E-09     12.2849E-03    -74.0804E+06    -206.306E+06    -74.0652E+06     1.55396E+06    -77.2376E-03     154.395E-03    -77.1573E-03     667.313E-06    -77.2018E-03     153.580E-03    -77.1211E-03     628.258E-06
             206     271.833E-09     11.1857E-03    -72.7115E+06    -200.970E+06    -72.6635E+06     1.22802E+06    -72.4059E-03     144.569E-03    -72.1634E-03     262.245E-06    -72.3729E-03     143.777E-03    -72.1299E-03     225.273E-06
             207     81.8476E-09     10.0961E-03    -69.0003E+06    -194.210E+06    -68.5299E+06     1.60744E+06    -67.9844E-03     135.665E-03    -67.6805E-03     321.578E-06    -67.9483E-03     134.895E-03    -67.6415E-03     294.088E-06
             208     85.6942E-09     9.01567E-03    -64.4900E+06    -188.878E+06    -63.6194E+06     1.38581E+06    -64.9810E-03     129.545E-03    -64.5640E-03     1.00078E-03    -64.9368E-03     128.789E-03    -64.5147E-03     973.062E-06
             209     461.077E-09     7.93985E-03    -62.2281E+06    -186.790E+06    -60.9746E+06     67.7878E+03    -64.6742E-03     128.921E-03    -64.2468E-03     2.69441E-03    -64.6256E-03     128.169E-03    -64.1906E-03     2.64966E-03
             210    -275.107E-09     6.86049E-03    -61.5918E+06    -188.434E+06    -60.4380E+06    -761.486E+03    -67.8969E-03     135.748E-03    -67.8507E-03     4.63660E-03    -67.8448E-03     134.984E-03    -67.7903E-03     4.58197E-03
             211     182.197E-09     5.77001E-03    -62.0718E+06    -193.614E+06    -61.4840E+06    -1.44164E+06    -75.0008E-03     149.989E-03    -74.9884E-03     6.12102E-03    -74.9439E-03     149.200E-03    -74.9251E-03     6.05630E-03
             212    -50.6852E-09     4.65937E-03    -61.5588E+06    -199.168E+06    -62.0278E+06    -1.29825E+06    -84.6072E-03     169.278E-03    -84.6708E-03     6.85107E-03    -84.5400E-03     168.460E-03    -84.6028E-03     6.78313E-03
             213    -168.630E-09     3.52573E-03    -58.1856E+06    -201.752E+06    -58.9624E+06     263.671E+03    -95.0452E-03     190.356E-03    -95.3104E-03     6.58749E-03    -94.9614E-03     189.516E-03    -95.2283E-03     6.54213E-03
             214    -33.5534E-09     2.36721E-03    -52.3806E+06    -201.006E+06    -53.1245E+06     327.954E+03    -104.501E-03     209.469E-03    -104.968E-03     5.33857E-03    -104.395E-03     208.617E-03    -104.866E-03     5.30071E-03
             215    -516.707E-09     1.18876E-03    -47.9464E+06    -199.715E+06    -48.3692E+06     300.128E+03    -111.163E-03     222.499E-03    -111.335E-03     2.76487E-03    -111.040E-03     221.641E-03    -111.218E-03     2.74324E-03
             216     802.547E-06    -8.31279E-15    -46.7308E+06    -199.197E+06    -46.3201E+06     339.246E+03    -113.648E-03     227.097E-03    -113.448E-03     2.28420E-03    -113.523E-03     226.236E-03    -113.323E-03     2.26525E-03
             217     1.60514E-03    -8.31279E-15    -46.2515E+06    -198.533E+06    -45.5275E+06    -284.573E+03    -113.631E-03     227.200E-03    -113.569E-03     4.54427E-03    -113.508E-03     226.340E-03    -113.442E-03     4.49209E-03
             218     2.40747E-03    -8.31279E-15    -45.4751E+06    -197.465E+06    -44.3838E+06    -175.556E+03    -113.633E-03     227.231E-03    -113.598E-03     6.88936E-03    -113.510E-03     226.374E-03    -113.468E-03     6.81565E-03
             219     3.20979E-03    -8.31279E-15    -44.9030E+06    -196.116E+06    -42.7371E+06     143.064E+03    -113.635E-03     227.254E-03    -113.619E-03     9.37438E-03    -113.515E-03     226.401E-03    -113.483E-03     9.28294E-03
             220     4.01222E-03    -8.31279E-15    -43.9742E+06    -195.224E+06    -42.3598E+06    -587.252E+03    -113.723E-03     227.359E-03    -113.636E-03     11.7903E-03    -113.601E-03     226.510E-03    -113.501E-03     11.6651E-03
             221     4.81449E-03    -8.31279E-15    -41.5321E+06    -189.843E+06    -45.5845E+06    -2.97906E+06    -113.936E-03     227.583E-03    -113.647E-03     14.2198E-03    -113.806E-03     226.763E-03    -113.539E-03     14.0367E-03
             222     5.61656E-03    -8.31279E-15    -37.2578E+06    -176.963E+06    -50.8863E+06    -5.12687E+06    -114.306E-03     227.971E-03    -113.664E-03     16.6828E-03    -114.167E-03     227.218E-03    -113.608E-03     16.4403E-03
             223     6.41825E-03    -8.31279E-15    -30.8042E+06    -154.638E+06    -56.3643E+06    -7.99552E+06    -114.874E-03     228.580E-03    -113.706E-03     19.2817E-03    -114.730E-03     227.940E-03    -113.719E-03     18.9648E-03
             224     7.21924E-03    -8.31279E-15    -23.2215E+06    -122.015E+06    -60.8607E+06    -8.63646E+06    -115.700E-03     229.490E-03    -113.790E-03     22.2438E-03    -115.561E-03     229.011E-03    -113.884E-03     21.8786E-03
             225     8.01914E-03    -8.31279E-15    -16.8993E+06    -84.8541E+06    -63.2524E+06    -7.33420E+06    -116.860E-03     230.809E-03    -113.949E-03     25.5185E-03    -116.743E-03     230.513E-03    -114.117E-03     25.1197E-03
             226     8.81814E-03    -8.31279E-15    -12.0956E+06    -40.3859E+06    -61.0978E+06    -6.51847E+06    -118.425E-03     232.633E-03    -114.208E-03     29.0259E-03    -118.357E-03     232.555E-03    -114.437E-03     28.5664E-03
             227     9.61528E-03    -8.31279E-15    -8.90176E+06     5.17990E+06    -45.9488E+06    -3.39148E+06    -120.490E-03     235.128E-03    -114.638E-03     33.3719E-03    -120.502E-03     235.259E-03    -114.862E-03     32.8646E-03
             228     10.4096E-03    -8.31279E-15    -8.59649E+06     35.8641E+06    -17.0668E+06     292.802E+03    -123.205E-03     238.494E-03    -115.289E-03     38.8341E-03    -123.314E-03     238.748E-03    -115.414E-03     38.2475E-03
             229     11.2017E-03    -8.31279E-15    -8.34294E+06     51.5719E+06     8.37964E+06    -765.653E+03    -126.805E-03     242.904E-03    -116.099E-03     44.7390E-03    -126.994E-03     243.221E-03    -116.120E-03     43.9175E-03
             230     11.9905E-03    -8.31279E-15    -2.51754E+06     64.2751E+06     37.1193E+06    -5.35031E+06    -132.051E-03     249.178E-03    -117.127E-03     52.1789E-03    -132.301E-03     249.538E-03    -117.031E-03     51.0352E-03
             231     12.7727E-03    -8.31279E-15     6.76468E+06     77.6031E+06     79.7697E+06    -4.32953E+06    -140.662E-03     259.197E-03    -118.535E-03     63.7496E-03    -141.002E-03     259.603E-03    -118.258E-03     62.2375E-03
             232     13.5446E-03    -8.31279E-15     12.8943E+06     92.3689E+06     106.328E+06     2.36961E+06    -155.661E-03     276.065E-03    -120.404E-03     86.2875E-03    -156.153E-03     276.617E-03    -120.025E-03     84.1856E-03
             233     14.2930E-03    -8.31279E-15    -1.47411E+06     90.9295E+06     93.6485E+06     7.80375E+06    -187.379E-03     310.552E-03    -123.173E-03     139.931E-03    -188.687E-03     311.899E-03    -122.835E-03     134.855E-03
             234     14.9985E-03    -8.31279E-15    -10.7996E+06     89.5749E+06     83.1033E+06     7.66319E+06    -239.453E-03     367.219E-03    -127.766E-03     235.959E-03    -243.824E-03     371.584E-03    -127.465E-03     222.429E-03
             235     15.8631E-03     1.49863E-03    -9.42098E+06     99.0496E+06     77.4280E+06     4.57653E+06    -230.087E-03     355.902E-03    -125.815E-03     261.692E-03    -236.497E-03     362.350E-03    -125.558E-03     245.549E-03
             236     15.9876E-03     2.79178E-03     1.58722E+06     110.227E+06     74.9843E+06     4.04286E+06    -190.625E-03     308.716E-03    -118.091E-03     188.180E-03    -195.853E-03     314.111E-03    -117.878E-03     175.521E-03
             237     16.0428E-03     4.07214E-03     6.16794E+06     112.844E+06     79.7881E+06     3.15777E+06    -202.160E-03     315.856E-03    -113.696E-03     118.712E-03    -205.971E-03     319.863E-03    -113.469E-03     105.766E-03
             238     16.0649E-03     5.39503E-03    -2.54839E+06     106.150E+06     79.9209E+06     2.72764E+06    -212.927E-03     324.545E-03    -111.618E-03     82.8808E-03    -216.061E-03     327.818E-03    -111.369E-03     69.6238E-03
             239     16.0813E-03     6.71314E-03    -674.512E+03     107.015E+06     84.5520E+06     1.27631E+06    -203.957E-03     314.879E-03    -110.922E-03     73.2248E-03    -207.049E-03     318.106E-03    -110.653E-03     60.5359E-03
             240     16.0843E-03     8.01135E-03    -1.94350E+06     105.353E+06     86.0205E+06    -1.02785E+06    -190.683E-03     301.589E-03    -110.906E-03     75.1898E-03    -193.999E-03     305.026E-03    -110.626E-03     63.2675E-03
             241     16.0831E-03     9.29587E-03    -2.80859E+06     106.338E+06     87.4053E+06     1.80025E+06    -177.836E-03     288.939E-03    -111.103E-03     81.1025E-03    -181.321E-03     292.539E-03    -110.816E-03     70.3508E-03
             242     16.0900E-03     10.5477E-03    -2.25456E+06     110.718E+06     88.4954E+06     1.23199E+06    -164.154E-03     275.411E-03    -111.257E-03     77.1035E-03    -167.569E-03     278.952E-03    -110.972E-03     67.7305E-03
             243     16.0881E-03     11.7856E-03    -227.384E+03     112.897E+06     90.1245E+06    -241.109E+03    -154.544E-03     265.900E-03    -111.355E-03     72.8804E-03    -157.897E-03     269.391E-03    -111.068E-03     64.5894E-03
             244     16.0935E-03     13.0270E-03    -2.09325E+06     112.747E+06     89.3406E+06     789.744E+03    -146.963E-03     258.335E-03    -111.372E-03     78.2633E-03    -150.502E-03     262.008E-03    -111.085E-03     70.7558E-03
             245     16.0954E-03     14.2550E-03    -3.05808E+06     113.604E+06     88.9590E+06     109.965E+03    -140.361E-03     251.723E-03    -111.362E-03     80.8565E-03    -144.047E-03     255.543E-03    -111.077E-03     73.9590E-03
             246     16.0969E-03     15.4708E-03    -2.58578E+06     115.280E+06     89.8758E+06     904.125E+03    -136.454E-03     247.761E-03    -111.306E-03     82.7984E-03    -140.230E-03     251.675E-03    -111.020E-03     76.3682E-03
             247     16.1016E-03     16.6891E-03    -2.67828E+06     116.519E+06     90.7103E+06     530.423E+03    -134.176E-03     245.358E-03    -111.182E-03     85.8311E-03    -138.094E-03     249.418E-03    -110.894E-03     79.6256E-03
             248     16.1022E-03     17.9082E-03    -2.43036E+06     117.170E+06     91.4347E+06     506.066E+03    -132.548E-03     243.636E-03    -111.088E-03     88.8752E-03    -136.656E-03     247.886E-03    -110.797E-03     82.7853E-03
             249     16.1049E-03     19.1154E-03    -2.48716E+06     117.796E+06     91.8946E+06     592.293E+03    -131.281E-03     242.285E-03    -111.004E-03     89.6382E-03    -135.467E-03     246.614E-03    -110.712E-03     83.7015E-03
             250     16.1062E-03     20.3291E-03    -2.48968E+06     118.105E+06     92.3661E+06    -53.6001E+03    -129.933E-03     240.872E-03    -110.939E-03     90.5524E-03    -134.168E-03     245.250E-03    -110.645E-03     84.7776E-03
             251     16.1073E-03     21.5396E-03    -2.82140E+06     118.178E+06     92.2793E+06     626.968E+03    -128.019E-03     238.936E-03    -110.917E-03     92.1962E-03    -132.358E-03     243.416E-03    -110.623E-03     86.6530E-03
             252     16.1083E-03     22.7410E-03    -1.75525E+06     119.448E+06     93.0881E+06     94.0329E+03    -126.318E-03     237.209E-03    -110.891E-03     91.8300E-03    -130.713E-03     241.752E-03    -110.596E-03     86.4612E-03
             253     16.1094E-03     23.9486E-03    -2.50159E+06     119.423E+06     93.0053E+06    -148.706E+03    -124.760E-03     235.636E-03    -110.877E-03     94.6807E-03    -129.266E-03     240.289E-03    -110.581E-03     89.5022E-03
             254     16.1097E-03     25.1557E-03    -2.89036E+06     119.404E+06     92.8979E+06     526.328E+03    -121.673E-03     232.579E-03    -110.906E-03     97.9188E-03    -126.339E-03     237.389E-03    -110.610E-03     93.0636E-03
             255     16.1112E-03     26.3463E-03    -1.53834E+06     120.731E+06     94.1051E+06     354.356E+03    -119.944E-03     230.843E-03    -110.898E-03     98.0461E-03    -124.651E-03     235.700E-03    -110.601E-03     93.3439E-03
             256     16.1112E-03     27.5452E-03    -2.04030E+06     120.874E+06     94.2375E+06    -83.1320E+03    -120.542E-03     231.404E-03    -110.862E-03     97.1267E-03    -125.247E-03     236.258E-03    -110.563E-03     92.4502E-03
             257     16.1110E-03     28.7472E-03    -2.46600E+06     121.124E+06     94.1409E+06      131.94E+03    -119.075E-03     229.950E-03    -110.875E-03     101.381E-03    -123.935E-03     234.959E-03    -110.577E-03     96.8802E-03
             258     16.1132E-03     29.9425E-03    -2.78114E+06     120.952E+06     93.8963E+06    -200.471E+03    -115.998E-03     226.919E-03    -110.921E-03     102.530E-03    -120.915E-03     231.983E-03    -110.623E-03     98.3529E-03
             259     16.1111E-03     31.1292E-03    -3.40523E+06     120.315E+06     93.4941E+06    -30.6583E+03    -114.994E-03     225.957E-03    -110.964E-03     100.142E-03    -119.893E-03     231.000E-03    -110.666E-03     96.1603E-03
             260     16.1118E-03     32.3201E-03    -2.35317E+06     120.836E+06     94.1791E+06     741.414E+03    -114.235E-03     225.206E-03    -110.971E-03     99.6149E-03    -119.093E-03     230.212E-03    -110.672E-03     95.7043E-03
             261     16.1133E-03     33.5117E-03    -2.07480E+06     121.381E+06     94.5932E+06     -79.961E+03    -113.010E-03     223.974E-03    -110.965E-03     102.780E-03    -117.958E-03     229.072E-03    -110.665E-03     98.9668E-03
             262     16.1122E-03     34.7031E-03    -2.53437E+06     121.570E+06     94.8178E+06     141.282E+03    -112.317E-03     223.300E-03    -110.983E-03     104.887E-03    -117.375E-03     228.506E-03    -110.682E-03     101.207E-03
             263     16.1129E-03     35.8881E-03    -1.89196E+06     122.070E+06     95.2956E+06     95.2041E+03    -111.157E-03     222.167E-03    -111.010E-03     101.899E-03    -116.139E-03     227.299E-03    -110.708E-03     98.3543E-03
             264     16.1126E-03     37.0675E-03    -2.26316E+06     121.584E+06     94.7843E+06    -451.321E+03    -110.900E-03     221.903E-03    -111.003E-03     99.9956E-03    -115.798E-03     226.950E-03    -110.702E-03     96.4923E-03
             265     16.1133E-03     38.2637E-03    -2.71101E+06     121.220E+06     94.4739E+06     214.105E+03    -110.801E-03     221.792E-03    -110.991E-03     103.010E-03    -115.772E-03     226.910E-03    -110.691E-03     99.5256E-03
             266     16.1133E-03     39.4450E-03    -2.11995E+06     121.902E+06     95.0666E+06     175.888E+03    -110.156E-03     221.157E-03    -111.001E-03     102.674E-03    -115.132E-03     226.283E-03    -110.699E-03     99.2595E-03
             267     16.1130E-03     40.6288E-03    -2.03736E+06     121.784E+06     94.7857E+06     92.6936E+03    -109.445E-03     220.462E-03    -111.017E-03     99.4380E-03    -114.343E-03     225.511E-03    -110.717E-03     96.1249E-03
             268     16.1135E-03     41.8127E-03    -2.21884E+06     121.655E+06     94.6371E+06     183.273E+03    -109.830E-03     220.819E-03    -110.989E-03     101.341E-03    -114.789E-03     225.928E-03    -110.689E-03     98.0253E-03
             269     16.1140E-03     43.0013E-03    -1.79687E+06     122.130E+06     95.2309E+06    -183.206E+03    -109.768E-03     220.750E-03    -110.982E-03     101.512E-03    -114.733E-03     225.866E-03    -110.680E-03     98.1966E-03
             270     16.1131E-03     44.1860E-03    -2.48826E+06     121.538E+06     94.6259E+06    -223.832E+03    -108.336E-03     219.374E-03    -111.038E-03     102.279E-03    -113.355E-03     224.541E-03    -110.738E-03     99.0867E-03
             271     16.1131E-03     45.3657E-03    -3.37531E+06     120.940E+06     94.0960E+06    -14.7675E+03    -109.093E-03     220.140E-03    -111.047E-03     101.953E-03    -114.114E-03     225.305E-03    -110.747E-03     98.7285E-03
             272     16.1122E-03     46.5520E-03    -2.67673E+06     121.402E+06     94.4520E+06     59.7556E+03    -109.619E-03     220.662E-03    -111.042E-03     100.176E-03    -114.567E-03     225.757E-03    -110.742E-03     96.8739E-03
             273     16.1134E-03     47.7368E-03    -2.28043E+06     121.788E+06     94.6142E+06     76.3221E+03    -108.254E-03     219.311E-03    -111.058E-03     101.112E-03    -113.202E-03     224.409E-03    -110.758E-03     97.9248E-03
             274     16.1133E-03     48.9178E-03    -2.60713E+06     121.947E+06     94.7084E+06    -233.939E+03    -108.700E-03     219.749E-03    -111.049E-03     100.787E-03    -113.655E-03     224.852E-03    -110.748E-03     97.5957E-03
             275     16.1121E-03     50.1038E-03    -2.82841E+06     121.328E+06     94.2247E+06     427.074E+03    -109.052E-03     220.114E-03    -111.062E-03     98.6032E-03    -113.990E-03     225.200E-03    -110.763E-03     95.3754E-03
             276     16.1128E-03     51.2848E-03    -1.89746E+06     121.856E+06     94.7153E+06     448.132E+03    -107.888E-03     218.954E-03    -111.066E-03     100.150E-03    -112.881E-03     224.098E-03    -110.767E-03     96.9602E-03
             277     16.1143E-03     52.4711E-03    -2.26255E+06     122.126E+06     95.2176E+06    -378.355E+03    -107.935E-03     218.970E-03    -111.035E-03     102.913E-03    -112.996E-03     224.181E-03    -110.733E-03     99.7183E-03
             278     16.1128E-03     53.6564E-03    -2.88438E+06     121.331E+06     94.3872E+06     45.3075E+03    -108.615E-03     219.637E-03    -111.022E-03     102.580E-03    -113.646E-03     224.814E-03    -110.721E-03     99.3744E-03
             279     16.1139E-03     54.8332E-03    -1.98539E+06     121.561E+06     94.5547E+06    -639.374E+03    -108.491E-03     219.511E-03    -111.020E-03     98.5134E-03    -113.361E-03     224.532E-03    -110.721E-03     95.2934E-03
             280     16.1134E-03     56.0189E-03    -3.15348E+06     120.928E+06     94.3139E+06    -35.8376E+03    -108.739E-03     219.764E-03    -111.025E-03     99.8368E-03    -113.658E-03     224.828E-03    -110.724E-03     96.6693E-03
             281     16.1128E-03     57.2094E-03    -2.55681E+06     121.831E+06     94.9990E+06     626.773E+03    -108.826E-03     219.888E-03    -111.061E-03     103.191E-03    -113.904E-03     225.114E-03    -110.759E-03     99.9810E-03
             282     16.1122E-03     58.3873E-03    -1.82611E+06     122.435E+06     95.2097E+06    -161.340E+03    -108.225E-03     219.312E-03    -111.087E-03     101.460E-03    -113.226E-03     224.466E-03    -110.786E-03     98.2523E-03
             283     16.1132E-03     59.5685E-03    -2.82317E+06     121.354E+06     94.1248E+06    -352.413E+03    -108.571E-03     219.629E-03    -111.058E-03     100.307E-03    -113.495E-03     224.700E-03    -110.759E-03     97.1273E-03
             284     16.1129E-03     60.7580E-03    -1.81340E+06     121.921E+06     94.8315E+06    -67.3808E+03    -108.414E-03     219.468E-03    -111.055E-03     100.389E-03    -113.320E-03     224.526E-03    -110.755E-03     97.2092E-03
             285     16.1131E-03     61.9359E-03    -2.15502E+06     121.948E+06     94.7896E+06     122.554E+03    -108.053E-03     219.117E-03    -111.064E-03     101.301E-03    -112.990E-03     224.204E-03    -110.764E-03     98.1699E-03
             286     16.1131E-03     63.1229E-03    -3.02869E+06     121.386E+06     94.3607E+06    -128.285E+03    -108.456E-03     219.506E-03    -111.049E-03     102.348E-03    -113.450E-03     224.646E-03    -110.749E-03     99.1737E-03
             287     16.1132E-03     64.3070E-03    -2.06998E+06     121.879E+06     94.7836E+06     291.458E+03    -108.274E-03     219.322E-03    -111.048E-03     102.893E-03    -113.305E-03     224.503E-03    -110.748E-03     99.7134E-03
             288     16.1134E-03     65.4867E-03    -2.20590E+06     122.166E+06     94.9187E+06    -15.2804E+03    -108.163E-03     219.201E-03    -111.038E-03     102.553E-03    -113.191E-03     224.380E-03    -110.738E-03     99.3877E-03
             289     16.1137E-03     66.6740E-03    -2.56888E+06     121.932E+06     94.8284E+06     36.0957E+03    -108.154E-03     219.196E-03    -111.042E-03     103.365E-03    -113.198E-03     224.389E-03    -110.741E-03     100.225E-03
             290     16.1128E-03     67.8561E-03    -1.94345E+06     122.208E+06     94.8933E+06     98.7569E+03    -107.995E-03     219.052E-03    -111.057E-03     102.471E-03    -113.033E-03     224.242E-03    -110.757E-03     99.3165E-03
             291     16.1134E-03     69.0332E-03    -2.23565E+06     122.048E+06     94.7650E+06     102.265E+03    -108.985E-03     220.033E-03    -111.048E-03     100.253E-03    -113.939E-03     225.138E-03    -110.748E-03     97.0285E-03
             292     805.322E-06     68.4565E-03    -81.2024E+06      -231.1E+06    -79.7567E+06         658.232    -111.345E-03     222.527E-03    -111.181E-03     15.6650E-03    -111.313E-03     221.618E-03    -111.127E-03     15.3245E-03
             293     1.61058E-03     68.4808E-03    -78.9621E+06    -227.028E+06    -73.4522E+06    -33.6027E+03    -111.392E-03     222.636E-03    -111.244E-03     28.5350E-03    -111.390E-03     221.762E-03    -111.168E-03     27.9061E-03
             294     2.41597E-03     68.5202E-03    -75.2595E+06    -220.282E+06    -64.0531E+06     81.7075E+03    -111.595E-03     222.853E-03    -111.258E-03     42.0497E-03    -111.646E-03     222.041E-03    -111.150E-03     41.0941E-03
             295     3.22139E-03     68.5746E-03    -70.8234E+06    -208.744E+06    -52.0453E+06     184.218E+03    -111.847E-03     223.122E-03    -111.275E-03     55.6452E-03    -111.982E-03     222.415E-03    -111.129E-03     54.3324E-03
             296     4.02678E-03     68.6444E-03    -66.1843E+06    -194.771E+06    -40.4361E+06     89.1644E+03    -112.171E-03     223.452E-03    -111.281E-03     69.0014E-03    -112.420E-03     222.892E-03    -111.105E-03     67.2903E-03
             297     4.83229E-03     68.7287E-03    -61.3305E+06    -180.599E+06    -30.8823E+06     296.939E+03    -112.565E-03     223.841E-03    -111.275E-03     82.0852E-03    -112.960E-03     223.466E-03    -111.079E-03     79.9349E-03
             298     5.63781E-03     68.8274E-03    -56.2145E+06    -169.558E+06    -22.3362E+06     533.873E+03    -113.040E-03     224.311E-03    -111.271E-03     94.9706E-03    -113.617E-03     224.152E-03    -111.056E-03     92.3232E-03
             299     6.44327E-03     68.9401E-03    -51.6741E+06    -149.384E+06    -16.1344E+06     300.861E+03    -113.528E-03     224.775E-03    -111.247E-03     107.672E-03    -114.357E-03     224.936E-03    -111.036E-03     104.460E-03
             300     7.24893E-03     69.0668E-03    -47.3745E+06    -135.036E+06    -10.3643E+06    -19.4094E+03    -114.004E-03     225.233E-03    -111.230E-03     120.162E-03    -115.147E-03     225.759E-03    -111.017E-03     116.308E-03
             301     8.05454E-03     69.2069E-03    -43.1890E+06    -122.806E+06    -5.86293E+06     54.9050E+03    -114.482E-03     225.692E-03    -111.210E-03     132.666E-03    -116.031E-03     226.669E-03    -110.999E-03     128.086E-03
             302     8.86009E-03     69.3607E-03    -39.6992E+06    -94.4984E+06    -3.87002E+06     182.421E+03    -114.907E-03     226.062E-03    -111.155E-03     145.446E-03    -117.011E-03     227.702E-03    -110.980E-03     140.045E-03
             303     9.66578E-03     69.5284E-03    -36.8148E+06    -62.9069E+06    -833.572E+03    -38.2767E+03    -115.213E-03     226.314E-03    -111.101E-03     158.140E-03    -118.053E-03     228.803E-03    -110.961E-03     151.800E-03
             304     10.4713E-03     69.7098E-03    -34.0634E+06    -16.9229E+06     4.91919E+06    -44.3499E+03    -115.325E-03     226.360E-03    -111.035E-03     171.831E-03    -119.182E-03     230.021E-03    -110.937E-03     164.424E-03
             305     11.2773E-03     69.9073E-03    -30.9878E+06     39.8283E+06     12.3617E+06    -109.931E+03    -115.623E-03     226.578E-03    -110.954E-03     190.827E-03    -121.029E-03     231.979E-03    -110.905E-03     182.117E-03
             306     12.0836E-03     70.1307E-03    -27.4716E+06     77.5359E+06     32.6359E+06    -74.2775E+03    -116.920E-03     227.892E-03    -110.972E-03     220.931E-03    -124.924E-03     235.979E-03    -110.881E-03     210.506E-03
             307     12.8883E-03     70.3955E-03    -23.4986E+06     93.8084E+06     64.0436E+06    -133.256E+03    -118.503E-03     229.586E-03    -111.083E-03     260.516E-03    -130.502E-03     241.649E-03    -110.865E-03     248.331E-03
             308     13.6947E-03     70.7083E-03    -17.6869E+06     107.855E+06     88.0744E+06    -255.899E+03    -118.080E-03     229.225E-03    -111.145E-03     283.790E-03    -133.834E-03     245.044E-03    -110.836E-03     271.488E-03
             309     14.5026E-03     71.0273E-03    -10.1037E+06     121.409E+06     99.6334E+06     295.324E+03    -114.585E-03     225.732E-03    -111.147E-03     260.432E-03    -131.059E-03     242.313E-03    -110.811E-03     250.965E-03
             310     15.3049E-03     71.2901E-03    -4.75560E+06     124.690E+06     97.8738E+06     423.040E+03    -109.998E-03     221.112E-03    -111.114E-03     169.774E-03    -120.438E-03     231.694E-03    -110.799E-03     164.529E-03
             311     805.305E-06     69.6398E-03    -80.9574E+06    -230.801E+06    -79.5346E+06    -237.412E+03    -111.315E-03     222.456E-03    -111.142E-03     15.4799E-03    -111.281E-03     221.548E-03    -111.087E-03     15.1391E-03
             312     1.61074E-03     69.6642E-03    -78.7170E+06    -226.675E+06    -73.2042E+06    -382.390E+03    -111.357E-03     222.566E-03    -111.210E-03     28.5189E-03    -111.355E-03     221.693E-03    -111.133E-03     27.8852E-03
             313     2.41604E-03     69.7035E-03    -75.2962E+06    -220.370E+06    -64.0397E+06    -415.911E+03    -111.600E-03     222.829E-03    -111.229E-03     42.0852E-03    -111.651E-03     222.016E-03    -111.120E-03     41.1226E-03
             314     3.22136E-03     69.7581E-03    -70.8758E+06    -209.369E+06    -52.8934E+06    -25.0754E+03    -111.868E-03     223.121E-03    -111.253E-03     55.6216E-03    -112.001E-03     222.412E-03    -111.111E-03     54.3059E-03
             315     4.02686E-03     69.8277E-03    -66.0680E+06    -194.961E+06    -41.3454E+06     587.886E+03    -112.167E-03     223.430E-03    -111.263E-03     68.9927E-03    -112.414E-03     222.871E-03    -111.091E-03     67.2880E-03
             316     4.83234E-03     69.9120E-03    -61.3248E+06    -180.665E+06    -31.1055E+06     584.412E+03    -112.566E-03     223.829E-03    -111.263E-03     82.0729E-03    -112.962E-03     223.456E-03    -111.068E-03     79.9237E-03
             317     5.63788E-03     70.0106E-03    -56.5651E+06    -169.846E+06    -22.4186E+06     244.775E+03    -113.039E-03     224.302E-03    -111.262E-03     94.9384E-03    -113.619E-03     224.143E-03    -111.046E-03     92.2852E-03
             318     6.44347E-03     70.1235E-03    -51.4475E+06    -148.629E+06    -15.4744E+06     18.8379E+03    -113.529E-03     224.770E-03    -111.241E-03     107.634E-03    -114.359E-03     224.934E-03    -111.028E-03     104.418E-03
             319     7.24889E-03     70.2501E-03    -46.8273E+06    -134.913E+06    -9.96624E+06    -155.991E+03    -114.013E-03     225.239E-03    -111.225E-03     120.039E-03    -115.156E-03     225.765E-03    -111.012E-03     116.179E-03
             320     8.05445E-03     70.3901E-03    -43.0632E+06    -123.432E+06    -6.09709E+06     97.0635E+03    -114.478E-03     225.683E-03    -111.206E-03     132.535E-03    -116.025E-03     226.658E-03    -110.995E-03     127.953E-03
             321     8.86017E-03     70.5441E-03    -39.6002E+06    -94.4143E+06    -3.75401E+06     303.199E+03    -114.926E-03     226.080E-03    -111.154E-03     145.314E-03    -117.030E-03     227.719E-03    -110.978E-03     139.914E-03
             322     9.66565E-03     70.7119E-03    -36.5234E+06    -62.7057E+06    -349.143E+03     430.603E+03    -115.268E-03     226.373E-03    -111.105E-03     158.058E-03    -118.106E-03     228.859E-03    -110.963E-03     151.724E-03
             323     10.4714E-03     70.8933E-03    -33.6857E+06    -16.5679E+06     5.44628E+06     278.521E+03    -115.436E-03     226.481E-03    -111.045E-03     171.837E-03    -119.295E-03     230.146E-03    -110.945E-03     164.426E-03
             324     11.2770E-03     71.0905E-03    -31.0040E+06     39.9260E+06     12.1852E+06     48.3377E+03    -115.839E-03     226.811E-03    -110.972E-03     191.085E-03    -121.256E-03     232.225E-03    -110.924E-03     182.352E-03
             325     12.0824E-03     71.3140E-03    -27.6731E+06     77.1602E+06     31.5703E+06     262.597E+03    -116.815E-03     227.800E-03    -110.985E-03     221.631E-03    -124.812E-03     235.881E-03    -110.899E-03     211.235E-03
             326     12.8888E-03     71.5798E-03    -22.4363E+06     94.7757E+06     64.8606E+06     251.918E+03    -118.266E-03     229.352E-03    -111.086E-03     260.786E-03    -130.267E-03     241.421E-03    -110.867E-03     248.641E-03
             327     13.6953E-03     71.8901E-03    -16.5610E+06     109.036E+06     89.7320E+06    -89.8498E+03    -118.196E-03     229.344E-03    -111.149E-03     283.205E-03    -133.931E-03     245.148E-03    -110.834E-03     270.887E-03
             328     14.4998E-03     72.2109E-03    -11.4947E+06     120.065E+06     98.1852E+06    -209.864E+03    -114.557E-03     225.704E-03    -111.146E-03     261.074E-03    -131.054E-03     242.301E-03    -110.813E-03     251.592E-03
             329     15.3069E-03     72.4771E-03    -5.52123E+06     123.822E+06     96.8493E+06     154.437E+03    -109.793E-03     220.899E-03    -111.105E-03     168.951E-03    -120.235E-03     231.479E-03    -110.793E-03     163.725E-03
             330     805.310E-06     70.8233E-03    -80.4952E+06    -230.032E+06    -78.8343E+06    -344.337E+03    -111.252E-03     222.439E-03    -111.186E-03     15.4320E-03    -111.219E-03     221.533E-03    -111.130E-03     15.0904E-03
             331     1.61067E-03     70.8473E-03    -78.3516E+06    -226.282E+06    -72.9399E+06    -463.950E+03    -111.340E-03     222.539E-03    -111.199E-03     28.4415E-03    -111.337E-03     221.666E-03    -111.122E-03     27.8065E-03
             332     2.41615E-03     70.8869E-03    -75.3176E+06    -220.101E+06    -63.7252E+06    -391.385E+03    -111.570E-03     222.786E-03    -111.216E-03     42.0735E-03    -111.623E-03     221.975E-03    -111.106E-03     41.1113E-03
             333     3.22150E-03     70.9414E-03    -70.9420E+06    -209.567E+06    -53.1497E+06    -491.190E+03    -111.873E-03     223.111E-03    -111.238E-03     55.5478E-03    -112.006E-03     222.402E-03    -111.097E-03     54.2251E-03
             334     4.02689E-03     71.0109E-03    -65.7628E+06    -196.285E+06    -42.0774E+06     129.402E+03    -112.191E-03     223.444E-03    -111.253E-03     68.8983E-03    -112.434E-03     222.878E-03    -111.083E-03     67.1862E-03
             335     4.83242E-03     71.0953E-03    -60.4572E+06    -180.714E+06    -31.1647E+06     654.096E+03    -112.602E-03     223.862E-03    -111.259E-03     82.0181E-03    -112.993E-03     223.487E-03    -111.066E-03     79.8670E-03
             336     5.63784E-03     71.1940E-03    -55.1294E+06    -168.809E+06    -21.8015E+06    -38.1993E+03    -113.078E-03     224.343E-03    -111.266E-03     94.8248E-03    -113.653E-03     224.187E-03    -111.050E-03     92.1641E-03
             337     6.44330E-03     71.3068E-03    -50.4553E+06    -149.040E+06    -15.3095E+06    -110.752E+03    -113.515E-03     224.761E-03    -111.246E-03     107.543E-03    -114.339E-03     224.922E-03    -111.033E-03     104.325E-03
             338     7.24895E-03     71.4336E-03    -46.8560E+06    -135.129E+06    -9.87417E+06     452.430E+03    -114.016E-03     225.246E-03    -111.230E-03     119.975E-03    -115.158E-03     225.771E-03    -111.016E-03     116.123E-03
             339     8.05448E-03     71.5734E-03    -43.4444E+06    -123.046E+06    -5.86744E+06     359.674E+03    -114.525E-03     225.738E-03    -111.214E-03     132.450E-03    -116.076E-03     226.715E-03    -111.002E-03     127.868E-03
             340     8.85995E-03     71.7276E-03    -40.1873E+06    -94.7304E+06    -4.15678E+06     337.149E+03    -114.912E-03     226.073E-03    -111.161E-03     145.294E-03    -117.015E-03     227.710E-03    -110.986E-03     139.899E-03
             341     9.66566E-03     71.8953E-03    -37.1497E+06    -63.2177E+06    -871.369E+03     410.525E+03    -115.209E-03     226.317E-03    -111.108E-03     158.092E-03    -118.044E-03     228.798E-03    -110.967E-03     151.768E-03
             342     10.4713E-03     72.0767E-03    -34.1900E+06    -16.3625E+06     5.04609E+06     427.795E+03    -115.453E-03     226.498E-03    -111.045E-03     171.942E-03    -119.313E-03     230.164E-03    -110.947E-03     164.534E-03
             343     11.2771E-03     72.2741E-03    -31.0264E+06     40.4235E+06     12.0965E+06     271.851E+03    -115.866E-03     226.839E-03    -110.973E-03     191.346E-03    -121.285E-03     232.256E-03    -110.926E-03     182.618E-03
             344     12.0830E-03     72.4980E-03    -27.5178E+06     77.4774E+06     32.2216E+06    -9.54672E+03    -116.740E-03     227.727E-03    -110.988E-03     221.432E-03    -124.738E-03     235.809E-03    -110.899E-03     211.035E-03
             345     12.8895E-03     72.7615E-03    -22.7091E+06     94.5993E+06     64.6664E+06     58.3638E+03    -118.390E-03     229.479E-03    -111.089E-03     260.522E-03    -130.377E-03     241.533E-03    -110.870E-03     248.357E-03
             346     13.6941E-03     73.0762E-03    -17.0334E+06     108.555E+06     88.8421E+06     227.147E+03    -118.290E-03     229.447E-03    -111.157E-03     283.060E-03    -134.047E-03     245.272E-03    -110.846E-03     270.727E-03
             347     14.5011E-03     73.3925E-03    -11.3792E+06     120.224E+06     98.5594E+06     352.897E+03    -113.784E-03     224.924E-03    -111.140E-03     261.758E-03    -130.306E-03     241.547E-03    -110.805E-03     252.374E-03
             348     15.3070E-03     73.6614E-03    -5.25039E+06     124.272E+06     97.3872E+06     31.4279E+03    -109.600E-03     220.668E-03    -111.068E-03     169.832E-03    -120.026E-03     231.235E-03    -110.754E-03     164.659E-03
             349     805.377E-06     72.0066E-03    -80.2650E+06    -229.737E+06    -78.5607E+06    -39.6683E+03    -111.273E-03     222.428E-03    -111.155E-03     15.4582E-03    -111.239E-03     221.523E-03    -111.099E-03     15.1200E-03
             350     1.61068E-03     72.0307E-03    -78.3400E+06    -225.925E+06    -72.3573E+06    -116.370E+03    -111.381E-03     222.586E-03    -111.205E-03     28.4056E-03    -111.380E-03     221.715E-03    -111.126E-03     27.7744E-03
             351     2.41602E-03     72.0701E-03    -75.0487E+06    -219.764E+06    -63.5408E+06    -240.622E+03    -111.566E-03     222.793E-03    -111.227E-03     42.0239E-03    -111.618E-03     221.982E-03    -111.117E-03     41.0630E-03
             352     3.22146E-03     72.1249E-03    -71.1402E+06    -209.102E+06    -52.4483E+06    -273.529E+03    -111.848E-03     223.094E-03    -111.246E-03     55.4868E-03    -111.983E-03     222.387E-03    -111.102E-03     54.1665E-03
             353     4.02686E-03     72.1943E-03    -66.7789E+06    -197.315E+06    -42.2383E+06    -454.485E+03    -112.225E-03     223.485E-03    -111.261E-03     68.8260E-03    -112.471E-03     222.917E-03    -111.089E-03     67.1046E-03
             354     4.83227E-03     72.2786E-03    -61.3727E+06    -180.649E+06    -33.2168E+06    -635.558E+03    -112.626E-03     223.887E-03    -111.261E-03     82.0268E-03    -113.018E-03     223.516E-03    -111.076E-03     79.8598E-03
             355     5.63775E-03     72.3775E-03    -56.2141E+06    -168.289E+06    -23.3494E+06    -343.731E+03    -113.087E-03     224.357E-03    -111.270E-03     94.8482E-03    -113.666E-03     224.207E-03    -111.062E-03     92.1849E-03
             356     6.44324E-03     72.4901E-03    -52.1807E+06    -150.224E+06    -15.8320E+06     396.854E+03    -113.539E-03     224.800E-03    -111.261E-03     107.478E-03    -114.370E-03     224.958E-03    -111.046E-03     104.265E-03
             357     7.24885E-03     72.6168E-03    -47.8845E+06    -135.105E+06    -10.0221E+06     562.469E+03    -114.008E-03     225.253E-03    -111.244E-03     119.941E-03    -115.154E-03     225.778E-03    -111.029E-03     116.094E-03
             358     8.05428E-03     72.7571E-03    -43.6440E+06    -122.711E+06    -5.79035E+06     484.168E+03    -114.512E-03     225.738E-03    -111.225E-03     132.422E-03    -116.064E-03     226.715E-03    -111.013E-03     127.846E-03
             359     8.85992E-03     72.9107E-03    -40.2313E+06    -94.9448E+06    -4.11902E+06     629.931E+03    -114.893E-03     226.064E-03    -111.171E-03     145.231E-03    -116.995E-03     227.698E-03    -110.996E-03     139.841E-03
             360     9.66562E-03     73.0787E-03    -37.2502E+06    -63.0778E+06    -963.777E+03     577.164E+03    -115.179E-03     226.294E-03    -111.114E-03     158.049E-03    -118.012E-03     228.773E-03    -110.974E-03     151.731E-03
             361     10.4714E-03     73.2600E-03    -34.1204E+06    -16.1246E+06     5.22448E+06     279.045E+03    -115.439E-03     226.489E-03    -111.050E-03     171.956E-03    -119.298E-03     230.155E-03    -110.951E-03     164.548E-03
             362     11.2770E-03     73.4579E-03    -30.9042E+06     40.3686E+06     12.3921E+06     107.324E+03    -115.833E-03     226.810E-03    -110.977E-03     191.086E-03    -121.246E-03     232.221E-03    -110.929E-03     182.360E-03
             363     12.0830E-03     73.6807E-03    -27.6109E+06     77.5136E+06     31.9205E+06     357.147E+03    -116.919E-03     227.915E-03    -110.996E-03     221.083E-03    -124.915E-03     235.996E-03    -110.909E-03     210.674E-03
             364     12.8877E-03     73.9460E-03    -23.6138E+06     93.7572E+06     63.5574E+06     152.757E+03    -118.240E-03     229.337E-03    -111.097E-03     260.678E-03    -130.229E-03     241.390E-03    -110.881E-03     248.533E-03
             365     13.6949E-03     74.2584E-03    -17.6565E+06     107.941E+06     88.3005E+06     108.282E+03    -117.842E-03     228.987E-03    -111.144E-03     283.931E-03    -133.587E-03     244.796E-03    -110.834E-03     271.684E-03
             366     14.5005E-03     74.5765E-03    -10.4178E+06     121.042E+06     99.4444E+06     103.426E+03    -113.701E-03     224.812E-03    -111.111E-03     261.013E-03    -130.154E-03     241.369E-03    -110.774E-03     251.663E-03
             367     15.3093E-03     74.8409E-03    -4.74553E+06     124.839E+06     98.0394E+06    -36.5555E+03    -109.572E-03     220.612E-03    -111.041E-03     170.044E-03    -119.974E-03     231.156E-03    -110.724E-03     164.869E-03
             368     805.326E-06     73.1898E-03    -80.5875E+06    -230.049E+06    -78.8120E+06     86.4672E+03    -111.304E-03     222.454E-03    -111.151E-03     15.4002E-03    -111.271E-03     221.549E-03    -111.094E-03     15.0644E-03
             369     1.61069E-03     73.2141E-03    -78.1865E+06    -225.802E+06    -72.2609E+06     203.304E+03    -111.402E-03     222.623E-03    -111.221E-03     28.3912E-03    -111.400E-03     221.751E-03    -111.141E-03     27.7645E-03
             370     2.41598E-03     73.2535E-03    -74.9869E+06    -219.495E+06    -63.1266E+06     119.040E+03    -111.589E-03     222.836E-03    -111.246E-03     41.9916E-03    -111.642E-03     222.026E-03    -111.135E-03     41.0348E-03
             371     3.22140E-03     73.3080E-03    -70.8933E+06    -209.093E+06    -52.5878E+06     139.466E+03    -111.848E-03     223.110E-03    -111.262E-03     55.5151E-03    -111.983E-03     222.403E-03    -111.119E-03     54.2005E-03
             372     4.02684E-03     73.3778E-03    -66.0377E+06    -196.244E+06    -41.5014E+06    -300.895E+03    -112.227E-03     223.501E-03    -111.275E-03     68.8580E-03    -112.472E-03     222.936E-03    -111.102E-03     67.1396E-03
             373     4.83222E-03     73.4620E-03    -61.7615E+06    -180.330E+06    -32.5578E+06    -726.608E+03    -112.635E-03     223.910E-03    -111.276E-03     82.0348E-03    -113.030E-03     223.541E-03    -111.088E-03     79.8673E-03
             374     5.63775E-03     73.5609E-03    -57.6827E+06    -169.687E+06    -24.0929E+06    -28.6345E+03    -113.089E-03     224.371E-03    -111.282E-03     94.8722E-03    -113.672E-03     224.216E-03    -111.073E-03     92.2150E-03
             375     6.44319E-03     73.6736E-03    -52.7072E+06    -150.766E+06    -15.9988E+06     356.764E+03    -113.569E-03     224.842E-03    -111.273E-03     107.492E-03    -114.401E-03     224.998E-03    -111.058E-03     104.278E-03
             376     7.24856E-03     73.8003E-03    -48.1643E+06    -135.039E+06    -10.0153E+06     375.615E+03    -114.014E-03     225.271E-03    -111.257E-03     120.007E-03    -115.161E-03     225.797E-03    -111.041E-03     116.158E-03
             377     8.05432E-03     73.9403E-03    -44.3920E+06    -122.697E+06    -6.00925E+06     431.646E+03    -114.474E-03     225.708E-03    -111.234E-03     132.529E-03    -116.027E-03     226.686E-03    -111.022E-03     127.957E-03
             378     8.85983E-03     74.0943E-03    -40.4551E+06    -94.9547E+06     -4.0411E+06     183.545E+03    -114.918E-03     226.097E-03    -111.179E-03     145.218E-03    -117.023E-03     227.733E-03    -111.003E-03     139.819E-03
             379     9.66546E-03     74.2617E-03    -36.5169E+06    -63.0541E+06    -723.068E+03     355.641E+03    -115.249E-03     226.375E-03    -111.125E-03     158.020E-03    -118.080E-03     228.854E-03    -110.985E-03     151.694E-03
             380     10.4711E-03     74.4436E-03    -33.3822E+06    -16.1376E+06     5.50538E+06     587.060E+03    -115.396E-03     226.457E-03    -111.061E-03     171.950E-03    -119.249E-03     230.119E-03    -110.962E-03     164.552E-03
             381     11.2770E-03     74.6411E-03    -31.0750E+06     40.0629E+06     11.9962E+06     747.440E+03    -115.793E-03     226.775E-03    -110.982E-03     191.347E-03    -121.205E-03     232.184E-03    -110.935E-03     182.639E-03
             382     12.0823E-03     74.8648E-03    -28.1743E+06     77.0978E+06     31.0595E+06     676.699E+03    -116.658E-03     227.642E-03    -110.984E-03     221.920E-03    -124.654E-03     235.721E-03    -110.899E-03     211.557E-03
             383     12.8891E-03     75.1295E-03    -22.7237E+06     94.7649E+06     64.4161E+06     237.007E+03    -117.950E-03     229.015E-03    -111.066E-03     261.421E-03    -129.941E-03     241.075E-03    -110.848E-03     249.329E-03
             384     13.6954E-03     75.4400E-03    -16.5393E+06     109.098E+06     89.6112E+06     404.896E+03    -117.908E-03     229.011E-03    -111.104E-03     284.243E-03    -133.633E-03     244.806E-03    -110.790E-03     272.007E-03
             385     14.5028E-03     75.7615E-03    -11.0758E+06     120.587E+06     98.9847E+06     139.950E+03    -114.339E-03     225.427E-03    -111.088E-03     260.663E-03    -130.810E-03     241.999E-03    -110.752E-03     251.224E-03
             386     15.3059E-03     76.0224E-03    -5.23312E+06     124.548E+06     97.6104E+06    -405.229E+03    -109.926E-03     220.976E-03    -111.050E-03     169.579E-03    -120.391E-03     231.581E-03    -110.735E-03     164.331E-03
             387     805.309E-06     74.3732E-03    -80.4317E+06    -230.140E+06    -79.1284E+06     91.6060E+03    -111.309E-03     222.503E-03    -111.194E-03     15.4583E-03    -111.275E-03     221.597E-03    -111.139E-03     15.1232E-03
             388     1.61057E-03     74.3975E-03    -78.3334E+06    -226.082E+06    -72.6800E+06     39.6068E+03    -111.393E-03     222.630E-03    -111.237E-03     28.4156E-03    -111.391E-03     221.758E-03    -111.159E-03     27.7876E-03
             389     2.41600E-03     74.4369E-03    -74.8554E+06    -219.592E+06    -63.2268E+06     235.798E+03    -111.593E-03     222.848E-03    -111.255E-03     41.9949E-03    -111.644E-03     222.038E-03    -111.145E-03     41.0402E-03
             390     3.22132E-03     74.4915E-03    -70.4774E+06    -208.945E+06    -52.3687E+06     -16.956E+03    -111.877E-03     223.150E-03    -111.272E-03     55.5609E-03    -112.010E-03     222.442E-03    -111.129E-03     54.2435E-03
             391     4.02674E-03     74.5611E-03    -65.6122E+06    -195.490E+06    -40.7233E+06    -141.852E+03    -112.229E-03     223.517E-03    -111.288E-03     68.9150E-03    -112.474E-03     222.954E-03    -111.113E-03     67.1995E-03
             392     4.83223E-03     74.6455E-03    -60.8179E+06    -180.755E+06    -30.1539E+06     484.417E+03    -112.645E-03     223.942E-03    -111.297E-03     82.0017E-03    -113.038E-03     223.565E-03    -111.097E-03     79.8495E-03
             393     5.63759E-03     74.7442E-03    -56.1976E+06    -170.033E+06    -22.4840E+06     617.508E+03    -113.096E-03     224.393E-03    -111.297E-03     94.8897E-03    -113.673E-03     224.232E-03    -111.082E-03     92.2408E-03
             394     6.44309E-03     74.8571E-03    -51.9025E+06    -150.508E+06    -16.3308E+06     212.966E+03    -113.538E-03     224.813E-03    -111.275E-03     107.577E-03    -114.365E-03     224.969E-03    -111.063E-03     104.364E-03
             395     7.24880E-03     74.9836E-03    -47.3828E+06    -135.530E+06    -9.93240E+06     353.088E+03    -114.017E-03     225.276E-03    -111.259E-03     120.033E-03    -115.160E-03     225.798E-03    -111.044E-03     116.184E-03
             396     8.05416E-03     75.1237E-03    -43.0265E+06    -122.637E+06    -5.57429E+06     601.862E+03    -114.479E-03     225.716E-03    -111.236E-03     132.575E-03    -116.027E-03     226.692E-03    -111.024E-03     128.004E-03
             397     8.85990E-03     75.2776E-03    -39.9288E+06    -94.6548E+06    -4.01120E+06     457.015E+03    -114.917E-03     226.095E-03    -111.179E-03     145.399E-03    -117.018E-03     227.731E-03    -111.004E-03     140.008E-03
             398     9.66535E-03     75.4455E-03    -37.6978E+06    -63.3156E+06    -1.66800E+06     87.1229E+03    -115.233E-03     226.353E-03    -111.121E-03     158.295E-03    -118.069E-03     228.836E-03    -110.983E-03     151.968E-03
             399     10.4711E-03     75.6268E-03    -34.8970E+06    -17.2538E+06     4.17249E+06     330.277E+03    -115.347E-03     226.399E-03    -111.052E-03     172.358E-03    -119.207E-03     230.062E-03    -110.956E-03     164.962E-03
             400     11.2770E-03     75.8244E-03    -31.4651E+06     39.7046E+06     11.7668E+06     996.799E+03    -115.553E-03     226.515E-03    -110.962E-03     191.818E-03    -120.961E-03     231.919E-03    -110.915E-03     183.143E-03
             401     12.0836E-03     76.0484E-03    -27.2998E+06     78.3745E+06     32.5052E+06     686.744E+03    -116.311E-03     227.260E-03    -110.949E-03     221.708E-03    -124.290E-03     235.326E-03    -110.861E-03     211.385E-03
             402     12.8904E-03     76.3110E-03    -22.6083E+06     95.2596E+06     65.1022E+06     156.338E+03    -118.131E-03     229.160E-03    -111.029E-03     260.747E-03    -130.099E-03     241.197E-03    -110.809E-03     248.627E-03
             403     13.6961E-03     76.6258E-03    -17.2682E+06     108.606E+06     88.9860E+06     76.8011E+03    -118.151E-03     229.238E-03    -111.087E-03     282.930E-03    -133.865E-03     245.018E-03    -110.774E-03     270.635E-03
             404     14.5011E-03     76.9415E-03    -10.7730E+06     121.073E+06     99.3696E+06    -18.3132E+03    -114.378E-03     225.468E-03    -111.090E-03     261.059E-03    -130.937E-03     242.130E-03    -110.753E-03     251.557E-03
             405     15.3083E-03     77.2119E-03    -5.00639E+06     124.763E+06     97.8569E+06    -122.792E+03    -110.253E-03     221.314E-03    -111.061E-03     169.513E-03    -120.756E-03     231.958E-03    -110.745E-03     164.232E-03
             406     805.296E-06     75.5568E-03    -80.7132E+06    -230.288E+06    -78.7704E+06     169.996E+03    -111.286E-03     222.478E-03    -111.191E-03     15.5512E-03    -111.254E-03     221.571E-03    -111.134E-03     15.2175E-03
             407     1.61066E-03     75.5809E-03    -78.3894E+06    -226.094E+06    -72.4998E+06     145.692E+03    -111.402E-03     222.631E-03    -111.229E-03     28.4573E-03    -111.401E-03     221.759E-03    -111.150E-03     27.8307E-03
             408     2.41595E-03     75.6203E-03    -75.0634E+06    -219.739E+06    -63.3096E+06     23.8010E+03    -111.605E-03     222.858E-03    -111.253E-03     42.0371E-03    -111.657E-03     222.048E-03    -111.142E-03     41.0795E-03
             409     3.22139E-03     75.6749E-03    -70.9504E+06    -208.860E+06    -51.9840E+06     113.740E+03    -111.890E-03     223.167E-03    -111.276E-03     55.5943E-03    -112.026E-03     222.460E-03    -111.131E-03     54.2788E-03
             410     4.02675E-03     75.7445E-03    -66.5229E+06    -195.619E+06    -40.7004E+06     235.804E+03    -112.242E-03     223.536E-03    -111.294E-03     68.9631E-03    -112.492E-03     222.973E-03    -111.117E-03     67.2523E-03
             411     4.83211E-03     75.8289E-03    -61.3300E+06    -181.537E+06    -31.1558E+06     327.448E+03    -112.632E-03     223.930E-03    -111.298E-03     82.0814E-03    -113.026E-03     223.552E-03    -111.101E-03     79.9283E-03
             412     5.63764E-03     75.9277E-03    -56.0544E+06    -170.251E+06    -22.5504E+06     698.081E+03    -113.072E-03     224.370E-03    -111.297E-03     94.9559E-03    -113.648E-03     224.208E-03    -111.082E-03     92.3089E-03
             413     6.44320E-03     76.0404E-03    -51.4795E+06    -149.895E+06    -15.9628E+06     748.294E+03    -113.518E-03     224.791E-03    -111.272E-03     107.623E-03    -114.344E-03     224.948E-03    -111.060E-03     104.420E-03
             414     7.24861E-03     76.1671E-03    -47.5783E+06    -135.165E+06    -10.5612E+06     135.798E+03    -113.994E-03     225.244E-03    -111.250E-03     120.110E-03    -115.137E-03     225.769E-03    -111.038E-03     116.262E-03
             415     8.05432E-03     76.3071E-03    -43.7280E+06    -123.518E+06    -6.33445E+06     175.192E+03    -114.471E-03     225.698E-03    -111.227E-03     132.649E-03    -116.021E-03     226.673E-03    -111.016E-03     128.072E-03
             416     8.85988E-03     76.4609E-03    -39.8946E+06    -95.0631E+06    -3.83983E+06     827.113E+03    -114.833E-03     226.001E-03    -111.169E-03     145.525E-03    -116.933E-03     227.633E-03    -110.992E-03     140.147E-03
             417     9.66575E-03     76.6289E-03    -36.6865E+06    -62.9375E+06    -467.151E+03     1.00910E+06    -115.098E-03     226.202E-03    -111.104E-03     158.373E-03    -117.930E-03     228.682E-03    -110.962E-03     152.067E-03
             418     10.4717E-03     76.8099E-03    -34.0059E+06    -17.3587E+06     5.16310E+06     724.537E+03    -115.296E-03     226.325E-03    -111.029E-03     172.354E-03    -119.155E-03     229.986E-03    -110.929E-03     164.963E-03
             419     11.2776E-03     77.0080E-03    -31.2084E+06     39.8983E+06     11.8032E+06     458.963E+03    -115.594E-03     226.533E-03    -110.939E-03     191.236E-03    -120.997E-03     231.933E-03    -110.892E-03     182.548E-03
             420     12.0839E-03     77.2300E-03    -27.4515E+06     78.5279E+06     31.7110E+06     374.115E+03    -116.636E-03     227.578E-03    -110.942E-03     220.640E-03    -124.617E-03     235.649E-03    -110.858E-03     210.258E-03
             421     12.8891E-03     77.4956E-03    -23.0446E+06     95.2313E+06     64.6498E+06     258.992E+03    -118.344E-03     229.394E-03    -111.050E-03     260.020E-03    -130.305E-03     241.424E-03    -110.831E-03     247.868E-03
             422     13.6948E-03     77.8077E-03    -16.9649E+06     109.291E+06     89.7754E+06    -56.4061E+03    -118.349E-03     229.478E-03    -111.129E-03     282.323E-03    -134.073E-03     245.269E-03    -110.814E-03     269.988E-03
             423     14.5019E-03     78.1261E-03    -10.6208E+06     121.115E+06     99.4669E+06    -30.6682E+03    -114.133E-03     225.266E-03    -111.133E-03     260.038E-03    -130.637E-03     241.873E-03    -110.796E-03     250.555E-03
             424     15.3067E-03     78.3938E-03    -5.08859E+06     124.368E+06     97.7085E+06     244.853E+03    -109.497E-03     220.574E-03    -111.077E-03     169.166E-03    -119.902E-03     231.119E-03    -110.762E-03     163.983E-03
             425     805.394E-06     76.7400E-03    -80.7404E+06    -230.699E+06    -79.3040E+06    -49.2705E+03    -111.258E-03     222.443E-03    -111.185E-03     15.5177E-03    -111.224E-03     221.535E-03    -111.130E-03     15.1804E-03
             426     1.61068E-03     76.7643E-03    -78.4039E+06    -226.369E+06    -72.5786E+06     202.293E+03    -111.384E-03     222.596E-03    -111.212E-03     28.4499E-03    -111.383E-03     221.723E-03    -111.133E-03     27.8235E-03
             427     2.41603E-03     76.8037E-03    -75.1128E+06    -219.440E+06    -62.9870E+06     239.166E+03    -111.611E-03     222.852E-03    -111.241E-03     42.0826E-03    -111.665E-03     222.043E-03    -111.128E-03     41.1282E-03
             428     3.22132E-03     76.8583E-03    -70.5686E+06    -209.407E+06    -51.0940E+06     351.801E+03    -111.903E-03     223.176E-03    -111.273E-03     55.6657E-03    -112.037E-03     222.464E-03    -111.122E-03     54.3544E-03
             429     4.02673E-03     76.9280E-03    -65.4684E+06    -196.083E+06    -40.1097E+06     707.652E+03    -112.239E-03     223.528E-03    -111.289E-03     69.0153E-03    -112.483E-03     222.961E-03    -111.111E-03     67.3118E-03
             430     4.83224E-03     77.0123E-03    -61.0183E+06    -181.341E+06    -31.3468E+06     620.009E+03    -112.623E-03     223.912E-03    -111.289E-03     82.1065E-03    -113.015E-03     223.535E-03    -111.094E-03     79.9578E-03
             431     5.63771E-03     77.1110E-03    -56.4430E+06    -170.740E+06    -22.7697E+06     347.282E+03    -113.058E-03     224.347E-03    -111.289E-03     94.9570E-03    -113.635E-03     224.184E-03    -111.074E-03     92.3057E-03
             432     6.44316E-03     77.2238E-03    -51.2017E+06    -149.817E+06    -15.5341E+06     290.180E+03    -113.483E-03     224.747E-03    -111.264E-03     107.654E-03    -114.308E-03     224.903E-03    -111.050E-03     104.446E-03
             433     7.24893E-03     77.3504E-03    -46.4537E+06    -134.799E+06    -9.29210E+06     664.088E+03    -113.958E-03     225.199E-03    -111.241E-03     120.185E-03    -115.097E-03     225.721E-03    -111.024E-03     116.347E-03
             434     8.05442E-03     77.4904E-03    -42.8776E+06    -123.815E+06    -5.43548E+06     640.108E+03    -114.445E-03     225.660E-03    -111.215E-03     132.693E-03    -115.992E-03     226.631E-03    -111.000E-03     128.122E-03
             435     8.86009E-03     77.6443E-03    -39.7876E+06    -95.7938E+06    -4.02915E+06     579.375E+03    -114.813E-03     225.964E-03    -111.152E-03     145.421E-03    -116.912E-03     227.594E-03    -110.975E-03     140.036E-03
             436     9.66596E-03     77.8117E-03    -36.6263E+06    -63.2991E+06    -513.620E+03     1.14181E+06    -115.139E-03     226.230E-03    -111.091E-03     158.146E-03    -117.971E-03     228.709E-03    -110.949E-03     151.836E-03
             437     10.4716E-03     77.9935E-03    -33.6606E+06    -16.9854E+06     5.43775E+06     1.28353E+06    -115.366E-03     226.390E-03    -111.024E-03     171.775E-03    -119.221E-03     230.050E-03    -110.924E-03     164.383E-03
             438     11.2776E-03     78.1906E-03    -30.6803E+06     40.8197E+06     12.7516E+06     725.770E+03    -115.798E-03     226.748E-03    -110.950E-03     190.790E-03    -121.200E-03     232.149E-03    -110.901E-03     182.084E-03
             439     12.0825E-03     78.4144E-03    -27.5962E+06     78.8144E+06     32.4227E+06     226.636E+03    -116.942E-03     227.913E-03    -110.971E-03     221.037E-03    -124.944E-03     236.003E-03    -110.883E-03     210.620E-03
             440     12.8886E-03     78.6781E-03    -23.0012E+06     95.8131E+06     64.6901E+06     471.216E+03    -118.527E-03     229.613E-03    -111.086E-03     260.334E-03    -130.516E-03     241.673E-03    -110.869E-03     248.158E-03
             441     13.6952E-03     78.9915E-03    -17.3569E+06     109.389E+06     89.2888E+06     200.470E+03    -118.453E-03     229.620E-03    -111.166E-03     283.284E-03    -134.213E-03     245.447E-03    -110.853E-03     270.933E-03
             442     14.4981E-03     79.3106E-03    -11.2512E+06     120.510E+06     99.1018E+06    -132.570E+03    -114.150E-03     225.316E-03    -111.166E-03     260.373E-03    -130.609E-03     241.875E-03    -110.829E-03     250.933E-03
             443     15.3069E-03     79.5729E-03    -5.01998E+06     124.494E+06     98.1049E+06     75.6799E+03    -109.029E-03     220.125E-03    -111.095E-03     169.586E-03    -119.405E-03     230.640E-03    -110.778E-03     164.481E-03
             444     805.249E-06     77.9233E-03    -80.8749E+06    -230.619E+06    -79.2060E+06    -50.1292E+03    -111.324E-03     222.480E-03    -111.156E-03     15.4966E-03    -111.291E-03     221.572E-03    -111.100E-03     15.1583E-03
             445     1.61069E-03     77.9476E-03    -78.6789E+06    -226.742E+06    -73.1856E+06    -8.88704E+03    -111.365E-03     222.586E-03    -111.221E-03     28.3763E-03    -111.363E-03     221.712E-03    -111.144E-03     27.7473E-03
             446     2.41608E-03     77.9870E-03    -75.3987E+06    -220.064E+06    -63.7573E+06     539.988E+03    -111.569E-03     222.805E-03    -111.236E-03     42.0196E-03    -111.622E-03     221.994E-03    -111.126E-03     41.0704E-03
             447     3.22147E-03     78.0418E-03    -71.4983E+06    -209.158E+06    -52.7314E+06     475.905E+03    -111.867E-03     223.120E-03    -111.254E-03     55.6676E-03    -112.004E-03     222.414E-03    -111.110E-03     54.3585E-03
             448     4.02686E-03     78.1113E-03    -66.5224E+06    -196.600E+06    -41.9723E+06     26.1113E+03    -112.223E-03     223.491E-03    -111.268E-03     69.0276E-03    -112.469E-03     222.925E-03    -111.096E-03     67.3152E-03
             449     4.83225E-03     78.1958E-03    -60.5480E+06    -181.635E+06    -31.2715E+06     458.431E+03    -112.618E-03     223.893E-03    -111.275E-03     82.1287E-03    -113.008E-03     223.513E-03    -111.080E-03     79.9778E-03
             450     5.63770E-03     78.2944E-03    -55.1154E+06    -170.019E+06    -21.7620E+06     298.142E+03    -113.040E-03     224.317E-03    -111.277E-03     94.9753E-03    -113.613E-03     224.154E-03    -111.060E-03     92.3236E-03
             451     6.44337E-03     78.4071E-03    -51.0896E+06    -150.487E+06    -15.1848E+06     474.114E+03    -113.464E-03     224.715E-03    -111.251E-03     107.648E-03    -114.288E-03     224.868E-03    -111.035E-03     104.442E-03
             452     7.24890E-03     78.5336E-03    -47.6124E+06    -135.634E+06    -9.72424E+06     1.00436E+06    -113.930E-03     225.156E-03    -111.226E-03     120.148E-03    -115.074E-03     225.677E-03    -111.009E-03     116.312E-03
             453     8.05460E-03     78.6739E-03    -43.8809E+06    -123.317E+06    -5.92179E+06     748.207E+03    -114.434E-03     225.632E-03    -111.198E-03     132.623E-03    -115.985E-03     226.607E-03    -110.985E-03     128.056E-03
             454     8.86031E-03     78.8274E-03    -40.2707E+06    -95.7598E+06    -4.27032E+06     647.338E+03    -114.910E-03     226.052E-03    -111.142E-03     145.244E-03    -117.013E-03     227.684E-03    -110.966E-03     139.852E-03
             455     9.66574E-03     78.9953E-03    -37.0266E+06    -64.2753E+06    -954.629E+03     808.215E+03    -115.254E-03     226.347E-03    -111.093E-03     158.095E-03    -118.088E-03     228.824E-03    -110.951E-03     151.771E-03
             456     10.4714E-03     79.1767E-03    -33.6434E+06    -16.9481E+06     5.55681E+06     1.02791E+06    -115.508E-03     226.544E-03    -111.036E-03     172.002E-03    -119.365E-03     230.205E-03    -110.935E-03     164.601E-03
             457     11.2767E-03     79.3743E-03    -30.3737E+06     41.2250E+06     13.2726E+06     1.15307E+06    -115.792E-03     226.757E-03    -110.965E-03     191.078E-03    -121.203E-03     232.168E-03    -110.915E-03     182.373E-03
             458     12.0836E-03     79.5976E-03    -27.2821E+06     79.1681E+06     33.3439E+06     1.17543E+06    -116.769E-03     227.747E-03    -110.978E-03     221.621E-03    -124.759E-03     235.824E-03    -110.886E-03     211.254E-03
             459     12.8889E-03     79.8628E-03    -22.9781E+06      96.052E+06     65.2339E+06     890.021E+03    -118.604E-03     229.685E-03    -111.081E-03     261.363E-03    -130.625E-03     241.776E-03    -110.861E-03     249.179E-03
             460     13.6932E-03     80.1746E-03    -16.9867E+06     110.291E+06     89.7186E+06     401.884E+03    -118.044E-03     229.186E-03    -111.142E-03     284.338E-03    -133.835E-03     245.047E-03    -110.828E-03     272.034E-03
             461     14.5031E-03     80.4945E-03    -11.1264E+06     121.035E+06     99.4924E+06    -142.387E+03    -114.126E-03     225.250E-03    -111.123E-03     262.014E-03    -130.694E-03     241.919E-03    -110.785E-03     252.581E-03
             462     15.3064E-03     80.7573E-03    -5.59733E+06     124.110E+06     97.7335E+06    -311.257E+03    -109.928E-03     221.001E-03    -111.073E-03     169.224E-03    -120.408E-03     231.619E-03    -110.756E-03     164.005E-03
             463     805.350E-06     79.1068E-03    -81.3002E+06    -230.720E+06    -79.3929E+06     425.148E+03    -111.362E-03     222.488E-03    -111.126E-03     15.4491E-03    -111.331E-03     221.581E-03    -111.071E-03     15.1161E-03
             464     1.61056E-03     79.1310E-03    -79.3002E+06    -226.683E+06    -73.0460E+06     368.748E+03    -111.364E-03     222.591E-03    -111.227E-03     28.4328E-03    -111.366E-03     221.718E-03    -111.149E-03     27.8092E-03
             465     2.41592E-03     79.1703E-03    -75.9215E+06    -221.130E+06    -64.4638E+06     289.359E+03    -111.555E-03     222.791E-03    -111.235E-03     42.0709E-03    -111.608E-03     221.976E-03    -111.127E-03     41.1176E-03
             466     3.22142E-03     79.2250E-03    -71.4753E+06    -209.060E+06    -54.1091E+06     729.679E+03    -111.826E-03     223.067E-03    -111.241E-03     55.6717E-03    -111.961E-03     222.363E-03    -111.104E-03     54.3660E-03
             467     4.02687E-03     79.2948E-03    -67.6038E+06    -195.869E+06    -43.0309E+06     491.244E+03    -112.177E-03     223.427E-03    -111.250E-03     69.0151E-03    -112.428E-03     222.867E-03    -111.083E-03     67.3098E-03
             468     4.83236E-03     79.3790E-03    -63.5122E+06    -181.604E+06    -33.2112E+06    -662.957E+03    -112.564E-03     223.815E-03    -111.251E-03     82.1577E-03    -112.966E-03     223.443E-03    -111.062E-03     79.9945E-03
             469     5.63795E-03     79.4779E-03    -58.5072E+06    -170.477E+06    -23.8625E+06    -253.365E+03    -113.015E-03     224.268E-03    -111.253E-03     94.9770E-03    -113.601E-03     224.110E-03    -111.040E-03     92.3201E-03
             470     6.44340E-03     79.5903E-03    -53.3778E+06    -151.435E+06    -16.1620E+06     632.468E+03    -113.485E-03     224.720E-03    -111.235E-03     107.620E-03    -114.318E-03     224.873E-03    -111.019E-03     104.415E-03
             471     7.24905E-03     79.7171E-03    -48.1948E+06    -136.050E+06    -10.2033E+06     544.904E+03    -113.956E-03     225.171E-03    -111.214E-03     120.086E-03    -115.102E-03     225.692E-03    -110.998E-03     116.241E-03
             472     8.05469E-03     79.8568E-03    -43.7200E+06    -123.185E+06    -5.54958E+06     715.212E+03    -114.472E-03     225.665E-03    -111.193E-03     132.590E-03    -116.022E-03     226.639E-03    -110.979E-03     128.024E-03
             473     8.86009E-03     80.0112E-03    -40.1429E+06    -95.7376E+06    -3.70521E+06     696.952E+03    -114.938E-03     226.081E-03    -111.142E-03     145.335E-03    -117.042E-03     227.713E-03    -110.964E-03     139.944E-03
             474     9.66576E-03     80.1784E-03    -36.8795E+06    -64.5631E+06    -972.517E+03     701.107E+03    -115.240E-03     226.331E-03    -111.090E-03     158.227E-03    -118.074E-03     228.807E-03    -110.948E-03     151.902E-03
             475     10.4716E-03     80.3604E-03    -34.1948E+06    -16.7003E+06     5.16520E+06     866.448E+03    -115.437E-03     226.463E-03    -111.027E-03     172.445E-03    -119.296E-03     230.127E-03    -110.927E-03     165.054E-03
             476     11.2774E-03     80.5581E-03    -31.5887E+06     40.4580E+06     11.7004E+06     1.03274E+06    -115.772E-03     226.719E-03    -110.947E-03     191.350E-03    -121.192E-03     232.137E-03    -110.902E-03     182.642E-03
             477     12.0826E-03     80.7801E-03    -27.7942E+06     78.4032E+06     31.2035E+06     1.36788E+06    -116.709E-03     227.662E-03    -110.953E-03     221.732E-03    -124.704E-03     235.747E-03    -110.871E-03     211.357E-03
             478     12.8895E-03     81.0464E-03    -22.6123E+06     96.4630E+06     65.1043E+06     994.222E+03    -118.293E-03     229.345E-03    -111.052E-03     261.567E-03    -130.304E-03     241.429E-03    -110.833E-03     249.423E-03
             479     13.6970E-03     81.3598E-03    -16.7899E+06     111.554E+06     90.8144E+06     279.620E+03    -117.989E-03     229.105E-03    -111.115E-03     282.374E-03    -133.728E-03     244.917E-03    -110.799E-03     270.081E-03
             480     14.5013E-03     81.6736E-03    -11.1719E+06     122.003E+06     99.9471E+06    -2.18320E+03    -113.988E-03     225.094E-03    -111.105E-03     260.412E-03    -130.494E-03     241.703E-03    -110.766E-03     250.989E-03
             481     15.3084E-03     81.9473E-03    -5.63467E+06     123.942E+06     97.5923E+06    -83.2141E+03    -110.012E-03     221.070E-03    -111.058E-03     168.348E-03    -120.426E-03     231.621E-03    -110.742E-03     163.128E-03
             482     805.268E-06     80.2901E-03    -81.7572E+06    -231.285E+06    -80.5376E+06     36.0976E+03    -111.272E-03     222.367E-03    -111.095E-03     15.4911E-03    -111.241E-03     221.460E-03    -111.044E-03     15.1537E-03
             483     1.61077E-03     80.3143E-03    -79.1409E+06    -226.999E+06    -73.7185E+06     460.641E+03    -111.359E-03     222.534E-03    -111.175E-03     28.5514E-03    -111.358E-03     221.660E-03    -111.100E-03     27.9282E-03
             484     2.41615E-03     80.3536E-03    -75.8130E+06    -220.754E+06    -63.8814E+06     159.707E+03    -111.599E-03     222.809E-03    -111.210E-03     42.1519E-03    -111.653E-03     221.996E-03    -111.100E-03     41.1959E-03
             485     3.22145E-03     80.4083E-03    -71.2323E+06    -210.103E+06    -53.0066E+06    -28.8767E+03    -111.850E-03     223.086E-03    -111.236E-03     55.6993E-03    -111.984E-03     222.375E-03    -111.093E-03     54.3834E-03
             486     4.02696E-03     80.4780E-03    -65.1355E+06    -195.645E+06     -41.124E+06     479.772E+03    -112.149E-03     223.395E-03    -111.246E-03     68.9931E-03    -112.391E-03     222.830E-03    -111.073E-03     67.2889E-03
             487     4.83246E-03     80.5624E-03    -60.1073E+06    -180.813E+06    -30.1010E+06     850.368E+03    -112.547E-03     223.794E-03    -111.247E-03     82.0521E-03    -112.936E-03     223.415E-03    -111.048E-03     79.9092E-03
             488     5.63798E-03     80.6609E-03    -56.3671E+06    -171.089E+06    -22.0351E+06     679.096E+03    -113.014E-03     224.260E-03    -111.246E-03     94.8904E-03    -113.591E-03     224.093E-03    -111.026E-03     92.2460E-03
             489     6.44353E-03     80.7738E-03    -51.7786E+06    -151.241E+06    -15.5492E+06     55.5836E+03    -113.499E-03     224.722E-03    -111.224E-03     107.598E-03    -114.325E-03     224.873E-03    -111.007E-03     104.384E-03
             490     7.24908E-03     80.9001E-03    -47.1509E+06    -136.457E+06    -9.62152E+06     172.561E+03    -114.010E-03     225.219E-03    -111.209E-03     120.077E-03    -115.152E-03     225.736E-03    -110.991E-03     116.225E-03
             491     8.05451E-03     81.0405E-03    -43.3010E+06    -124.058E+06    -5.73923E+06     899.083E+03    -114.469E-03     225.657E-03    -111.188E-03     132.648E-03    -116.016E-03     226.627E-03    -110.975E-03     128.085E-03
             492     8.86038E-03     81.1941E-03    -40.1645E+06    -95.9635E+06    -3.95609E+06     1.19089E+06    -114.867E-03     226.000E-03    -111.133E-03     145.480E-03    -116.968E-03     227.629E-03    -110.955E-03     140.103E-03
             493     9.66599E-03     81.3622E-03    -37.7668E+06    -63.8105E+06    -1.28663E+06     1.02328E+06    -115.231E-03     226.308E-03    -111.077E-03     158.252E-03    -118.069E-03     228.789E-03    -110.936E-03     151.935E-03
             494     10.4716E-03     81.5432E-03    -35.0418E+06    -16.8548E+06     4.62581E+06     875.959E+03    -115.380E-03     226.393E-03    -111.013E-03     172.213E-03    -119.240E-03     230.055E-03    -110.915E-03     164.824E-03
             495     11.2777E-03     81.7416E-03    -31.6794E+06     39.7470E+06     11.4491E+06     832.104E+03    -115.740E-03     226.674E-03    -110.934E-03     191.136E-03    -121.151E-03     232.080E-03    -110.889E-03     182.430E-03
             496     12.0839E-03     81.9642E-03    -27.7520E+06     78.3992E+06     30.9177E+06     622.869E+03    -116.787E-03     227.731E-03    -110.944E-03     221.210E-03    -124.794E-03     235.829E-03    -110.863E-03     210.799E-03
             497     12.8893E-03     82.2289E-03    -23.2011E+06      96.316E+06     64.5041E+06     723.625E+03    -118.434E-03     229.489E-03    -111.055E-03     260.915E-03    -130.427E-03     241.554E-03    -110.838E-03     248.753E-03
             498     13.6942E-03     82.5422E-03    -17.2832E+06     111.785E+06     90.5870E+06     818.306E+03    -118.574E-03     229.719E-03    -111.145E-03     281.983E-03    -134.324E-03     245.542E-03    -110.829E-03     269.628E-03
             499     14.4997E-03     82.8595E-03    -10.4826E+06     123.068E+06     100.631E+06     389.606E+03    -113.992E-03     225.148E-03    -111.157E-03     258.964E-03    -130.405E-03     241.669E-03    -110.817E-03     249.555E-03
             500     15.3070E-03     83.1237E-03    -4.84031E+06     124.401E+06     98.2407E+06    -46.2422E+03    -109.129E-03     220.216E-03    -111.087E-03     168.901E-03    -119.453E-03     230.679E-03    -110.769E-03     163.792E-03
             501     805.541E-06     81.4732E-03    -81.6616E+06    -231.106E+06    -79.9411E+06    -166.188E+03    -111.255E-03     222.275E-03    -111.021E-03     15.4603E-03    -111.224E-03     221.367E-03    -110.967E-03     15.1219E-03
             502     1.61083E-03     81.4975E-03    -79.2040E+06    -227.270E+06    -74.1390E+06    -522.445E+03    -111.371E-03     222.509E-03    -111.138E-03     28.4946E-03    -111.369E-03     221.635E-03    -111.065E-03     27.8590E-03
             503     2.41613E-03     81.5371E-03    -74.9974E+06    -220.152E+06    -63.9276E+06    -482.595E+03    -111.598E-03     222.786E-03    -111.188E-03     42.0679E-03    -111.649E-03     221.975E-03    -111.080E-03     41.1049E-03
             504     3.22153E-03     81.5916E-03    -70.2220E+06    -209.729E+06    -51.1446E+06    -766.560E+03    -111.850E-03     223.078E-03    -111.228E-03     55.6467E-03    -111.982E-03     222.364E-03    -111.078E-03     54.3218E-03
             505     4.02690E-03     81.6613E-03    -65.7392E+06    -197.207E+06    -40.6405E+06    -424.323E+03    -112.163E-03     223.404E-03    -111.240E-03     68.9977E-03    -112.407E-03     222.832E-03    -111.062E-03     67.2806E-03
             506     4.83247E-03     81.7455E-03    -60.4689E+06    -181.837E+06    -31.1289E+06     861.290E+03    -112.551E-03     223.787E-03    -111.237E-03     82.0680E-03    -112.939E-03     223.406E-03    -111.041E-03     79.9262E-03
             507     5.63797E-03     81.8444E-03    -54.7031E+06    -170.335E+06    -21.5294E+06     991.095E+03    -113.013E-03     224.252E-03    -111.238E-03     94.8882E-03    -113.584E-03     224.085E-03    -111.020E-03     92.2476E-03
             508     6.44358E-03     81.9568E-03    -50.4026E+06    -151.086E+06    -15.3433E+06     956.003E+03    -113.500E-03     224.716E-03    -111.216E-03     107.600E-03    -114.320E-03     224.865E-03    -111.000E-03     104.400E-03
             509     7.24910E-03     82.0839E-03    -47.4771E+06    -136.741E+06    -10.1135E+06     1.29812E+06    -113.991E-03     225.191E-03    -111.200E-03     120.090E-03    -115.132E-03     225.707E-03    -110.983E-03     116.256E-03
             510     8.05480E-03     82.2234E-03    -44.3894E+06    -124.512E+06    -6.31827E+06     1.08160E+06    -114.463E-03     225.644E-03    -111.180E-03     132.590E-03    -116.014E-03     226.613E-03    -110.967E-03     128.027E-03
             511     8.86033E-03     82.3777E-03    -40.5759E+06    -96.3986E+06    -4.40359E+06     970.004E+03    -114.888E-03     226.015E-03    -111.127E-03     145.350E-03    -116.989E-03     227.643E-03    -110.950E-03     139.969E-03
             512     9.66610E-03     82.5452E-03    -36.6273E+06    -63.5994E+06    -734.655E+03     1.17972E+06    -115.273E-03     226.350E-03    -111.076E-03     158.082E-03    -118.106E-03     228.828E-03    -110.935E-03     151.764E-03
             513     10.4717E-03     82.7271E-03    -33.4274E+06    -17.1233E+06     5.34414E+06     1.29224E+06    -115.466E-03     226.486E-03    -111.020E-03     171.816E-03    -119.320E-03     230.145E-03    -110.920E-03     164.418E-03
             514     11.2773E-03     82.9241E-03    -30.5329E+06     39.9844E+06     12.5006E+06     913.745E+03    -115.751E-03     226.699E-03    -110.948E-03     190.983E-03    -121.156E-03     232.101E-03    -110.899E-03     182.277E-03
             515     12.0828E-03     83.1481E-03    -27.2838E+06     78.7609E+06     32.8715E+06     793.710E+03    -116.823E-03     227.788E-03    -110.965E-03     221.092E-03    -124.827E-03     235.879E-03    -110.875E-03     210.690E-03
             516     12.8889E-03     83.4119E-03    -22.9985E+06     96.1867E+06     65.5122E+06     1.12741E+06    -118.588E-03     229.664E-03    -111.076E-03     261.263E-03    -130.604E-03     241.750E-03    -110.855E-03     249.081E-03
             517     13.6951E-03     83.7276E-03    -17.5775E+06     111.544E+06     89.8144E+06     857.103E+03    -118.284E-03     229.426E-03    -111.142E-03     284.184E-03    -134.064E-03     245.279E-03    -110.829E-03     271.880E-03
             518     14.5002E-03     84.0437E-03    -10.1566E+06     123.921E+06     100.840E+06     371.101E+03    -114.288E-03     225.429E-03    -111.141E-03     260.369E-03    -130.768E-03     242.020E-03    -110.802E-03     250.941E-03
             519     15.3061E-03     84.3048E-03    -4.12991E+06     125.244E+06     99.1593E+06     203.261E+03    -109.541E-03     220.631E-03    -111.090E-03     169.756E-03    -119.958E-03     231.191E-03    -110.770E-03     164.581E-03
             520     805.324E-06     82.6563E-03    -80.5714E+06    -230.405E+06    -79.2413E+06    -165.463E+03    -111.292E-03     222.356E-03    -111.065E-03     15.3379E-03    -111.258E-03     221.449E-03    -111.010E-03     15.0022E-03
             521     1.61071E-03     82.6809E-03    -78.7306E+06    -226.363E+06    -73.0597E+06    -642.777E+03    -111.340E-03     222.507E-03    -111.167E-03     28.5191E-03    -111.339E-03     221.634E-03    -111.089E-03     27.8829E-03
             522     2.41612E-03     82.7203E-03    -75.9085E+06    -219.704E+06    -63.7219E+06    -1.02211E+06    -111.536E-03     222.727E-03    -111.191E-03     42.0793E-03    -111.592E-03     221.918E-03    -111.081E-03     41.1106E-03
             523     3.22155E-03     82.7750E-03    -71.9722E+06    -210.009E+06    -51.7989E+06    -324.053E+03    -111.801E-03     223.017E-03    -111.216E-03     55.6337E-03    -111.941E-03     222.305E-03    -111.066E-03     54.3165E-03
             524     4.02710E-03     82.8445E-03    -67.5142E+06    -197.938E+06    -41.3317E+06     370.342E+03    -112.164E-03     223.391E-03    -111.227E-03     68.9904E-03    -112.413E-03     222.818E-03    -111.049E-03     67.2852E-03
             525     4.83247E-03     82.9289E-03    -62.7537E+06    -182.087E+06    -33.2915E+06    -181.429E+03    -112.552E-03     223.771E-03    -111.220E-03     82.0836E-03    -112.948E-03     223.395E-03    -111.031E-03     79.9287E-03
             526     5.63812E-03     83.0275E-03    -57.8440E+06    -171.250E+06    -24.2314E+06     141.431E+03    -113.018E-03     224.242E-03    -111.224E-03     94.9473E-03    -113.599E-03     224.079E-03    -111.012E-03     92.2965E-03
             527     6.44351E-03     83.1404E-03    -53.0388E+06    -152.179E+06    -16.1738E+06     1.13469E+06    -113.502E-03     224.714E-03    -111.212E-03     107.604E-03    -114.332E-03     224.863E-03    -110.996E-03     104.407E-03
             528     7.24924E-03     83.2668E-03    -47.8490E+06    -136.662E+06    -10.0747E+06     1.27783E+06    -113.986E-03     225.183E-03    -111.197E-03     120.022E-03    -115.129E-03     225.700E-03    -110.980E-03     116.187E-03
             529     8.05470E-03     83.4071E-03    -42.8767E+06    -124.240E+06    -5.51731E+06     1.20276E+06    -114.498E-03     225.678E-03    -111.181E-03     132.479E-03    -116.043E-03     226.647E-03    -110.966E-03     127.914E-03
             530     8.86032E-03     83.5607E-03    -39.4160E+06    -96.1696E+06    -3.86269E+06     996.242E+03    -114.965E-03     226.096E-03    -111.131E-03     145.349E-03    -117.062E-03     227.723E-03    -110.954E-03     139.963E-03
             531     9.66573E-03     83.7289E-03    -36.8476E+06    -64.6012E+06    -1.53136E+06     812.078E+03    -115.292E-03     226.373E-03    -111.081E-03     158.228E-03    -118.124E-03     228.849E-03    -110.942E-03     151.905E-03
             532     10.4714E-03     83.9103E-03    -33.6868E+06    -17.7632E+06     4.98687E+06     999.919E+03    -115.431E-03     226.455E-03    -111.024E-03     172.057E-03    -119.287E-03     230.114E-03    -110.924E-03     164.659E-03
             533     11.2771E-03     84.1079E-03    -30.4746E+06     40.4965E+06     13.6112E+06     1.30900E+06    -115.738E-03     226.690E-03    -110.952E-03     191.456E-03    -121.153E-03     232.101E-03    -110.899E-03     182.759E-03
             534     12.0835E-03     84.3311E-03    -27.1881E+06     78.9208E+06     33.5883E+06     1.41132E+06    -116.770E-03     227.730E-03    -110.960E-03     222.045E-03    -124.783E-03     235.830E-03    -110.867E-03     211.666E-03
             535     12.8888E-03     84.5966E-03    -22.6399E+06     95.9008E+06     65.5572E+06     1.77688E+06    -118.346E-03     229.400E-03    -111.053E-03     262.044E-03    -130.390E-03     241.513E-03    -110.831E-03     249.897E-03
             536     13.6951E-03     84.9091E-03    -16.6767E+06     113.641E+06     91.5286E+06     1.21181E+06    -117.601E-03     228.695E-03    -111.095E-03     283.921E-03    -133.317E-03     244.491E-03    -110.778E-03     271.731E-03
             537     14.5038E-03     85.2276E-03    -11.6849E+06     124.897E+06     100.624E+06    -144.335E+03    -114.133E-03     225.199E-03    -111.066E-03     261.460E-03    -130.673E-03     241.849E-03    -110.727E-03     252.054E-03
             538     15.3076E-03     85.4928E-03    -6.01910E+06     123.978E+06     97.7525E+06    -237.543E+03    -110.567E-03     221.604E-03    -111.037E-03     168.980E-03    -121.059E-03     232.231E-03    -110.719E-03     163.677E-03
             539     805.274E-06     83.8396E-03    -80.1896E+06    -229.648E+06    -78.9591E+06    -638.282E+03    -111.172E-03     222.430E-03    -111.257E-03     15.2355E-03    -111.138E-03     221.525E-03    -111.203E-03     14.8935E-03
             540     1.61074E-03     83.8641E-03    -78.0610E+06    -225.740E+06    -72.8494E+06    -351.094E+03    -111.284E-03     222.467E-03    -111.183E-03     28.6032E-03    -111.281E-03     221.597E-03    -111.107E-03     27.9699E-03
             541     2.41615E-03     83.9036E-03    -75.1027E+06    -219.552E+06    -63.4260E+06     123.123E+03    -111.519E-03     222.705E-03    -111.186E-03     42.0821E-03    -111.571E-03     221.896E-03    -111.076E-03     41.1265E-03
             542     3.22162E-03     83.9581E-03    -71.0731E+06    -210.894E+06    -52.6477E+06     121.793E+03    -111.812E-03     223.017E-03    -111.205E-03     55.5757E-03    -111.944E-03     222.301E-03    -111.060E-03     54.2634E-03
             543     4.02700E-03     84.0278E-03    -65.5493E+06    -197.757E+06    -40.7942E+06     33.5994E+03    -112.149E-03     223.369E-03    -111.221E-03     68.9307E-03    -112.390E-03     222.794E-03    -111.043E-03     67.2221E-03
             544     4.83262E-03     84.1121E-03    -60.0951E+06    -182.268E+06    -30.3032E+06     538.614E+03    -112.570E-03     223.795E-03    -111.225E-03     82.0121E-03    -112.958E-03     223.410E-03    -111.025E-03     79.8642E-03
             545     5.63801E-03     84.2107E-03    -55.8460E+06    -172.338E+06    -22.4204E+06     998.802E+03    -113.046E-03     224.275E-03    -111.229E-03     94.8843E-03    -113.618E-03     224.102E-03    -111.010E-03     92.2427E-03
             546     6.44369E-03     84.3236E-03    -51.6247E+06    -152.347E+06    -15.8092E+06     954.474E+03    -113.518E-03     224.730E-03    -111.212E-03     107.568E-03    -114.341E-03     224.875E-03    -110.996E-03     104.367E-03
             547     7.24905E-03     84.4502E-03    -47.4740E+06    -136.518E+06    -10.0761E+06     574.162E+03    -114.014E-03     225.212E-03    -111.198E-03     120.033E-03    -115.156E-03     225.730E-03    -110.982E-03     116.186E-03
             548     8.05469E-03     84.5903E-03    -43.7196E+06    -124.804E+06    -6.26023E+06     611.971E+03    -114.487E-03     225.669E-03    -111.181E-03     132.549E-03    -116.035E-03     226.636E-03    -110.968E-03     127.978E-03
             549     8.86025E-03     84.7442E-03    -40.0856E+06    -96.7498E+06    -3.99049E+06     1.22904E+06    -114.900E-03     226.031E-03    -111.131E-03     145.530E-03    -116.999E-03     227.656E-03    -110.952E-03     140.154E-03
             550     9.66597E-03     84.9123E-03    -36.9785E+06    -64.2769E+06    -703.950E+03     1.18391E+06    -115.188E-03     226.263E-03    -111.075E-03     158.519E-03    -118.022E-03     228.739E-03    -110.931E-03     152.211E-03
             551     10.4718E-03     85.0936E-03    -34.3360E+06    -17.7967E+06     5.27650E+06     861.303E+03    -115.337E-03     226.344E-03    -111.007E-03     172.363E-03    -119.197E-03     230.003E-03    -110.905E-03     164.974E-03
             552     11.2778E-03     85.2911E-03    -31.2152E+06     39.9797E+06     12.3753E+06     1.20562E+06    -115.704E-03     226.628E-03    -110.924E-03     191.563E-03    -121.119E-03     232.038E-03    -110.875E-03     182.871E-03
             553     12.0834E-03     85.5144E-03    -27.7802E+06     78.2349E+06     31.7100E+06     1.73756E+06    -116.660E-03     227.585E-03    -110.926E-03     221.837E-03    -124.669E-03     235.682E-03    -110.841E-03     211.467E-03
             554     12.8904E-03     85.7796E-03    -22.9967E+06     95.8465E+06     64.9759E+06     1.75743E+06    -118.089E-03     229.106E-03    -111.017E-03     261.461E-03    -130.103E-03     241.191E-03    -110.798E-03     249.355E-03
             555     13.6965E-03     86.0935E-03    -17.1058E+06     114.471E+06     91.8934E+06     1.36660E+06    -117.936E-03     229.012E-03    -111.075E-03     282.480E-03    -133.656E-03     244.811E-03    -110.757E-03     270.237E-03
             556     14.5017E-03     86.4069E-03    -11.7501E+06     126.703E+06     101.471E+06     690.161E+03    -113.951E-03     225.015E-03    -111.065E-03     260.069E-03    -130.432E-03     241.610E-03    -110.724E-03     250.674E-03
             557     15.3094E-03     86.6807E-03    -5.60273E+06     124.688E+06     98.4731E+06    -353.381E+03    -110.340E-03     221.370E-03    -111.029E-03     168.127E-03    -120.716E-03     231.883E-03    -110.710E-03     162.873E-03
             558     805.320E-06     85.0229E-03    -80.4099E+06    -229.147E+06    -77.9612E+06     221.180E+03    -111.106E-03     222.378E-03    -111.272E-03     15.3506E-03    -111.075E-03     221.475E-03    -111.213E-03     15.0176E-03
             559     1.61072E-03     85.0472E-03    -78.5187E+06    -225.633E+06    -72.0623E+06    -152.351E+03    -111.329E-03     222.506E-03    -111.176E-03     28.5254E-03    -111.330E-03     221.636E-03    -111.096E-03     27.8951E-03
             560     2.41621E-03     85.0868E-03    -74.5748E+06    -219.779E+06    -63.8534E+06    -367.015E+03    -111.528E-03     222.717E-03    -111.188E-03     42.0606E-03    -111.578E-03     221.906E-03    -111.081E-03     41.0990E-03
             561     3.22151E-03     85.1414E-03    -69.9262E+06    -210.751E+06    -51.9253E+06    -79.4423E+03    -111.822E-03     223.034E-03    -111.212E-03     55.5327E-03    -111.949E-03     222.316E-03    -111.065E-03     54.2173E-03
             562     4.02707E-03     85.2110E-03    -65.8774E+06    -198.058E+06    -40.4281E+06     258.296E+03    -112.147E-03     223.376E-03    -111.228E-03     68.8963E-03    -112.390E-03     222.799E-03    -111.048E-03     67.1887E-03
             563     4.83251E-03     85.2953E-03    -61.4746E+06    -183.456E+06    -31.1529E+06     593.034E+03    -112.566E-03     223.795E-03    -111.229E-03     82.0183E-03    -112.957E-03     223.407E-03    -111.029E-03     79.8705E-03
             564     5.63807E-03     85.3941E-03    -56.1442E+06    -172.620E+06    -22.4896E+06     928.975E+03    -113.055E-03     224.289E-03    -111.233E-03     94.8666E-03    -113.628E-03     224.115E-03    -111.014E-03     92.2236E-03
             565     6.44345E-03     85.5067E-03    -51.0663E+06    -152.068E+06    -15.9096E+06     891.418E+03    -113.505E-03     224.719E-03    -111.214E-03     107.587E-03    -114.326E-03     224.865E-03    -110.999E-03     104.386E-03
             566     7.24920E-03     85.6337E-03    -46.7587E+06    -137.028E+06    -9.72533E+06     1.13487E+06    -113.970E-03     225.169E-03    -111.199E-03     120.099E-03    -115.107E-03     225.682E-03    -110.981E-03     116.264E-03
             567     8.05468E-03     85.7735E-03    -43.3433E+06    -124.996E+06    -5.58361E+06     1.29591E+06    -114.458E-03     225.637E-03    -111.179E-03     132.631E-03    -116.005E-03     226.603E-03    -110.963E-03     128.071E-03
             568     8.86039E-03     85.9275E-03    -40.3952E+06    -97.0560E+06    -3.99446E+06     1.17441E+06    -114.845E-03     225.967E-03    -111.123E-03     145.493E-03    -116.946E-03     227.592E-03    -110.944E-03     140.115E-03
             569     9.66624E-03     86.0953E-03    -37.4904E+06    -64.2852E+06    -755.071E+03     1.59191E+06    -115.094E-03     226.157E-03    -111.062E-03     158.232E-03    -117.927E-03     228.631E-03    -110.919E-03     151.934E-03
             570     10.4721E-03     86.2770E-03    -34.9345E+06    -17.2694E+06     5.01153E+06     1.53654E+06    -115.278E-03     226.269E-03    -110.991E-03     172.007E-03    -119.136E-03     229.927E-03    -110.890E-03     164.631E-03
             571     11.2777E-03     86.4743E-03    -32.6754E+06     39.4006E+06     11.3447E+06     922.597E+03    -115.737E-03     226.646E-03    -110.909E-03     191.261E-03    -121.152E-03     232.052E-03    -110.862E-03     182.562E-03
             572     12.0840E-03     86.6979E-03    -28.5688E+06     77.5058E+06     31.0433E+06     889.098E+03    -116.822E-03     227.746E-03    -110.923E-03     221.298E-03    -124.842E-03     235.849E-03    -110.839E-03     210.892E-03
             573     12.8890E-03     86.9623E-03    -23.0800E+06     94.9650E+06     64.2437E+06     1.40136E+06    -118.118E-03     229.146E-03    -111.029E-03     260.106E-03    -130.104E-03     241.201E-03    -110.812E-03     247.978E-03
             574     13.6960E-03     87.2751E-03    -17.2061E+06     113.853E+06     91.0714E+06     1.44297E+06    -118.262E-03     229.363E-03    -111.100E-03     282.797E-03    -134.009E-03     245.188E-03    -110.785E-03     270.488E-03
             575     14.5003E-03     87.5949E-03    -9.62681E+06     128.961E+06     103.212E+06     859.304E+03    -114.469E-03     225.584E-03    -111.115E-03     259.600E-03    -130.916E-03     242.155E-03    -110.772E-03     250.123E-03
             576     15.3068E-03     87.8552E-03    -4.07571E+06     126.306E+06     99.9563E+06     489.890E+03    -109.815E-03     220.895E-03    -111.080E-03     169.070E-03    -120.179E-03     231.403E-03    -110.758E-03     163.870E-03
             577     805.564E-06     86.2065E-03    -80.1009E+06    -229.717E+06    -78.6913E+06     438.817E+03    -111.221E-03     222.312E-03    -111.090E-03     15.5332E-03    -111.187E-03     221.407E-03    -111.035E-03     15.2032E-03
             578     1.61069E-03     86.2304E-03    -77.4312E+06    -224.981E+06    -71.4591E+06     348.832E+03    -111.388E-03     222.549E-03    -111.161E-03     28.4824E-03    -111.385E-03     221.680E-03    -111.080E-03     27.8597E-03
             579     2.41602E-03     86.2700E-03    -74.9495E+06    -219.355E+06    -62.7606E+06    -226.133E+03    -111.551E-03     222.751E-03    -111.199E-03     42.1224E-03    -111.605E-03     221.941E-03    -111.086E-03     41.1627E-03
             580     3.22159E-03     86.3246E-03    -71.4315E+06    -211.562E+06    -52.0909E+06     73.6931E+03    -111.818E-03     223.041E-03    -111.223E-03     55.5327E-03    -111.952E-03     222.321E-03    -111.073E-03     54.2183E-03
             581     4.02696E-03     86.3942E-03    -66.1047E+06    -198.502E+06    -40.6716E+06     623.717E+03    -112.169E-03     223.406E-03    -111.237E-03     68.8778E-03    -112.412E-03     222.828E-03    -111.057E-03     67.1737E-03
             582     4.83250E-03     86.4786E-03    -60.5782E+06    -183.535E+06    -30.9233E+06     570.359E+03    -112.581E-03     223.820E-03    -111.239E-03     82.0225E-03    -112.968E-03     223.430E-03    -111.039E-03     79.8743E-03
             583     5.63799E-03     86.5773E-03    -55.6573E+06    -173.289E+06    -22.1889E+06     641.092E+03    -113.029E-03     224.272E-03    -111.243E-03     94.8519E-03    -113.598E-03     224.093E-03    -111.022E-03     92.2065E-03
             584     6.44360E-03     86.6902E-03    -51.3804E+06    -152.558E+06    -15.5732E+06     1.01429E+06    -113.459E-03     224.678E-03    -111.219E-03     107.573E-03    -114.281E-03     224.821E-03    -111.001E-03     104.374E-03
             585     7.24912E-03     86.8166E-03    -47.6885E+06    -137.899E+06    -10.1446E+06     1.41222E+06    -113.928E-03     225.125E-03    -111.197E-03     120.082E-03    -115.068E-03     225.635E-03    -110.978E-03     116.252E-03
             586     8.05490E-03     86.9570E-03    -43.7931E+06    -124.992E+06    -6.00455E+06     1.69136E+06    -114.452E-03     225.626E-03    -111.173E-03     132.557E-03    -116.001E-03     226.592E-03    -110.959E-03     128.001E-03
             587     8.86045E-03     87.1106E-03    -40.3487E+06    -96.7005E+06    -4.04605E+06     1.85776E+06    -114.909E-03     226.031E-03    -111.122E-03     145.264E-03    -117.011E-03     227.658E-03    -110.943E-03     139.889E-03
             588     9.66597E-03     87.2786E-03    -37.6921E+06    -65.2429E+06    -1.38551E+06     2.01073E+06    -115.167E-03     226.236E-03    -111.069E-03     157.918E-03    -118.000E-03     228.707E-03    -110.926E-03     151.616E-03
             589     10.4717E-03     87.4598E-03    -35.0398E+06    -17.5266E+06     4.72107E+06     2.30999E+06    -115.316E-03     226.319E-03    -111.003E-03     171.723E-03    -119.171E-03     229.974E-03    -110.903E-03     164.353E-03
             590     11.2779E-03     87.6577E-03    -32.0763E+06     40.8765E+06     13.0081E+06     1.79332E+06    -115.743E-03     226.674E-03    -110.930E-03     191.018E-03    -121.159E-03     232.082E-03    -110.878E-03     182.327E-03
             591     12.0832E-03     87.8812E-03    -29.1808E+06     78.0527E+06     32.6281E+06     317.029E+03    -116.874E-03     227.823E-03    -110.948E-03     221.387E-03    -124.893E-03     235.920E-03    -110.856E-03     210.981E-03
             592     12.8893E-03     88.1465E-03    -24.1732E+06     93.9250E+06     64.3740E+06     11.0212E+03    -118.434E-03     229.493E-03    -111.059E-03     260.212E-03    -130.440E-03     241.561E-03    -110.839E-03     248.027E-03
             593     13.6944E-03     88.4570E-03    -17.1623E+06     114.949E+06     91.6874E+06     842.612E+03    -118.111E-03     229.240E-03    -111.128E-03     283.646E-03    -133.855E-03     245.064E-03    -110.812E-03     271.347E-03
             594     14.5024E-03     88.7797E-03    -11.2144E+06     128.761E+06     102.416E+06     605.257E+03    -114.510E-03     225.638E-03    -111.128E-03     260.885E-03    -131.015E-03     242.263E-03    -110.786E-03     251.413E-03
             595     15.3058E-03     89.0409E-03    -5.60145E+06     125.434E+06     98.7673E+06     289.959E+03    -109.920E-03     221.012E-03    -111.091E-03     169.550E-03    -120.393E-03     231.623E-03    -110.771E-03     164.305E-03
             596     805.270E-06     87.3895E-03    -80.0959E+06    -229.817E+06    -78.8354E+06    -294.573E+03    -111.262E-03     222.324E-03    -111.062E-03     15.5795E-03    -111.227E-03     221.419E-03    -111.007E-03     15.2402E-03
             597     1.61085E-03     87.4139E-03    -77.8426E+06    -225.503E+06    -72.1099E+06     180.704E+03    -111.370E-03     222.531E-03    -111.161E-03     28.4694E-03    -111.367E-03     221.660E-03    -111.081E-03     27.8436E-03
             598     2.41622E-03     87.4533E-03    -74.2424E+06    -219.513E+06    -62.8066E+06     924.988E+03    -111.582E-03     222.782E-03    -111.199E-03     42.0240E-03    -111.632E-03     221.970E-03    -111.088E-03     41.0784E-03
             599     3.22146E-03     87.5079E-03    -70.1229E+06    -211.614E+06    -51.8670E+06     623.095E+03    -111.839E-03     223.069E-03    -111.229E-03     55.5291E-03    -111.967E-03     222.346E-03    -111.080E-03     54.2206E-03
             600     4.02699E-03     87.5774E-03    -65.5435E+06    -198.704E+06    -40.8173E+06     99.6296E+03    -112.194E-03     223.439E-03    -111.245E-03     68.9047E-03    -112.434E-03     222.859E-03    -111.066E-03     67.1933E-03
             601     4.83240E-03     87.6619E-03    -60.7423E+06    -183.934E+06    -31.1269E+06     471.473E+03    -112.588E-03     223.837E-03    -111.249E-03     82.0384E-03    -112.975E-03     223.446E-03    -111.049E-03     79.8885E-03
             602     5.63789E-03     87.7606E-03    -56.1696E+06    -173.899E+06    -22.3523E+06     1.05467E+06    -113.014E-03     224.266E-03    -111.252E-03     94.8244E-03    -113.585E-03     224.085E-03    -111.030E-03     92.1836E-03
             603     6.44350E-03     87.8732E-03    -51.8304E+06    -153.146E+06    -15.9757E+06     1.40764E+06    -113.460E-03     224.685E-03    -111.226E-03     107.466E-03    -114.283E-03     224.827E-03    -111.008E-03     104.270E-03
             604     7.24922E-03     88.0001E-03    -47.3190E+06    -138.404E+06    -10.1017E+06     1.55201E+06    -113.955E-03     225.160E-03    -111.206E-03     119.912E-03    -115.093E-03     225.669E-03    -110.987E-03     116.078E-03
             605     8.05468E-03     88.1399E-03    -43.3763E+06    -125.830E+06    -6.01797E+06     1.85986E+06    -114.467E-03     225.652E-03    -111.185E-03     132.445E-03    -116.011E-03     226.613E-03    -110.969E-03     127.890E-03
             606     8.86027E-03     88.2943E-03    -40.0588E+06    -97.5062E+06    -4.03919E+06     2.22418E+06    -114.925E-03     226.059E-03    -111.134E-03     145.228E-03    -117.024E-03     227.681E-03    -110.955E-03     139.858E-03
             607     9.66591E-03     88.4617E-03    -36.7465E+06    -65.3385E+06    -756.171E+03     2.31051E+06    -115.284E-03     226.370E-03    -111.086E-03     157.901E-03    -118.116E-03     228.842E-03    -110.942E-03     151.592E-03
             608     10.4716E-03     88.6432E-03    -33.4370E+06    -17.8049E+06     5.64348E+06     2.66955E+06    -115.471E-03     226.501E-03    -111.031E-03     171.704E-03    -119.324E-03     230.156E-03    -110.928E-03     164.324E-03
             609     11.2769E-03     88.8408E-03    -30.4364E+06     41.3432E+06     13.2924E+06     3.02468E+06    -115.691E-03     226.646E-03    -110.955E-03     191.045E-03    -121.096E-03     232.051E-03    -110.904E-03     182.377E-03
             610     12.0834E-03     89.0647E-03    -27.4849E+06     80.8979E+06     34.2740E+06     2.33608E+06    -116.703E-03     227.667E-03    -110.964E-03     221.696E-03    -124.694E-03     235.749E-03    -110.871E-03     211.354E-03
             611     12.8892E-03     89.3298E-03    -23.8889E+06     95.7809E+06     66.3539E+06     269.055E+03    -118.514E-03     229.586E-03    -111.072E-03     260.592E-03    -130.529E-03     241.664E-03    -110.845E-03     248.412E-03
             612     13.6952E-03     89.6420E-03    -18.8107E+06     113.634E+06     90.6534E+06    -400.768E+03    -118.309E-03     229.454E-03    -111.145E-03     282.678E-03    -134.065E-03     245.284E-03    -110.829E-03     270.323E-03
             613     14.5006E-03     89.9593E-03    -11.7820E+06     127.835E+06     101.411E+06     290.152E+03    -114.023E-03     225.164E-03    -111.141E-03     260.801E-03    -130.541E-03     241.800E-03    -110.802E-03     251.360E-03
             614     15.3083E-03     90.2297E-03    -5.35579E+06     125.882E+06     98.8166E+06     170.117E+03    -109.714E-03     220.802E-03    -111.088E-03     168.282E-03    -120.135E-03     231.364E-03    -110.769E-03     163.080E-03
             615     805.457E-06     88.5726E-03    -80.4243E+06    -229.836E+06    -78.3605E+06     162.458E+03    -111.321E-03     222.377E-03    -111.056E-03     15.5739E-03    -111.289E-03     221.472E-03    -110.998E-03     15.2392E-03
             616     1.61067E-03     88.5971E-03    -78.4949E+06    -226.400E+06    -72.9884E+06     339.755E+03    -111.365E-03     222.543E-03    -111.178E-03     28.5620E-03    -111.363E-03     221.670E-03    -111.101E-03     27.9375E-03
             617     2.41596E-03     88.6367E-03    -75.2244E+06    -220.194E+06    -63.9088E+06     417.100E+03    -111.573E-03     222.780E-03    -111.207E-03     41.9750E-03    -111.624E-03     221.968E-03    -111.098E-03     41.0246E-03
             618     3.22156E-03     88.6911E-03    -70.6778E+06    -211.203E+06    -51.1799E+06     568.741E+03    -111.850E-03     223.092E-03    -111.241E-03     55.5470E-03    -111.982E-03     222.371E-03    -111.088E-03     54.2389E-03
             619     4.02690E-03     88.7609E-03    -65.8389E+06    -198.729E+06    -40.4275E+06     713.975E+03    -112.212E-03     223.470E-03    -111.257E-03     68.8810E-03    -112.454E-03     222.890E-03    -111.076E-03     67.1770E-03
             620     4.83238E-03     88.8451E-03    -61.4322E+06    -184.630E+06    -31.8460E+06     785.221E+03    -112.580E-03     223.837E-03    -111.257E-03     81.9653E-03    -112.968E-03     223.444E-03    -111.060E-03     79.8180E-03
             621     5.63798E-03     88.9439E-03    -56.6211E+06    -174.693E+06    -22.6440E+06     1.07308E+06    -113.033E-03     224.295E-03    -111.262E-03     94.7926E-03    -113.605E-03     224.112E-03    -111.040E-03     92.1496E-03
             622     6.44339E-03     89.0566E-03    -51.5239E+06    -153.807E+06    -15.7173E+06     1.39334E+06    -113.524E-03     224.765E-03    -111.241E-03     107.455E-03    -114.345E-03     224.903E-03    -111.022E-03     104.255E-03
             623     7.24887E-03     89.1832E-03    -47.2956E+06    -138.879E+06    -10.0596E+06     1.61685E+06    -114.006E-03     225.232E-03    -111.226E-03     119.904E-03    -115.145E-03     225.739E-03    -111.006E-03     116.067E-03
             624     8.05451E-03     89.3234E-03    -43.3720E+06    -126.551E+06     -5.9567E+06     1.83028E+06    -114.493E-03     225.701E-03    -111.207E-03     132.431E-03    -116.037E-03     226.658E-03    -110.991E-03     127.874E-03
             625     8.86021E-03     89.4773E-03    -39.6372E+06    -98.4466E+06    -3.93877E+06     1.90715E+06    -114.923E-03     226.079E-03    -111.156E-03     145.152E-03    -117.018E-03     227.695E-03    -110.975E-03     139.778E-03
             626     9.66581E-03     89.6453E-03    -36.2937E+06    -65.9390E+06    -646.591E+03     2.16799E+06    -115.295E-03     226.401E-03    -111.106E-03     157.892E-03    -118.122E-03     228.867E-03    -110.961E-03     151.582E-03
             627     10.4711E-03     89.8268E-03    -33.1876E+06    -18.8964E+06     5.56962E+06     2.46397E+06    -115.450E-03     226.498E-03    -111.048E-03     171.796E-03    -119.300E-03     230.147E-03    -110.945E-03     164.416E-03
             628     11.2772E-03     90.0242E-03    -30.0157E+06     40.7495E+06     12.9456E+06     3.11545E+06    -115.758E-03     226.728E-03    -110.970E-03     191.093E-03    -121.161E-03     232.132E-03    -110.921E-03     182.419E-03
             629     12.0831E-03     90.2472E-03    -26.2781E+06     81.8327E+06     33.7530E+06     3.72614E+06    -116.806E-03     227.787E-03    -110.981E-03     221.378E-03    -124.793E-03     235.873E-03    -110.892E-03     211.032E-03
             630     12.8893E-03     90.5139E-03    -21.8545E+06     99.6178E+06     67.6554E+06     2.31156E+06    -118.515E-03     229.610E-03    -111.095E-03     260.367E-03    -130.501E-03     241.676E-03    -110.870E-03     248.222E-03
             631     13.6943E-03     90.8256E-03    -16.1779E+06     114.418E+06     92.3213E+06     485.232E+03    -118.558E-03     229.740E-03    -111.182E-03     282.171E-03    -134.328E-03     245.591E-03    -110.862E-03     269.803E-03
             632     14.4998E-03     91.1437E-03    -10.2599E+06     126.796E+06     101.778E+06     800.294E+03    -113.946E-03     225.131E-03    -111.185E-03     259.738E-03    -130.426E-03     241.729E-03    -110.845E-03     250.312E-03
             633     15.3061E-03     91.4084E-03    -4.76116E+06     127.402E+06     99.5669E+06     766.787E+03    -109.164E-03     220.279E-03    -111.115E-03     168.780E-03    -119.529E-03     230.790E-03    -110.795E-03     163.667E-03
             634     805.249E-06     89.7556E-03    -80.7132E+06    -230.716E+06    -79.3979E+06     477.758E+03    -111.435E-03     222.471E-03    -111.036E-03     15.3656E-03    -111.401E-03     221.563E-03    -110.982E-03     15.0372E-03
             635     1.61075E-03     89.7807E-03    -78.5056E+06    -226.590E+06    -73.2039E+06     506.741E+03    -111.336E-03     222.547E-03    -111.210E-03     28.5376E-03    -111.334E-03     221.673E-03    -111.134E-03     27.9155E-03
             636     2.41618E-03     89.8197E-03    -75.5767E+06    -220.506E+06    -64.1771E+06     598.498E+03    -111.563E-03     222.784E-03    -111.220E-03     41.9702E-03    -111.616E-03     221.971E-03    -111.112E-03     41.0213E-03
             637     3.22142E-03     89.8746E-03    -71.6395E+06    -211.918E+06    -52.0748E+06     760.415E+03    -111.873E-03     223.124E-03    -111.251E-03     55.5535E-03    -112.008E-03     222.403E-03    -111.100E-03     54.2470E-03
             638     4.02686E-03     89.9441E-03    -66.9022E+06    -198.985E+06    -40.4045E+06     892.485E+03    -112.203E-03     223.474E-03    -111.271E-03     68.8760E-03    -112.450E-03     222.894E-03    -111.088E-03     67.1737E-03
             639     4.83230E-03     90.0285E-03    -61.3465E+06    -184.685E+06    -30.9392E+06     761.292E+03    -112.604E-03     223.877E-03    -111.273E-03     81.9478E-03    -112.993E-03     223.483E-03    -111.071E-03     79.7988E-03
             640     5.63773E-03     90.1271E-03    -56.2208E+06    -175.537E+06    -22.4890E+06     901.856E+03    -113.064E-03     224.342E-03    -111.277E-03     94.7896E-03    -113.634E-03     224.154E-03    -111.054E-03     92.1422E-03
             641     6.44335E-03     90.2400E-03    -51.9904E+06    -155.120E+06    -16.2150E+06     1.52170E+06    -113.538E-03     224.794E-03    -111.256E-03     107.495E-03    -114.359E-03     224.927E-03    -111.037E-03     104.298E-03
             642     7.24890E-03     90.3666E-03    -47.7200E+06    -138.933E+06    -10.1035E+06     1.80273E+06    -114.064E-03     225.307E-03    -111.243E-03     119.957E-03    -115.205E-03     225.814E-03    -111.023E-03     116.121E-03
             643     8.05437E-03     90.5067E-03    -43.7122E+06    -126.365E+06    -5.83098E+06     1.51691E+06    -114.548E-03     225.776E-03    -111.229E-03     132.428E-03    -116.095E-03     226.736E-03    -111.011E-03     127.863E-03
             644     8.85977E-03     90.6608E-03    -39.8926E+06    -98.8908E+06    -4.13265E+06     1.38004E+06    -114.948E-03     226.126E-03    -111.178E-03     145.257E-03    -117.044E-03     227.741E-03    -110.997E-03     139.874E-03
             645     9.66535E-03     90.8286E-03    -36.4971E+06    -67.3316E+06    -1.18430E+06     1.77433E+06    -115.222E-03     226.345E-03    -111.123E-03     158.069E-03    -118.047E-03     228.805E-03    -110.978E-03     151.760E-03
             646     10.4714E-03     91.0103E-03    -33.6293E+06    -20.3629E+06     4.87707E+06     2.58940E+06    -115.406E-03     226.465E-03    -111.058E-03     171.757E-03    -119.255E-03     230.108E-03    -110.956E-03     164.380E-03
             647     11.2771E-03     91.2071E-03    -30.7016E+06     40.1751E+06     12.9509E+06     2.89732E+06    -115.976E-03     226.964E-03    -110.988E-03     191.043E-03    -121.388E-03     232.372E-03    -110.937E-03     182.344E-03
             648     12.0824E-03     91.4319E-03    -27.3699E+06     81.0924E+06     33.2502E+06     2.99061E+06    -117.085E-03     228.099E-03    -111.014E-03     221.279E-03    -125.092E-03     236.200E-03    -110.926E-03     210.885E-03
             649     12.8878E-03     91.6957E-03    -22.3821E+06     102.597E+06     67.2763E+06     2.60039E+06    -118.394E-03     229.521E-03    -111.126E-03     260.725E-03    -130.389E-03     241.605E-03    -110.906E-03     248.596E-03
             650     13.6942E-03     92.0110E-03    -16.8103E+06     115.100E+06     92.0129E+06     1.54882E+06    -118.040E-03     229.227E-03    -111.187E-03     283.753E-03    -133.830E-03     245.099E-03    -110.869E-03     271.483E-03
             651     14.4995E-03     92.3270E-03    -11.7422E+06     126.468E+06     102.022E+06     1.20727E+06    -114.107E-03     225.280E-03    -111.173E-03     260.817E-03    -130.625E-03     241.910E-03    -110.829E-03     251.425E-03
             652     15.3064E-03     92.5905E-03    -5.99919E+06     129.486E+06     100.588E+06     374.066E+03    -109.429E-03     220.540E-03    -111.111E-03     169.911E-03    -119.848E-03     231.105E-03    -110.787E-03     164.770E-03
             653     805.263E-06     90.9396E-03    -81.4882E+06    -231.266E+06    -79.9559E+06     168.910E+03    -111.404E-03     222.554E-03    -111.150E-03     15.3773E-03    -111.372E-03     221.645E-03    -111.096E-03     15.0430E-03
             654     1.61051E-03     90.9635E-03    -79.2826E+06    -227.201E+06    -73.6196E+06     362.858E+03    -111.335E-03     222.581E-03    -111.246E-03     28.4486E-03    -111.335E-03     221.706E-03    -111.169E-03     27.8242E-03
             655     2.41597E-03     91.0033E-03    -75.8518E+06    -221.182E+06    -64.5399E+06     710.820E+03    -111.555E-03     222.797E-03    -111.242E-03     42.0253E-03    -111.607E-03     221.982E-03    -111.134E-03     41.0766E-03
             656     3.22140E-03     91.0578E-03    -71.5684E+06    -212.734E+06    -52.5445E+06     1.20242E+06    -111.873E-03     223.138E-03    -111.264E-03     55.5403E-03    -112.006E-03     222.413E-03    -111.115E-03     54.2393E-03
             657     4.02683E-03     91.1276E-03    -66.6876E+06    -199.116E+06    -40.3377E+06     1.30185E+06    -112.200E-03     223.482E-03    -111.283E-03     68.8644E-03    -112.445E-03     222.901E-03    -111.099E-03     67.1681E-03
             658     4.83231E-03     91.2118E-03    -62.4675E+06    -184.823E+06    -30.8019E+06     1.27941E+06    -112.623E-03     223.909E-03    -111.286E-03     81.9663E-03    -113.018E-03     223.516E-03    -111.082E-03     79.8250E-03
             659     5.63778E-03     91.3106E-03    -58.5174E+06    -176.088E+06    -23.2296E+06     1.33710E+06    -113.103E-03     224.395E-03    -111.292E-03     94.7733E-03    -113.683E-03     224.209E-03    -111.068E-03     92.1301E-03
             660     6.44319E-03     91.4231E-03    -53.4103E+06    -155.114E+06    -16.8015E+06     804.287E+03    -113.557E-03     224.829E-03    -111.272E-03     107.468E-03    -114.384E-03     224.965E-03    -111.054E-03     104.260E-03
             661     7.24875E-03     91.5502E-03    -47.7669E+06    -139.613E+06    -10.6376E+06     619.825E+03    -114.051E-03     225.308E-03    -111.257E-03     119.997E-03    -115.189E-03     225.812E-03    -111.039E-03     116.149E-03
             662     8.05411E-03     91.6902E-03    -42.8836E+06    -127.036E+06    -5.99876E+06     1.34638E+06    -114.537E-03     225.776E-03    -111.240E-03     132.521E-03    -116.079E-03     226.733E-03    -111.023E-03     127.954E-03
             663     8.85990E-03     91.8440E-03    -39.7985E+06    -98.8158E+06    -3.92024E+06     1.88450E+06    -114.930E-03     226.117E-03    -111.187E-03     145.427E-03    -117.025E-03     227.732E-03    -111.006E-03     140.054E-03
             664     9.66555E-03     92.0123E-03    -37.5063E+06    -67.6217E+06    -1.37089E+06     1.84462E+06    -115.252E-03     226.384E-03    -111.132E-03     158.125E-03    -118.083E-03     228.846E-03    -110.986E-03     151.814E-03
             665     10.4711E-03     92.1931E-03    -34.4875E+06    -21.7015E+06     4.36110E+06     2.21999E+06    -115.560E-03     226.633E-03    -111.073E-03     171.847E-03    -119.414E-03     230.275E-03    -110.970E-03     164.452E-03
             666     11.2765E-03     92.3916E-03    -31.6446E+06     38.9954E+06     11.5667E+06     3.10935E+06    -115.986E-03     226.989E-03    -111.002E-03     191.353E-03    -121.406E-03     232.401E-03    -110.955E-03     182.652E-03
             667     12.0824E-03     92.6149E-03    -28.3027E+06     81.2094E+06     31.9345E+06     2.90303E+06    -116.819E-03     227.832E-03    -111.013E-03     222.023E-03    -124.833E-03     235.941E-03    -110.930E-03     211.663E-03
             668     12.8881E-03     92.8809E-03    -23.8511E+06     103.239E+06     66.7195E+06     2.27659E+06    -118.088E-03     229.192E-03    -111.104E-03     261.863E-03    -130.130E-03     241.322E-03    -110.885E-03     249.763E-03
             669     13.6948E-03     93.1915E-03    -17.9277E+06     115.925E+06     92.2124E+06     2.31775E+06    -117.553E-03     228.691E-03    -111.138E-03     284.407E-03    -133.334E-03     244.552E-03    -110.819E-03     272.215E-03
             670     14.5032E-03     93.5124E-03    -11.9442E+06     128.402E+06     102.635E+06     1.13548E+06    -114.035E-03     225.141E-03    -111.105E-03     261.534E-03    -130.589E-03     241.811E-03    -110.761E-03     252.143E-03
             671     15.3074E-03     93.7750E-03    -5.91647E+06     130.331E+06     100.977E+06    -224.934E+03    -110.162E-03     221.225E-03    -111.063E-03     169.030E-03    -120.637E-03     231.849E-03    -110.739E-03     163.776E-03
             672     805.279E-06     92.1230E-03    -81.8362E+06    -231.643E+06    -80.6367E+06    -84.7420E+03    -111.346E-03     222.518E-03    -111.172E-03     15.4483E-03    -111.314E-03     221.609E-03    -111.121E-03     15.1072E-03
             673     1.61065E-03     92.1470E-03    -79.6992E+06    -227.887E+06    -74.6852E+06     241.806E+03    -111.404E-03     222.647E-03    -111.242E-03     28.4566E-03    -111.404E-03     221.771E-03    -111.170E-03     27.8309E-03
             674     2.41600E-03     92.1865E-03    -76.5028E+06    -221.784E+06    -65.1415E+06     446.982E+03    -111.598E-03     222.860E-03    -111.262E-03     42.0746E-03    -111.652E-03     222.044E-03    -111.155E-03     41.1230E-03
             675     3.22137E-03     92.2413E-03    -71.8078E+06    -213.586E+06    -53.3874E+06     721.453E+03    -111.868E-03     223.151E-03    -111.283E-03     55.4835E-03    -111.999E-03     222.424E-03    -111.137E-03     54.1761E-03
             676     4.02676E-03     92.3108E-03    -66.4649E+06    -200.109E+06    -41.3884E+06     1.47224E+06    -112.216E-03     223.512E-03    -111.297E-03     68.7966E-03    -112.457E-03     222.928E-03    -111.117E-03     67.1020E-03
             677     4.83220E-03     92.3953E-03    -61.0830E+06    -185.861E+06    -29.8613E+06     2.36252E+06    -112.630E-03     223.937E-03    -111.307E-03     81.9228E-03    -113.018E-03     223.535E-03    -111.098E-03     79.7945E-03
             678     5.63762E-03     92.4940E-03    -55.5730E+06    -175.180E+06    -20.8431E+06     1.89006E+06    -113.123E-03     224.436E-03    -111.313E-03     94.7750E-03    -113.692E-03     224.247E-03    -111.083E-03     92.1382E-03
             679     6.44305E-03     92.6067E-03    -50.7812E+06    -153.464E+06    -15.5673E+06     552.207E+03    -113.588E-03     224.875E-03    -111.287E-03     107.537E-03    -114.407E-03     225.014E-03    -111.069E-03     104.323E-03
             680     7.24853E-03     92.7334E-03    -47.4678E+06    -140.648E+06    -11.1061E+06     316.337E+03    -114.008E-03     225.275E-03    -111.267E-03     120.078E-03    -115.142E-03     225.774E-03    -111.050E-03     116.228E-03
             681     8.05439E-03     92.8736E-03    -44.4593E+06    -128.835E+06    -7.37169E+06     1.16161E+06    -114.486E-03     225.729E-03    -111.243E-03     132.578E-03    -116.030E-03     226.679E-03    -111.028E-03     128.013E-03
             682     8.85973E-03     93.0276E-03    -40.7241E+06    -99.5852E+06    -4.42851E+06     2.03149E+06    -114.941E-03     226.131E-03    -111.190E-03     145.323E-03    -117.040E-03     227.745E-03    -111.009E-03     139.950E-03
             683     9.66546E-03     93.1953E-03    -37.2579E+06    -67.7831E+06    -838.741E+03     2.49113E+06    -115.309E-03     226.449E-03    -111.140E-03     158.161E-03    -118.140E-03     228.910E-03    -110.992E-03     151.856E-03
             684     10.4708E-03     93.3774E-03    -34.9757E+06    -22.6343E+06     3.86730E+06     2.59684E+06    -115.533E-03     226.611E-03    -111.078E-03     172.196E-03    -119.390E-03     230.252E-03    -110.975E-03     164.809E-03
             685     11.2768E-03     93.5747E-03    -32.2209E+06     38.1843E+06     9.41081E+06     2.77641E+06    -115.778E-03     226.765E-03    -110.987E-03     191.767E-03    -121.196E-03     232.177E-03    -110.949E-03     183.083E-03
             686     12.0826E-03     93.7989E-03    -28.5200E+06     81.2100E+06     30.1554E+06     2.85170E+06    -116.351E-03     227.327E-03    -110.976E-03     221.846E-03    -124.352E-03     235.427E-03    -110.901E-03     211.529E-03
             687     12.8902E-03     94.0625E-03    -23.4119E+06     103.774E+06     67.5463E+06     2.88374E+06    -117.868E-03     228.927E-03    -111.059E-03     261.413E-03    -129.879E-03     241.028E-03    -110.838E-03     249.356E-03
             688     13.6961E-03     94.3771E-03    -17.3076E+06     116.954E+06     93.1090E+06     2.35302E+06    -117.971E-03     229.079E-03    -111.108E-03     282.802E-03    -133.700E-03     244.892E-03    -110.787E-03     270.565E-03
             689     14.5012E-03     94.6910E-03    -10.7607E+06     129.964E+06     103.157E+06     1.22900E+06    -113.805E-03     224.895E-03    -111.090E-03     260.369E-03    -130.297E-03     241.511E-03    -110.747E-03     250.985E-03
             690     15.3084E-03     94.9637E-03    -4.18283E+06     131.430E+06     102.109E+06     525.455E+03    -109.865E-03     220.904E-03    -111.040E-03     168.941E-03    -120.282E-03     231.478E-03    -110.714E-03     163.725E-03
             691     805.362E-06     93.3062E-03    -82.4878E+06    -231.991E+06    -80.7843E+06     215.327E+03    -111.355E-03     222.467E-03    -111.111E-03     15.4027E-03    -111.326E-03     221.557E-03    -111.059E-03     15.0686E-03
             692     1.61064E-03     93.3305E-03    -80.6540E+06    -228.204E+06    -74.7050E+06     173.195E+03    -111.458E-03     222.694E-03    -111.236E-03     28.4489E-03    -111.462E-03     221.818E-03    -111.161E-03     27.8229E-03
             693     2.41584E-03     93.3700E-03    -77.2560E+06    -222.124E+06    -65.6657E+06     334.655E+03    -111.649E-03     222.924E-03    -111.276E-03     42.0329E-03    -111.705E-03     222.108E-03    -111.170E-03     41.0791E-03
             694     3.22119E-03     93.4246E-03    -73.2526E+06    -214.105E+06    -54.0831E+06     363.018E+03    -111.884E-03     223.188E-03    -111.304E-03     55.5289E-03    -112.021E-03     222.462E-03    -111.158E-03     54.2158E-03
             695     4.02665E-03     93.4942E-03    -68.6774E+06    -202.137E+06    -43.7108E+06     973.292E+03    -112.223E-03     223.534E-03    -111.311E-03     68.8555E-03    -112.470E-03     222.946E-03    -111.137E-03     67.1530E-03
             696     4.83206E-03     93.5786E-03    -63.0300E+06    -186.339E+06    -33.7985E+06     1.10801E+06    -112.618E-03     223.926E-03    -111.308E-03     82.0074E-03    -113.010E-03     223.530E-03    -111.115E-03     79.8632E-03
             697     5.63760E-03     93.6774E-03    -57.0036E+06    -174.209E+06    -23.1402E+06     451.435E+03    -113.073E-03     224.385E-03    -111.312E-03     94.9120E-03    -113.647E-03     224.205E-03    -111.093E-03     92.2613E-03
             698     6.44308E-03     93.7903E-03    -52.0393E+06    -153.656E+06    -16.1623E+06     767.435E+03    -113.553E-03     224.843E-03    -111.289E-03     107.617E-03    -114.378E-03     224.984E-03    -111.072E-03     104.410E-03
             699     7.24872E-03     93.9168E-03    -47.8104E+06    -141.183E+06    -10.7671E+06     1.47278E+06    -114.051E-03     225.324E-03    -111.273E-03     120.016E-03    -115.188E-03     225.821E-03    -111.053E-03     116.176E-03
             700     8.05402E-03     94.0569E-03    -44.2838E+06    -129.683E+06    -7.42994E+06     1.69512E+06    -114.511E-03     225.762E-03    -111.250E-03     132.522E-03    -116.053E-03     226.708E-03    -111.035E-03     127.962E-03
             701     8.85987E-03     94.2110E-03    -41.3181E+06    -100.785E+06    -6.09137E+06     1.77387E+06    -114.939E-03     226.130E-03    -111.192E-03     145.363E-03    -117.036E-03     227.741E-03    -111.016E-03     139.987E-03
             702     9.66523E-03     94.3789E-03    -38.4459E+06     -69.426E+06    -2.78685E+06     2.46936E+06    -115.254E-03     226.392E-03    -111.138E-03     158.273E-03    -118.086E-03     228.849E-03    -110.996E-03     151.972E-03
             703     10.4712E-03     94.5605E-03    -35.2464E+06    -22.8054E+06     3.09612E+06     3.03383E+06    -115.376E-03     226.445E-03    -111.069E-03     172.184E-03    -119.231E-03     230.085E-03    -110.970E-03     164.813E-03
             704     11.2770E-03     94.7583E-03    -32.1948E+06     38.4906E+06     10.2949E+06     2.41609E+06    -115.586E-03     226.562E-03    -110.975E-03     191.366E-03    -120.992E-03     231.960E-03    -110.933E-03     182.702E-03
             705     12.0834E-03     94.9816E-03    -28.5856E+06     81.0964E+06     31.7135E+06     2.33319E+06    -116.546E-03     227.520E-03    -110.973E-03     220.952E-03    -124.539E-03     235.607E-03    -110.891E-03     210.610E-03
             706     12.8887E-03     95.2448E-03    -24.1379E+06     102.543E+06     66.3673E+06     3.10478E+06    -118.008E-03     229.074E-03    -111.066E-03     260.142E-03    -129.991E-03     241.143E-03    -110.848E-03     248.059E-03
             707     13.6953E-03     95.5600E-03    -18.1801E+06     118.007E+06     92.0619E+06     2.02183E+06    -117.938E-03     229.056E-03    -111.119E-03     283.089E-03    -133.646E-03     244.853E-03    -110.803E-03     270.855E-03
             708     14.5004E-03     95.8770E-03    -10.8708E+06     131.649E+06     104.166E+06     532.031E+03    -113.982E-03     225.090E-03    -111.107E-03     260.386E-03    -130.422E-03     241.656E-03    -110.762E-03     250.990E-03
             709     15.3084E-03     96.1401E-03    -5.24259E+06     131.689E+06     102.170E+06     654.304E+03    -109.576E-03     220.627E-03    -111.051E-03     169.370E-03    -119.983E-03     231.187E-03    -110.724E-03     164.195E-03
             710     805.360E-06     94.4896E-03    -83.6338E+06    -232.864E+06    -81.7073E+06     512.929E+03    -111.348E-03     222.539E-03    -111.191E-03     15.3137E-03    -111.322E-03     221.628E-03    -111.141E-03     14.9848E-03
             711     1.61059E-03     94.5141E-03    -81.4126E+06    -228.658E+06    -75.1865E+06     805.963E+03    -111.424E-03     222.684E-03    -111.260E-03     28.4432E-03    -111.430E-03     221.808E-03    -111.186E-03     27.8269E-03
             712     2.41594E-03     94.5535E-03    -78.4686E+06    -222.577E+06    -65.8493E+06     881.080E+03    -111.629E-03     222.913E-03    -111.284E-03     42.0380E-03    -111.690E-03     222.097E-03    -111.177E-03     41.0914E-03
             713     3.22130E-03     94.6080E-03    -74.6183E+06    -214.089E+06    -54.5069E+06     843.996E+03    -111.888E-03     223.196E-03    -111.308E-03     55.5647E-03    -112.031E-03     222.472E-03    -111.162E-03     54.2578E-03
             714     4.02661E-03     94.6777E-03    -69.4066E+06    -202.540E+06    -45.0068E+06     204.919E+03    -112.224E-03     223.534E-03    -111.310E-03     68.9579E-03    -112.472E-03     222.947E-03    -111.141E-03     67.2458E-03
             715     4.83210E-03     94.7620E-03    -63.6502E+06    -185.554E+06    -36.3676E+06    -612.029E+03    -112.615E-03     223.912E-03    -111.297E-03     82.1100E-03    -113.007E-03     223.525E-03    -111.118E-03     79.9450E-03
             716     5.63755E-03     94.8608E-03    -58.7222E+06    -174.626E+06    -25.7371E+06    -365.048E+03    -113.057E-03     224.360E-03    -111.303E-03     94.9591E-03    -113.635E-03     224.185E-03    -111.093E-03     92.2985E-03
             717     6.44316E-03     94.9735E-03    -54.4708E+06    -155.983E+06    -17.6047E+06     932.337E+03    -113.540E-03     224.828E-03    -111.288E-03     107.631E-03    -114.370E-03     224.962E-03    -111.071E-03     104.428E-03
             718     7.24853E-03     95.1004E-03    -50.2952E+06    -141.311E+06    -12.2779E+06     1.39896E+06    -114.076E-03     225.346E-03    -111.270E-03     120.072E-03    -115.223E-03     225.848E-03    -111.054E-03     116.232E-03
             719     8.05416E-03     95.2402E-03    -45.8955E+06    -129.908E+06    -8.81487E+06     1.22073E+06    -114.552E-03     225.802E-03    -111.250E-03     132.551E-03    -116.101E-03     226.752E-03    -111.039E-03     127.980E-03
             720     8.85957E-03     95.3943E-03    -42.1831E+06    -101.965E+06    -7.38399E+06     1.79905E+06    -114.909E-03     226.102E-03    -111.193E-03     145.433E-03    -117.007E-03     227.709E-03    -111.021E-03     140.059E-03
             721     9.66551E-03     95.5623E-03    -38.7673E+06    -70.3932E+06    -3.71192E+06     2.07779E+06    -115.217E-03     226.354E-03    -111.136E-03     158.239E-03    -118.047E-03     228.807E-03    -110.997E-03     151.936E-03
             722     10.4709E-03     95.7438E-03    -35.1917E+06    -23.6911E+06     2.92181E+06     2.13566E+06    -115.381E-03     226.452E-03    -111.070E-03     171.995E-03    -119.234E-03     230.087E-03    -110.970E-03     164.611E-03
             723     11.2769E-03     95.9415E-03    -31.8481E+06     38.7626E+06     10.7263E+06     2.71990E+06    -115.611E-03     226.592E-03    -110.981E-03     190.876E-03    -121.010E-03     231.984E-03    -110.937E-03     182.214E-03
             724     12.0828E-03     96.1642E-03    -29.0764E+06     80.2913E+06     31.6507E+06     3.09518E+06    -116.649E-03     227.632E-03    -110.982E-03     221.319E-03    -124.638E-03     235.710E-03    -110.898E-03     210.997E-03
             725     12.8883E-03     96.4302E-03    -24.4022E+06     102.707E+06     66.7906E+06     2.73644E+06    -118.196E-03     229.276E-03    -111.080E-03     260.863E-03    -130.222E-03     241.387E-03    -110.860E-03     248.752E-03
             726     13.6947E-03     96.7395E-03    -17.8171E+06     121.151E+06     93.3618E+06     1.85652E+06    -117.728E-03     228.856E-03    -111.128E-03     283.561E-03    -133.458E-03     244.682E-03    -110.811E-03     271.333E-03
             727     14.5034E-03     97.0625E-03    -11.6365E+06     132.046E+06     103.839E+06     1.06509E+06    -113.988E-03     225.092E-03    -111.104E-03     260.662E-03    -130.422E-03     241.653E-03    -110.760E-03     251.275E-03
             728     15.3060E-03     97.3238E-03    -5.63356E+06     131.355E+06     101.866E+06     275.770E+03    -109.695E-03     220.747E-03    -111.052E-03     169.885E-03    -120.157E-03     231.359E-03    -110.725E-03     164.673E-03
             729     805.070E-06     95.6732E-03    -84.8210E+06    -234.074E+06    -83.3056E+06     574.794E+03    -111.348E-03     222.630E-03    -111.282E-03     15.3914E-03    -111.324E-03     221.717E-03    -111.236E-03     15.0622E-03
             730     1.61054E-03     95.6973E-03    -82.5464E+06    -229.851E+06    -76.8300E+06     1.03364E+06    -111.401E-03     222.690E-03    -111.290E-03     28.4035E-03    -111.408E-03     221.812E-03    -111.221E-03     27.7903E-03
             731     2.41590E-03     95.7370E-03    -78.8389E+06    -223.199E+06    -67.0373E+06     1.24763E+06    -111.572E-03     222.861E-03    -111.289E-03     41.9614E-03    -111.632E-03     222.044E-03    -111.186E-03     41.0215E-03
             732     3.22120E-03     95.7914E-03    -73.9148E+06    -213.675E+06    -55.1111E+06     841.181E+03    -111.854E-03     223.152E-03    -111.298E-03     55.5558E-03    -111.993E-03     222.430E-03    -111.156E-03     54.2509E-03
             733     4.02673E-03     95.8611E-03    -69.0174E+06    -200.899E+06    -44.1309E+06    -201.613E+03    -112.214E-03     223.517E-03    -111.302E-03     68.9839E-03    -112.464E-03     222.936E-03    -111.132E-03     67.2670E-03
             734     4.83211E-03     95.9454E-03    -64.7667E+06    -184.968E+06    -35.7868E+06    -858.406E+03    -112.620E-03     223.913E-03    -111.293E-03     82.1212E-03    -113.019E-03     223.530E-03    -111.110E-03     79.9528E-03
             735     5.63766E-03     96.0441E-03    -60.4546E+06    -175.928E+06    -27.4832E+06    -279.738E+03    -113.093E-03     224.389E-03    -111.296E-03     94.9638E-03    -113.676E-03     224.213E-03    -111.091E-03     92.3024E-03
             736     6.44301E-03     96.1570E-03    -55.4069E+06    -157.627E+06    -19.6490E+06     421.632E+03    -113.552E-03     224.834E-03    -111.283E-03     107.650E-03    -114.381E-03     224.965E-03    -111.072E-03     104.439E-03
             737     7.24876E-03     96.2837E-03    -50.1512E+06    -141.798E+06    -12.9376E+06     779.570E+03    -114.039E-03     225.305E-03    -111.266E-03     120.144E-03    -115.182E-03     225.805E-03    -111.053E-03     116.301E-03
             738     8.05409E-03     96.4240E-03    -45.8697E+06    -130.052E+06    -8.75137E+06     856.611E+03    -114.546E-03     225.794E-03    -111.247E-03     132.565E-03    -116.096E-03     226.744E-03    -111.036E-03     127.990E-03
             739     8.85978E-03     96.5775E-03    -41.8349E+06    -102.618E+06    -6.93745E+06     1.01573E+06    -114.941E-03     226.134E-03    -111.193E-03     145.427E-03    -117.038E-03     227.739E-03    -111.019E-03     140.039E-03
             740     9.66524E-03     96.7456E-03    -38.1520E+06    -71.0770E+06    -3.87352E+06     1.49752E+06    -115.201E-03     226.335E-03    -111.134E-03     158.342E-03    -118.027E-03     228.785E-03    -110.995E-03     152.033E-03
             741     10.4711E-03     96.9273E-03    -35.3668E+06    -24.5046E+06     2.25442E+06     1.93106E+06    -115.359E-03     226.423E-03    -111.064E-03     172.232E-03    -119.209E-03     230.054E-03    -110.966E-03     164.855E-03
             742     11.2767E-03     97.1247E-03    -32.8801E+06     37.2388E+06     8.84082E+06     2.86905E+06    -115.596E-03     226.563E-03    -110.966E-03     191.364E-03    -121.001E-03     231.957E-03    -110.929E-03     182.710E-03
             743     12.0827E-03     97.3477E-03    -29.1057E+06     79.9635E+06     29.0252E+06     3.53855E+06    -116.490E-03     227.443E-03    -110.952E-03     221.934E-03    -124.484E-03     235.532E-03    -110.881E-03     211.628E-03
             744     12.8903E-03     97.6124E-03    -23.8160E+06     103.228E+06     65.8637E+06     2.66739E+06    -118.143E-03     229.190E-03    -111.047E-03     261.193E-03    -130.170E-03     241.308E-03    -110.833E-03     249.082E-03
             745     13.6954E-03     97.9261E-03    -17.8602E+06     121.458E+06     93.8927E+06     1.96644E+06    -118.108E-03     229.223E-03    -111.115E-03     283.159E-03    -133.879E-03     245.090E-03    -110.796E-03     270.878E-03
             746     14.4997E-03     98.2402E-03    -11.0714E+06     134.486E+06     105.177E+06     1.28118E+06    -113.806E-03     224.909E-03    -111.103E-03     261.055E-03    -130.319E-03     241.555E-03    -110.756E-03     251.669E-03
             747     15.3097E-03     98.5120E-03    -4.96555E+06     132.663E+06     102.659E+06     39.2519E+03    -109.485E-03     220.524E-03    -111.038E-03     169.764E-03    -119.940E-03     231.134E-03    -110.710E-03     164.578E-03
             748     805.425E-06     96.8567E-03    -85.4405E+06    -234.680E+06    -84.4641E+06     59.8794E+03    -111.381E-03     222.621E-03    -111.240E-03     15.3921E-03    -111.358E-03     221.707E-03    -111.198E-03     15.0560E-03
             749     1.61044E-03     96.8810E-03    -83.1853E+06    -231.000E+06    -78.8338E+06     310.779E+03    -111.417E-03     222.700E-03    -111.283E-03     28.4158E-03    -111.423E-03     221.819E-03    -111.222E-03     27.7917E-03
             750     2.41578E-03     96.9202E-03    -79.6115E+06    -223.624E+06    -68.4197E+06     405.496E+03    -111.540E-03     222.824E-03    -111.283E-03     42.0154E-03    -111.602E-03     222.008E-03    -111.186E-03     41.0654E-03
             751     3.22141E-03     96.9748E-03    -74.8482E+06    -212.867E+06    -55.0165E+06     38.7466E+03    -111.820E-03     223.110E-03    -111.290E-03     55.6178E-03    -111.965E-03     222.394E-03    -111.148E-03     54.3037E-03
             752     4.02668E-03     97.0445E-03    -69.0903E+06    -199.604E+06    -43.0669E+06    -479.196E+03    -112.203E-03     223.499E-03    -111.295E-03     68.9883E-03    -112.457E-03     222.923E-03    -111.121E-03     67.2678E-03
             753     4.83223E-03     97.1287E-03    -63.6483E+06    -185.384E+06    -33.6736E+06    -116.042E+03    -112.644E-03     223.939E-03    -111.295E-03     82.1200E-03    -113.040E-03     223.548E-03    -111.102E-03     79.9609E-03
             754     5.63756E-03     97.2276E-03    -58.9558E+06    -176.488E+06    -26.4326E+06     151.140E+03    -113.126E-03     224.423E-03    -111.296E-03     94.9596E-03    -113.703E-03     224.240E-03    -111.087E-03     92.3029E-03
             755     6.44314E-03     97.3403E-03    -54.5193E+06    -157.303E+06    -20.0934E+06    -223.308E+03    -113.563E-03     224.841E-03    -111.278E-03     107.646E-03    -114.388E-03     224.972E-03    -111.071E-03     104.426E-03
             756     7.24850E-03     97.4671E-03    -50.2124E+06    -142.677E+06    -13.8755E+06    -166.473E+03    -114.000E-03     225.260E-03    -111.260E-03     120.187E-03    -115.141E-03     225.757E-03    -111.050E-03     116.333E-03
             757     8.05430E-03     97.6073E-03    -45.6956E+06    -130.348E+06    -9.29129E+06     140.482E+03    -114.492E-03     225.728E-03    -111.237E-03     132.670E-03    -116.037E-03     226.676E-03    -111.028E-03     128.092E-03
             758     8.85969E-03     97.7611E-03    -41.8771E+06    -103.115E+06    -7.35333E+06     421.526E+03    -114.901E-03     226.081E-03    -111.180E-03     145.500E-03    -116.998E-03     227.684E-03    -111.006E-03     140.107E-03
             759     9.66549E-03     97.9289E-03    -38.7898E+06    -72.0701E+06    -4.97325E+06     895.571E+03    -115.159E-03     226.274E-03    -111.115E-03     158.516E-03    -117.984E-03     228.720E-03    -110.980E-03     152.207E-03
             760     10.4713E-03     98.1104E-03    -35.6815E+06    -25.8874E+06     1.11907E+06     1.99237E+06    -115.241E-03     226.280E-03    -111.039E-03     172.347E-03    -119.083E-03     229.900E-03    -110.944E-03     164.988E-03
             761     11.2775E-03     98.3082E-03    -32.5689E+06     35.8524E+06     8.22576E+06     3.05824E+06    -115.490E-03     226.426E-03    -110.936E-03     191.217E-03    -120.886E-03     231.810E-03    -110.900E-03     182.573E-03
             762     12.0841E-03     98.5302E-03    -28.6497E+06     79.9450E+06     28.1592E+06     2.41411E+06    -116.615E-03     227.538E-03    -110.923E-03     221.630E-03    -124.615E-03     235.638E-03    -110.856E-03     211.276E-03
             763     12.8885E-03     98.7963E-03    -23.3318E+06     102.302E+06     64.4252E+06     1.88293E+06    -118.122E-03     229.145E-03    -111.023E-03     260.957E-03    -130.123E-03     241.239E-03    -110.815E-03     248.838E-03
             764     13.6960E-03     99.1076E-03    -16.6369E+06     121.768E+06     94.1425E+06     2.54522E+06    -118.090E-03     229.186E-03    -111.096E-03     283.410E-03    -133.871E-03     245.067E-03    -110.778E-03     271.143E-03
             765     14.5029E-03     99.4282E-03    -10.3347E+06     137.116E+06     106.623E+06     1.85389E+06    -114.205E-03     225.305E-03    -111.101E-03     260.140E-03    -130.729E-03     241.971E-03    -110.751E-03     250.713E-03
             766     15.3069E-03     99.6880E-03    -4.99910E+06     133.988E+06     103.349E+06     590.216E+03    -109.540E-03     220.594E-03    -111.054E-03     169.151E-03    -119.980E-03     231.192E-03    -110.724E-03     163.960E-03
             767     805.096E-06     98.0404E-03    -85.8811E+06    -234.499E+06    -84.4634E+06    -330.594E+03    -111.322E-03     222.530E-03    -111.208E-03     15.3619E-03    -111.301E-03     221.618E-03    -111.165E-03     15.0222E-03
             768     1.61062E-03     98.0644E-03    -83.6884E+06    -230.789E+06    -78.8648E+06    -640.759E+03    -111.365E-03     222.603E-03    -111.238E-03     28.4238E-03    -111.374E-03     221.725E-03    -111.177E-03     27.7867E-03
             769     2.41604E-03     98.1035E-03    -79.9616E+06    -223.812E+06    -68.7856E+06    -628.868E+03    -111.581E-03     222.829E-03    -111.249E-03     42.0673E-03    -111.644E-03     222.013E-03    -111.152E-03     41.1030E-03
             770     3.22122E-03     98.1581E-03    -75.1274E+06    -212.261E+06    -56.5134E+06    -537.711E+03    -111.852E-03     223.118E-03    -111.267E-03     55.6512E-03    -111.997E-03     222.407E-03    -111.132E-03     54.3286E-03
             771     4.02685E-03     98.2278E-03    -70.6396E+06    -199.159E+06    -45.0992E+06    -593.633E+03    -112.197E-03     223.475E-03    -111.278E-03     69.0176E-03    -112.456E-03     222.907E-03    -111.112E-03     67.2965E-03
             772     4.83216E-03     98.3122E-03    -65.8004E+06    -186.008E+06    -35.2198E+06    -659.846E+03    -112.640E-03     223.923E-03    -111.283E-03     82.1809E-03    -113.044E-03     223.535E-03    -111.094E-03     80.0153E-03
             773     5.63770E-03     98.4111E-03    -60.0365E+06    -176.129E+06    -26.8954E+06    -809.907E+03    -113.120E-03     224.408E-03    -111.288E-03     95.0163E-03    -113.702E-03     224.230E-03    -111.080E-03     92.3478E-03
             774     6.44303E-03     98.5238E-03    -54.6997E+06    -156.948E+06    -20.6377E+06    -667.968E+03    -113.548E-03     224.816E-03    -111.268E-03     107.664E-03    -114.374E-03     224.951E-03    -111.064E-03     104.439E-03
             775     7.24880E-03     98.6504E-03    -50.4047E+06    -142.571E+06    -14.8281E+06    -580.192E+03    -113.966E-03     225.213E-03    -111.247E-03     120.211E-03    -115.107E-03     225.711E-03    -111.041E-03     116.355E-03
             776     8.05424E-03     98.7905E-03    -46.5878E+06    -130.692E+06    -10.5367E+06    -696.053E+03    -114.400E-03     225.618E-03    -111.218E-03     132.792E-03    -115.946E-03     226.565E-03    -111.013E-03     128.213E-03
             777     8.86009E-03     98.9446E-03    -42.4306E+06    -104.042E+06    -8.47215E+06    -504.991E+03    -114.816E-03     225.970E-03    -111.154E-03     145.562E-03    -116.912E-03     227.570E-03    -110.984E-03     140.163E-03
             778     9.66585E-03     99.1118E-03    -38.5007E+06    -73.3042E+06    -5.60027E+06     275.676E+03    -115.138E-03     226.227E-03    -111.089E-03     158.441E-03    -117.958E-03     228.666E-03    -110.955E-03     152.123E-03
             779     10.4716E-03     99.2940E-03    -35.2828E+06    -28.4589E+06     44.8719E+03     1.57528E+06    -115.255E-03     226.269E-03    -111.014E-03     172.084E-03    -119.085E-03     229.872E-03    -110.921E-03     164.722E-03
             780     11.2776E-03     99.4902E-03    -31.6822E+06     34.8447E+06     7.17165E+06     2.27504E+06    -115.609E-03     226.525E-03    -110.916E-03     191.014E-03    -121.000E-03     231.907E-03    -110.885E-03     182.343E-03
             781     12.0828E-03     99.7144E-03    -27.9186E+06     81.1121E+06     28.8334E+06     1.87945E+06    -116.670E-03     227.586E-03    -110.916E-03     221.595E-03    -124.672E-03     235.693E-03    -110.849E-03     211.223E-03
             782     12.8904E-03     99.9788E-03    -23.4622E+06     102.153E+06     65.6980E+06     1.57492E+06    -118.254E-03     229.284E-03    -111.030E-03     260.672E-03    -130.251E-03     241.370E-03    -110.816E-03     248.541E-03
             783     13.6956E-03     100.292E-03    -17.9399E+06     121.054E+06     93.4725E+06     1.59035E+06    -118.071E-03     229.174E-03    -111.103E-03     282.912E-03    -133.846E-03     245.044E-03    -110.785E-03     270.625E-03
             784     14.5009E-03     100.610E-03    -10.7256E+06     137.495E+06     106.326E+06     1.84162E+06    -114.104E-03     225.209E-03    -111.106E-03     260.029E-03    -130.610E-03     241.857E-03    -110.758E-03     250.608E-03
             785     15.3069E-03     100.875E-03    -4.68324E+06     135.388E+06     104.185E+06     1.69155E+06    -109.539E-03     220.598E-03    -111.058E-03     169.765E-03    -119.978E-03     231.198E-03    -110.727E-03     164.601E-03
             786     805.447E-06     99.2236E-03    -86.3915E+06    -234.213E+06    -84.2359E+06    -23.7287E+03    -111.173E-03     222.350E-03    -111.177E-03     15.3697E-03    -111.155E-03     221.439E-03    -111.133E-03     15.0339E-03
             787     1.61075E-03     99.2476E-03    -84.1529E+06    -229.741E+06    -77.2999E+06    -400.174E+03    -111.359E-03     222.532E-03    -111.174E-03     28.4442E-03    -111.374E-03     221.657E-03    -111.105E-03     27.8104E-03
             788     2.41600E-03     99.2870E-03    -80.9070E+06    -223.114E+06    -68.2815E+06    -1.00111E+06    -111.602E-03     222.811E-03    -111.209E-03     42.0888E-03    -111.672E-03     222.000E-03    -111.110E-03     41.1198E-03
             789     3.22151E-03     99.3416E-03    -76.6255E+06    -212.189E+06    -58.4571E+06    -1.04437E+06    -111.889E-03     223.125E-03    -111.236E-03     55.6728E-03    -112.038E-03     222.419E-03    -111.110E-03     54.3441E-03
             790     4.02673E-03     99.4111E-03    -71.2013E+06    -198.931E+06    -47.2884E+06    -856.003E+03    -112.235E-03     223.492E-03    -111.257E-03     69.0471E-03    -112.494E-03     222.929E-03    -111.102E-03     67.3227E-03
             791     4.83231E-03     99.4956E-03    -65.6222E+06    -185.076E+06    -36.1668E+06    -1.29361E+06    -112.635E-03     223.906E-03    -111.272E-03     82.1752E-03    -113.038E-03     223.524E-03    -111.089E-03     80.0007E-03
             792     5.63768E-03     99.5944E-03    -60.5773E+06    -175.764E+06    -27.6656E+06    -1.76972E+06    -113.069E-03     224.345E-03    -111.276E-03     94.9968E-03    -113.652E-03     224.170E-03    -111.072E-03     92.3181E-03
             793     6.44328E-03     99.7072E-03    -55.4971E+06    -157.066E+06    -21.3341E+06    -1.83095E+06    -113.500E-03     224.753E-03    -111.253E-03     107.664E-03    -114.329E-03     224.888E-03    -111.051E-03     104.427E-03
             794     7.24871E-03     99.8336E-03    -50.2453E+06    -142.681E+06    -15.5394E+06    -1.59656E+06    -113.930E-03     225.157E-03    -111.227E-03     120.185E-03    -115.068E-03     225.655E-03    -111.025E-03     116.317E-03
             795     8.05453E-03     99.9739E-03    -45.4563E+06    -130.618E+06    -10.9958E+06    -1.32787E+06    -114.363E-03     225.559E-03    -111.195E-03     132.736E-03    -115.903E-03     226.505E-03    -110.995E-03     128.149E-03
             796     8.86028E-03     100.127E-03    -41.9036E+06    -104.580E+06    -9.19637E+06    -1.20875E+06    -114.807E-03     225.939E-03    -111.132E-03     145.490E-03    -116.897E-03     227.535E-03    -110.965E-03     140.083E-03
             797     9.66585E-03     100.296E-03    -39.1290E+06    -75.4815E+06    -7.21032E+06    -517.392E+03    -115.109E-03     226.176E-03    -111.067E-03     158.233E-03    -117.924E-03     228.605E-03    -110.937E-03     151.909E-03
             798     10.4718E-03     100.476E-03    -35.9429E+06    -30.8302E+06    -1.52277E+06     489.079E+03    -115.312E-03     226.307E-03    -110.996E-03     172.077E-03    -119.139E-03     229.902E-03    -110.906E-03     164.699E-03
             799     11.2774E-03     100.675E-03    -32.7344E+06     34.1693E+06     5.90834E+06     858.942E+03    -115.739E-03     226.644E-03    -110.904E-03     191.251E-03    -121.144E-03     232.036E-03    -110.877E-03     182.544E-03
             800     12.0842E-03     100.897E-03    -28.8969E+06     81.5193E+06     27.5558E+06     1.38373E+06    -116.699E-03     227.608E-03    -110.909E-03     221.465E-03    -124.699E-03     235.715E-03    -110.847E-03     211.089E-03
             801     12.8887E-03     101.163E-03    -24.0087E+06     101.573E+06     64.5386E+06     2.00329E+06    -118.335E-03     229.362E-03    -111.026E-03     261.074E-03    -130.348E-03     241.463E-03    -110.816E-03     248.939E-03
             802     13.6947E-03     101.475E-03    -17.8175E+06     122.217E+06     94.6467E+06     1.64829E+06    -118.150E-03     229.257E-03    -111.108E-03     283.719E-03    -133.957E-03     245.161E-03    -110.786E-03     271.426E-03
             803     14.5016E-03     101.793E-03    -12.1725E+06     136.861E+06     106.046E+06     1.30606E+06    -113.885E-03     224.985E-03    -111.099E-03     260.764E-03    -130.446E-03     241.680E-03    -110.750E-03     251.375E-03
             804     15.3093E-03     102.057E-03    -6.00257E+06     135.137E+06     103.062E+06     1.43249E+06    -109.327E-03     220.362E-03    -111.035E-03     168.878E-03    -119.776E-03     230.971E-03    -110.707E-03     163.723E-03
             805     805.449E-06     100.407E-03    -85.8861E+06    -233.715E+06    -84.5616E+06    -373.548E+03    -111.149E-03     222.237E-03    -111.088E-03     15.3590E-03    -111.129E-03     221.329E-03    -111.048E-03     15.0166E-03
             806     1.61080E-03     100.431E-03    -83.3016E+06    -229.352E+06    -77.5953E+06    -174.454E+03    -111.366E-03     222.492E-03    -111.126E-03     28.4425E-03    -111.377E-03     221.618E-03    -111.061E-03     27.8125E-03
             807     2.41621E-03     100.470E-03    -79.7638E+06    -222.026E+06    -67.5503E+06    -190.398E+03    -111.619E-03     222.803E-03    -111.184E-03     42.0554E-03    -111.685E-03     221.994E-03    -111.084E-03     41.0960E-03
             808     3.22143E-03     100.525E-03    -75.7280E+06    -211.130E+06    -57.5832E+06    -1.07595E+06    -111.916E-03     223.140E-03    -111.224E-03     55.5986E-03    -112.064E-03     222.437E-03    -111.096E-03     54.2683E-03
             809     4.02692E-03     100.595E-03    -70.7140E+06    -198.048E+06    -47.7040E+06    -2.05358E+06    -112.262E-03     223.510E-03    -111.248E-03     69.0132E-03    -112.519E-03     222.951E-03    -111.097E-03     67.2728E-03
             810     4.83215E-03     100.679E-03    -65.3235E+06    -184.263E+06    -37.6028E+06    -2.21246E+06    -112.619E-03     223.879E-03    -111.260E-03     82.1577E-03    -113.019E-03     223.502E-03    -111.086E-03     79.9724E-03
             811     5.63774E-03     100.778E-03    -60.2620E+06    -175.138E+06    -28.3849E+06    -2.11775E+06    -113.010E-03     224.274E-03    -111.264E-03     94.9690E-03    -113.591E-03     224.102E-03    -111.064E-03     92.2872E-03
             812     6.44328E-03     100.890E-03    -55.7031E+06    -156.620E+06    -22.0492E+06    -2.35435E+06    -113.437E-03     224.671E-03    -111.234E-03     107.653E-03    -114.266E-03     224.810E-03    -111.037E-03     104.411E-03
             813     7.24902E-03     101.017E-03    -51.6350E+06    -141.948E+06    -17.0607E+06    -3.04439E+06    -113.913E-03     225.117E-03    -111.204E-03     120.120E-03    -115.056E-03     225.622E-03    -111.008E-03     116.233E-03
             814     8.05462E-03     101.157E-03    -47.1686E+06    -131.178E+06    -13.0081E+06    -3.28938E+06    -114.391E-03     225.566E-03    -111.175E-03     132.647E-03    -115.935E-03     226.515E-03    -110.982E-03     128.032E-03
             815     8.86018E-03     101.311E-03    -42.7275E+06    -106.064E+06    -10.6721E+06    -2.31317E+06    -114.767E-03     225.883E-03    -111.116E-03     145.495E-03    -116.855E-03     227.473E-03    -110.954E-03     140.079E-03
             816     9.66615E-03     101.478E-03    -38.8363E+06    -76.7855E+06    -7.65179E+06    -1.38160E+06    -115.064E-03     226.116E-03    -111.051E-03     158.270E-03    -117.872E-03     228.535E-03    -110.922E-03     151.942E-03
             817     10.4718E-03     101.660E-03    -35.6680E+06    -33.0232E+06    -2.23422E+06    -185.544E+03    -115.313E-03     226.291E-03    -110.978E-03     172.251E-03    -119.137E-03     229.878E-03    -110.890E-03     164.862E-03
             818     11.2780E-03     101.857E-03    -33.1988E+06     33.6100E+06     4.55767E+06     1.09448E+06    -115.769E-03     226.652E-03    -110.883E-03     191.569E-03    -121.176E-03     232.047E-03    -110.861E-03     182.866E-03
             819     12.0828E-03     102.081E-03    -30.8786E+06     81.3721E+06     25.1868E+06     1.17788E+06    -116.771E-03     227.657E-03    -110.886E-03     221.688E-03    -124.784E-03     235.777E-03    -110.834E-03     211.303E-03
             820     12.8902E-03     102.345E-03    -26.5275E+06     101.551E+06     62.3408E+06     416.382E+03    -118.316E-03     229.323E-03    -111.007E-03     261.486E-03    -130.358E-03     241.450E-03    -110.804E-03     249.320E-03
             821     13.6967E-03     102.660E-03    -19.8807E+06     121.221E+06     92.5772E+06     417.035E+03    -117.895E-03     228.978E-03    -111.083E-03     283.224E-03    -133.681E-03     244.855E-03    -110.767E-03     270.944E-03
             822     14.5023E-03     102.976E-03    -12.2295E+06     135.591E+06     105.686E+06     1.21037E+06    -113.658E-03     224.729E-03    -111.071E-03     260.635E-03    -130.180E-03     241.382E-03    -110.721E-03     251.280E-03
             823     15.3062E-03     103.242E-03    -5.74880E+06     136.754E+06     104.109E+06     1.17870E+06    -109.575E-03     220.583E-03    -111.008E-03     169.792E-03    -120.026E-03     231.197E-03    -110.677E-03     164.622E-03
             824     805.367E-06     101.590E-03    -85.1548E+06    -232.550E+06    -83.4597E+06    -453.271E+03    -111.214E-03     222.268E-03    -111.054E-03     15.3984E-03    -111.194E-03     221.363E-03    -111.011E-03     15.0564E-03
             825     1.61083E-03     101.614E-03    -83.1820E+06    -229.239E+06    -77.9234E+06    -655.515E+03    -111.363E-03     222.497E-03    -111.134E-03     28.4779E-03    -111.373E-03     221.624E-03    -111.071E-03     27.8417E-03
             826     2.41609E-03     101.654E-03    -79.4498E+06    -221.495E+06    -69.3279E+06    -690.934E+03    -111.622E-03     222.801E-03    -111.179E-03     42.0349E-03    -111.684E-03     221.997E-03    -111.090E-03     41.0697E-03
             827     3.22147E-03     101.708E-03    -75.0569E+06    -209.578E+06    -57.9482E+06    -927.182E+03    -111.912E-03     223.134E-03    -111.222E-03     55.6012E-03    -112.058E-03     222.438E-03    -111.099E-03     54.2729E-03
             828     4.02673E-03     101.778E-03    -71.1468E+06    -195.882E+06    -47.4317E+06    -1.82124E+06    -112.232E-03     223.478E-03    -111.246E-03     69.0048E-03    -112.494E-03     222.930E-03    -111.096E-03     67.2687E-03
             829     4.83232E-03     101.862E-03    -66.9149E+06    -183.186E+06    -38.8901E+06    -2.98663E+06    -112.571E-03     223.820E-03    -111.249E-03     82.1029E-03    -112.979E-03     223.453E-03    -111.081E-03     79.9093E-03
             830     5.63782E-03     101.961E-03    -61.9052E+06    -175.028E+06    -30.0644E+06    -3.04834E+06    -112.980E-03     224.229E-03    -111.249E-03     94.9280E-03    -113.567E-03     224.062E-03    -111.055E-03     92.2357E-03
             831     6.44341E-03     102.074E-03    -56.7274E+06    -155.276E+06    -22.7919E+06    -3.18240E+06    -113.414E-03     224.635E-03    -111.220E-03     107.567E-03    -114.248E-03     224.782E-03    -111.027E-03     104.315E-03
             832     7.24905E-03     102.200E-03    -51.5507E+06    -140.586E+06    -16.8870E+06    -3.90587E+06    -113.879E-03     225.071E-03    -111.192E-03     120.061E-03    -115.024E-03     225.582E-03    -110.998E-03     116.166E-03
             833     8.05456E-03     102.340E-03    -47.1606E+06    -130.968E+06    -13.4430E+06    -4.57431E+06    -114.343E-03     225.502E-03    -111.159E-03     132.691E-03    -115.886E-03     226.452E-03    -110.968E-03     128.064E-03
             834     8.86050E-03     102.493E-03    -42.9085E+06    -106.997E+06    -11.9208E+06    -4.76124E+06    -114.711E-03     225.805E-03    -111.094E-03     145.567E-03    -116.794E-03     227.390E-03    -110.936E-03     140.127E-03
             835     9.66622E-03     102.662E-03    -38.7031E+06    -78.9501E+06    -8.96261E+06    -3.20658E+06    -115.008E-03     226.034E-03    -111.026E-03     158.401E-03    -117.809E-03     228.444E-03    -110.900E-03     152.056E-03
             836     10.4723E-03     102.842E-03    -35.2536E+06    -36.2335E+06    -3.30440E+06    -449.437E+03    -115.327E-03     226.280E-03    -110.953E-03     172.492E-03    -119.146E-03     229.855E-03    -110.866E-03     165.099E-03
             837     11.2778E-03     103.041E-03    -32.9447E+06     31.3987E+06     3.23267E+06     2.19631E+06    -115.756E-03     226.611E-03    -110.855E-03     191.784E-03    -121.154E-03     231.994E-03    -110.836E-03     183.103E-03
             838     12.0849E-03     103.264E-03    -30.4292E+06     83.1457E+06     24.8516E+06     2.49986E+06    -116.734E-03     227.590E-03    -110.856E-03     221.694E-03    -124.749E-03     235.721E-03    -110.808E-03     211.326E-03
             839     12.8894E-03     103.529E-03    -26.4765E+06     103.897E+06     62.3689E+06     635.752E+03    -118.360E-03     229.339E-03    -110.979E-03     261.586E-03    -130.409E-03     241.482E-03    -110.780E-03     249.417E-03
             840     13.6947E-03     103.842E-03    -20.7823E+06     120.446E+06     91.1885E+06    -909.484E+03    -117.771E-03     228.823E-03    -111.052E-03     283.529E-03    -133.554E-03     244.695E-03    -110.741E-03     271.257E-03
             841     14.5018E-03     104.158E-03    -12.9460E+06     133.653E+06     104.043E+06    -564.577E+03    -113.645E-03     224.681E-03    -111.036E-03     260.759E-03    -130.180E-03     241.343E-03    -110.691E-03     251.351E-03
             842     15.3125E-03     104.424E-03    -6.14609E+06     136.567E+06     103.636E+06     381.307E+03    -109.929E-03     220.916E-03    -110.988E-03     169.223E-03    -120.384E-03     231.534E-03    -110.658E-03     163.990E-03
             843     805.442E-06     102.773E-03    -84.6647E+06    -231.719E+06    -83.0719E+06    -190.458E+03    -111.282E-03     222.342E-03    -111.061E-03     15.4514E-03    -111.261E-03     221.440E-03    -111.018E-03     15.1132E-03
             844     1.61067E-03     102.797E-03    -82.4146E+06    -227.801E+06    -76.9155E+06    -763.427E+03    -111.384E-03     222.554E-03    -111.169E-03     28.5634E-03    -111.394E-03     221.685E-03    -111.104E-03     27.9269E-03
             845     2.41606E-03     102.837E-03    -79.3820E+06    -220.747E+06    -69.1656E+06    -1.49684E+06    -111.596E-03     222.796E-03    -111.201E-03     42.0820E-03    -111.659E-03     221.995E-03    -111.112E-03     41.1078E-03
             846     3.22143E-03     102.892E-03    -75.2049E+06    -209.100E+06    -58.5348E+06    -1.49330E+06    -111.872E-03     223.099E-03    -111.227E-03     55.6400E-03    -112.019E-03     222.406E-03    -111.107E-03     54.3050E-03
             847     4.02689E-03     102.961E-03    -69.5978E+06    -193.242E+06    -46.1286E+06    -2.10233E+06    -112.198E-03     223.443E-03    -111.245E-03     68.9787E-03    -112.458E-03     222.904E-03    -111.095E-03     67.2394E-03
             848     4.83226E-03     103.046E-03    -64.0371E+06    -181.530E+06    -35.8896E+06    -2.84845E+06    -112.564E-03     223.816E-03    -111.252E-03     82.0078E-03    -112.964E-03     223.449E-03    -111.075E-03     79.8152E-03
             849     5.63781E-03     103.144E-03    -59.2193E+06    -174.538E+06    -28.3898E+06    -3.23854E+06    -112.977E-03     224.223E-03    -111.247E-03     94.8378E-03    -113.553E-03     224.052E-03    -111.050E-03     92.1431E-03
             850     6.44340E-03     103.257E-03    -54.8094E+06    -153.363E+06    -22.5388E+06    -3.96509E+06    -113.379E-03     224.587E-03    -111.208E-03     107.585E-03    -114.206E-03     224.740E-03    -111.019E-03     104.328E-03
             851     7.24896E-03     103.383E-03    -50.8780E+06    -139.560E+06    -17.3423E+06    -4.46247E+06    -113.802E-03     224.975E-03    -111.173E-03     120.144E-03    -114.943E-03     225.490E-03    -110.983E-03     116.247E-03
             852     8.05502E-03     103.523E-03    -46.9821E+06    -128.550E+06    -13.7605E+06    -5.41625E+06    -114.260E-03     225.393E-03    -111.132E-03     132.744E-03    -115.804E-03     226.353E-03    -110.947E-03     128.113E-03
             853     8.86058E-03     103.677E-03    -43.3411E+06    -106.465E+06    -12.7422E+06    -6.49998E+06    -114.670E-03     225.734E-03    -111.064E-03     145.537E-03    -116.754E-03     227.323E-03    -110.911E-03     140.078E-03
             854     9.66662E-03     103.844E-03    -40.0978E+06    -82.7200E+06    -10.9932E+06    -5.21615E+06    -115.026E-03     226.025E-03    -110.999E-03     158.404E-03    -117.826E-03     228.421E-03    -110.876E-03     152.033E-03
             855     10.4725E-03     104.026E-03    -36.2997E+06    -40.8050E+06    -5.39437E+06    -2.33890E+06    -115.323E-03     226.252E-03    -110.929E-03     172.496E-03    -119.135E-03     229.806E-03    -110.844E-03     165.083E-03
             856     11.2786E-03     104.224E-03    -31.2322E+06     26.6797E+06     2.06039E+06     770.338E+03    -115.699E-03     226.529E-03    -110.830E-03     191.764E-03    -121.071E-03     231.879E-03    -110.813E-03     183.079E-03
             857     12.0834E-03     104.447E-03     -26.522E+06     82.6273E+06     24.7437E+06     3.61649E+06    -116.645E-03     227.466E-03    -110.822E-03     221.948E-03    -124.640E-03     235.589E-03    -110.779E-03     211.610E-03
             858     12.8907E-03     104.712E-03    -22.0797E+06     108.150E+06     63.4544E+06     3.41257E+06    -118.136E-03     229.066E-03    -110.931E-03     261.919E-03    -130.151E-03     241.203E-03    -110.738E-03     249.833E-03
             859     13.6980E-03     105.026E-03    -16.9550E+06     123.540E+06     93.0569E+06     925.225E+03    -117.943E-03     228.951E-03    -111.007E-03     283.295E-03    -133.690E-03     244.806E-03    -110.697E-03     271.037E-03
             860     14.5045E-03     105.341E-03    -12.5038E+06     133.366E+06     103.869E+06    -220.546E+03    -114.431E-03     225.453E-03    -111.021E-03     260.280E-03    -130.964E-03     242.113E-03    -110.677E-03     250.786E-03
             861     15.3043E-03     105.609E-03    -5.94225E+06     135.766E+06     102.925E+06    -471.928E+03    -109.484E-03     220.468E-03    -110.984E-03     169.260E-03    -119.928E-03     231.075E-03    -110.657E-03     164.016E-03
             862     805.277E-06     103.956E-03    -84.3764E+06    -230.355E+06    -83.1137E+06    -850.404E+03    -111.353E-03     222.424E-03    -111.071E-03     15.5436E-03    -111.333E-03     221.529E-03    -111.030E-03     15.1960E-03
             863     1.61070E-03     103.981E-03    -81.4942E+06    -225.836E+06    -75.7533E+06    -1.40227E+06    -111.383E-03     222.587E-03    -111.204E-03     28.5996E-03    -111.393E-03     221.726E-03    -111.137E-03     27.9541E-03
             864     2.41601E-03     104.020E-03    -77.6084E+06    -219.835E+06    -66.8728E+06    -1.68064E+06    -111.592E-03     222.820E-03    -111.228E-03     42.0915E-03    -111.652E-03     222.018E-03    -111.132E-03     41.1116E-03
             865     3.22139E-03     104.075E-03    -73.2643E+06    -207.853E+06    -57.5787E+06    -2.27432E+06    -111.854E-03     223.092E-03    -111.238E-03     55.6190E-03    -111.995E-03     222.402E-03    -111.118E-03     54.2731E-03
             866     4.02679E-03     104.145E-03    -68.8420E+06    -191.038E+06    -47.4563E+06    -3.12022E+06    -112.148E-03     223.384E-03    -111.236E-03     68.9371E-03    -112.406E-03     222.857E-03    -111.097E-03     67.1867E-03
             867     4.83234E-03     104.229E-03    -63.9436E+06    -180.369E+06    -37.1174E+06    -3.61909E+06    -112.526E-03     223.764E-03    -111.238E-03     82.0064E-03    -112.925E-03     223.403E-03    -111.069E-03     79.8065E-03
             868     5.63784E-03     104.327E-03    -58.6381E+06    -173.011E+06    -28.6162E+06    -4.14015E+06    -112.928E-03     224.159E-03    -111.231E-03     94.8716E-03    -113.503E-03     223.994E-03    -111.038E-03     92.1683E-03
             869     6.44347E-03     104.440E-03    -53.8067E+06    -151.935E+06    -23.3824E+06    -4.55862E+06    -113.288E-03     224.468E-03    -111.180E-03     107.635E-03    -114.109E-03     224.627E-03    -110.999E-03     104.375E-03
             870     7.24950E-03     104.566E-03    -49.3587E+06    -138.374E+06    -17.5933E+06    -4.84512E+06    -113.745E-03     224.886E-03    -111.140E-03     120.200E-03    -114.878E-03     225.403E-03    -110.956E-03     116.304E-03
             871     8.05490E-03     104.706E-03    -45.5811E+06    -125.388E+06    -12.7596E+06    -5.66387E+06    -114.226E-03     225.327E-03    -111.101E-03     132.794E-03    -115.767E-03     226.298E-03    -110.917E-03     128.165E-03
             872     8.86103E-03     104.860E-03    -42.5817E+06    -105.014E+06    -10.5617E+06    -6.46755E+06    -114.656E-03     225.699E-03    -111.042E-03     145.563E-03    -116.741E-03     227.290E-03    -110.881E-03     140.108E-03
             873     9.66672E-03     105.027E-03    -39.6936E+06    -85.4164E+06    -10.4497E+06    -6.08265E+06    -115.055E-03     226.033E-03    -110.978E-03     158.565E-03    -117.852E-03     228.416E-03    -110.849E-03     152.181E-03
             874     10.4724E-03     105.209E-03    -35.7345E+06    -43.2552E+06    -6.79431E+06    -5.49958E+06    -115.276E-03     226.173E-03    -110.897E-03     172.869E-03    -119.079E-03     229.716E-03    -110.816E-03     165.426E-03
             875     11.2783E-03     105.407E-03    -31.1069E+06     20.1323E+06    -555.956E+03    -3.35432E+06    -115.573E-03     226.363E-03    -110.790E-03     192.301E-03    -120.929E-03     231.682E-03    -110.777E-03     183.588E-03
             876     12.0856E-03     105.631E-03    -25.8619E+06     76.6768E+06     18.4731E+06     1.30489E+06    -116.550E-03     227.301E-03    -110.751E-03     222.510E-03    -124.525E-03     235.403E-03    -110.732E-03     212.163E-03
             877     12.8909E-03     105.895E-03    -20.5574E+06     108.868E+06     58.9314E+06     4.11782E+06    -118.096E-03     228.951E-03    -110.855E-03     261.647E-03    -130.083E-03     241.080E-03    -110.688E-03     249.575E-03
             878     13.6967E-03     106.208E-03    -15.4907E+06     126.323E+06     93.8838E+06     3.59435E+06    -118.133E-03     229.093E-03    -110.960E-03     283.959E-03    -133.885E-03     244.966E-03    -110.651E-03     271.717E-03
             879     14.5005E-03     106.526E-03    -9.60336E+06     137.030E+06     107.311E+06     1.46127E+06    -114.094E-03     225.064E-03    -110.971E-03     262.507E-03    -130.686E-03     241.798E-03    -110.619E-03     253.096E-03
             880     15.3122E-03     106.792E-03    -4.28464E+06     136.940E+06     105.076E+06     347.757E+03    -109.070E-03     219.974E-03    -110.903E-03     170.322E-03    -119.531E-03     230.601E-03    -110.570E-03     165.179E-03
             881     805.361E-06     105.140E-03    -84.1768E+06    -226.998E+06    -82.1773E+06    -1.52024E+06    -111.305E-03     222.557E-03    -111.252E-03     15.4237E-03    -111.290E-03     221.677E-03    -111.212E-03     15.0653E-03
             882     1.61057E-03     105.164E-03    -81.2920E+06    -223.698E+06    -75.3250E+06    -2.38073E+06    -111.376E-03     222.635E-03    -111.259E-03     28.4836E-03    -111.389E-03     221.783E-03    -111.193E-03     27.8243E-03
             883     2.41597E-03     105.204E-03    -77.2881E+06    -218.656E+06    -67.3603E+06    -2.86439E+06    -111.556E-03     222.811E-03    -111.254E-03     42.0428E-03    -111.615E-03     222.014E-03    -111.162E-03     41.0475E-03
             884     3.22133E-03     105.258E-03    -73.0096E+06    -205.759E+06    -58.5163E+06    -3.25994E+06    -111.801E-03     223.043E-03    -111.241E-03     55.6151E-03    -111.942E-03     222.363E-03    -111.130E-03     54.2588E-03
             885     4.02682E-03     105.328E-03    -68.2177E+06    -188.519E+06    -48.9570E+06    -4.15907E+06    -112.083E-03     223.304E-03    -111.221E-03     68.9615E-03    -112.339E-03     222.790E-03    -111.094E-03     67.2008E-03
             886     4.83237E-03     105.412E-03    -62.9660E+06    -178.999E+06    -38.9648E+06    -4.99974E+06    -112.428E-03     223.637E-03    -111.208E-03     82.0573E-03    -112.821E-03     223.283E-03    -111.052E-03     79.8444E-03
             887     5.63802E-03     105.511E-03    -57.9548E+06    -171.486E+06    -29.3631E+06    -5.30477E+06    -112.831E-03     224.025E-03    -111.194E-03     94.9194E-03    -113.402E-03     223.867E-03    -111.008E-03     92.2070E-03
             888     6.44381E-03     105.623E-03    -53.1385E+06    -150.430E+06    -22.8401E+06    -5.77302E+06    -113.242E-03     224.387E-03    -111.145E-03     107.665E-03    -114.062E-03     224.551E-03    -110.964E-03     104.393E-03
             889     7.24940E-03     105.749E-03    -48.5960E+06    -137.639E+06    -17.4163E+06    -6.00399E+06    -113.667E-03     224.767E-03    -111.100E-03     120.296E-03    -114.796E-03     225.286E-03    -110.917E-03     116.393E-03
             890     8.05560E-03     105.889E-03    -44.3963E+06    -123.343E+06    -12.4726E+06    -6.10728E+06    -114.133E-03     225.186E-03    -111.053E-03     133.015E-03    -115.669E-03     226.162E-03    -110.872E-03     128.395E-03
             891     8.86119E-03     106.043E-03    -40.7765E+06    -104.090E+06    -8.86605E+06    -6.10897E+06    -114.589E-03     225.584E-03    -110.996E-03     145.953E-03    -116.667E-03     227.174E-03    -110.830E-03     140.514E-03
             892     9.66713E-03     106.210E-03    -37.6404E+06    -84.8931E+06    -8.72934E+06    -6.42284E+06    -114.936E-03     225.860E-03    -110.924E-03     159.163E-03    -117.726E-03     228.240E-03    -110.790E-03     152.791E-03
             893     10.4734E-03     106.392E-03    -35.4324E+06    -43.0043E+06    -7.53801E+06    -6.80934E+06    -115.139E-03     225.962E-03    -110.823E-03     173.559E-03    -118.940E-03     229.506E-03    -110.747E-03     166.121E-03
             894     11.2797E-03     106.590E-03    -33.9519E+06     15.5257E+06    -2.70043E+06    -5.29140E+06    -115.529E-03     226.243E-03    -110.714E-03     192.957E-03    -120.889E-03     231.546E-03    -110.701E-03     184.237E-03
             895     12.0851E-03     106.813E-03    -31.2152E+06     70.3978E+06     13.5259E+06    -3.25375E+06    -116.528E-03     227.193E-03    -110.665E-03     223.217E-03    -124.516E-03     235.281E-03    -110.654E-03     212.826E-03
             896     12.8920E-03     107.079E-03    -25.2121E+06     105.003E+06     51.8613E+06    -252.059E+03    -118.114E-03     228.865E-03    -110.751E-03     262.869E-03    -130.134E-03     241.018E-03    -110.607E-03     250.750E-03
             897     13.6983E-03     107.391E-03    -16.4587E+06     127.186E+06     91.2516E+06     2.71677E+06    -117.705E-03     228.552E-03    -110.846E-03     285.803E-03    -133.487E-03     244.462E-03    -110.551E-03     273.611E-03
             898     14.5081E-03     107.711E-03    -9.86810E+06     137.882E+06     107.832E+06     2.82882E+06    -113.423E-03     224.260E-03    -110.837E-03     262.873E-03    -130.003E-03     240.981E-03    -110.483E-03     253.575E-03
             899     15.3111E-03     107.972E-03    -5.21793E+06     137.180E+06     105.914E+06     1.73943E+06    -109.405E-03     220.176E-03    -110.771E-03     169.396E-03    -119.852E-03     230.784E-03    -110.433E-03     164.251E-03
             900     805.037E-06     106.323E-03    -83.2435E+06    -222.762E+06    -81.6276E+06    -1.45299E+06    -111.291E-03     222.686E-03    -111.395E-03     15.4195E-03    -111.278E-03     221.824E-03    -111.360E-03     15.0576E-03
             901     1.61044E-03     106.348E-03    -80.9933E+06    -219.740E+06    -75.5278E+06    -3.05372E+06    -111.353E-03     222.655E-03    -111.302E-03     28.4834E-03    -111.369E-03     221.823E-03    -111.244E-03     27.8167E-03
             902     2.41579E-03     106.387E-03    -77.1797E+06    -216.152E+06    -67.5201E+06    -4.49489E+06    -111.495E-03     222.764E-03    -111.269E-03     42.0912E-03    -111.557E-03     221.981E-03    -111.182E-03     41.0780E-03
             903     3.22135E-03     106.442E-03    -72.2704E+06    -203.685E+06    -58.9578E+06    -5.25097E+06    -111.707E-03     222.937E-03    -111.230E-03     55.6681E-03    -111.845E-03     222.267E-03    -111.125E-03     54.2901E-03
             904     4.02690E-03     106.511E-03    -67.4845E+06    -185.842E+06    -49.5415E+06    -5.69831E+06    -111.974E-03     223.162E-03    -111.188E-03     69.0389E-03    -112.229E-03     222.661E-03    -111.068E-03     67.2626E-03
             905     4.83253E-03     106.595E-03    -63.2726E+06    -176.913E+06    -39.8601E+06    -6.25879E+06    -112.316E-03     223.477E-03    -111.161E-03     82.1462E-03    -112.711E-03     223.135E-03    -111.012E-03     79.9230E-03
             906     5.63835E-03     106.693E-03    -58.2842E+06    -169.574E+06    -30.3633E+06    -7.03302E+06    -112.709E-03     223.844E-03    -111.135E-03     95.0482E-03    -113.282E-03     223.696E-03    -110.957E-03     92.3222E-03
             907     6.44402E-03     106.806E-03    -52.9105E+06    -149.056E+06    -23.1031E+06    -7.37723E+06    -113.114E-03     224.193E-03    -111.079E-03     107.925E-03    -113.933E-03     224.362E-03    -110.901E-03     104.644E-03
             908     7.25008E-03     106.932E-03    -48.1571E+06    -136.551E+06    -17.5650E+06    -7.51901E+06    -113.533E-03     224.558E-03    -111.025E-03     120.647E-03    -114.659E-03     225.080E-03    -110.845E-03     116.739E-03
             909     8.05585E-03     107.072E-03    -43.6913E+06    -122.356E+06    -13.5056E+06    -7.61829E+06    -113.942E-03     224.902E-03    -110.960E-03     133.559E-03    -115.470E-03     225.879E-03    -110.787E-03     128.944E-03
             910     8.86219E-03     107.225E-03    -39.2418E+06    -104.240E+06    -9.48405E+06    -7.25538E+06    -114.353E-03     225.242E-03    -110.888E-03     146.645E-03    -116.420E-03     226.827E-03    -110.728E-03     141.220E-03
             911     9.66844E-03     107.393E-03    -35.4553E+06    -83.2055E+06    -7.24641E+06    -6.78905E+06    -114.731E-03     225.538E-03    -110.807E-03     159.900E-03    -117.511E-03     227.918E-03    -110.671E-03     153.553E-03
             912     10.4745E-03     107.574E-03    -33.0066E+06    -42.9071E+06    -4.67182E+06    -5.60161E+06    -115.026E-03     225.731E-03    -110.705E-03     174.305E-03    -118.816E-03     229.265E-03    -110.618E-03     166.911E-03
             913     11.2807E-03     107.772E-03    -31.1070E+06     12.2039E+06     31.0658E+03    -3.55079E+06    -115.399E-03     225.992E-03    -110.593E-03     193.943E-03    -120.748E-03     231.273E-03    -110.565E-03     185.271E-03
             914     12.0876E-03     107.997E-03    -30.0228E+06     69.8897E+06     17.2681E+06    -2.09161E+06    -116.455E-03     226.993E-03    -110.538E-03     224.784E-03    -124.451E-03     235.080E-03    -110.510E-03     214.445E-03
             915     12.8938E-03     108.260E-03    -27.5757E+06     102.795E+06     53.5593E+06    -2.11172E+06    -117.952E-03     228.563E-03    -110.612E-03     264.106E-03    -129.993E-03     240.716E-03    -110.453E-03     252.014E-03
             916     13.7010E-03     108.575E-03    -22.7465E+06     121.800E+06     87.7619E+06    -1.55737E+06    -117.617E-03     228.305E-03    -110.689E-03     285.896E-03    -133.412E-03     244.198E-03    -110.393E-03     273.656E-03
             917     14.5057E-03     108.889E-03    -14.7781E+06     135.998E+06     105.507E+06     352.808E+03    -113.610E-03     224.300E-03    -110.690E-03     262.817E-03    -130.174E-03     240.987E-03    -110.338E-03     253.447E-03
             918     15.3149E-03     109.159E-03    -6.70741E+06     138.309E+06     106.160E+06     893.244E+03    -109.263E-03     219.897E-03    -110.635E-03     170.414E-03    -119.710E-03     230.504E-03    -110.295E-03     165.239E-03
             919     805.275E-06     107.507E-03    -82.7219E+06    -219.496E+06    -81.2462E+06    -789.340E+03    -111.269E-03     222.523E-03    -111.255E-03     15.4841E-03    -111.258E-03     221.677E-03    -111.223E-03     15.1309E-03
             920     1.61050E-03     107.531E-03    -81.4126E+06    -214.802E+06    -75.1564E+06    -2.43398E+06    -111.312E-03     222.539E-03    -111.228E-03     28.6417E-03    -111.338E-03     221.732E-03    -111.174E-03     27.9836E-03
             921     2.41599E-03     107.570E-03    -78.5105E+06    -210.539E+06    -66.5107E+06    -5.25642E+06    -111.444E-03     222.655E-03    -111.210E-03     42.2926E-03    -111.522E-03     221.899E-03    -111.124E-03     41.2725E-03
             922     3.22142E-03     107.625E-03    -74.1201E+06    -200.201E+06    -58.7132E+06    -7.64815E+06    -111.609E-03     222.779E-03    -111.171E-03     55.8300E-03    -111.762E-03     222.129E-03    -111.066E-03     54.4252E-03
             923     4.02714E-03     107.694E-03    -69.0842E+06    -184.642E+06    -50.9902E+06    -7.61627E+06    -111.817E-03     222.927E-03    -111.111E-03     69.2325E-03    -112.078E-03     222.436E-03    -110.998E-03     67.4387E-03
             924     4.83297E-03     107.778E-03    -63.9684E+06    -174.110E+06    -40.8873E+06    -7.37445E+06    -112.143E-03     223.209E-03    -111.066E-03     82.4190E-03    -112.543E-03     222.882E-03    -110.925E-03     80.1924E-03
             925     5.63868E-03     107.876E-03    -59.0331E+06    -165.829E+06    -31.2716E+06    -9.00700E+06    -112.511E-03     223.535E-03    -111.024E-03     95.4647E-03    -113.091E-03     223.407E-03    -110.854E-03     92.7286E-03
             926     6.44485E-03     107.988E-03    -53.5298E+06    -147.990E+06    -24.6723E+06    -10.1076E+06    -112.871E-03     223.820E-03    -110.950E-03     108.451E-03    -113.690E-03     223.996E-03    -110.781E-03     105.156E-03
             927     7.25091E-03     108.115E-03    -47.9706E+06    -135.562E+06    -18.8992E+06    -9.85005E+06    -113.277E-03     224.155E-03    -110.877E-03     121.277E-03    -114.399E-03     224.680E-03    -110.706E-03     117.365E-03
             928     8.05727E-03     108.254E-03    -43.1105E+06    -121.394E+06    -14.3079E+06    -9.57078E+06    -113.666E-03     224.462E-03    -110.796E-03     134.302E-03    -115.188E-03     225.441E-03    -110.629E-03     129.691E-03
             929     8.86368E-03     108.408E-03    -38.8187E+06    -103.864E+06    -10.0034E+06    -9.44162E+06    -114.058E-03     224.766E-03    -110.708E-03     147.564E-03    -116.117E-03     226.347E-03    -110.552E-03     142.151E-03
             930     9.67002E-03     108.575E-03    -34.7151E+06    -83.9536E+06    -7.93066E+06    -8.66798E+06    -114.433E-03     225.042E-03    -110.609E-03     160.927E-03    -117.202E-03     227.413E-03    -110.477E-03     154.600E-03
             931     10.4768E-03     108.757E-03    -30.5037E+06    -46.2127E+06    -3.89008E+06    -6.19983E+06    -114.766E-03     225.265E-03    -110.499E-03     175.780E-03    -118.536E-03     228.774E-03    -110.407E-03     168.431E-03
             932     11.2832E-03     108.955E-03    -27.9034E+06     8.25271E+06     1.22720E+06    -2.32007E+06    -115.278E-03     225.655E-03    -110.377E-03     195.353E-03    -120.610E-03     230.914E-03    -110.342E-03     186.740E-03
             933     12.0903E-03     109.177E-03    -25.6127E+06     69.1236E+06     17.0085E+06     1.48968E+06    -116.411E-03     226.716E-03    -110.305E-03     225.970E-03    -124.368E-03     234.779E-03    -110.283E-03     215.729E-03
             934     12.8968E-03     109.446E-03    -22.9467E+06     104.647E+06     56.9537E+06     2.20602E+06    -118.053E-03     228.450E-03    -110.397E-03     265.104E-03    -130.088E-03     240.609E-03    -110.230E-03     253.081E-03
             935     13.7033E-03     109.755E-03    -19.0005E+06     123.022E+06     92.8510E+06     697.959E+03    -118.118E-03     228.623E-03    -110.505E-03     287.157E-03    -133.962E-03     244.567E-03    -110.191E-03     274.900E-03
             936     14.5111E-03     110.078E-03    -13.8118E+06     135.800E+06     105.347E+06    -822.877E+03    -113.935E-03     224.447E-03    -110.512E-03     263.568E-03    -130.528E-03     241.168E-03    -110.162E-03     254.163E-03
             937     15.3164E-03     110.336E-03    -6.76894E+06     137.017E+06     104.960E+06    -1.03537E+06    -108.696E-03     219.152E-03    -110.456E-03     170.451E-03    -119.162E-03     229.777E-03    -110.120E-03     165.267E-03
             938     805.448E-06     108.690E-03    -84.4412E+06    -217.996E+06    -82.3056E+06    -265.875E+03    -111.146E-03     222.119E-03    -110.972E-03     15.5368E-03    -111.145E-03     221.284E-03    -110.945E-03     15.1955E-03
             939     1.61095E-03     108.714E-03    -81.3480E+06    -210.460E+06    -74.2704E+06    -1.70027E+06    -111.184E-03     222.230E-03    -111.045E-03     28.6060E-03    -111.218E-03     221.443E-03    -110.994E-03     27.9622E-03
             940     2.41632E-03     108.754E-03    -77.6153E+06    -202.664E+06    -63.9112E+06    -4.59756E+06    -111.287E-03     222.334E-03    -111.047E-03     42.4693E-03    -111.375E-03     221.613E-03    -110.961E-03     41.4650E-03
             941     3.22195E-03     108.808E-03    -73.7954E+06    -194.391E+06    -54.6646E+06    -7.84575E+06    -111.456E-03     222.478E-03    -111.022E-03     56.1111E-03    -111.622E-03     221.850E-03    -110.906E-03     54.7109E-03
             942     4.02769E-03     108.877E-03    -69.5141E+06    -183.016E+06    -48.9298E+06    -9.26310E+06    -111.631E-03     222.588E-03    -110.957E-03     69.6076E-03    -111.899E-03     222.101E-03    -110.836E-03     67.8034E-03
             943     4.83364E-03     108.961E-03    -64.4183E+06    -171.647E+06    -42.2285E+06    -9.35944E+06    -111.855E-03     222.735E-03    -110.880E-03     82.9512E-03    -112.258E-03     222.422E-03    -110.748E-03     80.7181E-03
             944     5.63997E-03     109.058E-03    -59.0475E+06    -160.179E+06    -32.2844E+06    -10.7767E+06    -112.189E-03     223.001E-03    -110.812E-03     96.1324E-03    -112.773E-03     222.899E-03    -110.655E-03     93.3992E-03
             945     6.44606E-03     109.171E-03    -53.9138E+06    -145.497E+06    -25.4701E+06    -12.7447E+06    -112.541E-03     223.264E-03    -110.723E-03     109.239E-03    -113.361E-03     223.450E-03    -110.561E-03     105.940E-03
             946     7.25263E-03     109.296E-03    -49.0679E+06    -135.111E+06    -20.6999E+06    -12.7500E+06    -112.892E-03     223.519E-03    -110.628E-03     122.243E-03    -114.012E-03     224.046E-03    -110.464E-03     118.333E-03
             947     8.05922E-03     109.436E-03    -44.3915E+06    -120.097E+06    -15.7676E+06    -12.3860E+06    -113.277E-03     223.802E-03    -110.525E-03     135.407E-03    -114.800E-03     224.787E-03    -110.365E-03     130.805E-03
             948     8.86594E-03     109.589E-03    -39.4066E+06    -103.245E+06    -11.1229E+06    -12.2986E+06    -113.652E-03     224.070E-03    -110.418E-03     148.964E-03    -115.705E-03     225.649E-03    -110.266E-03     143.571E-03
             949     9.67306E-03     109.757E-03    -34.9944E+06    -85.1594E+06    -9.34765E+06    -11.4360E+06    -114.051E-03     224.349E-03    -110.298E-03     162.624E-03    -116.809E-03     226.708E-03    -110.170E-03     156.328E-03
             950     10.4799E-03     109.938E-03    -31.7234E+06    -51.5707E+06    -6.89522E+06    -8.90423E+06    -114.444E-03     224.614E-03    -110.170E-03     177.397E-03    -118.200E-03     228.094E-03    -110.083E-03     170.077E-03
             951     11.2876E-03     110.137E-03    -27.5354E+06     1.18965E+06    -1.12063E+06    -3.77981E+06    -115.280E-03     225.327E-03    -110.047E-03     197.314E-03    -120.585E-03     230.541E-03    -110.015E-03     188.746E-03
             952     12.0932E-03     110.361E-03    -23.5934E+06     64.0938E+06     14.7081E+06     1.45104E+06    -116.582E-03     226.563E-03    -109.981E-03     227.695E-03    -124.532E-03     234.614E-03    -109.967E-03     217.481E-03
             953     12.9009E-03     110.626E-03    -19.1592E+06     105.290E+06     54.1549E+06     4.41295E+06    -118.429E-03     228.508E-03    -110.079E-03     267.064E-03    -130.469E-03     240.697E-03    -109.933E-03     255.061E-03
             954     13.7071E-03     110.942E-03    -13.3458E+06     126.333E+06     92.5694E+06     4.21137E+06    -118.340E-03     228.550E-03    -110.211E-03     288.485E-03    -134.159E-03     244.502E-03    -109.912E-03     276.317E-03
             955     14.5125E-03     111.256E-03    -7.62624E+06     139.058E+06     108.424E+06     2.47571E+06    -113.499E-03     223.728E-03    -110.229E-03     265.305E-03    -130.059E-03     240.440E-03    -109.877E-03     256.077E-03
             956     15.3194E-03     111.523E-03    -3.05266E+06     137.897E+06     107.691E+06     1.21018E+06    -108.584E-03     218.748E-03    -110.164E-03     173.527E-03    -119.071E-03     229.401E-03    -109.821E-03     168.428E-03
             957     805.642E-06     109.873E-03    -83.4300E+06    -215.541E+06    -83.0203E+06    -1.44277E+06    -110.949E-03     221.695E-03    -110.746E-03     15.4892E-03    -110.946E-03     220.872E-03    -110.727E-03     15.1387E-03
             958     1.61109E-03     109.897E-03    -80.2385E+06    -205.928E+06    -75.5555E+06    -3.27701E+06    -110.863E-03     221.663E-03    -110.799E-03     28.6481E-03    -110.895E-03     220.898E-03    -110.762E-03     27.9898E-03
             959     2.41702E-03     109.936E-03    -75.5087E+06    -196.694E+06    -63.4726E+06    -4.82476E+06    -110.947E-03     221.717E-03    -110.770E-03     42.6651E-03    -111.033E-03     221.021E-03    -110.693E-03     41.6693E-03
             960     3.22291E-03     109.990E-03    -70.6902E+06    -187.505E+06    -50.8489E+06    -6.70979E+06    -111.117E-03     221.854E-03    -110.738E-03     56.4635E-03    -111.281E-03     221.250E-03    -110.617E-03     55.0950E-03
             961     4.02886E-03     110.059E-03    -66.2668E+06    -178.792E+06    -42.7858E+06    -8.88311E+06    -111.301E-03     221.976E-03    -110.675E-03     70.0767E-03    -111.566E-03     221.495E-03    -110.534E-03     68.2967E-03
             962     4.83520E-03     110.142E-03    -61.9535E+06    -168.040E+06    -39.1623E+06    -10.8059E+06    -111.482E-03     222.054E-03    -110.571E-03     83.6310E-03    -111.880E-03     221.748E-03    -110.434E-03     81.4046E-03
             963     5.64158E-03     110.240E-03    -56.8942E+06    -154.162E+06    -32.6088E+06    -12.9139E+06    -111.722E-03     222.184E-03    -110.462E-03     97.0555E-03    -112.299E-03     222.106E-03    -110.319E-03     94.3320E-03
             964     6.44845E-03     110.352E-03    -52.2472E+06    -141.994E+06    -24.5496E+06    -14.1215E+06    -112.018E-03     222.373E-03    -110.356E-03     110.335E-03    -112.831E-03     222.568E-03    -110.197E-03     107.065E-03
             965     7.25531E-03     110.477E-03    -47.7613E+06    -133.138E+06    -19.6405E+06    -14.8412E+06    -112.343E-03     222.578E-03    -110.235E-03     123.646E-03    -113.455E-03     223.104E-03    -110.071E-03     119.766E-03
             966     8.06247E-03     110.617E-03    -42.8145E+06    -118.245E+06    -15.9668E+06    -15.4139E+06    -112.700E-03     222.796E-03    -110.096E-03     137.222E-03    -114.209E-03     223.779E-03    -109.942E-03     132.654E-03
             967     8.86993E-03     110.770E-03    -38.9042E+06    -103.230E+06    -11.7150E+06    -14.6691E+06    -113.131E-03     223.094E-03    -109.963E-03     150.997E-03    -115.172E-03     224.664E-03    -109.816E-03     145.652E-03
             968     9.67738E-03     110.937E-03    -35.4692E+06    -85.7358E+06    -9.69047E+06    -13.3135E+06    -113.676E-03     223.506E-03    -109.830E-03     164.941E-03    -116.425E-03     225.853E-03    -109.703E-03     158.704E-03
             969     10.4850E-03     111.119E-03    -31.6131E+06    -55.2599E+06    -7.31184E+06    -11.3488E+06    -114.291E-03     223.993E-03    -109.702E-03     179.879E-03    -118.039E-03     227.453E-03    -109.612E-03     172.597E-03
             970     11.2915E-03     111.318E-03    -28.5130E+06    -8.81605E+06    -3.79916E+06    -6.65698E+06    -115.107E-03     224.685E-03    -109.578E-03     200.357E-03    -120.388E-03     229.844E-03    -109.543E-03     191.849E-03
             971     12.0999E-03     111.544E-03    -25.2553E+06     56.8746E+06     8.20351E+06    -643.930E+03    -116.783E-03     226.278E-03    -109.494E-03     231.176E-03    -124.744E-03     234.327E-03    -109.499E-03     220.996E-03
             972     12.9053E-03     111.809E-03    -21.3264E+06     102.562E+06     43.9312E+06     2.63217E+06    -118.778E-03     228.360E-03    -109.582E-03     270.917E-03    -130.878E-03     240.621E-03    -109.481E-03     258.916E-03
             973     13.7121E-03     112.125E-03    -16.4145E+06     126.160E+06     86.2977E+06     3.42848E+06    -117.982E-03     227.704E-03    -109.721E-03     292.961E-03    -133.842E-03     243.702E-03    -109.449E-03     280.943E-03
             974     14.5202E-03     112.440E-03    -9.91810E+06     141.251E+06     109.145E+06     3.29368E+06    -113.117E-03     222.858E-03    -109.741E-03     268.959E-03    -129.754E-03     239.645E-03    -109.386E-03     259.865E-03
             975     15.3314E-03     112.701E-03    -4.88334E+06     139.419E+06     110.353E+06     2.73168E+06    -109.296E-03     218.998E-03    -109.702E-03     176.098E-03    -119.881E-03     229.741E-03    -109.345E-03     170.958E-03
             976     805.578E-06     111.055E-03    -80.8916E+06    -209.388E+06    -80.8459E+06    -3.22893E+06    -110.467E-03     220.900E-03    -110.433E-03     15.6301E-03    -110.462E-03     220.100E-03    -110.416E-03     15.2636E-03
             977     1.61187E-03     111.079E-03    -79.3159E+06    -200.206E+06    -76.5045E+06    -5.15638E+06    -110.414E-03     220.790E-03    -110.376E-03     29.0635E-03    -110.448E-03     220.054E-03    -110.353E-03     28.3897E-03
             978     2.41788E-03     111.118E-03    -76.3090E+06    -192.479E+06    -66.7814E+06    -6.24890E+06    -110.485E-03     220.807E-03    -110.322E-03     43.0774E-03    -110.576E-03     220.137E-03    -110.266E-03     42.0799E-03
             979     3.22422E-03     111.172E-03    -71.2278E+06    -181.517E+06    -53.8423E+06    -7.69841E+06    -110.546E-03     220.810E-03    -110.264E-03     57.0100E-03    -110.715E-03     220.238E-03    -110.167E-03     55.6552E-03
             980     4.03082E-03     111.240E-03    -65.0178E+06    -173.423E+06    -41.3649E+06    -9.57859E+06    -110.696E-03     220.887E-03    -110.191E-03     70.8041E-03    -110.963E-03     220.427E-03    -110.052E-03     69.0483E-03
             981     4.83743E-03     111.323E-03    -59.3196E+06    -162.156E+06    -34.4426E+06    -11.7816E+06    -110.877E-03     220.951E-03    -110.073E-03     84.6375E-03    -111.273E-03     220.660E-03    -109.925E-03     82.4397E-03
             982     5.64457E-03     111.421E-03    -55.1560E+06    -148.227E+06    -30.6217E+06    -14.0899E+06    -111.023E-03     220.946E-03    -109.923E-03     98.4050E-03    -111.597E-03     220.886E-03    -109.781E-03     95.7213E-03
             983     6.45187E-03     111.532E-03    -51.1195E+06    -138.971E+06    -24.4213E+06    -15.2667E+06    -111.227E-03     221.002E-03    -109.774E-03     112.061E-03    -112.030E-03     221.200E-03    -109.621E-03     108.851E-03
             984     7.25958E-03     111.657E-03    -46.9924E+06    -128.943E+06    -18.7690E+06    -16.3554E+06    -111.520E-03     221.135E-03    -109.615E-03     125.738E-03    -112.623E-03     221.668E-03    -109.454E-03     121.928E-03
             985     8.06766E-03     111.796E-03    -43.7216E+06    -115.834E+06    -16.2690E+06    -17.2247E+06    -111.900E-03     221.338E-03    -109.438E-03     139.685E-03    -113.402E-03     222.321E-03    -109.288E-03     135.196E-03
             986     8.87578E-03     111.950E-03    -40.6081E+06    -103.331E+06    -12.8021E+06    -16.5076E+06    -112.474E-03     221.753E-03    -109.279E-03     153.960E-03    -114.506E-03     223.311E-03    -109.134E-03     148.704E-03
             987     9.68389E-03     112.117E-03    -36.9892E+06    -85.5268E+06    -10.5662E+06    -15.5323E+06    -113.183E-03     222.312E-03    -109.129E-03     168.473E-03    -115.927E-03     224.652E-03    -109.005E-03     162.324E-03
             988     10.4917E-03     112.300E-03    -33.8598E+06    -58.2944E+06    -8.66948E+06    -13.6708E+06    -113.877E-03     222.870E-03    -108.993E-03     184.062E-03    -117.618E-03     226.309E-03    -108.903E-03     176.881E-03
             989     11.3001E-03     112.499E-03    -31.5027E+06    -17.4579E+06    -6.26325E+06    -8.48753E+06    -114.907E-03     223.775E-03    -108.867E-03     205.018E-03    -120.186E-03     228.898E-03    -108.828E-03     196.612E-03
             990     12.1071E-03     112.724E-03    -29.6997E+06     48.5872E+06    -1.36973E+06    -2.52089E+06    -116.761E-03     225.507E-03    -108.746E-03     237.108E-03    -124.736E-03     233.553E-03    -108.780E-03     227.035E-03
             991     12.9150E-03     112.995E-03    -26.7317E+06     100.570E+06     30.6588E+06    -311.614E+03    -118.513E-03     227.307E-03    -108.794E-03     276.545E-03    -130.673E-03     239.641E-03    -108.748E-03     264.675E-03
             992     13.7233E-03     113.306E-03    -20.8210E+06     125.287E+06     77.5465E+06     1.03241E+06    -118.034E-03     226.981E-03    -108.947E-03     297.034E-03    -133.937E-03     243.030E-03    -108.711E-03     285.104E-03
             993     14.5328E-03     113.624E-03    -14.6614E+06     139.717E+06     105.346E+06     2.64744E+06    -114.516E-03     223.562E-03    -109.046E-03     271.224E-03    -131.192E-03     240.376E-03    -108.700E-03     262.013E-03
             994     15.3349E-03     113.884E-03    -8.09053E+06     140.622E+06     111.471E+06     1.73544E+06    -110.767E-03     219.893E-03    -109.127E-03     177.604E-03    -121.440E-03     230.713E-03    -108.761E-03     172.259E-03
             995     806.654E-06     112.237E-03    -79.5297E+06    -200.141E+06    -78.6233E+06    -3.69443E+06    -109.734E-03     219.386E-03    -109.652E-03     15.9555E-03    -109.739E-03     218.627E-03    -109.640E-03     15.5925E-03
             996     1.61288E-03     112.260E-03    -77.8662E+06    -194.211E+06    -72.8890E+06    -5.60736E+06    -109.824E-03     219.487E-03    -109.663E-03     29.5769E-03    -109.864E-03     218.773E-03    -109.633E-03     28.9145E-03
             997     2.41953E-03     112.299E-03    -74.6131E+06    -186.962E+06    -65.5493E+06    -7.23632E+06    -109.808E-03     219.437E-03    -109.629E-03     43.7140E-03    -109.899E-03     218.789E-03    -109.577E-03     42.7281E-03
             998     3.22636E-03     112.352E-03    -70.4427E+06    -175.517E+06    -56.5149E+06    -9.63105E+06    -109.748E-03     219.284E-03    -109.537E-03     57.9101E-03    -109.916E-03     218.743E-03    -109.463E-03     56.5664E-03
             999     4.03357E-03     112.420E-03    -65.3860E+06    -167.565E+06    -44.6800E+06    -11.8995E+06    -109.775E-03     219.199E-03    -109.424E-03     72.0804E-03    -110.042E-03     218.768E-03    -109.309E-03     70.3469E-03
            1000     4.84121E-03     112.503E-03    -59.9109E+06    -156.378E+06    -33.7828E+06    -13.4499E+06    -109.879E-03     219.160E-03    -109.281E-03     86.2221E-03    -110.280E-03     218.891E-03    -109.136E-03     84.0698E-03
            1001     5.64903E-03     112.600E-03    -54.5627E+06    -142.573E+06    -27.4065E+06    -14.8647E+06    -109.978E-03     219.073E-03    -109.096E-03     100.321E-03    -110.553E-03     219.028E-03    -108.947E-03     97.7098E-03
            1002     6.45744E-03     112.710E-03    -49.9965E+06    -135.355E+06    -23.3636E+06    -16.1460E+06    -110.106E-03     218.998E-03    -108.892E-03     114.448E-03    -110.897E-03     219.198E-03    -108.740E-03     111.330E-03
            1003     7.26628E-03     112.835E-03    -46.1228E+06    -124.622E+06    -17.7633E+06    -16.8410E+06    -110.382E-03     219.065E-03    -108.683E-03     128.702E-03    -111.470E-03     219.598E-03    -108.524E-03     125.014E-03
            1004     8.07513E-03     112.974E-03    -42.9351E+06    -112.655E+06    -14.0781E+06    -17.3470E+06    -110.847E-03     219.318E-03    -108.471E-03     143.200E-03    -112.332E-03     220.292E-03    -108.316E-03     138.851E-03
            1005     8.88445E-03     113.127E-03    -39.7119E+06    -102.066E+06    -11.8605E+06    -17.3242E+06    -111.463E-03     219.735E-03    -108.272E-03     158.298E-03    -113.471E-03     221.274E-03    -108.126E-03     153.194E-03
            1006     9.69360E-03     113.296E-03    -37.0468E+06    -84.7872E+06    -10.5836E+06    -16.9004E+06    -112.235E-03     220.319E-03    -108.085E-03     173.761E-03    -114.955E-03     222.637E-03    -107.961E-03     167.783E-03
            1007     10.5029E-03     113.478E-03    -34.8931E+06     -61.477E+06    -9.34899E+06    -14.6216E+06    -113.156E-03     221.080E-03    -107.924E-03     190.073E-03    -116.875E-03     224.483E-03    -107.831E-03     183.078E-03
            1008     11.3115E-03     113.678E-03    -32.1143E+06    -25.5037E+06    -8.46527E+06    -9.66202E+06    -114.579E-03     222.364E-03    -107.784E-03     211.859E-03    -119.849E-03     227.453E-03    -107.743E-03     203.617E-03
            1009     12.1205E-03     113.906E-03    -28.7722E+06     41.5387E+06    -5.92213E+06    -3.66880E+06    -116.660E-03     224.306E-03    -107.646E-03     244.474E-03    -124.635E-03     232.343E-03    -107.694E-03     234.568E-03
            1010     12.9291E-03     114.176E-03    -25.5209E+06     101.915E+06     26.9376E+06     305.417E+03    -119.056E-03     226.763E-03    -107.707E-03     282.564E-03    -131.230E-03     239.131E-03    -107.683E-03     270.838E-03
            1011     13.7373E-03     114.490E-03    -22.3364E+06     124.257E+06     71.9906E+06     822.521E+03    -119.800E-03     227.743E-03    -107.943E-03     301.006E-03    -135.818E-03     243.914E-03    -107.731E-03     288.975E-03
            1012     14.5414E-03     114.807E-03    -15.2993E+06     138.179E+06     100.261E+06    -187.038E+03    -116.482E-03     224.654E-03    -108.172E-03     275.487E-03    -133.327E-03     241.645E-03    -107.848E-03     266.024E-03
            1013     15.3504E-03     115.072E-03    -6.08682E+06     140.634E+06     110.415E+06    -353.746E+03    -113.105E-03     221.509E-03    -108.403E-03     180.772E-03    -123.875E-03     232.436E-03    -108.046E-03     175.193E-03
            1014     807.306E-06     113.415E-03    -76.8515E+06    -190.908E+06    -75.2200E+06    -3.55935E+06    -108.778E-03     217.304E-03    -108.526E-03     16.3445E-03    -108.788E-03     216.583E-03    -108.514E-03     15.9942E-03
            1015     1.61462E-03     113.439E-03    -74.6516E+06    -187.697E+06    -68.6978E+06    -5.42270E+06    -108.779E-03     217.406E-03    -108.627E-03     30.1388E-03    -108.818E-03     216.713E-03    -108.590E-03     29.5030E-03
            1016     2.42193E-03     113.477E-03    -71.1421E+06    -179.670E+06    -61.9856E+06    -8.09665E+06    -108.702E-03     217.275E-03    -108.573E-03     44.5973E-03    -108.790E-03     216.652E-03    -108.519E-03     43.6372E-03
            1017     3.22976E-03     113.530E-03    -67.3364E+06    -168.508E+06    -54.6563E+06    -10.6608E+06    -108.573E-03     217.018E-03    -108.445E-03     59.1779E-03    -108.735E-03     216.501E-03    -108.376E-03     57.8731E-03
            1018     4.03802E-03     113.598E-03    -63.5186E+06    -160.828E+06    -44.5495E+06    -12.8709E+06    -108.485E-03     216.770E-03    -108.285E-03     73.8116E-03    -108.746E-03     216.364E-03    -108.183E-03     72.1386E-03
            1019     4.84668E-03     113.680E-03    -58.6832E+06    -150.435E+06    -33.9876E+06    -15.0999E+06    -108.443E-03     216.532E-03    -108.089E-03     88.4270E-03    -108.837E-03     216.282E-03    -107.956E-03     86.3482E-03
            1020     5.65590E-03     113.776E-03    -53.5915E+06    -138.250E+06    -25.9761E+06    -16.2125E+06    -108.457E-03     216.311E-03    -107.854E-03     103.037E-03    -109.022E-03     216.270E-03    -107.706E-03     100.526E-03
            1021     6.46555E-03     113.886E-03    -49.2594E+06    -130.978E+06    -20.9074E+06    -16.6216E+06    -108.568E-03     216.165E-03    -107.597E-03     117.753E-03    -109.347E-03     216.364E-03    -107.440E-03     114.767E-03
            1022     7.27567E-03     114.011E-03    -45.3647E+06    -120.571E+06    -16.8774E+06    -17.4789E+06    -108.788E-03     216.111E-03    -107.323E-03     132.806E-03    -109.854E-03     216.637E-03    -107.167E-03     129.282E-03
            1023     8.08644E-03     114.149E-03    -41.4165E+06    -110.055E+06    -12.8211E+06    -17.7120E+06    -109.264E-03     216.319E-03    -107.056E-03     148.297E-03    -110.717E-03     217.271E-03    -106.900E-03     144.147E-03
            1024     8.89696E-03     114.302E-03    -38.1043E+06    -99.5243E+06    -10.6103E+06    -17.9058E+06    -109.951E-03     216.752E-03    -106.801E-03     164.290E-03    -111.924E-03     218.266E-03    -106.654E-03     159.404E-03
            1025     9.70820E-03     114.471E-03    -35.3105E+06    -84.1714E+06    -9.74656E+06    -17.1302E+06    -110.874E-03     217.441E-03    -106.566E-03     180.690E-03    -113.550E-03     219.720E-03    -106.442E-03     174.963E-03
            1026     10.5190E-03     114.655E-03    -32.7036E+06    -64.2466E+06    -8.98592E+06    -14.8837E+06    -112.252E-03     218.631E-03    -106.379E-03     197.796E-03    -115.928E-03     221.988E-03    -106.283E-03     191.046E-03
            1027     11.3294E-03     114.856E-03    -29.5365E+06    -30.6484E+06    -8.64917E+06    -11.7620E+06    -114.334E-03     220.578E-03    -106.244E-03     220.068E-03    -119.582E-03     225.638E-03    -106.200E-03     212.009E-03
            1028     12.1389E-03     115.086E-03    -25.8276E+06     33.4690E+06    -8.81662E+06    -5.95356E+06    -117.327E-03     223.473E-03    -106.146E-03     252.079E-03    -125.299E-03     231.498E-03    -106.201E-03     242.279E-03
            1029     12.9475E-03     115.358E-03    -21.7446E+06     97.0179E+06     23.7393E+06     1.04523E+06    -120.844E-03     227.144E-03    -106.300E-03     289.948E-03    -133.064E-03     239.562E-03    -106.290E-03     278.225E-03
            1030     13.7530E-03     115.676E-03    -15.5536E+06     127.523E+06     75.2510E+06     2.54846E+06    -122.292E-03     228.985E-03    -106.694E-03     307.846E-03    -138.490E-03     245.363E-03    -106.480E-03     295.678E-03
            1031     14.5603E-03     115.994E-03    -9.28914E+06     140.839E+06     102.108E+06     419.156E+03    -119.560E-03     226.657E-03    -107.097E-03     279.742E-03    -136.592E-03     243.860E-03    -106.777E-03     270.006E-03
            1032     15.3613E-03     116.256E-03    -5.16259E+06     138.981E+06     107.610E+06     150.964E+03    -117.335E-03     224.881E-03    -107.547E-03     183.492E-03    -128.221E-03     235.932E-03    -107.203E-03     177.521E-03
            1033     808.315E-06     114.592E-03    -75.2700E+06    -182.872E+06    -73.8038E+06    -2.94759E+06    -107.392E-03     214.490E-03    -107.098E-03     16.8161E-03    -107.407E-03     213.804E-03    -107.093E-03     16.4880E-03
            1034     1.61683E-03     114.615E-03    -73.0917E+06    -179.248E+06    -68.5290E+06    -5.98836E+06    -107.114E-03     214.270E-03    -107.156E-03     30.9167E-03    -107.156E-03     213.615E-03    -107.133E-03     30.3082E-03
            1035     2.42568E-03     114.653E-03    -69.4090E+06    -170.998E+06    -60.0533E+06    -9.39401E+06    -106.992E-03     214.016E-03    -107.025E-03     45.8169E-03    -107.083E-03     213.428E-03    -106.976E-03     44.8925E-03
            1036     3.23480E-03     114.705E-03    -64.8371E+06    -162.036E+06    -50.3871E+06    -11.3538E+06    -106.846E-03     213.702E-03    -106.856E-03     60.8998E-03    -107.006E-03     213.202E-03    -106.779E-03     59.6587E-03
            1037     4.04445E-03     114.772E-03    -60.4402E+06    -153.690E+06    -41.6455E+06    -13.1187E+06    -106.655E-03     213.293E-03    -106.638E-03     76.0846E-03    -106.907E-03     212.905E-03    -106.535E-03     74.5056E-03
            1038     4.85473E-03     114.853E-03    -56.5782E+06    -143.463E+06    -33.7408E+06    -15.5358E+06    -106.441E-03     212.808E-03    -106.367E-03     91.3563E-03    -106.821E-03     212.575E-03    -106.246E-03     89.3986E-03
            1039     5.66575E-03     114.949E-03    -52.7892E+06    -134.731E+06    -26.0761E+06    -16.5802E+06    -106.338E-03     212.401E-03    -106.063E-03     106.723E-03    -106.883E-03     212.355E-03    -105.921E-03     104.365E-03
            1040     6.47735E-03     115.058E-03    -48.9647E+06    -126.245E+06    -20.1121E+06    -17.3341E+06    -106.388E-03     212.121E-03    -105.733E-03     122.308E-03    -107.146E-03     212.315E-03    -105.579E-03     119.504E-03
            1041     7.28953E-03     115.182E-03    -45.0954E+06    -116.239E+06    -16.3218E+06    -18.3852E+06    -106.581E-03     211.965E-03    -105.385E-03     138.318E-03    -107.619E-03     212.477E-03    -105.232E-03     135.005E-03
            1042     8.10220E-03     115.320E-03    -41.5024E+06    -108.007E+06    -13.3254E+06    -18.6743E+06    -107.040E-03     212.082E-03    -105.042E-03     154.930E-03    -108.451E-03     213.000E-03    -104.892E-03     151.031E-03
            1043     8.91556E-03     115.474E-03    -38.1946E+06    -96.1311E+06    -10.5205E+06    -18.8674E+06    -107.984E-03     212.710E-03    -104.726E-03     171.914E-03    -109.913E-03     214.192E-03    -104.584E-03     167.304E-03
            1044     9.72837E-03     115.643E-03    -35.2376E+06    -84.0898E+06    -9.27346E+06    -18.1214E+06    -109.451E-03     213.918E-03    -104.467E-03     189.103E-03    -112.082E-03     216.152E-03    -104.340E-03     183.650E-03
            1045     10.5411E-03     115.829E-03    -31.9851E+06    -64.4412E+06    -8.20972E+06    -16.5839E+06    -111.558E-03     215.850E-03    -104.291E-03     206.861E-03    -115.197E-03     219.170E-03    -104.193E-03     200.360E-03
            1046     11.3526E-03     116.032E-03    -27.9284E+06    -32.8224E+06    -5.63559E+06    -15.0908E+06    -114.664E-03     218.896E-03    -104.232E-03     229.278E-03    -119.904E-03     223.936E-03    -104.172E-03     221.373E-03
            1047     12.1619E-03     116.266E-03    -23.7144E+06     22.1173E+06    -8.18036E+06    -9.04994E+06    -118.840E-03     223.089E-03    -104.250E-03     261.615E-03    -126.835E-03     231.102E-03    -104.288E-03     251.861E-03
            1048     12.9691E-03     116.541E-03    -19.3097E+06     88.4934E+06     19.1300E+06    -1.80540E+06    -123.282E-03     227.812E-03    -104.530E-03     299.406E-03    -135.638E-03     240.358E-03    -104.534E-03     287.565E-03
            1049     13.7769E-03     116.864E-03    -13.6503E+06     127.492E+06     69.5762E+06     1.07544E+06    -125.828E-03     230.936E-03    -105.108E-03     315.445E-03    -142.252E-03     247.563E-03    -104.925E-03     302.962E-03
            1050     14.5772E-03     117.184E-03    -8.49385E+06     142.380E+06     100.681E+06     2.77315E+06    -124.853E-03     230.664E-03    -105.811E-03     284.414E-03    -142.154E-03     248.150E-03    -105.502E-03     274.116E-03
            1051     15.3770E-03     117.450E-03    -4.25723E+06     140.605E+06     109.735E+06     2.77179E+06    -123.518E-03     230.143E-03    -106.625E-03     186.895E-03    -134.651E-03     241.442E-03    -106.274E-03     180.283E-03
            1052     809.830E-06     115.764E-03    -73.5382E+06    -174.776E+06    -72.5693E+06    -3.09322E+06    -105.297E-03     210.306E-03    -105.009E-03     17.4609E-03    -105.317E-03     209.656E-03    -105.011E-03     17.1524E-03
            1053     1.62010E-03     115.787E-03    -71.0929E+06    -168.858E+06    -66.0885E+06    -6.97727E+06    -104.881E-03     209.912E-03    -105.032E-03     32.0403E-03    -104.930E-03     209.301E-03    -105.014E-03     31.4628E-03
            1054     2.43078E-03     115.824E-03    -67.6376E+06    -162.009E+06    -57.5027E+06    -10.5127E+06    -104.625E-03     209.462E-03    -104.837E-03     47.5077E-03    -104.720E-03     208.908E-03    -104.792E-03     46.6383E-03
            1055     3.24196E-03     115.876E-03    -63.2687E+06    -155.761E+06    -48.6284E+06    -12.3581E+06    -104.392E-03     208.992E-03    -104.600E-03     63.1891E-03    -104.548E-03     208.510E-03    -104.526E-03     62.0316E-03
            1056     4.05365E-03     115.942E-03    -58.1124E+06    -146.425E+06    -40.0606E+06    -14.1504E+06    -104.082E-03     208.391E-03    -104.309E-03     79.0406E-03    -104.322E-03     208.021E-03    -104.213E-03     77.5731E-03
            1057     4.86623E-03     116.022E-03    -53.7368E+06    -137.377E+06    -32.0426E+06    -15.6921E+06    -103.748E-03     207.713E-03    -103.966E-03     95.0528E-03    -104.105E-03     207.485E-03    -103.849E-03     93.2529E-03
            1058     5.67956E-03     116.117E-03    -49.5949E+06    -130.665E+06    -24.8381E+06    -16.4996E+06    -103.493E-03     207.071E-03    -103.578E-03     111.333E-03    -104.002E-03     207.012E-03    -103.441E-03     109.176E-03
            1059     6.49377E-03     116.225E-03    -45.2022E+06    -120.480E+06    -18.4921E+06    -17.7666E+06    -103.421E-03     206.578E-03    -103.157E-03     127.962E-03    -104.134E-03     206.755E-03    -103.009E-03     125.394E-03
            1060     7.30875E-03     116.348E-03    -41.5310E+06    -112.807E+06    -14.0118E+06    -18.5703E+06    -103.679E-03     206.408E-03    -102.729E-03     145.046E-03    -104.661E-03     206.882E-03    -102.575E-03     142.007E-03
            1061     8.12432E-03     116.487E-03    -38.2240E+06    -104.404E+06    -10.9070E+06    -18.9358E+06    -104.408E-03     206.729E-03    -102.321E-03     162.718E-03    -105.757E-03     207.602E-03    -102.169E-03     159.122E-03
            1062     8.94004E-03     116.640E-03    -35.2374E+06    -93.3573E+06    -7.90424E+06    -19.0206E+06    -105.853E-03     207.827E-03    -101.974E-03     180.778E-03    -107.713E-03     209.253E-03    -101.827E-03     176.492E-03
            1063     9.75546E-03     116.812E-03    -32.2668E+06    -82.8825E+06    -5.79443E+06    -18.6206E+06    -108.135E-03     209.870E-03    -101.734E-03     198.736E-03    -110.705E-03     212.047E-03    -101.596E-03     193.587E-03
            1064     10.5694E-03     116.998E-03    -29.0441E+06    -62.7343E+06    -4.31073E+06    -18.2788E+06    -111.337E-03     212.967E-03    -101.630E-03     217.601E-03    -114.937E-03     216.253E-03    -101.518E-03     211.346E-03
            1065     11.3811E-03     117.208E-03    -26.8169E+06    -34.8179E+06    -1.43548E+06    -16.4785E+06    -115.546E-03     217.248E-03    -101.702E-03     240.798E-03    -120.798E-03     222.285E-03    -101.620E-03     233.061E-03
            1066     12.1910E-03     117.444E-03    -24.6443E+06     13.7033E+06    -4.11304E+06    -12.6801E+06    -120.988E-03     222.890E-03    -101.902E-03     273.360E-03    -129.074E-03     230.949E-03    -101.907E-03     263.604E-03
            1067     12.9989E-03     117.728E-03    -20.9706E+06     80.7955E+06     18.1086E+06    -5.75784E+06    -127.223E-03     229.615E-03    -102.392E-03     310.330E-03    -139.838E-03     242.391E-03    -102.388E-03     298.176E-03
            1068     13.8004E-03     118.053E-03    -18.3286E+06     124.494E+06     59.3808E+06     564.641E+03    -131.396E-03     234.635E-03    -103.239E-03     323.974E-03    -148.219E-03     251.665E-03    -103.096E-03     310.864E-03
            1069     14.6007E-03     118.383E-03    -14.8744E+06     140.719E+06     91.9594E+06     2.10781E+06    -131.619E-03     235.954E-03    -104.335E-03     290.952E-03    -149.401E-03     253.917E-03    -104.058E-03     279.733E-03
            1070     15.3915E-03     118.650E-03    -8.09204E+06     141.590E+06     109.328E+06     1.43402E+06    -131.715E-03     237.336E-03    -105.621E-03     190.768E-03    -143.208E-03     248.987E-03    -105.268E-03     183.175E-03
            1071     812.469E-06     116.931E-03    -68.3159E+06    -165.005E+06    -67.3943E+06    -4.44344E+06    -102.264E-03     204.347E-03    -102.083E-03     18.2100E-03    -102.279E-03     203.730E-03    -102.081E-03     17.9149E-03
            1072     1.62495E-03     116.953E-03    -65.9029E+06    -158.142E+06    -61.7587E+06    -7.63690E+06    -101.930E-03     203.976E-03    -102.047E-03     33.2891E-03    -101.973E-03     203.402E-03    -102.031E-03     32.7580E-03
            1073     2.43803E-03     116.990E-03    -63.2924E+06    -153.233E+06    -54.5095E+06    -10.3680E+06    -101.544E-03     203.376E-03    -101.831E-03     49.4998E-03    -101.629E-03     202.849E-03    -101.790E-03     48.7167E-03
            1074     3.25173E-03     117.040E-03    -60.1800E+06    -147.938E+06    -47.0255E+06    -13.1717E+06    -101.113E-03     202.646E-03    -101.533E-03     65.8831E-03    -101.257E-03     202.186E-03    -101.466E-03     64.8328E-03
            1075     4.06635E-03     117.105E-03    -56.0084E+06    -139.119E+06    -39.1685E+06    -15.6461E+06    -100.637E-03     201.799E-03    -101.162E-03     82.4866E-03    -100.863E-03     201.444E-03    -101.075E-03     81.1534E-03
            1076     4.88172E-03     117.184E-03    -51.2091E+06    -132.565E+06    -30.7749E+06    -16.7417E+06    -100.162E-03     200.897E-03    -100.735E-03     99.4355E-03    -100.491E-03     200.661E-03    -100.623E-03     97.8157E-03
            1077     5.69822E-03     117.278E-03    -46.6006E+06    -125.328E+06    -23.6839E+06    -17.8382E+06    -99.7934E-03     200.047E-03    -100.254E-03     116.811E-03    -100.261E-03     199.972E-03    -100.123E-03     114.874E-03
            1078     6.51580E-03     117.385E-03    -42.3361E+06    -115.975E+06    -17.4806E+06    -18.5446E+06    -99.7260E-03     199.469E-03    -99.7433E-03     134.595E-03    -100.384E-03     199.615E-03    -99.6011E-03     132.298E-03
            1079     7.33417E-03     117.508E-03    -38.5761E+06    -109.216E+06    -12.0566E+06    -18.8341E+06    -100.233E-03     199.484E-03    -99.2514E-03     152.810E-03    -101.148E-03     199.908E-03    -99.0974E-03     150.084E-03
            1080     8.15294E-03     117.646E-03    -35.1883E+06    -100.420E+06    -8.08573E+06    -19.2028E+06    -101.539E-03     200.356E-03    -98.8168E-03     171.624E-03    -102.814E-03     201.172E-03    -98.6606E-03     168.361E-03
            1081     8.97133E-03     117.801E-03    -32.4111E+06    -91.7080E+06    -5.12341E+06    -18.5981E+06    -103.745E-03     202.238E-03    -98.4921E-03     190.894E-03    -105.527E-03     203.593E-03    -98.3377E-03     186.959E-03
            1082     9.78875E-03     117.974E-03    -30.0226E+06    -79.0603E+06    -2.76527E+06    -19.0968E+06    -107.030E-03     205.351E-03    -98.3213E-03     210.145E-03    -109.538E-03     207.479E-03    -98.1770E-03     205.316E-03
            1083     10.6043E-03     118.166E-03    -28.2342E+06    -62.3850E+06    -1.64096E+06    -18.4288E+06    -111.449E-03     209.798E-03    -98.3484E-03     230.023E-03    -115.023E-03     213.054E-03    -98.2252E-03     224.030E-03
            1084     11.4175E-03     118.379E-03    -27.0430E+06    -35.7456E+06     2.26860E+06    -15.6402E+06    -117.173E-03     215.790E-03    -98.6175E-03     253.742E-03    -122.464E-03     220.853E-03    -98.5151E-03     246.161E-03
            1085     12.2266E-03     118.624E-03    -26.8357E+06     12.7706E+06     3.86604E+06    -12.6954E+06    -124.569E-03     223.677E-03    -99.1074E-03     285.881E-03    -132.849E-03     231.896E-03    -99.0677E-03     276.002E-03
            1086     13.0309E-03     118.913E-03    -27.0478E+06     72.1975E+06     20.8904E+06    -7.42783E+06    -132.806E-03     232.743E-03    -99.9368E-03     322.167E-03    -145.811E-03     245.849E-03    -99.8978E-03     309.483E-03
            1087     13.8314E-03     119.253E-03    -21.9486E+06     118.377E+06     54.5220E+06    -2.55771E+06    -138.737E-03     239.899E-03    -101.162E-03     333.677E-03    -156.084E-03     257.433E-03    -101.029E-03     319.596E-03
            1088     14.6221E-03     119.583E-03    -12.9650E+06     139.183E+06     89.1244E+06    -261.278E+03    -140.354E-03     243.095E-03    -102.741E-03     298.031E-03    -158.666E-03     261.600E-03    -102.479E-03     285.512E-03
            1089     15.4100E-03     119.864E-03    -4.97394E+06     141.266E+06     109.422E+06     1.03135E+06    -142.420E-03     247.006E-03    -104.586E-03     195.910E-03    -154.263E-03     259.017E-03    -104.236E-03     187.004E-03
            1090     815.461E-06     118.089E-03    -64.9191E+06    -153.069E+06    -64.7815E+06    -5.08794E+06    -98.3196E-03     196.581E-03    -98.2615E-03     18.8609E-03    -98.3377E-03     196.013E-03    -98.2693E-03     18.5942E-03
            1091     1.63127E-03     118.111E-03    -62.8760E+06    -148.320E+06    -60.6855E+06    -8.04530E+06    -97.9901E-03     196.129E-03    -98.1394E-03     34.6144E-03    -98.0304E-03     195.594E-03    -98.1366E-03     34.1433E-03
            1092     2.44752E-03     118.147E-03    -60.1414E+06    -144.234E+06    -53.5109E+06    -10.8504E+06    -97.5400E-03     195.431E-03    -97.8907E-03     51.5565E-03    -97.6167E-03     194.935E-03    -97.8619E-03     50.8652E-03
            1093     3.26465E-03     118.197E-03    -56.5240E+06    -138.293E+06    -45.1865E+06    -14.2774E+06    -96.8958E-03     194.434E-03    -97.5379E-03     68.8040E-03    -97.0251E-03     194.001E-03    -97.4814E-03     67.8749E-03
            1094     4.08265E-03     118.260E-03    -53.0078E+06    -132.268E+06    -37.8982E+06    -16.7120E+06    -96.1931E-03     193.275E-03    -97.0816E-03     86.3740E-03    -96.3940E-03     192.926E-03    -97.0025E-03     85.2050E-03
            1095     4.90204E-03     118.338E-03    -48.9469E+06    -127.156E+06    -30.6060E+06    -18.0470E+06    -95.5892E-03     192.143E-03    -96.5539E-03     104.404E-03    -95.8827E-03     191.898E-03    -96.4516E-03     102.989E-03
            1096     5.72257E-03     118.429E-03    -45.0124E+06    -119.638E+06    -23.5230E+06    -19.1419E+06    -95.2625E-03     191.247E-03    -95.9841E-03     122.909E-03    -95.6855E-03     191.151E-03    -95.8630E-03     121.220E-03
            1097     6.54405E-03     118.536E-03    -41.7780E+06    -113.023E+06    -17.6100E+06    -19.3525E+06    -95.4477E-03     190.863E-03    -95.4154E-03     141.897E-03    -96.0477E-03     190.963E-03    -95.2789E-03     139.894E-03
            1098     7.36627E-03     118.659E-03    -38.5011E+06    -105.003E+06    -12.1858E+06    -19.4761E+06    -96.4445E-03     191.343E-03    -94.8985E-03     161.471E-03    -97.2924E-03     191.715E-03    -94.7514E-03     159.075E-03
            1099     8.18829E-03     118.798E-03    -36.0254E+06    -98.1834E+06    -8.22051E+06    -19.1631E+06    -98.4944E-03     192.986E-03    -94.4914E-03     181.692E-03    -99.6963E-03     193.733E-03    -94.3379E-03     178.786E-03
            1100     9.00974E-03     118.955E-03    -33.9961E+06    -89.6107E+06    -5.20142E+06    -18.6448E+06    -101.773E-03     196.022E-03    -94.2488E-03     202.274E-03    -103.488E-03     197.312E-03    -94.0956E-03     198.688E-03
            1101     9.82950E-03     119.133E-03    -32.7888E+06    -75.0092E+06    -2.06152E+06    -18.4004E+06    -106.392E-03     200.619E-03    -94.2267E-03     222.693E-03    -108.860E-03     202.709E-03    -94.0807E-03     218.185E-03
            1102     10.6464E-03     119.330E-03    -32.5103E+06    -62.4454E+06    -414.213E+03    -17.2763E+06    -112.446E-03     206.929E-03    -94.4823E-03     243.047E-03    -116.028E-03     210.175E-03    -94.3467E-03     237.283E-03
            1103     11.4589E-03     119.551E-03    -31.2992E+06    -34.7460E+06     3.83771E+06    -15.7305E+06    -120.170E-03     215.220E-03    -95.0502E-03     266.990E-03    -125.558E-03     220.364E-03    -94.9352E-03     259.434E-03
            1104     12.2664E-03     119.804E-03    -29.3209E+06     9.88934E+06     11.0290E+06    -10.8654E+06    -129.651E-03     225.600E-03    -95.9490E-03     299.116E-03    -138.183E-03     234.033E-03    -95.8657E-03     288.976E-03
            1105     13.0679E-03     120.106E-03    -25.6753E+06     70.0014E+06     30.1992E+06    -6.59864E+06    -139.804E-03     237.031E-03    -97.2264E-03     334.890E-03    -153.294E-03     250.593E-03    -97.1397E-03     321.456E-03
            1106     13.8618E-03     120.454E-03    -19.2449E+06     114.985E+06     60.2897E+06    -7.29293E+06    -147.623E-03     246.561E-03    -98.9380E-03     344.854E-03    -165.579E-03     264.685E-03    -98.7754E-03     329.482E-03
            1107     14.6489E-03     120.800E-03    -12.3369E+06     131.482E+06     91.2899E+06    -3.78718E+06    -151.577E-03     252.669E-03    -101.092E-03     306.650E-03    -170.538E-03     271.793E-03    -100.809E-03     292.351E-03
            1108     15.4241E-03     121.083E-03    -7.48897E+06     140.083E+06     109.043E+06     642.717E+03    -155.694E-03     259.279E-03    -103.585E-03     203.135E-03    -168.086E-03     271.830E-03    -103.232E-03     192.395E-03
            1109     819.317E-06     119.238E-03    -60.0574E+06    -139.943E+06    -61.1429E+06    -5.73582E+06    -93.5220E-03     186.936E-03    -93.4140E-03     19.5231E-03    -93.5393E-03     186.420E-03    -93.4297E-03     19.2864E-03
            1110     1.63920E-03     119.259E-03    -59.5594E+06    -138.567E+06    -57.4209E+06    -8.82394E+06    -93.0193E-03     186.303E-03    -93.2840E-03     36.0786E-03    -93.0584E-03     185.803E-03    -93.2838E-03     35.6680E-03
            1111     2.45955E-03     119.294E-03    -56.8337E+06    -133.616E+06    -52.4420E+06    -12.6250E+06    -92.3964E-03     185.346E-03    -92.9496E-03     53.7600E-03    -92.4650E-03     184.888E-03    -92.9356E-03     53.1543E-03
            1112     3.28084E-03     119.342E-03    -54.0050E+06    -129.146E+06    -45.9555E+06    -15.7560E+06    -91.5652E-03     184.068E-03    -92.5024E-03     71.9901E-03    -91.6783E-03     183.661E-03    -92.4666E-03     71.1912E-03
            1113     4.10361E-03     119.404E-03    -50.9782E+06    -125.679E+06    -38.4339E+06    -17.4476E+06    -90.7602E-03     182.721E-03    -91.9604E-03     90.5997E-03    -90.9338E-03     182.376E-03    -91.8964E-03     89.6141E-03
            1114     4.92755E-03     119.480E-03    -48.4448E+06    -120.924E+06    -31.8365E+06    -18.5150E+06    -90.1906E-03     181.546E-03    -91.3550E-03     109.673E-03    -90.4500E-03     181.293E-03    -91.2686E-03     108.489E-03
            1115     5.75264E-03     119.571E-03    -46.4231E+06    -114.775E+06    -25.6215E+06    -18.9652E+06    -90.0810E-03     180.818E-03    -90.7367E-03     129.324E-03    -90.4613E-03     180.697E-03    -90.6311E-03     127.916E-03
            1116     6.57869E-03     119.677E-03    -44.1481E+06    -109.142E+06    -19.9862E+06    -19.5012E+06    -90.7543E-03     180.915E-03    -90.1612E-03     149.641E-03    -91.2993E-03     180.972E-03    -90.0388E-03     147.950E-03
            1117     7.40482E-03     119.800E-03    -42.4302E+06    -102.170E+06    -15.3833E+06    -19.0827E+06    -92.4882E-03     182.175E-03    -89.6866E-03     170.627E-03    -93.2727E-03     182.488E-03    -89.5538E-03     168.576E-03
            1118     8.23079E-03     119.941E-03    -41.1636E+06    -96.2676E+06    -10.7528E+06    -18.3112E+06    -95.6077E-03     184.996E-03    -89.3881E-03     192.164E-03    -96.7458E-03     185.676E-03    -89.2426E-03     189.615E-03
            1119     9.05497E-03     120.103E-03    -39.7682E+06    -85.6371E+06    -6.37443E+06    -18.7538E+06    -100.325E-03     189.649E-03    -89.3245E-03     213.866E-03    -101.992E-03     190.889E-03    -89.1746E-03     210.600E-03
            1120     9.87625E-03     120.285E-03    -37.8990E+06     -74.277E+06    -1.98187E+06    -17.3183E+06    -106.697E-03     196.263E-03    -89.5666E-03     235.092E-03    -109.138E-03     198.312E-03    -89.4138E-03     230.853E-03
            1121     10.6933E-03     120.491E-03    -35.3820E+06    -59.4116E+06     2.40020E+06    -16.4111E+06    -114.713E-03     204.876E-03    -90.1635E-03     256.168E-03    -118.325E-03     208.146E-03    -90.0140E-03     250.537E-03
            1122     11.5047E-03     120.721E-03    -32.5120E+06    -33.9191E+06     6.83661E+06    -15.9720E+06    -124.481E-03     215.619E-03    -91.1386E-03     280.935E-03    -130.003E-03     220.889E-03    -91.0081E-03     273.277E-03
            1123     12.3093E-03     120.988E-03    -27.4597E+06     4.15849E+06     16.9886E+06    -12.0609E+06    -135.946E-03     228.465E-03    -92.5195E-03     313.404E-03    -144.771E-03     237.162E-03    -92.4007E-03     302.803E-03
            1124     13.1068E-03     121.302E-03    -20.6025E+06     71.1231E+06     38.7280E+06    -9.24077E+06    -148.387E-03     242.705E-03    -94.3173E-03     348.705E-03    -162.483E-03     256.872E-03    -94.1969E-03     334.165E-03
            1125     13.8964E-03     121.666E-03    -15.9046E+06     115.050E+06     66.4708E+06    -5.90436E+06    -158.416E-03     255.036E-03    -96.6199E-03     355.904E-03    -177.118E-03     273.903E-03    -96.4313E-03     338.877E-03
            1126     14.6740E-03     122.023E-03    -13.4841E+06     125.123E+06     91.3749E+06    -3.06267E+06    -164.371E-03     263.802E-03    -99.4307E-03     316.082E-03    -184.132E-03     283.700E-03    -99.1357E-03     299.573E-03
            1127     15.4401E-03     122.328E-03    -6.84280E+06     135.961E+06     107.443E+06    -1.50223E+06    -170.187E-03     272.813E-03    -102.627E-03     212.574E-03    -183.213E-03     285.991E-03    -102.277E-03     199.606E-03
            1128     824.260E-06     120.375E-03    -55.4805E+06    -125.769E+06    -54.5058E+06    -6.23934E+06    -87.6583E-03     175.137E-03    -87.4791E-03     20.1841E-03    -87.6818E-03     174.673E-03    -87.4888E-03     19.9807E-03
            1129     1.64869E-03     120.395E-03    -54.6383E+06    -127.581E+06    -53.7151E+06    -9.77401E+06    -86.9540E-03     174.299E-03    -87.3447E-03     37.6245E-03    -86.9857E-03     173.836E-03    -87.3490E-03     37.2752E-03
            1130     2.47427E-03     120.428E-03    -54.1688E+06    -122.385E+06    -52.5142E+06    -13.2138E+06    -86.1193E-03     173.032E-03    -86.9123E-03     56.0663E-03    -86.1809E-03     172.615E-03    -86.9188E-03     55.5650E-03
            1131     3.30112E-03     120.475E-03    -53.7180E+06    -120.966E+06    -48.2248E+06    -15.8101E+06    -85.2261E-03     171.607E-03    -86.3805E-03     75.1112E-03    -85.3279E-03     171.224E-03    -86.3684E-03     74.4643E-03
            1132     4.12905E-03     120.535E-03    -53.1929E+06    -119.531E+06    -42.6511E+06    -17.1244E+06    -84.4923E-03     170.273E-03    -85.7806E-03     94.7224E-03    -84.6497E-03     169.937E-03    -85.7434E-03     93.9358E-03
            1133     4.95823E-03     120.610E-03    -52.2347E+06    -115.540E+06    -36.4089E+06    -17.5923E+06    -84.1428E-03     169.298E-03    -85.1551E-03     114.915E-03    -84.3780E-03     169.039E-03    -85.0938E-03     113.979E-03
            1134     5.78850E-03     120.699E-03    -50.7620E+06    -110.192E+06    -30.4544E+06    -17.9521E+06    -84.5161E-03     169.074E-03    -84.5577E-03     135.858E-03    -84.8579E-03     168.929E-03    -84.4766E-03     134.734E-03
            1135     6.61912E-03     120.806E-03    -50.0473E+06    -104.962E+06    -24.8976E+06    -17.9813E+06    -85.9837E-03     170.045E-03    -84.0615E-03     157.470E-03    -86.4831E-03     170.064E-03    -83.9612E-03     156.097E-03
            1136     7.44969E-03     120.930E-03    -49.4592E+06    -100.162E+06    -19.1198E+06    -17.3520E+06    -88.8778E-03     172.622E-03    -83.7447E-03     179.603E-03    -89.6113E-03     172.878E-03    -83.6233E-03     177.884E-03
            1137     8.27855E-03     121.075E-03    -47.8717E+06    -92.3246E+06    -12.8888E+06    -17.6104E+06    -93.4333E-03     177.108E-03    -83.6745E-03     202.221E-03    -94.5219E-03     177.735E-03    -83.5356E-03     199.983E-03
            1138     9.10484E-03     121.242E-03    -45.6649E+06    -82.0374E+06    -7.12086E+06    -18.1176E+06    -99.8283E-03     183.743E-03    -83.9148E-03     224.975E-03    -101.456E-03     184.938E-03    -83.7652E-03     221.981E-03
            1139     9.92704E-03     121.433E-03    -42.9105E+06    -73.9709E+06    -2.19286E+06    -17.7575E+06    -108.040E-03     192.569E-03    -84.5292E-03     247.244E-03    -110.468E-03     194.590E-03    -84.3707E-03     243.185E-03
            1140     10.7434E-03     121.648E-03    -39.0693E+06    -54.6702E+06     3.65120E+06    -18.7410E+06    -117.934E-03     203.482E-03    -85.5487E-03     269.580E-03    -121.605E-03     206.812E-03    -85.3945E-03     263.968E-03
            1141     11.5531E-03     121.892E-03    -33.5710E+06    -34.0675E+06     9.50850E+06    -18.7649E+06    -129.653E-03     216.657E-03    -87.0041E-03     295.381E-03    -135.337E-03     222.076E-03    -86.8585E-03     287.504E-03
            1142     12.3550E-03     122.173E-03    -28.4227E+06     783.196E+03     19.4227E+06    -16.5388E+06    -143.455E-03     232.365E-03    -88.9101E-03     328.590E-03    -152.686E-03     241.447E-03    -88.7729E-03     317.274E-03
            1143     13.1478E-03     122.504E-03    -25.1550E+06     70.9347E+06     39.7405E+06    -12.7700E+06    -158.571E-03     249.863E-03    -91.2918E-03     364.009E-03    -173.426E-03     264.772E-03    -91.1595E-03     348.044E-03
            1144     13.9283E-03     122.887E-03    -20.3881E+06     107.888E+06     62.7193E+06    -8.20528E+06    -171.163E-03     265.415E-03    -94.2525E-03     369.769E-03    -190.920E-03     285.309E-03    -94.0658E-03     350.482E-03
            1145     14.6966E-03     123.261E-03    -11.9250E+06     120.743E+06     86.1280E+06    -3.93091E+06    -179.053E-03     276.838E-03    -97.7856E-03     328.422E-03    -199.938E-03     297.868E-03    -97.5128E-03     308.944E-03
            1146     15.4536E-03     123.583E-03    -6.16903E+06     134.188E+06     104.463E+06    -2.20008E+06    -184.951E-03     286.689E-03    -101.738E-03     222.300E-03    -198.677E-03     300.573E-03    -101.402E-03     206.792E-03
            1147     829.847E-06     121.497E-03    -56.2761E+06    -112.562E+06    -54.7038E+06    -4.76722E+06    -80.5801E-03     160.928E-03    -80.3476E-03     21.0441E-03    -80.6256E-03     160.529E-03    -80.3763E-03     20.8981E-03
            1148     1.66067E-03     121.516E-03    -55.9972E+06    -115.129E+06    -54.7691E+06    -9.85125E+06    -79.8050E-03     160.036E-03    -80.2313E-03     38.9744E-03    -79.8554E-03     159.633E-03    -80.2570E-03     38.6955E-03
            1149     2.49214E-03     121.548E-03    -55.7378E+06    -112.980E+06    -54.3580E+06    -12.8107E+06    -78.9604E-03     158.745E-03    -79.7845E-03     58.0595E-03    -79.0300E-03     158.368E-03    -79.8116E-03     57.6710E-03
            1150     3.32475E-03     121.593E-03    -56.2187E+06    -113.722E+06    -51.2401E+06    -14.0315E+06    -78.1432E-03     157.390E-03    -79.2468E-03     77.8605E-03    -78.2434E-03     157.031E-03    -79.2566E-03     77.3814E-03
            1151     4.15865E-03     121.652E-03    -56.9405E+06    -113.988E+06    -46.8515E+06    -14.7516E+06    -77.6046E-03     156.267E-03    -78.6621E-03     98.4761E-03    -77.7505E-03     155.937E-03    -78.6486E-03     97.9018E-03
            1152     4.99371E-03     121.725E-03    -57.5685E+06    -110.846E+06    -42.7684E+06    -15.3602E+06    -77.7659E-03     155.853E-03    -78.0867E-03     119.834E-03    -77.9790E-03     155.588E-03    -78.0564E-03     119.142E-03
            1153     5.82920E-03     121.815E-03    -58.4758E+06    -106.352E+06    -37.5919E+06    -15.3838E+06    -79.0281E-03     156.643E-03    -77.6150E-03     141.915E-03    -79.3434E-03     156.479E-03    -77.5640E-03     141.065E-03
            1154     6.66466E-03     121.922E-03    -58.8318E+06    -101.948E+06    -30.1853E+06    -14.7962E+06    -81.7088E-03     159.045E-03    -77.3363E-03     164.568E-03    -82.1768E-03     159.027E-03    -77.2541E-03     163.491E-03
            1155     7.49842E-03     122.051E-03    -58.0376E+06    -95.8369E+06    -22.4450E+06    -15.6887E+06    -86.0552E-03     163.367E-03    -77.3118E-03     187.802E-03    -86.7552E-03     163.584E-03    -77.2009E-03     186.360E-03
            1156     8.32980E-03     122.200E-03    -55.5814E+06    -87.1067E+06    -15.3047E+06    -17.9134E+06    -92.2258E-03     169.823E-03    -77.5977E-03     211.570E-03    -93.2815E-03     170.417E-03    -77.4673E-03     209.570E-03
            1157     9.15733E-03     122.375E-03    -51.3146E+06    -78.8402E+06    -8.44029E+06    -19.2715E+06    -100.288E-03     178.539E-03    -78.2513E-03     235.604E-03    -101.885E-03     179.699E-03    -78.1047E-03     232.802E-03
            1158     9.97936E-03     122.576E-03    -45.4051E+06    -71.3720E+06    -2.56509E+06    -20.8172E+06    -110.155E-03     189.467E-03    -79.3116E-03     259.213E-03    -112.576E-03     191.482E-03    -79.1551E-03     255.245E-03
            1159     10.7952E-03     122.804E-03    -38.8838E+06    -50.1799E+06     4.31612E+06    -21.7474E+06    -121.837E-03     202.640E-03    -80.8031E-03     283.074E-03    -125.560E-03     206.037E-03    -80.6524E-03     277.420E-03
            1160     11.6028E-03     123.063E-03    -34.8114E+06    -34.1372E+06     10.0043E+06    -21.0629E+06    -135.670E-03     218.446E-03    -82.7759E-03     310.101E-03    -141.544E-03     224.051E-03    -82.6259E-03     301.915E-03
            1161     12.4011E-03     123.360E-03    -32.3644E+06    -400.071E+03     18.1518E+06    -18.5993E+06    -152.099E-03     237.341E-03    -85.2426E-03     344.623E-03    -161.816E-03     246.897E-03    -85.1043E-03     332.442E-03
            1162     13.1880E-03     123.714E-03    -28.4014E+06     69.6902E+06     36.8545E+06    -14.0400E+06    -169.604E-03     257.839E-03    -88.2342E-03     380.627E-03    -185.263E-03     273.545E-03    -88.1098E-03     363.048E-03
            1163     13.9634E-03     124.119E-03    -23.5778E+06     102.013E+06     60.2945E+06    -11.6930E+06    -184.413E-03     276.282E-03    -91.8685E-03     387.309E-03    -205.384E-03     297.366E-03    -91.6807E-03     365.445E-03
            1164     14.7223E-03     124.517E-03    -17.7114E+06     115.276E+06     82.2288E+06    -11.7668E+06    -195.101E-03     291.233E-03    -96.1315E-03     346.583E-03    -217.502E-03     313.753E-03    -95.8618E-03     323.465E-03
            1165     15.4637E-03     124.858E-03    -7.61001E+06     126.243E+06     100.213E+06    -7.25329E+06    -201.643E-03     302.509E-03    -100.866E-03     235.525E-03    -216.376E-03     317.380E-03    -100.537E-03     216.733E-03
            1166     837.191E-06     122.602E-03    -57.1793E+06    -101.823E+06    -56.9900E+06    -3.61746E+06    -72.4407E-03     144.703E-03    -72.2626E-03     21.5152E-03    -72.5019E-03     144.361E-03    -72.3170E-03     21.4177E-03
            1167     1.67412E-03     122.620E-03    -57.7186E+06    -102.395E+06    -55.2946E+06    -8.43882E+06    -71.8077E-03     143.956E-03    -72.1484E-03     39.7264E-03    -71.8797E-03     143.614E-03    -72.1927E-03     39.5290E-03
            1168     2.51237E-03     122.651E-03    -58.6615E+06    -105.581E+06    -55.3299E+06    -11.3719E+06    -71.0966E-03     142.859E-03    -71.7627E-03     59.5176E-03    -71.1791E-03     142.514E-03    -71.8012E-03     59.2417E-03
            1169     3.35153E-03     122.694E-03    -60.2409E+06    -109.972E+06    -55.3469E+06    -10.7655E+06    -70.5502E-03     141.838E-03    -71.2880E-03     80.1160E-03    -70.6500E-03     141.489E-03    -71.3179E-03     79.8040E-03
            1170     4.19184E-03     122.752E-03    -63.2200E+06    -109.203E+06    -54.2431E+06    -10.0832E+06    -70.5839E-03     141.390E-03    -70.8063E-03     101.639E-03    -70.7260E-03     141.073E-03    -70.8275E-03     101.278E-03
            1171     5.03262E-03     122.825E-03    -66.6397E+06    -106.478E+06    -50.9753E+06    -10.6692E+06    -71.7027E-03     142.127E-03    -70.4244E-03     123.913E-03    -71.9122E-03     141.866E-03    -70.4283E-03     123.457E-03
            1172     5.87324E-03     122.916E-03    -68.5822E+06    -103.316E+06      -43.68E+06    -11.0750E+06    -74.2175E-03     144.463E-03    -70.2456E-03     146.834E-03    -74.5241E-03     144.283E-03    -70.2147E-03     146.231E-03
            1173     6.71213E-03     123.027E-03    -67.7458E+06    -97.4943E+06    -34.5140E+06    -12.7599E+06    -78.2883E-03     148.613E-03    -70.3251E-03     170.470E-03    -78.7370E-03     148.574E-03    -70.2581E-03     169.622E-03
            1174     7.54892E-03     123.160E-03    -63.8879E+06    -89.4871E+06    -25.0590E+06    -15.7310E+06    -84.0869E-03     154.795E-03    -70.7082E-03     194.906E-03    -84.7519E-03     154.987E-03    -70.6111E-03     193.669E-03
            1175     8.38193E-03     123.318E-03    -59.1628E+06    -81.0412E+06    -16.4434E+06    -18.4679E+06    -91.7783E-03     163.219E-03    -71.4406E-03     220.122E-03    -92.7907E-03     163.781E-03    -71.3195E-03     218.311E-03
            1176     9.20989E-03     123.502E-03    -54.4074E+06    -72.9551E+06    -9.21648E+06    -21.7064E+06    -101.358E-03     173.918E-03    -72.5605E-03     245.756E-03    -102.923E-03     175.060E-03    -72.4219E-03     243.090E-03
            1177     10.0322E-03     123.715E-03    -48.6395E+06    -65.1609E+06    -3.89317E+06    -26.2627E+06    -112.850E-03     186.948E-03    -74.0987E-03     271.068E-03    -115.275E-03     188.984E-03    -73.9531E-03     267.125E-03
            1178     10.8465E-03     123.957E-03    -41.9236E+06    -49.4923E+06     1.29539E+06    -27.4198E+06    -126.367E-03     202.456E-03    -76.0895E-03     296.504E-03    -130.152E-03     205.917E-03    -75.9505E-03     290.728E-03
            1179     11.6522E-03     124.233E-03    -34.9594E+06    -37.6362E+06     7.18353E+06    -23.1789E+06    -142.444E-03     221.039E-03    -78.5956E-03     325.306E-03    -148.514E-03     226.838E-03    -78.4545E-03     316.733E-03
            1180     12.4462E-03     124.552E-03    -28.4758E+06     270.796E+03     17.5927E+06    -19.3481E+06    -161.418E-03     243.048E-03    -81.6306E-03     361.955E-03    -171.563E-03     253.050E-03    -81.5018E-03     348.875E-03
            1181     13.2281E-03     124.931E-03    -22.0011E+06     65.7056E+06     35.7765E+06    -14.2784E+06    -181.162E-03     266.392E-03    -85.2298E-03     398.664E-03    -197.647E-03     282.938E-03    -85.1143E-03     379.288E-03
            1182     13.9958E-03     125.359E-03    -14.5440E+06     101.896E+06     64.4744E+06    -10.0211E+06    -198.148E-03     287.677E-03    -89.5286E-03     405.901E-03    -220.358E-03     310.022E-03    -89.3329E-03     381.196E-03
            1183     14.7477E-03     125.788E-03    -7.26601E+06     117.226E+06     89.9906E+06    -10.0216E+06    -210.574E-03     305.066E-03    -94.4921E-03     365.464E-03    -234.336E-03     328.971E-03    -94.2016E-03     338.851E-03
            1184     15.4826E-03     126.158E-03    -4.08766E+06     115.556E+06     101.289E+06    -6.86323E+06    -219.676E-03     319.660E-03    -99.9840E-03     249.613E-03    -235.288E-03     335.386E-03    -99.6392E-03     227.515E-03
            1185     844.016E-06     123.689E-03    -61.8751E+06    -92.5755E+06    -62.6657E+06    -4.40177E+06    -63.6688E-03     127.270E-03    -63.6014E-03     21.7089E-03    -63.7574E-03     126.987E-03    -63.6908E-03     21.6281E-03
            1186     1.68910E-03     123.706E-03    -63.8437E+06    -93.6305E+06    -64.6700E+06    -5.49202E+06    -63.1647E-03     126.595E-03    -63.4305E-03     40.0442E-03    -63.2618E-03     126.314E-03    -63.5255E-03     39.9358E-03
            1187     2.53432E-03     123.735E-03    -69.1212E+06    -101.131E+06    -66.2047E+06    -5.77054E+06    -62.8127E-03     125.937E-03    -63.1244E-03     60.3329E-03    -62.9278E-03     125.634E-03    -63.2085E-03     60.2038E-03
            1188     3.38059E-03     123.778E-03    -75.4129E+06    -109.286E+06    -68.4348E+06    -4.71675E+06    -62.9866E-03     125.807E-03    -62.8206E-03     81.5158E-03    -63.1260E-03     125.484E-03    -62.8949E-03     81.3778E-03
            1189     4.22698E-03     123.835E-03    -79.6500E+06    -105.076E+06    -67.8318E+06    -4.77231E+06    -64.1109E-03     126.719E-03    -62.6084E-03     103.656E-03    -64.2943E-03     126.440E-03    -62.6797E-03     103.477E-03
            1190     5.07298E-03     123.910E-03    -80.4373E+06    -102.193E+06    -59.5013E+06    -6.80666E+06    -66.5124E-03     129.128E-03    -62.6153E-03     126.648E-03    -66.7484E-03     128.885E-03    -62.6480E-03     126.370E-03
            1191     5.91721E-03     124.005E-03    -77.5250E+06    -98.7230E+06    -48.0036E+06    -9.71119E+06    -70.3299E-03     133.208E-03    -62.8776E-03     150.416E-03    -70.6360E-03     133.025E-03    -62.8621E-03     149.973E-03
            1192     6.75950E-03     124.120E-03    -71.9262E+06    -89.9560E+06    -36.7989E+06    -13.7560E+06    -75.6873E-03     139.101E-03    -63.4140E-03     175.160E-03    -76.1098E-03     139.055E-03    -63.3633E-03     174.453E-03
            1193     7.59812E-03     124.261E-03    -65.9374E+06    -83.0428E+06    -26.7889E+06    -17.7527E+06    -82.7837E-03     147.053E-03    -64.2690E-03     200.965E-03    -83.4036E-03     147.221E-03    -64.1869E-03     199.867E-03
            1194     8.43250E-03     124.427E-03    -59.5919E+06    -74.8783E+06    -17.4971E+06    -20.5740E+06    -91.7422E-03     157.216E-03    -65.4740E-03     227.803E-03    -92.6981E-03     157.746E-03    -65.3665E-03     226.135E-03
            1195     9.26148E-03     124.622E-03    -52.9400E+06    -64.6460E+06    -9.57091E+06    -24.2009E+06    -102.735E-03     169.796E-03    -67.0609E-03     255.218E-03    -104.248E-03     170.921E-03    -66.9382E-03     252.667E-03
            1196     10.0830E-03     124.849E-03    -47.6266E+06    -55.4640E+06    -4.06991E+06    -28.5689E+06    -115.891E-03     184.967E-03    -69.0754E-03     282.493E-03    -118.294E-03     187.019E-03    -68.9462E-03     278.608E-03
            1197     10.8963E-03     125.108E-03    -44.0244E+06    -48.0491E+06    -1.52706E+06    -30.7125E+06    -131.389E-03     202.955E-03    -71.5661E-03     310.009E-03    -135.223E-03     206.472E-03    -71.4402E-03     304.123E-03
            1198     11.6987E-03     125.404E-03    -39.5328E+06    -42.9010E+06     1.67710E+06    -30.0360E+06    -149.687E-03     224.282E-03    -74.5951E-03     341.198E-03    -155.945E-03     230.250E-03    -74.4672E-03     332.163E-03
            1199     12.4898E-03     125.748E-03    -32.6538E+06    -604.379E+03     12.9290E+06    -27.7029E+06    -170.763E-03     248.931E-03    -78.1675E-03     379.892E-03    -181.282E-03     259.303E-03    -78.0546E-03     365.856E-03
            1200     13.2670E-03     126.152E-03    -23.1978E+06     53.1298E+06     32.1365E+06    -24.2393E+06    -193.245E-03     275.599E-03    -82.3530E-03     418.446E-03    -210.523E-03     292.902E-03    -82.2358E-03     397.067E-03
            1201     14.0283E-03     126.612E-03    -13.4870E+06     93.2032E+06     65.1854E+06    -16.6445E+06    -212.454E-03     299.735E-03    -87.2816E-03     427.287E-03    -236.058E-03     323.448E-03    -87.0713E-03     399.324E-03
            1202     14.7700E-03     127.071E-03    -8.67317E+06     113.699E+06     90.3809E+06    -9.68797E+06    -226.699E-03     319.599E-03    -92.8991E-03     387.714E-03    -252.081E-03     345.108E-03    -92.5995E-03     357.120E-03
            1203     15.4939E-03     127.470E-03    -4.37856E+06     104.058E+06     100.248E+06    -4.66760E+06    -238.358E-03     337.485E-03    -99.1277E-03     268.996E-03    -255.057E-03     354.264E-03    -98.7710E-03     243.306E-03
            1204     852.151E-06     124.756E-03    -79.2052E+06    -87.4518E+06    -78.7982E+06    -971.498E+03    -54.6519E-03     109.162E-03    -54.5097E-03     21.6874E-03    -54.8100E-03     108.951E-03    -54.6621E-03     21.6719E-03
            1205     1.70418E-03     124.773E-03    -86.7391E+06    -91.4470E+06    -87.6394E+06     135.169E+03    -54.4866E-03     108.925E-03    -54.4388E-03     40.0208E-03    -54.6639E-03     108.718E-03    -54.6186E-03     40.0201E-03
            1206     2.55725E-03     124.801E-03    -92.6385E+06    -100.511E+06    -90.7117E+06     925.929E+03    -54.9151E-03     109.265E-03    -54.3499E-03     60.3336E-03    -55.1044E-03     109.026E-03    -54.5234E-03     60.3409E-03
            1207     3.40970E-03     124.844E-03    -94.0414E+06    -107.556E+06    -85.5160E+06    -215.596E+03    -56.2646E-03     110.686E-03    -54.4211E-03     81.8164E-03    -56.4606E-03     110.410E-03    -54.5563E-03     81.7989E-03
            1208     4.26139E-03     124.904E-03    -91.4606E+06    -100.616E+06    -75.2844E+06    -3.11142E+06    -58.7043E-03     113.392E-03    -54.6880E-03     104.375E-03    -58.9219E-03     113.143E-03    -54.7859E-03     104.292E-03
            1209     5.11125E-03     124.982E-03    -86.6387E+06    -96.4209E+06    -63.4847E+06    -7.05676E+06    -62.3247E-03     117.519E-03    -55.1942E-03     127.972E-03    -62.5665E-03     117.293E-03    -55.2461E-03     127.777E-03
            1210     5.95912E-03     125.081E-03    -80.3394E+06    -90.6558E+06    -51.2368E+06    -12.3479E+06    -67.2325E-03     123.181E-03    -55.9488E-03     152.628E-03    -67.5228E-03     123.012E-03    -55.9570E-03     152.254E-03
            1211     6.80351E-03     125.203E-03    -73.5369E+06    -82.1149E+06    -39.4966E+06    -17.1846E+06    -73.6646E-03     130.635E-03    -56.9708E-03     178.587E-03    -74.0552E-03     130.588E-03    -56.9425E-03     177.958E-03
            1212     7.64422E-03     125.352E-03    -66.7782E+06    -76.4835E+06    -29.3158E+06    -20.6831E+06    -81.8600E-03     140.156E-03    -58.2964E-03     205.833E-03    -82.4312E-03     140.305E-03    -58.2353E-03     204.837E-03
            1213     8.47968E-03     125.528E-03    -59.8945E+06    -67.1717E+06    -20.0513E+06    -24.6998E+06    -91.9491E-03     151.902E-03    -59.9531E-03     234.252E-03    -92.8458E-03     152.407E-03    -59.8691E-03     232.683E-03
            1214     9.30881E-03     125.736E-03    -52.7658E+06    -56.9563E+06    -12.0017E+06    -28.6204E+06    -104.255E-03     166.238E-03    -61.9829E-03     263.629E-03    -105.702E-03     167.333E-03    -61.8838E-03     261.172E-03
            1215     10.1305E-03     125.979E-03    -46.5688E+06    -48.9319E+06    -5.57632E+06    -30.2115E+06    -119.018E-03     183.464E-03    -64.4464E-03     292.954E-03    -121.361E-03     185.489E-03    -64.3359E-03     289.155E-03
            1216     10.9423E-03     126.256E-03    -41.5640E+06    -42.9774E+06    -573.781E+03    -31.3119E+06    -136.476E-03     203.884E-03    -67.4087E-03     322.845E-03    -140.292E-03     207.408E-03    -67.2890E-03     316.927E-03
            1217     11.7430E-03     126.575E-03    -36.2659E+06    -39.6915E+06     3.56003E+06    -33.6317E+06    -156.921E-03     227.845E-03    -70.9237E-03     356.535E-03    -163.251E-03     233.903E-03    -70.7957E-03     347.160E-03
            1218     12.5298E-03     126.944E-03    -28.6417E+06     219.619E+03     14.6552E+06    -34.0505E+06    -180.179E-03     255.174E-03    -74.9950E-03     397.130E-03    -190.933E-03     265.795E-03    -74.8806E-03     382.198E-03
            1219     13.3033E-03     127.378E-03    -23.0651E+06     42.0251E+06     29.4996E+06    -29.9492E+06    -205.128E-03     284.819E-03    -79.6916E-03     438.743E-03    -222.952E-03     302.640E-03    -79.5716E-03     415.556E-03
            1220     14.0582E-03     127.875E-03    -21.4085E+06     78.2385E+06     59.2179E+06    -21.7395E+06    -226.529E-03     311.690E-03    -85.1610E-03     449.556E-03    -251.375E-03     336.584E-03    -84.9474E-03     418.337E-03
            1221     14.7962E-03     128.366E-03    -15.6952E+06     106.377E+06     88.1538E+06    -13.5669E+06    -244.331E-03     335.759E-03    -91.4278E-03     411.273E-03    -271.700E-03     363.216E-03    -91.1185E-03     375.742E-03
            1222     15.5089E-03     128.813E-03    -8.30997E+06     91.3684E+06     97.1454E+06    -9.01821E+06    -256.030E-03     354.411E-03    -98.3810E-03     287.658E-03    -274.155E-03     372.567E-03    -98.0157E-03     257.685E-03
            1223     859.760E-06     125.804E-03    -112.916E+06    -91.2369E+06    -110.734E+06     4.99859E+06    -45.9407E-03     91.6320E-03    -45.6912E-03     20.9554E-03    -46.2140E-03     91.4974E-03    -45.9489E-03     21.0298E-03
            1224     1.71981E-03     125.821E-03    -114.466E+06    -93.2927E+06    -112.111E+06     5.60517E+06    -46.6741E-03     92.5654E-03    -45.8913E-03     39.2335E-03    -46.9486E-03     92.4228E-03    -46.1506E-03     39.3226E-03
            1225     2.57848E-03     125.850E-03    -113.904E+06    -98.2175E+06    -109.554E+06     2.22654E+06    -48.3067E-03     94.5537E-03    -46.2470E-03     59.4555E-03    -48.5723E-03     94.3805E-03    -46.4872E-03     59.5057E-03
            1226     3.43635E-03     125.895E-03    -108.894E+06    -102.488E+06    -99.3945E+06    -3.34592E+06    -50.8636E-03     97.7025E-03    -46.8389E-03     80.9615E-03    -51.1119E-03     97.4861E-03    -47.0294E-03     80.9365E-03
            1227     4.29202E-03     125.959E-03    -101.152E+06    -94.9680E+06    -85.1365E+06    -7.74751E+06    -54.3782E-03     102.018E-03    -47.6396E-03     103.739E-03    -54.6245E-03     101.813E-03    -47.7809E-03     103.639E-03
            1228     5.14547E-03     126.041E-03    -91.4230E+06    -87.5992E+06    -70.4613E+06    -13.4230E+06    -58.9318E-03     107.582E-03    -48.6503E-03     127.793E-03    -59.1797E-03     107.398E-03    -48.7430E-03     127.573E-03
            1229     5.99562E-03     126.147E-03    -80.3330E+06    -81.8591E+06    -56.1155E+06    -19.1507E+06    -64.7135E-03     114.592E-03    -49.8788E-03     153.289E-03    -64.9795E-03     114.445E-03    -49.9242E-03     152.902E-03
            1230     6.84253E-03     126.276E-03    -70.5226E+06    -76.4313E+06    -42.7534E+06    -21.6950E+06    -72.0539E-03     123.405E-03    -51.3508E-03     180.363E-03    -72.3900E-03     123.344E-03    -51.3515E-03     179.773E-03
            1231     7.68447E-03     126.434E-03     -62.758E+06    -69.1918E+06    -31.0476E+06    -23.9912E+06    -81.1459E-03     134.244E-03    -53.0985E-03     208.914E-03    -81.6455E-03     134.367E-03    -53.0625E-03     208.001E-03
            1232     8.52088E-03     126.622E-03    -56.0886E+06    -57.8815E+06    -20.8931E+06    -28.0478E+06    -92.2889E-03     147.447E-03    -55.1583E-03     238.957E-03    -93.1013E-03     147.918E-03    -55.0975E-03     237.493E-03
            1233     9.35061E-03     126.844E-03    -50.8200E+06    -50.2479E+06    -12.5429E+06    -31.2136E+06    -105.889E-03     163.482E-03    -57.5927E-03     270.181E-03    -107.236E-03     164.510E-03    -57.5089E-03     267.855E-03
            1234     10.1716E-03     127.103E-03    -44.9630E+06    -43.8296E+06    -4.53271E+06    -33.8853E+06    -122.151E-03     182.619E-03    -60.4676E-03     301.521E-03    -124.383E-03     184.554E-03    -60.3615E-03     297.823E-03
            1235     10.9824E-03     127.402E-03    -36.2833E+06    -39.6522E+06     3.19525E+06    -35.2984E+06    -141.365E-03     205.214E-03    -63.8492E-03     333.687E-03    -145.051E-03     208.628E-03    -63.7231E-03     327.789E-03
            1236     11.7806E-03     127.744E-03    -27.7221E+06    -32.6723E+06     10.5361E+06    -36.2625E+06    -163.782E-03     231.572E-03    -67.7905E-03     369.467E-03    -169.994E-03     237.549E-03    -67.6503E-03     359.926E-03
            1237     12.5655E-03     128.142E-03    -23.7708E+06     1.69308E+06     18.6557E+06    -35.8682E+06    -189.331E-03     261.634E-03    -72.3025E-03     411.694E-03    -200.055E-03     272.237E-03    -72.1772E-03     396.127E-03
            1238     13.3338E-03     128.607E-03    -22.4599E+06     30.9775E+06     27.8730E+06    -27.9217E+06    -216.600E-03     294.061E-03    -77.4610E-03     454.846E-03    -234.498E-03     311.924E-03    -77.3340E-03     430.252E-03
            1239     14.0870E-03     129.140E-03    -16.9134E+06     71.7404E+06     61.5596E+06    -19.8433E+06    -240.695E-03     324.145E-03    -83.4496E-03     467.987E-03    -266.308E-03     349.795E-03    -83.2213E-03     433.537E-03
            1240     14.8127E-03     129.677E-03    -9.94194E+06     99.3200E+06     90.8889E+06    -16.8269E+06    -260.777E-03     351.077E-03    -90.3005E-03     435.203E-03    -290.314E-03     380.693E-03    -89.9756E-03     394.093E-03
            1241     15.5122E-03     130.171E-03    -3.08632E+06     73.6336E+06     97.0161E+06    -9.39573E+06    -270.059E-03     367.894E-03    -97.8346E-03     306.649E-03    -289.943E-03     387.764E-03    -97.4518E-03     272.061E-03
            1242     866.675E-06     126.834E-03    -152.922E+06     -97.378E+06    -154.207E+06     2.04468E+06    -38.9853E-03     77.4712E-03    -38.4859E-03     19.5028E-03    -39.3851E-03     77.4282E-03    -38.8940E-03     19.5413E-03
            1243     1.73205E-03     126.852E-03    -143.074E+06    -92.3150E+06    -143.434E+06    -714.219E+03    -40.5394E-03     79.5508E-03    -39.0114E-03     37.0927E-03    -40.9109E-03     79.5004E-03    -39.3873E-03     37.1048E-03
            1244     2.59622E-03     126.885E-03    -130.792E+06    -90.7613E+06    -127.964E+06    -6.05441E+06    -43.1605E-03     82.9564E-03    -39.7959E-03     57.0392E-03    -43.4918E-03     82.8706E-03    -40.1145E-03     56.9907E-03
            1245     3.45740E-03     126.934E-03    -118.622E+06    -92.3146E+06    -113.158E+06    -13.6025E+06    -46.6784E-03     87.5054E-03    -40.8270E-03     78.5969E-03    -46.9654E-03     87.3706E-03    -41.0869E-03     78.4534E-03
            1246     4.31646E-03     127.002E-03    -104.723E+06    -87.7908E+06    -96.5111E+06    -19.6164E+06    -51.0090E-03     93.0708E-03    -42.0618E-03     101.530E-03    -51.2587E-03     92.9165E-03    -42.2652E-03     101.299E-03
            1247     5.17230E-03     127.091E-03    -90.7938E+06    -76.6294E+06    -77.8729E+06    -24.4969E+06    -56.2304E-03     99.7107E-03    -43.4803E-03     125.777E-03    -56.4662E-03     99.5779E-03    -43.6269E-03     125.449E-03
            1248     6.02508E-03     127.203E-03    -79.4111E+06    -74.4952E+06    -62.3624E+06    -28.8937E+06    -62.7397E-03     107.834E-03    -45.0945E-03     151.840E-03    -62.9788E-03     107.708E-03    -45.1832E-03     151.381E-03
            1249     6.87323E-03     127.342E-03    -69.1610E+06    -73.8265E+06    -48.1905E+06    -29.4908E+06    -70.7894E-03     117.724E-03    -46.9347E-03     179.654E-03    -71.0752E-03     117.643E-03    -46.9683E-03     179.045E-03
            1250     7.71651E-03     127.509E-03    -59.5441E+06    -62.6758E+06    -33.4746E+06    -29.6955E+06    -80.5755E-03     129.604E-03    -49.0281E-03     209.181E-03    -81.0024E-03     129.695E-03    -49.0183E-03     208.310E-03
            1251     8.55382E-03     127.710E-03    -51.5920E+06    -50.6220E+06    -19.8056E+06    -31.5683E+06    -92.7187E-03     144.152E-03    -51.4331E-03     240.616E-03    -93.4257E-03     144.556E-03    -51.3839E-03     239.262E-03
            1252     9.38321E-03     127.947E-03    -43.5804E+06    -44.2156E+06    -7.71500E+06    -33.4835E+06    -107.563E-03     161.787E-03    -54.2235E-03     273.233E-03    -108.755E-03     162.693E-03    -54.1348E-03     271.069E-03
            1253     10.2037E-03     128.223E-03    -36.4581E+06    -36.6378E+06     2.82980E+06    -35.3859E+06    -125.180E-03     182.639E-03    -57.4585E-03     306.259E-03    -127.202E-03     184.398E-03    -57.3383E-03     302.759E-03
            1254     11.0130E-03     128.543E-03    -33.1020E+06    -34.5126E+06     8.40926E+06    -38.3645E+06    -145.925E-03     207.125E-03    -61.2002E-03     340.157E-03    -149.350E-03     210.294E-03    -61.0601E-03     334.433E-03
            1255     11.8097E-03     128.911E-03    -31.1536E+06    -28.1258E+06     13.2990E+06    -41.0607E+06    -170.116E-03     235.629E-03    -65.5137E-03     377.337E-03    -175.998E-03     241.273E-03    -65.3612E-03     367.865E-03
            1256     12.5905E-03     129.338E-03    -27.9599E+06    -2.88480E+06     19.8934E+06    -37.7212E+06    -198.047E-03     268.485E-03    -70.4376E-03     420.109E-03    -208.285E-03     278.569E-03    -70.2935E-03     404.350E-03
            1257     13.3561E-03     129.836E-03    -21.1886E+06     19.1599E+06     30.2403E+06    -30.1574E+06    -227.741E-03     303.796E-03    -76.0548E-03     463.280E-03    -244.970E-03     320.947E-03    -75.9007E-03     437.815E-03
            1258     14.0989E-03     130.406E-03    -15.3189E+06     63.3068E+06     62.9577E+06    -25.7286E+06    -253.011E-03     335.478E-03    -82.4668E-03     483.953E-03    -278.666E-03     361.141E-03    -82.2216E-03     447.012E-03
            1259     14.8217E-03     130.996E-03    -10.9690E+06     88.4384E+06     91.3878E+06    -18.6905E+06    -271.284E-03     360.909E-03    -89.6254E-03     464.495E-03    -302.882E-03     392.541E-03    -89.2808E-03     418.779E-03
            1260     15.5236E-03     131.542E-03    -6.79191E+06     55.6781E+06     99.7007E+06    -10.0243E+06    -280.385E-03     377.823E-03    -97.4380E-03     334.302E-03    -302.401E-03     399.746E-03    -97.0103E-03     295.314E-03
            1261     869.935E-06     127.852E-03    -156.746E+06    -91.6566E+06    -157.623E+06    -6.91959E+06    -35.3019E-03     70.0336E-03    -34.7317E-03     17.1508E-03    -35.7233E-03     70.0313E-03    -35.1597E-03     17.0687E-03
            1262     1.73905E-03     127.873E-03    -149.265E+06    -82.3755E+06    -149.585E+06    -13.4722E+06    -37.0461E-03     72.3827E-03    -35.3366E-03     33.1163E-03    -37.4541E-03     72.4018E-03    -35.7486E-03     32.9565E-03
            1263     2.60586E-03     127.910E-03    -139.370E+06    -78.9686E+06    -137.136E+06    -19.5974E+06    -39.7797E-03     75.9864E-03    -36.2067E-03     51.8519E-03    -40.1586E-03     75.9877E-03    -36.5758E-03     51.6211E-03
            1264     3.47086E-03     127.964E-03    -127.617E+06    -76.6060E+06    -123.654E+06    -27.2815E+06    -43.5407E-03     80.8710E-03    -37.3303E-03     72.7561E-03    -43.8808E-03     80.8446E-03    -37.6524E-03     72.4319E-03
            1265     4.33204E-03     128.037E-03    -115.568E+06    -75.6661E+06    -110.040E+06    -35.6778E+06    -48.2223E-03     86.9106E-03    -38.6882E-03     95.6217E-03    -48.5224E-03     86.8512E-03    -38.9612E-03     95.1871E-03
            1266     5.19007E-03     128.132E-03    -102.887E+06    -67.5740E+06    -93.7023E+06    -39.7824E+06    -53.9959E-03     94.2628E-03    -40.2668E-03     120.233E-03    -54.2748E-03     94.2089E-03    -40.4882E-03     119.725E-03
            1267     6.04384E-03     128.252E-03    -90.4695E+06    -67.1754E+06    -74.6293E+06    -41.3739E+06    -61.2033E-03     103.311E-03    -42.1073E-03     146.696E-03    -61.4726E-03     103.238E-03    -42.2518E-03     146.114E-03
            1268     6.89305E-03     128.400E-03    -77.4326E+06    -70.9228E+06    -56.1003E+06    -43.1483E+06    -69.8713E-03     114.080E-03    -44.2090E-03     174.750E-03    -70.1560E-03     114.003E-03    -44.2743E-03     174.030E-03
            1269     7.73685E-03     128.578E-03    -62.9848E+06    -61.3274E+06    -38.4146E+06    -41.9673E+06    -80.3530E-03     126.919E-03    -46.5662E-03     204.593E-03    -80.7280E-03     126.967E-03    -46.5780E-03     203.669E-03
            1270     8.57390E-03     128.791E-03    -50.9580E+06    -48.5616E+06    -19.6367E+06    -38.1682E+06    -93.2685E-03     142.526E-03    -49.2572E-03     236.600E-03    -93.8633E-03     142.827E-03    -49.2111E-03     235.326E-03
            1271     9.40296E-03     129.043E-03    -44.6006E+06    -38.4037E+06    -4.25905E+06    -37.9207E+06    -108.965E-03     161.304E-03    -52.3395E-03     270.052E-03    -109.989E-03     162.051E-03    -52.2405E-03     268.073E-03
            1272     10.2218E-03     129.338E-03    -41.0006E+06    -33.1623E+06     5.40406E+06    -38.8979E+06    -127.785E-03     183.660E-03    -55.8749E-03     304.029E-03    -129.545E-03     185.147E-03    -55.7403E-03     300.817E-03
            1273     11.0293E-03     129.679E-03    -37.1089E+06    -26.6525E+06     13.6138E+06    -39.2579E+06    -149.919E-03     209.864E-03    -59.9455E-03     338.558E-03    -152.930E-03     212.618E-03    -59.7850E-03     333.255E-03
            1274     11.8224E-03     130.073E-03    -33.2788E+06    -21.0703E+06     19.4204E+06    -41.8993E+06    -175.812E-03     240.431E-03    -64.6189E-03     375.636E-03    -181.012E-03     245.392E-03    -64.4430E-03     366.671E-03
            1275     12.6008E-03     130.529E-03    -27.1426E+06    -10.8681E+06     25.5452E+06    -41.0409E+06    -205.628E-03     275.578E-03    -69.9506E-03     418.080E-03    -214.679E-03     284.434E-03    -69.7677E-03     402.905E-03
            1276     13.3580E-03     131.063E-03    -20.5992E+06     6.71980E+06     35.7294E+06    -37.0841E+06    -235.542E-03     311.470E-03    -75.9283E-03     463.126E-03    -250.943E-03     326.733E-03    -75.7296E-03     438.397E-03
            1277     14.1005E-03     131.669E-03    -14.6845E+06     48.1191E+06     65.1767E+06    -26.8160E+06    -258.625E-03     341.094E-03    -82.4693E-03     494.844E-03    -282.431E-03     364.846E-03    -82.1919E-03     458.671E-03
            1278     14.8256E-03     132.306E-03    -10.9268E+06     80.1111E+06     96.1398E+06    -15.3028E+06    -274.153E-03     363.640E-03    -89.4867E-03     492.636E-03    -306.190E-03     395.665E-03    -89.1063E-03     445.822E-03
            1279     15.5304E-03     132.904E-03    -5.62432E+06     44.6602E+06     112.224E+06    -8.93631E+06    -288.110E-03     385.333E-03    -97.2226E-03     371.857E-03    -312.085E-03     409.154E-03    -96.7181E-03     329.736E-03
            1280     869.674E-06     128.867E-03    -122.060E+06    -73.1807E+06    -120.244E+06    -10.7434E+06    -35.6744E-03     71.1476E-03    -35.4732E-03     14.1376E-03    -36.0041E-03     71.1337E-03    -35.7913E-03     13.9981E-03
            1281     1.73803E-03     128.890E-03    -120.571E+06    -65.8784E+06    -115.369E+06    -17.6689E+06    -37.2110E-03     73.0722E-03    -35.8611E-03     27.3542E-03    -37.5514E-03     73.0845E-03    -36.1676E-03     27.1255E-03
            1282     2.60569E-03     128.930E-03    -117.898E+06    -62.1528E+06    -109.818E+06    -25.1556E+06    -39.4990E-03     76.0891E-03    -36.5900E-03     43.2959E-03    -39.8392E-03     76.1079E-03    -36.8780E-03     42.9716E-03
            1283     3.47063E-03     128.988E-03    -114.339E+06    -57.7910E+06    -103.578E+06    -33.5424E+06    -42.5924E-03     80.1314E-03    -37.5390E-03     61.6412E-03    -42.9294E-03     80.1574E-03    -37.8073E-03     61.2104E-03
            1284     4.33374E-03     129.067E-03    -110.439E+06    -56.8538E+06    -96.3098E+06    -42.2542E+06    -46.7738E-03     85.4921E-03    -38.7183E-03     82.5596E-03    -47.1033E-03     85.5069E-03    -38.9572E-03     82.0155E-03
            1285     5.19314E-03     129.168E-03    -105.062E+06    -56.0750E+06    -87.3915E+06    -49.2517E+06    -52.4383E-03     92.6037E-03    -40.1654E-03     106.255E-03    -52.7585E-03     92.6058E-03    -40.3687E-03     105.610E-03
            1286     6.04791E-03     129.296E-03    -96.3377E+06    -58.2605E+06    -75.5565E+06    -52.5976E+06    -59.7095E-03     101.637E-03    -41.9273E-03     132.478E-03    -60.0139E-03     101.613E-03    -42.0809E-03     131.759E-03
            1287     6.89706E-03     129.453E-03     -86.239E+06    -61.8219E+06    -61.9712E+06    -56.3625E+06    -68.7662E-03     112.789E-03    -44.0233E-03     160.828E-03    -69.0732E-03     112.752E-03    -44.1184E-03     159.981E-03
            1288     7.73988E-03     129.641E-03    -75.3344E+06    -61.0984E+06    -46.0593E+06    -58.2072E+06    -80.0133E-03     126.497E-03    -46.4837E-03     191.216E-03    -80.3768E-03     126.512E-03    -46.5162E-03     190.178E-03
            1289     8.57542E-03     129.867E-03    -61.8079E+06    -55.1434E+06    -26.2796E+06    -53.1970E+06    -93.6612E-03     143.016E-03    -49.3545E-03     223.254E-03    -94.1677E-03     143.186E-03    -49.3163E-03     221.958E-03
            1290     9.40237E-03     130.134E-03    -49.0751E+06    -40.2126E+06    -6.14402E+06    -43.8971E+06    -110.012E-03     162.675E-03    -52.6632E-03     256.242E-03    -110.826E-03     163.194E-03    -52.5645E-03     254.478E-03
            1291     10.2193E-03     130.447E-03    -41.3520E+06    -29.2789E+06     10.3953E+06    -39.4006E+06    -129.522E-03     185.999E-03    -56.4767E-03     289.673E-03    -130.902E-03     187.103E-03    -56.3224E-03     286.925E-03
            1292     11.0227E-03     130.810E-03    -36.7262E+06    -21.8695E+06     21.9020E+06    -39.4160E+06    -152.522E-03     213.379E-03    -60.8567E-03     323.567E-03    -154.885E-03     215.477E-03    -60.6622E-03     319.000E-03
            1293     11.8122E-03     131.228E-03    -32.0900E+06    -11.6491E+06     31.1168E+06    -41.2933E+06    -179.596E-03     245.470E-03    -65.8736E-03     360.012E-03    -183.702E-03     249.339E-03    -65.6546E-03     352.197E-03
            1294     12.5821E-03     131.713E-03    -28.7969E+06    -13.3952E+06     35.7968E+06    -43.8809E+06    -209.257E-03     280.801E-03    -71.5438E-03     401.785E-03    -216.412E-03     287.713E-03    -71.3036E-03     388.456E-03
            1295     13.3384E-03     132.276E-03    -27.3260E+06    -3.24904E+06     46.7641E+06    -40.5744E+06    -236.322E-03     314.053E-03    -77.7302E-03     446.267E-03    -248.554E-03     326.050E-03    -77.4520E-03     424.719E-03
            1296     14.0811E-03     132.910E-03    -20.8819E+06     28.5400E+06     70.9123E+06    -38.0974E+06    -253.252E-03     337.370E-03    -84.1183E-03     482.260E-03    -272.370E-03     356.319E-03    -83.7749E-03     451.259E-03
            1297     14.8177E-03     133.585E-03    -1.45213E+06     42.5603E+06     95.3861E+06    -20.5635E+06    -267.331E-03     357.951E-03    -90.6204E-03     500.719E-03    -296.248E-03     386.758E-03    -90.2031E-03     457.455E-03
            1298     15.5341E-03     134.256E-03     8.26496E+06     34.7226E+06     135.758E+06     4.79370E+06    -282.387E-03     380.220E-03    -97.8335E-03     407.230E-03    -307.267E-03     404.897E-03    -97.2171E-03     364.617E-03
            1299     864.992E-06     129.887E-03    -84.3116E+06    -52.4490E+06    -81.0574E+06    -9.15825E+06    -40.6695E-03     81.0556E-03    -40.3861E-03     10.7439E-03    -40.8996E-03     81.0327E-03    -40.5931E-03     10.6127E-03
            1300     1.73009E-03     129.912E-03    -81.9186E+06    -47.9571E+06    -74.8231E+06    -15.9329E+06    -41.8946E-03     82.7300E-03    -40.8354E-03     20.1679E-03    -42.1305E-03     82.7172E-03    -41.0212E-03     19.9381E-03
            1301     2.59302E-03     129.954E-03    -78.4753E+06    -43.3519E+06    -67.3060E+06    -23.3383E+06    -43.6854E-03     85.1901E-03    -41.5047E-03     31.8241E-03    -43.9241E-03     85.1869E-03    -41.6646E-03     31.4859E-03
            1302     3.45520E-03     130.015E-03    -75.5128E+06    -38.8398E+06    -60.1719E+06    -30.6715E+06    -46.0600E-03     88.4141E-03    -42.3540E-03     45.3643E-03    -46.3045E-03     88.4223E-03    -42.4891E-03     44.9186E-03
            1303     4.31498E-03     130.097E-03    -73.3755E+06    -37.6522E+06    -52.4809E+06    -37.5943E+06    -49.2528E-03     92.6554E-03    -43.4026E-03     61.3471E-03    -49.5044E-03     92.6604E-03    -43.5040E-03     60.7978E-03
            1304     5.17201E-03     130.204E-03    -72.7624E+06    -38.7690E+06    -47.7847E+06    -44.2490E+06    -53.5258E-03     98.1865E-03    -44.6607E-03     80.6341E-03    -53.7860E-03     98.1856E-03    -44.7379E-03     79.9836E-03
            1305     6.02543E-03     130.337E-03    -73.1960E+06    -43.9773E+06    -47.3709E+06    -50.6760E+06    -59.3292E-03     105.494E-03    -46.1648E-03     103.533E-03    -59.5948E-03     105.478E-03    -46.2318E-03     102.779E-03
            1306     6.87418E-03     130.502E-03    -72.4891E+06    -46.4391E+06    -44.8239E+06    -56.0850E+06    -67.3460E-03     115.350E-03    -48.0040E-03     129.965E-03    -67.6291E-03     115.339E-03    -48.0557E-03     129.097E-03
            1307     7.71614E-03     130.701E-03    -69.9024E+06    -50.2896E+06    -37.7524E+06    -61.9020E+06    -78.1279E-03     128.412E-03    -50.2842E-03     159.644E-03    -78.4495E-03     128.417E-03    -50.2987E-03     158.602E-03
            1308     8.54923E-03     130.939E-03    -65.4248E+06    -58.1055E+06    -30.2345E+06    -63.2464E+06    -91.9178E-03     144.986E-03    -53.0680E-03     191.567E-03    -92.3163E-03     145.035E-03    -53.0400E-03     190.298E-03
            1309     9.37222E-03     131.220E-03    -55.4346E+06    -51.4659E+06    -13.6384E+06    -57.8733E+06    -108.784E-03     165.211E-03    -56.4270E-03     224.568E-03    -109.360E-03     165.449E-03    -56.3402E-03     222.963E-03
            1310     10.1830E-03     131.550E-03    -42.6801E+06    -37.8881E+06     11.6033E+06    -46.4548E+06    -128.790E-03     189.218E-03    -60.4278E-03     257.173E-03    -129.714E-03     189.825E-03    -60.2529E-03     254.956E-03
            1311     10.9817E-03     131.931E-03    -33.3884E+06    -19.1375E+06     31.9472E+06    -39.3119E+06    -152.158E-03     217.233E-03    -65.0747E-03     288.995E-03    -153.731E-03     218.530E-03    -64.8388E-03     285.481E-03
            1312     11.7633E-03     132.373E-03    -29.4218E+06    -6.69726E+06     45.1083E+06    -36.9382E+06    -178.264E-03     248.665E-03    -70.4014E-03     322.411E-03    -180.992E-03     251.139E-03    -70.1235E-03     316.478E-03
            1313     12.5303E-03     132.884E-03    -28.7453E+06    -2.10116E+06     57.8046E+06    -37.1543E+06    -204.587E-03     280.929E-03    -76.3426E-03     359.774E-03    -209.341E-03     285.411E-03    -76.0089E-03     349.756E-03
            1314     13.2803E-03     133.466E-03    -22.2966E+06    -5.35224E+06     68.5233E+06    -37.9865E+06    -226.373E-03     308.965E-03    -82.5919E-03     400.614E-03    -234.405E-03     316.704E-03    -82.2092E-03     384.625E-03
            1315     14.0207E-03     134.117E-03    -8.82259E+06     29.3024E+06     89.2261E+06    -36.9930E+06    -236.939E-03     325.658E-03    -88.7192E-03     434.193E-03    -249.709E-03     338.244E-03    -88.3028E-03     411.274E-03
            1316     14.7652E-03     134.793E-03    -16.3246E+06    -176.040E+03     71.4511E+06    -32.4825E+06    -245.647E-03     340.065E-03    -94.4171E-03     476.027E-03    -267.119E-03     361.284E-03    -94.0359E-03     442.615E-03
            1317     15.4886E-03     135.556E-03    -21.5533E+06    -18.2340E+06     83.0194E+06    -15.7931E+06    -247.059E-03     347.010E-03    -99.9514E-03     444.305E-03    -269.648E-03     369.248E-03    -99.4786E-03     408.749E-03
            1318     857.682E-06     130.923E-03    -45.8305E+06    -34.2660E+06    -43.8910E+06    -6.93393E+06    -50.4537E-03     100.616E-03    -50.1618E-03     5.74510E-03    -50.5762E-03     100.570E-03    -50.2651E-03     5.62439E-03
            1319     1.71329E-03     130.949E-03    -44.7061E+06    -30.3222E+06    -38.8795E+06    -13.9743E+06    -51.7502E-03     102.473E-03    -50.7224E-03     10.9185E-03    -51.8833E-03     102.438E-03    -50.8080E-03     10.6752E-03
            1320     2.56867E-03     130.992E-03    -43.1650E+06    -26.8154E+06    -31.0141E+06    -19.9330E+06    -53.5378E-03     105.087E-03    -51.5492E-03     16.6391E-03    -53.6840E-03     105.059E-03    -51.6028E-03     16.2829E-03
            1321     3.42145E-03     131.055E-03    -41.8795E+06    -22.9789E+06    -23.6126E+06    -25.0107E+06    -55.4891E-03     108.050E-03    -52.5606E-03     23.3867E-03    -55.6511E-03     108.034E-03    -52.5846E-03     22.9242E-03
            1322     4.27204E-03     131.139E-03    -41.4386E+06    -21.5785E+06    -18.5396E+06    -29.9003E+06    -57.6294E-03     111.331E-03    -53.7013E-03     32.4452E-03    -57.8069E-03     111.322E-03    -53.7026E-03     31.8771E-03
            1323     5.12037E-03     131.248E-03    -41.2598E+06    -22.8613E+06    -13.9473E+06    -34.3537E+06    -60.1878E-03     115.165E-03    -54.9776E-03     44.3406E-03    -60.3806E-03     115.154E-03    -54.9544E-03     43.6728E-03
            1324     5.96618E-03     131.385E-03    -41.3551E+06    -26.4167E+06    -10.2571E+06    -39.3927E+06    -63.6630E-03     120.092E-03    -56.4291E-03     59.6142E-03    -63.8706E-03     120.072E-03    -56.3821E-03     58.8409E-03
            1325     6.80806E-03     131.553E-03    -41.9571E+06    -29.9560E+06    -8.56082E+06    -45.0245E+06    -68.7877E-03     126.918E-03    -58.1307E-03     78.8839E-03    -69.0128E-03     126.897E-03    -58.0692E-03     77.9975E-03
            1326     7.64458E-03     131.759E-03    -45.0313E+06    -32.7952E+06    -8.46272E+06    -49.0449E+06    -76.3091E-03     136.503E-03    -60.1940E-03     102.407E-03    -76.5705E-03     136.499E-03    -60.1235E-03     101.413E-03
            1327     8.47390E-03     132.006E-03    -48.6161E+06    -43.9640E+06    -10.3724E+06    -54.3342E+06    -87.0326E-03     149.778E-03    -62.7453E-03     129.882E-03    -87.3352E-03     149.771E-03    -62.6629E-03     128.722E-03
            1328     9.29265E-03     132.301E-03    -50.5534E+06    -49.3320E+06    -6.00346E+06    -59.1752E+06    -101.470E-03     167.389E-03    -65.9194E-03     160.126E-03    -101.858E-03     167.432E-03    -65.8046E-03     158.717E-03
            1329     10.0991E-03     132.644E-03    -46.8304E+06    -51.7954E+06     4.73691E+06    -56.5869E+06    -119.921E-03     189.745E-03    -69.8242E-03     190.968E-03    -120.453E-03     189.908E-03    -69.6575E-03     189.211E-03
            1330     10.8881E-03     133.044E-03    -38.6002E+06    -32.1776E+06     26.8449E+06    -46.5917E+06    -141.899E-03     216.434E-03    -74.5347E-03     221.309E-03    -142.740E-03     216.943E-03    -74.2979E-03     218.922E-03
            1331     11.6604E-03     133.504E-03    -30.8268E+06    -12.6816E+06     59.3083E+06    -36.2227E+06    -165.518E-03     245.585E-03    -80.0669E-03     251.367E-03    -166.938E-03     246.676E-03    -79.7073E-03     247.692E-03
            1332     12.4148E-03     134.027E-03    -20.4926E+06     3.74706E+06     86.1719E+06    -31.4778E+06    -187.189E-03     273.345E-03    -86.1566E-03     282.770E-03    -189.587E-03     275.428E-03    -85.7014E-03     276.775E-03
            1333     13.1588E-03     134.619E-03    -8.15552E+06     4.66893E+06     89.5388E+06    -33.7593E+06    -201.401E-03     293.743E-03    -92.3429E-03     315.021E-03    -205.370E-03     297.426E-03    -91.8902E-03     305.559E-03
            1334     13.9027E-03     135.267E-03    -12.1717E+06     19.8436E+06     88.3724E+06    -28.8372E+06    -205.252E-03     303.474E-03    -98.2224E-03     343.217E-03    -211.788E-03     309.770E-03    -97.7917E-03     329.629E-03
            1335     14.6371E-03     135.954E-03    -16.0822E+06     13.8316E+06     88.7588E+06    -12.1109E+06    -199.388E-03     302.717E-03    -103.328E-03     386.150E-03    -210.681E-03     313.721E-03    -102.881E-03     367.675E-03
            1336     15.4140E-03     136.703E-03    -5.66371E+06    -21.9518E+06     62.4597E+06    -14.6603E+06    -157.760E-03     263.961E-03    -106.201E-03     416.747E-03    -170.987E-03     276.951E-03    -105.848E-03     399.141E-03
            1337     843.776E-06     131.984E-03    -9.87655E+06    -18.9328E+06    -9.67518E+06    -4.92076E+06    -66.2288E-03     132.198E-03    -65.9689E-03     67.7873E-06    -66.2516E-03     132.117E-03    -65.9755E-03    -51.4461E-06
            1338     1.68786E-03     132.012E-03    -11.5331E+06    -15.1405E+06    -4.95824E+06    -10.0356E+06    -68.2952E-03     135.124E-03    -66.8290E-03    -1.82684E-03    -68.3422E-03     135.055E-03    -66.8151E-03    -2.07354E-03
            1339     2.52791E-03     132.058E-03    -11.1151E+06    -13.8270E+06     1.98324E+06    -14.6425E+06    -69.9714E-03     138.041E-03    -68.0694E-03    -4.34926E-03    -70.0288E-03     137.968E-03    -68.0234E-03    -4.72853E-03
            1340     3.36586E-03     132.123E-03    -9.86250E+06    -10.7533E+06     7.73046E+06    -17.8954E+06    -71.3896E-03     140.770E-03    -69.3805E-03    -5.37193E-03    -71.4554E-03     140.703E-03    -69.3119E-03    -5.87281E-03
            1341     4.20171E-03     132.208E-03    -9.51991E+06    -9.61720E+06     13.1610E+06    -20.3531E+06    -72.8608E-03     143.655E-03    -70.7938E-03    -4.83552E-03    -72.9386E-03     143.586E-03    -70.7002E-03    -5.45047E-03
            1342     5.03467E-03     132.317E-03    -10.3928E+06    -10.0962E+06     18.6050E+06    -23.2748E+06    -74.3513E-03     146.712E-03    -72.3609E-03    -2.67176E-03    -74.4471E-03     146.638E-03    -72.2382E-03    -3.40986E-03
            1343     5.86404E-03     132.453E-03    -12.3040E+06    -12.5018E+06     22.3654E+06    -26.3534E+06    -75.9533E-03     150.065E-03    -74.1117E-03     1.79101E-03    -76.0701E-03     149.982E-03    -73.9639E-03     928.091E-06
            1344     6.68958E-03     132.622E-03    -16.2711E+06    -14.9315E+06     23.8088E+06    -29.4986E+06    -77.8944E-03     153.986E-03    -76.0915E-03     9.14708E-03    -78.0425E-03     153.903E-03    -75.9272E-03     8.16261E-03
            1345     7.51036E-03     132.827E-03    -20.3374E+06    -19.6284E+06     24.8352E+06    -31.3404E+06    -80.6827E-03     159.067E-03    -78.3848E-03     19.8528E-03    -80.8625E-03     158.979E-03    -78.2027E-03     18.7701E-03
            1346     8.32454E-03     133.076E-03    -22.8072E+06    -22.2702E+06     27.9258E+06    -35.9128E+06    -84.9661E-03     166.064E-03    -81.0983E-03     34.1805E-03    -85.1801E-03     165.980E-03    -80.8933E-03     32.9615E-03
            1347     9.13072E-03     133.372E-03    -25.4456E+06    -32.2167E+06     28.0861E+06    -39.9355E+06    -91.5700E-03     175.918E-03    -84.3477E-03     52.0416E-03    -91.8106E-03     175.815E-03    -84.1237E-03     50.6791E-03
            1348     9.92454E-03     133.723E-03    -28.8157E+06    -40.2664E+06     27.7716E+06    -44.3125E+06    -101.151E-03     189.413E-03    -88.2618E-03     73.0591E-03    -101.437E-03     189.318E-03    -88.0228E-03     71.5131E-03
            1349     10.7047E-03     134.132E-03    -29.1498E+06    -43.4791E+06     38.2089E+06    -43.1821E+06    -113.328E-03     206.291E-03    -92.9628E-03     96.3974E-03    -113.697E-03     206.240E-03    -92.6664E-03     94.6527E-03
            1350     11.4677E-03     134.604E-03    -19.6135E+06    -25.8149E+06     72.6558E+06    -36.0352E+06    -127.194E-03     225.660E-03    -98.4661E-03     121.413E-03    -127.736E-03     225.785E-03    -98.0369E-03     119.333E-03
            1351     12.2138E-03     135.137E-03    -3.59764E+06    -2.48302E+06     103.036E+06    -30.2018E+06    -138.993E-03     243.464E-03    -104.471E-03     146.854E-03    -139.815E-03     243.922E-03    -103.947E-03     144.046E-03
            1352     12.9466E-03     135.723E-03    -339.393E+03     12.7241E+06     103.767E+06    -19.8452E+06    -144.473E-03     254.955E-03    -110.482E-03     172.580E-03    -145.793E-03     255.979E-03    -109.982E-03     168.670E-03
            1353     13.6683E-03     136.353E-03    -5.29815E+06     16.7469E+06     111.689E+06    -6.04306E+06    -141.929E-03     258.139E-03    -116.210E-03     196.169E-03    -144.049E-03     259.925E-03    -115.668E-03     190.959E-03
            1354     14.4084E-03     137.020E-03     21.1720E+06     14.8342E+06     132.469E+06     133.047E+03    -121.796E-03     242.569E-03    -120.773E-03     231.579E-03    -125.035E-03     245.519E-03    -120.163E-03     225.383E-03
            1355     15.1430E-03     137.693E-03     20.2430E+06     10.4136E+06     103.439E+06     5.62700E+06    -42.4464E-03     164.053E-03    -121.607E-03     253.908E-03    -45.7777E-03     167.129E-03    -121.134E-03     250.572E-03
            1356     826.758E-06     133.086E-03     23.2116E+06    -8.51022E+06     24.7007E+06    -4.25479E+06    -91.1173E-03     182.539E-03    -91.4218E-03    -12.2166E-03    -91.0653E-03     182.382E-03    -91.3196E-03    -12.3660E-03
            1357     1.64730E-03     133.119E-03     23.5456E+06    -4.69799E+06     28.7558E+06    -6.15907E+06    -91.8557E-03     183.868E-03    -92.0118E-03    -22.1372E-03    -91.8027E-03     183.727E-03    -91.8954E-03    -22.3833E-03
            1358     2.46688E-03     133.167E-03     23.3663E+06    -4.27325E+06     33.5293E+06    -8.06168E+06    -92.9285E-03     185.936E-03    -93.0075E-03    -31.5145E-03    -92.8781E-03     185.787E-03    -92.8675E-03    -31.8668E-03
            1359     3.28471E-03     133.233E-03     21.9487E+06    -3.20204E+06     38.7276E+06    -9.22997E+06    -94.6210E-03     189.021E-03    -94.3999E-03    -40.9349E-03    -94.5828E-03     188.862E-03    -94.2334E-03    -41.3925E-03
            1360     4.09863E-03     133.320E-03     20.5827E+06    -1.96183E+06     44.8511E+06    -9.75166E+06    -96.2987E-03     192.512E-03    -96.2130E-03    -51.2553E-03    -96.2720E-03     192.338E-03    -96.0158E-03    -51.8197E-03
            1361     4.90836E-03     133.429E-03     18.6567E+06    -2.27784E+06     49.8742E+06    -9.92243E+06    -97.5708E-03     195.970E-03    -98.3991E-03    -62.0786E-03    -97.5531E-03     195.772E-03    -98.1735E-03    -62.7534E-03
            1362     5.71335E-03     133.566E-03     15.7640E+06    -2.51344E+06     53.9917E+06    -10.6615E+06    -98.1645E-03     199.106E-03    -100.942E-03    -73.0605E-03    -98.1572E-03     198.881E-03    -100.691E-03    -73.8627E-03
            1363     6.51239E-03     133.731E-03     12.9552E+06    -5.61864E+06     58.2977E+06    -10.3650E+06    -97.7728E-03     201.633E-03    -103.860E-03    -83.8483E-03    -97.7701E-03     201.362E-03    -103.579E-03    -84.7678E-03
            1364     7.30449E-03     133.933E-03     11.2941E+06    -6.86220E+06     63.6316E+06    -12.3628E+06    -96.0647E-03     203.242E-03    -107.178E-03    -93.7014E-03    -96.0633E-03     202.927E-03    -106.866E-03    -94.7609E-03
            1365     8.08857E-03     134.174E-03     8.50679E+06    -8.01878E+06     68.7167E+06    -13.1146E+06    -92.8136E-03     203.744E-03    -110.931E-03    -101.586E-03    -92.8203E-03     203.388E-03    -110.588E-03    -102.756E-03
            1366     8.86245E-03     134.461E-03     5.26829E+06    -13.4146E+06     72.8948E+06    -14.7721E+06    -88.0093E-03     203.170E-03    -115.161E-03    -105.723E-03    -88.0221E-03     202.759E-03    -114.784E-03    -107.000E-03
            1367     9.62578E-03     134.800E-03     1.47812E+06    -20.3122E+06     77.2548E+06    -15.5412E+06    -81.7628E-03     201.647E-03    -119.885E-03    -103.602E-03    -81.7877E-03     201.187E-03    -119.471E-03    -104.948E-03
            1368     10.3755E-03     135.197E-03     2.85438E+06    -24.1184E+06     82.9441E+06    -20.4779E+06    -74.8881E-03     199.964E-03    -125.076E-03    -93.5734E-03    -74.9209E-03     199.487E-03    -124.630E-03    -94.9966E-03
            1369     11.1128E-03     135.650E-03     518.201E+03    -28.7723E+06     88.9184E+06    -20.6541E+06    -68.0146E-03     198.699E-03    -130.684E-03    -74.7680E-03    -68.0948E-03     198.235E-03    -130.199E-03    -76.1349E-03
            1370     11.8360E-03     136.168E-03     1.41385E+06    -5.72203E+06     100.754E+06    -26.1489E+06    -59.8904E-03     196.326E-03    -136.435E-03    -47.0966E-03    -60.0750E-03     196.047E-03    -135.925E-03    -48.4427E-03
            1371     12.5521E-03     136.732E-03    -8.28620E+06    -3.69128E+06     101.075E+06    -11.7184E+06    -51.1092E-03     193.082E-03    -141.973E-03    -14.2105E-03    -51.4257E-03     192.927E-03    -141.450E-03    -15.3167E-03
            1372     13.2739E-03     137.344E-03     3.29383E+06     3.39443E+06     124.771E+06     2.66761E+06    -40.9198E-03     187.899E-03    -146.980E-03     23.2241E-03    -41.3450E-03     187.903E-03    -146.365E-03     22.1268E-03
            1373     13.9746E-03     137.979E-03     4.74559E+06     14.3071E+06     108.898E+06    -17.4601E+06    -11.0877E-03     160.924E-03    -149.836E-03     75.0494E-03    -11.5720E-03     161.130E-03    -149.319E-03     73.8656E-03
            1374     14.7858E-03     138.597E-03    -8.38732E+06    -773.714E+03     61.9467E+06     -83.955E+03     46.6586E-03     102.211E-03    -148.870E-03     80.2681E-03     46.3566E-03     102.268E-03    -148.547E-03     79.9698E-03
            1375     15.3077E-03     68.9289E-03    -5.52815E+06     123.793E+06     96.9562E+06    -141.294E+03    -110.099E-03     221.166E-03    -111.067E-03     168.668E-03    -120.484E-03     231.690E-03    -110.753E-03     163.452E-03
            1376     14.5017E-03     68.6589E-03    -11.3700E+06     120.128E+06     98.4572E+06    -316.380E+03    -114.094E-03     225.202E-03    -111.109E-03     260.256E-03    -130.570E-03     241.779E-03    -110.774E-03     250.827E-03
            1377     13.6957E-03     68.3416E-03    -16.6677E+06     108.884E+06     89.6769E+06     180.453E+03    -118.195E-03     229.311E-03    -111.116E-03     282.946E-03    -133.933E-03     245.117E-03    -110.801E-03     270.648E-03
            1378     12.8894E-03     68.0276E-03    -22.0961E+06     95.0153E+06     65.0345E+06     455.247E+03    -118.243E-03     229.295E-03    -111.052E-03     260.941E-03    -130.226E-03     241.349E-03    -110.833E-03     248.809E-03
            1379     12.0834E-03     67.7643E-03    -26.9183E+06     77.6613E+06     31.5683E+06     226.828E+03    -116.473E-03     227.433E-03    -110.960E-03     221.417E-03    -124.468E-03     235.517E-03    -110.876E-03     211.046E-03
            1380     11.2772E-03     67.5410E-03    -30.7120E+06     39.8466E+06     11.8813E+06    -125.535E+03    -115.625E-03     226.592E-03    -110.967E-03     191.752E-03    -121.040E-03     232.005E-03    -110.921E-03     183.045E-03
            1381     10.4712E-03     67.3438E-03    -33.9221E+06    -17.0298E+06     4.93082E+06    -162.969E+03    -115.329E-03     226.388E-03    -111.058E-03     172.642E-03    -119.190E-03     230.053E-03    -110.960E-03     165.239E-03
            1382     9.66531E-03     67.1617E-03    -36.9946E+06    -63.8089E+06    -1.31609E+06     54.8094E+03    -115.224E-03     226.355E-03    -111.130E-03     158.600E-03    -118.059E-03     228.836E-03    -110.991E-03     152.271E-03
            1383     8.85972E-03     66.9939E-03    -40.2698E+06    -95.0050E+06    -4.15910E+06     58.2381E+03    -114.956E-03     226.144E-03    -111.188E-03     145.527E-03    -117.062E-03     227.781E-03    -111.013E-03     140.126E-03
            1384     8.05422E-03     66.8399E-03    -43.8912E+06    -122.618E+06    -5.73739E+06     182.985E+03    -114.537E-03     225.779E-03    -111.242E-03     132.646E-03    -116.091E-03     226.758E-03    -111.029E-03     128.066E-03
            1385     7.24874E-03     66.7000E-03    -48.2705E+06    -134.813E+06    -10.3271E+06     355.557E+03    -114.045E-03     225.304E-03    -111.259E-03     120.120E-03    -115.193E-03     225.832E-03    -111.045E-03     116.270E-03
            1386     6.44306E-03     66.5733E-03    -53.3891E+06    -150.344E+06    -17.2778E+06     441.038E+03    -113.529E-03     224.802E-03    -111.273E-03     107.631E-03    -114.362E-03     224.962E-03    -111.064E-03     104.423E-03
            1387     5.63760E-03     66.4606E-03    -58.3782E+06    -169.017E+06    -24.6792E+06    -103.340E+03    -113.042E-03     224.335E-03    -111.293E-03     94.9362E-03    -113.628E-03     224.185E-03    -111.086E-03     92.2809E-03
            1388     4.83213E-03     66.3620E-03    -62.6883E+06    -179.363E+06    -32.9012E+06    -677.468E+03    -112.605E-03     223.901E-03    -111.296E-03     82.1475E-03    -113.006E-03     223.538E-03    -111.110E-03     79.9832E-03
            1389     4.02666E-03     66.2776E-03    -66.7151E+06    -195.735E+06    -42.0296E+06    -326.385E+03    -112.226E-03     223.528E-03    -111.302E-03     69.0315E-03    -112.474E-03     222.967E-03    -111.132E-03     67.3139E-03
            1390     3.22136E-03     66.2079E-03    -71.0844E+06    -209.244E+06    -52.7389E+06     55.2497E+03    -111.871E-03     223.168E-03    -111.297E-03     55.6345E-03    -112.006E-03     222.461E-03    -111.154E-03     54.3192E-03
            1391     2.41589E-03     66.1534E-03    -75.3431E+06    -219.889E+06    -63.2680E+06     180.707E+03    -111.593E-03     222.885E-03    -111.292E-03     42.0660E-03    -111.647E-03     222.074E-03    -111.180E-03     41.1118E-03
            1392     1.61048E-03     66.1138E-03    -78.9745E+06    -226.359E+06    -72.6337E+06     290.431E+03    -111.436E-03     222.715E-03    -111.279E-03     28.5553E-03    -111.437E-03     221.842E-03    -111.199E-03     27.9297E-03
            1393     805.420E-06     66.0894E-03    -81.4639E+06    -230.997E+06    -79.9545E+06     351.244E+03    -111.308E-03     222.579E-03    -111.271E-03     15.4810E-03    -111.276E-03     221.671E-03    -111.218E-03     15.1466E-03
            1394     15.3060E-03     67.7394E-03    -5.41770E+06     123.880E+06     96.9886E+06    -198.758E+03    -110.102E-03     221.176E-03    -111.073E-03     169.126E-03    -120.569E-03     231.782E-03    -110.760E-03     163.872E-03
            1395     14.5024E-03     67.4777E-03    -11.2567E+06     120.235E+06     98.5001E+06    -475.460E+03    -114.538E-03     225.639E-03    -111.101E-03     260.682E-03    -131.062E-03     242.264E-03    -110.767E-03     251.207E-03
            1396     13.6952E-03     67.1580E-03    -16.9041E+06     108.547E+06     89.1573E+06    -234.501E+03    -117.869E-03     228.982E-03    -111.113E-03     284.292E-03    -133.602E-03     244.782E-03    -110.800E-03     272.053E-03
            1397     12.8892E-03     66.8449E-03    -22.8365E+06     94.3584E+06     64.7894E+06    -130.279E+03    -117.954E-03     229.034E-03    -111.081E-03     261.466E-03    -129.927E-03     241.073E-03    -110.860E-03     249.374E-03
            1398     12.0823E-03     66.5810E-03    -27.0943E+06     77.7141E+06     32.3671E+06     205.454E+03    -116.469E-03     227.476E-03    -111.008E-03     221.736E-03    -124.465E-03     235.559E-03    -110.919E-03     211.374E-03
            1399     11.2764E-03     66.3576E-03    -30.5065E+06     39.7502E+06     12.1656E+06     450.217E+03    -115.767E-03     226.778E-03    -111.011E-03     191.752E-03    -121.184E-03     232.192E-03    -110.964E-03     183.036E-03
            1400     10.4707E-03     66.1602E-03    -34.0375E+06    -17.0899E+06     5.13855E+06     237.951E+03    -115.594E-03     226.683E-03    -111.089E-03     172.356E-03    -119.460E-03     230.352E-03    -110.989E-03     164.932E-03
            1401     9.66531E-03     65.9783E-03    -37.4059E+06    -63.5837E+06    -1.41511E+06     295.601E+03    -115.350E-03     226.492E-03    -111.143E-03     158.334E-03    -118.187E-03     228.975E-03    -111.003E-03     152.000E-03
            1402     8.85974E-03     65.8104E-03    -40.8459E+06    -94.9946E+06    -4.96020E+06     292.318E+03    -114.946E-03     226.138E-03    -111.192E-03     145.431E-03    -117.050E-03     227.775E-03    -111.020E-03     140.037E-03
            1403     8.05407E-03     65.6565E-03    -44.8051E+06    -123.047E+06    -6.50030E+06     270.550E+03    -114.532E-03     225.780E-03    -111.248E-03     132.561E-03    -116.087E-03     226.759E-03    -111.037E-03     127.983E-03
            1404     7.24851E-03     65.5164E-03    -48.9536E+06    -134.973E+06    -10.2778E+06     612.446E+03    -114.044E-03     225.312E-03    -111.269E-03     120.000E-03    -115.194E-03     225.840E-03    -111.053E-03     116.153E-03
            1405     6.44318E-03     65.3899E-03    -52.8764E+06    -149.531E+06    -15.8643E+06     493.329E+03    -113.527E-03     224.813E-03    -111.286E-03     107.523E-03    -114.361E-03     224.975E-03    -111.072E-03     104.314E-03
            1406     5.63759E-03     65.2773E-03    -56.8878E+06    -167.642E+06    -23.3778E+06    -352.774E+03    -113.044E-03     224.348E-03    -111.304E-03     94.9202E-03    -113.627E-03     224.201E-03    -111.095E-03     92.2609E-03
            1407     4.83204E-03     65.1785E-03    -61.8398E+06    -179.935E+06    -32.8151E+06    -721.005E+03    -112.622E-03     223.928E-03    -111.306E-03     82.1067E-03    -113.018E-03     223.560E-03    -111.119E-03     79.9414E-03
            1408     4.02666E-03     65.0941E-03    -67.6501E+06    -196.811E+06    -43.7419E+06    -272.271E+03    -112.232E-03     223.538E-03    -111.306E-03     68.9421E-03    -112.481E-03     222.975E-03    -111.141E-03     67.2252E-03
            1409     3.22114E-03     65.0245E-03    -72.6551E+06    -208.909E+06    -54.4667E+06    -295.817E+03    -111.884E-03     223.181E-03    -111.298E-03     55.5862E-03    -112.024E-03     222.480E-03    -111.162E-03     54.2678E-03
            1410     2.41590E-03     64.9699E-03    -76.4899E+06    -220.331E+06    -64.1531E+06    -555.691E+03    -111.627E-03     222.916E-03    -111.289E-03     42.0905E-03    -111.684E-03     222.105E-03    -111.179E-03     41.1260E-03
            1411     1.61066E-03     64.9304E-03    -79.5220E+06    -226.684E+06    -73.0985E+06    -94.7417E+03    -111.430E-03     222.700E-03    -111.270E-03     28.6053E-03    -111.432E-03     221.827E-03    -111.192E-03     27.9736E-03
            1412     805.124E-06     64.9058E-03    -81.5736E+06    -230.430E+06    -79.3385E+06     336.028E+03    -111.317E-03     222.563E-03    -111.245E-03     15.3709E-03    -111.288E-03     221.657E-03    -111.189E-03     15.0405E-03
            1413     15.3076E-03     66.5562E-03    -4.64724E+06     124.686E+06     98.1197E+06     118.621E+03    -109.611E-03     220.687E-03    -111.076E-03     169.645E-03    -120.011E-03     231.228E-03    -110.759E-03     164.475E-03
            1414     14.5001E-03     66.2923E-03    -10.7794E+06     120.603E+06     99.0540E+06    -98.4253E+03    -114.091E-03     225.221E-03    -111.129E-03     260.014E-03    -130.550E-03     241.782E-03    -110.793E-03     250.597E-03
            1415     13.6953E-03     65.9759E-03    -17.6532E+06     107.812E+06     88.2268E+06    -492.027E+03    -117.840E-03     228.987E-03    -111.147E-03     283.684E-03    -133.573E-03     244.784E-03    -110.836E-03     271.446E-03
            1416     12.8879E-03     65.6618E-03    -22.9879E+06     94.1106E+06     63.9796E+06    -449.964E+03    -117.913E-03     229.029E-03    -111.117E-03     261.780E-03    -129.885E-03     241.069E-03    -110.900E-03     249.690E-03
            1417     12.0823E-03     65.3976E-03    -27.9715E+06     76.8516E+06     31.0860E+06    -195.333E+03    -116.745E-03     227.784E-03    -111.038E-03     221.590E-03    -124.755E-03     235.876E-03    -110.954E-03     211.179E-03
            1418     11.2762E-03     65.1744E-03    -31.7579E+06     39.4071E+06     10.9227E+06     323.655E+03    -116.002E-03     227.025E-03    -111.023E-03     191.305E-03    -121.423E-03     232.441E-03    -110.980E-03     182.564E-03
            1419     10.4708E-03     64.9758E-03    -34.6650E+06    -16.7296E+06     4.72988E+06     613.800E+03    -115.637E-03     226.727E-03    -111.090E-03     171.934E-03    -119.502E-03     230.395E-03    -110.992E-03     164.510E-03
            1420     9.66539E-03     64.7951E-03    -37.8877E+06    -63.3408E+06    -1.37674E+06     340.487E+03    -115.331E-03     226.473E-03    -111.143E-03     158.036E-03    -118.171E-03     228.958E-03    -111.003E-03     151.699E-03
            1421     8.85961E-03     64.6269E-03    -40.7938E+06    -94.9483E+06    -4.91548E+06     120.249E+03    -114.960E-03     226.150E-03    -111.190E-03     145.356E-03    -117.062E-03     227.784E-03    -111.018E-03     139.962E-03
            1422     8.05418E-03     64.4731E-03    -43.7786E+06    -123.649E+06    -5.76329E+06     542.563E+03    -114.529E-03     225.777E-03    -111.248E-03     132.423E-03    -116.079E-03     226.749E-03    -111.034E-03     127.848E-03
            1423     7.24874E-03     64.3330E-03    -47.6856E+06    -134.865E+06    -9.16011E+06     751.187E+03    -113.994E-03     225.266E-03    -111.271E-03     119.911E-03    -115.140E-03     225.790E-03    -111.052E-03     116.067E-03
            1424     6.44296E-03     64.2065E-03    -52.2842E+06    -148.401E+06    -15.1423E+06     87.0851E+03    -113.507E-03     224.797E-03    -111.290E-03     107.483E-03    -114.341E-03     224.962E-03    -111.075E-03     104.268E-03
            1425     5.63752E-03     64.0939E-03    -57.5458E+06    -167.252E+06    -23.4308E+06    -224.555E+03    -113.092E-03     224.397E-03    -111.304E-03     94.8633E-03    -113.679E-03     224.253E-03    -111.095E-03     92.2040E-03
            1426     4.83212E-03     63.9950E-03    -63.0518E+06    -180.442E+06    -33.5877E+06     29.6319E+03    -112.642E-03     223.939E-03    -111.297E-03     81.9787E-03    -113.041E-03     223.572E-03    -111.112E-03     79.8235E-03
            1427     4.02664E-03     63.9107E-03    -67.7180E+06    -196.594E+06    -43.7747E+06    -67.9668E+03    -112.224E-03     223.519E-03    -111.294E-03     68.8197E-03    -112.474E-03     222.957E-03    -111.130E-03     67.1062E-03
            1428     3.22137E-03     63.8411E-03    -72.0399E+06    -208.452E+06    -53.9838E+06    -393.622E+03    -111.877E-03     223.163E-03    -111.286E-03     55.5127E-03    -112.015E-03     222.462E-03    -111.149E-03     54.1931E-03
            1429     2.41588E-03     63.7864E-03    -76.5727E+06    -220.809E+06    -64.7544E+06    -695.997E+03    -111.632E-03     222.901E-03    -111.269E-03     42.0372E-03    -111.688E-03     222.090E-03    -111.162E-03     41.0720E-03
            1430     1.61052E-03     63.7469E-03    -80.0442E+06    -227.488E+06    -74.2218E+06    -836.590E+03    -111.449E-03     222.681E-03    -111.231E-03     28.5078E-03    -111.452E-03     221.807E-03    -111.157E-03     27.8676E-03
            1431     805.454E-06     63.7224E-03    -81.5915E+06    -230.912E+06    -80.0593E+06    -622.997E+03    -111.336E-03     222.462E-03    -111.126E-03     15.2398E-03    -111.305E-03     221.555E-03    -111.073E-03     14.8980E-03
            1432     15.3073E-03     65.3770E-03    -5.29422E+06     123.958E+06     97.3372E+06     67.6658E+03    -109.479E-03     220.556E-03    -111.077E-03     170.230E-03    -119.896E-03     231.112E-03    -110.762E-03     165.054E-03
            1433     14.5011E-03     65.1072E-03    -10.7934E+06     120.545E+06     99.0974E+06     108.454E+03    -113.743E-03     224.894E-03    -111.151E-03     260.617E-03    -130.202E-03     241.455E-03    -110.815E-03     251.247E-03
            1434     13.6943E-03     64.7935E-03    -16.4942E+06     109.051E+06     89.4704E+06    -229.958E+03    -117.893E-03     229.071E-03    -111.178E-03     282.826E-03    -133.632E-03     244.879E-03    -110.865E-03     270.574E-03
            1435     12.8882E-03     64.4794E-03    -23.1453E+06     93.9642E+06     63.5074E+06    -162.910E+03    -118.247E-03     229.372E-03    -111.125E-03     261.265E-03    -130.225E-03     241.418E-03    -110.910E-03     249.136E-03
            1436     12.0816E-03     64.2133E-03    -28.2459E+06     76.3336E+06     29.8983E+06     180.227E+03    -116.894E-03     227.920E-03    -111.025E-03     221.254E-03    -124.880E-03     235.990E-03    -110.946E-03     210.844E-03
            1437     11.2768E-03     63.9904E-03    -31.5915E+06     39.3805E+06     10.4002E+06     239.309E+03    -116.007E-03     227.011E-03    -111.004E-03     190.857E-03    -121.426E-03     232.428E-03    -110.963E-03     182.108E-03
            1438     10.4711E-03     63.7925E-03    -34.4987E+06    -17.3202E+06     4.79561E+06     370.698E+03    -115.476E-03     226.553E-03    -111.077E-03     171.846E-03    -119.333E-03     230.212E-03    -110.978E-03     164.435E-03
            1439     9.66525E-03     63.6113E-03    -37.0739E+06    -62.7593E+06     7.08344E+03     429.705E+03    -115.288E-03     226.429E-03    -111.141E-03     157.984E-03    -118.127E-03     228.913E-03    -110.996E-03     151.649E-03
            1440     8.85993E-03     63.4435E-03    -40.4012E+06    -94.3451E+06    -3.76043E+06     185.396E+03    -114.990E-03     226.177E-03    -111.186E-03     145.272E-03    -117.095E-03     227.814E-03    -111.010E-03     139.874E-03
            1441     8.05426E-03     63.2895E-03    -44.1039E+06    -124.159E+06    -6.16457E+06    -108.088E+03    -114.491E-03     225.729E-03    -111.239E-03     132.435E-03    -116.039E-03     226.698E-03    -111.025E-03     127.856E-03
            1442     7.24860E-03     63.1497E-03    -47.2282E+06    -134.994E+06    -9.76245E+06    -55.9663E+03    -113.996E-03     225.256E-03    -111.260E-03     119.880E-03    -115.138E-03     225.779E-03    -111.045E-03     116.026E-03
            1443     6.44311E-03     63.0232E-03    -50.5758E+06    -147.916E+06    -14.7333E+06     123.445E+03    -113.560E-03     224.837E-03    -111.277E-03     107.371E-03    -114.386E-03     225.001E-03    -111.063E-03     104.156E-03
            1444     5.63765E-03     62.9103E-03    -55.0538E+06    -168.157E+06    -20.9955E+06     789.238E+03    -113.117E-03     224.412E-03    -111.295E-03     94.6701E-03    -113.693E-03     224.256E-03    -111.077E-03     92.0229E-03
            1445     4.83223E-03     62.8117E-03    -60.5613E+06    -179.922E+06    -30.1500E+06     1.14319E+06    -112.628E-03     223.915E-03    -111.288E-03     81.8593E-03    -113.020E-03     223.542E-03    -111.090E-03     79.7185E-03
            1446     4.02685E-03     62.7273E-03    -66.4157E+06    -195.255E+06    -40.9915E+06     162.622E+03    -112.208E-03     223.489E-03    -111.281E-03     68.8018E-03    -112.457E-03     222.927E-03    -111.106E-03     67.0924E-03
            1447     3.22129E-03     62.6577E-03    -71.8885E+06    -208.680E+06    -52.1542E+06    -304.768E+03    -111.888E-03     223.153E-03    -111.265E-03     55.5078E-03    -112.028E-03     222.449E-03    -111.119E-03     54.1896E-03
            1448     2.41605E-03     62.6030E-03    -76.3836E+06    -220.452E+06    -64.1421E+06    -297.638E+03    -111.657E-03     222.881E-03    -111.224E-03     41.9711E-03    -111.714E-03     222.070E-03    -111.114E-03     41.0111E-03
            1449     1.61083E-03     62.5634E-03    -79.9270E+06    -228.148E+06    -75.0287E+06    -624.456E+03    -111.402E-03     222.566E-03    -111.163E-03     28.3521E-03    -111.402E-03     221.689E-03    -111.092E-03     27.7152E-03
            1450     805.360E-06     62.5391E-03    -82.4965E+06    -232.401E+06    -81.3269E+06    -581.366E+03    -111.199E-03     222.320E-03    -111.121E-03     15.3384E-03    -111.168E-03     221.409E-03    -111.071E-03     14.9947E-03
            1451     15.3066E-03     64.1906E-03    -4.73956E+06     124.193E+06     97.5476E+06     183.426E+03    -109.534E-03     220.617E-03    -111.082E-03     169.321E-03    -119.930E-03     231.154E-03    -110.768E-03     164.141E-03
            1452     14.5002E-03     63.9271E-03    -10.7643E+06     120.430E+06     98.7582E+06    -255.278E+03    -113.629E-03     224.783E-03    -111.153E-03     260.214E-03    -130.064E-03     241.320E-03    -110.818E-03     250.845E-03
            1453     13.6937E-03     63.6077E-03    -17.2941E+06     108.280E+06     88.7310E+06    -305.154E+03    -118.017E-03     229.196E-03    -111.179E-03     282.900E-03    -133.768E-03     245.013E-03    -110.868E-03     270.597E-03
            1454     12.8888E-03     63.2968E-03    -23.2724E+06     94.0485E+06     64.3152E+06     339.710E+03    -118.675E-03     229.786E-03    -111.111E-03     260.758E-03    -130.679E-03     241.854E-03    -110.892E-03     248.564E-03
            1455     12.0833E-03     63.0302E-03    -28.0578E+06     76.9306E+06     31.7868E+06     519.317E+03    -116.883E-03     227.881E-03    -110.998E-03     221.503E-03    -124.871E-03     235.950E-03    -110.910E-03     211.112E-03
            1456     11.2769E-03     62.8064E-03    -31.4794E+06     39.3345E+06     11.8374E+06     43.5437E+03    -115.705E-03     226.691E-03    -110.986E-03     190.886E-03    -121.116E-03     232.096E-03    -110.938E-03     182.165E-03
            1457     10.4711E-03     62.6096E-03    -34.1854E+06    -17.2705E+06     5.07253E+06    -269.227E+03    -115.421E-03     226.487E-03    -111.065E-03     171.912E-03    -119.277E-03     230.145E-03    -110.965E-03     164.499E-03
            1458     9.66548E-03     62.4276E-03    -36.7520E+06    -63.1203E+06    -257.041E+03    -31.9858E+03    -115.304E-03     226.432E-03    -111.128E-03     158.017E-03    -118.138E-03     228.912E-03    -110.984E-03     151.680E-03
            1459     8.85983E-03     62.2601E-03    -39.4203E+06    -94.1183E+06    -3.38235E+06     459.807E+03    -114.950E-03     226.125E-03    -111.175E-03     145.085E-03    -117.050E-03     227.761E-03    -110.998E-03     139.690E-03
            1460     8.05427E-03     62.1062E-03    -42.8909E+06    -123.335E+06    -5.85175E+06     27.7387E+03    -114.491E-03     225.716E-03    -111.226E-03     132.337E-03    -116.034E-03     226.686E-03    -111.014E-03     127.762E-03
            1461     7.24878E-03     61.9664E-03    -47.3025E+06    -135.281E+06    -10.1788E+06    -581.043E+03    -114.052E-03     225.294E-03    -111.242E-03     119.827E-03    -115.192E-03     225.816E-03    -111.029E-03     115.966E-03
            1462     6.44332E-03     61.8395E-03    -52.1677E+06    -148.634E+06    -15.2287E+06    -210.447E+03    -113.604E-03     224.856E-03    -111.253E-03     107.351E-03    -114.435E-03     225.020E-03    -111.038E-03     104.131E-03
            1463     5.63793E-03     61.7270E-03    -56.8897E+06    -169.389E+06    -21.3612E+06     334.420E+03    -113.084E-03     224.351E-03    -111.267E-03     94.6181E-03    -113.666E-03     224.192E-03    -111.046E-03     91.9662E-03
            1464     4.83237E-03     61.6282E-03    -61.2125E+06    -179.543E+06    -30.0647E+06     906.931E+03    -112.585E-03     223.843E-03    -111.258E-03     81.8295E-03    -112.981E-03     223.471E-03    -111.059E-03     79.6875E-03
            1465     4.02683E-03     61.5440E-03    -66.1019E+06    -193.695E+06    -40.1327E+06     978.086E+03    -112.203E-03     223.452E-03    -111.249E-03     68.7263E-03    -112.453E-03     222.897E-03    -111.073E-03     67.0282E-03
            1466     3.22156E-03     61.4743E-03    -71.5703E+06    -208.304E+06    -51.4225E+06     97.5243E+03    -111.886E-03     223.112E-03    -111.226E-03     55.4709E-03    -112.026E-03     222.408E-03    -111.077E-03     54.1579E-03
            1467     2.41619E-03     61.4195E-03    -76.4287E+06    -220.641E+06    -64.0182E+06    -155.767E+03    -111.597E-03     222.778E-03    -111.181E-03     42.0053E-03    -111.654E-03     221.966E-03    -111.070E-03     41.0467E-03
            1468     1.61087E-03     61.3801E-03    -80.1272E+06    -228.261E+06    -74.6845E+06     194.385E+03    -111.315E-03     222.455E-03    -111.140E-03     28.3654E-03    -111.316E-03     221.578E-03    -111.066E-03     27.7385E-03
            1469     805.368E-06     61.3564E-03    -82.9302E+06    -232.796E+06    -81.2427E+06     50.5292E+03    -111.069E-03     222.299E-03    -111.229E-03     15.4261E-03    -111.041E-03     221.386E-03    -111.178E-03     15.0898E-03
            1470     15.3078E-03     63.0078E-03    -4.68070E+06     124.527E+06     98.0573E+06     169.671E+03    -109.492E-03     220.579E-03    -111.087E-03     169.264E-03    -119.897E-03     231.125E-03    -110.770E-03     164.104E-03
            1471     14.5014E-03     62.7450E-03    -10.4193E+06     120.828E+06     99.2063E+06     344.335E+03    -113.838E-03     224.990E-03    -111.153E-03     260.793E-03    -130.354E-03     241.611E-03    -110.817E-03     251.371E-03
            1472     13.6948E-03     62.4254E-03    -18.0278E+06     107.442E+06     87.4545E+06    -13.5141E+03    -118.267E-03     229.431E-03    -111.163E-03     283.602E-03    -134.042E-03     245.269E-03    -110.856E-03     271.256E-03
            1473     12.8884E-03     62.1114E-03    -23.5674E+06     93.9053E+06     64.6592E+06    -15.2512E+03    -118.627E-03     229.726E-03    -111.099E-03     260.986E-03    -130.631E-03     241.792E-03    -110.878E-03     248.789E-03
            1474     12.0830E-03     61.8471E-03    -27.5953E+06     77.8622E+06     34.0343E+06     16.3987E+03    -116.900E-03     227.894E-03    -110.994E-03     221.669E-03    -124.912E-03     235.986E-03    -110.897E-03     211.256E-03
            1475     11.2771E-03     61.6236E-03    -30.7424E+06     39.4073E+06     12.8860E+06    -304.992E+03    -115.711E-03     226.687E-03    -110.976E-03     191.208E-03    -121.114E-03     232.083E-03    -110.924E-03     182.496E-03
            1476     10.4712E-03     61.4260E-03    -33.4147E+06    -17.2236E+06     5.02815E+06    -254.844E+03    -115.478E-03     226.526E-03    -111.048E-03     171.851E-03    -119.331E-03     230.185E-03    -110.950E-03     164.433E-03
            1477     9.66567E-03     61.2441E-03    -36.4726E+06    -63.6390E+06    -746.914E+03    -342.330E+03    -115.275E-03     226.383E-03    -111.107E-03     157.903E-03    -118.104E-03     228.858E-03    -110.966E-03     151.566E-03
            1478     8.86012E-03     61.0767E-03    -39.3856E+06    -95.1092E+06    -3.77843E+06    -197.011E+03    -114.913E-03     226.070E-03    -111.157E-03     145.006E-03    -117.009E-03     227.700E-03    -110.981E-03     139.606E-03
            1479     8.05449E-03     60.9228E-03    -42.7410E+06    -122.615E+06    -5.06245E+06     471.727E+03    -114.542E-03     225.749E-03    -111.208E-03     132.261E-03    -116.087E-03     226.722E-03    -110.993E-03     127.687E-03
            1480     7.24898E-03     60.7829E-03    -47.1935E+06    -134.703E+06    -9.13686E+06     366.736E+03    -114.075E-03     225.294E-03    -111.219E-03     119.769E-03    -115.217E-03     225.817E-03    -111.001E-03     115.921E-03
            1481     6.44346E-03     60.6561E-03    -51.8753E+06    -149.215E+06    -15.5341E+06    -30.1822E+03    -113.561E-03     224.783E-03    -111.222E-03     107.268E-03    -114.390E-03     224.942E-03    -111.008E-03     104.052E-03
            1482     5.63799E-03     60.5436E-03    -56.5934E+06    -169.774E+06    -22.0216E+06      95.544E+03    -113.071E-03     224.304E-03    -111.233E-03     94.5499E-03    -113.650E-03     224.143E-03    -111.015E-03     91.8953E-03
            1483     4.83254E-03     60.4451E-03    -61.8204E+06    -180.046E+06    -30.6130E+06     299.955E+03    -112.604E-03     223.824E-03    -111.219E-03     81.7814E-03    -113.002E-03     223.452E-03    -111.022E-03     79.6299E-03
            1484     4.02717E-03     60.3606E-03    -66.5771E+06    -193.078E+06    -41.1092E+06     358.675E+03    -112.186E-03     223.384E-03    -111.198E-03     68.6912E-03    -112.438E-03     222.834E-03    -111.027E-03     66.9848E-03
            1485     3.22166E-03     60.2911E-03    -70.9614E+06    -207.790E+06    -52.5020E+06     598.857E+03    -111.813E-03     222.987E-03    -111.174E-03     55.4461E-03    -111.949E-03     222.286E-03    -111.032E-03     54.1402E-03
            1486     2.41623E-03     60.2362E-03    -75.7598E+06    -220.893E+06    -63.9386E+06     765.545E+03    -111.478E-03     222.633E-03    -111.156E-03     41.9326E-03    -111.531E-03     221.819E-03    -111.045E-03     40.9870E-03
            1487     1.61063E-03     60.1972E-03    -79.7827E+06    -227.716E+06    -73.9532E+06     548.831E+03    -111.291E-03     222.428E-03    -111.138E-03     28.3025E-03    -111.292E-03     221.552E-03    -111.061E-03     27.6808E-03
            1488     805.390E-06     60.1728E-03    -81.9797E+06    -231.924E+06    -80.4653E+06     365.089E+03    -111.226E-03     222.302E-03    -111.076E-03     15.1898E-03    -111.195E-03     221.391E-03    -111.023E-03     14.8599E-03
            1489     15.3063E-03     61.8281E-03    -5.55888E+06     123.548E+06     96.9361E+06    -116.521E+03    -109.565E-03     220.661E-03    -111.097E-03     168.971E-03    -119.975E-03     231.210E-03    -110.783E-03     163.794E-03
            1490     14.4991E-03     61.5587E-03    -11.0917E+06     120.192E+06     98.6526E+06     144.304E+03    -114.189E-03     225.342E-03    -111.153E-03     260.792E-03    -130.709E-03     241.963E-03    -110.818E-03     251.335E-03
            1491     13.6947E-03     61.2424E-03    -16.2194E+06     109.215E+06     89.6719E+06     1.06166E+06    -118.429E-03     229.585E-03    -111.157E-03     283.537E-03    -134.167E-03     245.393E-03    -110.843E-03     271.210E-03
            1492     12.8889E-03     60.9280E-03    -22.6077E+06     94.6287E+06     64.6000E+06     248.635E+03    -118.489E-03     229.573E-03    -111.083E-03     260.830E-03    -130.465E-03     241.616E-03    -110.865E-03     248.665E-03
            1493     12.0828E-03     60.6633E-03    -27.5987E+06     77.4358E+06     31.9558E+06    -991.654E+03    -116.777E-03     227.754E-03    -110.978E-03     221.115E-03    -124.767E-03     235.829E-03    -110.890E-03     210.704E-03
            1494     11.2771E-03     60.4403E-03    -30.9319E+06     39.4884E+06     11.9284E+06    -609.640E+03    -115.870E-03     226.831E-03    -110.961E-03     191.115E-03    -121.275E-03     232.231E-03    -110.913E-03     182.387E-03
            1495     10.4716E-03     60.2422E-03    -34.1313E+06    -17.7599E+06     4.28699E+06    -311.184E+03    -115.465E-03     226.494E-03    -111.029E-03     171.910E-03    -119.321E-03     230.153E-03    -110.932E-03     164.490E-03
            1496     9.66591E-03     60.0611E-03    -37.1375E+06    -63.6656E+06    -831.125E+03    -269.540E+03    -115.219E-03     226.311E-03    -111.092E-03     158.000E-03    -118.052E-03     228.788E-03    -110.950E-03     151.667E-03
            1497     8.86013E-03     59.8932E-03    -40.8066E+06    -95.7005E+06    -3.97923E+06    -240.622E+03    -114.979E-03     226.121E-03    -111.141E-03     145.140E-03    -117.082E-03     227.750E-03    -110.963E-03     139.738E-03
            1498     8.05468E-03     59.7395E-03    -44.4871E+06    -123.108E+06    -6.12823E+06    -149.465E+03    -114.613E-03     225.792E-03    -111.179E-03     132.233E-03    -116.165E-03     226.767E-03    -110.967E-03     127.647E-03
            1499     7.24927E-03     59.5993E-03    -47.5743E+06    -134.095E+06    -9.29938E+06    -81.6030E+03    -114.062E-03     225.247E-03    -111.184E-03     119.691E-03    -115.207E-03     225.773E-03    -110.967E-03     115.837E-03
            1500     6.44379E-03     59.4729E-03    -51.4350E+06    -149.404E+06    -15.5041E+06     9.60358E+03    -113.502E-03     224.689E-03    -111.188E-03     107.198E-03    -114.327E-03     224.847E-03    -110.974E-03     103.985E-03
            1501     5.63820E-03     59.3603E-03    -56.2031E+06    -170.029E+06    -22.5390E+06     278.075E+03    -113.054E-03     224.251E-03    -111.197E-03     94.5697E-03    -113.629E-03     224.089E-03    -110.982E-03     91.9187E-03
            1502     4.83280E-03     59.2617E-03    -60.9681E+06    -180.067E+06    -30.4640E+06     219.925E+03    -112.614E-03     223.795E-03    -111.181E-03     81.7777E-03    -113.008E-03     223.422E-03    -110.984E-03     79.6240E-03
            1503     4.02728E-03     59.1775E-03     -66.231E+06    -193.362E+06    -41.3805E+06     378.550E+03    -112.153E-03     223.308E-03    -111.155E-03     68.7165E-03    -112.402E-03     222.756E-03    -110.985E-03     67.0113E-03
            1504     3.22185E-03     59.1079E-03     -71.656E+06    -207.993E+06    -52.8401E+06     781.772E+03    -111.747E-03     222.881E-03    -111.134E-03     55.4041E-03    -111.886E-03     222.180E-03    -110.993E-03     54.1019E-03
            1505     2.41628E-03     59.0534E-03    -75.8333E+06    -220.371E+06    -63.2950E+06     802.641E+03    -111.460E-03     222.577E-03    -111.117E-03     41.8516E-03    -111.515E-03     221.764E-03    -111.004E-03     40.9071E-03
            1506     1.61093E-03     59.0139E-03    -78.8587E+06    -226.861E+06    -72.9689E+06     585.736E+03    -111.268E-03     222.355E-03    -111.087E-03     28.2460E-03    -111.267E-03     221.480E-03    -111.008E-03     27.6266E-03
            1507     805.466E-06     58.9897E-03    -81.0347E+06    -230.906E+06    -79.4300E+06     274.120E+03    -111.333E-03     222.184E-03    -110.851E-03     15.1493E-03    -111.300E-03     221.276E-03    -110.796E-03     14.8173E-03
            1508     15.3066E-03     60.6406E-03    -4.95775E+06     123.943E+06     97.1645E+06    -314.158E+03    -109.682E-03     220.764E-03    -111.082E-03     168.030E-03    -120.076E-03     231.299E-03    -110.769E-03     162.830E-03
            1509     14.5027E-03     60.3792E-03    -10.9331E+06     120.284E+06     98.5680E+06     196.621E+03    -114.194E-03     225.327E-03    -111.133E-03     260.652E-03    -130.662E-03     241.897E-03    -110.798E-03     251.228E-03
            1510     13.6946E-03     60.0570E-03    -16.9408E+06     108.594E+06     89.6056E+06     681.586E+03    -118.426E-03     229.566E-03    -111.140E-03     283.616E-03    -134.137E-03     245.343E-03    -110.825E-03     271.299E-03
            1511     12.8894E-03     59.7452E-03    -22.2297E+06     95.0598E+06     65.0830E+06     212.251E+03    -118.416E-03     229.483E-03    -111.067E-03     260.621E-03    -130.407E-03     241.544E-03    -110.847E-03     248.452E-03
            1512     12.0832E-03     59.4801E-03    -27.0557E+06     77.7084E+06     31.3455E+06     48.0430E+03    -116.734E-03     227.692E-03    -110.958E-03     221.310E-03    -124.720E-03     235.767E-03    -110.874E-03     210.921E-03
            1513     11.2775E-03     59.2567E-03    -31.5818E+06     39.4442E+06     11.2203E+06    -228.699E+03    -115.809E-03     226.756E-03    -110.947E-03     191.302E-03    -121.221E-03     232.163E-03    -110.902E-03     182.579E-03
            1514     10.4715E-03     59.0590E-03    -34.8666E+06    -17.5678E+06     4.16574E+06    -647.764E+03    -115.477E-03     226.496E-03    -111.019E-03     171.947E-03    -119.336E-03     230.157E-03    -110.922E-03     164.525E-03
            1515     9.66575E-03     58.8778E-03    -37.9009E+06    -64.5907E+06    -1.57065E+06    -271.006E+03    -115.305E-03     226.380E-03    -111.075E-03     157.893E-03    -118.140E-03     228.856E-03    -110.934E-03     151.553E-03
            1516     8.86035E-03     58.7097E-03    -40.9531E+06    -95.5261E+06    -4.30057E+06     172.090E+03    -115.026E-03     226.142E-03    -111.116E-03     145.005E-03    -117.129E-03     227.773E-03    -110.939E-03     139.605E-03
            1517     8.05498E-03     58.5559E-03    -44.4084E+06    -122.522E+06    -6.80461E+06    -523.861E+03    -114.589E-03     225.735E-03    -111.146E-03     132.178E-03    -116.140E-03     226.714E-03    -110.938E-03     127.588E-03
            1518     7.24954E-03     58.4161E-03    -48.7920E+06    -135.012E+06    -10.9730E+06    -691.952E+03    -114.020E-03     225.171E-03    -111.151E-03     119.693E-03    -115.168E-03     225.698E-03    -110.939E-03     115.830E-03
            1519     6.44387E-03     58.2897E-03    -53.8405E+06    -149.863E+06    -16.4047E+06     225.421E+03    -113.475E-03     224.634E-03    -111.159E-03     107.253E-03    -114.311E-03     224.794E-03    -110.946E-03     104.044E-03
            1520     5.63841E-03     58.1771E-03    -58.8062E+06    -169.043E+06    -24.4184E+06    -304.080E+03    -113.013E-03     224.175E-03    -111.162E-03     94.6826E-03    -113.601E-03     224.024E-03    -110.954E-03     92.0271E-03
            1521     4.83284E-03     58.0784E-03    -63.2387E+06    -180.757E+06    -33.3104E+06    -941.539E+03    -112.551E-03     223.698E-03    -111.147E-03     81.8537E-03    -112.951E-03     223.328E-03    -110.959E-03     79.6878E-03
            1522     4.02745E-03     57.9943E-03    -67.2509E+06    -194.499E+06    -41.7859E+06     89.8184E+03    -112.129E-03     223.263E-03    -111.134E-03     68.7611E-03    -112.381E-03     222.707E-03    -110.964E-03     67.0519E-03
            1523     3.22187E-03     57.9248E-03    -71.1569E+06    -207.457E+06    -52.2949E+06     509.205E+03    -111.770E-03     222.878E-03    -111.108E-03     55.4342E-03    -111.908E-03     222.178E-03    -110.965E-03     54.1282E-03
            1524     2.41647E-03     57.8703E-03    -75.2050E+06    -219.963E+06    -63.1371E+06     240.965E+03    -111.473E-03     222.547E-03    -111.074E-03     41.9039E-03    -111.526E-03     221.734E-03    -110.961E-03     40.9528E-03
            1525     1.61098E-03     57.8308E-03    -78.5872E+06    -226.362E+06    -72.4795E+06     183.259E+03    -111.207E-03     222.247E-03    -111.040E-03     28.3141E-03    -111.206E-03     221.374E-03    -110.961E-03     27.6902E-03
            1526     805.463E-06     57.8070E-03    -81.0071E+06    -230.663E+06    -79.1266E+06     134.884E+03    -111.188E-03     222.098E-03    -110.910E-03     15.3528E-03    -111.155E-03     221.190E-03    -110.854E-03     15.0185E-03
            1527     15.3087E-03     59.4620E-03    -4.34840E+06     124.921E+06     98.2245E+06    -1.70266E+03    -109.994E-03     221.079E-03    -111.085E-03     169.231E-03    -120.423E-03     231.651E-03    -110.769E-03     164.014E-03
            1528     14.4992E-03     59.1925E-03    -10.5344E+06     120.854E+06     99.4046E+06     674.111E+03    -114.513E-03     225.636E-03    -111.123E-03     261.441E-03    -131.036E-03     242.262E-03    -110.786E-03     251.968E-03
            1529     13.6958E-03     58.8751E-03    -17.6910E+06     107.793E+06     88.1476E+06    -74.9486E+03    -118.282E-03     229.399E-03    -111.117E-03     283.514E-03    -134.019E-03     245.200E-03    -110.807E-03     271.185E-03
            1530     12.8889E-03     58.5609E-03    -23.1579E+06     94.1950E+06     63.9575E+06    -424.884E+03    -118.251E-03     229.306E-03    -111.055E-03     260.990E-03    -130.246E-03     241.368E-03    -110.838E-03     248.835E-03
            1531     12.0834E-03     58.2973E-03    -27.8868E+06     77.3411E+06     32.1329E+06     447.335E+03    -116.856E-03     227.813E-03    -110.957E-03     221.427E-03    -124.858E-03     235.897E-03    -110.868E-03     211.024E-03
            1532     11.2771E-03     58.0731E-03    -31.0115E+06     40.0250E+06     12.4734E+06     179.595E+03    -115.851E-03     226.788E-03    -110.938E-03     191.148E-03    -121.268E-03     232.201E-03    -110.888E-03     182.418E-03
            1533     10.4716E-03     57.8757E-03    -34.1084E+06    -17.1947E+06     4.52914E+06    -259.770E+03    -115.534E-03     226.532E-03    -110.999E-03     171.610E-03    -119.387E-03     230.190E-03    -110.902E-03     164.191E-03
            1534     9.66637E-03     57.6940E-03    -37.2377E+06    -64.9724E+06    -1.77514E+06    -295.783E+03    -115.381E-03     226.425E-03    -111.044E-03     157.672E-03    -118.211E-03     228.898E-03    -110.905E-03     151.325E-03
            1535     8.86086E-03     57.5265E-03    -39.9613E+06    -95.3218E+06    -4.49200E+06    -188.815E+03    -114.951E-03     226.032E-03    -111.080E-03     144.947E-03    -117.050E-03     227.663E-03    -110.906E-03     139.544E-03
            1536     8.05512E-03     57.3725E-03    -43.4283E+06    -122.187E+06    -6.19866E+06     86.0716E+03    -114.449E-03     225.572E-03    -111.123E-03     132.243E-03    -115.995E-03     226.548E-03    -110.914E-03     127.671E-03
            1537     7.24955E-03     57.2329E-03    -47.8147E+06    -135.634E+06    -10.3636E+06     248.454E+03    -113.972E-03     225.109E-03    -111.137E-03     119.723E-03    -115.114E-03     225.630E-03    -110.923E-03     115.875E-03
            1538     6.44407E-03     57.1065E-03    -51.5502E+06    -149.555E+06    -15.4089E+06    -196.562E+03    -113.494E-03     224.639E-03    -111.145E-03     107.333E-03    -114.321E-03     224.797E-03    -110.931E-03     104.118E-03
            1539     5.63849E-03     56.9940E-03    -55.2858E+06    -168.457E+06    -21.6038E+06    -200.996E+03    -113.000E-03     224.155E-03    -111.155E-03     94.7326E-03    -113.575E-03     223.998E-03    -110.938E-03     92.0787E-03
            1540     4.83296E-03     56.8953E-03    -60.8691E+06    -180.833E+06    -31.2205E+06    -40.0566E+03    -112.508E-03     223.651E-03    -111.143E-03     81.8808E-03    -112.899E-03     223.274E-03    -110.949E-03     79.7290E-03
            1541     4.02731E-03     56.8112E-03    -66.8592E+06    -195.224E+06    -42.4734E+06    -562.622E+03    -112.113E-03     223.239E-03    -111.126E-03     68.8059E-03    -112.361E-03     222.680E-03    -110.958E-03     67.0902E-03
            1542     3.22195E-03     56.7417E-03    -71.5518E+06    -207.771E+06    -53.1874E+06    -313.261E+03    -111.781E-03     222.879E-03    -111.099E-03     55.4995E-03    -111.918E-03     222.180E-03    -110.960E-03     54.1837E-03
            1543     2.41650E-03     56.6873E-03    -75.3060E+06    -219.611E+06    -63.2514E+06     29.7218E+03    -111.463E-03     222.529E-03    -111.066E-03     41.9451E-03    -111.516E-03     221.719E-03    -110.955E-03     40.9929E-03
            1544     1.61096E-03     56.6481E-03    -78.6723E+06    -226.468E+06    -72.7087E+06    -101.195E+03    -111.204E-03     222.237E-03    -111.033E-03     28.3131E-03    -111.203E-03     221.363E-03    -110.954E-03     27.6867E-03
            1545     805.442E-06     56.6239E-03    -81.1664E+06    -230.770E+06    -79.3107E+06        -569.462    -111.075E-03     222.081E-03    -111.006E-03     15.3222E-03    -111.043E-03     221.173E-03    -110.950E-03     14.9877E-03
            1546     15.3042E-03     58.2763E-03    -5.90140E+06     123.459E+06     96.9018E+06     53.4741E+03    -110.404E-03     221.501E-03    -111.097E-03     168.839E-03    -120.802E-03     232.036E-03    -110.783E-03     163.563E-03
            1547     14.5031E-03     58.0091E-03    -11.5295E+06     119.968E+06     98.7827E+06    -106.842E+03    -114.694E-03     225.811E-03    -111.116E-03     260.293E-03    -131.176E-03     242.391E-03    -110.780E-03     250.809E-03
            1548     13.6952E-03     57.6921E-03    -16.2343E+06     109.255E+06     89.7456E+06     155.687E+03    -118.034E-03     229.145E-03    -111.112E-03     283.463E-03    -133.796E-03     244.977E-03    -110.798E-03     271.177E-03
            1549     12.8893E-03     57.3783E-03    -22.8287E+06     94.3721E+06     63.8070E+06     600.737E+03    -118.458E-03     229.503E-03    -111.044E-03     261.045E-03    -130.450E-03     241.563E-03    -110.829E-03     248.885E-03
            1550     12.0830E-03     57.1130E-03    -27.7370E+06     77.3054E+06     31.3936E+06    -333.316E+03    -116.975E-03     227.905E-03    -110.930E-03     220.863E-03    -124.977E-03     235.993E-03    -110.845E-03     210.424E-03
            1551     11.2781E-03     56.8900E-03    -30.4760E+06     40.1671E+06     12.4279E+06    -505.728E+03    -115.888E-03     226.790E-03    -110.902E-03     190.587E-03    -121.300E-03     232.200E-03    -110.854E-03     181.840E-03
            1552     10.4723E-03     56.6922E-03    -33.2761E+06    -17.2587E+06     5.11482E+06     441.595E+03    -115.424E-03     226.389E-03    -110.964E-03     171.648E-03    -119.271E-03     230.041E-03    -110.865E-03     164.249E-03
            1553     9.66653E-03     56.5106E-03    -36.6476E+06    -64.3648E+06    -1.08258E+06     126.564E+03    -115.245E-03     226.263E-03    -111.018E-03     157.880E-03    -118.074E-03     228.736E-03    -110.877E-03     151.548E-03
            1554     8.86094E-03     56.3432E-03    -40.2425E+06    -95.5488E+06    -4.37307E+06    -455.733E+03    -114.877E-03     225.939E-03    -111.062E-03     145.081E-03    -116.976E-03     227.569E-03    -110.887E-03     139.680E-03
            1555     8.05531E-03     56.1896E-03    -43.5763E+06    -122.924E+06    -6.10908E+06     8.57563E+03    -114.381E-03     225.493E-03    -111.112E-03     132.363E-03    -115.926E-03     226.464E-03    -110.901E-03     127.798E-03
            1556     7.24962E-03     56.0496E-03    -46.6998E+06    -134.668E+06    -9.46395E+06    -115.495E+03    -113.911E-03     225.044E-03    -111.133E-03     119.868E-03    -115.050E-03     225.566E-03    -110.917E-03     116.021E-03
            1557     6.44399E-03     55.9233E-03    -50.9239E+06    -149.184E+06    -15.0375E+06    -591.951E+03    -113.476E-03     224.621E-03    -111.145E-03     107.425E-03    -114.301E-03     224.779E-03    -110.930E-03     104.206E-03
            1558     5.63851E-03     55.8108E-03    -56.4057E+06    -169.742E+06    -22.1680E+06    -55.8354E+03    -112.997E-03     224.154E-03    -111.157E-03     94.7973E-03    -113.574E-03     223.993E-03    -110.940E-03     92.1474E-03
            1559     4.83289E-03     55.7123E-03    -61.2063E+06    -180.196E+06    -31.1328E+06     430.490E+03    -112.522E-03     223.666E-03    -111.144E-03     81.9199E-03    -112.915E-03     223.292E-03    -110.950E-03     79.7767E-03
            1560     4.02744E-03     55.6281E-03    -65.7683E+06    -194.695E+06    -41.4269E+06    -36.3245E+03    -112.108E-03     223.238E-03    -111.129E-03     68.7973E-03    -112.353E-03     222.678E-03    -110.959E-03     67.0909E-03
            1561     3.22185E-03     55.5586E-03    -70.7657E+06    -208.572E+06    -52.5560E+06    -360.095E+03    -111.735E-03     222.846E-03    -111.110E-03     55.4692E-03    -111.869E-03     222.140E-03    -110.968E-03     54.1556E-03
            1562     2.41634E-03     55.5043E-03    -75.2234E+06    -219.645E+06    -63.4538E+06    -185.486E+03    -111.446E-03     222.533E-03    -111.087E-03     41.9280E-03    -111.498E-03     221.723E-03    -110.977E-03     40.9736E-03
            1563     1.61096E-03     55.4650E-03    -78.6036E+06    -226.634E+06    -72.9130E+06    -4.52239E+03    -111.239E-03     222.298E-03    -111.059E-03     28.3569E-03    -111.237E-03     221.424E-03    -110.981E-03     27.7320E-03
            1564     805.558E-06     55.4411E-03    -80.7248E+06    -230.757E+06    -79.3361E+06    -66.0051E+03    -111.112E-03     222.135E-03    -111.023E-03     15.3950E-03    -111.078E-03     221.227E-03    -110.968E-03     15.0609E-03
            1565     15.3089E-03     57.0878E-03    -5.23961E+06     123.934E+06     97.4862E+06     96.2499E+03    -109.996E-03     221.077E-03    -111.081E-03     169.200E-03    -120.422E-03     231.641E-03    -110.766E-03     163.969E-03
            1566     14.5006E-03     56.8275E-03    -10.9483E+06     120.404E+06     98.7864E+06    -609.603E+03    -114.241E-03     225.359E-03    -111.118E-03     260.507E-03    -130.790E-03     242.010E-03    -110.783E-03     251.015E-03
            1567     13.6950E-03     56.5079E-03    -17.8519E+06     107.818E+06     88.7792E+06    -212.209E+03    -118.568E-03     229.677E-03    -111.109E-03     283.579E-03    -134.401E-03     245.572E-03    -110.796E-03     271.207E-03
            1568     12.8895E-03     56.1948E-03    -22.9874E+06     94.3715E+06     64.7729E+06     53.0919E+03    -118.709E-03     229.727E-03    -111.018E-03     260.384E-03    -130.707E-03     241.791E-03    -110.798E-03     248.181E-03
            1569     12.0846E-03     55.9294E-03    -26.3046E+06     78.5155E+06     32.2764E+06    -238.619E+03    -116.762E-03     227.655E-03    -110.893E-03     221.010E-03    -124.766E-03     235.751E-03    -110.808E-03     210.588E-03
            1570     11.2783E-03     55.7066E-03    -30.5676E+06     39.3342E+06     11.6844E+06    -17.6231E+03    -115.718E-03     226.593E-03    -110.876E-03     191.172E-03    -121.123E-03     231.996E-03    -110.830E-03     182.458E-03
            1571     10.4725E-03     55.5092E-03    -34.2499E+06    -17.9448E+06     4.70207E+06     356.179E+03    -115.404E-03     226.355E-03    -110.951E-03     172.205E-03    -119.256E-03     230.008E-03    -110.852E-03     164.811E-03
            1572     9.66662E-03     55.3275E-03    -37.0731E+06    -63.4282E+06    -862.037E+03     273.635E+03    -115.160E-03     226.171E-03    -111.012E-03     158.143E-03    -117.989E-03     228.646E-03    -110.870E-03     151.827E-03
            1573     8.86089E-03     55.1599E-03    -40.1793E+06    -95.5027E+06    -4.00628E+06    -61.3798E+03    -114.825E-03     225.889E-03    -111.064E-03     145.159E-03    -116.922E-03     227.516E-03    -110.888E-03     139.772E-03
            1574     8.05527E-03     55.0065E-03    -43.7203E+06    -122.559E+06    -6.43242E+06    -573.487E+03    -114.399E-03     225.512E-03    -111.113E-03     132.478E-03    -115.944E-03     226.485E-03    -110.904E-03     127.907E-03
            1575     7.24958E-03     54.8666E-03    -47.6666E+06    -134.487E+06    -10.5080E+06    -918.190E+03    -113.914E-03     225.046E-03    -111.132E-03     120.016E-03    -115.055E-03     225.570E-03    -110.920E-03     116.165E-03
            1576     6.44395E-03     54.7400E-03    -51.9398E+06    -150.243E+06    -15.9056E+06    -379.181E+03    -113.454E-03     224.603E-03    -111.149E-03     107.396E-03    -114.279E-03     224.757E-03    -110.935E-03     104.184E-03
            1577     5.63834E-03     54.6277E-03    -56.1106E+06    -170.270E+06    -22.4506E+06    -15.1309E+03    -113.003E-03     224.165E-03    -111.162E-03     94.6964E-03    -113.577E-03     224.000E-03    -110.946E-03     92.0479E-03
            1578     4.83287E-03     54.5291E-03    -60.8190E+06    -180.321E+06    -31.2875E+06    -29.3564E+03    -112.531E-03     223.680E-03    -111.149E-03     81.8978E-03    -112.922E-03     223.306E-03    -110.956E-03     79.7489E-03
            1579     4.02736E-03     54.4450E-03    -65.8679E+06    -194.264E+06    -41.1019E+06     160.097E+03    -112.104E-03     223.241E-03    -111.138E-03     68.7964E-03    -112.350E-03     222.683E-03    -110.966E-03     67.0931E-03
            1580     3.22189E-03     54.3756E-03    -70.7685E+06    -208.481E+06    -52.4828E+06     107.141E+03    -111.716E-03     222.839E-03    -111.123E-03     55.4348E-03    -111.850E-03     222.133E-03    -110.980E-03     54.1282E-03
            1581     2.41635E-03     54.3212E-03    -75.1626E+06    -219.904E+06    -64.0641E+06    -26.4922E+03    -111.414E-03     222.524E-03    -111.110E-03     41.9184E-03    -111.465E-03     221.713E-03    -111.002E-03     40.9664E-03
            1582     1.61079E-03     54.2820E-03    -78.4358E+06    -226.694E+06    -73.1279E+06    -10.9405E+03    -111.230E-03     222.338E-03    -111.108E-03     28.3657E-03    -111.227E-03     221.464E-03    -111.032E-03     27.7386E-03
            1583     805.285E-06     54.2580E-03    -80.4406E+06    -230.562E+06    -79.1654E+06     70.8548E+03    -111.210E-03     222.268E-03    -111.059E-03     15.4143E-03    -111.174E-03     221.360E-03    -111.003E-03     15.0822E-03
            1584     15.3066E-03     55.9095E-03    -4.65641E+06     124.412E+06     98.1063E+06     268.440E+03    -109.667E-03     220.724E-03    -111.057E-03     168.478E-03    -120.047E-03     231.245E-03    -110.741E-03     163.324E-03
            1585     14.5002E-03     55.6419E-03    -10.4657E+06     120.863E+06     99.3606E+06     514.972E+03    -114.317E-03     225.417E-03    -111.100E-03     260.025E-03    -130.843E-03     242.047E-03    -110.763E-03     250.540E-03
            1586     13.6958E-03     55.3239E-03    -17.3946E+06     108.120E+06     88.6355E+06    -383.378E+03    -118.590E-03     229.665E-03    -111.075E-03     282.038E-03    -134.353E-03     245.493E-03    -110.763E-03     269.653E-03
            1587     12.8909E-03     55.0108E-03    -22.6668E+06     94.5640E+06     64.3608E+06    -1.31770E+06    -118.160E-03     229.154E-03    -110.994E-03     260.982E-03    -130.155E-03     241.218E-03    -110.777E-03     248.829E-03
            1588     12.0840E-03     54.7471E-03    -27.7186E+06     77.2685E+06     31.5512E+06    -264.508E+03    -116.601E-03     227.503E-03    -110.902E-03     222.199E-03    -124.618E-03     235.605E-03    -110.816E-03     211.808E-03
            1589     11.2777E-03     54.5233E-03    -31.4992E+06     38.8580E+06     11.5197E+06     876.492E+03    -115.798E-03     226.694E-03    -110.897E-03     191.717E-03    -121.203E-03     232.092E-03    -110.850E-03     183.023E-03
            1590     10.4720E-03     54.3256E-03    -34.3143E+06    -17.6130E+06     4.40651E+06     205.001E+03    -115.493E-03     226.460E-03    -110.967E-03     172.295E-03    -119.346E-03     230.116E-03    -110.869E-03     164.894E-03
            1591     9.66656E-03     54.1444E-03    -37.1135E+06    -63.0908E+06    -1.22656E+06    -110.900E+03    -115.228E-03     226.251E-03    -111.023E-03     158.247E-03    -118.056E-03     228.727E-03    -110.884E-03     151.927E-03
            1592     8.86081E-03     53.9768E-03    -39.8916E+06    -95.0214E+06    -4.02114E+06    -88.6381E+03    -114.835E-03     225.910E-03    -111.075E-03     145.250E-03    -116.929E-03     227.537E-03    -110.900E-03     139.868E-03
            1593     8.05504E-03     53.8233E-03    -43.3275E+06    -122.082E+06    -6.26005E+06    -415.500E+03    -114.446E-03     225.569E-03    -111.123E-03     132.467E-03    -115.990E-03     226.544E-03    -110.915E-03     127.895E-03
            1594     7.24954E-03     53.6833E-03    -47.6095E+06    -134.940E+06    -10.9394E+06    -404.897E+03    -113.984E-03     225.120E-03    -111.136E-03     119.951E-03    -115.123E-03     225.642E-03    -110.926E-03     116.105E-03
            1595     6.44396E-03     53.5570E-03    -52.2019E+06    -150.973E+06    -16.6368E+06    -509.120E+03    -113.484E-03     224.630E-03    -111.146E-03     107.348E-03    -114.308E-03     224.781E-03    -110.935E-03     104.136E-03
            1596     5.63848E-03     53.4443E-03    -57.0169E+06    -170.507E+06    -23.2333E+06    -500.240E+03    -112.998E-03     224.156E-03    -111.158E-03     94.6040E-03    -113.575E-03     223.992E-03    -110.944E-03     91.9498E-03
            1597     4.83288E-03     53.3461E-03    -61.8976E+06    -180.820E+06    -32.3899E+06     2.93888E+03    -112.495E-03     223.640E-03    -111.145E-03     81.7840E-03    -112.888E-03     223.265E-03    -110.955E-03     79.6367E-03
            1598     4.02729E-03     53.2618E-03    -66.9274E+06    -194.134E+06    -43.1230E+06     344.188E+03    -112.070E-03     223.204E-03    -111.134E-03     68.7037E-03    -112.318E-03     222.650E-03    -110.971E-03     67.0042E-03
            1599     3.22178E-03     53.1926E-03    -71.5286E+06    -208.072E+06    -53.7447E+06     66.1678E+03    -111.725E-03     222.849E-03    -111.124E-03     55.3371E-03    -111.861E-03     222.148E-03    -110.987E-03     54.0282E-03
            1600     2.41626E-03     53.1383E-03    -75.4319E+06    -219.900E+06    -63.7265E+06    -67.1409E+03    -111.413E-03     222.532E-03    -111.119E-03     41.8245E-03    -111.466E-03     221.721E-03    -111.009E-03     40.8706E-03
            1601     1.61079E-03     53.0990E-03    -78.8978E+06    -226.606E+06    -72.8235E+06    -10.7296E+03    -111.217E-03     222.340E-03    -111.123E-03     28.3426E-03    -111.217E-03     221.467E-03    -111.044E-03     27.7160E-03
            1602     805.422E-06     53.0748E-03    -81.0358E+06    -230.644E+06    -79.3879E+06    -135.409E+03    -111.228E-03     222.301E-03    -111.073E-03     15.4044E-03    -111.195E-03     221.393E-03    -111.018E-03     15.0691E-03
            1603     15.3086E-03     54.7290E-03    -6.27554E+06     122.942E+06     96.2911E+06    -554.961E+03    -110.366E-03     221.394E-03    -111.028E-03     168.089E-03    -120.817E-03     231.981E-03    -110.716E-03     162.800E-03
            1604     14.5032E-03     54.4569E-03    -11.1774E+06     120.347E+06     99.1213E+06    -53.5568E+03    -114.445E-03     225.500E-03    -111.055E-03     260.799E-03    -130.948E-03     242.103E-03    -110.717E-03     251.384E-03
            1605     13.6976E-03     54.1411E-03    -15.0544E+06     110.219E+06     90.9213E+06     335.199E+03    -117.639E-03     228.710E-03    -111.071E-03     283.516E-03    -133.319E-03     244.465E-03    -110.755E-03     271.324E-03
            1606     12.8890E-03     53.8293E-03    -22.3059E+06     94.6332E+06     63.5479E+06     373.842E+03    -118.078E-03     229.106E-03    -111.028E-03     262.186E-03    -130.099E-03     241.199E-03    -110.815E-03     250.058E-03
            1607     12.0827E-03     53.5627E-03    -28.3246E+06     76.4794E+06     30.3266E+06     412.446E+03    -116.908E-03     227.845E-03    -110.937E-03     222.077E-03    -124.914E-03     235.934E-03    -110.855E-03     211.679E-03
            1608     11.2778E-03     53.3399E-03    -31.5625E+06     39.4616E+06     11.6982E+06     129.884E+03    -115.940E-03     226.860E-03    -110.920E-03     191.272E-03    -121.345E-03     232.260E-03    -110.873E-03     182.555E-03
            1609     10.4719E-03     53.1422E-03    -34.1333E+06    -17.0568E+06     4.34692E+06    -99.5367E+03    -115.484E-03     226.467E-03    -110.983E-03     172.094E-03    -119.333E-03     230.122E-03    -110.887E-03     164.693E-03
            1610     9.66617E-03     52.9609E-03    -36.8935E+06    -63.1444E+06    -1.32570E+06    -258.018E+03    -115.257E-03     226.296E-03    -111.039E-03     158.050E-03    -118.082E-03     228.770E-03    -110.901E-03     151.728E-03
            1611     8.86059E-03     52.7937E-03    -39.9405E+06    -95.0789E+06    -4.16544E+06    -483.188E+03    -114.947E-03     226.032E-03    -111.086E-03     145.110E-03    -117.041E-03     227.659E-03    -110.911E-03     139.716E-03
            1612     8.05511E-03     52.6399E-03    -43.3710E+06    -122.573E+06    -6.18509E+06    -304.402E+03    -114.523E-03     225.649E-03    -111.126E-03     132.290E-03    -116.067E-03     226.621E-03    -110.916E-03     127.715E-03
            1613     7.24953E-03     52.5001E-03    -47.2328E+06    -134.973E+06    -10.7718E+06     98.4172E+03    -114.013E-03     225.143E-03    -111.130E-03     119.747E-03    -115.149E-03     225.663E-03    -110.920E-03     115.906E-03
            1614     6.44401E-03     52.3736E-03    -51.8276E+06    -150.614E+06    -17.0062E+06     217.777E+03    -113.504E-03     224.637E-03    -111.133E-03     107.198E-03    -114.325E-03     224.788E-03    -110.925E-03     103.997E-03
            1615     5.63843E-03     52.2613E-03    -57.1003E+06    -170.740E+06    -23.5944E+06     19.1722E+03    -113.003E-03     224.144E-03    -111.141E-03     94.4450E-03    -113.578E-03     223.979E-03    -110.929E-03     91.7984E-03
            1616     4.83295E-03     52.1629E-03    -62.3095E+06    -181.259E+06    -31.8605E+06    -61.9005E+03    -112.488E-03     223.619E-03    -111.130E-03     81.5922E-03    -112.883E-03     223.241E-03    -110.936E-03     79.4436E-03
            1617     4.02741E-03     52.0789E-03    -66.7616E+06    -193.868E+06    -42.1303E+06    -81.6876E+03    -112.031E-03     223.149E-03    -111.119E-03     68.5473E-03    -112.280E-03     222.595E-03    -110.951E-03     66.8424E-03
            1618     3.22183E-03     52.0094E-03    -71.0189E+06    -207.929E+06    -53.0742E+06    -106.683E+03    -111.681E-03     222.792E-03    -111.112E-03     55.2353E-03    -111.815E-03     222.090E-03    -110.972E-03     53.9246E-03
            1619     2.41643E-03     51.9552E-03    -75.3183E+06    -220.013E+06    -63.0893E+06    -108.154E+03    -111.425E-03     222.531E-03    -111.106E-03     41.7685E-03    -111.478E-03     221.718E-03    -110.993E-03     40.8133E-03
            1620     1.61086E-03     51.9161E-03    -78.9514E+06    -226.472E+06    -72.7416E+06    -163.889E+03    -111.231E-03     222.321E-03    -111.090E-03     28.3836E-03    -111.231E-03     221.448E-03    -111.011E-03     27.7567E-03
            1621     805.357E-06     51.8914E-03    -81.6146E+06    -231.082E+06    -79.8959E+06    -69.6970E+03    -111.178E-03     222.210E-03    -111.031E-03     15.4121E-03    -111.147E-03     221.302E-03    -110.977E-03     15.0772E-03
            1622     15.3068E-03     53.5376E-03    -4.94953E+06     124.354E+06     97.7556E+06    -354.863E+03    -110.018E-03     221.062E-03    -111.044E-03     169.758E-03    -120.475E-03     231.659E-03    -110.728E-03     164.540E-03
            1623     14.5031E-03     53.2768E-03    -11.1058E+06     120.118E+06     98.5923E+06    -880.942E+03    -113.883E-03     224.983E-03    -111.099E-03     262.128E-03    -130.370E-03     241.570E-03    -110.764E-03     252.776E-03
            1624     13.6929E-03     52.9582E-03    -18.0475E+06     107.276E+06     88.0524E+06    -504.104E+03    -117.966E-03     229.100E-03    -111.134E-03     284.875E-03    -133.712E-03     244.907E-03    -110.823E-03     272.612E-03
            1625     12.8887E-03     52.6448E-03    -22.9471E+06     94.3137E+06     64.6731E+06     767.791E+03    -118.783E-03     229.859E-03    -111.076E-03     261.269E-03    -130.805E-03     241.947E-03    -110.856E-03     249.058E-03
            1626     12.0839E-03     52.3795E-03    -27.0830E+06     77.8007E+06     32.4521E+06     932.423E+03    -117.064E-03     228.016E-03    -110.952E-03     221.400E-03    -125.066E-03     236.103E-03    -110.863E-03     210.989E-03
            1627     11.2774E-03     52.1562E-03    -30.9243E+06     40.0182E+06     12.0741E+06     44.9306E+03    -115.879E-03     226.801E-03    -110.922E-03     190.971E-03    -121.284E-03     232.203E-03    -110.875E-03     182.252E-03
            1628     10.4719E-03     51.9589E-03    -34.0909E+06    -16.6302E+06     4.56410E+06    -365.400E+03    -115.491E-03     226.476E-03    -110.985E-03     171.731E-03    -119.337E-03     230.128E-03    -110.888E-03     164.327E-03
            1629     9.66624E-03     51.7777E-03    -37.0145E+06    -63.3330E+06    -1.48823E+06    -443.224E+03    -115.271E-03     226.307E-03    -111.036E-03     157.732E-03    -118.093E-03     228.778E-03    -110.898E-03     151.406E-03
            1630     8.86069E-03     51.6101E-03    -40.3413E+06    -95.5050E+06    -4.60396E+06    -314.257E+03    -114.995E-03     226.071E-03    -111.076E-03     144.838E-03    -117.089E-03     227.696E-03    -110.902E-03     139.442E-03
            1631     8.05523E-03     51.4567E-03    -44.1399E+06    -122.752E+06    -6.61535E+06    -328.558E+03    -114.571E-03     225.679E-03    -111.109E-03     132.059E-03    -116.116E-03     226.652E-03    -110.900E-03     127.481E-03
            1632     7.24976E-03     51.3168E-03    -48.1374E+06    -135.309E+06    -10.8375E+06    -59.0923E+03    -114.030E-03     225.139E-03    -111.108E-03     119.536E-03    -115.169E-03     225.658E-03    -110.896E-03     115.693E-03
            1633     6.44417E-03     51.1905E-03    -52.2337E+06    -150.667E+06    -16.6673E+06     390.626E+03    -113.497E-03     224.603E-03    -111.106E-03     106.970E-03    -114.319E-03     224.753E-03    -110.895E-03     103.772E-03
            1634     5.63873E-03     51.0781E-03    -56.5960E+06    -170.258E+06    -22.7867E+06     421.927E+03    -112.983E-03     224.094E-03    -111.111E-03     94.2312E-03    -113.556E-03     223.928E-03    -110.896E-03     91.5910E-03
            1635     4.83317E-03     50.9799E-03    -61.3769E+06    -180.812E+06    -30.5139E+06    -79.9949E+03    -112.470E-03     223.568E-03    -111.098E-03     81.4395E-03    -112.862E-03     223.189E-03    -110.899E-03     79.2910E-03
            1636     4.02760E-03     50.8959E-03    -66.7004E+06    -194.042E+06    -41.4741E+06    -259.225E+03    -112.005E-03     223.086E-03    -111.081E-03     68.4392E-03    -112.254E-03     222.530E-03    -110.910E-03     66.7323E-03
            1637     3.22200E-03     50.8266E-03    -71.9493E+06    -207.794E+06    -53.0199E+06    -199.882E+03    -111.624E-03     222.695E-03    -111.071E-03     55.1672E-03    -111.763E-03     221.995E-03    -110.930E-03     53.8579E-03
            1638     2.41628E-03     50.7722E-03    -76.2698E+06    -220.216E+06    -63.6058E+06    -549.237E+03    -111.409E-03     222.466E-03    -111.057E-03     41.7115E-03    -111.465E-03     221.654E-03    -110.946E-03     40.7523E-03
            1639     1.61097E-03     50.7329E-03    -79.6263E+06    -227.020E+06    -73.1233E+06    -436.316E+03    -111.246E-03     222.259E-03    -111.013E-03     28.2193E-03    -111.248E-03     221.384E-03    -110.934E-03     27.5881E-03
            1640     805.528E-06     50.7087E-03    -82.0020E+06    -231.323E+06    -79.8816E+06    -23.2367E+03    -111.092E-03     222.004E-03    -110.912E-03     15.2990E-03    -111.063E-03     221.095E-03    -110.857E-03     14.9648E-03
            1641     15.3084E-03     52.3566E-03    -4.75620E+06     124.329E+06     97.9632E+06     195.513E+03    -109.081E-03     220.165E-03    -111.084E-03     169.463E-03    -119.398E-03     230.622E-03    -110.768E-03     164.383E-03
            1642     14.4975E-03     52.0934E-03    -10.9164E+06     120.079E+06     98.5995E+06     187.817E+03    -113.974E-03     225.134E-03    -111.160E-03     260.345E-03    -130.367E-03     241.628E-03    -110.825E-03     250.956E-03
            1643     13.6952E-03     51.7740E-03    -17.5742E+06     107.698E+06     88.0924E+06    -428.289E+03    -118.705E-03     229.862E-03    -111.157E-03     283.047E-03    -134.468E-03     245.689E-03    -110.847E-03     270.642E-03
            1644     12.8894E-03     51.4604E-03    -23.6843E+06     93.6392E+06     64.1613E+06    -401.698E+03    -118.730E-03     229.797E-03    -111.067E-03     260.658E-03    -130.723E-03     241.852E-03    -110.848E-03     248.454E-03
            1645     12.0830E-03     51.1961E-03    -28.1338E+06     76.9831E+06     32.0832E+06    -154.942E+03    -117.016E-03     227.959E-03    -110.944E-03     221.277E-03    -125.034E-03     236.058E-03    -110.854E-03     210.840E-03
            1646     11.2779E-03     50.9727E-03    -30.8991E+06     40.5423E+06     12.5238E+06     123.412E+03    -115.936E-03     226.848E-03    -110.911E-03     190.783E-03    -121.341E-03     232.250E-03    -110.863E-03     182.060E-03
            1647     10.4721E-03     50.7755E-03    -33.9001E+06    -15.9376E+06     4.73720E+06    -158.208E+03    -115.521E-03     226.487E-03    -110.966E-03     171.424E-03    -119.365E-03     230.140E-03    -110.870E-03     164.019E-03
            1648     9.66656E-03     50.5943E-03    -37.1005E+06    -63.7726E+06    -1.69696E+06    -262.474E+03    -115.301E-03     226.312E-03    -111.012E-03     157.566E-03    -118.122E-03     228.781E-03    -110.874E-03     151.240E-03
            1649     8.86098E-03     50.4269E-03    -40.4474E+06    -95.4161E+06    -4.40173E+06    -5.81598E+03    -115.000E-03     226.049E-03    -111.048E-03     144.718E-03    -117.093E-03     227.672E-03    -110.873E-03     139.328E-03
            1650     8.05545E-03     50.2732E-03    -44.1728E+06    -123.038E+06    -6.12744E+06     106.873E+03    -114.589E-03     225.666E-03    -111.077E-03     131.789E-03    -116.134E-03     226.635E-03    -110.865E-03     127.215E-03
            1651     7.25001E-03     50.1337E-03    -48.6416E+06    -135.595E+06    -10.2635E+06     253.757E+03    -114.028E-03     225.099E-03    -111.070E-03     119.258E-03    -115.169E-03     225.615E-03    -110.854E-03     115.418E-03
            1652     6.44456E-03     50.0073E-03    -53.5659E+06    -150.844E+06    -16.7418E+06     240.859E+03    -113.453E-03     224.515E-03    -111.061E-03     106.811E-03    -114.280E-03     224.665E-03    -110.849E-03     103.615E-03
            1653     5.63896E-03     49.8952E-03    -58.4924E+06    -169.441E+06    -24.4257E+06    -112.168E+03    -112.928E-03     223.984E-03    -111.056E-03     94.1343E-03    -113.509E-03     223.827E-03    -110.848E-03     91.4912E-03
            1654     4.83336E-03     49.7969E-03    -63.1973E+06    -180.263E+06    -32.7612E+06    -646.306E+03    -112.436E-03     223.474E-03    -111.037E-03     81.3200E-03    -112.835E-03     223.103E-03    -110.848E-03     79.1669E-03
            1655     4.02777E-03     49.7131E-03    -67.5709E+06    -194.992E+06    -42.2181E+06    -606.319E+03    -112.004E-03     223.023E-03    -111.019E-03     68.2500E-03    -112.255E-03     222.464E-03    -110.850E-03     66.5387E-03
            1656     3.22218E-03     49.6438E-03    -71.8456E+06    -207.344E+06    -52.6959E+06    -468.926E+03    -111.634E-03     222.626E-03    -110.992E-03     54.9852E-03    -111.774E-03     221.927E-03    -110.851E-03     53.6727E-03
            1657     2.41677E-03     49.5894E-03    -76.4006E+06    -220.248E+06    -63.9745E+06    -617.832E+03    -111.355E-03     222.311E-03    -110.956E-03     41.5930E-03    -111.411E-03     221.500E-03    -110.846E-03     40.6351E-03
            1658     1.61117E-03     49.5499E-03    -80.2070E+06    -228.010E+06    -74.5397E+06    -578.759E+03    -111.128E-03     222.031E-03    -110.902E-03     28.1181E-03    -111.130E-03     221.154E-03    -110.828E-03     27.4863E-03
            1659     805.737E-06     49.5261E-03    -82.2055E+06    -231.959E+06    -80.5820E+06    -452.910E+03    -110.981E-03     221.796E-03    -110.815E-03     15.3027E-03    -110.951E-03     220.886E-03    -110.763E-03     14.9597E-03
            1660     15.3052E-03     51.1776E-03    -5.05128E+06     123.928E+06     97.1308E+06     139.574E+03    -109.835E-03     220.929E-03    -111.094E-03     168.709E-03    -120.204E-03     231.439E-03    -110.781E-03     163.468E-03
            1661     14.5026E-03     50.9080E-03    -10.5675E+06     120.666E+06     99.0529E+06    -233.876E+03    -114.618E-03     225.749E-03    -111.131E-03     260.175E-03    -131.070E-03     242.305E-03    -110.796E-03     250.662E-03
            1662     13.6954E-03     50.5907E-03    -16.7349E+06     108.485E+06     89.3096E+06     310.718E+03    -118.372E-03     229.489E-03    -111.117E-03     282.678E-03    -134.104E-03     245.288E-03    -110.803E-03     270.355E-03
            1663     12.8889E-03     50.2772E-03    -23.1711E+06     93.8394E+06     63.6052E+06     321.996E+03    -118.521E-03     229.556E-03    -111.035E-03     260.860E-03    -130.503E-03     241.604E-03    -110.819E-03     248.694E-03
            1664     12.0838E-03     50.0120E-03    -27.9422E+06     76.9104E+06     30.8990E+06    -595.213E+03    -116.976E-03     227.890E-03    -110.914E-03     220.702E-03    -124.980E-03     235.978E-03    -110.831E-03     210.258E-03
            1665     11.2779E-03     49.7893E-03    -31.2994E+06     39.9885E+06     11.8120E+06    -709.698E+03    -115.896E-03     226.780E-03    -110.884E-03     190.478E-03    -121.295E-03     232.175E-03    -110.837E-03     181.749E-03
            1666     10.4724E-03     49.5920E-03    -34.0606E+06    -16.2391E+06      5.0947E+06    -23.6136E+03    -115.530E-03     226.470E-03    -110.941E-03     171.370E-03    -119.376E-03     230.123E-03    -110.842E-03     163.963E-03
            1667     9.66684E-03     49.4111E-03    -37.4210E+06    -63.7201E+06    -1.06367E+06     339.408E+03    -115.365E-03     226.347E-03    -110.981E-03     157.439E-03    -118.189E-03     228.815E-03    -110.840E-03     151.116E-03
            1668     8.86132E-03     49.2434E-03    -41.0526E+06    -95.3858E+06    -4.06291E+06     155.218E+03    -115.052E-03     226.060E-03    -111.007E-03     144.580E-03    -117.147E-03     227.682E-03    -110.830E-03     139.192E-03
            1669     8.05597E-03     49.0899E-03    -44.8559E+06    -123.306E+06    -6.00813E+06     182.808E+03    -114.578E-03     225.605E-03    -111.027E-03     131.580E-03    -116.124E-03     226.572E-03    -110.814E-03     127.010E-03
            1670     7.25054E-03     48.9505E-03    -48.7166E+06    -135.698E+06    -10.4339E+06     476.439E+03    -113.988E-03     225.001E-03    -111.014E-03     119.031E-03    -115.126E-03     225.515E-03    -110.798E-03     115.199E-03
            1671     6.44485E-03     48.8244E-03    -52.7878E+06    -150.545E+06    -16.7289E+06     425.270E+03    -113.409E-03     224.409E-03    -111.001E-03     106.610E-03    -114.231E-03     224.558E-03    -110.790E-03     103.419E-03
            1672     5.63928E-03     48.7122E-03    -57.1197E+06    -168.436E+06    -23.9560E+06    -225.451E+03    -112.903E-03     223.894E-03    -110.991E-03     93.9486E-03    -113.478E-03     223.738E-03    -110.784E-03     91.3064E-03
            1673     4.83371E-03     48.6141E-03    -61.9698E+06    -180.128E+06    -32.2868E+06    -660.170E+03    -112.436E-03     223.400E-03    -110.964E-03     81.1019E-03    -112.828E-03     223.027E-03    -110.775E-03     78.9499E-03
            1674     4.02818E-03     48.5303E-03    -67.3271E+06    -195.468E+06    -41.9104E+06    -858.546E+03    -111.991E-03     222.924E-03    -110.933E-03     68.0476E-03    -112.239E-03     222.361E-03    -110.762E-03     66.3344E-03
            1675     3.22266E-03     48.4611E-03    -72.5420E+06    -207.517E+06    -53.1402E+06    -917.988E+03    -111.568E-03     222.458E-03    -110.890E-03     54.9272E-03    -111.709E-03     221.759E-03    -110.750E-03     53.6119E-03
            1676     2.41699E-03     48.4067E-03    -76.8081E+06    -220.822E+06    -65.2051E+06    -459.634E+03    -111.211E-03     222.065E-03    -110.853E-03     41.6799E-03    -111.267E-03     221.252E-03    -110.748E-03     40.7281E-03
            1677     1.61135E-03     48.3675E-03    -79.8391E+06    -228.448E+06    -75.3903E+06    -94.7113E+03    -110.953E-03     221.793E-03    -110.839E-03     28.2520E-03    -110.951E-03     220.915E-03    -110.769E-03     27.6288E-03
            1678     805.449E-06     48.3435E-03    -82.2601E+06    -232.577E+06    -81.3046E+06    -62.0279E+03    -110.950E-03     221.740E-03    -110.790E-03     15.3667E-03    -110.918E-03     220.827E-03    -110.740E-03     15.0288E-03
            1679     15.3080E-03     49.9916E-03    -4.95752E+06     124.323E+06     97.5268E+06     159.995E+03    -110.440E-03     221.513E-03    -111.073E-03     168.040E-03    -120.855E-03     232.069E-03    -110.758E-03     162.757E-03
            1680     14.5009E-03     49.7240E-03    -10.9365E+06     120.293E+06     98.5562E+06    -28.9403E+03    -114.400E-03     225.496E-03    -111.096E-03     260.910E-03    -130.898E-03     242.097E-03    -110.762E-03     251.425E-03
            1681     13.6955E-03     49.4083E-03    -17.3710E+06     107.841E+06     88.6580E+06     34.1013E+03    -118.358E-03     229.450E-03    -111.092E-03     283.336E-03    -134.092E-03     245.248E-03    -110.780E-03     271.008E-03
            1682     12.8902E-03     49.0933E-03    -22.4893E+06     94.7532E+06     65.4158E+06     1.54875E+03    -118.701E-03     229.715E-03    -111.014E-03     260.989E-03    -130.707E-03     241.788E-03    -110.792E-03     248.781E-03
            1683     12.0842E-03     48.8287E-03    -27.0714E+06     77.7631E+06     32.2300E+06    -82.2106E+03    -116.907E-03     227.794E-03    -110.887E-03     220.865E-03    -124.903E-03     235.877E-03    -110.800E-03     210.444E-03
            1684     11.2785E-03     48.6062E-03    -31.0761E+06     39.7789E+06     11.9319E+06    -257.267E+03    -115.893E-03     226.748E-03    -110.854E-03     190.516E-03    -121.290E-03     232.140E-03    -110.807E-03     181.795E-03
            1685     10.4727E-03     48.4085E-03    -34.7503E+06    -17.1937E+06     5.29324E+06    -134.184E+03    -115.599E-03     226.508E-03    -110.909E-03     171.255E-03    -119.445E-03     230.154E-03    -110.807E-03     163.845E-03
            1686     9.66723E-03     48.2276E-03    -37.8070E+06    -63.9036E+06    -1.08815E+06     388.473E+03    -115.465E-03     226.401E-03    -110.936E-03     157.180E-03    -118.289E-03     228.866E-03    -110.794E-03     150.853E-03
            1687     8.86195E-03     48.0601E-03    -40.8467E+06    -95.1589E+06    -4.43400E+06     522.218E+03    -115.076E-03     226.022E-03    -110.946E-03     144.296E-03    -117.167E-03     227.644E-03    -110.771E-03     138.912E-03
            1688     8.05641E-03     47.9067E-03    -44.4744E+06    -123.113E+06    -6.11136E+06     335.625E+03    -114.527E-03     225.488E-03    -110.962E-03     131.356E-03    -116.067E-03     226.451E-03    -110.749E-03     126.796E-03
            1689     7.25087E-03     47.7674E-03    -48.5894E+06    -135.839E+06    -10.4610E+06     255.771E+03    -113.962E-03     224.907E-03    -110.945E-03     118.771E-03    -115.097E-03     225.417E-03    -110.730E-03     114.939E-03
            1690     6.44541E-03     47.6416E-03    -52.8732E+06    -149.858E+06    -16.4053E+06     2.16315E+03    -113.395E-03     224.319E-03    -110.924E-03     106.338E-03    -114.217E-03     224.469E-03    -110.712E-03     103.144E-03
            1691     5.63980E-03     47.5294E-03    -57.3709E+06    -167.619E+06    -23.6908E+06    -498.619E+03    -112.850E-03     223.756E-03    -110.906E-03     93.7683E-03    -113.426E-03     223.602E-03    -110.698E-03     91.1281E-03
            1692     4.83421E-03     47.4313E-03    -61.9753E+06    -180.287E+06    -32.8201E+06    -746.678E+03    -112.355E-03     223.227E-03    -110.873E-03     81.0412E-03    -112.745E-03     222.852E-03    -110.685E-03     78.8949E-03
            1693     4.02862E-03     47.3476E-03    -66.5245E+06    -195.575E+06    -42.7165E+06    -575.192E+03    -111.906E-03     222.744E-03    -110.838E-03     68.0410E-03    -112.148E-03     222.180E-03    -110.672E-03     66.3371E-03
            1694     3.22287E-03     47.2787E-03    -71.3388E+06    -208.277E+06    -53.9457E+06    -247.850E+03    -111.462E-03     222.261E-03    -110.799E-03     54.8844E-03    -111.595E-03     221.557E-03    -110.663E-03     53.5811E-03
            1695     2.41709E-03     47.2244E-03    -76.2191E+06    -221.613E+06    -65.5674E+06     173.841E+03    -111.096E-03     221.871E-03    -110.775E-03     41.5505E-03    -111.146E-03     221.054E-03    -110.671E-03     40.6090E-03
            1696     1.61120E-03     47.1853E-03    -80.0572E+06    -228.338E+06    -74.6887E+06     369.421E+03    -110.875E-03     221.650E-03    -110.775E-03     28.1503E-03    -110.875E-03     220.772E-03    -110.701E-03     27.5347E-03
            1697     805.683E-06     47.1610E-03    -82.2660E+06    -232.075E+06    -80.4521E+06     375.629E+03    -110.838E-03     221.607E-03    -110.770E-03     15.3926E-03    -110.807E-03     220.696E-03    -110.716E-03     15.0646E-03
            1698     15.3078E-03     48.8076E-03    -5.49557E+06     124.045E+06     97.3634E+06    -111.905E+03    -110.080E-03     221.149E-03    -111.069E-03     169.078E-03    -120.510E-03     231.718E-03    -110.754E-03     163.852E-03
            1699     14.5019E-03     48.5429E-03    -10.8019E+06     120.417E+06     99.0666E+06     610.966E+03    -114.555E-03     225.657E-03    -111.102E-03     261.063E-03    -131.043E-03     242.246E-03    -110.766E-03     251.592E-03
            1700     13.6954E-03     48.2227E-03    -16.6921E+06     108.419E+06     88.9949E+06     415.466E+03    -118.680E-03     229.763E-03    -111.083E-03     283.298E-03    -134.406E-03     245.556E-03    -110.771E-03     270.926E-03
            1701     12.8900E-03     47.9102E-03    -22.8924E+06     94.2734E+06     64.3067E+06    -540.935E+03    -118.662E-03     229.652E-03    -110.991E-03     260.825E-03    -130.668E-03     241.726E-03    -110.773E-03     248.611E-03
            1702     12.0841E-03     47.6452E-03    -27.6647E+06     77.3949E+06     32.1497E+06    -357.803E+03    -116.962E-03     227.828E-03    -110.867E-03     220.966E-03    -124.955E-03     235.905E-03    -110.778E-03     210.546E-03
            1703     11.2785E-03     47.4224E-03    -31.1340E+06     39.5743E+06     12.2218E+06     209.269E+03    -116.092E-03     226.916E-03    -110.824E-03     190.320E-03    -121.491E-03     232.309E-03    -110.775E-03     181.584E-03
            1704     10.4733E-03     47.2253E-03    -34.3177E+06    -17.2526E+06     5.10723E+06     437.937E+03    -115.759E-03     226.616E-03    -110.857E-03     170.957E-03    -119.599E-03     230.258E-03    -110.757E-03     163.546E-03
            1705     9.66794E-03     47.0439E-03    -37.5687E+06    -63.8252E+06    -1.15686E+06     235.768E+03    -115.476E-03     226.347E-03    -110.871E-03     156.925E-03    -118.294E-03     228.809E-03    -110.730E-03     150.598E-03
            1706     8.86255E-03     46.8770E-03    -40.4129E+06    -94.8993E+06    -4.29052E+06     140.757E+03    -115.048E-03     225.924E-03    -110.876E-03     144.038E-03    -117.133E-03     227.541E-03    -110.701E-03     138.655E-03
            1707     8.05709E-03     46.7237E-03    -43.5993E+06    -123.417E+06    -5.35060E+06     581.805E+03    -114.509E-03     225.397E-03    -110.888E-03     131.120E-03    -116.041E-03     226.352E-03    -110.673E-03     126.570E-03
            1708     7.25163E-03     46.5845E-03    -47.6380E+06    -135.437E+06    -9.35382E+06     535.679E+03    -113.921E-03     224.786E-03    -110.866E-03     118.555E-03    -115.050E-03     225.293E-03    -110.647E-03     114.733E-03
            1709     6.44600E-03     46.4587E-03    -52.1105E+06    -149.113E+06    -15.9280E+06    -95.2184E+03    -113.359E-03     224.194E-03    -110.835E-03     106.193E-03    -114.177E-03     224.344E-03    -110.623E-03     103.003E-03
            1710     5.64041E-03     46.3469E-03    -56.8551E+06    -167.296E+06    -23.6420E+06    -298.436E+03    -112.788E-03     223.598E-03    -110.809E-03     93.6323E-03    -113.360E-03     223.442E-03    -110.603E-03     91.0022E-03
            1711     4.83459E-03     46.2488E-03    -61.9439E+06    -180.079E+06    -33.2011E+06    -673.040E+03    -112.228E-03     223.003E-03    -110.774E-03     80.9037E-03    -112.616E-03     222.627E-03    -110.589E-03     78.7666E-03
            1712     4.02879E-03     46.1652E-03    -66.9125E+06    -196.469E+06    -43.8886E+06    -694.182E+03    -111.777E-03     222.520E-03    -110.743E-03     67.8613E-03    -112.017E-03     221.953E-03    -110.581E-03     66.1618E-03
            1713     3.22312E-03     46.0964E-03    -71.6184E+06    -209.580E+06    -54.6091E+06     469.274E+03    -111.411E-03     222.115E-03    -110.704E-03     54.6439E-03    -111.542E-03     221.406E-03    -110.569E-03     53.3522E-03
            1714     2.41740E-03     46.0423E-03    -75.8454E+06    -221.392E+06    -63.8643E+06     1.07315E+06    -111.092E-03     221.754E-03    -110.663E-03     41.2732E-03    -111.142E-03     220.935E-03    -110.551E-03     40.3444E-03
            1715     1.61171E-03     46.0032E-03    -79.5211E+06    -227.388E+06    -73.2071E+06     478.503E+03    -110.822E-03     221.431E-03    -110.608E-03     27.9608E-03    -110.822E-03     220.554E-03    -110.530E-03     27.3486E-03
            1716     805.761E-06     45.9787E-03    -81.7807E+06    -231.649E+06    -80.1131E+06    -40.5924E+03    -110.614E-03     221.204E-03    -110.590E-03     15.2250E-03    -110.582E-03     220.294E-03    -110.536E-03     14.8941E-03
            1717     15.3056E-03     47.6233E-03    -4.93695E+06     124.314E+06     97.5680E+06     58.6854E+03    -110.162E-03     221.238E-03    -111.076E-03     168.612E-03    -120.537E-03     231.754E-03    -110.761E-03     163.354E-03
            1718     14.5007E-03     47.3573E-03    -10.9462E+06     120.318E+06     99.0069E+06     30.5359E+03    -114.945E-03     226.037E-03    -111.092E-03     260.072E-03    -131.380E-03     242.573E-03    -110.756E-03     250.560E-03
            1719     13.6964E-03     47.0398E-03    -17.0106E+06     108.146E+06     89.1414E+06     93.1761E+03    -118.592E-03     229.652E-03    -111.061E-03     282.795E-03    -134.307E-03     245.433E-03    -110.747E-03     270.446E-03
            1720     12.8902E-03     46.7264E-03    -22.3803E+06     94.5592E+06     64.2614E+06     189.327E+03    -118.622E-03     229.587E-03    -110.964E-03     260.457E-03    -130.615E-03     241.649E-03    -110.748E-03     248.260E-03
            1721     12.0848E-03     46.4619E-03    -27.4024E+06     77.2426E+06     30.7549E+06    -124.042E+03    -117.180E-03     228.004E-03    -110.824E-03     220.578E-03    -125.164E-03     236.075E-03    -110.742E-03     210.135E-03
            1722     11.2793E-03     46.2386E-03    -31.2483E+06     38.9511E+06     10.8809E+06    -75.7015E+03    -116.204E-03     226.969E-03    -110.766E-03     189.960E-03    -121.594E-03     232.356E-03    -110.722E-03     181.214E-03
            1723     10.4740E-03     46.0416E-03    -33.8929E+06    -17.4530E+06     5.54481E+06     593.202E+03    -115.781E-03     226.576E-03    -110.795E-03     170.681E-03    -119.616E-03     230.213E-03    -110.693E-03     163.272E-03
            1724     9.66868E-03     45.8608E-03    -36.7964E+06    -63.0082E+06     223.943E+03     581.462E+03    -115.447E-03     226.252E-03    -110.806E-03     156.791E-03    -118.261E-03     228.712E-03    -110.660E-03     150.476E-03
            1725     8.86317E-03     45.6938E-03    -40.5368E+06    -94.6868E+06    -3.73108E+06     231.286E+03    -115.019E-03     225.823E-03    -110.804E-03     143.887E-03    -117.101E-03     227.436E-03    -110.627E-03     138.516E-03
            1726     8.05777E-03     45.5407E-03    -44.3074E+06    -123.790E+06    -5.80772E+06     83.3708E+03    -114.485E-03     225.292E-03    -110.807E-03     130.991E-03    -116.016E-03     226.243E-03    -110.593E-03     126.444E-03
            1727     7.25220E-03     45.4018E-03    -47.7866E+06    -135.257E+06    -9.94505E+06     5.27783E+03    -113.888E-03     224.664E-03    -110.776E-03     118.477E-03    -115.014E-03     225.169E-03    -110.560E-03     114.659E-03
            1728     6.44654E-03     45.2761E-03    -51.7942E+06    -148.846E+06    -15.7744E+06     173.336E+03    -113.322E-03     224.063E-03    -110.741E-03     106.010E-03    -114.136E-03     224.211E-03    -110.529E-03     102.833E-03
            1729     5.64088E-03     45.1644E-03    -56.6537E+06    -166.902E+06    -23.0264E+06     90.2593E+03    -112.745E-03     223.454E-03    -110.709E-03     93.3636E-03    -113.316E-03     223.297E-03    -110.500E-03     90.7437E-03
            1730     4.83524E-03     45.0666E-03     -61.848E+06    -179.423E+06    -32.0174E+06    -126.641E+03    -112.165E-03     222.831E-03    -110.665E-03     80.6331E-03    -112.554E-03     222.455E-03    -110.475E-03     78.5081E-03
            1731     4.02944E-03     44.9832E-03    -67.5018E+06    -197.532E+06    -42.5954E+06    -16.1247E+03    -111.684E-03     222.313E-03    -110.629E-03     67.6074E-03    -111.926E-03     221.737E-03    -110.457E-03     65.9227E-03
            1732     3.22353E-03     44.9143E-03    -72.5667E+06    -210.662E+06    -53.8002E+06     143.553E+03    -111.313E-03     221.891E-03    -110.578E-03     54.4368E-03    -111.447E-03     221.175E-03    -110.436E-03     53.1457E-03
            1733     2.41781E-03     44.8603E-03    -76.2003E+06    -220.842E+06    -63.2638E+06     155.594E+03    -111.015E-03     221.527E-03    -110.513E-03     41.1714E-03    -111.068E-03     220.710E-03    -110.398E-03     40.2341E-03
            1734     1.61197E-03     44.8214E-03    -79.0264E+06    -226.606E+06    -71.9965E+06     307.934E+03    -110.715E-03     221.141E-03    -110.426E-03     27.9196E-03    -110.716E-03     220.266E-03    -110.343E-03     27.3087E-03
            1735     806.188E-06     44.7972E-03    -81.3747E+06    -231.540E+06    -79.9130E+06     222.424E+03    -110.452E-03     220.792E-03    -110.340E-03     15.2203E-03    -110.419E-03     219.881E-03    -110.286E-03     14.8951E-03
            1736     15.3088E-03     46.4404E-03    -5.33231E+06     123.904E+06     97.3228E+06     278.688E+03    -110.673E-03     221.718E-03    -111.045E-03     168.045E-03    -121.039E-03     232.223E-03    -110.730E-03     162.755E-03
            1737     14.5029E-03     46.1733E-03    -10.9539E+06     120.332E+06     98.8421E+06    -4.32937E+03    -114.481E-03     225.538E-03    -111.057E-03     259.965E-03    -130.931E-03     242.089E-03    -110.721E-03     250.490E-03
            1738     13.6963E-03     45.8564E-03    -16.7596E+06     108.442E+06     89.5410E+06    -582.462E+03    -118.483E-03     229.523E-03    -111.040E-03     283.073E-03    -134.237E-03     245.343E-03    -110.725E-03     270.708E-03
            1739     12.8907E-03     45.5430E-03    -22.6224E+06     94.4662E+06     65.0604E+06    -130.574E+03    -118.970E-03     229.909E-03    -110.939E-03     260.751E-03    -130.986E-03     241.992E-03    -110.718E-03     248.500E-03
            1740     12.0853E-03     45.2778E-03    -27.4824E+06     77.2974E+06     31.5830E+06     635.957E+03    -117.412E-03     228.189E-03    -110.777E-03     220.438E-03    -125.396E-03     236.259E-03    -110.692E-03     209.987E-03
            1741     11.2802E-03     45.0552E-03    -31.3567E+06     39.4590E+06     11.6363E+06     439.689E+03    -116.191E-03     226.898E-03    -110.706E-03     189.853E-03    -121.574E-03     232.275E-03    -110.660E-03     181.128E-03
            1742     10.4746E-03     44.8582E-03    -34.8027E+06    -18.0192E+06     4.94222E+06    -245.121E+03    -115.694E-03     226.425E-03    -110.731E-03     170.681E-03    -119.526E-03     230.055E-03    -110.629E-03     163.274E-03
            1743     9.66924E-03     44.6776E-03    -37.3204E+06    -63.5382E+06    -548.761E+03     156.149E+03    -115.472E-03     226.209E-03    -110.737E-03     156.691E-03    -118.280E-03     228.661E-03    -110.594E-03     150.379E-03
            1744     8.86392E-03     44.5107E-03    -39.8918E+06    -93.9426E+06    -3.65333E+06     704.901E+03    -115.038E-03     225.765E-03    -110.727E-03     143.687E-03    -117.113E-03     227.376E-03    -110.551E-03     138.329E-03
            1745     8.05834E-03     44.3580E-03    -43.5057E+06    -123.205E+06    -5.72447E+06     249.056E+03    -114.490E-03     225.211E-03    -110.721E-03     130.699E-03    -116.013E-03     226.158E-03    -110.508E-03     126.162E-03
            1746     7.25280E-03     44.2191E-03    -48.1283E+06    -135.322E+06    -9.92565E+06    -115.421E+03    -113.902E-03     224.580E-03    -110.679E-03     118.106E-03    -115.025E-03     225.081E-03    -110.462E-03     114.292E-03
            1747     6.44729E-03     44.0936E-03    -52.7455E+06    -149.012E+06    -15.6232E+06    -68.3967E+03    -113.280E-03     223.913E-03    -110.632E-03     105.623E-03    -114.096E-03     224.057E-03    -110.418E-03     102.449E-03
            1748     5.64164E-03     43.9822E-03    -57.2304E+06    -166.904E+06    -22.5653E+06     26.6818E+03    -112.669E-03     223.259E-03    -110.589E-03     93.0296E-03    -113.241E-03     223.100E-03    -110.377E-03     90.4156E-03
            1749     4.83580E-03     43.8846E-03    -62.3353E+06    -179.662E+06    -31.9123E+06     332.674E+03    -112.099E-03     222.632E-03    -110.533E-03     80.3638E-03    -112.488E-03     222.255E-03    -110.342E-03     78.2504E-03
            1750     4.02997E-03     43.8013E-03    -67.4699E+06    -197.308E+06    -42.2307E+06     420.649E+03    -111.610E-03     222.091E-03    -110.481E-03     67.4458E-03    -111.851E-03     221.515E-03    -110.309E-03     65.7729E-03
            1751     3.22417E-03     43.7325E-03    -72.1822E+06    -209.985E+06    -53.2906E+06    -359.209E+03    -111.180E-03     221.598E-03    -110.418E-03     54.3190E-03    -111.313E-03     220.884E-03    -110.275E-03     53.0282E-03
            1752     2.41811E-03     43.6787E-03    -76.3546E+06    -221.137E+06    -64.3443E+06    -828.334E+03    -110.822E-03     221.171E-03    -110.349E-03     41.0296E-03    -110.874E-03     220.353E-03    -110.239E-03     40.0852E-03
            1753     1.61219E-03     43.6398E-03    -79.5427E+06    -227.393E+06     -73.438E+06    -429.961E+03    -110.520E-03     220.799E-03    -110.280E-03     27.7475E-03    -110.519E-03     219.922E-03    -110.202E-03     27.1293E-03
            1754     806.003E-06     43.6162E-03    -81.5491E+06    -231.160E+06    -79.2660E+06     58.1522E+03    -110.300E-03     220.536E-03    -110.236E-03     15.1577E-03    -110.269E-03     219.626E-03    -110.179E-03     14.8304E-03
            1755     15.3078E-03     45.2550E-03    -5.36011E+06     124.146E+06     97.5999E+06     24.8969E+03    -110.640E-03     221.693E-03    -111.053E-03     169.458E-03    -121.086E-03     232.277E-03    -110.737E-03     164.157E-03
            1756     14.5019E-03     44.9909E-03    -10.1768E+06     121.220E+06     99.8087E+06     35.3241E+03    -114.888E-03     225.946E-03    -111.058E-03     260.649E-03    -131.388E-03     242.551E-03    -110.720E-03     251.095E-03
            1757     13.6961E-03     44.6723E-03    -16.9887E+06     108.014E+06     88.7651E+06    -221.825E+03    -118.880E-03     229.894E-03    -111.014E-03     282.903E-03    -134.625E-03     245.704E-03    -110.702E-03     270.478E-03
            1758     12.8910E-03     44.3586E-03    -23.5080E+06     93.4159E+06     63.9463E+06    -201.979E+03    -119.152E-03     230.043E-03    -110.891E-03     260.028E-03    -131.133E-03     242.086E-03    -110.672E-03     247.766E-03
            1759     12.0862E-03     44.0938E-03    -27.9145E+06     77.0624E+06     32.2171E+06     354.331E+03    -117.263E-03     227.992E-03    -110.729E-03     220.120E-03    -125.222E-03     236.032E-03    -110.639E-03     209.704E-03
            1760     11.2807E-03     43.8717E-03    -30.8471E+06     39.4414E+06     12.3038E+06     479.121E+03    -116.170E-03     226.829E-03    -110.658E-03     189.943E-03    -121.543E-03     232.196E-03    -110.609E-03     181.231E-03
            1761     10.4752E-03     43.6751E-03    -33.7032E+06    -17.0809E+06     5.32444E+06     309.461E+03    -115.841E-03     226.512E-03    -110.671E-03     170.560E-03    -119.665E-03     230.140E-03    -110.571E-03     163.160E-03
            1762     9.66988E-03     43.4942E-03    -37.2803E+06    -63.6669E+06    -771.040E+03    -51.3596E+03    -115.542E-03     226.204E-03    -110.662E-03     156.300E-03    -118.342E-03     228.648E-03    -110.520E-03     149.992E-03
            1763     8.86452E-03     43.3278E-03    -40.4317E+06    -94.5291E+06    -3.84896E+06    -72.5965E+03    -115.081E-03     225.720E-03    -110.639E-03     143.202E-03    -117.152E-03     227.323E-03    -110.463E-03     137.838E-03
            1764     8.05920E-03     43.1752E-03    -43.6514E+06    -122.844E+06    -5.03826E+06     536.771E+03    -114.532E-03     225.150E-03    -110.618E-03     130.255E-03    -116.052E-03     226.094E-03    -110.402E-03     125.726E-03
            1765     7.25387E-03     43.0366E-03    -47.7762E+06    -134.847E+06    -8.89126E+06     502.008E+03    -113.883E-03     224.444E-03    -110.561E-03     117.692E-03    -115.003E-03     224.941E-03    -110.341E-03     113.894E-03
            1766     6.44817E-03     42.9114E-03    -52.5479E+06    -148.757E+06    -15.4036E+06     18.0800E+03    -113.212E-03     223.711E-03    -110.498E-03     105.264E-03    -114.024E-03     223.852E-03    -110.284E-03     102.100E-03
            1767     5.64241E-03     42.8002E-03    -57.6845E+06    -167.426E+06    -22.9431E+06         206.848    -112.589E-03     223.033E-03    -110.443E-03     92.6959E-03    -113.159E-03     222.870E-03    -110.232E-03     90.0907E-03
            1768     4.83660E-03     42.7029E-03    -62.6942E+06    -180.011E+06    -32.1449E+06     315.094E+03    -112.005E-03     222.380E-03    -110.375E-03     80.0138E-03    -112.393E-03     221.999E-03    -110.184E-03     77.9082E-03
            1769     4.03069E-03     42.6197E-03    -67.5291E+06    -196.458E+06    -43.2805E+06     166.183E+03    -111.486E-03     221.790E-03    -110.304E-03     67.1301E-03    -111.725E-03     221.218E-03    -110.138E-03     65.4613E-03
            1770     3.22461E-03     42.5512E-03    -72.1731E+06    -208.933E+06    -54.0599E+06    -360.435E+03    -111.020E-03     221.252E-03    -110.233E-03     54.0696E-03    -111.152E-03     220.543E-03    -110.095E-03     52.7856E-03
            1771     2.41869E-03     42.4974E-03    -76.5854E+06    -221.544E+06    -64.9860E+06    -654.235E+03    -110.626E-03     220.790E-03    -110.165E-03     40.7942E-03    -110.677E-03     219.971E-03    -110.057E-03     39.8568E-03
            1772     1.61239E-03     42.4590E-03    -80.1401E+06    -228.351E+06    -75.1384E+06    -703.278E+03    -110.332E-03     220.427E-03    -110.095E-03     27.4967E-03    -110.331E-03     219.548E-03    -110.023E-03     26.8765E-03
            1773     806.286E-06     42.4351E-03    -82.2071E+06    -231.924E+06    -80.9064E+06    -575.280E+03    -110.154E-03     220.172E-03    -110.018E-03     14.7903E-03    -110.123E-03     219.262E-03    -109.967E-03     14.4555E-03
            1774     15.3054E-03     44.0690E-03    -5.12406E+06     124.109E+06     97.5287E+06    -230.213E+03    -110.291E-03     221.340E-03    -111.049E-03     168.116E-03    -120.646E-03     231.835E-03    -110.734E-03     162.830E-03
            1775     14.5018E-03     43.8055E-03    -11.0460E+06     120.201E+06     98.7810E+06    -344.725E+03    -115.246E-03     226.289E-03    -111.043E-03     258.609E-03    -131.633E-03     242.776E-03    -110.707E-03     249.009E-03
            1776     13.6977E-03     43.4887E-03    -17.0612E+06     107.870E+06     88.8171E+06     106.383E+03    -119.247E-03     230.220E-03    -110.973E-03     282.555E-03    -134.956E-03     245.994E-03    -110.661E-03     270.106E-03
            1777     12.8928E-03     43.1743E-03    -22.6633E+06     94.1742E+06     64.9070E+06     618.696E+03    -119.095E-03     229.937E-03    -110.841E-03     260.122E-03    -131.048E-03     241.955E-03    -110.620E-03     247.911E-03
            1778     12.0867E-03     42.9113E-03    -27.5793E+06     77.1206E+06     31.5636E+06     146.611E+03    -117.241E-03     227.915E-03    -110.674E-03     220.034E-03    -125.181E-03     235.939E-03    -110.588E-03     209.635E-03
            1779     11.2808E-03     42.6879E-03    -31.1520E+06     39.1487E+06     11.1595E+06    -106.068E+03    -116.316E-03     226.910E-03    -110.593E-03     189.543E-03    -121.678E-03     232.268E-03    -110.549E-03     180.820E-03
            1780     10.4759E-03     42.4913E-03    -33.8818E+06    -17.0583E+06     5.93396E+06     379.091E+03    -115.953E-03     226.549E-03    -110.596E-03     169.855E-03    -119.768E-03     230.166E-03    -110.492E-03     162.455E-03
            1781     9.67094E-03     42.3112E-03    -36.7668E+06    -63.0096E+06     493.093E+03     464.004E+03    -115.608E-03     226.178E-03    -110.570E-03     155.753E-03    -118.403E-03     228.617E-03    -110.423E-03     149.450E-03
            1782     8.86568E-03     42.1448E-03    -40.6492E+06    -94.7467E+06    -3.54285E+06     178.896E+03    -115.109E-03     225.636E-03    -110.528E-03     142.716E-03    -117.174E-03     227.231E-03    -110.349E-03     137.363E-03
            1783     8.06034E-03     41.9925E-03    -44.6611E+06    -123.043E+06    -5.61328E+06     42.0192E+03    -114.500E-03     224.989E-03    -110.489E-03     129.860E-03    -116.018E-03     225.928E-03    -110.274E-03     125.336E-03
            1784     7.25472E-03     41.8542E-03    -48.2680E+06    -134.677E+06    -9.47234E+06     7.13146E+03    -113.826E-03     224.244E-03    -110.418E-03     117.312E-03    -114.943E-03     224.739E-03    -110.200E-03     113.519E-03
            1785     6.44914E-03     41.7294E-03    -52.4048E+06    -148.736E+06    -15.2529E+06     341.159E+03    -113.165E-03     223.509E-03    -110.345E-03     104.831E-03    -113.972E-03     223.646E-03    -110.129E-03     101.681E-03
            1786     5.64339E-03     41.6185E-03    -57.2449E+06    -167.202E+06    -22.6474E+06     429.250E+03    -112.529E-03     222.801E-03    -110.272E-03     92.2654E-03    -113.093E-03     222.634E-03    -110.060E-03     89.6754E-03
            1787     4.83751E-03     41.5213E-03    -62.4302E+06    -180.048E+06    -31.9266E+06     148.255E+03    -111.904E-03     222.090E-03    -110.186E-03     79.6069E-03    -112.288E-03     221.705E-03    -109.994E-03     77.5088E-03
            1788     4.03150E-03     41.4386E-03    -67.4543E+06    -196.066E+06    -42.7587E+06     9.85278E+03    -111.332E-03     221.433E-03    -110.101E-03     66.7543E-03    -111.571E-03     220.861E-03    -109.933E-03     65.0916E-03
            1789     3.22544E-03     41.3702E-03    -72.2529E+06    -208.641E+06    -53.4684E+06    -69.0297E+03    -110.809E-03     220.830E-03    -110.021E-03     53.7174E-03    -110.941E-03     220.120E-03    -109.881E-03     52.4435E-03
            1790     2.41903E-03     41.3168E-03    -76.9284E+06    -221.568E+06    -64.6036E+06    -152.400E+03    -110.415E-03     220.363E-03    -109.948E-03     40.5191E-03    -110.468E-03     219.544E-03    -109.838E-03     39.5928E-03
            1791     1.61289E-03     41.2782E-03    -80.6659E+06    -228.644E+06    -75.1409E+06    -210.699E+03    -110.113E-03     219.985E-03    -109.872E-03     27.3224E-03    -110.113E-03     219.105E-03    -109.799E-03     26.7128E-03
            1792     806.511E-06     41.2548E-03    -83.1270E+06    -232.896E+06    -81.8104E+06    -219.317E+03    -109.928E-03     219.714E-03    -109.787E-03     14.8223E-03    -109.898E-03     218.802E-03    -109.737E-03     14.4933E-03
            1793     15.3105E-03     42.8867E-03    -5.16618E+06     123.803E+06     97.2229E+06    -147.216E+03    -110.579E-03     221.562E-03    -110.983E-03     167.986E-03    -120.888E-03     232.010E-03    -110.669E-03     162.682E-03
            1794     14.5034E-03     42.6214E-03    -11.3039E+06     119.717E+06     98.1740E+06    -297.932E+03    -114.694E-03     225.680E-03    -110.985E-03     259.316E-03    -131.060E-03     242.146E-03    -110.652E-03     249.782E-03
            1795     13.6975E-03     42.3037E-03    -17.0976E+06     107.935E+06     89.1178E+06     14.5745E+03    -119.129E-03     230.070E-03    -110.941E-03     282.890E-03    -134.832E-03     245.837E-03    -110.627E-03     270.467E-03
            1796     12.8918E-03     41.9906E-03    -22.9680E+06     94.0389E+06     64.8844E+06     281.101E+03    -119.295E-03     230.098E-03    -110.803E-03     259.776E-03    -131.241E-03     242.109E-03    -110.582E-03     247.541E-03
            1797     12.0870E-03     41.7271E-03    -27.6587E+06     77.4298E+06     32.4504E+06     220.610E+03    -117.620E-03     228.233E-03    -110.613E-03     219.320E-03    -125.557E-03     236.253E-03    -110.523E-03     208.883E-03
            1798     11.2827E-03     41.5045E-03    -31.1934E+06     39.9947E+06     12.4095E+06     181.694E+03    -116.441E-03     226.946E-03    -110.506E-03     188.944E-03    -121.796E-03     232.298E-03    -110.457E-03     180.221E-03
            1799     10.4773E-03     41.3080E-03    -34.5907E+06    -17.7048E+06     5.06312E+06    -216.466E+03    -115.894E-03     226.382E-03    -110.488E-03     169.575E-03    -119.700E-03     229.988E-03    -110.387E-03     162.182E-03
            1800     9.67195E-03     41.1279E-03    -37.4584E+06    -63.6882E+06    -398.347E+03     108.952E+03    -115.622E-03     226.075E-03    -110.453E-03     155.417E-03    -118.410E-03     228.505E-03    -110.309E-03     149.118E-03
            1801     8.86683E-03     40.9620E-03    -40.0178E+06    -94.2653E+06    -3.33133E+06     516.533E+03    -115.146E-03     225.544E-03    -110.398E-03     142.351E-03    -117.201E-03     227.132E-03    -110.220E-03     137.012E-03
            1802     8.06138E-03     40.8102E-03    -43.4366E+06    -122.726E+06    -5.14931E+06     247.767E+03    -114.526E-03     224.867E-03    -110.342E-03     129.341E-03    -116.032E-03     225.798E-03    -110.126E-03     124.829E-03
            1803     7.25600E-03     40.6720E-03    -48.0049E+06    -134.783E+06    -9.38581E+06     155.816E+03    -113.803E-03     224.053E-03    -110.251E-03     116.683E-03    -114.912E-03     224.541E-03    -110.032E-03     112.901E-03
            1804     6.45029E-03     40.5477E-03    -52.8510E+06    -149.063E+06    -15.4123E+06     213.969E+03    -113.109E-03     223.266E-03    -110.156E-03     104.217E-03    -113.912E-03     223.397E-03    -109.941E-03     101.077E-03
            1805     5.64456E-03     40.4369E-03    -57.5687E+06    -166.924E+06    -22.6373E+06     292.347E+03    -112.431E-03     222.494E-03    -110.063E-03     91.6814E-03    -112.993E-03     222.325E-03    -109.851E-03     89.1009E-03
            1806     4.83859E-03     40.3404E-03    -62.4774E+06    -179.668E+06    -31.7997E+06     193.337E+03    -111.749E-03     221.708E-03    -109.958E-03     79.0789E-03    -112.131E-03     221.321E-03    -109.766E-03     76.9930E-03
            1807     4.03251E-03     40.2577E-03    -67.5768E+06    -195.987E+06    -42.5780E+06    -2.48532E+03    -111.128E-03     220.989E-03    -109.861E-03     66.3103E-03    -111.365E-03     220.414E-03    -109.692E-03     64.6568E-03
            1808     3.22615E-03     40.1900E-03    -72.5951E+06    -208.695E+06    -53.3705E+06     56.1852E+03    -110.585E-03     220.356E-03    -109.771E-03     53.3692E-03    -110.718E-03     219.645E-03    -109.630E-03     52.1043E-03
            1809     2.41984E-03     40.1366E-03    -77.0773E+06    -221.469E+06    -64.2938E+06     139.836E+03    -110.139E-03     219.835E-03    -109.696E-03     40.2641E-03    -110.192E-03     219.015E-03    -109.585E-03     39.3483E-03
            1810     1.61321E-03     40.0983E-03    -80.7183E+06    -228.685E+06    -74.9595E+06     97.9760E+03    -109.795E-03     219.438E-03    -109.643E-03     27.1623E-03    -109.795E-03     218.557E-03    -109.569E-03     26.5610E-03
            1811     806.465E-06     40.0751E-03    -83.0478E+06    -232.882E+06    -81.4063E+06     140.399E+03    -109.690E-03     219.299E-03    -109.609E-03     14.8024E-03    -109.661E-03     218.386E-03    -109.558E-03     14.4794E-03
            1812     15.3086E-03     41.7031E-03    -4.63756E+06     124.374E+06     97.6951E+06     140.067E+03    -111.043E-03     222.027E-03    -110.984E-03     169.323E-03    -121.428E-03     232.554E-03    -110.669E-03     163.936E-03
            1813     14.5032E-03     41.4386E-03    -10.8881E+06     120.252E+06     98.7079E+06     44.9381E+03    -115.329E-03     226.291E-03    -110.962E-03     260.532E-03    -131.769E-03     242.833E-03    -110.627E-03     250.874E-03
            1814     13.6977E-03     41.1190E-03    -17.9134E+06     107.205E+06     88.1980E+06    -169.612E+03    -119.343E-03     230.229E-03    -110.886E-03     281.768E-03    -135.001E-03     245.949E-03    -110.575E-03     269.304E-03
            1815     12.8936E-03     40.8069E-03    -23.5938E+06     93.5082E+06     64.4356E+06    -295.197E+03    -119.343E-03     230.073E-03    -110.730E-03     258.641E-03    -131.250E-03     242.041E-03    -110.509E-03     246.396E-03
            1816     12.0890E-03     40.5425E-03    -27.7822E+06     77.3468E+06     32.7324E+06    -198.980E+03    -117.585E-03     228.116E-03    -110.531E-03     219.099E-03    -125.516E-03     236.128E-03    -110.439E-03     208.660E-03
            1817     11.2833E-03     40.3213E-03    -30.9060E+06     39.9150E+06     12.5982E+06     36.5796E+03    -116.493E-03     226.909E-03    -110.415E-03     189.071E-03    -121.844E-03     232.255E-03    -110.366E-03     180.351E-03
            1818     10.4782E-03     40.1247E-03    -33.8635E+06    -17.1720E+06     5.32606E+06     283.855E+03    -116.075E-03     226.457E-03    -110.381E-03     169.528E-03    -119.874E-03     230.059E-03    -110.281E-03     162.140E-03
            1819     9.67326E-03     39.9449E-03    -37.2182E+06    -63.7270E+06    -530.331E+03     7.46923E+03    -115.723E-03     226.047E-03    -110.324E-03     154.930E-03    -118.497E-03     228.464E-03    -110.181E-03     148.641E-03
            1820     8.86792E-03     39.7794E-03    -40.6077E+06    -94.6176E+06    -3.76878E+06    -83.3233E+03    -115.223E-03     225.469E-03    -110.246E-03     141.684E-03    -117.270E-03     227.047E-03    -110.069E-03     136.345E-03
            1821     8.06292E-03     39.6275E-03    -44.1801E+06    -122.874E+06    -5.44265E+06     260.673E+03    -114.568E-03     224.731E-03    -110.164E-03     128.598E-03    -116.068E-03     225.655E-03    -109.949E-03     124.094E-03
            1822     7.25749E-03     39.4905E-03    -48.1187E+06    -134.622E+06    -9.18464E+06     472.975E+03    -113.796E-03     223.843E-03    -110.047E-03     116.018E-03    -114.899E-03     224.324E-03    -109.828E-03     112.252E-03
            1823     6.45187E-03     39.3660E-03    -52.4741E+06    -148.665E+06    -15.1197E+06     346.491E+03    -113.040E-03     222.967E-03    -109.927E-03     103.588E-03    -113.836E-03     223.092E-03    -109.711E-03     100.465E-03
            1824     5.64601E-03     39.2562E-03    -57.3838E+06    -166.890E+06    -22.4569E+06     128.466E+03    -112.281E-03     222.094E-03    -109.812E-03     91.0415E-03    -112.838E-03     221.919E-03    -109.599E-03     88.4735E-03
            1825     4.83995E-03     39.1596E-03    -62.4690E+06    -179.409E+06    -31.5511E+06     188.284E+03    -111.534E-03     221.226E-03    -109.692E-03     78.5239E-03    -111.912E-03     220.837E-03    -109.499E-03     76.4521E-03
            1826     4.03360E-03     39.0779E-03    -67.5312E+06    -195.889E+06    -42.4852E+06     193.448E+03    -110.888E-03     220.470E-03    -109.582E-03     65.8106E-03    -111.123E-03     219.893E-03    -109.412E-03     64.1713E-03
            1827     3.22713E-03     39.0099E-03    -72.4391E+06    -208.645E+06    -53.3912E+06     115.867E+03    -110.313E-03     219.795E-03    -109.482E-03     52.9405E-03    -110.444E-03     219.082E-03    -109.341E-03     51.6859E-03
            1828     2.42044E-03     38.9572E-03    -76.9620E+06    -221.517E+06    -64.4562E+06     85.9486E+03    -109.820E-03     219.227E-03    -109.406E-03     39.9075E-03    -109.872E-03     218.406E-03    -109.296E-03     38.9978E-03
            1829     1.61356E-03     38.9192E-03    -80.4828E+06    -228.428E+06    -74.6148E+06     86.3711E+03    -109.517E-03     218.872E-03    -109.355E-03     26.9556E-03    -109.517E-03     217.992E-03    -109.280E-03     26.3586E-03
            1830     806.857E-06     38.8956E-03    -82.7823E+06    -232.668E+06    -81.1574E+06     141.065E+03    -109.480E-03     218.714E-03    -109.234E-03     14.6323E-03    -109.450E-03     217.801E-03    -109.183E-03     14.3139E-03
            1831     15.3068E-03     40.5184E-03    -5.57289E+06     123.465E+06     96.9045E+06     96.8300E+03    -111.369E-03     222.366E-03    -110.997E-03     167.579E-03    -121.746E-03     232.880E-03    -110.684E-03     162.117E-03
            1832     14.5035E-03     40.2513E-03    -11.1445E+06     120.072E+06     98.6322E+06     357.183E+03    -116.091E-03     227.028E-03    -110.938E-03     259.239E-03    -132.527E-03     243.566E-03    -110.602E-03     249.485E-03
            1833     13.7005E-03     39.9360E-03    -16.6118E+06     108.543E+06     89.5027E+06     278.212E+03    -119.651E-03     230.478E-03    -110.827E-03     281.786E-03    -135.289E-03     246.183E-03    -110.513E-03     269.314E-03
            1834     12.8948E-03     39.6223E-03    -22.7322E+06     94.3853E+06     65.3050E+06    -206.445E+03    -119.320E-03     229.982E-03    -110.662E-03     259.512E-03    -131.236E-03     241.963E-03    -110.440E-03     247.288E-03
            1835     12.0890E-03     39.3596E-03    -27.8011E+06     77.0896E+06     31.9215E+06    -348.908E+03    -117.659E-03     228.116E-03    -110.458E-03     219.483E-03    -125.585E-03     236.125E-03    -110.370E-03     209.047E-03
            1836     11.2840E-03     39.1372E-03    -31.6563E+06     39.0010E+06     11.3086E+06    -241.587E+03    -116.808E-03     227.132E-03    -110.324E-03     188.580E-03    -122.146E-03     232.463E-03    -110.278E-03     179.842E-03
            1837     10.4796E-03     38.9412E-03    -34.4895E+06    -17.2499E+06     5.00267E+06    -112.665E+03    -116.326E-03     226.586E-03    -110.260E-03     168.671E-03    -120.115E-03     230.176E-03    -110.160E-03     161.269E-03
            1838     9.67455E-03     38.7619E-03    -37.2034E+06    -63.2394E+06    -391.594E+03     144.531E+03    -115.914E-03     226.083E-03    -110.170E-03     154.205E-03    -118.678E-03     228.492E-03    -110.026E-03     147.919E-03
            1839     8.86994E-03     38.5965E-03    -40.5633E+06    -94.6662E+06    -3.55371E+06     283.007E+03    -115.314E-03     225.374E-03    -110.060E-03     140.889E-03    -117.351E-03     226.941E-03    -109.882E-03     135.563E-03
            1840     8.06455E-03     38.4457E-03    -44.3981E+06    -123.170E+06    -5.68017E+06     66.3951E+03    -114.546E-03     224.496E-03    -109.949E-03     127.829E-03    -116.037E-03     225.408E-03    -109.735E-03     123.338E-03
            1841     7.25920E-03     38.3086E-03    -48.2361E+06    -134.687E+06    -9.32776E+06    -7.87346E+03    -113.757E-03     223.564E-03    -109.806E-03     115.279E-03    -114.852E-03     224.036E-03    -109.588E-03     111.524E-03
            1842     6.45354E-03     38.1852E-03    -52.4433E+06    -148.358E+06    -14.9750E+06     229.673E+03    -112.940E-03     222.601E-03    -109.661E-03     102.857E-03    -113.729E-03     222.720E-03    -109.444E-03     99.7492E-03
            1843     5.64767E-03     38.0754E-03    -57.2270E+06    -166.574E+06    -22.3857E+06     338.334E+03    -112.094E-03     221.617E-03    -109.523E-03     90.3367E-03    -112.644E-03     221.437E-03    -109.310E-03     87.7893E-03
            1844     4.84136E-03     37.9800E-03    -62.4163E+06    -179.451E+06    -31.7026E+06     256.836E+03    -111.302E-03     220.685E-03    -109.384E-03     77.8793E-03    -111.675E-03     220.292E-03    -109.191E-03     75.8235E-03
            1845     4.03490E-03     37.8981E-03    -67.4196E+06    -195.780E+06    -42.4802E+06     228.479E+03    -110.620E-03     219.878E-03    -109.258E-03     65.2487E-03    -110.852E-03     219.299E-03    -109.089E-03     63.6233E-03
            1846     3.22824E-03     37.8311E-03    -72.2707E+06    -208.544E+06    -53.4006E+06     167.361E+03    -110.007E-03     219.152E-03    -109.145E-03     52.4230E-03    -110.135E-03     218.438E-03    -109.004E-03     51.1797E-03
            1847     2.42125E-03     37.7784E-03    -76.7465E+06    -221.396E+06    -64.3989E+06     76.0260E+03    -109.526E-03     218.578E-03    -109.052E-03     39.4542E-03    -109.575E-03     217.756E-03    -108.942E-03     38.5515E-03
            1848     1.61431E-03     37.7406E-03    -80.2837E+06    -228.319E+06    -74.5794E+06     64.7471E+03    -109.205E-03     218.176E-03    -108.971E-03     26.7285E-03    -109.203E-03     217.295E-03    -108.896E-03     26.1371E-03
            1849     807.171E-06     37.7170E-03    -82.7146E+06    -232.448E+06    -80.7917E+06     14.4033E+03    -109.057E-03     217.909E-03    -108.852E-03     14.5332E-03    -109.027E-03     216.997E-03    -108.799E-03     14.2171E-03
            1850     15.3100E-03     39.3322E-03    -5.38776E+06     123.537E+06     97.1994E+06    -58.2833E+03    -111.760E-03     222.730E-03    -110.970E-03     168.520E-03    -122.142E-03     233.250E-03    -110.655E-03     163.006E-03
            1851     14.5050E-03     39.0672E-03    -10.8595E+06     120.116E+06     98.8621E+06     276.164E+03    -115.834E-03     226.741E-03    -110.906E-03     259.132E-03    -132.220E-03     243.227E-03    -110.570E-03     249.452E-03
            1852     13.6987E-03     38.7497E-03    -16.3646E+06     108.789E+06     89.7287E+06     667.490E+03    -119.502E-03     230.311E-03    -110.810E-03     282.357E-03    -135.140E-03     246.017E-03    -110.495E-03     269.920E-03
            1853     12.8943E-03     38.4389E-03    -22.8595E+06     94.2112E+06     64.6523E+06     19.6999E+03    -119.893E-03     230.521E-03    -110.628E-03     259.201E-03    -131.820E-03     242.514E-03    -110.409E-03     246.895E-03
            1854     12.0899E-03     38.1752E-03    -27.8700E+06     77.1420E+06     31.8786E+06    -186.358E+03    -118.344E-03     228.721E-03    -110.377E-03     218.518E-03    -126.257E-03     236.717E-03    -110.289E-03     208.020E-03
            1855     11.2860E-03     37.9530E-03    -31.1128E+06     39.3677E+06     11.9572E+06    -141.801E+03    -117.094E-03     227.292E-03    -110.197E-03     187.456E-03    -122.411E-03     232.603E-03    -110.150E-03     178.704E-03
            1856     10.4811E-03     37.7580E-03    -34.1889E+06    -17.5178E+06     4.84059E+06    -193.749E+03    -116.431E-03     226.531E-03    -110.100E-03     167.834E-03    -120.199E-03     230.101E-03    -110.000E-03     160.441E-03
            1857     9.67663E-03     37.5786E-03    -37.5654E+06    -63.6612E+06    -869.448E+03     143.781E+03    -116.011E-03     225.993E-03    -109.982E-03     153.505E-03    -118.761E-03     228.386E-03    -109.840E-03     147.231E-03
            1858     8.87158E-03     37.4142E-03    -40.5887E+06    -94.6517E+06    -3.53976E+06     178.215E+03    -115.378E-03     225.224E-03    -109.845E-03     140.141E-03    -117.403E-03     226.778E-03    -109.667E-03     134.827E-03
            1859     8.06668E-03     37.2637E-03    -43.8823E+06    -122.567E+06    -5.16157E+06     71.8830E+03    -114.598E-03     224.301E-03    -109.703E-03     127.007E-03    -116.077E-03     225.204E-03    -109.487E-03     122.531E-03
            1860     7.26125E-03     37.1275E-03    -48.0848E+06    -134.726E+06    -9.55779E+06     7.63087E+03    -113.704E-03     223.229E-03    -109.525E-03     114.386E-03    -114.786E-03     223.690E-03    -109.308E-03     110.652E-03
            1861     6.45558E-03     37.0044E-03    -52.6923E+06    -148.728E+06    -15.4977E+06     120.151E+03    -112.781E-03     222.132E-03    -109.351E-03     101.935E-03    -113.562E-03     222.242E-03    -109.136E-03     98.8453E-03
            1862     5.64948E-03     36.8958E-03    -57.5071E+06    -166.478E+06    -22.6378E+06     253.932E+03    -111.898E-03     221.086E-03    -109.188E-03     89.4644E-03    -112.443E-03     220.902E-03    -108.976E-03     86.9341E-03
            1863     4.84314E-03     36.8004E-03    -62.4011E+06    -179.267E+06    -31.6817E+06     251.806E+03    -111.057E-03     220.081E-03    -109.024E-03     77.0553E-03    -111.426E-03     219.685E-03    -108.832E-03     75.0148E-03
            1864     4.03646E-03     36.7196E-03    -67.4003E+06    -195.754E+06    -42.6230E+06     218.301E+03    -110.287E-03     219.166E-03    -108.878E-03     64.5298E-03    -110.516E-03     218.583E-03    -108.710E-03     62.9187E-03
            1865     3.22939E-03     36.6526E-03    -72.2023E+06    -208.471E+06    -53.4160E+06     89.9361E+03    -109.654E-03     218.405E-03    -108.751E-03     51.8686E-03    -109.780E-03     217.689E-03    -108.611E-03     50.6354E-03
            1866     2.42239E-03     36.6006E-03    -76.6177E+06    -221.264E+06    -64.2568E+06     115.234E+03    -109.188E-03     217.826E-03    -108.638E-03     39.1023E-03    -109.236E-03     217.003E-03    -108.527E-03     38.2084E-03
            1867     1.61498E-03     36.5629E-03     -80.136E+06    -228.218E+06    -74.5795E+06     191.075E+03    -108.798E-03     217.332E-03    -108.533E-03     26.4798E-03    -108.796E-03     216.451E-03    -108.459E-03     25.8957E-03
            1868     807.526E-06     36.5397E-03    -82.2710E+06    -232.190E+06    -80.9199E+06     50.7072E+03    -108.539E-03     217.017E-03    -108.478E-03     14.3951E-03    -108.507E-03     216.105E-03    -108.426E-03     14.0832E-03
            1869     15.3075E-03     38.1421E-03    -4.24158E+06     124.578E+06     98.4094E+06     38.1164E+03    -111.730E-03     222.697E-03    -110.967E-03     168.898E-03    -122.066E-03     233.175E-03    -110.650E-03     163.404E-03
            1870     14.5044E-03     37.8841E-03    -10.4160E+06     120.591E+06     99.5500E+06     257.452E+03    -115.928E-03     226.831E-03    -110.903E-03     258.905E-03    -132.283E-03     243.288E-03    -110.565E-03     249.199E-03
            1871     13.6996E-03     37.5654E-03    -17.8569E+06     107.366E+06     88.2316E+06     362.940E+03    -120.139E-03     230.911E-03    -110.771E-03     280.892E-03    -135.750E-03     246.583E-03    -110.460E-03     268.340E-03
            1872     12.8951E-03     37.2533E-03    -22.8136E+06     94.1737E+06     64.3432E+06     173.847E+03    -120.336E-03     230.878E-03    -110.542E-03     257.505E-03    -132.205E-03     242.814E-03    -110.324E-03     245.143E-03
            1873     12.0921E-03     36.9898E-03    -27.2918E+06     77.6510E+06     32.2232E+06     26.0342E+03    -118.645E-03     228.896E-03    -110.252E-03     217.491E-03    -126.531E-03     236.868E-03    -110.164E-03     206.971E-03
            1874     11.2875E-03     36.7697E-03    -31.4118E+06     39.6399E+06     11.7365E+06    -27.8034E+03    -117.264E-03     227.303E-03    -110.039E-03     186.837E-03    -122.562E-03     232.596E-03    -109.993E-03     178.093E-03
            1875     10.4833E-03     36.5741E-03    -34.8784E+06    -17.5320E+06     4.23772E+06     182.800E+03    -116.596E-03     226.508E-03    -109.912E-03     167.184E-03    -120.346E-03     230.060E-03    -109.815E-03     159.808E-03
            1876     9.67846E-03     36.3961E-03    -37.7766E+06    -64.0218E+06    -1.70351E+06    -24.7870E+03    -116.096E-03     225.859E-03    -109.763E-03     152.678E-03    -118.828E-03     228.235E-03    -109.624E-03     146.417E-03
            1877     8.87384E-03     36.2316E-03    -40.7397E+06    -94.6734E+06    -4.27294E+06    -300.898E+03    -115.462E-03     225.055E-03    -109.593E-03     139.150E-03    -117.471E-03     226.596E-03    -109.418E-03     133.846E-03
            1878     8.06880E-03     36.0822E-03    -44.3247E+06    -122.433E+06    -5.32270E+06    -42.5513E+03    -114.642E-03     224.057E-03    -109.415E-03     125.885E-03    -116.111E-03     224.949E-03    -109.200E-03     121.425E-03
            1879     7.26367E-03     35.9464E-03    -48.3775E+06    -134.526E+06    -9.66183E+06     230.783E+03    -113.628E-03     222.827E-03    -109.199E-03     113.270E-03    -114.702E-03     223.280E-03    -108.982E-03     109.558E-03
            1880     6.45782E-03     35.8247E-03    -52.8436E+06    -148.788E+06    -15.7697E+06     148.808E+03    -112.605E-03     221.596E-03    -108.991E-03     100.893E-03    -113.377E-03     221.698E-03    -108.778E-03     97.8253E-03
            1881     5.65173E-03     35.7162E-03    -57.5800E+06    -166.634E+06    -22.7990E+06     81.1669E+03    -111.664E-03     220.464E-03    -108.800E-03     88.5222E-03    -112.202E-03     220.273E-03    -108.589E-03     86.0096E-03
            1882     4.84519E-03     35.6221E-03    -62.4742E+06    -179.266E+06    -31.9055E+06     42.7239E+03    -110.763E-03     219.372E-03    -108.609E-03     76.1962E-03    -111.127E-03     218.970E-03    -108.418E-03     74.1706E-03
            1883     4.03823E-03     35.5416E-03    -67.2509E+06    -195.642E+06    -42.6181E+06     125.792E+03    -109.934E-03     218.373E-03    -108.439E-03     63.7575E-03    -110.159E-03     217.788E-03    -108.271E-03     62.1600E-03
            1884     3.23102E-03     35.4755E-03    -71.9824E+06    -208.367E+06    -53.4380E+06     197.215E+03    -109.221E-03     217.516E-03    -108.295E-03     51.2774E-03    -109.343E-03     216.798E-03    -108.156E-03     50.0589E-03
            1885     2.42330E-03     35.4235E-03    -76.5724E+06    -221.251E+06    -64.3628E+06     204.977E+03    -108.722E-03     216.899E-03    -108.177E-03     38.6983E-03    -108.769E-03     216.075E-03    -108.067E-03     37.8152E-03
            1886     1.61580E-03     35.3864E-03    -80.1466E+06    -227.917E+06    -74.3164E+06     159.286E+03    -108.350E-03     216.417E-03    -108.067E-03     26.1315E-03    -108.348E-03     215.537E-03    -107.991E-03     25.5518E-03
            1887     807.904E-06     35.3634E-03    -82.3039E+06    -231.911E+06    -80.6346E+06     244.647E+03    -108.148E-03     216.067E-03    -107.919E-03     14.2359E-03    -108.116E-03     215.156E-03    -107.867E-03     13.9305E-03
            1888     15.3109E-03     36.9654E-03    -5.30810E+06     123.486E+06     97.3000E+06     66.9717E+03    -112.266E-03     223.227E-03    -110.962E-03     167.822E-03    -122.567E-03     233.666E-03    -110.647E-03     162.230E-03
            1889     14.5029E-03     36.6934E-03    -11.1767E+06     119.856E+06     98.8612E+06     208.451E+03    -116.653E-03     227.512E-03    -110.859E-03     257.716E-03    -132.950E-03     243.908E-03    -110.522E-03     247.877E-03
            1890     13.7018E-03     36.3813E-03    -16.4801E+06     108.736E+06     89.9913E+06    -52.0938E+03    -120.689E-03     231.374E-03    -110.685E-03     279.735E-03    -136.239E-03     246.991E-03    -110.369E-03     267.115E-03
            1891     12.8983E-03     36.0680E-03    -22.1248E+06     94.7873E+06     65.1017E+06     389.112E+03    -120.618E-03     231.038E-03    -110.420E-03     257.774E-03    -132.465E-03     242.954E-03    -110.200E-03     245.408E-03
            1892     12.0932E-03     35.8059E-03    -27.3639E+06     77.2908E+06     31.2545E+06     722.617E+03    -118.720E-03     228.825E-03    -110.105E-03     217.030E-03    -126.566E-03     236.758E-03    -110.022E-03     206.542E-03
            1893     11.2894E-03     35.5848E-03    -31.2742E+06     39.6434E+06     10.9337E+06     750.486E+03    -117.547E-03     227.414E-03    -109.868E-03     186.088E-03    -122.818E-03     232.683E-03    -109.825E-03     177.356E-03
            1894     10.4852E-03     35.3913E-03    -34.3955E+06    -16.7518E+06     4.17601E+06     384.554E+03    -116.926E-03     226.626E-03    -109.701E-03     166.151E-03    -120.658E-03     230.165E-03    -109.605E-03     158.775E-03
            1895     9.68105E-03     35.2129E-03    -37.1869E+06    -63.2837E+06    -1.50661E+06    -193.524E+03    -116.316E-03     225.821E-03    -109.505E-03     151.492E-03    -119.031E-03     228.184E-03    -109.367E-03     145.234E-03
            1896     8.87646E-03     35.0497E-03    -40.2140E+06    -94.7061E+06    -4.31518E+06    -340.403E+03    -115.532E-03     224.823E-03    -109.291E-03     137.923E-03    -117.521E-03     226.345E-03    -109.117E-03     132.637E-03
            1897     8.07173E-03     34.9005E-03    -43.6183E+06    -123.424E+06    -5.13622E+06     134.146E+03    -114.586E-03     223.662E-03    -109.076E-03     124.599E-03    -116.035E-03     224.533E-03    -108.860E-03     120.163E-03
            1898     7.26634E-03     34.7664E-03    -47.7882E+06    -134.453E+06     -9.1799E+06     538.272E+03    -113.498E-03     222.323E-03    -108.824E-03     111.969E-03    -114.558E-03     222.762E-03    -108.606E-03     108.282E-03
            1899     6.46056E-03     34.6451E-03    -52.5531E+06    -148.112E+06    -15.5959E+06     289.554E+03    -112.405E-03     220.984E-03    -108.579E-03     99.7152E-03    -113.167E-03     221.080E-03    -108.366E-03     96.6719E-03
            1900     5.65421E-03     34.5380E-03    -57.5282E+06    -166.598E+06    -22.8768E+06     99.6347E+03    -111.362E-03     219.719E-03    -108.357E-03     87.4527E-03    -111.893E-03     219.521E-03    -108.147E-03     84.9627E-03
            1901     4.84737E-03     34.4442E-03    -62.4778E+06    -179.013E+06    -31.9817E+06    -71.0807E+03    -110.389E-03     218.530E-03    -108.141E-03     75.2396E-03    -110.748E-03     218.124E-03    -107.950E-03     73.2329E-03
            1902     4.04027E-03     34.3648E-03    -67.4573E+06    -195.875E+06    -42.9523E+06    -77.8066E+03    -109.526E-03     217.475E-03    -107.948E-03     62.9467E-03    -109.747E-03     216.885E-03    -107.781E-03     61.3632E-03
            1903     3.23257E-03     34.2992E-03    -72.2867E+06    -208.515E+06    -53.7689E+06     294.662E+03    -108.767E-03     216.551E-03    -107.784E-03     50.6448E-03    -108.889E-03     215.832E-03    -107.646E-03     49.4420E-03
            1904     2.42479E-03     34.2479E-03    -76.5472E+06    -221.007E+06    -64.3884E+06     267.371E+03    -108.189E-03     215.846E-03    -107.657E-03     38.2548E-03    -108.235E-03     215.022E-03    -107.547E-03     37.3844E-03
            1905     1.61649E-03     34.2107E-03    -79.8643E+06    -227.653E+06    -74.2996E+06     67.7149E+03    -107.820E-03     215.370E-03    -107.549E-03     25.7889E-03    -107.817E-03     214.490E-03    -107.475E-03     25.2155E-03
            1906     808.388E-06     34.1883E-03    -82.1870E+06    -231.600E+06    -80.3814E+06     45.8367E+03    -107.673E-03     215.037E-03    -107.363E-03     14.0953E-03    -107.642E-03     214.126E-03    -107.310E-03     13.7891E-03
            1907     15.3062E-03     35.7721E-03    -5.34335E+06     123.412E+06     97.1665E+06     73.7557E+03    -113.186E-03     224.126E-03    -110.940E-03     167.704E-03    -123.486E-03     234.563E-03    -110.625E-03     161.961E-03
            1908     14.5088E-03     35.5111E-03    -11.0409E+06     119.691E+06     98.5357E+06    -456.491E+03    -117.237E-03     228.029E-03    -110.792E-03     257.440E-03    -133.454E-03     244.346E-03    -110.457E-03     247.509E-03
            1909     13.7018E-03     35.1943E-03    -16.8848E+06     108.129E+06     89.4576E+06    -391.345E+03    -120.767E-03     231.370E-03    -110.603E-03     280.605E-03    -136.286E-03     246.953E-03    -110.288E-03     267.982E-03
            1910     12.8979E-03     34.8826E-03    -23.0230E+06     93.9965E+06     64.9360E+06     379.435E+03    -121.246E-03     231.563E-03    -110.317E-03     257.366E-03    -133.083E-03     243.464E-03    -110.095E-03     244.937E-03
            1911     12.0955E-03     34.6208E-03    -27.6961E+06     77.1203E+06     31.6211E+06     890.818E+03    -119.282E-03     229.234E-03    -109.952E-03     215.871E-03    -127.100E-03     237.136E-03    -109.865E-03     205.356E-03
            1912     11.2915E-03     34.4011E-03    -31.0264E+06     40.2788E+06     11.3875E+06     901.886E+03    -117.911E-03     227.570E-03    -109.660E-03     184.743E-03    -123.154E-03     232.814E-03    -109.616E-03     176.006E-03
            1913     10.4879E-03     34.2069E-03    -33.6537E+06    -15.7271E+06     4.91931E+06     288.440E+03    -117.214E-03     226.656E-03    -109.443E-03     164.663E-03    -120.922E-03     230.175E-03    -109.346E-03     157.283E-03
            1914     9.68407E-03     34.0305E-03    -36.5010E+06    -62.6183E+06    -781.873E+03    -99.2268E+03    -116.498E-03     225.695E-03    -109.197E-03     149.998E-03    -119.192E-03     228.039E-03    -109.057E-03     143.749E-03
            1915     8.87975E-03     33.8677E-03    -39.8026E+06    -94.5079E+06    -4.30285E+06     68.6804E+03    -115.524E-03     224.459E-03    -108.934E-03     136.598E-03    -117.493E-03     225.963E-03    -108.761E-03     131.342E-03
            1916     8.07478E-03     33.7200E-03    -43.7347E+06    -124.173E+06    -5.94274E+06     333.998E+03    -114.458E-03     223.139E-03    -108.681E-03     123.278E-03    -115.889E-03     223.991E-03    -108.467E-03     118.873E-03
            1917     7.26952E-03     33.5865E-03    -47.8553E+06    -134.671E+06    -9.39388E+06     520.801E+03    -113.305E-03     221.701E-03    -108.396E-03     110.661E-03    -114.352E-03     222.127E-03    -108.178E-03     107.001E-03
            1918     6.46354E-03     33.4666E-03    -52.1814E+06    -147.613E+06    -15.1770E+06     507.115E+03    -112.160E-03     220.278E-03    -108.118E-03     98.4763E-03    -112.912E-03     220.365E-03    -107.904E-03     95.4607E-03
            1919     5.65707E-03     33.3603E-03    -56.8280E+06    -166.070E+06    -22.1810E+06     218.189E+03    -111.036E-03     218.898E-03    -107.863E-03     86.2828E-03    -111.557E-03     218.693E-03    -107.650E-03     83.8184E-03
            1920     4.85005E-03     33.2677E-03    -61.7595E+06    -178.535E+06    -31.7239E+06    -78.5607E+03    -109.957E-03     217.574E-03    -107.617E-03     74.1844E-03    -110.307E-03     217.163E-03    -107.427E-03     72.2012E-03
            1921     4.04234E-03     33.1890E-03    -66.6640E+06    -196.484E+06    -42.0525E+06    -78.6156E+03    -109.046E-03     216.455E-03    -107.409E-03     62.0408E-03    -109.259E-03     215.856E-03    -107.238E-03     60.4776E-03
            1922     3.23449E-03     33.1242E-03    -71.4920E+06    -208.799E+06    -52.3812E+06     299.950E+03    -108.275E-03     215.501E-03    -107.226E-03     49.8912E-03    -108.391E-03     214.774E-03    -107.082E-03     48.7046E-03
            1923     2.42603E-03     33.0734E-03    -76.0052E+06    -220.466E+06    -64.0637E+06     433.476E+03    -107.642E-03     214.716E-03    -107.074E-03     37.7010E-03    -107.685E-03     213.892E-03    -106.964E-03     36.8456E-03
            1924     1.61756E-03     33.0367E-03    -79.4894E+06    -227.451E+06    -74.4277E+06     306.263E+03    -107.194E-03     214.162E-03    -106.968E-03     25.4758E-03    -107.188E-03     213.282E-03    -106.895E-03     24.9151E-03
            1925     808.761E-06     33.0142E-03    -81.7088E+06    -231.233E+06    -80.3044E+06    -46.3827E+03    -107.029E-03     213.897E-03    -106.868E-03     13.8824E-03    -106.996E-03     212.988E-03    -106.816E-03     13.5784E-03
            1926     15.3122E-03     34.5834E-03    -4.59002E+06     124.179E+06     98.0305E+06     147.107E+03    -113.355E-03     224.266E-03    -110.911E-03     167.969E-03    -123.566E-03     234.617E-03    -110.594E-03     162.219E-03
            1927     14.5043E-03     34.3241E-03    -10.3890E+06     120.169E+06     99.1546E+06     40.0933E+03    -117.471E-03     228.219E-03    -110.748E-03     256.285E-03    -133.569E-03     244.419E-03    -110.412E-03     246.308E-03
            1928     13.7030E-03     34.0088E-03    -17.6212E+06     107.176E+06     88.0654E+06    -14.9070E+03    -121.735E-03     232.244E-03    -110.510E-03     279.620E-03    -137.217E-03     247.790E-03    -110.199E-03     266.856E-03
            1929     12.9007E-03     33.6959E-03    -23.8970E+06     93.0491E+06     63.8897E+06     148.405E+03    -121.811E-03     231.972E-03    -110.161E-03     255.226E-03    -133.577E-03     243.798E-03    -109.942E-03     242.744E-03
            1930     12.0975E-03     33.4354E-03    -28.2291E+06     76.9896E+06     32.6913E+06     316.557E+03    -119.734E-03     229.478E-03    -109.744E-03     213.832E-03    -127.513E-03     237.336E-03    -109.652E-03     203.280E-03
            1931     11.2949E-03     33.2166E-03    -31.4607E+06     41.3937E+06     12.3790E+06     388.208E+03    -118.206E-03     227.601E-03    -109.395E-03     183.184E-03    -123.426E-03     232.820E-03    -109.347E-03     174.435E-03
            1932     10.4914E-03     33.0235E-03    -34.5012E+06    -14.9402E+06     4.06082E+06    -143.500E+03    -117.328E-03     226.451E-03    -109.123E-03     163.411E-03    -121.011E-03     229.948E-03    -109.031E-03     156.045E-03
            1933     9.68761E-03     32.8477E-03    -37.3790E+06    -62.7975E+06    -1.71439E+06    -317.274E+03    -116.557E-03     225.394E-03    -108.837E-03     148.589E-03    -119.231E-03     227.717E-03    -108.700E-03     142.358E-03
            1934     8.88328E-03     32.6866E-03    -40.4687E+06    -94.8859E+06    -4.92758E+06     324.800E+03    -115.492E-03     224.025E-03    -108.533E-03     135.145E-03    -117.442E-03     225.509E-03    -108.361E-03     129.920E-03
            1935     8.07847E-03     32.5397E-03    -43.9213E+06    -124.134E+06    -6.42457E+06     551.547E+03    -114.293E-03     222.532E-03    -108.239E-03     121.896E-03    -115.704E-03     223.366E-03    -108.027E-03     117.531E-03
            1936     7.27294E-03     32.4077E-03    -47.9930E+06    -134.647E+06    -9.50568E+06     287.213E+03    -113.074E-03     220.994E-03    -107.921E-03     109.273E-03    -114.106E-03     221.405E-03    -107.703E-03     105.644E-03
            1937     6.46682E-03     32.2887E-03    -52.2162E+06    -147.552E+06    -15.2745E+06     184.427E+03    -111.855E-03     219.462E-03    -107.607E-03     97.1272E-03    -112.596E-03     219.538E-03    -107.394E-03     94.1380E-03
            1938     5.66018E-03     32.1837E-03    -56.6611E+06    -165.596E+06    -22.4769E+06     157.202E+03    -110.664E-03     217.980E-03    -107.316E-03     85.0355E-03    -111.176E-03     217.768E-03    -107.107E-03     82.5984E-03
            1939     4.85273E-03     32.0923E-03    -61.5701E+06    -178.075E+06    -31.7653E+06    -2.38404E+03    -109.533E-03     216.572E-03    -107.039E-03     73.0354E-03    -109.876E-03     216.157E-03    -106.850E-03     71.0785E-03
            1940     4.04493E-03     32.0145E-03    -66.7693E+06    -196.712E+06    -42.6047E+06     64.7373E+03    -108.542E-03     215.341E-03    -106.800E-03     61.0249E-03    -108.749E-03     214.737E-03    -106.631E-03     59.4869E-03
            1941     3.23641E-03     31.9505E-03    -71.6689E+06    -209.186E+06    -53.2259E+06     322.643E+03    -107.711E-03     214.301E-03    -106.590E-03     49.0321E-03    -107.823E-03     213.571E-03    -106.449E-03     47.8652E-03
            1942     2.42779E-03     31.9003E-03    -75.8764E+06    -220.137E+06    -64.0146E+06     604.938E+03    -107.037E-03     213.456E-03    -106.419E-03     37.0001E-03    -107.078E-03     212.632E-03    -106.310E-03     36.1609E-03
            1943     1.61856E-03     31.8641E-03    -79.2153E+06    -226.874E+06    -74.0123E+06     575.832E+03    -106.528E-03     212.829E-03    -106.301E-03     25.0507E-03    -106.521E-03     211.950E-03    -106.228E-03     24.5033E-03
            1944     809.220E-06     31.8417E-03    -81.2015E+06    -230.709E+06    -80.0346E+06     369.710E+03    -106.372E-03     212.559E-03    -106.186E-03     13.7023E-03    -106.338E-03     211.650E-03    -106.134E-03     13.4096E-03
            1945     15.3082E-03     33.3976E-03    -5.16315E+06     123.250E+06     96.9456E+06     124.734E+03    -113.967E-03     224.842E-03    -110.874E-03     167.104E-03    -124.109E-03     235.121E-03    -110.561E-03     161.227E-03
            1946     14.5084E-03     33.1373E-03    -11.1413E+06     119.425E+06     98.2385E+06     159.839E+03    -118.508E-03     229.168E-03    -110.660E-03     255.123E-03    -134.573E-03     245.333E-03    -110.326E-03     244.957E-03
            1947     13.7057E-03     32.8208E-03    -16.8391E+06     107.921E+06     89.2407E+06     386.507E+03    -122.756E-03     233.104E-03    -110.348E-03     277.235E-03    -138.171E-03     248.584E-03    -110.033E-03     264.335E-03
            1948     12.9036E-03     32.5101E-03    -22.6341E+06     94.1041E+06     65.1623E+06     700.904E+03    -122.055E-03     231.989E-03    -109.934E-03     253.707E-03    -133.742E-03     243.740E-03    -109.712E-03     241.237E-03
            1949     12.1016E-03     32.2498E-03    -27.4923E+06     77.3439E+06     32.3930E+06     238.882E+03    -119.850E-03     229.326E-03    -109.476E-03     212.914E-03    -127.584E-03     237.143E-03    -109.387E-03     202.375E-03
            1950     11.2984E-03     32.0324E-03    -30.5823E+06     41.6096E+06     11.9633E+06    -7.34288E+03    -118.468E-03     227.556E-03    -109.088E-03     182.097E-03    -123.655E-03     232.748E-03    -109.044E-03     173.342E-03
            1951     10.4950E-03     31.8403E-03    -33.5559E+06    -14.1878E+06     4.56427E+06     496.483E+03    -117.466E-03     226.241E-03    -108.775E-03     162.173E-03    -121.114E-03     229.707E-03    -108.683E-03     154.841E-03
            1952     9.69128E-03     31.6654E-03    -37.3561E+06    -62.6471E+06    -1.40824E+06     498.566E+03    -116.551E-03     224.999E-03    -108.448E-03     147.275E-03    -119.196E-03     227.293E-03    -108.310E-03     141.091E-03
            1953     8.88728E-03     31.5057E-03    -41.1298E+06    -95.5056E+06    -4.88961E+06     245.640E+03    -115.475E-03     223.578E-03    -108.102E-03     133.673E-03    -117.406E-03     225.037E-03    -107.929E-03     128.476E-03
            1954     8.08227E-03     31.3604E-03    -44.5335E+06    -123.486E+06    -6.84296E+06     174.282E+03    -114.186E-03     221.944E-03    -107.758E-03     120.421E-03    -115.581E-03     222.762E-03    -107.548E-03     116.088E-03
            1955     7.27676E-03     31.2294E-03    -47.9803E+06    -134.182E+06    -10.2522E+06    -130.275E+03    -112.838E-03     220.231E-03    -107.393E-03     107.763E-03    -113.851E-03     220.627E-03    -107.180E-03     104.168E-03
            1956     6.47054E-03     31.1120E-03    -52.1361E+06    -147.828E+06    -15.8922E+06     32.0481E+03    -111.513E-03     218.555E-03    -107.042E-03     95.5869E-03    -112.238E-03     218.616E-03    -106.831E-03     92.6319E-03
            1957     5.66344E-03     31.0083E-03    -57.0239E+06    -165.250E+06    -23.2304E+06     203.590E+03    -110.236E-03     216.951E-03    -106.715E-03     83.5912E-03    -110.739E-03     216.732E-03    -106.509E-03     81.1875E-03
            1958     4.85591E-03     30.9179E-03    -62.2222E+06    -178.020E+06    -32.0638E+06     124.819E+03    -109.063E-03     215.469E-03    -106.406E-03     71.7425E-03    -109.402E-03     215.048E-03    -106.218E-03     69.8151E-03
            1959     4.04757E-03     30.8415E-03    -67.1371E+06    -196.801E+06    -42.6167E+06     199.097E+03    -108.024E-03     214.154E-03    -106.130E-03     59.9160E-03    -108.228E-03     213.545E-03    -105.961E-03     58.4030E-03
            1960     3.23884E-03     30.7781E-03    -71.8156E+06    -209.325E+06    -53.7386E+06     395.166E+03    -107.109E-03     212.993E-03    -105.883E-03     48.1179E-03    -107.218E-03     212.259E-03    -105.744E-03     46.9718E-03
            1961     2.42942E-03     30.7288E-03    -76.0809E+06    -220.033E+06    -64.3575E+06     516.511E+03    -106.389E-03     212.068E-03    -105.679E-03     36.2301E-03    -106.429E-03     211.243E-03    -105.571E-03     35.4051E-03
            1962     1.61986E-03     30.6931E-03    -79.1911E+06    -226.277E+06    -73.3916E+06     458.946E+03    -105.853E-03     211.369E-03    -105.516E-03     24.4716E-03    -105.847E-03     210.491E-03    -105.440E-03     23.9324E-03
            1963     810.055E-06     30.6709E-03    -81.1414E+06    -230.065E+06    -79.5060E+06     401.956E+03    -105.514E-03     210.919E-03    -105.405E-03     13.5559E-03    -105.481E-03     210.013E-03    -105.351E-03     13.2710E-03
            1964     15.3124E-03     32.2118E-03    -5.00536E+06     123.350E+06     96.9084E+06     566.963E+03    -115.526E-03     226.363E-03    -110.837E-03     166.024E-03    -125.725E-03     236.700E-03    -110.524E-03     159.893E-03
            1965     14.5084E-03     31.9463E-03    -10.9919E+06     119.683E+06     98.0583E+06    -33.6029E+03    -119.749E-03     230.287E-03    -110.538E-03     255.490E-03    -135.923E-03     246.563E-03    -110.205E-03     245.046E-03
            1966     13.7091E-03     31.6332E-03    -17.5606E+06     107.217E+06     88.5736E+06    -208.655E+03    -123.250E-03     233.414E-03    -110.165E-03     276.755E-03    -138.636E-03     248.863E-03    -109.852E-03     263.775E-03
            1967     12.9074E-03     31.3242E-03    -22.7218E+06     94.0993E+06     65.9933E+06     122.302E+03    -122.472E-03     232.187E-03    -109.715E-03     253.388E-03    -134.115E-03     243.893E-03    -109.489E-03     240.891E-03
            1968     12.1040E-03     31.0648E-03    -26.8444E+06     77.8024E+06     32.9733E+06     173.573E+03    -120.277E-03     229.488E-03    -109.212E-03     212.527E-03    -127.975E-03     237.272E-03    -109.121E-03     201.975E-03
            1969     11.3017E-03     30.8473E-03    -31.0062E+06     41.4781E+06     11.3024E+06     355.176E+03    -118.820E-03     227.590E-03    -108.770E-03     180.859E-03    -123.962E-03     232.736E-03    -108.728E-03     172.124E-03
            1970     10.4991E-03     30.6574E-03    -34.5316E+06    -14.2433E+06     4.25469E+06     667.038E+03    -117.671E-03     226.077E-03    -108.406E-03     160.629E-03    -121.288E-03     229.509E-03    -108.314E-03     153.324E-03
            1971     9.69545E-03     30.4837E-03    -37.2181E+06    -62.4378E+06    -1.55302E+06     852.828E+03    -116.604E-03     224.632E-03    -108.028E-03     145.814E-03    -119.217E-03     226.895E-03    -107.891E-03     139.673E-03
            1972     8.89110E-03     30.3251E-03    -40.0689E+06    -94.8365E+06    -4.69305E+06     770.313E+03    -115.465E-03     223.098E-03    -107.632E-03     131.949E-03    -117.364E-03     224.532E-03    -107.460E-03     126.796E-03
            1973     8.08658E-03     30.1816E-03    -43.8733E+06    -122.175E+06    -6.85314E+06     209.599E+03    -114.104E-03     221.337E-03    -107.233E-03     118.580E-03    -115.475E-03     222.139E-03    -107.027E-03     114.282E-03
            1974     7.28097E-03     30.0521E-03    -48.2175E+06    -134.185E+06    -11.2426E+06    -287.122E+03    -112.588E-03     219.405E-03    -106.817E-03     106.048E-03    -113.583E-03     219.785E-03    -106.608E-03     102.492E-03
            1975     6.47444E-03     29.9363E-03    -52.5477E+06    -148.605E+06    -16.4233E+06    -67.5505E+03    -111.150E-03     217.575E-03    -106.425E-03     93.9385E-03    -111.860E-03     217.619E-03    -106.216E-03     91.0210E-03
            1976     5.66737E-03     29.8340E-03    -57.0102E+06    -165.048E+06    -22.9288E+06     292.671E+03    -109.794E-03     215.853E-03    -106.059E-03     82.0556E-03    -110.286E-03     215.624E-03    -105.852E-03     79.6882E-03
            1977     4.85916E-03     29.7451E-03    -61.7129E+06    -177.496E+06    -31.8193E+06     65.9585E+03    -108.536E-03     214.245E-03    -105.709E-03     70.3361E-03    -108.865E-03     213.818E-03    -105.522E-03     68.4386E-03
            1978     4.05058E-03     29.6695E-03    -66.6092E+06    -197.245E+06    -40.8096E+06     68.6171E+03    -107.441E-03     212.847E-03    -105.406E-03     58.6538E-03    -107.639E-03     212.227E-03    -105.227E-03     57.1639E-03
            1979     3.24125E-03     29.6076E-03    -71.6084E+06    -209.474E+06    -51.4896E+06     521.096E+03    -106.465E-03     211.587E-03    -105.122E-03     47.0678E-03    -106.572E-03     210.845E-03    -104.972E-03     45.9432E-03
            1980     2.43154E-03     29.5589E-03    -76.1031E+06    -219.260E+06    -63.7641E+06     385.729E+03    -105.685E-03     210.552E-03    -104.867E-03     35.4717E-03    -105.725E-03     209.728E-03    -104.757E-03     34.6609E-03
            1981     1.62137E-03     29.5239E-03    -79.5486E+06    -226.194E+06    -73.6848E+06    -52.4830E+03    -105.101E-03     209.750E-03    -104.649E-03     23.9352E-03    -105.095E-03     208.873E-03    -104.574E-03     23.3998E-03
            1982     810.772E-06     29.5024E-03    -81.5230E+06    -229.850E+06    -79.5498E+06    -80.3879E+03    -104.656E-03     209.121E-03    -104.466E-03     13.1030E-03    -104.624E-03     208.216E-03    -104.412E-03     12.8195E-03
            1983     15.3097E-03     31.0189E-03    -5.25661E+06     123.366E+06     96.9905E+06     170.024E+03    -116.717E-03     227.516E-03    -110.799E-03     165.743E-03    -126.876E-03     237.813E-03    -110.485E-03     159.458E-03
            1984     14.5123E-03     30.7580E-03    -10.1935E+06     120.296E+06     99.0224E+06     879.881E+03    -120.600E-03     231.045E-03    -110.445E-03     254.845E-03    -136.605E-03     247.154E-03    -110.110E-03     244.331E-03
            1985     13.7097E-03     30.4436E-03    -16.5296E+06     108.023E+06     89.2614E+06     693.575E+03    -123.586E-03     233.620E-03    -110.034E-03     276.335E-03    -138.850E-03     248.950E-03    -109.721E-03     263.363E-03
            1986     12.9083E-03     30.1374E-03    -22.9409E+06     93.7553E+06     64.8651E+06    -353.692E+03    -123.433E-03     232.962E-03    -109.529E-03     252.531E-03    -135.047E-03     244.640E-03    -109.307E-03     239.927E-03
            1987     12.1079E-03     29.8786E-03    -28.1105E+06     76.6199E+06     31.8348E+06     89.5756E+03    -121.220E-03     230.166E-03    -108.945E-03     211.048E-03    -128.875E-03     237.901E-03    -108.857E-03     200.438E-03
            1988     11.3058E-03     29.6630E-03    -31.7163E+06     41.5138E+06     11.2326E+06     995.238E+03    -119.176E-03     227.608E-03    -108.432E-03     179.114E-03    -124.268E-03     232.702E-03    -108.390E-03     170.410E-03
            1989     10.5029E-03     29.4740E-03    -34.6485E+06    -13.4114E+06     3.82383E+06     536.887E+03    -117.890E-03     225.897E-03    -108.007E-03     158.844E-03    -121.469E-03     229.294E-03    -107.918E-03     151.563E-03
            1990     9.69978E-03     29.3025E-03    -37.3996E+06    -62.2589E+06    -2.16356E+06     219.206E+03    -116.783E-03     224.351E-03    -107.568E-03     143.922E-03    -119.364E-03     226.585E-03    -107.434E-03     137.801E-03
            1991     8.89603E-03     29.1452E-03    -40.0402E+06    -94.4961E+06    -5.22297E+06     504.771E+03    -115.409E-03     222.523E-03    -107.114E-03     130.074E-03    -117.276E-03     223.928E-03    -106.945E-03     124.965E-03
            1992     8.09113E-03     29.0033E-03    -43.2282E+06    -121.756E+06    -6.46959E+06     748.132E+03    -113.916E-03     220.584E-03    -106.668E-03     116.676E-03    -115.261E-03     221.363E-03    -106.461E-03     112.430E-03
            1993     7.28549E-03     28.8759E-03    -47.4949E+06    -133.450E+06    -10.2704E+06     571.109E+03    -112.344E-03     218.548E-03    -106.203E-03     104.209E-03    -113.319E-03     218.910E-03    -105.992E-03     100.704E-03
            1994     6.47889E-03     28.7617E-03    -52.2516E+06    -148.555E+06    -16.1424E+06    -37.6396E+03    -110.797E-03     216.556E-03    -105.759E-03     92.1743E-03    -111.491E-03     216.584E-03    -105.549E-03     89.2965E-03
            1995     5.67119E-03     28.6611E-03    -56.8204E+06    -165.388E+06    -22.5450E+06    -110.708E+03    -109.349E-03     214.694E-03    -105.345E-03     80.3549E-03    -109.828E-03     214.450E-03    -105.136E-03     78.0173E-03
            1996     4.86305E-03     28.5735E-03    -61.6442E+06    -176.943E+06    -31.2956E+06     46.1014E+03    -107.983E-03     212.931E-03    -104.948E-03     68.7553E-03    -108.306E-03     212.497E-03    -104.758E-03     66.8885E-03
            1997     4.05382E-03     28.4995E-03    -67.0026E+06    -197.582E+06    -40.6817E+06     2.03393E+03    -106.769E-03     211.372E-03    -104.603E-03     57.2703E-03    -106.963E-03     210.745E-03    -104.423E-03     55.8066E-03
            1998     3.24406E-03     28.4385E-03    -71.9485E+06    -209.717E+06    -51.0939E+06     85.1849E+03    -105.717E-03     210.004E-03    -104.287E-03     45.9345E-03    -105.822E-03     209.257E-03    -104.134E-03     44.8261E-03
            1999     2.43359E-03     28.3910E-03    -76.2625E+06    -218.605E+06    -63.1384E+06     107.690E+03    -104.854E-03     208.862E-03    -104.009E-03     34.6700E-03    -104.894E-03     208.039E-03    -103.897E-03     33.8727E-03
            2000     1.62267E-03     28.3566E-03    -79.7159E+06    -225.831E+06    -73.9167E+06    -258.278E+03    -104.213E-03     207.996E-03    -103.783E-03     23.4155E-03    -104.207E-03     207.120E-03    -103.709E-03     22.8892E-03
            2001     811.605E-06     28.3358E-03    -81.9544E+06    -230.338E+06     -80.905E+06    -40.2755E+03    -103.819E-03     207.392E-03    -103.573E-03     12.8357E-03    -103.786E-03     206.487E-03    -103.525E-03     12.5582E-03
            2002     15.3126E-03     29.8248E-03    -5.41294E+06     123.067E+06     96.6871E+06    -427.521E+03    -117.390E-03     228.125E-03    -110.735E-03     165.012E-03    -127.387E-03     238.259E-03    -110.422E-03     158.618E-03
            2003     14.5114E-03     29.5672E-03    -10.6754E+06     119.459E+06     98.5894E+06     460.778E+03    -121.091E-03     231.433E-03    -110.342E-03     251.813E-03    -136.778E-03     247.221E-03    -110.007E-03     241.308E-03
            2004     13.7116E-03     29.2560E-03    -16.0537E+06     108.239E+06     89.6948E+06     1.15612E+06    -124.306E-03     234.188E-03    -109.882E-03     274.212E-03    -139.380E-03     249.329E-03    -109.567E-03     261.207E-03
            2005     12.9114E-03     28.9481E-03    -22.2285E+06     94.2724E+06     65.3011E+06     959.840E+03    -124.213E-03     233.519E-03    -109.306E-03     250.080E-03    -135.732E-03     245.105E-03    -109.084E-03     237.424E-03
            2006     12.1110E-03     28.6914E-03    -27.9545E+06     76.4172E+06     31.1561E+06     887.448E+03    -121.809E-03     230.450E-03    -108.641E-03     208.357E-03    -129.382E-03     238.105E-03    -108.556E-03     197.748E-03
            2007     11.3098E-03     28.4786E-03    -31.2137E+06     41.4791E+06     10.3109E+06     601.396E+03    -119.531E-03     227.587E-03    -108.056E-03     176.932E-03    -124.567E-03     232.630E-03    -108.020E-03     168.235E-03
            2008     10.5077E-03     28.2911E-03    -33.8380E+06    -12.3843E+06     4.65371E+06     843.765E+03    -118.118E-03     225.693E-03    -107.575E-03     156.963E-03    -121.655E-03     229.053E-03    -107.485E-03     149.712E-03
            2009     9.70482E-03     28.1211E-03    -37.2545E+06    -61.3016E+06    -973.951E+03     582.467E+03    -116.880E-03     223.959E-03    -107.078E-03     141.930E-03    -119.429E-03     226.160E-03    -106.940E-03     135.848E-03
            2010     8.90085E-03     27.9661E-03    -40.8938E+06    -94.8867E+06    -5.77526E+06     118.788E+03    -115.344E-03     221.905E-03    -106.561E-03     128.124E-03    -117.184E-03     223.280E-03    -106.393E-03     123.056E-03
            2011     8.09599E-03     27.8261E-03    -44.1508E+06    -122.150E+06    -7.32761E+06     298.942E+03    -113.723E-03     219.782E-03    -106.059E-03     114.695E-03    -115.045E-03     220.535E-03    -105.855E-03     110.492E-03
            2012     7.29023E-03     27.7004E-03    -47.2588E+06    -132.716E+06    -9.87270E+06     424.935E+03    -112.091E-03     217.633E-03    -105.542E-03     102.108E-03    -113.047E-03     217.979E-03    -105.331E-03     98.6423E-03
            2013     6.48342E-03     27.5883E-03    -51.1818E+06    -147.577E+06    -14.8795E+06     287.180E+03    -110.454E-03     215.496E-03    -105.042E-03     90.1398E-03    -111.130E-03     215.510E-03    -104.828E-03     87.3047E-03
            2014     5.67588E-03     27.4894E-03    -56.2547E+06    -165.436E+06    -21.4896E+06     64.4196E+03    -108.846E-03     213.420E-03    -104.574E-03     78.4883E-03    -109.312E-03     213.162E-03    -104.360E-03     76.1906E-03
            2015     4.86696E-03     27.4037E-03    -61.4864E+06    -177.115E+06    -30.8948E+06    -17.8986E+03    -107.341E-03     211.470E-03    -104.130E-03     67.1480E-03    -107.654E-03     211.026E-03    -103.938E-03     65.3144E-03
            2016     4.05744E-03     27.3311E-03    -66.2326E+06    -197.441E+06    -40.8610E+06    -13.6227E+03    -106.035E-03     209.780E-03    -103.746E-03     55.9305E-03    -106.219E-03     209.147E-03    -103.568E-03     54.4955E-03
            2017     3.24692E-03     27.2716E-03    -71.2259E+06    -209.877E+06    -51.6788E+06    -3.73466E+03    -104.895E-03     208.297E-03    -103.402E-03     44.8408E-03    -104.992E-03     207.546E-03    -103.253E-03     43.7545E-03
            2018     2.43583E-03     27.2250E-03    -76.1159E+06    -218.464E+06    -63.4365E+06     65.4580E+03    -103.954E-03     207.067E-03    -103.113E-03     33.7645E-03    -103.991E-03     206.242E-03    -103.003E-03     32.9846E-03
            2019     1.62419E-03     27.1916E-03    -80.1808E+06    -225.662E+06    -73.9290E+06     167.699E+03    -103.251E-03     206.157E-03    -102.906E-03     22.7812E-03    -103.247E-03     205.282E-03    -102.832E-03     22.2726E-03
            2020     811.979E-06     27.1711E-03    -82.8146E+06    -230.390E+06    -81.1151E+06     281.271E+03    -102.827E-03     205.668E-03    -102.841E-03     12.4078E-03    -102.798E-03     204.764E-03    -102.792E-03     12.1387E-03
            2021     15.3136E-03     28.6327E-03    -5.00022E+06     123.220E+06     96.8972E+06    -110.688E+03    -118.888E-03     229.533E-03    -110.645E-03     163.060E-03    -128.729E-03     239.513E-03    -110.332E-03     156.490E-03
            2022     14.5151E-03     28.3770E-03    -10.6520E+06     119.232E+06     98.2779E+06    -92.8269E+03    -121.554E-03     231.739E-03    -110.185E-03     249.557E-03    -137.066E-03     247.352E-03    -109.851E-03     238.941E-03
            2023     13.7153E-03     28.0665E-03    -17.1887E+06     106.995E+06     88.5948E+06     431.399E+03    -125.375E-03     235.035E-03    -109.660E-03     272.726E-03    -140.361E-03     250.083E-03    -109.348E-03     259.576E-03
            2024     12.9158E-03     27.7595E-03    -23.0225E+06     93.4645E+06     65.4484E+06     1.16803E+06    -124.779E-03     233.795E-03    -109.016E-03     248.281E-03    -136.204E-03     245.280E-03    -108.791E-03     235.605E-03
            2025     12.1157E-03     27.5047E-03    -26.9908E+06     77.4880E+06     33.3759E+06     1.35416E+06    -121.900E-03     230.204E-03    -108.304E-03     206.109E-03    -129.384E-03     237.771E-03    -108.210E-03     195.550E-03
            2026     11.3146E-03     27.2937E-03    -30.5762E+06     42.2553E+06     11.4856E+06     917.603E+03    -119.842E-03     227.504E-03    -107.663E-03     174.933E-03    -124.825E-03     232.496E-03    -107.622E-03     166.256E-03
            2027     10.5126E-03     27.1086E-03    -34.0180E+06    -12.3474E+06     4.68381E+06     724.853E+03    -118.405E-03     225.518E-03    -107.113E-03     155.054E-03    -121.904E-03     228.839E-03    -107.022E-03     147.823E-03
            2028     9.70965E-03     26.9401E-03    -36.7237E+06    -60.7012E+06     123.064E+03      772.21E+03    -116.942E-03     223.498E-03    -106.555E-03     139.732E-03    -119.452E-03     225.661E-03    -106.413E-03     133.694E-03
            2029     8.90608E-03     26.7877E-03    -39.5977E+06    -94.1835E+06    -4.70678E+06     756.389E+03    -115.314E-03     221.288E-03    -105.974E-03     125.739E-03    -117.118E-03     222.631E-03    -105.804E-03     120.720E-03
            2030     8.10136E-03     26.6495E-03    -43.1584E+06    -121.200E+06    -7.17899E+06     128.433E+03    -113.572E-03     218.977E-03    -105.405E-03     112.442E-03    -114.864E-03     219.707E-03    -105.203E-03     108.281E-03
            2031     7.29553E-03     26.5263E-03    -46.8720E+06    -133.047E+06    -9.80331E+06    -454.086E+03    -111.780E-03     216.610E-03    -104.830E-03     99.9214E-03    -112.711E-03     216.931E-03    -104.618E-03     96.4907E-03
            2032     6.48866E-03     26.4158E-03    -50.8407E+06    -148.015E+06    -14.5387E+06     237.781E+03    -109.993E-03     214.272E-03    -104.279E-03     88.0940E-03    -110.651E-03     214.266E-03    -104.063E-03     85.3027E-03
            2033     5.68040E-03     26.3195E-03    -55.4312E+06    -164.610E+06    -20.7699E+06     513.670E+03    -108.251E-03     212.016E-03    -103.765E-03     76.6787E-03    -108.703E-03     211.747E-03    -103.550E-03     74.4277E-03
            2034     4.87126E-03     26.2354E-03    -60.5072E+06    -176.958E+06    -31.0365E+06     106.126E+03    -106.642E-03     209.922E-03    -103.279E-03     65.5557E-03    -106.942E-03     209.468E-03    -103.090E-03     63.7597E-03
            2035     4.06090E-03     26.1647E-03    -65.9148E+06    -197.587E+06    -41.8469E+06     334.211E+03    -105.249E-03     208.111E-03    -102.862E-03     54.5343E-03    -105.424E-03     207.472E-03    -102.689E-03     53.1345E-03
            2036     3.24988E-03     26.1065E-03    -71.2092E+06    -209.871E+06    -52.2673E+06     582.353E+03    -104.034E-03     206.534E-03    -102.500E-03     43.6852E-03    -104.127E-03     205.780E-03    -102.353E-03     42.6303E-03
            2037     2.43806E-03     26.0612E-03    -76.1087E+06    -218.322E+06    -63.7510E+06     671.078E+03    -103.050E-03     205.250E-03    -102.200E-03     32.8860E-03    -103.085E-03     204.424E-03    -102.092E-03     32.1313E-03
            2038     1.62562E-03     26.0287E-03    -80.1376E+06    -225.445E+06    -74.2251E+06     638.543E+03    -102.356E-03     204.336E-03    -101.979E-03     22.1535E-03    -102.351E-03     203.461E-03    -101.907E-03     21.6628E-03
            2039     812.994E-06     26.0086E-03    -82.3427E+06    -229.562E+06    -80.8404E+06     78.0313E+03    -101.964E-03     203.796E-03    -101.832E-03     12.0209E-03    -101.934E-03     202.895E-03    -101.784E-03     11.7551E-03
            2040     15.3165E-03     27.4392E-03    -5.34374E+06     122.501E+06     96.2090E+06     107.682E+03    -120.486E-03     231.071E-03    -110.585E-03     160.810E-03    -130.245E-03     240.967E-03    -110.274E-03     154.006E-03
            2041     14.5167E-03     27.1866E-03    -11.2953E+06     118.510E+06     97.2624E+06     223.327E+03    -123.190E-03     233.219E-03    -110.029E-03     249.027E-03    -138.657E-03     248.784E-03    -109.698E-03     238.148E-03
            2042     13.7180E-03     26.8748E-03    -16.9689E+06     107.037E+06     88.9353E+06     350.233E+03    -126.345E-03     235.765E-03    -109.420E-03     271.413E-03    -141.219E-03     250.701E-03    -109.106E-03     258.151E-03
            2043     12.9198E-03     26.5703E-03    -22.3840E+06     93.9183E+06     66.5611E+06     687.583E+03    -125.100E-03     233.817E-03    -108.717E-03     246.682E-03    -136.406E-03     245.184E-03    -108.488E-03     234.026E-03
            2044     12.1198E-03     26.3183E-03    -27.3909E+06     77.2035E+06     33.8721E+06     1.27727E+06    -122.273E-03     230.227E-03    -107.954E-03     204.647E-03    -129.683E-03     237.716E-03    -107.857E-03     194.106E-03
            2045     11.3188E-03     26.1088E-03    -31.5598E+06     43.1112E+06     11.7632E+06     1.43784E+06    -120.305E-03     227.552E-03    -107.247E-03     172.912E-03    -125.239E-03     232.492E-03    -107.205E-03     164.253E-03
            2046     10.5177E-03     25.9256E-03    -34.7622E+06    -11.1634E+06     3.92244E+06     628.593E+03    -118.700E-03     225.318E-03    -106.617E-03     152.473E-03    -122.154E-03     228.597E-03    -106.531E-03     145.268E-03
            2047     9.71545E-03     25.7601E-03    -38.1719E+06    -60.8261E+06    -929.669E+03     529.397E+03    -116.994E-03     222.985E-03    -105.991E-03     137.283E-03    -119.468E-03     225.111E-03    -105.852E-03     131.287E-03
            2048     8.91178E-03     25.6094E-03    -41.9257E+06    -93.7136E+06    -5.37605E+06     968.338E+03    -115.208E-03     220.558E-03    -105.350E-03     123.457E-03    -116.991E-03     221.875E-03    -105.180E-03     118.490E-03
            2049     8.10701E-03     25.4743E-03    -45.7319E+06    -118.535E+06    -9.48091E+06    -95.1180E+03    -113.335E-03     218.045E-03    -104.710E-03     110.280E-03    -114.613E-03     218.768E-03    -104.520E-03     106.169E-03
            2050     7.30103E-03     25.3527E-03    -49.5800E+06    -133.425E+06    -12.4618E+06    -1.16283E+06    -111.364E-03     215.450E-03    -104.086E-03     97.9007E-03    -112.282E-03     215.755E-03    -103.883E-03     94.5152E-03
            2051     6.49363E-03     25.2454E-03    -53.4330E+06    -149.421E+06    -17.6770E+06    -830.939E+03    -109.431E-03     212.922E-03    -103.490E-03     86.1647E-03    -110.079E-03     212.900E-03    -103.285E-03     83.4085E-03
            2052     5.68515E-03     25.1507E-03    -57.1504E+06    -164.301E+06    -24.1692E+06    -484.499E+03    -107.609E-03     210.544E-03    -102.935E-03     74.9034E-03    -108.053E-03     210.272E-03    -102.734E-03     72.6822E-03
            2053     4.87535E-03     25.0692E-03    -61.4140E+06    -177.789E+06    -32.3383E+06     353.208E+03    -105.941E-03     208.367E-03    -102.425E-03     63.9423E-03    -106.234E-03     207.904E-03    -102.240E-03     62.1847E-03
            2054     4.06464E-03     25.0000E-03    -66.4418E+06    -197.374E+06    -42.1111E+06     1.09314E+06    -104.462E-03     206.443E-03    -101.981E-03     53.1224E-03    -104.633E-03     205.800E-03    -101.809E-03     51.7626E-03
            2055     3.25285E-03     24.9436E-03    -71.5882E+06    -209.624E+06    -52.5560E+06     1.04251E+06    -103.171E-03     204.766E-03    -101.595E-03     42.4704E-03    -103.261E-03     204.011E-03    -101.451E-03     41.4454E-03
            2056     2.44024E-03     24.8995E-03    -76.1290E+06    -217.837E+06    -63.7898E+06     997.849E+03    -102.167E-03     203.445E-03    -101.278E-03     31.9605E-03    -102.200E-03     202.620E-03    -101.171E-03     31.2269E-03
            2057     1.62723E-03     24.8678E-03    -79.4553E+06    -224.501E+06    -73.9328E+06     697.300E+03    -101.477E-03     202.506E-03    -101.030E-03     21.5281E-03    -101.469E-03     201.634E-03    -100.959E-03     21.0490E-03
            2058     813.708E-06     24.8483E-03    -81.7221E+06    -228.735E+06    -80.7834E+06     517.988E+03    -101.069E-03     201.858E-03    -100.789E-03     11.7651E-03    -101.037E-03     200.960E-03    -100.743E-03     11.5115E-03
            2059     15.3130E-03     26.2429E-03    -5.21312E+06     122.314E+06     95.9061E+06     278.611E+03    -121.720E-03     232.307E-03    -110.587E-03     160.507E-03    -131.471E-03     242.195E-03    -110.277E-03     153.414E-03
            2060     14.5188E-03     25.9909E-03    -11.2579E+06     118.496E+06     97.0623E+06     387.954E+03    -125.413E-03     235.340E-03    -109.928E-03     247.201E-03    -140.812E-03     250.839E-03    -109.598E-03     235.960E-03
            2061     13.7229E-03     25.6842E-03    -16.6050E+06     107.202E+06     88.9659E+06     427.224E+03    -127.360E-03     236.571E-03    -109.211E-03     270.021E-03    -142.103E-03     251.378E-03    -108.898E-03     256.663E-03
            2062     12.9232E-03     25.3817E-03    -23.0912E+06     93.0527E+06     66.2502E+06     660.794E+03    -125.942E-03     234.377E-03    -108.434E-03     245.191E-03    -137.128E-03     245.619E-03    -108.205E-03     232.501E-03
            2063     12.1237E-03     25.1310E-03    -28.1539E+06     76.2914E+06     33.5093E+06     1.12073E+06    -123.138E-03     230.724E-03    -107.586E-03     201.999E-03    -130.459E-03     238.119E-03    -107.488E-03     191.431E-03
            2064     11.3245E-03     24.9235E-03    -31.1663E+06     44.0119E+06     11.6002E+06     1.31405E+06    -120.697E-03     227.486E-03    -106.789E-03     170.075E-03    -125.554E-03     232.356E-03    -106.750E-03     161.442E-03
            2065     10.5234E-03     24.7431E-03    -34.4344E+06    -9.74173E+06     4.49587E+06     1.64277E+06    -118.744E-03     224.841E-03    -106.097E-03     149.950E-03    -122.142E-03     228.070E-03    -106.010E-03     142.812E-03
            2066     9.72099E-03     24.5801E-03    -38.3675E+06    -60.3825E+06    -945.078E+03     1.63253E+06    -116.972E-03     222.385E-03    -105.413E-03     135.023E-03    -119.408E-03     224.473E-03    -105.274E-03     129.089E-03
            2067     8.91741E-03     24.4324E-03    -41.7407E+06    -93.2690E+06    -5.64410E+06     1.14846E+06    -115.068E-03     219.780E-03    -104.713E-03     121.252E-03    -116.816E-03     221.066E-03    -104.545E-03     116.340E-03
            2068     8.11260E-03     24.2993E-03    -44.9094E+06    -115.758E+06    -10.4033E+06     218.787E+03    -113.015E-03     217.029E-03    -104.014E-03     108.027E-03    -114.264E-03     217.737E-03    -103.833E-03     103.976E-03
            2069     7.30632E-03     24.1811E-03    -48.7831E+06    -132.643E+06    -14.5253E+06    -1.15189E+06    -110.901E-03     214.244E-03    -103.342E-03     95.7167E-03    -111.792E-03     214.532E-03    -103.152E-03     92.3852E-03
            2070     6.49873E-03     24.0758E-03    -52.7581E+06    -150.772E+06    -18.8176E+06    -1.39251E+06    -108.868E-03     211.584E-03    -102.716E-03     84.1270E-03    -109.492E-03     211.540E-03    -102.515E-03     81.4119E-03
            2071     5.68969E-03     23.9841E-03    -57.6000E+06    -165.162E+06    -26.0403E+06    -507.518E+03    -106.963E-03     209.087E-03    -102.124E-03     73.0392E-03    -107.393E-03     208.801E-03    -101.931E-03     70.8598E-03
            2072     4.87947E-03     23.9043E-03    -62.7151E+06    -179.080E+06    -34.2855E+06     199.249E+03    -105.220E-03     206.805E-03    -101.585E-03     62.2898E-03    -105.505E-03     206.332E-03    -101.406E-03     60.5656E-03
            2073     4.06809E-03     23.8374E-03    -67.1181E+06    -197.349E+06    -42.6202E+06     915.600E+03    -103.688E-03     204.807E-03    -101.118E-03     51.6914E-03    -103.857E-03     204.160E-03    -100.948E-03     50.3574E-03
            2074     3.25573E-03     23.7826E-03    -71.6684E+06    -208.943E+06    -52.6659E+06     1.17058E+06    -102.372E-03     203.077E-03    -100.705E-03     41.2770E-03    -102.460E-03     202.322E-03    -100.562E-03     40.2770E-03
            2075     2.44263E-03     23.7399E-03    -75.9253E+06    -217.084E+06    -63.9193E+06     853.469E+03    -101.307E-03     201.668E-03    -100.361E-03     31.0596E-03    -101.339E-03     200.844E-03    -100.255E-03     30.3415E-03
            2076     1.62873E-03     23.7090E-03    -79.3139E+06    -223.653E+06    -73.6080E+06     713.684E+03    -100.528E-03     200.635E-03    -100.107E-03     20.9623E-03    -100.520E-03     199.765E-03    -100.036E-03     20.4954E-03
            2077     814.559E-06     23.6903E-03    -81.5418E+06    -227.647E+06    -79.7126E+06     836.583E+03    -100.152E-03     200.020E-03    -99.8678E-03     11.3756E-03    -100.122E-03     199.125E-03    -99.8180E-03     11.1325E-03
            2078     15.3137E-03     25.0403E-03    -4.00639E+06     123.165E+06     97.0255E+06     632.751E+03    -122.885E-03     233.454E-03    -110.569E-03     158.834E-03    -132.392E-03     243.103E-03    -110.257E-03     151.620E-03
            2079     14.5200E-03     24.7934E-03    -9.60496E+06     119.705E+06     98.4789E+06     686.510E+03    -126.236E-03     236.086E-03    -109.850E-03     244.186E-03    -141.344E-03     251.299E-03    -109.517E-03     232.809E-03
            2080     13.7225E-03     24.4914E-03    -17.6241E+06     106.009E+06     87.8466E+06     1.02625E+06    -128.838E-03     237.881E-03    -109.043E-03     267.360E-03    -143.452E-03     252.555E-03    -108.732E-03     253.820E-03
            2081     12.9265E-03     24.1904E-03    -23.6493E+06     92.2979E+06     65.4792E+06     1.04571E+06    -127.498E-03     235.642E-03    -108.144E-03     242.330E-03    -138.575E-03     246.773E-03    -107.916E-03     229.503E-03
            2082     12.1298E-03     23.9427E-03    -28.0326E+06     76.2940E+06     33.8515E+06     621.216E+03    -123.856E-03     231.044E-03    -107.187E-03     199.035E-03    -131.085E-03     238.346E-03    -107.088E-03     188.443E-03
            2083     11.3300E-03     23.7388E-03    -31.4879E+06     43.6482E+06     11.4299E+06     1.15153E+06    -120.772E-03     227.091E-03    -106.319E-03     167.711E-03    -125.554E-03     231.883E-03    -106.279E-03     159.141E-03
            2084     10.5287E-03     23.5611E-03    -34.3876E+06    -9.85144E+06     3.75584E+06     2.08136E+06    -118.711E-03     224.286E-03    -105.574E-03     147.893E-03    -122.053E-03     227.460E-03    -105.492E-03     140.824E-03
            2085     9.72656E-03     23.4008E-03    -36.8086E+06    -59.0338E+06    -590.314E+03     2.01314E+06    -116.969E-03     221.808E-03    -104.839E-03     132.749E-03    -119.358E-03     223.859E-03    -104.703E-03     126.870E-03
            2086     8.92320E-03     23.2558E-03    -39.5524E+06    -91.9472E+06    -4.97684E+06     1.27333E+06    -114.898E-03     218.983E-03    -104.084E-03     118.846E-03    -116.605E-03     220.237E-03    -103.919E-03     113.989E-03
            2087     8.11815E-03     23.1260E-03    -42.6339E+06    -114.080E+06    -10.4133E+06     551.816E+03    -112.641E-03     215.975E-03    -103.335E-03     105.747E-03    -113.851E-03     216.660E-03    -103.159E-03     101.760E-03
            2088     7.31169E-03     23.0103E-03    -45.8717E+06    -130.716E+06    -14.6485E+06    -405.115E+03    -110.453E-03     213.074E-03    -102.622E-03     93.5319E-03    -111.309E-03     213.346E-03    -102.439E-03     90.2636E-03
            2089     6.50360E-03     22.9082E-03    -50.5378E+06    -152.680E+06    -18.1712E+06    -88.8326E+03    -108.344E-03     210.311E-03    -101.968E-03     81.9947E-03    -108.937E-03     210.236E-03    -101.764E-03     79.3434E-03
            2090     5.69420E-03     22.8186E-03    -55.9710E+06    -165.701E+06    -24.7397E+06     959.219E+03    -106.326E-03     207.669E-03    -101.343E-03     71.0394E-03    -106.736E-03     207.364E-03    -101.145E-03     68.9217E-03
            2091     4.88344E-03     22.7416E-03    -61.1459E+06    -178.739E+06    -33.5078E+06     669.630E+03    -104.489E-03     205.264E-03    -100.775E-03     60.4982E-03    -104.759E-03     204.780E-03    -100.595E-03     58.8163E-03
            2092     4.07148E-03     22.6765E-03    -66.3629E+06    -198.361E+06    -42.3509E+06     730.869E+03    -102.899E-03     203.189E-03    -100.290E-03     50.2048E-03    -103.057E-03     202.530E-03    -100.118E-03     48.8973E-03
            2093     3.25857E-03     22.6235E-03    -71.2785E+06    -208.022E+06     -52.637E+06     1.16337E+06    -101.566E-03     201.424E-03    -99.8581E-03     40.1359E-03    -101.650E-03     200.669E-03    -99.7163E-03     39.1584E-03
            2094     2.44469E-03     22.5822E-03    -75.6875E+06    -216.263E+06    -64.0960E+06     947.759E+03    -100.489E-03     199.984E-03    -99.4950E-03     30.1923E-03    -100.518E-03     199.163E-03    -99.3921E-03     29.4923E-03
            2095     1.63020E-03     22.5526E-03    -78.8857E+06    -222.932E+06    -73.8267E+06     717.947E+03    -99.6624E-03     198.889E-03    -99.2268E-03     20.3168E-03    -99.6522E-03     198.022E-03    -99.1583E-03     19.8615E-03
            2096     815.041E-06     22.5343E-03    -80.4600E+06    -226.464E+06    -79.3247E+06     255.457E+03    -99.2937E-03     198.257E-03    -98.9630E-03     11.1162E-03    -99.2601E-03     197.365E-03    -98.9146E-03     10.8721E-03
            2097     15.3179E-03     23.8450E-03    -5.15380E+06     121.690E+06     95.6748E+06     479.747E+03    -124.474E-03     234.968E-03    -110.494E-03     156.677E-03    -133.774E-03     244.405E-03    -110.185E-03     149.291E-03
            2098     14.5196E-03     23.5954E-03    -10.8557E+06     118.111E+06     97.1562E+06     1.14959E+06    -126.943E-03     236.647E-03    -109.704E-03     240.885E-03    -141.744E-03     251.548E-03    -109.374E-03     229.424E-03
            2099     13.7268E-03     23.2958E-03    -16.3226E+06     106.983E+06     89.3973E+06     1.33466E+06    -129.970E-03     238.789E-03    -108.820E-03     262.368E-03    -144.308E-03     253.191E-03    -108.504E-03     248.719E-03
            2100     12.9319E-03     22.9980E-03    -21.6066E+06     93.9783E+06     67.6032E+06     1.41839E+06    -128.029E-03     235.859E-03    -107.830E-03     238.909E-03    -138.940E-03     246.831E-03    -107.597E-03     226.089E-03
            2101     12.1339E-03     22.7542E-03    -27.1179E+06     76.5710E+06     33.8533E+06     1.50548E+06    -124.045E-03     230.850E-03    -106.805E-03     196.653E-03    -131.162E-03     238.045E-03    -106.707E-03     186.133E-03
            2102     11.3349E-03     22.5544E-03    -31.4830E+06     43.0922E+06     10.0413E+06     1.77536E+06    -121.057E-03     226.935E-03    -105.877E-03     165.412E-03    -125.769E-03     231.658E-03    -105.844E-03     156.889E-03
            2103     10.5341E-03     22.3794E-03    -34.4421E+06    -9.43874E+06     2.19221E+06     1.64856E+06    -118.899E-03     223.967E-03    -105.068E-03     145.655E-03    -122.187E-03     227.094E-03    -104.994E-03     138.627E-03
            2104     9.73207E-03     22.2218E-03    -37.1482E+06    -58.0365E+06    -2.01355E+06     1.40872E+06    -116.898E-03     221.175E-03    -104.277E-03     130.410E-03    -119.243E-03     223.187E-03    -104.149E-03     124.584E-03
            2105     8.92855E-03     22.0801E-03    -40.4495E+06    -91.0061E+06    -5.72301E+06     1.38560E+06    -114.656E-03     218.134E-03    -103.478E-03     116.391E-03    -116.329E-03     219.357E-03    -103.316E-03     111.596E-03
            2106     8.12340E-03     21.9536E-03    -44.0081E+06    -111.946E+06    -11.2412E+06     390.424E+03    -112.296E-03     214.979E-03    -102.683E-03     103.342E-03    -113.485E-03     215.647E-03    -102.513E-03     99.4119E-03
            2107     7.31651E-03     21.8408E-03    -47.4475E+06    -130.368E+06    -16.5022E+06    -292.101E+03    -110.012E-03     211.938E-03    -101.926E-03     91.1742E-03    -110.848E-03     212.192E-03    -101.751E-03     87.9645E-03
            2108     6.50838E-03     21.7416E-03    -51.0837E+06    -154.742E+06    -19.9513E+06     882.657E+03    -107.842E-03     209.078E-03    -101.235E-03     79.6793E-03    -108.414E-03     208.977E-03    -101.037E-03     77.0908E-03
            2109     5.69857E-03     21.6550E-03    -55.2126E+06    -165.276E+06    -25.3193E+06     1.67128E+06    -105.727E-03     206.303E-03    -100.575E-03     68.8955E-03    -106.118E-03     205.984E-03    -100.382E-03     66.8330E-03
            2110     4.88730E-03     21.5802E-03    -59.9217E+06    -178.027E+06    -32.3719E+06     1.62080E+06    -103.792E-03     203.777E-03    -99.9853E-03     58.5100E-03    -104.047E-03     203.282E-03    -99.8021E-03     56.8805E-03
            2111     4.07477E-03     21.5176E-03    -65.2932E+06    -198.623E+06    -41.0440E+06     1.65367E+06    -102.109E-03     201.592E-03    -99.4839E-03     48.4602E-03    -102.255E-03     200.921E-03    -99.3064E-03     47.1979E-03
            2112     3.26103E-03     21.4662E-03    -70.7395E+06    -207.193E+06     -52.184E+06     1.47747E+06    -100.715E-03     199.756E-03    -99.0415E-03     38.7493E-03    -100.793E-03     198.999E-03    -98.8994E-03     37.8013E-03
            2113     2.44662E-03     21.4264E-03    -75.2213E+06    -215.219E+06    -63.6640E+06     1.12004E+06    -99.6817E-03     198.355E-03    -98.6737E-03     29.1083E-03    -99.7081E-03     197.535E-03    -98.5709E-03     28.4288E-03
            2114     1.63154E-03     21.3978E-03    -78.3975E+06    -221.817E+06    -73.3334E+06     662.595E+03    -98.8901E-03     197.270E-03    -98.3797E-03     19.5251E-03    -98.8786E-03     196.405E-03    -98.3110E-03     19.0805E-03
            2115     816.063E-06     21.3805E-03    -80.5535E+06    -225.655E+06    -79.3873E+06     360.255E+03    -98.4323E-03     196.515E-03    -98.0823E-03     10.7420E-03    -98.4000E-03     195.627E-03    -98.0352E-03     10.5056E-03
            2116     15.3157E-03     22.6443E-03    -5.93543E+06     120.505E+06     94.3555E+06     225.798E+03    -126.712E-03     237.154E-03    -110.442E-03     154.205E-03    -135.944E-03     246.519E-03    -110.137E-03     146.453E-03
            2117     14.5261E-03     22.3973E-03    -11.2812E+06     117.363E+06     96.3060E+06     653.825E+03    -128.883E-03     238.415E-03    -109.532E-03     239.676E-03    -143.537E-03     253.166E-03    -109.204E-03     227.935E-03
            2118     13.7314E-03     22.0993E-03    -15.8460E+06     107.057E+06     89.9019E+06     987.471E+03    -130.587E-03     239.156E-03    -108.568E-03     260.988E-03    -144.718E-03     253.350E-03    -108.251E-03     247.330E-03
            2119     12.9352E-03     21.8066E-03    -21.9407E+06     93.2709E+06     67.7233E+06     1.54097E+06    -128.238E-03     235.770E-03    -107.532E-03     236.390E-03    -138.987E-03     246.577E-03    -107.297E-03     223.629E-03
            2120     12.1379E-03     21.5656E-03    -26.8307E+06     76.2596E+06     33.9859E+06     2.58227E+06    -124.266E-03     230.725E-03    -106.460E-03     193.822E-03    -131.243E-03     237.780E-03    -106.362E-03     183.394E-03
            2121     11.3392E-03     21.3691E-03    -30.5863E+06     44.3058E+06     10.1247E+06     2.73364E+06    -121.399E-03     226.870E-03    -105.471E-03     162.572E-03    -126.029E-03     231.520E-03    -105.440E-03     154.096E-03
            2122     10.5392E-03     21.1978E-03    -33.9950E+06    -7.86011E+06     1.76999E+06     2.02354E+06    -119.131E-03     223.725E-03    -104.594E-03     143.161E-03    -122.364E-03     226.804E-03    -104.525E-03     136.177E-03
            2123     9.73724E-03     21.0435E-03    -37.3920E+06    -57.7720E+06    -2.91816E+06     1.77627E+06    -116.864E-03     220.608E-03    -103.744E-03     127.861E-03    -119.158E-03     222.573E-03    -103.620E-03     122.100E-03
            2124     8.93361E-03     20.9052E-03    -40.4133E+06    -90.0001E+06    -5.67648E+06     1.55193E+06    -114.504E-03     217.400E-03    -102.896E-03     113.585E-03    -116.133E-03     218.583E-03    -102.735E-03     108.858E-03
            2125     8.12844E-03     20.7819E-03    -43.7670E+06    -109.841E+06    -10.4803E+06     947.982E+03    -112.073E-03     214.122E-03    -102.049E-03     100.361E-03    -113.228E-03     214.762E-03    -101.879E-03     96.4989E-03
            2126     7.32167E-03     20.6726E-03    -48.2203E+06    -130.734E+06    -17.3367E+06     778.668E+03    -109.619E-03     210.857E-03    -101.239E-03     88.2208E-03    -110.427E-03     211.081E-03    -101.066E-03     85.0878E-03
            2127     6.51290E-03     20.5762E-03    -52.7484E+06    -155.523E+06    -23.1258E+06     814.800E+03    -107.305E-03     207.801E-03    -100.496E-03     76.8963E-03    -107.855E-03     207.679E-03    -100.310E-03     74.3680E-03
            2128     5.70281E-03     20.4926E-03    -56.2324E+06    -165.501E+06    -28.5953E+06     1.17092E+06    -105.141E-03     204.937E-03    -99.7960E-03     66.2914E-03    -105.514E-03     204.606E-03    -99.6175E-03     64.2746E-03
            2129     4.89114E-03     20.4206E-03    -60.1754E+06     -178.38E+06    -33.6395E+06     2.29038E+06    -103.154E-03     202.330E-03    -99.1767E-03     56.1130E-03    -103.395E-03     201.823E-03    -98.9990E-03     54.5382E-03
            2130     4.07813E-03     20.3603E-03    -65.2470E+06    -197.493E+06    -40.3810E+06     2.59038E+06    -101.409E-03     200.052E-03    -98.6429E-03     46.2424E-03    -101.549E-03     199.376E-03    -98.4639E-03     45.0300E-03
            2131     3.26392E-03     20.3110E-03    -70.4568E+06    -205.874E+06    -50.9148E+06     1.89415E+06    -99.9163E-03     198.084E-03    -98.1679E-03     36.8239E-03    -99.9912E-03     197.326E-03    -98.0218E-03     35.9116E-03
            2132     2.44868E-03     20.2724E-03    -75.1833E+06    -213.834E+06    -62.4512E+06     1.23404E+06    -98.7732E-03     196.556E-03    -97.7825E-03     27.5709E-03    -98.7997E-03     195.737E-03    -97.6757E-03     26.9164E-03
            2133     1.63289E-03     20.2450E-03    -78.9567E+06    -220.718E+06    -72.7644E+06     664.995E+03    -97.9918E-03     195.470E-03    -97.4786E-03     18.4205E-03    -97.9840E-03     194.610E-03    -97.4078E-03     17.9910E-03
            2134     816.530E-06     20.2284E-03    -81.0376E+06    -224.606E+06    -79.5070E+06     229.287E+03    -97.5590E-03     194.688E-03    -97.1285E-03     10.0282E-03    -97.5299E-03     193.806E-03    -97.0829E-03     9.79679E-03
            2135     15.3176E-03     21.4350E-03    -4.45852E+06     121.550E+06     95.8351E+06     559.867E+03    -128.427E-03     238.852E-03    -110.425E-03     152.025E-03    -137.440E-03     248.004E-03    -110.116E-03     144.069E-03
            2136     14.5252E-03     21.1980E-03    -10.1960E+06     117.848E+06     96.9825E+06     871.665E+03    -130.291E-03     239.712E-03    -109.421E-03     236.765E-03    -144.638E-03     254.161E-03    -109.093E-03     224.854E-03
            2137     13.7320E-03     20.9009E-03    -17.3100E+06     105.066E+06     87.6579E+06     816.602E+03    -131.371E-03     239.746E-03    -108.374E-03     258.519E-03    -145.269E-03     253.701E-03    -108.063E-03     244.812E-03
            2138     12.9387E-03     20.6137E-03    -23.1462E+06     91.6589E+06     66.5365E+06     1.12872E+06    -128.806E-03     236.081E-03    -107.275E-03     232.803E-03    -139.367E-03     246.693E-03    -107.042E-03     220.053E-03
            2139     12.1424E-03     20.3772E-03    -27.9447E+06     74.9266E+06     34.0539E+06     2.50597E+06    -124.693E-03     230.835E-03    -106.142E-03     190.903E-03    -131.546E-03     237.757E-03    -106.040E-03     180.517E-03
            2140     11.3438E-03     20.1839E-03    -31.6885E+06     45.6564E+06     10.1339E+06     3.08416E+06    -121.617E-03     226.708E-03    -105.091E-03     160.003E-03    -126.166E-03     231.277E-03    -105.060E-03     151.589E-03
            2141     10.5436E-03     20.0161E-03    -34.9121E+06    -6.34272E+06     1.29361E+06     2.71865E+06    -119.412E-03     223.562E-03    -104.150E-03     140.267E-03    -122.585E-03     226.585E-03    -104.084E-03     133.333E-03
            2142     9.74208E-03     19.8655E-03    -38.0105E+06    -56.8313E+06    -4.04106E+06     2.09402E+06    -117.137E-03     220.360E-03    -103.222E-03     124.580E-03    -119.375E-03     222.272E-03    -103.105E-03     118.872E-03
            2143     8.93883E-03     19.7308E-03    -41.2536E+06    -88.8888E+06    -7.09329E+06     1.53882E+06    -114.606E-03     216.899E-03    -102.293E-03     109.967E-03    -116.183E-03     218.035E-03    -102.140E-03     105.304E-03
            2144     8.13378E-03     19.6110E-03    -44.9534E+06    -109.733E+06    -11.6045E+06     1.74544E+06    -111.947E-03     213.320E-03    -101.373E-03     96.4767E-03    -113.058E-03     213.916E-03    -101.207E-03     92.6983E-03
            2145     7.32674E-03     19.5054E-03    -49.1152E+06    -130.336E+06    -17.4764E+06     2.29715E+06    -109.305E-03     209.802E-03    -100.498E-03     84.2860E-03    -110.078E-03     209.989E-03    -100.325E-03     81.2463E-03
            2146     6.51805E-03     19.4125E-03    -53.4571E+06    -153.644E+06    -23.6323E+06     1.54408E+06    -106.811E-03     206.500E-03    -99.6892E-03     73.1069E-03    -107.335E-03     206.358E-03    -99.5071E-03     70.6601E-03
            2147     5.70741E-03     19.3318E-03    -58.0466E+06    -166.423E+06    -31.4022E+06     990.089E+03    -104.531E-03     203.459E-03    -98.9284E-03     62.6787E-03    -104.883E-03     203.106E-03    -98.7599E-03     60.7247E-03
            2148     4.89535E-03     19.2626E-03    -62.1334E+06    -179.552E+06    -37.3339E+06     2.05988E+06    -102.490E-03     200.739E-03    -98.2497E-03     52.7576E-03    -102.716E-03     200.216E-03    -98.0859E-03     51.2354E-03
            2149     4.08187E-03     19.2047E-03    -66.0682E+06    -195.759E+06    -42.3999E+06     2.41868E+06    -100.706E-03     198.360E-03    -97.6547E-03     43.2886E-03    -100.837E-03     197.685E-03    -97.4870E-03     42.1205E-03
            2150     3.26724E-03     19.1575E-03    -70.4604E+06    -204.563E+06    -50.2404E+06     1.88930E+06    -99.1230E-03     196.242E-03    -97.1189E-03     34.2448E-03    -99.1931E-03     195.481E-03    -96.9713E-03     33.3689E-03
            2151     2.45145E-03     19.1209E-03    -75.1025E+06    -212.183E+06    -61.6710E+06     1.45111E+06    -97.7653E-03     194.437E-03    -96.6715E-03     25.4927E-03    -97.7903E-03     193.621E-03    -96.5633E-03     24.8709E-03
            2152     1.63468E-03     19.0944E-03    -79.0868E+06    -219.499E+06    -73.0424E+06     688.060E+03    -96.8251E-03     193.170E-03    -96.3446E-03     16.9863E-03    -96.8172E-03     192.314E-03    -96.2768E-03     16.5780E-03
            2153     817.647E-06     19.0786E-03    -81.4091E+06    -223.605E+06    -80.0472E+06     13.3653E+03    -96.3117E-03     192.423E-03    -96.1114E-03     9.14057E-03    -96.2845E-03     191.547E-03    -96.0694E-03     8.91737E-03
            2154     15.3169E-03     20.2295E-03    -4.93501E+06     120.535E+06     95.1317E+06     448.335E+03    -129.767E-03     240.178E-03    -110.411E-03     149.609E-03    -138.546E-03     249.092E-03    -110.103E-03     141.484E-03
            2155     14.5276E-03     19.9946E-03    -9.95031E+06     117.483E+06     96.9992E+06     1.59033E+06    -131.254E-03     240.592E-03    -109.337E-03     232.803E-03    -145.269E-03     254.707E-03    -109.008E-03     220.787E-03
            2156     13.7366E-03     19.7041E-03    -16.1206E+06     105.561E+06     88.3411E+06     1.99993E+06    -132.224E-03     240.443E-03    -108.219E-03     254.940E-03    -145.838E-03     254.119E-03    -107.907E-03     241.216E-03
            2157     12.9414E-03     19.4194E-03    -22.9368E+06     91.1543E+06     66.2299E+06     2.02868E+06    -129.363E-03     236.412E-03    -107.050E-03     229.605E-03    -139.714E-03     246.814E-03    -106.818E-03     216.891E-03
            2158     12.1455E-03     19.1881E-03    -28.6692E+06     73.7113E+06     33.5185E+06     2.61509E+06    -125.272E-03     231.122E-03    -105.850E-03     187.419E-03    -131.989E-03     237.903E-03    -105.748E-03     177.050E-03
            2159     11.3474E-03     18.9987E-03    -32.4344E+06     46.1133E+06     9.58609E+06     3.08929E+06    -122.217E-03     226.936E-03    -104.718E-03     156.743E-03    -126.658E-03     231.398E-03    -104.690E-03     148.368E-03
            2160     10.5482E-03     18.8339E-03    -35.1777E+06    -4.79948E+06     1.29813E+06     2.97067E+06    -120.033E-03     223.720E-03    -103.687E-03     136.268E-03    -123.114E-03     226.655E-03    -103.622E-03     129.379E-03
            2161     9.74732E-03     18.6874E-03    -37.9652E+06    -55.1133E+06    -4.76202E+06     2.29177E+06    -117.726E-03     220.373E-03    -102.646E-03     119.923E-03    -119.879E-03     222.209E-03    -102.535E-03     114.273E-03
            2162     8.94475E-03     18.5564E-03    -41.1841E+06    -88.7241E+06    -8.14609E+06     2.32572E+06    -114.992E-03     216.591E-03    -101.600E-03     104.845E-03    -116.492E-03     217.654E-03    -101.452E-03     100.264E-03
            2163     8.14003E-03     18.4411E-03    -45.0180E+06    -110.211E+06    -11.9494E+06     2.97891E+06    -112.012E-03     212.582E-03    -100.569E-03     91.0448E-03    -113.056E-03     213.109E-03    -100.404E-03     87.3692E-03
            2164     7.33324E-03     18.3391E-03    -48.9029E+06    -129.514E+06    -17.3248E+06     3.03533E+06    -109.123E-03     208.709E-03    -99.5860E-03     78.8113E-03    -109.842E-03     208.845E-03    -99.4139E-03     75.8732E-03
            2165     6.52428E-03     18.2502E-03    -53.2373E+06    -151.925E+06    -22.7246E+06     3.02017E+06    -106.447E-03     205.121E-03    -98.6743E-03     67.6911E-03    -106.930E-03     204.942E-03    -98.4904E-03     65.3520E-03
            2166     5.71355E-03     18.1727E-03    -58.2371E+06    -165.524E+06    -31.1357E+06     2.64481E+06    -103.937E-03     201.746E-03    -97.8092E-03     57.4306E-03    -104.259E-03     201.364E-03    -97.6404E-03     55.5821E-03
            2167     4.90099E-03     18.1066E-03    -63.3857E+06    -179.701E+06    -39.7088E+06     2.13588E+06    -101.671E-03     198.697E-03    -97.0263E-03     47.8792E-03    -101.876E-03     198.154E-03    -96.8723E-03     46.4341E-03
            2168     4.08694E-03     18.0512E-03    -67.7798E+06    -193.948E+06    -47.0632E+06     1.72626E+06    -99.6952E-03     196.029E-03    -96.3341E-03     39.0435E-03    -99.8142E-03     195.356E-03    -96.1899E-03     37.9329E-03
            2169     3.27152E-03     18.0064E-03    -71.5025E+06    -203.655E+06    -53.8312E+06     1.07696E+06    -97.9760E-03     193.704E-03    -95.7282E-03     30.7234E-03    -98.0369E-03     192.944E-03    -95.5983E-03     29.8897E-03
            2170     2.45493E-03     17.9718E-03    -75.0299E+06    -211.501E+06    -62.6438E+06     1.24127E+06    -96.5185E-03     191.734E-03    -95.2157E-03     22.8029E-03    -96.5370E-03     190.917E-03    -95.1134E-03     22.2182E-03
            2171     1.63721E-03     17.9470E-03    -78.5838E+06    -217.786E+06    -72.6901E+06     1.26167E+06    -95.4002E-03     190.226E-03    -94.8253E-03     15.1556E-03    -95.3900E-03     189.374E-03    -94.7590E-03     14.7839E-03
            2172     818.529E-06     17.9316E-03    -81.5739E+06    -222.550E+06    -80.1471E+06     580.242E+03    -94.7033E-03     189.321E-03    -94.6178E-03     7.91356E-03    -94.6773E-03     188.449E-03    -94.5776E-03     7.71372E-03
            2173     15.3179E-03     19.0231E-03    -4.93773E+06     119.914E+06     94.4306E+06     582.376E+03    -131.236E-03     241.673E-03    -110.437E-03     147.977E-03    -139.854E-03     250.426E-03    -110.132E-03     139.637E-03
            2174     14.5279E-03     18.7886E-03    -10.6152E+06     116.132E+06     95.5686E+06     728.493E+03    -132.273E-03     241.566E-03    -109.293E-03     230.351E-03    -146.039E-03     255.430E-03    -108.968E-03     218.156E-03
            2175     13.7361E-03     18.5053E-03    -16.6796E+06     104.430E+06     87.8188E+06     2.06752E+06    -133.103E-03     241.217E-03    -108.114E-03     252.263E-03    -146.473E-03     254.644E-03    -107.802E-03     238.480E-03
            2176     12.9439E-03     18.2239E-03    -22.3448E+06     90.9745E+06     67.2286E+06     3.53091E+06    -130.527E-03     237.395E-03    -106.868E-03     226.074E-03    -140.636E-03     247.553E-03    -106.632E-03     213.349E-03
            2177     12.1490E-03     17.9984E-03    -27.5375E+06     74.0239E+06     34.6847E+06     3.77409E+06    -126.590E-03     232.146E-03    -105.557E-03     182.919E-03    -133.120E-03     238.742E-03    -105.451E-03     172.538E-03
            2178     11.3523E-03     17.8124E-03    -31.9053E+06     46.6311E+06     9.39638E+06     3.65337E+06    -123.679E-03     227.957E-03    -104.278E-03     151.543E-03    -127.967E-03     232.270E-03    -104.252E-03     143.166E-03
            2179     10.5539E-03     17.6516E-03    -35.2906E+06    -3.29177E+06     892.902E+03     3.28259E+06    -121.182E-03     224.268E-03    -103.087E-03     130.118E-03    -124.123E-03     227.071E-03    -103.026E-03     123.281E-03
            2180     9.75418E-03     17.5087E-03    -38.6627E+06    -53.7773E+06    -4.95402E+06     2.94545E+06    -118.578E-03     220.465E-03    -101.887E-03     112.922E-03    -120.609E-03     222.183E-03    -101.778E-03     107.363E-03
            2181     8.95245E-03     17.3825E-03    -42.2172E+06    -88.9194E+06    -9.27887E+06     3.04232E+06    -115.568E-03     216.240E-03    -100.672E-03     97.2707E-03    -116.961E-03     217.194E-03    -100.528E-03     92.8048E-03
            2182     8.14851E-03     17.2716E-03    -45.2834E+06    -109.857E+06    -12.6793E+06     3.28843E+06    -112.312E-03     211.783E-03    -99.4709E-03     83.2113E-03    -113.265E-03     212.223E-03    -99.3093E-03     79.6573E-03
            2183     7.34194E-03     17.1746E-03    -48.8680E+06    -129.018E+06    -18.0766E+06     3.94097E+06    -109.120E-03     207.433E-03    -98.3135E-03     70.9590E-03    -109.764E-03     207.499E-03    -98.1460E-03     68.1562E-03
            2184     6.53328E-03     17.0893E-03    -53.3646E+06    -151.082E+06    -22.9302E+06     4.56820E+06    -106.075E-03     203.309E-03    -97.2338E-03     59.9671E-03    -106.502E-03     203.077E-03    -97.0520E-03     57.7687E-03
            2185     5.72241E-03     17.0160E-03    -57.9784E+06    -163.210E+06    -30.1277E+06     4.06037E+06    -103.159E-03     199.373E-03    -96.2140E-03     50.1861E-03    -103.440E-03     198.957E-03    -96.0440E-03     48.4697E-03
            2186     4.90938E-03     16.9532E-03    -62.2779E+06    -178.202E+06    -39.2693E+06     3.15196E+06    -100.520E-03     195.811E-03    -95.2909E-03     41.4277E-03    -100.691E-03     195.243E-03    -95.1386E-03     40.0993E-03
            2187     4.09438E-03     16.9011E-03    -66.6332E+06    -191.727E+06    -49.3112E+06     2.28043E+06    -98.2088E-03     192.682E-03    -94.4737E-03     33.4186E-03    -98.3011E-03     192.000E-03    -94.3456E-03     32.4042E-03
            2188     3.27763E-03     16.8587E-03    -71.0760E+06    -202.293E+06    -57.9003E+06     1.25427E+06    -96.2335E-03     190.014E-03    -93.7804E-03     26.0100E-03    -96.2752E-03     189.253E-03    -93.6735E-03     25.2509E-03
            2189     2.45949E-03     16.8264E-03    -75.2432E+06    -211.878E+06    -64.9727E+06     1.10574E+06    -94.6730E-03     187.888E-03    -93.2154E-03     19.1469E-03    -94.6814E-03     187.066E-03    -93.1239E-03     18.6124E-03
            2190     1.64044E-03     16.8031E-03    -78.4797E+06    -216.319E+06    -72.4192E+06     1.53149E+06    -93.4865E-03     186.245E-03    -92.7584E-03     12.6494E-03    -93.4751E-03     185.397E-03    -92.6930E-03     12.3167E-03
            2191     820.735E-06     16.7893E-03    -80.7569E+06    -220.302E+06    -79.1796E+06     943.412E+03    -92.6945E-03     185.092E-03    -92.3979E-03     6.59203E-03    -92.6682E-03     184.228E-03    -92.3573E-03     6.41615E-03
            2192     15.3145E-03     17.8067E-03    -4.91161E+06     119.031E+06     93.7868E+06     938.479E+03    -132.172E-03     242.668E-03    -110.496E-03     144.659E-03    -140.500E-03     251.129E-03    -110.192E-03     136.240E-03
            2193     14.5280E-03     17.5870E-03    -10.4789E+06     115.346E+06     94.9257E+06     1.51766E+06    -133.322E-03     242.615E-03    -109.293E-03     226.054E-03    -146.685E-03     256.075E-03    -108.970E-03     213.778E-03
            2194     13.7376E-03     17.3021E-03    -16.9795E+06     103.315E+06     86.9644E+06     2.14739E+06    -134.770E-03     242.791E-03    -108.021E-03     247.759E-03    -147.774E-03     255.850E-03    -107.711E-03     233.842E-03
            2195     12.9459E-03     17.0285E-03    -22.9152E+06     89.5962E+06     67.1927E+06     3.02823E+06    -132.593E-03     239.229E-03    -106.635E-03     219.682E-03    -142.343E-03     249.021E-03    -106.396E-03     206.842E-03
            2196     12.1527E-03     16.8052E-03    -27.4911E+06     73.1752E+06     35.5869E+06     4.41159E+06    -128.915E-03     234.049E-03    -105.135E-03     175.696E-03    -135.177E-03     240.371E-03    -105.023E-03     165.231E-03
            2197     11.3589E-03     16.6246E-03    -31.5583E+06     48.5932E+06     9.54054E+06     5.09245E+06    -125.891E-03     229.512E-03    -103.621E-03     143.210E-03    -129.957E-03     233.611E-03    -103.598E-03     134.826E-03
            2198     10.5631E-03     16.4681E-03    -35.4810E+06    -891.476E+03     341.251E+03     4.39273E+06    -123.000E-03     225.185E-03    -102.185E-03     120.969E-03    -125.745E-03     227.801E-03    -102.130E-03     114.203E-03
            2199     9.76486E-03     16.3303E-03    -39.0350E+06    -52.7246E+06    -5.59741E+06     4.02577E+06    -119.907E-03     220.648E-03    -100.741E-03     102.754E-03    -121.761E-03     222.193E-03    -100.636E-03     97.3305E-03
            2200     8.96430E-03     16.2088E-03    -42.2196E+06    -87.6916E+06    -9.89959E+06     3.57599E+06    -116.376E-03     215.656E-03    -99.2792E-03     86.2471E-03    -117.617E-03     216.465E-03    -99.1403E-03     81.9442E-03
            2201     8.16108E-03     16.1036E-03    -45.7226E+06    -109.818E+06    -13.6797E+06     3.61700E+06    -112.644E-03     210.479E-03    -97.8356E-03     72.0611E-03    -113.474E-03     210.798E-03    -97.6784E-03     68.6817E-03
            2202     7.35542E-03     16.0112E-03    -49.6767E+06    -129.435E+06    -19.0525E+06      4.9405E+06    -108.961E-03     205.402E-03    -96.4411E-03     60.1721E-03    -109.512E-03     205.373E-03    -96.2767E-03     57.5514E-03
            2203     6.54684E-03     15.9312E-03    -53.5891E+06    -149.317E+06    -23.8283E+06     5.31248E+06    -105.297E-03     200.434E-03    -95.1375E-03     49.9064E-03    -105.655E-03     200.142E-03    -94.9624E-03     47.8807E-03
            2204     5.73533E-03     15.8623E-03    -57.4575E+06    -160.722E+06    -30.3259E+06     4.38153E+06    -101.825E-03     195.755E-03    -93.9298E-03     41.1445E-03    -102.057E-03     195.300E-03    -93.7651E-03     39.5815E-03
            2205     4.92121E-03     15.8039E-03    -61.4999E+06    -176.602E+06    -39.1569E+06     3.89398E+06    -98.7377E-03     191.590E-03    -92.8520E-03     33.5530E-03    -98.8731E-03     190.993E-03    -92.7025E-03     32.3617E-03
            2206     4.10484E-03     15.7552E-03    -65.5354E+06    -189.470E+06    -49.5262E+06     3.57352E+06    -96.0547E-03     187.961E-03    -91.9064E-03     26.7863E-03    -96.1222E-03     187.267E-03    -91.7843E-03     25.8944E-03
            2207     3.28648E-03     15.7162E-03    -69.6153E+06    -200.483E+06    -58.5206E+06     3.11943E+06    -93.8151E-03     184.932E-03    -91.1165E-03     20.6392E-03    -93.8376E-03     184.164E-03    -91.0175E-03     19.9879E-03
            2208     2.46644E-03     15.6860E-03    -73.8549E+06    -210.664E+06    -66.1445E+06     2.46440E+06    -92.0356E-03     182.524E-03    -90.4886E-03     15.0835E-03    -92.0300E-03     181.700E-03    -90.4067E-03     14.6279E-03
            2209     1.64503E-03     15.6648E-03    -77.4282E+06    -214.861E+06    -72.9221E+06     1.60407E+06    -90.7320E-03     180.745E-03    -90.0130E-03     9.91498E-03    -90.7136E-03     179.900E-03    -89.9538E-03     9.62377E-03
            2210     822.616E-06     15.6520E-03    -79.2100E+06    -217.576E+06    -77.9132E+06     653.065E+03    -89.9090E-03     179.606E-03    -89.6974E-03     5.15140E-03    -89.8799E-03     178.751E-03    -89.6566E-03     4.99423E-03
            2211     15.3169E-03     16.5996E-03    -5.36789E+06     117.923E+06     92.8025E+06     959.829E+03    -133.643E-03     244.195E-03    -110.553E-03     141.529E-03    -141.716E-03     252.399E-03    -110.252E-03     132.914E-03
            2212     14.5267E-03     16.3775E-03    -10.6075E+06     114.170E+06     94.1976E+06     2.03700E+06    -135.424E-03     244.672E-03    -109.247E-03     221.332E-03    -148.395E-03     257.737E-03    -108.927E-03     208.751E-03
            2213     13.7394E-03     16.0995E-03    -16.2704E+06     102.839E+06     87.2894E+06     2.92273E+06    -137.611E-03     245.420E-03    -107.809E-03     240.812E-03    -150.130E-03     257.994E-03    -107.498E-03     226.618E-03
            2214     12.9511E-03     15.8280E-03    -22.4374E+06     88.7108E+06     67.3640E+06     3.43406E+06    -135.740E-03     241.930E-03    -106.190E-03     211.183E-03    -145.038E-03     251.269E-03    -105.950E-03     198.125E-03
            2215     12.1623E-03     15.6112E-03    -27.7295E+06     71.5706E+06     35.8830E+06     4.42414E+06    -132.265E-03     236.672E-03    -104.407E-03     165.701E-03    -138.164E-03     242.624E-03    -104.291E-03     155.100E-03
            2216     11.3706E-03     15.4342E-03    -30.7090E+06     49.8391E+06     10.5418E+06     5.14584E+06    -128.910E-03     231.479E-03    -102.569E-03     131.722E-03    -132.664E-03     235.271E-03    -102.544E-03     123.334E-03
            2217     10.5771E-03     15.2839E-03    -32.6328E+06     1.21585E+06     2.04978E+06     5.57730E+06    -125.541E-03     226.331E-03    -100.789E-03     108.115E-03    -128.010E-03     228.683E-03    -100.733E-03     101.456E-03
            2218     9.78141E-03     15.1512E-03    -35.2113E+06    -50.2825E+06    -3.78604E+06     5.49805E+06    -121.686E-03     220.682E-03    -98.9959E-03     89.0355E-03    -123.301E-03     222.006E-03    -98.8909E-03     83.7974E-03
            2219     8.98291E-03     15.0365E-03    -38.8340E+06    -86.0043E+06    -8.37693E+06     5.40556E+06    -117.295E-03     214.495E-03    -97.1997E-03     72.2007E-03    -118.343E-03     215.125E-03    -97.0605E-03     68.1259E-03
            2220     8.18085E-03     14.9373E-03    -43.6196E+06    -109.496E+06    -12.9683E+06     5.98170E+06    -112.692E-03     208.138E-03    -95.4457E-03     58.4218E-03    -113.375E-03     208.316E-03    -95.2885E-03     55.2916E-03
            2221     7.37507E-03     14.8511E-03    -48.2443E+06    -129.121E+06    -19.4224E+06     6.16791E+06    -108.130E-03     201.903E-03    -93.7734E-03     47.4029E-03    -108.572E-03     201.773E-03    -93.6133E-03     45.0122E-03
            2222     6.56583E-03     14.7771E-03    -52.2335E+06    -146.821E+06    -24.5846E+06     5.73629E+06    -103.752E-03     195.985E-03    -92.2326E-03     38.3090E-03    -104.033E-03     195.631E-03    -92.0669E-03     36.4854E-03
            2223     5.75316E-03     14.7138E-03    -56.1747E+06    -158.236E+06    -30.7136E+06     4.90049E+06    -99.6945E-03     190.527E-03    -90.8329E-03     30.9337E-03    -99.8723E-03     190.033E-03    -90.6756E-03     29.5496E-03
            2224     4.93737E-03     14.6602E-03    -60.6731E+06    -175.773E+06    -38.2167E+06     5.01298E+06    -96.0887E-03     185.700E-03    -89.6109E-03     24.7858E-03    -96.1890E-03     185.071E-03    -89.4592E-03     23.7525E-03
            2225     4.11871E-03     14.6159E-03    -65.4892E+06    -187.189E+06    -49.2308E+06     5.17615E+06    -93.0092E-03     181.559E-03    -88.5501E-03     19.6047E-03    -93.0591E-03     180.854E-03    -88.4298E-03     18.8507E-03
            2226     3.29772E-03     14.5801E-03    -69.5724E+06    -198.314E+06    -58.9495E+06     4.65977E+06    -90.5326E-03     178.215E-03    -87.6825E-03     15.0249E-03    -90.5450E-03     177.447E-03    -87.5889E-03     14.4845E-03
            2227     2.47492E-03     14.5529E-03    -72.7049E+06    -207.627E+06    -65.7590E+06     3.89706E+06    -88.5948E-03     175.609E-03    -87.0139E-03     10.9065E-03    -88.5818E-03     174.790E-03    -86.9362E-03     10.5354E-03
            2228     1.65066E-03     14.5335E-03    -75.4036E+06    -211.824E+06    -72.0016E+06     2.49367E+06    -87.2015E-03     173.738E-03    -86.5368E-03     7.10778E-03    -87.1759E-03     172.901E-03    -86.4803E-03     6.87046E-03
            2229     825.634E-06     14.5220E-03    -77.6062E+06    -214.973E+06    -76.9568E+06     1.10006E+06    -86.4345E-03     172.673E-03    -86.2383E-03     3.46483E-03    -86.4018E-03     171.825E-03    -86.1989E-03     3.33802E-03
            2230     15.3120E-03     15.3858E-03    -4.99544E+06     117.330E+06     92.4554E+06     1.17702E+06    -136.900E-03     247.492E-03    -110.592E-03     137.750E-03    -144.741E-03     255.464E-03    -110.293E-03     128.664E-03
            2231     14.5301E-03     15.1667E-03    -10.5207E+06     112.776E+06     93.4859E+06     1.72507E+06    -139.217E-03     248.301E-03    -109.083E-03     215.456E-03    -151.743E-03     260.919E-03    -108.764E-03     202.279E-03
            2232     13.7458E-03     14.8926E-03    -15.6139E+06     101.299E+06     87.2362E+06     2.73934E+06    -141.727E-03     249.112E-03    -107.385E-03     233.427E-03    -153.710E-03     261.147E-03    -107.073E-03     218.736E-03
            2233     12.9610E-03     14.6255E-03    -20.5629E+06     87.7882E+06     69.1956E+06     4.36591E+06    -140.728E-03     246.159E-03    -105.431E-03     201.535E-03    -149.511E-03     254.981E-03    -105.182E-03     188.103E-03
            2234     12.1750E-03     14.4120E-03    -25.4145E+06     71.5680E+06     38.9682E+06     5.06264E+06    -137.002E-03     240.238E-03    -103.236E-03     152.674E-03    -142.426E-03     245.715E-03    -103.108E-03     141.924E-03
            2235     11.3886E-03     14.2424E-03    -28.5958E+06     50.6111E+06     12.6638E+06     4.64454E+06    -132.833E-03     233.782E-03    -100.949E-03     116.974E-03    -136.206E-03     237.198E-03    -100.917E-03     108.589E-03
            2236     10.5992E-03     14.0976E-03    -30.6879E+06     2.30464E+06     2.06687E+06     5.21365E+06    -128.448E-03     227.165E-03    -98.7165E-03     92.4671E-03    -130.609E-03     229.220E-03    -98.6650E-03     85.9321E-03
            2237     9.80635E-03     13.9732E-03    -32.8375E+06    -48.5565E+06    -4.65119E+06     6.57858E+06    -123.388E-03     219.885E-03    -96.4971E-03     73.0801E-03    -124.756E-03     220.980E-03    -96.4023E-03     68.0640E-03
            2238     9.00896E-03     13.8656E-03    -36.4034E+06    -85.3018E+06    -9.06379E+06     8.16765E+06    -117.809E-03     212.131E-03    -94.3222E-03     56.8030E-03    -118.666E-03     212.584E-03    -94.1910E-03     53.0116E-03
            2239     8.20747E-03     13.7746E-03    -40.6156E+06    -107.336E+06    -11.9360E+06     8.62003E+06    -112.130E-03     204.369E-03    -92.2392E-03     43.9253E-03    -112.673E-03     204.423E-03    -92.0843E-03     41.0754E-03
            2240     7.40131E-03     13.6960E-03    -44.5126E+06    -126.756E+06    -17.7675E+06     7.88900E+06    -106.555E-03     196.840E-03    -90.2858E-03     34.0462E-03    -106.891E-03     196.621E-03    -90.1263E-03     31.9090E-03
            2241     6.59066E-03     13.6291E-03    -48.6903E+06    -144.180E+06    -23.5414E+06     7.38390E+06    -101.342E-03     189.856E-03    -88.5143E-03     26.3625E-03    -101.546E-03     189.444E-03    -88.3523E-03     24.7675E-03
            2242     5.77597E-03     13.5721E-03    -53.9442E+06    -155.931E+06    -30.0161E+06     7.07898E+06    -96.6586E-03     183.596E-03    -86.9376E-03     20.5560E-03    -96.7861E-03     183.065E-03    -86.7834E-03     19.3759E-03
            2243     4.95754E-03     13.5243E-03    -59.6647E+06    -174.598E+06    -37.5112E+06     7.20363E+06    -92.5666E-03     178.153E-03    -85.5860E-03     16.0181E-03    -92.6362E-03     177.499E-03    -85.4339E-03     15.1575E-03
            2244     4.13594E-03     13.4847E-03    -64.6997E+06    -184.329E+06    -48.2816E+06     7.01377E+06    -89.1217E-03     173.556E-03    -84.4342E-03     12.4737E-03    -89.1554E-03     172.844E-03    -84.3145E-03     11.8586E-03
            2245     3.31170E-03     13.4527E-03    -68.8542E+06    -194.808E+06    -57.8407E+06     5.86665E+06    -86.4119E-03     169.929E-03    -83.5173E-03     9.46120E-03    -86.4173E-03     169.165E-03    -83.4242E-03     9.02496E-03
            2246     2.48546E-03     13.4282E-03    -71.9862E+06    -204.105E+06    -65.0508E+06     4.34107E+06    -84.4073E-03     167.232E-03    -82.8245E-03     6.77389E-03    -84.3915E-03     166.423E-03    -82.7494E-03     6.47200E-03
            2247     1.65778E-03     13.4111E-03    -74.1769E+06    -208.005E+06    -70.7028E+06     3.25703E+06    -83.0042E-03     165.341E-03    -82.3364E-03     4.39160E-03    -82.9777E-03     164.516E-03    -82.2808E-03     4.20433E-03
            2248     829.017E-06     13.4004E-03    -75.9686E+06    -210.862E+06    -74.9715E+06     2.22092E+06    -82.2581E-03     164.258E-03    -81.9997E-03     2.21540E-03    -82.2255E-03     163.424E-03    -81.9586E-03     2.12528E-03
            2249     15.3151E-03     14.1635E-03    -6.33007E+06     115.327E+06     90.5835E+06     983.138E+03    -140.943E-03     251.480E-03    -110.537E-03     133.398E-03    -148.434E-03     259.095E-03    -110.242E-03     123.763E-03
            2250     14.5343E-03     13.9526E-03    -10.1450E+06     112.626E+06     93.2685E+06     1.88806E+06    -144.394E-03     253.163E-03    -108.770E-03     209.525E-03    -156.382E-03     265.246E-03    -108.452E-03     195.586E-03
            2251     13.7531E-03     13.6810E-03    -14.7556E+06     100.605E+06     87.9669E+06     2.75867E+06    -148.658E-03     255.345E-03    -106.687E-03     225.177E-03    -160.074E-03     266.811E-03    -106.371E-03     209.664E-03
            2252     12.9752E-03     13.4152E-03    -20.9361E+06     86.0069E+06     70.7705E+06     3.56648E+06    -147.627E-03     251.855E-03    -104.229E-03     187.830E-03    -155.777E-03     260.033E-03    -103.969E-03     173.869E-03
            2253     12.1978E-03     13.2098E-03    -24.4050E+06     71.6183E+06     41.4441E+06     4.01708E+06    -142.455E-03     243.944E-03    -101.490E-03     136.555E-03    -147.358E-03     248.898E-03    -101.351E-03     125.633E-03
            2254     11.4153E-03     13.0472E-03    -27.3130E+06     51.6462E+06     11.7669E+06     5.13942E+06    -136.929E-03     235.593E-03    -98.6643E-03     100.584E-03    -139.913E-03     238.632E-03    -98.6407E-03     92.2522E-03
            2255     10.6291E-03     12.9114E-03    -31.1345E+06     3.97790E+06    -1.04347E+06     6.06791E+06    -131.053E-03     226.994E-03    -95.9406E-03     76.1219E-03    -132.928E-03     228.778E-03    -95.9065E-03     69.7685E-03
            2256     9.83823E-03     12.7960E-03    -34.9524E+06    -48.7333E+06    -8.58794E+06     7.36650E+06    -124.562E-03     217.851E-03    -93.2886E-03     57.1262E-03    -125.722E-03     218.741E-03    -93.2102E-03     52.3572E-03
            2257     9.04222E-03     12.6989E-03    -37.5273E+06    -84.7645E+06    -11.8975E+06     9.10840E+06    -117.646E-03     208.384E-03    -90.7385E-03     41.7593E-03    -118.350E-03     208.691E-03    -90.6207E-03     38.2398E-03
            2258     8.24019E-03     12.6167E-03    -39.7488E+06    -104.398E+06    -11.8898E+06     9.32623E+06    -110.757E-03     199.104E-03    -88.3469E-03     30.1798E-03    -111.192E-03     199.063E-03    -88.1973E-03     27.5875E-03
            2259     7.43292E-03     12.5476E-03    -42.7395E+06    -124.275E+06    -16.2288E+06     9.28789E+06    -104.241E-03     190.383E-03    -86.1423E-03     21.7557E-03    -104.501E-03     190.099E-03    -85.9813E-03     19.8556E-03
            2260     6.62026E-03     12.4889E-03    -46.8590E+06    -141.755E+06    -22.4219E+06     9.55030E+06    -98.2276E-03     182.392E-03    -84.1647E-03     15.7394E-03    -98.3785E-03     181.939E-03    -84.0033E-03     14.3627E-03
            2261     5.80268E-03     12.4393E-03    -51.2033E+06    -153.682E+06    -28.6755E+06     9.52351E+06    -92.9246E-03     175.360E-03    -82.4357E-03     11.4432E-03    -93.0116E-03     174.803E-03    -82.2820E-03     10.4520E-03
            2262     4.98104E-03     12.3977E-03    -55.6576E+06    -172.107E+06    -33.9602E+06     9.61397E+06    -88.4185E-03     169.402E-03    -80.9834E-03     8.37531E-03    -88.4565E-03     168.729E-03    -80.8229E-03     7.67217E-03
            2263     4.15581E-03     12.3633E-03    -60.5961E+06    -180.593E+06    -42.0017E+06     8.87724E+06    -84.6697E-03     164.438E-03    -79.7682E-03     6.30721E-03    -84.6851E-03     163.717E-03    -79.6284E-03     5.81481E-03
            2264     3.32771E-03     12.3354E-03    -65.4239E+06    -190.072E+06    -52.6457E+06     7.54733E+06    -81.7431E-03     160.547E-03    -78.8038E-03     4.74453E-03    -81.7386E-03     159.786E-03    -78.6965E-03     4.40508E-03
            2265     2.49745E-03     12.3139E-03    -69.7350E+06    -199.389E+06    -63.3420E+06     5.76843E+06    -79.6497E-03     157.732E-03    -78.0824E-03     3.41432E-03    -79.6284E-03     156.937E-03    -78.0089E-03     3.18559E-03
            2266     1.66576E-03     12.2985E-03    -72.7841E+06    -203.835E+06    -70.1696E+06     3.83452E+06    -78.2634E-03     155.850E-03    -77.5862E-03     2.20566E-03    -78.2353E-03     155.041E-03    -77.5360E-03     2.06189E-03
            2267     833.146E-06     12.2894E-03    -73.9628E+06    -205.799E+06    -73.2278E+06     2.27252E+06    -77.4813E-03     154.756E-03    -77.2748E-03     1.14172E-03    -77.4483E-03     153.942E-03    -77.2353E-03     1.07014E-03
            2268     15.3163E-03     12.9411E-03    -3.26649E+06     116.345E+06     92.6585E+06     1.38237E+06    -147.172E-03     257.556E-03    -110.385E-03     129.277E-03    -154.356E-03     264.874E-03    -110.085E-03     118.808E-03
            2269     14.5387E-03     12.7320E-03    -9.47514E+06     111.107E+06     92.4488E+06     2.07442E+06    -152.097E-03     260.307E-03    -108.210E-03     202.275E-03    -163.590E-03     271.893E-03    -107.895E-03     187.063E-03
            2270     13.7686E-03     12.4581E-03    -16.8360E+06     97.9857E+06     85.5176E+06     2.33454E+06    -157.526E-03     263.104E-03    -105.578E-03     213.606E-03    -168.336E-03     273.955E-03    -105.268E-03     196.952E-03
            2271     13.0004E-03     12.1995E-03    -21.3518E+06     86.4938E+06     68.9325E+06     2.03157E+06    -154.921E-03     257.422E-03    -102.501E-03     173.032E-03    -162.449E-03     264.984E-03    -102.251E-03     158.523E-03
            2272     12.2260E-03     12.0033E-03    -25.4406E+06     69.6525E+06     36.6211E+06     2.88687E+06    -148.002E-03     247.169E-03    -99.1665E-03     120.824E-03    -152.420E-03     251.640E-03    -99.0475E-03     109.768E-03
            2273     11.4485E-03     11.8501E-03    -28.9937E+06     49.8250E+06     6.44574E+06     5.70312E+06    -140.564E-03     236.375E-03    -95.8114E-03     84.5928E-03    -143.195E-03     239.065E-03    -95.8094E-03     76.3772E-03
            2274     10.6652E-03     11.7260E-03    -32.4158E+06     5.71452E+06    -3.10575E+06     8.48437E+06    -132.851E-03     225.492E-03    -92.6403E-03     60.7621E-03    -134.485E-03     227.043E-03    -92.6171E-03     54.6518E-03
            2275     9.87577E-03     11.6218E-03    -36.3694E+06    -46.6786E+06    -8.55087E+06     9.44998E+06    -124.812E-03     214.425E-03    -89.6128E-03     42.8265E-03    -125.812E-03     215.157E-03    -89.5352E-03     38.3306E-03
            2276     9.07952E-03     11.5365E-03    -39.4242E+06    -81.8488E+06    -14.7040E+06     8.35800E+06    -116.551E-03     203.285E-03    -86.7334E-03     29.1266E-03    -117.151E-03     203.498E-03    -86.6311E-03     25.8443E-03
            2277     8.27670E-03     11.4658E-03    -40.8504E+06    -102.978E+06    -14.7874E+06     7.97198E+06    -108.590E-03     192.685E-03    -84.0951E-03     19.4696E-03    -108.955E-03     192.584E-03    -83.9605E-03     17.0823E-03
            2278     7.46705E-03     11.4068E-03    -42.9797E+06    -123.907E+06    -16.1112E+06     9.84800E+06    -101.282E-03     182.997E-03    -81.7148E-03     12.6374E-03    -101.498E-03     182.667E-03    -81.5533E-03     10.9320E-03
            2279     6.65168E-03     11.3576E-03    -46.1440E+06    -138.904E+06    -20.3770E+06     10.6946E+06    -94.7022E-03     174.294E-03    -79.5921E-03     8.12264E-03    -94.8273E-03     173.822E-03    -79.4257E-03     6.91195E-03
            2280     5.83106E-03     11.3160E-03    -49.6876E+06    -151.759E+06    -27.5387E+06     10.6468E+06    -88.9302E-03     166.674E-03    -77.7437E-03     5.25786E-03    -88.9959E-03     166.104E-03    -77.5893E-03     4.40304E-03
            2281     5.00577E-03     11.2813E-03    -53.6214E+06    -168.758E+06    -32.4349E+06     10.9254E+06    -84.0892E-03     160.295E-03    -76.2055E-03     3.42336E-03    -84.1132E-03     159.622E-03    -76.0452E-03     2.83325E-03
            2282     4.17675E-03     11.2524E-03    -57.7892E+06    -176.401E+06    -37.9164E+06     10.1404E+06    -80.1062E-03     155.044E-03    -74.9382E-03     2.38008E-03    -80.1131E-03     154.329E-03    -74.7882E-03     1.97720E-03
            2283     3.34462E-03     11.2290E-03    -62.4472E+06    -185.576E+06    -48.1254E+06     9.53183E+06    -76.9978E-03     150.930E-03    -73.9326E-03     1.80248E-03    -76.9879E-03     150.178E-03    -73.8136E-03     1.54353E-03
            2284     2.51020E-03     11.2104E-03    -66.8228E+06    -192.905E+06    -59.4100E+06     8.01187E+06    -74.7728E-03     147.958E-03    -73.1851E-03     1.38033E-03    -74.7502E-03     147.184E-03    -73.1055E-03     1.22080E-03
            2285     1.67419E-03     11.1971E-03    -70.1066E+06    -197.812E+06    -67.4854E+06     5.18296E+06    -73.3542E-03     146.035E-03    -72.6807E-03     958.240E-06    -73.3246E-03     145.248E-03    -72.6296E-03     858.671E-06
            2286     837.359E-06     11.1888E-03    -72.0997E+06    -200.269E+06    -71.6068E+06     2.48156E+06    -72.6184E-03     144.942E-03    -72.3239E-03     512.675E-06    -72.5862E-03     144.151E-03    -72.2870E-03     457.008E-06
            2287     15.3205E-03     11.7118E-03    -3.54018E+06     113.635E+06     91.5826E+06     824.999E+03    -156.609E-03     266.726E-03    -110.117E-03     124.645E-03    -163.595E-03     273.838E-03    -109.819E-03     112.844E-03
            2288     14.5543E-03     11.4997E-03    -9.28369E+06     109.329E+06     92.0864E+06     2.93559E+06    -162.937E-03     270.315E-03    -107.378E-03     197.053E-03    -174.010E-03     281.477E-03    -107.063E-03     180.272E-03
            2289     13.7912E-03     11.2272E-03    -14.2770E+06     100.102E+06     87.3232E+06     2.88096E+06    -167.002E-03     271.109E-03    -104.107E-03     204.118E-03    -177.215E-03     281.375E-03    -103.795E-03     186.396E-03
            2290     13.0261E-03     10.9776E-03    -19.8105E+06     87.0262E+06     66.8973E+06     2.63015E+06    -162.455E-03     262.830E-03    -100.376E-03     158.405E-03    -169.401E-03     269.825E-03    -100.139E-03     143.410E-03
            2291     12.2604E-03     10.7912E-03    -25.9464E+06     67.2873E+06     32.7427E+06     4.88608E+06    -152.839E-03     249.301E-03    -96.4618E-03     104.323E-03    -156.770E-03     253.288E-03    -96.3581E-03     93.3159E-03
            2292     11.4863E-03     10.6537E-03    -31.0751E+06     47.3467E+06     3.25350E+06     7.27067E+06    -142.817E-03     235.466E-03    -92.6491E-03     70.0491E-03    -145.152E-03     237.853E-03    -92.6565E-03     62.0541E-03
            2293     10.7042E-03     10.5418E-03    -34.3726E+06     6.38275E+06    -8.52338E+06     9.72087E+06    -133.292E-03     222.400E-03    -89.1080E-03     48.4281E-03    -134.742E-03     223.779E-03    -89.1100E-03     42.5868E-03
            2294     9.91478E-03     10.4523E-03    -36.9621E+06    -42.7780E+06    -11.5246E+06     11.0557E+06    -123.616E-03     209.444E-03    -85.8276E-03     32.4123E-03    -124.500E-03     210.081E-03    -85.7696E-03     28.2030E-03
            2295     9.11708E-03     10.3803E-03    -40.0775E+06    -75.5300E+06    -16.1333E+06     9.20831E+06    -114.213E-03     196.994E-03    -82.7809E-03     21.1996E-03    -114.754E-03     197.173E-03    -82.6939E-03     18.1633E-03
            2296     8.31162E-03     10.3221E-03    -44.1095E+06    -102.546E+06    -18.3868E+06     7.93019E+06    -105.629E-03     185.661E-03    -80.0315E-03     13.7229E-03    -105.968E-03     185.533E-03    -79.9108E-03     11.5221E-03
            2297     7.49952E-03     10.2744E-03    -47.4314E+06    -124.078E+06    -19.7037E+06     8.97207E+06    -97.8882E-03     175.466E-03    -77.5774E-03     8.73330E-03    -98.1008E-03     175.127E-03    -77.4272E-03     7.16167E-03
            2298     6.68110E-03     10.2351E-03    -49.6220E+06    -136.646E+06    -22.1487E+06     9.70541E+06    -91.0273E-03     166.434E-03    -75.4071E-03     5.64910E-03    -91.1614E-03     165.972E-03    -75.2478E-03     4.53374E-03
            2299     5.85704E-03     10.2024E-03    -52.1844E+06    -150.632E+06    -27.9490E+06     10.6584E+06    -85.1155E-03     158.642E-03    -73.5263E-03     3.90956E-03    -85.1912E-03     158.078E-03    -73.3720E-03     3.13437E-03
            2300     5.02839E-03     10.1747E-03    -55.0169E+06    -164.697E+06    -34.4221E+06     10.6858E+06    -80.1550E-03     152.094E-03    -71.9392E-03     2.89803E-03    -80.1878E-03     151.446E-03    -71.7927E-03     2.36381E-03
            2301     4.19577E-03     10.1517E-03    -58.0861E+06    -173.349E+06    -39.5767E+06     10.2205E+06    -76.1140E-03     146.750E-03    -70.6357E-03     2.30002E-03    -76.1243E-03     146.053E-03    -70.4980E-03     1.94001E-03
            2302     3.36005E-03     10.1328E-03    -61.3048E+06    -181.246E+06    -45.5917E+06     10.1176E+06    -72.9358E-03     142.534E-03    -69.5986E-03     1.91997E-03    -72.9303E-03     141.799E-03    -69.4749E-03     1.69753E-03
            2303     2.52188E-03     10.1175E-03    -64.1782E+06    -185.749E+06    -53.3187E+06     8.45004E+06    -70.5648E-03     139.374E-03    -68.8090E-03     1.59176E-03    -70.5482E-03     138.623E-03    -68.7132E-03     1.45812E-03
            2304     1.68210E-03     10.1062E-03    -66.7332E+06    -190.544E+06    -61.3990E+06     5.87323E+06    -68.9954E-03     137.257E-03    -68.2616E-03     1.15693E-03    -68.9681E-03     136.493E-03    -68.1956E-03     1.07959E-03
            2305     841.208E-06     10.0992E-03    -68.4378E+06    -193.481E+06    -66.8820E+06     3.06522E+06    -68.1946E-03     136.058E-03    -67.8634E-03     618.265E-06    -68.1605E-03     135.289E-03    -67.8180E-03     577.399E-06
            2306     15.3239E-03     10.4620E-03    -5.95081E+06     110.079E+06     89.0152E+06     943.806E+03    -167.460E-03     277.194E-03    -109.734E-03     123.510E-03    -174.268E-03     284.114E-03    -109.440E-03     110.199E-03
            2307     14.5674E-03     10.2547E-03    -9.94828E+06     108.249E+06     91.0840E+06     808.626E+03    -174.817E-03     281.186E-03    -106.368E-03     191.386E-03    -185.489E-03     291.943E-03    -106.056E-03     172.808E-03
            2308     13.8121E-03     9.98631E-03    -13.8103E+06     100.875E+06     88.1084E+06     1.52486E+06    -177.533E-03     279.930E-03    -102.397E-03     193.232E-03    -187.184E-03     289.639E-03    -102.083E-03     174.338E-03
            2309     13.0606E-03     9.74506E-03    -19.8810E+06     85.0124E+06     68.5836E+06     4.06616E+06    -168.866E-03     266.897E-03    -98.0315E-03     141.324E-03    -175.158E-03     273.228E-03    -97.7830E-03     126.134E-03
            2310     12.2975E-03     9.57974E-03    -24.5476E+06     65.5306E+06     36.1216E+06     7.34886E+06    -155.037E-03     248.707E-03    -93.6694E-03     90.1988E-03    -158.539E-03     252.255E-03    -93.5482E-03     79.5193E-03
            2311     11.5234E-03     9.45760E-03    -29.2564E+06     45.3978E+06     3.12755E+06     10.8835E+06    -142.912E-03     232.475E-03    -89.5630E-03     60.2764E-03    -145.015E-03     234.631E-03    -89.5708E-03     52.6594E-03
            2312     10.7414E-03     9.36205E-03    -34.6742E+06     7.99167E+06    -14.2713E+06     13.4647E+06    -131.549E-03     217.387E-03    -85.8387E-03     41.3768E-03    -132.867E-03     218.656E-03    -85.8713E-03     35.9267E-03
            2313     9.94938E-03     9.28852E-03    -39.4107E+06    -37.4085E+06    -15.9936E+06     12.3762E+06    -120.542E-03     203.063E-03    -82.5208E-03     28.4587E-03    -121.375E-03     203.672E-03    -82.4894E-03     24.5696E-03
            2314     9.14852E-03     9.23138E-03    -42.6624E+06    -70.0661E+06    -16.5511E+06     10.6170E+06    -110.591E-03     190.123E-03    -79.5320E-03     20.1926E-03    -111.129E-03     190.311E-03    -79.4513E-03     17.3970E-03
            2315     8.33991E-03     9.18605E-03    -45.8295E+06    -99.8973E+06    -18.3436E+06     9.55969E+06    -101.821E-03     178.690E-03    -76.8692E-03     15.0469E-03    -102.170E-03     178.577E-03    -76.7497E-03     13.0261E-03
            2316     7.52420E-03     9.14999E-03    -49.2167E+06    -122.207E+06    -20.9419E+06     8.15467E+06    -94.1631E-03     168.676E-03    -74.5127E-03     11.9096E-03    -94.3931E-03     168.359E-03    -74.3688E-03     10.4341E-03
            2317     6.70228E-03     9.12079E-03    -51.9801E+06    -135.795E+06    -22.7372E+06     7.84258E+06    -87.5612E-03     160.011E-03    -72.4499E-03     10.0376E-03    -87.7183E-03     159.568E-03    -72.2913E-03     8.96588E-03
            2318     5.87531E-03     9.09649E-03    -53.9156E+06    -150.049E+06    -25.7321E+06     8.68609E+06    -81.9600E-03     152.626E-03    -70.6657E-03     8.85255E-03    -82.0587E-03     152.075E-03    -70.4986E-03     8.09156E-03
            2319     5.04376E-03     9.07616E-03    -55.9952E+06    -161.463E+06    -31.7562E+06     9.06869E+06    -77.2708E-03     146.400E-03    -69.1297E-03     7.94909E-03    -77.3253E-03     145.775E-03    -68.9731E-03     7.41766E-03
            2320     4.20855E-03     9.05887E-03    -58.2817E+06    -170.651E+06    -36.8448E+06     8.56500E+06    -73.4523E-03     141.295E-03    -67.8425E-03     7.01351E-03    -73.4773E-03     140.614E-03    -67.6947E-03     6.64555E-03
            2321     3.37047E-03     9.04445E-03    -59.8661E+06    -176.952E+06    -41.1643E+06     7.55010E+06    -70.3855E-03     137.167E-03    -66.7817E-03     5.93058E-03    -70.3890E-03     136.449E-03    -66.6441E-03     5.68190E-03
            2322     2.53004E-03     9.03281E-03    -61.3254E+06    -179.854E+06    -47.0843E+06     6.09222E+06    -67.9574E-03     133.889E-03    -65.9315E-03     4.72974E-03    -67.9459E-03     133.158E-03    -65.8172E-03     4.56917E-03
            2323     1.68768E-03     9.02385E-03    -62.8385E+06    -183.933E+06    -54.4455E+06     4.08765E+06    -66.2050E-03     131.510E-03    -65.3045E-03     3.36456E-03    -66.1784E-03     130.765E-03    -65.2190E-03     3.26645E-03
            2324     844.255E-06     9.01815E-03    -63.9935E+06    -187.520E+06    -61.0270E+06     2.15490E+06    -65.2458E-03     130.051E-03    -64.8056E-03     1.81079E-03    -65.2064E-03     129.298E-03    -64.7461E-03     1.76044E-03
            2325     15.3335E-03     9.19654E-03    -2.47761E+06     111.955E+06     91.7839E+06     1.70345E+06    -180.327E-03     289.577E-03    -109.250E-03     121.305E-03    -186.924E-03     296.296E-03    -108.950E-03     106.412E-03
            2326     14.5842E-03     9.00158E-03    -7.19912E+06     109.445E+06     92.1543E+06     849.280E+03    -187.129E-03     292.310E-03    -105.181E-03     183.188E-03    -197.333E-03     302.611E-03    -104.868E-03     162.836E-03
            2327     13.8427E-03     8.72626E-03    -14.9758E+06     95.6990E+06     84.3734E+06     1.32018E+06    -185.745E-03     286.289E-03    -100.543E-03     180.512E-03    -194.724E-03     295.315E-03    -100.239E-03     160.938E-03
            2328     13.0933E-03     8.51274E-03    -20.4773E+06     81.1909E+06     67.8653E+06     4.57498E+06    -170.772E-03     266.538E-03    -95.7661E-03     127.666E-03    -176.400E-03     272.193E-03    -95.5148E-03     112.986E-03
            2329     12.3289E-03     8.36900E-03    -26.2231E+06     61.5046E+06     36.6897E+06     9.05906E+06    -154.185E-03     245.426E-03    -91.2414E-03     82.7133E-03    -157.377E-03     248.643E-03    -91.1091E-03     72.6303E-03
            2330     11.5547E-03     8.26477E-03    -32.1598E+06     39.4475E+06     3.85485E+06     15.2483E+06    -139.980E-03     227.111E-03    -87.1315E-03     56.9494E-03    -141.936E-03     229.087E-03    -87.1228E-03     49.9237E-03
            2331     10.7685E-03     8.18884E-03    -37.6913E+06     12.1277E+06    -12.2899E+06     18.6473E+06    -126.884E-03     210.421E-03    -83.5368E-03     42.1989E-03    -128.160E-03     211.646E-03    -83.5612E-03     37.2870E-03
            2332     9.97207E-03     8.13211E-03    -42.2105E+06    -27.5184E+06    -13.4584E+06     14.6735E+06    -115.425E-03     195.886E-03    -80.4609E-03     33.3776E-03    -116.282E-03     196.537E-03    -80.4271E-03     29.8565E-03
            2333     9.16683E-03     8.08975E-03    -44.8781E+06    -65.8121E+06    -13.6005E+06     9.66495E+06    -105.677E-03     183.458E-03    -77.7812E-03     28.2041E-03    -106.257E-03     183.686E-03    -77.6887E-03     25.6181E-03
            2334     8.35371E-03     8.05728E-03    -45.7315E+06    -96.8656E+06    -13.7251E+06     8.05834E+06    -97.4275E-03     172.871E-03    -75.4431E-03     25.1685E-03    -97.8170E-03     172.795E-03    -75.3050E-03     23.2661E-03
            2335     7.53410E-03     8.03217E-03    -46.5506E+06    -118.697E+06    -14.2125E+06     6.79174E+06    -90.5383E-03     163.941E-03    -73.4031E-03     23.1527E-03    -90.8000E-03     163.659E-03    -73.2345E-03     21.7358E-03
            2336     6.70933E-03     8.01199E-03    -48.1948E+06    -135.142E+06    -15.9370E+06     5.60202E+06    -84.8160E-03     156.437E-03    -71.6215E-03     21.6326E-03    -84.9911E-03     156.009E-03    -71.4353E-03     20.5681E-03
            2337     5.87993E-03     7.99562E-03    -50.9537E+06    -150.432E+06    -18.5277E+06     6.41233E+06    -80.0502E-03     150.121E-03    -70.0710E-03     20.1428E-03    -80.1648E-03     149.575E-03    -69.8716E-03     19.3643E-03
            2338     5.04692E-03     7.98169E-03    -54.1700E+06    -158.703E+06    -22.3017E+06     6.54334E+06    -76.0679E-03     144.780E-03    -68.7125E-03     18.4395E-03    -76.1461E-03     144.168E-03    -68.5154E-03     17.8753E-03
            2339     4.21086E-03     7.96978E-03    -56.5748E+06    -167.120E+06    -28.0597E+06     4.63183E+06    -72.7473E-03     140.278E-03    -67.5310E-03     16.3522E-03    -72.7918E-03     139.610E-03    -67.3469E-03     15.9295E-03
            2340     3.37216E-03     7.95970E-03    -58.1659E+06    -173.383E+06    -35.4981E+06     2.56073E+06    -69.9963E-03     136.509E-03    -66.5132E-03     13.8297E-03    -70.0109E-03     135.805E-03    -66.3550E-03     13.5127E-03
            2341     2.53131E-03     7.95160E-03    -59.0253E+06    -176.760E+06    -42.4464E+06     1.13207E+06    -67.7415E-03     133.411E-03    -65.6695E-03     10.9098E-03    -67.7331E-03     132.688E-03    -65.5398E-03     10.6825E-03
            2342     1.68874E-03     7.94550E-03    -59.8795E+06    -180.674E+06    -50.2767E+06     538.330E+03    -65.9798E-03     131.000E-03    -65.0201E-03     7.70105E-03    -65.9508E-03     130.262E-03    -64.9227E-03     7.55642E-03
            2343     844.650E-06     7.94141E-03    -61.3564E+06    -184.894E+06    -57.8174E+06     219.862E+03    -64.9533E-03     129.451E-03    -64.4972E-03     4.35897E-03    -64.9096E-03     128.702E-03    -64.4292E-03     4.28388E-03
            2344     15.3413E-03     7.92629E-03    -4.17138E+06     109.835E+06     88.2493E+06    -201.399E+03    -193.460E-03     302.183E-03    -108.723E-03     121.851E-03    -199.986E-03     308.828E-03    -108.435E-03     105.358E-03
            2345     14.6057E-03     7.72075E-03    -8.85298E+06     108.359E+06     89.5777E+06     1.92724E+06    -197.807E-03     301.848E-03    -104.041E-03     182.731E-03    -207.647E-03     311.785E-03    -103.737E-03     161.252E-03
            2346     13.8686E-03     7.46690E-03    -13.7136E+06     94.6082E+06     84.4645E+06     4.31496E+06    -188.813E-03     287.815E-03    -99.0022E-03     171.355E-03    -196.996E-03     296.050E-03    -98.6972E-03     152.350E-03
            2347     13.1154E-03     7.28147E-03    -21.1200E+06     76.3976E+06     65.5801E+06     7.84159E+06    -168.068E-03     262.214E-03    -94.1465E-03     120.385E-03    -173.100E-03     267.261E-03    -93.8987E-03     106.897E-03
            2348     12.3503E-03     7.16005E-03    -30.6938E+06     54.2636E+06     35.3798E+06     13.8427E+06    -149.027E-03     238.842E-03    -89.8156E-03     82.0794E-03    -151.975E-03     241.778E-03    -89.6728E-03     73.0002E-03
            2349     11.5702E-03     7.08014E-03    -38.4252E+06     33.2685E+06     11.0582E+06     19.3795E+06    -132.780E-03     218.894E-03    -86.1133E-03     63.1753E-03    -134.675E-03     220.743E-03    -86.0505E-03     57.0059E-03
            2350     10.7773E-03     7.02371E-03    -43.0056E+06     17.7952E+06    -949.249E+03     19.8538E+06    -119.410E-03     202.429E-03    -83.0199E-03     53.8631E-03    -120.731E-03     203.668E-03    -82.9880E-03     49.5428E-03
            2351     9.97438E-03     6.98347E-03    -44.7430E+06    -13.9715E+06    -4.13748E+06     13.5835E+06    -108.640E-03     189.112E-03    -80.4725E-03     48.6286E-03    -109.575E-03     189.854E-03    -80.4081E-03     45.4674E-03
            2352     9.16317E-03     6.95476E-03    -45.3422E+06    -60.0113E+06    -4.87414E+06     6.32718E+06    -100.075E-03     178.434E-03    -78.3583E-03     45.6293E-03    -100.725E-03     178.726E-03    -78.2299E-03     43.2265E-03
            2353     8.34569E-03     6.93353E-03    -45.7322E+06    -95.4843E+06    -5.63588E+06     3.33393E+06    -93.2909E-03     169.846E-03    -76.5552E-03     43.5014E-03    -93.7404E-03     169.812E-03    -76.3786E-03     41.6611E-03
            2354     7.52322E-03     6.91751E-03    -45.8273E+06    -116.391E+06    -5.81023E+06     2.31757E+06    -87.8766E-03     162.873E-03    -74.9963E-03     41.4555E-03    -88.1904E-03     162.629E-03    -74.7901E-03     40.0401E-03
            2355     6.69643E-03     6.90494E-03    -47.1210E+06    -136.209E+06    -7.87329E+06     2.77709E+06    -83.5606E-03     157.198E-03    -73.6372E-03     39.0719E-03    -83.7725E-03     156.782E-03    -73.4108E-03     37.9916E-03
            2356     5.86659E-03     6.89478E-03    -49.3651E+06    -150.054E+06    -10.0405E+06     3.24558E+06    -80.0286E-03     152.466E-03    -72.4377E-03     36.2273E-03    -80.1720E-03     151.931E-03    -72.1987E-03     35.4089E-03
            2357     5.03402E-03     6.88605E-03    -50.8369E+06    -155.558E+06    -12.0827E+06     1.54454E+06    -77.0345E-03     148.403E-03    -71.3682E-03     32.8759E-03    -77.1321E-03     147.802E-03    -71.1293E-03     32.2411E-03
            2358     4.19905E-03     6.87876E-03    -52.4765E+06    -164.216E+06    -19.0225E+06    -521.994E+03    -74.4666E-03     144.880E-03    -70.4132E-03     28.8661E-03    -74.5189E-03     144.217E-03    -70.1941E-03     28.3708E-03
            2359     3.36205E-03     6.87253E-03    -54.8625E+06    -170.740E+06    -29.9955E+06    -2.72088E+06    -72.2650E-03     141.839E-03    -69.5743E-03     24.2691E-03    -72.2817E-03     141.141E-03    -69.3971E-03     23.8813E-03
            2360     2.52331E-03     6.86764E-03    -57.2861E+06    -177.190E+06    -40.9885E+06    -3.94874E+06    -70.4730E-03     139.354E-03    -68.8814E-03     19.0648E-03    -70.4615E-03     138.627E-03    -68.7463E-03     18.7718E-03
            2361     1.68309E-03     6.86410E-03    -59.2589E+06    -182.458E+06    -50.1374E+06    -3.06897E+06    -69.1065E-03     137.457E-03    -68.3501E-03     13.3413E-03    -69.0743E-03     136.709E-03    -68.2503E-03     13.1505E-03
            2362     841.887E-06     6.86189E-03    -60.8387E+06    -186.574E+06    -57.2634E+06    -1.52678E+06    -68.2125E-03     136.201E-03    -67.9888E-03     7.50129E-03    -68.1661E-03     135.442E-03    -67.9164E-03     7.40401E-03
            2363     15.3474E-03     6.64229E-03    -4.43866E+06     107.985E+06     84.9319E+06     518.962E+03    -204.795E-03     313.272E-03    -108.477E-03     127.181E-03    -211.271E-03     319.871E-03    -108.202E-03     109.699E-03
            2364     14.6151E-03     6.42292E-03    -10.5514E+06     104.154E+06     84.4379E+06     1.30631E+06    -201.851E-03     305.283E-03    -103.432E-03     184.197E-03    -211.265E-03     314.791E-03    -103.145E-03     162.769E-03
            2365     13.8788E-03     6.20791E-03    -17.0828E+06     89.8619E+06     78.2806E+06     5.94238E+06    -185.051E-03     283.442E-03    -98.3908E-03     165.095E-03    -192.374E-03     290.808E-03    -98.1050E-03     147.703E-03
            2366     13.1249E-03     6.05227E-03    -25.0211E+06     67.8547E+06     61.3712E+06     12.7014E+06    -159.727E-03     253.633E-03    -93.9066E-03     122.486E-03    -164.208E-03     258.100E-03    -93.6618E-03     110.830E-03
            2367     12.3496E-03     5.96260E-03    -32.0566E+06     47.0770E+06     40.6715E+06     19.1651E+06    -138.219E-03     228.465E-03    -90.2456E-03     93.6381E-03    -140.941E-03     231.130E-03    -90.0640E-03     86.0580E-03
            2368     11.5586E-03     5.90533E-03    -37.6294E+06     33.9745E+06     25.8306E+06     21.1980E+06    -122.372E-03     209.722E-03    -87.3501E-03     81.5539E-03    -124.227E-03     211.495E-03    -87.2156E-03     76.3814E-03
            2369     10.7573E-03     5.86681E-03    -40.4428E+06     27.2506E+06     17.9650E+06     16.7556E+06    -110.621E-03     195.682E-03    -85.0614E-03     75.6467E-03    -111.977E-03     196.944E-03    -84.9524E-03     71.9037E-03
            2370     9.94746E-03     5.84104E-03    -41.1922E+06    -1.48290E+06     13.6084E+06     8.48163E+06    -101.817E-03     185.090E-03    -83.2731E-03     72.0377E-03    -102.809E-03     185.895E-03    -83.1432E-03     69.1907E-03
            2371     9.13160E-03     5.82312E-03    -42.0293E+06    -55.2879E+06     8.96186E+06     1.64890E+06    -95.4682E-03     177.334E-03    -81.8655E-03     69.2780E-03    -96.1646E-03     177.661E-03    -81.6795E-03     67.0368E-03
            2372     8.31125E-03     5.81034E-03    -43.2561E+06    -94.1736E+06     6.33158E+06    -1.88733E+06    -90.8292E-03     171.528E-03    -80.6984E-03     66.3095E-03    -91.3189E-03     171.512E-03    -80.4675E-03     64.5239E-03
            2373     7.48748E-03     5.80095E-03    -45.0069E+06    -117.390E+06     5.86410E+06    -2.82893E+06    -87.3472E-03     167.049E-03    -79.7022E-03     62.7460E-03    -87.6998E-03     166.808E-03    -79.4374E-03     61.3266E-03
            2374     6.66149E-03     5.79361E-03    -46.3308E+06    -138.087E+06     4.75550E+06    -2.65173E+06    -84.6749E-03     163.506E-03    -78.8313E-03     58.4468E-03    -84.9194E-03     163.081E-03    -78.5401E-03     57.3253E-03
            2375     5.83342E-03     5.78783E-03    -46.4432E+06    -148.115E+06     2.00698E+06    -4.01420E+06    -82.4883E-03     160.526E-03    -78.0375E-03     53.5306E-03    -82.6523E-03     159.991E-03    -77.7453E-03     52.6322E-03
            2376     5.00355E-03     5.78300E-03    -47.1406E+06    -154.600E+06    -4.98131E+06    -5.51622E+06    -80.6217E-03     157.930E-03    -77.3082E-03     47.8837E-03    -80.7229E-03     157.326E-03    -77.0406E-03     47.1640E-03
            2377     4.17222E-03     5.77900E-03    -48.8816E+06    -163.550E+06    -15.2734E+06    -6.40543E+06    -78.9896E-03     155.648E-03    -76.6581E-03     41.4376E-03    -79.0373E-03     154.981E-03    -76.4264E-03     40.8692E-03
            2378     3.33945E-03     5.77587E-03    -51.4424E+06    -171.436E+06    -27.8512E+06    -6.68535E+06    -77.5849E-03     153.682E-03    -76.0972E-03     34.3434E-03    -77.5914E-03     152.973E-03    -75.9133E-03     33.9058E-03
            2379     2.50545E-03     5.77330E-03    -55.1687E+06    -180.411E+06    -41.5153E+06    -5.95618E+06    -76.4871E-03     152.130E-03    -75.6426E-03     26.5748E-03    -76.4629E-03     151.384E-03    -75.5086E-03     26.2559E-03
            2380     1.67074E-03     5.77151E-03    -58.9568E+06    -187.461E+06    -52.0598E+06    -4.67740E+06    -75.7057E-03     151.010E-03    -75.3042E-03     18.3071E-03    -75.6645E-03     150.239E-03    -75.2072E-03     18.0944E-03
            2381     835.539E-06     5.77031E-03    -61.3433E+06    -191.978E+06    -58.9165E+06    -2.63952E+06    -75.1951E-03     150.271E-03    -75.0757E-03     10.1100E-03    -75.1430E-03     149.486E-03    -75.0030E-03     9.99699E-03
            2382     15.3450E-03     5.33435E-03    -3.44605E+06     108.528E+06     82.7884E+06     2.06072E+06    -210.126E-03     319.216E-03    -109.090E-03     142.041E-03    -216.729E-03     325.957E-03    -108.828E-03     124.377E-03
            2383     14.6162E-03     5.13287E-03    -9.51125E+06     99.5242E+06     79.2644E+06     3.73138E+06    -198.051E-03     302.148E-03    -104.097E-03     196.214E-03    -206.986E-03     311.184E-03    -103.831E-03     176.356E-03
            2384     13.8697E-03     4.94981E-03    -17.9090E+06     78.5222E+06     68.1051E+06     10.5075E+06    -173.265E-03     272.832E-03    -99.5669E-03     171.431E-03    -179.548E-03     279.148E-03    -99.3142E-03     156.966E-03
            2385     13.1001E-03     4.83829E-03    -24.6684E+06     59.0095E+06     57.8369E+06     17.5644E+06    -145.339E-03     241.318E-03    -95.9783E-03     136.925E-03    -149.174E-03     245.119E-03    -95.7389E-03     127.740E-03
            2386     12.3114E-03     4.77678E-03    -30.2329E+06     45.7696E+06     48.5339E+06     19.6528E+06    -125.264E-03     218.623E-03    -93.3586E-03     116.248E-03    -127.730E-03     221.011E-03    -93.1384E-03     110.234E-03
            2387     11.5117E-03     4.73905E-03    -31.8538E+06     41.0539E+06     42.2850E+06     16.4327E+06    -112.365E-03     203.820E-03    -91.4555E-03     106.998E-03    -114.120E-03     205.491E-03    -91.2574E-03     102.698E-03
            2388     10.7032E-03     4.71492E-03    -30.8404E+06     39.6338E+06     40.3467E+06     9.59007E+06    -103.504E-03     193.572E-03    -90.0677E-03     101.231E-03    -104.806E-03     194.791E-03    -89.8787E-03     97.9844E-03
            2389     9.88898E-03     4.69950E-03    -30.8125E+06     5.01658E+06     35.7967E+06     2.33356E+06    -97.6966E-03     186.772E-03    -89.0755E-03     96.6398E-03    -98.6458E-03     187.527E-03    -88.8591E-03     94.0864E-03
            2390     9.07109E-03     4.68870E-03    -33.2118E+06    -54.2981E+06     27.3869E+06    -2.04753E+06    -94.0948E-03     182.437E-03    -88.3421E-03     91.8858E-03    -94.7531E-03     182.704E-03    -88.0783E-03     89.8362E-03
            2391     8.25098E-03     4.68117E-03    -37.4170E+06    -92.4963E+06     23.4723E+06    -5.12976E+06    -91.7051E-03     179.460E-03    -87.7551E-03     86.4182E-03    -92.1769E-03     179.400E-03    -87.4493E-03     84.7464E-03
            2392     7.42950E-03     4.67546E-03    -40.7186E+06    -118.161E+06     20.3943E+06    -8.62933E+06    -90.0672E-03     177.319E-03    -87.2517E-03     80.3295E-03    -90.4065E-03     177.031E-03    -86.9193E-03     78.9387E-03
            2393     6.60668E-03     4.67132E-03    -41.4356E+06    -138.164E+06     15.4542E+06    -11.8632E+06    -88.8736E-03     175.668E-03    -86.7939E-03     73.5339E-03    -89.1008E-03     175.208E-03    -86.4562E-03     72.3624E-03
            2394     5.78290E-03     4.66809E-03    -41.4706E+06    -149.095E+06     8.36839E+06    -13.1546E+06    -87.9009E-03     174.264E-03    -86.3634E-03     66.1604E-03    -88.0424E-03     173.699E-03    -86.0452E-03     65.1890E-03
            2395     4.95842E-03     4.66552E-03    -42.4117E+06    -157.540E+06    -3.79436E+06    -12.4040E+06    -87.0747E-03     173.028E-03    -85.9536E-03     58.1358E-03    -87.1468E-03     172.395E-03    -85.6827E-03     57.3530E-03
            2396     4.13311E-03     4.66367E-03    -44.7425E+06    -167.384E+06    -17.5862E+06    -10.7107E+06    -86.3709E-03     171.960E-03    -85.5889E-03     49.5049E-03    -86.3882E-03     171.268E-03    -85.3692E-03     48.8920E-03
            2397     3.30723E-03     4.66223E-03    -48.6967E+06    -176.774E+06    -30.4736E+06    -8.00203E+06    -85.7929E-03     171.073E-03    -85.2802E-03     40.3671E-03    -85.7746E-03     170.335E-03    -85.1057E-03     39.9129E-03
            2398     2.48097E-03     4.66106E-03    -53.0807E+06    -185.440E+06    -42.5324E+06    -5.37807E+06    -85.3301E-03     170.356E-03    -85.0254E-03     30.7928E-03    -85.2879E-03     169.581E-03    -84.8922E-03     30.4765E-03
            2399     1.65423E-03     4.66017E-03    -57.3112E+06    -192.721E+06    -52.8623E+06    -3.33036E+06    -84.9833E-03     169.810E-03    -84.8267E-03     20.9202E-03    -84.9264E-03     169.010E-03    -84.7284E-03     20.7189E-03
            2400     827.155E-06     4.65972E-03    -60.5192E+06    -197.676E+06    -59.8792E+06    -1.84343E+06    -84.7245E-03     169.430E-03    -84.7058E-03     11.3933E-03    -84.6599E-03     168.616E-03    -84.6308E-03     11.2852E-03
            2401     15.3117E-03     4.02052E-03    -355.382E+03     106.351E+06     75.1458E+06     4.10439E+06    -201.225E-03     312.678E-03    -111.453E-03     177.366E-03    -208.104E-03     319.724E-03    -111.231E-03     160.871E-03
            2402     14.5722E-03     3.83821E-03    -12.0441E+06     86.9713E+06     65.9299E+06     8.33345E+06    -187.595E-03     294.727E-03    -107.132E-03     219.415E-03    -195.730E-03     302.954E-03    -106.911E-03     202.495E-03
            2403     13.8150E-03     3.70904E-03    -19.0641E+06     66.9771E+06     60.3408E+06     15.1736E+06    -158.202E-03     261.714E-03    -103.512E-03     185.047E-03    -163.225E-03     266.750E-03    -103.280E-03     174.029E-03
            2404     13.0322E-03     3.63718E-03    -21.9958E+06     57.1293E+06     60.6523E+06     18.2550E+06    -131.646E-03     232.642E-03    -100.996E-03     155.532E-03    -134.723E-03     235.677E-03    -100.744E-03     148.648E-03
            2405     12.2353E-03     3.59804E-03    -23.0917E+06     53.7716E+06     62.0067E+06     13.8375E+06    -116.141E-03     215.529E-03    -99.3879E-03     137.977E-03    -118.212E-03     217.533E-03    -99.1223E-03     133.194E-03
            2406     11.4293E-03     3.57461E-03    -21.6628E+06     51.9626E+06     59.7665E+06     5.50981E+06    -107.197E-03     205.526E-03    -98.3286E-03     127.697E-03    -108.674E-03     206.937E-03    -98.0737E-03     124.116E-03
            2407     10.6186E-03     3.56034E-03    -20.2655E+06     45.7459E+06     56.8130E+06     492.616E+03    -102.000E-03     199.631E-03    -97.6319E-03     119.102E-03    -103.084E-03     200.640E-03    -97.3848E-03     116.335E-03
            2408     9.80467E-03     3.55067E-03    -22.8431E+06     3.87828E+06     48.9761E+06    -1.30982E+06    -99.1745E-03     196.365E-03    -97.1906E-03     110.971E-03    -99.9522E-03     196.930E-03    -96.9182E-03     108.798E-03
            2409     8.98964E-03     3.54335E-03    -27.2158E+06    -53.9352E+06     37.9139E+06    -4.91731E+06    -97.7289E-03     194.618E-03    -96.8888E-03     102.705E-03    -98.2608E-03     194.747E-03    -96.5816E-03     100.933E-03
            2410     8.17387E-03     3.53831E-03    -29.2098E+06    -89.4407E+06     31.4512E+06    -10.3843E+06    -96.9240E-03     193.572E-03    -96.6484E-03     94.3012E-03    -97.2874E-03     193.418E-03    -96.3191E-03     92.7968E-03
            2411     7.35738E-03     3.53432E-03    -29.8197E+06    -116.621E+06     24.6920E+06    -15.8279E+06    -96.4769E-03     192.913E-03    -96.4365E-03     85.7232E-03    -96.7099E-03     192.549E-03    -96.1007E-03     84.4122E-03
            2412     6.54079E-03     3.53158E-03    -31.7630E+06    -139.315E+06     14.5309E+06    -18.9519E+06    -96.1968E-03     192.428E-03    -96.2307E-03     76.8777E-03    -96.3305E-03     191.905E-03    -95.9100E-03     75.7371E-03
            2413     5.72396E-03     3.52952E-03    -34.6834E+06    -154.486E+06     1.56597E+06    -18.8910E+06    -95.9660E-03     191.989E-03    -96.0233E-03     67.9173E-03    -96.0277E-03     191.368E-03    -95.7411E-03     66.9540E-03
            2414     4.90671E-03     3.52810E-03    -38.0491E+06    -165.543E+06    -12.7427E+06    -15.7931E+06    -95.7804E-03     191.605E-03    -95.8248E-03     58.7028E-03    -95.7883E-03     190.920E-03    -95.5933E-03     57.9262E-03
            2415     4.08932E-03     3.52711E-03    -42.2156E+06    -176.082E+06    -25.4861E+06    -10.9729E+06    -95.6558E-03     191.308E-03    -95.6519E-03     49.2704E-03    -95.6259E-03     190.569E-03    -95.4628E-03     48.6796E-03
            2416     3.27181E-03     3.52637E-03    -46.6392E+06    -184.343E+06    -35.6126E+06    -6.60665E+06    -95.5400E-03     191.042E-03    -95.5024E-03     39.7256E-03    -95.4874E-03     190.265E-03    -95.3456E-03     39.2986E-03
            2417     2.45404E-03     3.52588E-03    -51.0406E+06    -191.230E+06    -44.5051E+06    -3.23433E+06    -95.4089E-03     190.782E-03    -95.3732E-03     30.0892E-03    -95.3424E-03     189.976E-03    -95.2445E-03     29.8011E-03
            2418     1.63617E-03     3.52556E-03    -54.7147E+06    -196.500E+06    -51.4890E+06    -963.877E+03    -95.2860E-03     190.559E-03    -95.2731E-03     20.4056E-03    -95.2115E-03     189.733E-03    -95.1663E-03     20.2321E-03
            2419     818.244E-06     3.52544E-03    -57.1788E+06    -200.146E+06    -56.6114E+06     34.6632E+03    -95.1390E-03     190.410E-03    -95.2711E-03     11.0786E-03    -95.0584E-03     189.574E-03    -95.1811E-03     10.9944E-03
            2420     15.2331E-03     2.70943E-03     1.00818E+06     100.712E+06     72.8276E+06     9.85787E+06    -189.982E-03     306.245E-03    -116.263E-03     218.439E-03    -196.588E-03     313.003E-03    -116.047E-03     204.174E-03
            2421     14.4835E-03     2.54844E-03    -8.52999E+06     79.5554E+06     65.8730E+06     15.9920E+06    -174.524E-03     287.345E-03    -112.822E-03     221.313E-03    -180.646E-03     293.547E-03    -112.595E-03     208.457E-03
            2422     13.7167E-03     2.48062E-03    -18.3315E+06     66.0127E+06     63.9339E+06     13.4886E+06    -146.861E-03     256.982E-03    -110.121E-03     181.720E-03    -150.271E-03     260.387E-03    -109.870E-03     173.766E-03
            2423     12.9284E-03     2.43793E-03    -16.8385E+06     63.8883E+06     71.8644E+06     7.54138E+06    -127.155E-03     235.545E-03    -108.390E-03     158.216E-03    -129.268E-03     237.618E-03    -108.099E-03     153.077E-03
            2424     12.1300E-03     2.41619E-03    -12.6450E+06     64.0189E+06     74.8779E+06     1.53665E+06    -116.666E-03     223.984E-03    -107.318E-03     139.232E-03    -118.072E-03     225.352E-03    -107.018E-03     135.582E-03
            2425     11.3263E-03     2.40173E-03    -12.1071E+06     59.1162E+06     59.1952E+06    -2.83744E+06    -111.107E-03     217.674E-03    -106.566E-03     124.739E-03    -112.081E-03     218.638E-03    -106.339E-03     122.008E-03
            2426     10.5201E-03     2.39227E-03    -15.7395E+06     41.7134E+06     39.4613E+06    -2.70038E+06    -108.218E-03     214.271E-03    -106.053E-03     112.166E-03    -108.914E-03     214.939E-03    -105.893E-03     110.078E-03
            2427     9.71315E-03     2.38525E-03    -19.4150E+06     757.361E+03     25.6768E+06    -2.67167E+06    -106.764E-03     212.501E-03    -105.737E-03     101.141E-03    -107.245E-03     212.835E-03    -105.582E-03     99.5061E-03
            2428     8.90512E-03     2.38006E-03    -20.9537E+06    -48.7846E+06     14.8353E+06    -8.96605E+06    -105.957E-03     211.482E-03    -105.525E-03     91.0034E-03    -106.257E-03     211.485E-03    -105.350E-03     89.6118E-03
            2429     8.09644E-03     2.37595E-03    -21.3483E+06    -85.9037E+06     5.15592E+06    -16.4428E+06    -105.465E-03     210.818E-03    -105.353E-03     81.5544E-03    -105.630E-03     210.582E-03    -105.172E-03     80.3082E-03
            2430     7.28770E-03     2.37289E-03    -22.4539E+06    -117.743E+06    -3.18398E+06    -19.6935E+06    -105.165E-03     210.385E-03    -105.220E-03     72.6105E-03    -105.229E-03     209.954E-03    -105.033E-03     71.5091E-03
            2431     6.47845E-03     2.37076E-03    -25.0766E+06    -143.875E+06    -8.15005E+06    -19.8013E+06    -104.972E-03     210.098E-03    -105.126E-03     64.0444E-03    -104.969E-03     209.513E-03    -104.922E-03     63.0903E-03
            2432     5.66895E-03     2.36937E-03    -29.7010E+06    -163.206E+06    -15.5249E+06    -17.4307E+06    -104.858E-03     209.893E-03    -105.035E-03     55.7846E-03    -104.813E-03     209.203E-03    -104.833E-03     54.9858E-03
            2433     4.85941E-03     2.36841E-03    -35.6965E+06    -177.006E+06    -25.1621E+06    -12.5160E+06    -104.794E-03     209.736E-03    -104.942E-03     47.6952E-03    -104.726E-03     208.980E-03    -104.759E-03     47.0664E-03
            2434     4.04975E-03     2.36773E-03    -41.3510E+06    -185.635E+06    -34.3252E+06    -7.42439E+06    -104.751E-03     209.606E-03    -104.855E-03     39.7160E-03    -104.671E-03     208.814E-03    -104.698E-03     39.2463E-03
            2435     3.23992E-03     2.36742E-03    -45.8200E+06    -191.450E+06    -40.7030E+06    -3.50348E+06    -104.703E-03     209.491E-03    -104.788E-03     31.8465E-03    -104.616E-03     208.674E-03    -104.648E-03     31.5114E-03
            2436     2.43005E-03     2.36719E-03    -49.0431E+06    -195.486E+06    -45.4578E+06    -936.092E+03    -104.654E-03     209.396E-03    -104.742E-03     24.0325E-03    -104.563E-03     208.563E-03    -104.615E-03     23.8078E-03
            2437     1.62002E-03     2.36720E-03    -50.9348E+06    -198.135E+06    -48.9218E+06     206.164E+03    -104.632E-03     209.356E-03    -104.724E-03     16.2934E-03    -104.536E-03     208.511E-03    -104.607E-03     16.1557E-03
            2438     809.820E-06     2.36714E-03    -51.9530E+06    -200.045E+06    -51.6859E+06     420.336E+03    -104.567E-03     209.412E-03    -104.845E-03     8.89870E-03    -104.464E-03     208.562E-03    -104.738E-03     8.83045E-03
            2439     15.1298E-03     1.38188E-03    -6.58086E+06     93.1943E+06     78.9716E+06     10.3764E+06    -213.482E-03     337.025E-03    -123.543E-03     236.053E-03    -218.794E-03     342.391E-03    -123.274E-03     222.717E-03
            2440     14.3770E-03     1.28412E-03    -2.55694E+06     86.1634E+06     84.2273E+06     14.3000E+06    -177.832E-03     297.547E-03    -119.715E-03     176.413E-03    -180.855E-03     300.628E-03    -119.415E-03     168.577E-03
            2441     13.6011E-03     1.24790E-03    -1.12884E+06     81.4730E+06     88.9346E+06     6.68543E+06    -149.285E-03     266.470E-03    -117.185E-03     129.949E-03    -150.776E-03     267.989E-03    -116.857E-03     125.651E-03
            2442     12.8189E-03     1.22827E-03    -2.18340E+06     73.6449E+06     80.0470E+06    -2.69769E+06    -134.376E-03     249.898E-03    -115.523E-03     108.039E-03    -135.315E-03     250.856E-03    -115.226E-03     105.111E-03
            2443     12.0298E-03     1.21641E-03    -5.01453E+06     65.9869E+06     57.0993E+06    -5.68653E+06    -126.058E-03     240.385E-03    -114.326E-03     91.7871E-03    -126.676E-03     241.049E-03    -114.129E-03     89.6973E-03
            2444     11.2370E-03     1.20940E-03    -8.96030E+06     55.8335E+06     28.6949E+06    -2.80129E+06    -121.301E-03     234.724E-03    -113.423E-03     79.5138E-03    -121.732E-03     235.234E-03    -113.348E-03     77.9894E-03
            2445     10.4407E-03     1.20403E-03    -12.7366E+06     36.8174E+06     145.889E+03    -627.640E+03    -118.239E-03     230.969E-03    -112.730E-03     69.4496E-03    -118.530E-03     231.341E-03    -112.764E-03     68.3227E-03
            2446     9.64169E-03     1.19978E-03    -13.7308E+06     2.61125E+06    -23.0174E+06    -3.50413E+06    -116.180E-03     228.400E-03    -112.219E-03     60.9366E-03    -116.339E-03     228.582E-03    -112.318E-03     60.0173E-03
            2447     8.84144E-03     1.19653E-03    -14.1678E+06    -42.4793E+06    -35.1235E+06    -8.94710E+06    -114.695E-03     226.575E-03    -111.880E-03     53.6901E-03    -114.737E-03     226.515E-03    -111.974E-03     52.8734E-03
            2448     8.04007E-03     1.19407E-03    -17.5210E+06    -84.6615E+06    -41.4657E+06    -12.6861E+06    -113.562E-03     225.214E-03    -111.652E-03     47.3590E-03    -113.527E-03     224.934E-03    -111.711E-03     46.6231E-03
            2449     7.23735E-03     1.19231E-03    -22.7224E+06    -120.900E+06    -44.6608E+06    -14.3184E+06    -112.715E-03     224.217E-03    -111.502E-03     41.6420E-03    -112.632E-03     223.752E-03    -111.517E-03     40.9843E-03
            2450     6.43410E-03     1.19099E-03     -28.128E+06    -150.790E+06    -42.1772E+06    -13.3650E+06    -112.124E-03     223.551E-03    -111.427E-03     36.3537E-03    -112.017E-03     222.929E-03    -111.378E-03     35.7868E-03
            2451     5.63045E-03     1.19019E-03    -33.7442E+06    -172.710E+06    -39.2285E+06    -9.87134E+06    -111.741E-03     223.125E-03    -111.384E-03     31.4165E-03    -111.625E-03     222.388E-03    -111.281E-03     30.9615E-03
            2452     4.82643E-03     1.18960E-03    -38.7459E+06    -186.398E+06    -38.3259E+06    -6.08502E+06    -111.489E-03     222.838E-03    -111.349E-03     26.7543E-03    -111.373E-03     222.032E-03    -111.214E-03     26.4066E-03
            2453     4.02216E-03     1.18935E-03    -42.5392E+06    -192.587E+06    -40.3469E+06    -2.71568E+06    -111.329E-03     222.640E-03    -111.310E-03     22.2193E-03    -111.216E-03     221.806E-03    -111.171E-03     21.9669E-03
            2454     3.21780E-03     1.18919E-03    -45.2649E+06    -195.361E+06    -42.8523E+06    -718.463E+03    -111.248E-03     222.530E-03    -111.282E-03     17.7571E-03    -111.136E-03     221.686E-03    -111.147E-03     17.5772E-03
            2455     2.41328E-03     1.18921E-03    -46.7141E+06    -197.153E+06    -44.8016E+06    -154.669E+03    -111.222E-03     222.488E-03    -111.266E-03     13.3150E-03    -111.109E-03     221.637E-03    -111.136E-03     13.1857E-03
            2456     1.60878E-03     1.18917E-03    -47.5009E+06    -198.498E+06    -46.5144E+06     49.4047E+03    -111.231E-03     222.487E-03    -111.257E-03     8.94251E-03    -111.115E-03     221.631E-03    -111.133E-03     8.85820E-03
            2457     804.501E-06     1.18902E-03    -47.9273E+06    -199.430E+06    -47.8445E+06     189.545E+03    -111.202E-03     222.496E-03    -111.294E-03     4.77550E-03    -111.082E-03     221.639E-03    -111.175E-03     4.73342E-03


