********************************************************************************
Field Output Report, written Wed May 29 01:30:06 2024

Source 1
---------

   ODB: G:/Abaqus_calc_2019/1740/Vel_5/odb/zeides_2a_40_red_250_cal_75_vel_5_fric_050.odb
   Step: Step-1
   Frame: Increment  14448881: Step Time =    1.825

Loc 1 : Nodal values from source 1

Output sorted by column "Nodal Label".

Field Output reported at nodes for region: DIE_2A_40_D0_36-1.Region_1
   Computation algorithm: EXTRAPOLATE_COMPUTE_AVERAGE
   Averaged at nodes
   Averaging regions: ODB_REGIONS

      Node Label     COORD.COOR1     COORD.COOR2
                          @Loc 1          @Loc 1
-------------------------------------------------
               1     23.5525E-03     106.308E-03


Field Output reported at nodes for region: DIE_2A_40_D0_36-1.Region_2
   Computation algorithm: EXTRAPOLATE_COMPUTE_AVERAGE
   Averaged at nodes
   Averaging regions: ODB_REGIONS

      Node Label     COORD.COOR1     COORD.COOR2
                          @Loc 1          @Loc 1
-------------------------------------------------
               1     23.5525E-03     106.308E-03


Field Output reported at nodes for part: WIRE-1
   Computation algorithm: EXTRAPOLATE_COMPUTE_AVERAGE
   Averaged at nodes
   Averaging regions: ODB_REGIONS

      Node Label     COORD.COOR1     COORD.COOR2           S.S11           S.S22           S.S33           S.S12         PE.PE11         PE.PE22         PE.PE33         PE.PE12         LE.LE11         LE.LE22         LE.LE33         LE.LE12
                          @Loc 1          @Loc 1          @Loc 1          @Loc 1          @Loc 1          @Loc 1          @Loc 1          @Loc 1          @Loc 1          @Loc 1          @Loc 1          @Loc 1          @Loc 1          @Loc 1
-------------------------------------------------------------------------------------------------------------------------------------------------------------------------------------------------------------------------------------------------
               1    -89.7159E-09     57.4577E-03    -23.0107E+06    -113.314E+06    -22.8900E+06    -126.667E+03    -27.1481E-03     54.3111E-03    -27.1629E-03     2.87462E-03    -27.0655E-03     53.8116E-03    -27.0797E-03     2.87169E-03
               2     17.5219E-03     59.1955E-03    -2.72137E+06     177.579E+06     114.092E+06     903.316E+03    -39.2086E-03     66.3964E-03    -27.1878E-03     318.637E-03    -57.2415E-03     84.7192E-03    -26.8709E-03     335.390E-03
               3     17.0970E-03     117.197E-03     5.73672E+06    -11.9329E+06    -7.33861E+06    -6.03290E+06     21.9069E-03     22.7204E-03    -44.6273E-03     2.78956E-03     21.9756E-03     22.6751E-03    -44.6550E-03     2.71166E-03
               4     926.764E-09     115.229E-03     29.8558E+06    -1.05489E+06     30.0295E+06    -1.20362E+06    -30.2850E-03     60.4687E-03    -30.1837E-03    -1.17735E-03    -30.1794E-03     60.3753E-03    -30.0754E-03    -1.19284E-03
               5     51.0078E-09    -1.65840E-15    -11.7652E+06    -91.0643E+06    -11.1318E+06    -208.984E+03    -19.1995E-03     38.2389E-03    -19.0394E-03     242.122E-06    -19.1083E-03     37.8176E-03    -18.9460E-03     239.900E-06
               6     17.3558E-03    -1.65840E-15    -1.76301E+06     102.329E+06     77.0063E+06     17.5137E+06    -114.147E-03     145.370E-03    -31.2235E-03     138.949E-03    -115.398E-03     146.746E-03    -30.9843E-03     136.990E-03
               7     875.978E-06     57.4604E-03    -22.8040E+06    -113.038E+06    -22.5720E+06    -54.1134E+03    -27.1478E-03     54.3038E-03    -27.1560E-03     5.25040E-03    -27.0651E-03     53.8048E-03    -27.0719E-03     5.24730E-03
               8     1.75192E-03     57.4676E-03    -22.2311E+06    -112.014E+06    -20.9959E+06     69.6225E+03    -27.1349E-03     54.2807E-03    -27.1458E-03     10.2272E-03    -27.0535E-03     53.7837E-03    -27.0561E-03     10.2232E-03
               9     2.62797E-03     57.4797E-03    -21.5368E+06    -110.345E+06    -18.0831E+06     91.5861E+03    -27.1428E-03     54.2850E-03    -27.1422E-03     15.4332E-03    -27.0652E-03     53.7916E-03    -27.0413E-03     15.4266E-03
              10     3.50398E-03     57.4969E-03    -20.6738E+06    -108.569E+06    -14.9855E+06     66.7111E+03    -27.1835E-03     54.3260E-03    -27.1426E-03     20.7018E-03    -27.1093E-03     53.8365E-03    -27.0301E-03     20.6916E-03
              11     4.38003E-03     57.5190E-03    -19.2406E+06    -104.427E+06    -12.3261E+06    -152.093E+03    -27.2154E-03     54.3531E-03    -27.1377E-03     26.0604E-03    -27.1451E-03     53.8796E-03    -27.0200E-03     26.0433E-03
              12     5.25609E-03     57.5464E-03    -17.6060E+06    -99.1476E+06    -8.80196E+06    -114.321E+03    -27.2626E-03     54.3963E-03    -27.1336E-03     31.4905E-03    -27.1988E-03     53.9435E-03    -27.0084E-03     31.4691E-03
              13     6.13220E-03     57.5788E-03    -15.9392E+06    -95.6210E+06    -4.49646E+06     335.058E+03    -27.3465E-03     54.4830E-03    -27.1365E-03     36.9558E-03    -27.2882E-03     54.0417E-03    -26.9972E-03     36.9341E-03
              14     7.00827E-03     57.6166E-03    -13.9708E+06    -90.6554E+06    -1.78364E+06     342.239E+03    -27.4473E-03     54.5778E-03    -27.1304E-03     42.4682E-03    -27.3941E-03     54.1583E-03    -26.9877E-03     42.4389E-03
              15     7.88439E-03     57.6595E-03    -12.2864E+06    -84.2283E+06    -637.332E+03     359.120E+03    -27.5543E-03     54.6699E-03    -27.1155E-03     48.0154E-03    -27.5090E-03     54.2838E-03    -26.9788E-03     47.9767E-03
              16     8.76050E-03     57.7077E-03    -11.1295E+06    -79.1911E+06     127.802E+03     568.361E+03    -27.6832E-03     54.7852E-03    -27.1019E-03     53.5745E-03    -27.6484E-03     54.4293E-03    -26.9703E-03     53.5263E-03
              17     9.63665E-03     57.7612E-03    -10.0492E+06    -74.7582E+06    -1.39319E+06     540.072E+03    -27.8412E-03     54.9204E-03    -27.0792E-03     59.0999E-03    -27.8167E-03     54.5988E-03    -26.9631E-03     59.0358E-03
              18     10.5127E-03     57.8199E-03    -9.33840E+06    -66.3294E+06    -4.32352E+06     625.590E+03    -27.9791E-03     55.0238E-03    -27.0447E-03     64.6116E-03    -27.9760E-03     54.7646E-03    -26.9566E-03     64.5292E-03
              19     11.3890E-03     57.8838E-03    -8.88382E+06    -49.7239E+06    -2.92249E+06     466.703E+03    -28.1627E-03     55.1830E-03    -27.0204E-03     71.2726E-03    -28.2105E-03     55.0313E-03    -26.9500E-03     71.1633E-03
              20     12.2649E-03     57.9550E-03    -8.35283E+06    -31.9521E+06    -2.33828E+06     479.625E+03    -28.2994E-03     55.2883E-03    -26.9889E-03     77.8853E-03    -28.4099E-03     55.2625E-03    -26.9422E-03     77.7487E-03
              21     13.1412E-03     58.0315E-03    -9.06659E+06    -18.6698E+06    -7.09750E+06     1.46869E+06    -28.2279E-03     55.1635E-03    -26.9356E-03     79.8849E-03    -28.4127E-03     55.2704E-03    -26.9309E-03     79.7270E-03
              22     14.0181E-03     58.1065E-03    -10.9955E+06     2.58661E+06    -17.0213E+06     1.61132E+06    -29.0583E-03     55.9081E-03    -26.8498E-03     97.6506E-03    -29.4737E-03     56.3430E-03    -26.9227E-03     97.4342E-03
              23     14.8939E-03     58.2166E-03    -11.5057E+06     52.9768E+06    -22.2115E+06     939.432E+03    -35.4398E-03     62.1809E-03    -26.7411E-03     188.375E-03    -37.4373E-03     64.3900E-03    -26.9123E-03     188.087E-03
              24     15.7702E-03     58.4659E-03    -10.4377E+06     127.004E+06     27.1261E+06     816.419E+03    -47.6553E-03     74.5121E-03    -26.8568E-03     334.547E-03    -58.5337E-03     85.7257E-03    -26.8902E-03     335.862E-03
              25     16.6486E-03     58.8749E-03    -6.28921E+06     171.698E+06     94.3446E+06     859.433E+03    -46.8036E-03     73.9094E-03    -27.1058E-03     363.564E-03    -65.0010E-03     92.4205E-03    -26.8739E-03     373.413E-03
              26     17.5236E-03     60.2008E-03    -2.59876E+06     176.675E+06     113.922E+06    -309.489E+03    -38.2435E-03     65.4527E-03    -27.2092E-03     318.300E-03    -56.1579E-03     83.6547E-03    -26.8920E-03     335.090E-03
              27     17.5221E-03     61.1969E-03    -2.80804E+06     174.399E+06     112.368E+06    -330.758E+03    -37.1515E-03     64.3733E-03    -27.2218E-03     315.483E-03    -54.8254E-03     82.3305E-03    -26.9088E-03     332.267E-03
              28     17.5237E-03     62.1909E-03    -2.66376E+06     174.545E+06     112.930E+06     246.184E+03    -37.9460E-03     65.1177E-03    -27.1717E-03     311.228E-03    -55.2981E-03     82.7526E-03    -26.8563E-03     327.831E-03
              29     17.5234E-03     63.1974E-03    -3.63133E+06     174.701E+06     112.528E+06    -211.887E+03    -39.9846E-03     67.1015E-03    -27.1168E-03     314.233E-03    -57.6152E-03     85.0131E-03    -26.8022E-03     330.723E-03
              30     17.5231E-03     64.2079E-03    -2.51450E+06     177.395E+06     114.053E+06     734.606E+03    -39.2311E-03     66.3901E-03    -27.1591E-03     321.062E-03    -57.3916E-03     84.8409E-03    -26.8424E-03     337.795E-03
              31     17.5239E-03     65.2025E-03    -3.34699E+06     178.369E+06     114.136E+06     394.928E+03    -37.5900E-03     64.8012E-03    -27.2112E-03     320.842E-03    -55.7614E-03     83.2630E-03    -26.8943E-03     337.874E-03
              32     17.5218E-03     66.1987E-03    -3.39384E+06     178.571E+06     114.005E+06     1.73781E+06    -36.8755E-03     64.0908E-03    -27.2153E-03     313.136E-03    -54.4186E-03     81.9253E-03    -26.8993E-03     330.008E-03
              33     17.5247E-03     67.1931E-03    -1.44718E+06     182.848E+06     116.733E+06     1.46929E+06    -37.9329E-03     65.1050E-03    -27.1721E-03     310.402E-03    -55.1941E-03     82.6718E-03    -26.8514E-03     327.010E-03
              34     17.5220E-03     68.2017E-03    -3.10426E+06     183.396E+06     115.763E+06    -387.826E+03    -40.1628E-03     67.2864E-03    -27.1236E-03     311.779E-03    -57.6073E-03     85.0354E-03    -26.8062E-03     328.068E-03
              35     17.5238E-03     69.2053E-03    -4.02722E+06     182.249E+06     114.630E+06    -683.755E+03    -39.5135E-03     66.6734E-03    -27.1599E-03     314.115E-03    -57.2622E-03     84.7224E-03    -26.8452E-03     330.667E-03
              36     17.5217E-03     70.2059E-03    -2.15079E+06     184.611E+06     116.557E+06     457.870E+03    -37.6965E-03     64.9143E-03    -27.2178E-03     318.329E-03    -55.6890E-03     83.2165E-03    -26.8996E-03     335.295E-03
              37     17.5245E-03     71.2097E-03    -3.84892E+06     183.752E+06     114.429E+06     129.679E+03    -38.2524E-03     65.4509E-03    -27.1985E-03     322.053E-03    -56.5457E-03     84.0511E-03    -26.8872E-03     339.069E-03
              38     17.5215E-03     72.2060E-03    -3.95255E+06     184.509E+06     114.858E+06    -109.220E+03    -39.3336E-03     66.5135E-03    -27.1799E-03     319.323E-03    -57.5017E-03     84.9897E-03    -26.8674E-03     336.138E-03
              39     17.5235E-03     73.2105E-03    -852.719E+03     187.765E+06     117.511E+06     1.28940E+06    -37.6956E-03     64.9072E-03    -27.2115E-03     319.219E-03    -55.7417E-03     83.2762E-03    -26.8950E-03     336.242E-03
              40     17.5237E-03     74.2066E-03    -3.05986E+06     188.047E+06     116.579E+06     849.067E+03    -38.1948E-03     65.3950E-03    -27.2002E-03     320.803E-03    -56.3179E-03     83.8367E-03    -26.8855E-03     337.783E-03
              41     17.5215E-03     75.2096E-03    -4.36538E+06     188.090E+06     115.984E+06     1.22979E+06    -37.8937E-03     65.0964E-03    -27.2027E-03     315.569E-03    -55.6608E-03     83.1795E-03    -26.8892E-03     332.296E-03
              42     17.5248E-03     76.2015E-03    -3.38043E+06     188.306E+06     116.269E+06    -234.049E+03    -36.8703E-03     64.0743E-03    -27.2041E-03     312.359E-03    -54.3975E-03     81.9211E-03    -26.8909E-03     329.297E-03
              43     17.5214E-03     77.2038E-03    -1.71545E+06     188.752E+06     117.131E+06    -542.248E+03    -38.5917E-03     65.7436E-03    -27.1520E-03     310.710E-03    -55.9683E-03     83.4448E-03    -26.8375E-03     327.253E-03
              44     17.5252E-03     78.2086E-03    -3.01197E+06     189.482E+06     117.026E+06     252.065E+03    -39.3192E-03     66.4552E-03    -27.1360E-03     314.214E-03    -57.0120E-03     84.4707E-03    -26.8212E-03     330.767E-03
              45     17.5215E-03     79.2131E-03    -3.59343E+06     190.809E+06     117.319E+06     435.299E+03    -38.9765E-03     66.1607E-03    -27.1842E-03     319.432E-03    -57.1008E-03     84.6096E-03    -26.8691E-03     336.232E-03
              46     17.5235E-03     80.2167E-03    -2.89146E+06     191.152E+06     117.364E+06    -520.950E+03    -37.1979E-03     64.4453E-03    -27.2474E-03     320.018E-03    -55.4195E-03     82.9953E-03    -26.9336E-03     337.051E-03
              47     17.5219E-03     81.2031E-03    -1.76672E+06     191.022E+06     117.508E+06     114.778E+03    -39.4706E-03     66.6414E-03    -27.1708E-03     319.464E-03    -57.5505E-03     85.0529E-03    -26.8577E-03     336.299E-03
              48     17.5244E-03     82.2216E-03    -4.17156E+06     189.062E+06     114.796E+06     290.716E+03    -40.3682E-03     67.4733E-03    -27.1051E-03     322.980E-03    -58.5866E-03     86.0155E-03    -26.7992E-03     339.357E-03
              49     17.5242E-03     83.2221E-03    -3.11365E+06     192.408E+06     116.588E+06     1.04898E+06    -36.9558E-03     64.1403E-03    -27.1844E-03     330.202E-03    -55.7199E-03     83.2386E-03    -26.8760E-03     347.263E-03
              50     17.5242E-03     84.2124E-03    -2.01102E+06     195.337E+06     119.037E+06     892.776E+03    -37.3647E-03     64.5430E-03    -27.1783E-03     324.684E-03    -55.5891E-03     83.1088E-03    -26.8635E-03     341.563E-03
              51     17.5237E-03     85.2077E-03    -2.53213E+06     193.929E+06     118.236E+06    -1.00558E+06    -39.3830E-03     66.4895E-03    -27.1065E-03     314.114E-03    -56.9274E-03     84.3705E-03    -26.7928E-03     330.414E-03
              52     17.5238E-03     86.2112E-03    -3.83202E+06     192.576E+06     116.076E+06    -577.398E+03    -40.4854E-03     67.5665E-03    -27.0811E-03     312.642E-03    -58.1887E-03     85.6033E-03    -26.7744E-03     329.156E-03
              53     17.5228E-03     87.2195E-03    -4.12599E+06     194.156E+06     116.494E+06     1.12142E+06    -38.6964E-03     65.8330E-03    -27.1366E-03     318.480E-03    -56.8007E-03     84.2742E-03    -26.8297E-03     335.355E-03
              54     17.5251E-03     88.2202E-03    -1.77546E+06     197.215E+06     119.511E+06     1.42594E+06    -35.5921E-03     62.7891E-03    -27.1970E-03     324.190E-03    -53.9726E-03     81.5170E-03    -26.8829E-03     341.494E-03
              55     17.5246E-03     89.2113E-03    -4.56034E+06     192.981E+06     116.599E+06    -1.12084E+06    -35.9803E-03     63.1287E-03    -27.1483E-03     319.368E-03    -53.9999E-03     81.4791E-03    -26.8385E-03     336.446E-03
              56     17.5248E-03     90.2070E-03    -3.30051E+06     190.431E+06     117.006E+06    -1.60877E+06    -38.4401E-03     65.4977E-03    -27.0576E-03     312.128E-03    -55.9087E-03     83.2914E-03    -26.7439E-03     328.668E-03
              57     17.5257E-03     91.2113E-03    -1.77018E+06     189.003E+06     117.758E+06    -474.232E+03    -39.3839E-03     66.3717E-03    -26.9878E-03     310.463E-03    -56.6956E-03     84.0066E-03    -26.6705E-03     326.839E-03
              58     17.5268E-03     92.2139E-03    -2.45102E+06     189.602E+06     118.024E+06     169.748E+03    -39.0842E-03     66.0327E-03    -26.9485E-03     313.728E-03    -56.7149E-03     83.9855E-03    -26.6298E-03     330.323E-03
              59     17.5276E-03     93.2196E-03    -3.31973E+06     190.785E+06     117.608E+06     1.43568E+06    -38.2038E-03     65.1270E-03    -26.9232E-03     317.863E-03    -56.2148E-03     83.4624E-03    -26.6070E-03     334.782E-03
              60     17.5287E-03     94.2181E-03    -3.50567E+06     194.113E+06     119.228E+06     1.61750E+06    -36.7450E-03     63.6302E-03    -26.8851E-03     320.400E-03    -54.9089E-03     82.1249E-03    -26.5654E-03     337.596E-03
              61     17.5315E-03     95.2159E-03    -3.28095E+06     196.729E+06     121.589E+06     515.716E+03    -37.4454E-03     64.2288E-03    -26.7833E-03     319.351E-03    -55.4737E-03     82.5912E-03    -26.4559E-03     336.359E-03
              62     17.5309E-03     96.2147E-03    -2.89012E+06     197.376E+06     122.614E+06     2.15135E+06    -37.7342E-03     64.3920E-03    -26.6578E-03     313.463E-03    -55.2857E-03     82.2784E-03    -26.3267E-03     330.145E-03
              63     17.5366E-03     97.2098E-03    -3.45660E+06     197.189E+06     123.865E+06     99.4855E+03    -38.2532E-03     64.7492E-03    -26.4960E-03     310.579E-03    -55.6018E-03     82.4267E-03    -26.1576E-03     327.249E-03
              64     17.5359E-03     98.2161E-03    -3.44551E+06     194.839E+06     124.351E+06    -1.51940E+06    -41.0302E-03     67.3423E-03    -26.3121E-03     311.363E-03    -58.5531E-03     85.1844E-03    -25.9679E-03     327.720E-03
              65     17.5397E-03     99.2255E-03    -2.82855E+06     192.032E+06     123.517E+06    -672.757E+03    -40.5712E-03     66.7875E-03    -26.2163E-03     314.524E-03    -58.3636E-03     84.8934E-03    -25.8730E-03     330.968E-03
              66     17.5406E-03     100.223E-03    -2.98337E+06     188.561E+06     121.780E+06    -154.072E+03    -39.5994E-03     65.7284E-03    -26.1291E-03     313.172E-03    -57.2900E-03     83.7246E-03    -25.7893E-03     329.783E-03
              67     17.5421E-03     101.222E-03    -2.73854E+06     188.038E+06     122.706E+06     959.471E+03    -41.2862E-03     67.2654E-03    -25.9791E-03     305.568E-03    -58.4356E-03     84.7166E-03    -25.6343E-03     321.671E-03
              68     17.5444E-03     102.224E-03    -3.19177E+06     186.820E+06     123.117E+06    -1.13083E+06    -44.0922E-03     69.8974E-03    -25.8053E-03     302.688E-03    -60.9990E-03     87.0994E-03    -25.4560E-03     318.167E-03
              69     17.5452E-03     103.240E-03    -4.99404E+06     181.212E+06     119.626E+06    -3.88445E+06    -47.2205E-03     72.8856E-03    -25.6651E-03     305.575E-03    -64.4844E-03     90.4285E-03    -25.3225E-03     320.648E-03
              70     17.5454E-03     104.250E-03    -4.27620E+06     177.056E+06     118.373E+06    -2.61981E+06    -48.5974E-03     74.2018E-03    -25.6044E-03     309.819E-03    -66.2232E-03     92.0979E-03    -25.2631E-03     324.696E-03
              71     17.5466E-03     105.266E-03    -3.97806E+06     170.934E+06     118.226E+06    -2.92771E+06    -49.7739E-03     75.3197E-03    -25.5458E-03     316.233E-03    -67.7791E-03     93.5750E-03    -25.1967E-03     330.948E-03
              72     17.5478E-03     106.278E-03    -2.86205E+06     160.818E+06     117.366E+06    -4.15107E+06    -54.1686E-03     79.5730E-03    -25.4044E-03     322.176E-03    -72.4473E-03     98.0727E-03    -25.0466E-03     336.142E-03
              73     17.5483E-03     107.301E-03    -1.08496E+06     154.195E+06     119.491E+06    -284.666E+03    -59.4031E-03     84.6454E-03    -25.2423E-03     326.092E-03    -77.7630E-03     103.203E-03    -24.8668E-03     338.958E-03
              74     17.5506E-03     108.323E-03    -3.30989E+06     152.832E+06     124.072E+06     273.391E+03    -64.6619E-03     89.7495E-03    -25.0876E-03     334.108E-03    -83.3392E-03     108.599E-03    -24.6841E-03     345.909E-03
              75     17.5512E-03     109.359E-03    -2.79300E+06     153.426E+06     124.032E+06     550.925E+03    -71.0126E-03     95.9083E-03    -24.8957E-03     348.473E-03    -90.2511E-03     115.325E-03    -24.4940E-03     358.740E-03
              76     17.5537E-03     110.398E-03    -8.64749E+06     140.165E+06     113.932E+06    -8.26477E+06    -76.9511E-03     101.659E-03    -24.7083E-03     365.765E-03    -96.8237E-03     121.671E-03    -24.3294E-03     374.100E-03
              77     17.5539E-03     111.436E-03    -1.39095E+06     119.733E+06     109.279E+06    -9.12192E+06    -81.1425E-03     105.745E-03    -24.6025E-03     381.091E-03    -101.063E-03     125.771E-03    -24.2277E-03     387.242E-03
              78     17.5558E-03     112.476E-03     3.65389E+06     119.265E+06     100.316E+06     3.22220E+06    -81.9137E-03     106.476E-03    -24.5626E-03     398.643E-03    -101.168E-03     125.878E-03    -24.2393E-03     402.678E-03
              79     17.5566E-03     113.507E-03    -13.5194E+06     102.280E+06     64.2181E+06    -14.7521E+06    -70.1694E-03     94.8906E-03    -24.7212E-03     406.235E-03    -85.8955E-03     110.748E-03    -24.5288E-03     408.856E-03
              80     17.5602E-03     114.487E-03    -9.66850E+06     46.2876E+06     25.0656E+06    -35.4476E+06    -26.0963E-03     51.7256E-03    -25.6293E-03     372.484E-03    -34.1674E-03     59.8798E-03    -25.5570E-03     374.457E-03
              81     17.5567E-03     115.363E-03     7.98595E+06     11.8984E+06     22.2472E+06    -9.11339E+06     20.5130E-03     8.80641E-03    -29.3194E-03     235.392E-03     18.7473E-03     10.5702E-03    -29.2370E-03     236.396E-03
              82     17.3556E-03     116.240E-03     10.5935E+06    -1.35555E+06     13.1554E+06     5.99510E+06     28.0296E-03     10.4202E-03    -38.4498E-03     66.0786E-03     28.0173E-03     10.4069E-03    -38.3974E-03     66.1889E-03
              83     16.2074E-03     116.921E-03     1.65934E+06     7.69869E+06     27.1871E+06     4.84014E+06     18.8814E-03     26.5829E-03    -45.4642E-03     10.4716E-03     18.8384E-03     26.5788E-03    -45.3419E-03     10.5340E-03
              84     15.3314E-03     116.678E-03     2.86360E+06     18.5562E+06     67.8121E+06    -1.00911E+06    -7.37708E-03     53.7329E-03    -46.3558E-03     17.9823E-03    -7.50992E-03     53.7047E-03    -46.0478E-03     17.9539E-03
              85     14.5030E-03     116.419E-03     18.2205E+06    -15.1000E+06     66.0535E+06    -7.95881E+06    -37.5648E-03     83.2076E-03    -45.6428E-03     2.94285E-03    -37.5769E-03     82.9835E-03    -45.3171E-03     2.78887E-03
              86     13.6849E-03     116.204E-03     28.6945E+06    -11.1673E+06     66.7049E+06     4.07004E+06    -46.1926E-03     90.2186E-03    -44.0259E-03    -17.2629E-03    -46.1541E-03     89.9960E-03    -43.7178E-03    -17.2840E-03
              87     12.8622E-03     116.030E-03     25.7283E+06     5.18427E+06     69.8380E+06     4.68324E+06    -48.8373E-03     91.2140E-03    -42.3767E-03    -23.7754E-03    -48.8334E-03     91.0781E-03    -42.0724E-03    -23.7880E-03
              88     12.0306E-03     115.891E-03     22.6514E+06     623.337E+03     64.4393E+06     760.729E+03    -50.2805E-03     91.0733E-03    -40.7928E-03    -24.2618E-03    -50.2717E-03     90.9328E-03    -40.5043E-03    -24.3182E-03
              89     11.1953E-03     115.775E-03     22.6658E+06    -756.053E+03     62.2406E+06    -414.605E+03    -50.3344E-03     89.5906E-03    -39.2562E-03    -21.6134E-03    -50.3175E-03     89.4508E-03    -38.9768E-03    -21.6751E-03
              90     10.3537E-03     115.677E-03     22.0244E+06    -760.217E+03     61.1912E+06     174.564E+03    -48.8309E-03     86.6115E-03    -37.7806E-03    -17.8605E-03    -48.8138E-03     86.4779E-03    -37.5055E-03    -17.9041E-03
              91     9.50773E-03     115.592E-03     21.4572E+06     1.21725E+06     59.3327E+06    -832.032E+03    -46.3542E-03     82.7537E-03    -36.3996E-03    -14.4414E-03    -46.3391E-03     82.6357E-03    -36.1358E-03    -14.4890E-03
              92     8.65669E-03     115.521E-03     21.2780E+06    -884.880E+03     55.2295E+06    -1.03434E+06    -43.5004E-03     78.6517E-03    -35.1513E-03    -11.4801E-03    -43.4764E-03     78.5312E-03    -34.9047E-03    -11.5224E-03
              93     7.80152E-03     115.459E-03     21.1256E+06     819.986E+03     51.7715E+06    -1.21766E+06    -40.6919E-03     74.7494E-03    -34.0575E-03    -9.09704E-03    -40.6655E-03     74.6438E-03    -33.8304E-03    -9.13497E-03
              94     6.94224E-03     115.408E-03     21.6953E+06     51.5207E+03     47.9462E+06    -1.98969E+06    -38.2221E-03     71.3398E-03    -33.1177E-03    -7.25329E-03    -38.1857E-03     71.2360E-03    -32.9095E-03    -7.29615E-03
              95     6.08013E-03     115.364E-03     23.6156E+06     275.522E+03     43.7957E+06    -2.48227E+06    -36.1273E-03     68.4394E-03    -32.3122E-03    -5.79196E-03    -36.0753E-03     68.3405E-03    -32.1278E-03    -5.83739E-03
              96     5.21548E-03     115.327E-03     25.8341E+06    -852.612E+03     42.1909E+06    -2.14742E+06    -34.3322E-03     65.9834E-03    -31.6512E-03    -4.61313E-03    -34.2650E-03     65.8782E-03    -31.4764E-03    -4.65122E-03
              97     4.34887E-03     115.297E-03     27.1766E+06    -17.3409E+03     41.2961E+06    -1.59920E+06    -32.8623E-03     63.9796E-03    -31.1172E-03    -3.67816E-03    -32.7881E-03     63.8782E-03    -30.9501E-03    -3.70680E-03
              98     3.48054E-03     115.273E-03     28.0325E+06    -163.745E+03     36.9734E+06    -1.64481E+06    -31.7158E-03     62.4027E-03    -30.6869E-03    -2.92707E-03    -31.6306E-03     62.3058E-03    -30.5425E-03    -2.95436E-03
              99     2.61110E-03     115.253E-03     29.2206E+06    -344.598E+03     33.5360E+06    -1.47007E+06    -30.8645E-03     61.2417E-03    -30.3772E-03    -2.30486E-03    -30.7682E-03     61.1472E-03    -30.2514E-03    -2.32824E-03
             100     1.74090E-03     115.240E-03     30.1873E+06    -466.047E+03     31.9172E+06    -1.21429E+06    -30.2519E-03     60.4696E-03    -30.2177E-03    -1.74599E-03    -30.1482E-03     60.3756E-03    -30.1012E-03    -1.76465E-03
             101     869.838E-06     115.231E-03     30.1879E+06    -535.339E+03     30.6990E+06    -1.20133E+06    -30.1375E-03     60.3193E-03    -30.1818E-03    -1.32854E-03    -30.0319E-03     60.2269E-03    -30.0713E-03    -1.34518E-03
             102    -827.933E-09     114.220E-03     27.4326E+06    -2.28637E+06     27.2067E+06    -1.02683E+06    -26.9727E-03     54.2672E-03    -27.2945E-03    -381.137E-06    -26.8725E-03     54.1758E-03    -27.1949E-03    -394.864E-06
             103     174.412E-09     113.227E-03     17.6161E+06    -6.48792E+06     17.1377E+06    -1.27700E+06    -21.9039E-03     44.0349E-03    -22.1310E-03     740.038E-06    -21.8313E-03     43.9521E-03    -22.0615E-03     722.596E-06
             104     81.9245E-09     112.239E-03     2.41236E+06    -11.4750E+06     3.07308E+06    -1.40430E+06    -18.7719E-03     37.2423E-03    -18.4704E-03     1.62056E-03    -18.7476E-03     37.1773E-03    -18.4419E-03     1.60150E-03
             105     203.548E-09     111.258E-03    -16.6214E+06    -18.7895E+06    -15.4347E+06    -3.06069E+06    -16.4798E-03     32.8244E-03    -16.3447E-03     2.31840E-03    -16.5130E-03     32.7774E-03    -16.3705E-03     2.27812E-03
             106    -238.424E-09     110.280E-03    -38.7560E+06    -29.7960E+06    -39.5589E+06    -3.35743E+06    -15.0676E-03     30.3144E-03    -15.2468E-03     2.50878E-03    -15.1606E-03     30.2795E-03    -15.3452E-03     2.46498E-03
             107    -56.6730E-09     109.304E-03    -60.8472E+06    -39.6262E+06    -60.8954E+06    -2.25426E+06    -14.4916E-03     29.2531E-03    -14.7615E-03     2.60859E-03    -14.6498E-03     29.2320E-03    -14.9203E-03     2.57927E-03
             108    -130.996E-09     108.327E-03    -82.3564E+06    -48.5300E+06    -81.8670E+06    -3.18316E+06    -14.6168E-03     29.3027E-03    -14.6858E-03     2.86834E-03    -14.8393E-03     29.2986E-03    -14.9054E-03     2.82712E-03
             109     197.761E-09     107.350E-03    -97.8931E+06    -56.1229E+06    -99.1380E+06    -1.51669E+06    -15.0298E-03     30.0014E-03    -14.9716E-03     3.25545E-03    -15.2939E-03     30.0070E-03    -15.2440E-03     3.23574E-03
             110    -180.849E-09     106.373E-03    -80.9317E+06    -52.1172E+06    -83.0864E+06     3.87097E+06    -15.6262E-03     31.3191E-03    -15.6929E-03     3.45213E-03    -15.8346E-03     31.2968E-03    -15.9155E-03     3.50199E-03
             111     15.3062E-09     105.394E-03    -49.0710E+06    -33.0410E+06    -48.9647E+06     7.43768E+06    -16.6348E-03     33.3170E-03    -16.6821E-03     3.33910E-03    -16.7611E-03     33.2944E-03    -16.8079E-03     3.43511E-03
             112     62.2012E-09     104.412E-03    -29.3003E+06    -10.0061E+06    -28.2763E+06     6.42197E+06    -17.8795E-03     35.6823E-03    -17.8028E-03     3.30364E-03    -17.9703E-03     35.7162E-03    -17.8872E-03     3.38659E-03
             113     2.41005E-09     103.428E-03    -15.0007E+06     5.53007E+06    -13.8400E+06     2.87274E+06    -19.2154E-03     38.3458E-03    -19.1304E-03     3.47206E-03    -19.2782E-03     38.4156E-03    -19.1859E-03     3.50911E-03
             114     90.9236E-09     102.441E-03    -3.92640E+06     10.4232E+06    -3.18855E+06    -150.428E+03    -20.5447E-03     41.0347E-03    -20.4900E-03     3.62517E-03    -20.5747E-03     41.0975E-03    -20.5153E-03     3.62307E-03
             115    -85.0006E-09     101.452E-03     4.14700E+06     8.48966E+06     4.02827E+06    -1.03451E+06    -21.7031E-03     43.4546E-03    -21.7514E-03     3.61510E-03    -21.7004E-03     43.4856E-03    -21.7496E-03     3.60148E-03
             116    -13.1212E-09     100.461E-03     7.84245E+06     3.09664E+06     8.08197E+06    -1.87991E+06    -22.7399E-03     45.6538E-03    -22.9139E-03     3.41066E-03    -22.7167E-03     45.6467E-03    -22.8894E-03     3.38605E-03
             117    -197.319E-09     99.4670E-03     8.84382E+06    -3.97212E+06     8.51400E+06    -2.23633E+06    -23.7388E-03     47.6092E-03    -23.8703E-03     3.22997E-03    -23.7010E-03     47.5646E-03    -23.8348E-03     3.20068E-03
             118     167.998E-09     98.4716E-03     7.02683E+06    -11.6272E+06     7.49319E+06    -2.54857E+06    -24.6670E-03     49.2627E-03    -24.5957E-03     3.26006E-03    -24.6257E-03     49.1840E-03    -24.5516E-03     3.22647E-03
             119    -13.1093E-09     97.4745E-03     6.18853E+06    -20.6434E+06     6.19182E+06    -2.88870E+06    -25.3666E-03     50.5890E-03    -25.2224E-03     3.34326E-03    -25.3145E-03     50.4683E-03    -25.1705E-03     3.30498E-03
             120     106.192E-09     96.4768E-03     3.23143E+06    -29.3673E+06     3.00154E+06    -2.29093E+06    -25.8277E-03     51.6263E-03    -25.7986E-03     3.23450E-03    -25.7731E-03     51.4709E-03    -25.7457E-03     3.20398E-03
             121    -155.731E-09     95.4780E-03    -1.07208E+06    -36.8683E+06    -1.14217E+06    -2.05398E+06    -26.1745E-03     52.4152E-03    -26.2407E-03     3.11504E-03    -26.1245E-03     52.2345E-03    -26.1914E-03     3.08758E-03
             122     83.6894E-09     94.4784E-03    -4.84113E+06    -44.3520E+06    -4.92535E+06    -2.26169E+06    -26.4791E-03     52.9916E-03    -26.5125E-03     3.21348E-03    -26.4317E-03     52.7845E-03    -26.4658E-03     3.18304E-03
             123    -76.0349E-09     93.4784E-03    -8.61657E+06    -51.4462E+06    -8.71211E+06    -2.07108E+06    -26.7111E-03     53.4240E-03    -26.7128E-03     3.43426E-03    -26.6668E-03     53.1924E-03    -26.6693E-03     3.40594E-03
             124     58.7164E-09     92.4779E-03    -12.5942E+06    -58.4772E+06    -12.4615E+06    -1.98861E+06    -26.8848E-03     53.7453E-03    -26.8605E-03     3.56033E-03    -26.8447E-03     53.4898E-03    -26.8198E-03     3.53290E-03
             125    -3.50292E-09     91.4776E-03    -15.9774E+06    -65.5676E+06    -16.2266E+06    -2.05749E+06    -26.9991E-03     53.9794E-03    -26.9803E-03     3.50745E-03    -26.9602E-03     53.6987E-03    -26.9432E-03     3.47922E-03
             126    -27.5623E-09     90.4770E-03    -18.8826E+06    -72.1709E+06    -18.8243E+06    -1.87037E+06    -27.0784E-03     54.1168E-03    -27.0384E-03     3.30141E-03    -27.0407E-03     53.8111E-03    -27.0004E-03     3.27578E-03
             127     124.172E-09     89.4762E-03    -20.9255E+06    -78.2204E+06    -20.9906E+06    -1.68473E+06    -27.1203E-03     54.2037E-03    -27.0835E-03     3.36507E-03    -27.0809E-03     53.8739E-03    -27.0447E-03     3.34173E-03
             128    -162.511E-09     88.4753E-03    -23.2041E+06    -83.3608E+06    -23.3977E+06    -1.25115E+06    -27.1670E-03     54.2673E-03    -27.1003E-03     3.38582E-03    -27.1280E-03     53.9186E-03    -27.0628E-03     3.36800E-03
             129     309.992E-09     87.4745E-03    -25.5944E+06    -87.8154E+06    -25.4754E+06    -1.10834E+06    -27.1879E-03     54.2368E-03    -27.0488E-03     3.40439E-03    -27.1514E-03     53.8723E-03    -27.0118E-03     3.38844E-03
             130    -218.082E-09     86.4739E-03    -26.4981E+06    -91.7279E+06    -26.4226E+06    -1.36443E+06    -27.1175E-03     54.2495E-03    -27.1320E-03     3.49068E-03    -27.0784E-03     53.8681E-03    -27.0927E-03     3.47133E-03
             131     95.6131E-09     85.4729E-03    -27.0246E+06    -95.9390E+06    -27.1524E+06    -1.26858E+06    -27.1553E-03     54.2810E-03    -27.1257E-03     3.29422E-03    -27.1117E-03     53.8804E-03    -27.0832E-03     3.27625E-03
             132     71.9878E-09     84.4726E-03    -27.6117E+06    -99.7929E+06    -27.6789E+06    -957.824E+03    -27.1553E-03     54.2637E-03    -27.1084E-03     3.24784E-03    -27.1083E-03     53.8454E-03    -27.0620E-03     3.23399E-03
             133    -163.302E-09     83.4716E-03    -28.1827E+06    -102.997E+06    -28.1552E+06    -1.00030E+06    -27.0469E-03     54.2585E-03    -27.2117E-03     3.13372E-03    -26.9974E-03     53.8257E-03    -27.1622E-03     3.11943E-03
             134    -38.6521E-09     82.4711E-03    -27.9105E+06    -105.917E+06    -28.0959E+06    -670.934E+03    -27.0456E-03     54.2441E-03    -27.1985E-03     3.14043E-03    -26.9906E-03     53.7962E-03    -27.1449E-03     3.13040E-03
             135    -34.3173E-09     81.4701E-03    -27.7057E+06    -107.929E+06    -27.5741E+06    -395.482E+03    -27.1154E-03     54.2746E-03    -27.1592E-03     3.27135E-03    -27.0572E-03     53.8156E-03    -27.1004E-03     3.26474E-03
             136     26.8488E-09     80.4696E-03    -27.4475E+06    -109.811E+06    -27.4819E+06    -567.129E+03    -27.1622E-03     54.2860E-03    -27.1238E-03     3.31877E-03    -27.1001E-03     53.8171E-03    -27.0622E-03     3.30987E-03
             137     41.9222E-09     79.4687E-03    -27.6183E+06    -111.597E+06    -27.5417E+06    -692.886E+03    -27.1406E-03     54.2489E-03    -27.1082E-03     3.37870E-03    -27.0768E-03     53.7714E-03    -27.0441E-03     3.36812E-03
             138    -58.6047E-09     78.4683E-03    -27.6759E+06    -113.736E+06    -27.8956E+06    -419.289E+03    -27.1242E-03     54.2589E-03    -27.1346E-03     3.29700E-03    -27.0571E-03     53.7713E-03    -27.0690E-03     3.29005E-03
             139     49.3133E-09     77.4676E-03    -26.5447E+06    -114.499E+06    -26.4478E+06    -96.5847E+03    -27.1728E-03     54.3072E-03    -27.1344E-03     3.15294E-03    -27.1010E-03     53.8120E-03    -27.0621E-03     3.15033E-03
             140     23.5321E-09     76.4669E-03    -25.5072E+06    -114.745E+06    -25.5839E+06    -57.9882E+03    -27.1537E-03     54.3143E-03    -27.1606E-03     3.18473E-03    -27.0776E-03     53.8152E-03    -27.0852E-03     3.18257E-03
             141    -114.398E-09     75.4661E-03    -25.1252E+06    -114.820E+06    -25.0564E+06    -79.2545E+03    -27.1360E-03     54.2985E-03    -27.1625E-03     3.28782E-03    -27.0586E-03     53.7977E-03    -27.0849E-03     3.28525E-03
             142     154.335E-09     74.4653E-03    -24.9762E+06    -115.105E+06    -25.0675E+06    -23.5656E+03    -27.1473E-03     54.2685E-03    -27.1212E-03     3.53866E-03    -27.0687E-03     53.7660E-03    -27.0434E-03     3.53666E-03
             143    -155.690E-09     73.4644E-03    -24.8493E+06    -115.460E+06    -24.9499E+06     103.313E+03    -27.1138E-03     54.2523E-03    -27.1386E-03     3.64841E-03    -27.0342E-03     53.7478E-03    -27.0599E-03     3.64792E-03
             144     106.014E-09     72.4642E-03    -24.5878E+06    -115.059E+06    -24.5200E+06    -80.2962E+03    -27.0739E-03     54.1868E-03    -27.1129E-03     3.41579E-03    -26.9943E-03     53.6832E-03    -27.0330E-03     3.41306E-03
             145    -129.654E-09     71.4636E-03    -24.5299E+06    -114.978E+06    -24.4984E+06     15.8413E+03    -27.0892E-03     54.1746E-03    -27.0854E-03     3.39790E-03    -27.0094E-03     53.6713E-03    -27.0057E-03     3.39653E-03
             146     154.511E-09     70.4630E-03    -24.6223E+06    -115.297E+06    -24.6656E+06     33.1406E+03    -27.0661E-03     54.1800E-03    -27.1139E-03     3.40290E-03    -26.9861E-03     53.6755E-03    -27.0343E-03     3.40181E-03
             147    -269.242E-09     69.4624E-03    -24.2888E+06    -114.977E+06    -24.4339E+06     153.393E+03    -27.0205E-03     54.0766E-03    -27.0561E-03     3.40097E-03    -26.9396E-03     53.5729E-03    -26.9763E-03     3.40134E-03
             148     314.328E-09     68.4620E-03    -24.2607E+06    -114.795E+06    -24.1371E+06    -22.3085E+03    -27.0264E-03     53.9970E-03    -26.9706E-03     3.44339E-03    -26.9461E-03     53.4937E-03    -26.8896E-03     3.44141E-03
             149    -265.978E-09     67.4617E-03    -24.1272E+06    -114.934E+06    -24.4010E+06     135.482E+03    -26.9545E-03     53.9444E-03    -26.9899E-03     3.30371E-03    -26.8729E-03     53.4406E-03    -26.9103E-03     3.30394E-03
             150     147.107E-09     66.4618E-03    -24.0717E+06    -114.496E+06    -23.7927E+06    -134.248E+03    -26.9810E-03     54.0117E-03    -27.0307E-03     3.08439E-03    -26.9007E-03     53.5092E-03    -26.9487E-03     3.08130E-03
             151    -116.774E-09     65.4611E-03    -23.7517E+06    -114.409E+06    -23.9616E+06    -67.9375E+03    -27.0319E-03     54.0594E-03    -27.0275E-03     3.14557E-03    -26.9499E-03     53.5571E-03    -26.9470E-03     3.14324E-03
             152     86.9773E-09     64.4604E-03    -23.6208E+06    -114.122E+06    -23.4783E+06     275.579E+03    -26.9509E-03     54.0119E-03    -27.0610E-03     3.39701E-03    -26.8693E-03     53.5101E-03    -26.9786E-03     3.39900E-03
             153    -254.035E-09     63.4601E-03    -23.4711E+06    -114.290E+06    -23.5881E+06     6.14127E+03    -26.9426E-03     53.9475E-03    -27.0049E-03     3.23042E-03    -26.8598E-03     53.4448E-03    -26.9231E-03     3.22907E-03
             154     305.366E-09     62.4601E-03    -23.3980E+06    -114.102E+06    -23.3963E+06     11.3994E+03    -26.9194E-03     53.9120E-03    -26.9926E-03     3.10278E-03    -26.8368E-03     53.4099E-03    -26.9102E-03     3.10153E-03
             155    -489.744E-09     61.4598E-03    -23.0871E+06    -113.677E+06    -23.2718E+06    -100.711E+03    -26.9215E-03     54.0450E-03    -27.1235E-03     3.11895E-03    -26.8381E-03     53.5444E-03    -27.0415E-03     3.11626E-03
             156     313.220E-09     60.4590E-03    -23.3911E+06    -113.814E+06    -23.3134E+06     206.311E+03    -27.0562E-03     54.1276E-03    -27.0714E-03     3.16709E-03    -26.9740E-03     53.6268E-03    -26.9890E-03     3.16842E-03
             157    -167.570E-09     59.4586E-03    -23.2932E+06    -113.546E+06    -23.0896E+06     25.1716E+03    -27.0917E-03     54.0896E-03    -26.9979E-03     3.24462E-03    -27.0098E-03     53.5896E-03    -26.9150E-03     3.24347E-03
             158     183.190E-09     58.4583E-03    -23.1146E+06    -113.491E+06    -23.1922E+06    -169.409E+03    -27.1293E-03     54.1932E-03    -27.0639E-03     3.04239E-03    -27.0465E-03     53.6934E-03    -26.9818E-03     3.03877E-03
             159    -32.5191E-09     56.4570E-03    -23.1280E+06    -113.584E+06    -23.2076E+06     65.6029E+03    -27.1105E-03     54.3463E-03    -27.2357E-03     2.76538E-03    -27.0276E-03     53.8461E-03    -27.1535E-03     2.76509E-03
             160    -69.4426E-09     55.4564E-03    -22.9571E+06    -113.211E+06    -22.8230E+06    -96.3565E+03    -27.1228E-03     54.3626E-03    -27.2398E-03     2.82475E-03    -27.0401E-03     53.8635E-03    -27.1565E-03     2.82233E-03
             161    -36.2153E-09     54.4551E-03    -23.0219E+06    -113.308E+06    -23.2235E+06    -11.3494E+03    -27.1152E-03     54.3298E-03    -27.2146E-03     3.11414E-03    -27.0321E-03     53.8309E-03    -27.1331E-03     3.11257E-03
             162    -39.5887E-09     53.4545E-03    -23.1340E+06    -113.294E+06    -23.0781E+06     159.783E+03    -27.1108E-03     54.3177E-03    -27.2070E-03     3.36197E-03    -27.0285E-03     53.8188E-03    -27.1245E-03     3.36244E-03
             163    -58.1390E-09     52.4536E-03    -22.7774E+06    -112.871E+06    -22.8553E+06     60.8711E+03    -27.1496E-03     54.2591E-03    -27.1095E-03     3.27911E-03    -27.0665E-03     53.7615E-03    -27.0270E-03     3.27836E-03
             164     220.007E-09     51.4534E-03    -22.7642E+06    -112.702E+06    -22.7059E+06     157.279E+03    -27.1593E-03     54.2057E-03    -27.0464E-03     3.37546E-03    -27.0765E-03     53.7087E-03    -26.9636E-03     3.37592E-03
             165    -189.220E-09     50.4523E-03    -22.5240E+06    -112.553E+06    -22.4834E+06     124.797E+03    -27.0954E-03     54.1639E-03    -27.0684E-03     3.45152E-03    -27.0120E-03     53.6670E-03    -26.9850E-03     3.45144E-03
             166     200.309E-09     49.4520E-03    -22.6650E+06    -112.613E+06    -22.5441E+06     121.790E+03    -27.0274E-03     54.0218E-03    -26.9944E-03     3.41672E-03    -26.9445E-03     53.5248E-03    -26.9109E-03     3.41667E-03
             167    -157.937E-09     48.4518E-03    -22.1478E+06    -112.214E+06    -22.2247E+06    -90.3461E+03    -26.9739E-03     53.9753E-03    -27.0014E-03     3.29119E-03    -26.8894E-03     53.4791E-03    -26.9177E-03     3.28853E-03
             168     60.8596E-09     47.4516E-03    -22.4846E+06    -112.637E+06    -22.5311E+06    -146.534E+03    -26.9903E-03     54.0229E-03    -27.0326E-03     3.12870E-03    -26.9064E-03     53.5256E-03    -26.9493E-03     3.12538E-03
             169    -43.4637E-09     46.4509E-03    -22.4572E+06    -112.525E+06    -22.5146E+06     13.5861E+03    -26.9830E-03     53.9780E-03    -26.9950E-03     3.26748E-03    -26.8991E-03     53.4811E-03    -26.9118E-03     3.26615E-03
             170    -1.15094E-09     45.4505E-03    -22.6593E+06    -112.557E+06    -22.6683E+06     12.5695E+03    -26.9201E-03     53.8344E-03    -26.9143E-03     3.36671E-03    -26.8370E-03     53.3379E-03    -26.8316E-03     3.36530E-03
             171     50.0098E-09     44.4504E-03    -22.7827E+06    -112.630E+06    -22.7795E+06     28.7331E+03    -26.8966E-03     53.7392E-03    -26.8426E-03     3.38343E-03    -26.8138E-03     53.2426E-03    -26.7601E-03     3.38220E-03
             172    -10.1357E-09     43.4504E-03    -22.6012E+06    -112.442E+06    -22.5929E+06     79.3726E+03    -26.7842E-03     53.6545E-03    -26.8703E-03     3.29629E-03    -26.7011E-03     53.1584E-03    -26.7875E-03     3.29582E-03
             173    -186.173E-09     42.4503E-03    -22.5681E+06    -112.428E+06    -22.7724E+06     84.3798E+03    -26.6896E-03     53.4793E-03    -26.7897E-03     3.18897E-03    -26.6061E-03     52.9835E-03    -26.7078E-03     3.18863E-03
             174     199.511E-09     41.4507E-03    -22.9776E+06    -112.339E+06    -22.6299E+06     112.378E+03    -26.6981E-03     53.3231E-03    -26.6250E-03     3.22252E-03    -26.6169E-03     52.8281E-03    -26.5419E-03     3.22250E-03
             175    -86.2162E-09     40.4509E-03    -22.6535E+06    -112.059E+06    -22.5149E+06    -229.263E+03    -26.6614E-03     53.2261E-03    -26.5647E-03     3.37829E-03    -26.5791E-03     52.7318E-03    -26.4819E-03     3.37378E-03
             176     138.029E-09     39.4512E-03    -22.8397E+06    -112.351E+06    -22.9878E+06     71.2692E+03    -26.5338E-03     53.0176E-03    -26.4838E-03     3.25667E-03    -26.4514E-03     52.5228E-03    -26.4027E-03     3.25612E-03
             177    -109.458E-09     38.4524E-03    -22.8689E+06    -111.950E+06    -22.5543E+06     128.873E+03    -26.3965E-03     52.7287E-03    -26.3322E-03     2.98926E-03    -26.3154E-03     52.2354E-03    -26.2495E-03     2.98946E-03
             178     192.343E-09     37.4533E-03    -22.1045E+06    -111.488E+06    -22.4697E+06    -194.001E+03    -26.2729E-03     52.5712E-03    -26.2984E-03     3.07362E-03    -26.1887E-03     52.0790E-03    -26.2170E-03     3.06955E-03
             179    -329.229E-09     36.4542E-03    -22.1503E+06    -111.247E+06    -22.2218E+06     125.915E+03    -26.1421E-03     52.3919E-03    -26.2498E-03     3.17725E-03    -26.0588E-03     51.9006E-03    -26.1675E-03     3.17757E-03
             180     270.930E-09     35.4555E-03    -22.6395E+06    -111.373E+06    -22.3884E+06     174.950E+03    -26.0744E-03     52.0803E-03    -26.0059E-03     3.16187E-03    -25.9931E-03     51.5892E-03    -25.9235E-03     3.16292E-03
             181    -95.1186E-09     34.4574E-03    -22.7534E+06    -111.428E+06    -22.6457E+06     259.340E+03    -25.8618E-03     51.6965E-03    -25.8346E-03     3.19180E-03    -25.7807E-03     51.2057E-03    -25.7533E-03     3.19375E-03
             182    -37.4084E-09     33.4592E-03    -22.0948E+06    -110.654E+06    -22.1597E+06    -6.61833E+03    -25.6077E-03     51.3035E-03    -25.6957E-03     3.04896E-03    -25.5251E-03     50.8150E-03    -25.6141E-03     3.04749E-03
             183     9.52812E-09     32.4623E-03    -22.0258E+06    -110.546E+06     -22.303E+06     37.1336E+03    -25.4726E-03     50.9705E-03    -25.4979E-03     2.90249E-03    -25.3895E-03     50.4826E-03    -25.4172E-03     2.90172E-03
             184    -34.1544E-09     31.4646E-03    -22.3234E+06    -110.423E+06    -22.2960E+06     202.760E+03    -25.2526E-03     50.5664E-03    -25.3139E-03     2.90849E-03    -25.1710E-03     50.0796E-03    -25.2329E-03     2.90985E-03
             185    -53.6280E-09     30.4681E-03    -22.3065E+06    -110.065E+06    -22.3106E+06    -172.263E+03    -25.0402E-03     50.0792E-03    -25.0390E-03     2.83141E-03    -24.9589E-03     49.5941E-03    -24.9587E-03     2.82776E-03
             186     138.267E-09     29.4720E-03    -22.1395E+06    -109.492E+06    -21.8900E+06    -131.579E+03    -24.8025E-03     49.5334E-03    -24.7309E-03     2.72255E-03    -24.7217E-03     49.0504E-03    -24.6495E-03     2.71960E-03
             187    -99.5101E-09     28.4761E-03    -22.3332E+06    -109.642E+06    -22.5461E+06    -58.4873E+03    -24.4013E-03     48.7965E-03    -24.3952E-03     2.73343E-03    -24.3201E-03     48.3140E-03    -24.3165E-03     2.73152E-03
             188     63.6203E-09     27.4815E-03    -21.7477E+06    -108.689E+06    -22.0416E+06     442.704E+03    -23.9584E-03     47.9406E-03    -23.9821E-03     2.71172E-03    -23.8762E-03     47.4613E-03    -23.9032E-03     2.71617E-03
             189    -78.4468E-09     26.4874E-03    -21.6606E+06    -107.747E+06    -21.4903E+06     443.017E+03    -23.4864E-03     46.9878E-03    -23.5014E-03     2.58191E-03    -23.4060E-03     46.5123E-03    -23.4212E-03     2.58641E-03
             190     63.5699E-09     25.4948E-03    -21.1613E+06    -106.602E+06    -20.9838E+06     187.454E+03    -23.0208E-03     45.9629E-03    -22.9421E-03     2.40144E-03    -22.9403E-03     45.4917E-03    -22.8618E-03     2.40278E-03
             191     86.9303E-09     24.5028E-03    -19.8657E+06    -104.774E+06    -19.9016E+06     350.915E+03    -22.4474E-03     44.8584E-03    -22.4110E-03     2.35206E-03    -22.3648E-03     44.3929E-03    -22.3298E-03     2.35555E-03
             192    -178.303E-09     23.5121E-03    -20.0903E+06    -104.384E+06    -20.2666E+06     490.068E+03    -21.7699E-03     43.6137E-03    -21.8437E-03     2.24717E-03    -21.6886E-03     43.1510E-03    -21.7646E-03     2.25247E-03
             193     133.753E-09     22.5228E-03    -19.9885E+06    -103.328E+06    -19.9755E+06     483.820E+03    -21.1845E-03     42.3256E-03    -21.1411E-03     2.13036E-03    -21.1048E-03     41.8677E-03    -21.0622E-03     2.13571E-03
             194    -15.9040E-09     21.5346E-03    -19.4273E+06    -101.875E+06    -19.5220E+06     372.529E+03    -20.5450E-03     41.0482E-03    -20.5032E-03     2.07350E-03    -20.4654E-03     40.5960E-03    -20.4249E-03     2.07758E-03
             195    -32.4942E-09     20.5479E-03    -18.8052E+06    -100.349E+06    -18.6901E+06     448.918E+03    -19.8757E-03     39.7836E-03    -19.9079E-03     1.95186E-03    -19.7965E-03     39.3368E-03    -19.8286E-03     1.95698E-03
             196     22.6468E-09     19.5619E-03    -18.0713E+06    -98.5573E+06    -18.3818E+06     1.20277E+06    -19.2603E-03     38.4851E-03    -19.2247E-03     1.86725E-03    -19.1805E-03     38.0458E-03    -19.1475E-03     1.88210E-03
             197     44.0057E-09     18.5780E-03    -18.5437E+06    -96.7017E+06    -17.7082E+06     809.206E+03    -18.6180E-03     37.1703E-03    -18.5523E-03     1.64626E-03    -18.5442E-03     36.7400E-03    -18.4738E-03     1.65618E-03
             198     12.7302E-09     17.5948E-03    -16.3740E+06    -94.4848E+06    -16.6951E+06     200.517E+03    -17.9726E-03     35.8755E-03    -17.9029E-03     1.39020E-03    -17.8927E-03     35.4516E-03    -17.8256E-03     1.39235E-03
             199     48.3871E-09     16.6132E-03    -13.5216E+06    -90.9251E+06    -13.6243E+06     1.28235E+06    -17.3412E-03     34.6261E-03    -17.2849E-03     1.18691E-03    -17.2566E-03     34.2114E-03    -17.2016E-03     1.20306E-03
             200    -12.6738E-09     15.6326E-03    -10.6021E+06    -85.8989E+06    -11.0549E+06     1.74409E+06    -16.7278E-03     33.3465E-03    -16.6187E-03     1.08844E-03    -16.6396E-03     32.9489E-03    -16.5340E-03     1.11061E-03
             201     163.570E-09     14.6529E-03    -8.97747E+06    -80.3432E+06    -9.00745E+06     1.84922E+06    -16.0331E-03     31.8919E-03    -15.8588E-03     1.05709E-03    -15.9479E-03     31.5168E-03    -15.7744E-03     1.08066E-03
             202    -7.39534E-09     13.6756E-03    -5.47366E+06    -75.9384E+06    -4.87859E+06     895.699E+03    -15.2546E-03     30.3874E-03    -15.1328E-03     764.458E-06    -15.1643E-03     30.0233E-03    -15.0392E-03     775.804E-06
             203     72.8822E-09     12.6991E-03    -2.95177E+06    -73.5684E+06    -3.25901E+06     339.346E+03    -14.4524E-03     28.7541E-03    -14.3018E-03     334.754E-06    -14.3552E-03     28.3958E-03    -14.2071E-03     338.922E-06
             204     124.722E-09     11.7246E-03    -6.57590E+06    -72.8756E+06    -6.23801E+06     168.731E+03    -13.4751E-03     26.8543E-03    -13.3792E-03     346.065E-06    -13.3928E-03     26.5091E-03    -13.2952E-03     347.990E-06
             205    -148.842E-09     10.7514E-03    -9.59385E+06    -72.6165E+06    -9.91094E+06     101.333E+03    -12.5510E-03     25.1088E-03    -12.5579E-03     452.695E-06    -12.4787E-03     24.7747E-03    -12.4882E-03     453.759E-06
             206     156.149E-09     9.78059E-03    -12.4385E+06    -72.7602E+06    -11.7949E+06    -36.0977E+03    -12.1178E-03     24.1053E-03    -11.9875E-03     468.323E-06    -12.0568E-03     23.7773E-03    -11.9229E-03     467.626E-06
             207     74.7880E-09     8.80978E-03    -12.8426E+06    -73.4455E+06    -12.5270E+06    -631.351E+03    -12.1587E-03     24.1746E-03    -12.0159E-03     695.942E-06    -12.0977E-03     23.8448E-03    -11.9534E-03     687.532E-06
             208    -49.3585E-09     7.83826E-03    -11.7629E+06    -74.9512E+06    -11.7975E+06    -383.614E+03    -12.6003E-03     25.2205E-03    -12.6202E-03     922.002E-06    -12.5328E-03     24.8806E-03    -12.5534E-03     916.830E-06
             209    -12.9194E-09     6.86548E-03    -9.79469E+06    -77.1156E+06    -9.64342E+06    -693.565E+03    -13.5110E-03     27.0747E-03    -13.5637E-03     1.09411E-03    -13.4337E-03     26.7179E-03    -13.4859E-03     1.08499E-03
             210    -17.6473E-09     5.89046E-03    -7.14903E+06    -79.3079E+06    -7.29230E+06    -1.03480E+06    -14.7106E-03     29.4257E-03    -14.7151E-03     1.18927E-03    -14.6202E-03     29.0507E-03    -14.6262E-03     1.17577E-03
             211     37.4317E-09     4.91283E-03     -7.6497E+06    -82.6921E+06    -7.79833E+06    -831.050E+03    -15.8522E-03     31.7450E-03    -15.8928E-03     1.22615E-03    -15.7585E-03     31.3546E-03    -15.8008E-03     1.21534E-03
             212    -132.304E-09     3.93349E-03    -10.0023E+06    -86.4888E+06    -10.1412E+06    -957.878E+03    -16.8923E-03     33.8428E-03    -16.9506E-03     1.01835E-03    -16.8014E-03     33.4403E-03    -16.8614E-03     1.00589E-03
             213     120.859E-09     2.95208E-03    -11.0231E+06    -88.9063E+06    -11.3567E+06    -612.165E+03    -17.8312E-03     35.6885E-03    -17.8574E-03     781.355E-06    -17.7400E-03     35.2773E-03    -17.7693E-03     773.269E-06
             214    -161.209E-09     1.96890E-03    -11.1255E+06    -90.0652E+06    -11.4423E+06    -219.053E+03    -18.5097E-03     37.0779E-03    -18.5682E-03     554.044E-06    -18.4169E-03     36.6612E-03    -18.4787E-03     551.152E-06
             215     92.3344E-09     984.723E-06    -11.5159E+06    -90.8397E+06    -11.3048E+06    -284.656E+03    -18.9870E-03     37.9314E-03    -18.9444E-03     297.834E-06    -18.8947E-03     37.5112E-03    -18.8525E-03     294.454E-06
             216     882.937E-06    -1.65840E-15    -11.3483E+06    -90.9397E+06    -11.1658E+06    -217.952E+03    -19.2257E-03     38.3266E-03    -19.1009E-03     289.302E-06    -19.1333E-03     37.9049E-03    -19.0084E-03     286.734E-06
             217     1.76586E-03    -1.65840E-15    -10.8544E+06    -90.7869E+06    -11.0379E+06    -21.6816E+03    -19.3777E-03     38.5833E-03    -19.2057E-03     478.733E-06    -19.2841E-03     38.1610E-03    -19.1135E-03     478.426E-06
             218     2.64841E-03    -1.65840E-15    -10.4986E+06    -90.9802E+06    -11.3007E+06    -273.222E+03    -19.6961E-03     39.0063E-03    -19.3102E-03     736.944E-06    -19.6001E-03     38.5829E-03    -19.2195E-03     733.336E-06
             219     3.53076E-03    -1.65840E-15    -9.85370E+06    -91.3196E+06    -11.9588E+06    -785.933E+03    -20.1541E-03     39.6096E-03    -19.4554E-03     1.01746E-03    -20.0535E-03     39.1845E-03    -19.3685E-03     1.00720E-03
             220     4.41250E-03    -1.65840E-15    -8.89401E+06    -91.8786E+06    -13.3103E+06    -1.20040E+06    -20.7585E-03     40.4008E-03    -19.6424E-03     1.34082E-03    -20.6503E-03     39.9736E-03    -19.5628E-03     1.32516E-03
             221     5.29374E-03    -1.65840E-15    -7.12148E+06    -92.6304E+06    -16.1317E+06    -2.05163E+06    -21.5143E-03     41.3820E-03    -19.8677E-03     1.70808E-03    -21.3921E-03     40.9525E-03    -19.8037E-03     1.68137E-03
             222     6.17417E-03    -1.65840E-15    -4.62273E+06    -93.2929E+06    -19.9615E+06    -2.71059E+06    -22.4227E-03     42.5570E-03    -20.1343E-03     2.13270E-03    -22.2815E-03     42.1262E-03    -20.0922E-03     2.09739E-03
             223     7.05374E-03    -1.65840E-15    -1.74234E+06    -93.7006E+06    -24.5376E+06    -3.33330E+06    -23.4903E-03     43.9352E-03    -20.4449E-03     2.61248E-03    -23.3275E-03     43.5048E-03    -20.4292E-03     2.56897E-03
             224     7.93234E-03    -1.65840E-15     1.66075E+06    -90.2927E+06    -29.3762E+06    -3.97573E+06    -24.7458E-03     45.5452E-03    -20.7994E-03     3.21923E-03    -24.5639E-03     45.1339E-03    -20.8178E-03     3.16722E-03
             225     8.80957E-03    -1.65840E-15     5.96983E+06    -79.7624E+06     -35.208E+06    -4.91415E+06    -26.1606E-03     47.3518E-03    -21.1911E-03     4.10016E-03    -25.9640E-03     46.9953E-03    -21.2601E-03     4.03587E-03
             226     9.68529E-03    -1.65840E-15     9.59585E+06    -62.4369E+06    -38.3401E+06    -4.08910E+06    -27.6239E-03     49.2610E-03    -21.6371E-03     4.92842E-03    -27.4298E-03     48.9906E-03    -21.7522E-03     4.87412E-03
             227     10.5603E-03    -1.65840E-15     11.5499E+06    -39.8404E+06    -36.1530E+06    -2.73872E+06    -29.2676E-03     51.4201E-03    -22.1525E-03     5.90079E-03    -29.0997E-03     51.2567E-03    -22.2923E-03     5.86310E-03
             228     11.4328E-03    -1.65840E-15     12.1021E+06    -11.9490E+06    -29.7952E+06    -1.33202E+06    -31.1414E-03     53.8789E-03    -22.7375E-03     7.71139E-03    -31.0205E-03     53.8450E-03    -22.8867E-03     7.69137E-03
             229     12.3030E-03    -1.65840E-15     10.9422E+06     16.3468E+06    -17.5420E+06    -599.272E+03    -32.9243E-03     56.3278E-03    -23.4035E-03     9.80502E-03    -32.8682E-03     56.4194E-03    -23.5307E-03     9.79195E-03
             230     13.1729E-03    -1.65840E-15     8.77000E+06     36.0424E+06     496.337E+03     831.657E+03    -35.0650E-03     59.2257E-03    -24.1606E-03     11.1551E-03    -35.0748E-03     59.3933E-03    -24.2231E-03     11.1551E-03
             231     14.0412E-03    -1.65840E-15     10.6056E+06     47.2131E+06     13.2486E+06     335.174E+03    -39.5879E-03     64.6062E-03    -25.0183E-03     17.3220E-03    -39.6235E-03     64.8084E-03    -25.0359E-03     17.3159E-03
             232     14.8954E-03    -1.65840E-15     14.6830E+06     62.6287E+06     37.9990E+06    -7.78497E+06    -43.5698E-03     69.6534E-03    -26.0837E-03     23.5743E-03    -43.6449E-03     69.8922E-03    -26.0058E-03     23.4554E-03
             233     15.7563E-03    -1.65840E-15     10.3586E+06     77.4900E+06     66.9748E+06    -3.42550E+06    -53.5461E-03     80.9999E-03    -27.4539E-03     44.6685E-03    -53.7301E-03     81.3019E-03    -27.2464E-03     44.5148E-03
             234     16.5880E-03    -1.65840E-15     1.64211E+06     91.7406E+06     75.3461E+06     11.8697E+06    -88.4470E-03     118.165E-03    -29.7183E-03     102.121E-03    -89.1967E-03     119.024E-03    -29.4770E-03     101.087E-03
             235     17.4757E-03     1.14023E-03     604.360E+03     112.438E+06     71.3857E+06     9.97501E+06    -106.091E-03     135.523E-03    -29.4326E-03     159.835E-03    -108.110E-03     137.754E-03    -29.2396E-03     157.674E-03
             236     17.4931E-03     2.28152E-03     655.533E+03     128.907E+06     69.9402E+06     5.66308E+06    -104.076E-03     131.149E-03    -27.0729E-03     211.435E-03    -108.258E-03     135.616E-03    -26.9111E-03     208.677E-03
             237     17.5102E-03     3.38894E-03    -1.64954E+06     141.428E+06     83.1708E+06     6.44401E+06    -105.065E-03     131.404E-03    -26.3393E-03     255.005E-03    -111.678E-03     138.278E-03    -26.1261E-03     252.448E-03
             238     17.5164E-03     4.44708E-03    -2.44398E+06     149.066E+06     94.9139E+06     2.33420E+06    -100.936E-03     126.971E-03    -26.0347E-03     266.661E-03    -109.062E-03     135.343E-03    -25.7727E-03     265.111E-03
             239     17.5182E-03     5.52386E-03     -3.1963E+06     152.183E+06     99.5819E+06      1.1218E+06    -99.8861E-03     125.787E-03    -25.9005E-03     272.897E-03    -109.160E-03     135.306E-03    -25.6186E-03     272.266E-03
             240     17.5207E-03     6.59384E-03    -3.59912E+06     154.514E+06     100.451E+06     611.771E+03    -96.8457E-03     122.785E-03    -25.9398E-03     290.135E-03    -107.676E-03     133.864E-03    -25.6564E-03     290.528E-03
             241     17.5187E-03     7.65555E-03    -1.55690E+06     159.460E+06     101.936E+06     2.51042E+06    -91.2217E-03     117.271E-03    -26.0490E-03     301.073E-03    -103.214E-03     129.529E-03    -25.7683E-03     302.788E-03
             242     17.5231E-03     8.70144E-03    -2.63402E+06     163.086E+06     102.095E+06     2.96835E+06    -86.2310E-03     112.459E-03    -26.2283E-03     304.530E-03    -99.0109E-03     125.513E-03    -25.9505E-03     307.516E-03
             243     17.5119E-03     9.74803E-03    -5.97453E+06     162.194E+06     98.2361E+06     456.770E+03    -83.2990E-03     109.678E-03    -26.3793E-03     303.824E-03    -96.7075E-03     123.355E-03    -26.1147E-03     307.709E-03
             244     17.5225E-03     10.7804E-03    -743.797E+03     164.401E+06     99.8773E+06     1.03306E+06    -74.4395E-03     100.865E-03    -26.4255E-03     305.861E-03    -87.9461E-03     114.662E-03    -26.1634E-03     311.100E-03
             245     17.5244E-03     11.8219E-03     3.02522E+06     170.515E+06     105.963E+06    -1.22309E+06    -75.5683E-03     101.883E-03    -26.3148E-03     323.071E-03    -90.4615E-03     117.089E-03    -26.0366E-03     328.916E-03
             246     17.5199E-03     12.8758E-03    -4.29180E+06     168.367E+06     103.950E+06    -1.98359E+06    -81.9186E-03     108.178E-03    -26.2595E-03     325.435E-03    -97.9411E-03     124.482E-03    -25.9777E-03     331.285E-03
             247     17.5195E-03     13.9012E-03    -6.35394E+06     165.275E+06     102.170E+06     1.89076E+06    -73.7497E-03     100.238E-03    -26.4885E-03     315.744E-03    -89.4956E-03     116.250E-03    -26.2081E-03     323.245E-03
             248     17.5204E-03     14.9268E-03    -585.812E+03     169.751E+06     106.725E+06     2.55805E+06    -67.0792E-03     93.7131E-03    -26.6339E-03     314.523E-03    -82.8761E-03     109.800E-03    -26.3456E-03     323.403E-03
             249     17.5205E-03     15.9516E-03    -2.93557E+06     168.164E+06     105.338E+06    -539.185E+03    -66.3662E-03     92.9856E-03    -26.6195E-03     304.303E-03    -81.8016E-03     108.701E-03    -26.3324E-03     313.413E-03
             250     17.5190E-03     16.9730E-03    -4.17001E+06     167.997E+06     105.809E+06    -885.130E+03    -65.4531E-03     92.1010E-03    -26.6479E-03     299.517E-03    -80.8496E-03     107.772E-03    -26.3564E-03     309.201E-03
             251     17.5205E-03     18.0089E-03    -2.12256E+06     170.822E+06     108.858E+06     597.463E+03    -64.3512E-03     91.0392E-03    -26.6880E-03     305.016E-03    -80.2436E-03     107.216E-03    -26.3884E-03     315.280E-03
             252     17.5196E-03     19.0378E-03    -2.24340E+06     170.760E+06     108.521E+06     694.662E+03    -59.5745E-03     86.3677E-03    -26.7932E-03     307.900E-03    -75.8475E-03     102.924E-03    -26.4950E-03     319.182E-03
             253     17.5211E-03     20.0472E-03    -1.79416E+06     172.456E+06     109.565E+06     759.316E+03    -55.6204E-03     82.4915E-03    -26.8712E-03     308.082E-03    -72.0218E-03     99.1808E-03    -26.5708E-03     320.237E-03
             254     17.5205E-03     21.0704E-03    -2.94485E+06     172.099E+06     108.947E+06     543.989E+03    -54.8278E-03     81.7226E-03    -26.8948E-03     306.001E-03    -71.2143E-03     98.3938E-03    -26.5954E-03     318.414E-03
             255     17.5193E-03     22.0835E-03    -1.70562E+06     172.903E+06     108.580E+06     677.765E+03    -51.5905E-03     78.5212E-03    -26.9308E-03     306.377E-03    -68.0450E-03     95.2683E-03    -26.6361E-03     319.407E-03
             256     17.5251E-03     23.0951E-03    -6.19559E+06     170.290E+06     105.885E+06    -222.810E+03    -52.6675E-03     79.6847E-03    -27.0171E-03     307.564E-03    -69.4325E-03     96.7258E-03    -26.7256E-03     320.782E-03
             257     17.5067E-03     24.1245E-03    -6.90364E+06      168.86E+06     104.261E+06     4.09140E+06    -50.8391E-03     78.1620E-03    -27.3229E-03     307.938E-03    -67.7712E-03     95.3679E-03    -27.0364E-03     321.351E-03
             258     17.5194E-03     25.1162E-03    -2.77247E+06     170.497E+06     107.278E+06     2.03825E+06    -26.7501E-03     54.5564E-03    -27.8063E-03     294.996E-03    -42.0220E-03     70.1166E-03    -27.5131E-03     309.747E-03
             259     17.5203E-03     26.0660E-03     170.576E+03     176.175E+06     112.734E+06    -2.62331E+06    -33.6796E-03     61.0621E-03    -27.3824E-03     318.158E-03    -50.5665E-03     78.2714E-03    -27.0745E-03     333.914E-03
             260     17.5279E-03     27.1465E-03     89.2873E+03     177.316E+06     113.419E+06    -2.70907E+06    -68.0410E-03     94.4698E-03    -26.4288E-03     345.583E-03    -87.2909E-03     114.050E-03    -26.1190E-03     357.574E-03
             261     17.5218E-03     28.2005E-03    -2.40973E+06     175.470E+06     112.622E+06    -850.833E+03    -56.0144E-03     82.7910E-03    -26.7766E-03     346.701E-03    -75.9814E-03     103.057E-03    -26.4644E-03     360.038E-03
             262     17.5239E-03     29.1396E-03    -1.75997E+06     177.747E+06     113.860E+06     2.01864E+06    -35.1982E-03     62.5350E-03    -27.3369E-03     335.735E-03    -54.6313E-03     82.2658E-03    -27.0228E-03     353.466E-03
             263     17.5214E-03     30.1340E-03    -3.68178E+06     173.889E+06     110.637E+06     78.3334E+03    -41.6147E-03     68.7288E-03    -27.1141E-03     309.352E-03    -58.6762E-03     86.0748E-03    -26.8077E-03     325.009E-03
             264     17.5230E-03     31.1535E-03    -4.62885E+06     173.762E+06     110.326E+06    -653.917E+03    -47.0776E-03     74.0494E-03    -26.9718E-03     310.258E-03    -64.2438E-03     91.4966E-03    -26.6654E-03     324.970E-03
             265     17.5227E-03     32.1669E-03    -1.81288E+06     177.157E+06     113.373E+06     615.470E+03    -44.2524E-03     71.3089E-03    -27.0565E-03     320.393E-03    -62.1754E-03     89.5258E-03    -26.7438E-03     335.880E-03
             266     17.5232E-03     33.1724E-03    -2.45964E+06     176.275E+06     112.251E+06     709.859E+03    -40.8373E-03     67.9878E-03    -27.1505E-03     322.425E-03    -59.0150E-03     86.4571E-03    -26.8413E-03     338.635E-03
             267     17.5220E-03     34.1625E-03    -3.46318E+06     175.351E+06     111.345E+06    -106.039E+03    -40.1979E-03     67.3440E-03    -27.1461E-03     317.103E-03    -58.0118E-03     85.4452E-03    -26.8386E-03     333.377E-03
             268     17.5241E-03     35.1709E-03    -2.74112E+06     176.069E+06     112.355E+06    -42.4228E+03    -41.9282E-03     69.0208E-03    -27.0926E-03     317.303E-03    -59.7058E-03     87.0880E-03    -26.7821E-03     333.339E-03
             269     17.5221E-03     36.1799E-03    -3.63095E+06     175.233E+06     111.488E+06     12.4696E+03    -42.0743E-03     69.1842E-03    -27.1099E-03     320.843E-03    -60.2017E-03     87.5976E-03    -26.8013E-03     336.997E-03
             270     17.5230E-03     37.1799E-03    -2.06606E+06     176.542E+06     112.865E+06     640.188E+03    -39.6318E-03     66.8004E-03    -27.1686E-03     320.213E-03    -57.7368E-03     85.1975E-03    -26.8572E-03     336.790E-03
             271     17.5234E-03     38.1762E-03    -2.13608E+06     176.798E+06     113.189E+06    -39.1415E+03    -39.4454E-03     66.6023E-03    -27.1569E-03     318.121E-03    -57.3540E-03     84.8028E-03    -26.8443E-03     334.723E-03
             272     17.5225E-03     39.1827E-03    -4.82376E+06     174.032E+06     110.430E+06    -249.313E+03    -40.3697E-03     67.5052E-03    -27.1355E-03     316.400E-03    -58.1702E-03     85.5861E-03    -26.8287E-03     332.765E-03
             273     17.5230E-03     40.1814E-03    -3.30851E+06     175.624E+06     111.842E+06     870.643E+03    -38.7918E-03     65.9627E-03    -27.1710E-03     315.629E-03    -56.4884E-03     83.9467E-03    -26.8616E-03     332.164E-03
             274     17.5234E-03     41.1822E-03    -732.231E+03     178.092E+06     113.782E+06     95.6803E+03    -37.9070E-03     65.0761E-03    -27.1691E-03     316.193E-03    -55.6017E-03     83.0704E-03    -26.8574E-03     332.909E-03
             275     17.5242E-03     42.1822E-03    -2.16991E+06     177.100E+06     113.081E+06    -1.27963E+06    -40.3594E-03     67.4842E-03    -27.1248E-03     319.020E-03    -58.3538E-03     85.7718E-03    -26.8130E-03     335.539E-03
             276     17.5214E-03     43.1945E-03    -3.10788E+06     176.163E+06     112.870E+06     823.318E+03    -39.9671E-03     67.1409E-03    -27.1738E-03     320.864E-03    -58.1543E-03     85.6154E-03    -26.8604E-03     337.436E-03
             277     17.5238E-03     44.1861E-03    -3.02330E+06     175.990E+06     112.346E+06     1.22891E+06    -36.3953E-03     63.6271E-03    -27.2318E-03     318.344E-03    -54.3077E-03     81.8281E-03    -26.9209E-03     335.349E-03
             278     17.5235E-03     45.1779E-03    -3.42917E+06     175.749E+06     111.870E+06    -763.155E+03    -38.1117E-03     65.2651E-03    -27.1534E-03     312.987E-03    -55.5723E-03     83.0133E-03    -26.8439E-03     329.608E-03
             279     17.5231E-03     46.1885E-03    -4.73653E+06     174.848E+06     110.577E+06    -1.01499E+06    -41.4834E-03     68.5765E-03    -27.0931E-03     313.066E-03    -59.1020E-03     86.4784E-03    -26.7869E-03     329.268E-03
             280     17.5220E-03     47.1937E-03    -2.18135E+06     177.661E+06     113.318E+06      444.32E+03    -39.9673E-03     67.1294E-03    -27.1621E-03     318.444E-03    -57.9629E-03     85.4194E-03    -26.8499E-03     335.002E-03
             281     17.5239E-03     48.1957E-03    -1.85517E+06     178.011E+06     113.844E+06     650.568E+03    -37.1995E-03     64.4246E-03    -27.2251E-03     321.062E-03    -55.3352E-03     82.8556E-03    -26.9113E-03     338.116E-03
             282     17.5224E-03     49.1885E-03    -3.37856E+06     176.784E+06     112.236E+06    -159.226E+03    -37.5770E-03     64.7849E-03    -27.2079E-03     318.955E-03    -55.5964E-03     83.0945E-03    -26.8981E-03     335.973E-03
             283     17.5234E-03     50.1921E-03    -2.59994E+06     176.811E+06     112.757E+06    -95.8981E+03    -38.8671E-03     66.0484E-03    -27.1813E-03     316.897E-03    -56.7123E-03     84.1851E-03    -26.8701E-03     333.582E-03
             284     17.5222E-03     51.1919E-03    -3.25836E+06     175.840E+06     112.402E+06     156.091E+03    -38.1767E-03     65.3653E-03    -27.1886E-03     315.513E-03    -55.9403E-03     83.4157E-03    -26.8768E-03     332.260E-03
             285     17.5239E-03     52.1897E-03    -2.44174E+06     176.983E+06     113.577E+06    -141.723E+03    -37.9537E-03     65.1314E-03    -27.1777E-03     316.126E-03    -55.7801E-03     83.2481E-03    -26.8629E-03     333.014E-03
             286     17.5231E-03     53.1953E-03    -2.99923E+06     176.650E+06     112.979E+06    -360.418E+03    -39.1638E-03     66.3098E-03    -27.1460E-03     319.860E-03    -57.2575E-03     84.6924E-03    -26.8329E-03     336.654E-03
             287     17.5238E-03     54.1987E-03    -4.17691E+06     176.021E+06     112.623E+06    -140.458E+03    -39.1154E-03     66.2920E-03    -27.1766E-03     322.053E-03    -57.4263E-03     84.8863E-03    -26.8626E-03     338.911E-03
             288     17.5217E-03     55.1965E-03    -2.59943E+06     175.874E+06     113.040E+06    -258.207E+03    -37.5670E-03     64.7910E-03    -27.2240E-03     320.003E-03    -55.6895E-03     83.2009E-03    -26.9101E-03     337.005E-03
             289     17.5243E-03     56.1906E-03    -1.91687E+06     174.756E+06     112.998E+06    -685.050E+03    -37.5498E-03     64.7518E-03    -27.2020E-03     317.423E-03    -55.3643E-03     82.8522E-03    -26.8876E-03     334.293E-03
             290     17.5224E-03     57.1951E-03    -2.51239E+06     173.924E+06     113.501E+06    -141.548E+03    -39.1806E-03     66.3492E-03    -27.1686E-03     318.573E-03    -57.1016E-03     84.5496E-03    -26.8497E-03     335.241E-03
             291     17.5235E-03     58.1996E-03    -3.64405E+06     174.076E+06     111.962E+06     694.183E+03    -39.6430E-03     66.8135E-03    -27.1705E-03     319.982E-03    -57.7997E-03     85.2506E-03    -26.8578E-03     336.705E-03
             292     875.954E-06     58.4611E-03    -22.9442E+06    -113.085E+06    -22.6421E+06    -136.689E+03    -27.1392E-03     54.2272E-03    -27.0879E-03     5.32258E-03    -27.0571E-03     53.7282E-03    -27.0039E-03     5.31836E-03
             293     1.75202E-03     58.4682E-03    -22.4335E+06    -112.128E+06    -21.0611E+06     1.00613E+03    -27.1452E-03     54.2629E-03    -27.1177E-03     10.2002E-03    -27.0646E-03     53.7657E-03    -27.0279E-03     10.1953E-03
             294     2.62800E-03     58.4804E-03    -21.5298E+06    -110.616E+06    -18.4048E+06     296.076E+03    -27.1537E-03     54.2803E-03    -27.1266E-03     15.4316E-03    -27.0751E-03     53.7860E-03    -27.0270E-03     15.4277E-03
             295     3.50403E-03     58.4975E-03    -20.2090E+06    -108.344E+06    -14.8707E+06     206.789E+03    -27.1810E-03     54.3135E-03    -27.1325E-03     20.7222E-03    -27.1051E-03     53.8243E-03    -27.0204E-03     20.7138E-03
             296     4.38004E-03     58.5197E-03    -18.9794E+06    -104.056E+06    -11.9297E+06    -137.075E+03    -27.2123E-03     54.3426E-03    -27.1303E-03     26.0849E-03    -27.1419E-03     53.8700E-03    -27.0115E-03     26.0680E-03
             297     5.25614E-03     58.5469E-03    -17.8689E+06    -99.6388E+06    -8.89524E+06     13.4596E+03    -27.2620E-03     54.3888E-03    -27.1268E-03     31.5209E-03    -27.1986E-03     53.9340E-03    -27.0009E-03     31.5011E-03
             298     6.13223E-03     58.5794E-03    -16.2796E+06    -95.6868E+06    -4.97068E+06     19.1524E+03    -27.3428E-03     54.4708E-03    -27.1280E-03     36.9900E-03    -27.2855E-03     54.0305E-03    -26.9905E-03     36.9642E-03
             299     7.00833E-03     58.6171E-03    -14.5183E+06    -90.6371E+06    -2.09470E+06    -23.1231E+03    -27.4387E-03     54.5620E-03    -27.1232E-03     42.4928E-03    -27.3878E-03     54.1438E-03    -26.9812E-03     42.4588E-03
             300     7.88444E-03     58.6601E-03    -13.0744E+06    -84.7853E+06    -724.524E+03     371.006E+03    -27.5424E-03     54.6529E-03    -27.1105E-03     48.0175E-03    -27.5001E-03     54.2653E-03    -26.9722E-03     47.9789E-03
             301     8.76059E-03     58.7082E-03    -11.7929E+06    -79.2079E+06     148.211E+03     527.734E+03    -27.6647E-03     54.7606E-03    -27.0959E-03     53.5688E-03    -27.6332E-03     54.4056E-03    -26.9632E-03     53.5201E-03
             302     9.63670E-03     58.7618E-03    -10.9050E+06    -74.8049E+06    -1.60974E+06     504.339E+03    -27.8220E-03     54.8936E-03    -27.0715E-03     59.1068E-03    -27.8014E-03     54.5733E-03    -26.9553E-03     59.0423E-03
             303     10.5129E-03     58.8204E-03    -10.4600E+06    -66.6825E+06    -4.72962E+06     647.595E+03    -27.9688E-03     55.0056E-03    -27.0367E-03     64.5681E-03    -27.9703E-03     54.7469E-03    -26.9485E-03     64.4858E-03
             304     11.3890E-03     58.8843E-03    -10.4542E+06    -49.5678E+06    -3.61747E+06     830.059E+03    -28.0864E-03     55.0952E-03    -27.0087E-03     71.2970E-03    -28.1412E-03     54.9474E-03    -26.9398E-03     71.1928E-03
             305     12.2653E-03     58.9558E-03    -11.0035E+06    -32.1467E+06    -3.61932E+06     848.824E+03    -28.2553E-03     55.2287E-03    -26.9734E-03     77.8996E-03    -28.3768E-03     55.2075E-03    -26.9289E-03     77.7681E-03
             306     13.1416E-03     59.0317E-03    -10.3820E+06    -20.2175E+06    -9.23794E+06     1.51094E+06    -28.2781E-03     55.1955E-03    -26.9173E-03     79.7707E-03    -28.4646E-03     55.3001E-03    -26.9192E-03     79.6128E-03
             307     14.0173E-03     59.1071E-03    -9.41102E+06     3.77802E+06    -18.1972E+06     1.38029E+06    -28.9317E-03     55.7585E-03    -26.8268E-03     97.5149E-03    -29.3361E-03     56.1957E-03    -26.9096E-03     97.2981E-03
             308     14.8938E-03     59.2171E-03    -10.8093E+06     54.1045E+06    -23.6086E+06     912.594E+03    -35.8952E-03     62.6234E-03    -26.7282E-03     188.322E-03    -37.9016E-03     64.8519E-03    -26.9090E-03     188.016E-03
             309     15.7689E-03     59.4677E-03    -10.5359E+06     126.849E+06     25.8833E+06     1.52806E+06    -48.3227E-03     75.2015E-03    -26.8788E-03     334.664E-03    -59.2340E-03     86.4506E-03    -26.9180E-03     335.935E-03
             310     16.6446E-03     59.8710E-03    -5.73203E+06     172.148E+06     94.6740E+06     720.780E+03    -46.3843E-03     73.5236E-03    -27.1393E-03     363.480E-03    -64.5401E-03     91.9957E-03    -26.9072E-03     373.320E-03
             311     876.171E-06     59.4617E-03    -23.1484E+06    -113.120E+06    -22.5560E+06     68.5676E+03    -27.1178E-03     54.1552E-03    -27.0374E-03     5.41260E-03    -27.0368E-03     53.6563E-03    -26.9526E-03     5.41100E-03
             312     1.75201E-03     59.4689E-03    -22.6452E+06    -112.175E+06    -21.0963E+06     34.2495E+03    -27.1443E-03     54.2336E-03    -27.0893E-03     10.1798E-03    -27.0646E-03     53.7365E-03    -26.9993E-03     10.1754E-03
             313     2.62803E-03     59.4809E-03    -21.6964E+06    -111.029E+06    -18.8920E+06     96.9439E+03    -27.1429E-03     54.2479E-03    -27.1050E-03     15.4401E-03    -27.0638E-03     53.7525E-03    -27.0070E-03     15.4336E-03
             314     3.50407E-03     59.4981E-03    -20.4451E+06    -107.918E+06    -15.9224E+06     15.2045E+03    -27.1609E-03     54.2691E-03    -27.1082E-03     20.7526E-03    -27.0852E-03     53.7839E-03    -27.0017E-03     20.7417E-03
             315     4.38017E-03     59.5202E-03    -19.0207E+06    -104.138E+06    -11.7728E+06     53.4083E+03    -27.2154E-03     54.3297E-03    -27.1143E-03     26.0995E-03    -27.1453E-03     53.8565E-03    -26.9946E-03     26.0851E-03
             316     5.25621E-03     59.5475E-03    -17.4788E+06    -99.9076E+06    -7.62110E+06     229.867E+03    -27.2759E-03     54.3962E-03    -27.1203E-03     31.5214E-03    -27.2120E-03     53.9377E-03    -26.9882E-03     31.5043E-03
             317     6.13229E-03     59.5799E-03    -16.0554E+06    -95.2961E+06    -4.50336E+06     50.3781E+03    -27.3437E-03     54.4633E-03    -27.1197E-03     37.0057E-03    -27.2865E-03     54.0239E-03    -26.9807E-03     36.9803E-03
             318     7.00839E-03     59.6177E-03    -14.8569E+06    -91.0952E+06    -2.08142E+06     189.554E+03    -27.4394E-03     54.5554E-03    -27.1160E-03     42.4917E-03    -27.3896E-03     54.1355E-03    -26.9728E-03     42.4604E-03
             319     7.88451E-03     59.6606E-03    -13.5535E+06    -85.0646E+06    -860.080E+03     377.460E+03    -27.5474E-03     54.6513E-03    -27.1039E-03     48.0000E-03    -27.5069E-03     54.2633E-03    -26.9652E-03     47.9614E-03
             320     8.76061E-03     59.7088E-03    -12.2404E+06    -79.3799E+06    -237.084E+03     480.273E+03    -27.6620E-03     54.7510E-03    -27.0890E-03     53.5417E-03    -27.6320E-03     54.3964E-03    -26.9573E-03     53.4922E-03
             321     9.63680E-03     59.7622E-03    -11.3036E+06    -75.0087E+06    -1.95360E+06     731.055E+03    -27.8054E-03     54.8700E-03    -27.0646E-03     59.0812E-03    -27.7859E-03     54.5498E-03    -26.9493E-03     59.0197E-03
             322     10.5129E-03     59.8210E-03    -10.8490E+06    -66.8161E+06    -5.30075E+06     853.092E+03    -27.9666E-03     54.9950E-03    -27.0284E-03     64.5422E-03    -27.9690E-03     54.7371E-03    -26.9423E-03     64.4626E-03
             323     11.3891E-03     59.8847E-03    -10.4406E+06    -50.1966E+06    -4.53960E+06     1.17097E+06    -28.0784E-03     55.0776E-03    -26.9992E-03     71.0881E-03    -28.1309E-03     54.9279E-03    -26.9340E-03     70.9882E-03
             324     12.2655E-03     59.9560E-03    -9.65156E+06    -31.9704E+06    -3.63773E+06     1.49582E+06    -28.2594E-03     55.2251E-03    -26.9657E-03     77.7448E-03    -28.3742E-03     55.2026E-03    -26.9235E-03     77.6218E-03
             325     13.1414E-03     60.0327E-03    -9.35633E+06    -20.3137E+06    -10.0746E+06     604.933E+03    -28.3913E-03     55.3019E-03    -26.9106E-03     79.5964E-03    -28.5715E-03     55.4060E-03    -26.9179E-03     79.4259E-03
             326     14.0180E-03     60.1072E-03    -10.0655E+06     3.36974E+06    -19.1494E+06     1.17299E+06    -29.0702E-03     55.9010E-03    -26.8309E-03     97.1449E-03    -29.4747E-03     56.3374E-03    -26.9169E-03     96.9231E-03
             327     14.8941E-03     60.2178E-03    -11.2920E+06     54.8343E+06    -22.1939E+06     2.10517E+06    -35.6527E-03     62.3907E-03    -26.7380E-03     188.613E-03    -37.6523E-03     64.6092E-03    -26.9121E-03     188.330E-03
             328     15.7704E-03     60.4701E-03    -9.74756E+06     128.275E+06     25.8204E+06     1.00887E+06    -48.6573E-03     75.5332E-03    -26.8760E-03     335.653E-03    -59.6762E-03     86.8981E-03    -26.9187E-03     336.888E-03
             329     16.6457E-03     60.8737E-03    -5.16367E+06     172.140E+06     92.7592E+06     68.2283E+03    -46.4625E-03     73.6034E-03    -27.1409E-03     362.599E-03    -64.6151E-03     92.0798E-03    -26.9192E-03     372.390E-03
             330     875.942E-06     60.4622E-03    -23.0671E+06    -113.295E+06    -22.7585E+06     162.609E+03    -27.0553E-03     54.1200E-03    -27.0647E-03     5.41363E-03    -26.9733E-03     53.6203E-03    -26.9808E-03     5.41328E-03
             331     1.75213E-03     60.4695E-03    -22.5240E+06    -112.211E+06    -21.1300E+06     165.112E+03    -27.0830E-03     54.1454E-03    -27.0624E-03     10.2304E-03    -27.0027E-03     53.6480E-03    -26.9726E-03     10.2276E-03
             332     2.62813E-03     60.4815E-03    -21.7859E+06    -110.965E+06    -18.6875E+06    -17.7626E+03    -27.1268E-03     54.2002E-03    -27.0734E-03     15.4639E-03    -27.0486E-03     53.7049E-03    -26.9744E-03     15.4559E-03
             333     3.50420E-03     60.4986E-03    -20.6914E+06    -107.853E+06    -15.7536E+06    -62.6544E+03    -27.1683E-03     54.2521E-03    -27.0838E-03     20.7759E-03    -27.0942E-03     53.7673E-03    -26.9762E-03     20.7639E-03
             334     4.38021E-03     60.5208E-03    -19.4943E+06    -104.468E+06    -12.0912E+06     140.017E+03    -27.2245E-03     54.3201E-03    -27.0956E-03     26.0988E-03    -27.1559E-03     53.8465E-03    -26.9763E-03     26.0855E-03
             335     5.25628E-03     60.5481E-03    -17.8995E+06    -99.8245E+06    -7.86745E+06     100.532E+03    -27.2793E-03     54.3850E-03    -27.1057E-03     31.5073E-03    -27.2173E-03     53.9279E-03    -26.9744E-03     31.4886E-03
             336     6.13236E-03     60.5805E-03    -16.0854E+06    -95.4317E+06    -4.10487E+06     261.750E+03    -27.3508E-03     54.4619E-03    -27.1110E-03     36.9913E-03    -27.2942E-03     54.0213E-03    -26.9699E-03     36.9685E-03
             337     7.00845E-03     60.6182E-03    -14.4944E+06    -91.4852E+06    -1.97381E+06     529.384E+03    -27.4501E-03     54.5583E-03    -27.1081E-03     42.4863E-03    -27.3981E-03     54.1358E-03    -26.9643E-03     42.4592E-03
             338     7.88454E-03     60.6612E-03    -13.2220E+06    -84.9874E+06    -992.553E+03     517.048E+03    -27.5551E-03     54.6511E-03    -27.0960E-03     47.9883E-03    -27.5130E-03     54.2632E-03    -26.9585E-03     47.9515E-03
             339     8.76069E-03     60.7093E-03    -12.1267E+06    -79.7101E+06    -469.108E+03     559.374E+03    -27.6745E-03     54.7575E-03    -27.0830E-03     53.5242E-03    -27.6431E-03     54.4014E-03    -26.9522E-03     53.4758E-03
             340     9.63677E-03     60.7628E-03    -11.1045E+06    -75.3174E+06    -2.21926E+06     738.679E+03    -27.8180E-03     54.8779E-03    -27.0599E-03     59.0523E-03    -27.7968E-03     54.5563E-03    -26.9457E-03     58.9908E-03
             341     10.5130E-03     60.8215E-03    -10.2828E+06    -66.9843E+06    -5.33224E+06     863.487E+03    -27.9802E-03     55.0056E-03    -27.0254E-03     64.5052E-03    -27.9795E-03     54.7461E-03    -26.9400E-03     64.4258E-03
             342     11.3891E-03     60.8854E-03    -9.62293E+06    -50.6688E+06    -4.58108E+06     1.02326E+06    -28.1900E-03     55.1910E-03    -27.0010E-03     70.9669E-03    -28.2377E-03     55.0379E-03    -26.9364E-03     70.8645E-03
             343     12.2650E-03     60.9564E-03    -9.17158E+06    -32.5087E+06    -3.51095E+06     1.27857E+06    -28.3174E-03     55.2923E-03    -26.9749E-03     77.6201E-03    -28.4291E-03     55.2663E-03    -26.9320E-03     77.4938E-03
             344     13.1416E-03     61.0334E-03    -9.57151E+06    -19.3578E+06    -8.39733E+06     1.57453E+06    -28.4014E-03     55.3296E-03    -26.9282E-03     79.6995E-03    -28.5860E-03     55.4359E-03    -26.9282E-03     79.5417E-03
             345     14.0169E-03     61.1081E-03    -9.92608E+06     1.63582E+06    -18.4733E+06     1.58105E+06    -29.1879E-03     56.0380E-03    -26.8501E-03     97.1528E-03    -29.5910E-03     56.4652E-03    -26.9305E-03     96.9347E-03
             346     14.8927E-03     61.2183E-03    -8.78377E+06     53.9058E+06    -21.6544E+06     1.44243E+06    -35.4660E-03     62.2158E-03    -26.7498E-03     188.347E-03    -37.4451E-03     64.4179E-03    -26.9235E-03     188.060E-03
             347     15.7703E-03     61.4690E-03    -8.17229E+06     130.596E+06     27.1274E+06     642.881E+03    -48.0073E-03     74.8632E-03    -26.8559E-03     337.521E-03    -59.0973E-03     86.3091E-03    -26.8977E-03     338.837E-03
             348     16.6449E-03     61.8794E-03    -5.57889E+06     172.606E+06     92.9119E+06     41.4189E+03    -46.4611E-03     73.5525E-03    -27.0913E-03     362.499E-03    -64.5377E-03     91.9526E-03    -26.8690E-03     372.275E-03
             349     876.115E-06     61.4626E-03    -23.0569E+06    -113.460E+06    -22.8844E+06    -18.1251E+03    -26.9692E-03     54.0396E-03    -27.0704E-03     5.45641E-03    -26.8868E-03     53.5393E-03    -26.9869E-03     5.45366E-03
             350     1.75216E-03     61.4699E-03    -22.5275E+06    -112.481E+06    -21.2821E+06     117.661E+03    -27.0573E-03     54.0818E-03    -27.0245E-03     10.2961E-03    -26.9764E-03     53.5833E-03    -26.9351E-03     10.2927E-03
             351     2.62828E-03     61.4820E-03    -21.5447E+06    -110.598E+06    -18.1560E+06     75.8887E+03    -27.1273E-03     54.1728E-03    -27.0455E-03     15.4314E-03    -27.0492E-03     53.6782E-03    -26.9447E-03     15.4246E-03
             352     3.50426E-03     61.4991E-03    -20.3886E+06    -108.091E+06    -14.3342E+06     65.4670E+03    -27.1794E-03     54.2497E-03    -27.0703E-03     20.7450E-03    -27.1055E-03     53.7613E-03    -26.9556E-03     20.7347E-03
             353     4.38031E-03     61.5214E-03    -18.8482E+06    -104.695E+06    -10.9236E+06     222.291E+03    -27.2253E-03     54.3109E-03    -27.0857E-03     26.0824E-03    -27.1547E-03     53.8335E-03    -26.9612E-03     26.0701E-03
             354     5.25636E-03     61.5486E-03    -17.4155E+06    -99.6702E+06    -7.80184E+06     224.237E+03    -27.2819E-03     54.3745E-03    -27.0925E-03     31.4964E-03    -27.2179E-03     53.9174E-03    -26.9618E-03     31.4793E-03
             355     6.13242E-03     61.5811E-03    -16.0588E+06    -95.9285E+06    -4.39988E+06     335.258E+03    -27.3609E-03     54.4610E-03    -27.1001E-03     36.9817E-03    -27.3030E-03     54.0183E-03    -26.9597E-03     36.9599E-03
             356     7.00850E-03     61.6188E-03    -14.4658E+06    -91.6552E+06    -2.19041E+06     529.314E+03    -27.4549E-03     54.5542E-03    -27.0993E-03     42.4842E-03    -27.4022E-03     54.1311E-03    -26.9563E-03     42.4573E-03
             357     7.88462E-03     61.6617E-03    -12.9000E+06    -85.0432E+06    -1.11787E+06     595.561E+03    -27.5610E-03     54.6493E-03    -27.0883E-03     47.9813E-03    -27.5170E-03     54.2608E-03    -26.9519E-03     47.9455E-03
             358     8.76070E-03     61.7099E-03    -11.6129E+06    -79.8678E+06    -447.015E+03     623.915E+03    -27.6895E-03     54.7669E-03    -27.0774E-03     53.5190E-03    -27.6553E-03     54.4092E-03    -26.9470E-03     53.4714E-03
             359     9.63685E-03     61.7633E-03    -10.6345E+06    -75.5411E+06    -2.31979E+06     648.707E+03    -27.8471E-03     54.9031E-03    -27.0560E-03     59.0617E-03    -27.8230E-03     54.5799E-03    -26.9427E-03     58.9989E-03
             360     10.5129E-03     61.8220E-03    -9.98216E+06    -67.1491E+06     -5.3829E+06     678.071E+03    -28.0183E-03     55.0430E-03    -27.0247E-03     64.5543E-03    -28.0157E-03     54.7822E-03    -26.9398E-03     64.4724E-03
             361     11.3890E-03     61.8860E-03    -9.56352E+06    -51.1107E+06    -4.61963E+06     923.453E+03    -28.2076E-03     55.2105E-03    -27.0028E-03     71.1526E-03    -28.2543E-03     55.0551E-03    -26.9380E-03     71.0492E-03
             362     12.2651E-03     61.9573E-03    -9.24051E+06    -33.0788E+06    -4.13938E+06     1.40371E+06    -28.3760E-03     55.3523E-03    -26.9762E-03     77.7755E-03    -28.4868E-03     55.3248E-03    -26.9356E-03     77.6504E-03
             363     13.1410E-03     62.0334E-03    -8.30157E+06    -19.6071E+06    -8.85771E+06     1.47452E+06    -28.4044E-03     55.3331E-03    -26.9287E-03     80.1700E-03    -28.5817E-03     55.4371E-03    -26.9325E-03     80.0114E-03
             364     14.0176E-03     62.1098E-03    -7.42149E+06     2.63986E+06    -17.7078E+06     699.549E+03    -28.9597E-03     55.8042E-03    -26.8445E-03     97.5078E-03    -29.3513E-03     56.2302E-03    -26.9261E-03     97.2825E-03
             365     14.8941E-03     62.2183E-03    -8.23623E+06     54.7039E+06    -21.5315E+06     871.112E+03    -35.6168E-03     62.3563E-03    -26.7395E-03     188.788E-03    -37.6161E-03     64.5830E-03    -26.9145E-03     188.489E-03
             366     15.7695E-03     62.4701E-03    -8.25550E+06     130.604E+06     28.1776E+06     1.68310E+06    -47.2414E-03     74.0760E-03    -26.8346E-03     337.384E-03    -58.2078E-03     85.3950E-03    -26.8711E-03     338.809E-03
             367     16.6511E-03     62.8785E-03    -5.52490E+06     173.042E+06     94.3305E+06     740.060E+03    -46.3921E-03     73.4391E-03    -27.0470E-03     363.333E-03    -64.4597E-03     91.8280E-03    -26.8183E-03     373.167E-03
             368     876.144E-06     62.4629E-03    -23.2217E+06    -113.601E+06    -22.7585E+06     43.5394E+03    -26.9835E-03     53.9724E-03    -26.9889E-03     5.44699E-03    -26.9019E-03     53.4715E-03    -26.9043E-03     5.44504E-03
             369     1.75226E-03     62.4704E-03    -22.6739E+06    -112.466E+06    -21.0493E+06     4.37155E+03    -27.0716E-03     54.0735E-03    -27.0019E-03     10.3021E-03    -26.9917E-03     53.5749E-03    -26.9112E-03     10.2972E-03
             370     2.62821E-03     62.4825E-03    -21.7193E+06    -110.763E+06    -18.2630E+06     125.374E+03    -27.1224E-03     54.1551E-03    -27.0327E-03     15.4488E-03    -27.0448E-03     53.6602E-03    -26.9319E-03     15.4426E-03
             371     3.50429E-03     62.4997E-03    -20.4678E+06    -108.154E+06    -14.4560E+06     246.861E+03    -27.1637E-03     54.2217E-03    -27.0580E-03     20.7418E-03    -27.0899E-03     53.7333E-03    -26.9438E-03     20.7339E-03
             372     4.38033E-03     62.5219E-03    -19.0435E+06    -104.846E+06    -11.1011E+06     185.823E+03    -27.2117E-03     54.2847E-03    -27.0729E-03     26.0837E-03    -27.1417E-03     53.8070E-03    -26.9488E-03     26.0710E-03
             373     5.25641E-03     62.5491E-03    -17.4489E+06    -99.8907E+06    -8.14444E+06     418.245E+03    -27.2825E-03     54.3622E-03    -27.0797E-03     31.5032E-03    -27.2178E-03     53.9045E-03    -26.9503E-03     31.4886E-03
             374     6.13248E-03     62.5816E-03    -15.9286E+06    -96.0896E+06    -4.60678E+06     534.190E+03    -27.3651E-03     54.4546E-03    -27.0895E-03     36.9785E-03    -27.3060E-03     54.0112E-03    -26.9501E-03     36.9593E-03
             375     7.00856E-03     62.6193E-03    -14.3944E+06    -91.7105E+06    -2.31547E+06     387.792E+03    -27.4557E-03     54.5460E-03    -27.0904E-03     42.4868E-03    -27.4023E-03     54.1227E-03    -26.9481E-03     42.4580E-03
             376     7.88464E-03     62.6623E-03    -12.8344E+06    -85.2511E+06    -1.41991E+06     397.237E+03    -27.5617E-03     54.6414E-03    -27.0797E-03     48.0002E-03    -27.5166E-03     54.2522E-03    -26.9445E-03     47.9619E-03
             377     8.76078E-03     62.7104E-03    -11.5049E+06    -80.0531E+06    -571.382E+03     563.508E+03    -27.6958E-03     54.7663E-03    -27.0705E-03     53.5478E-03    -27.6606E-03     54.4077E-03    -26.9406E-03     53.4995E-03
             378     9.63685E-03     62.7639E-03    -10.4921E+06    -75.5318E+06    -2.30186E+06     578.927E+03    -27.8641E-03     54.9150E-03    -27.0509E-03     59.1157E-03    -27.8393E-03     54.5915E-03    -26.9377E-03     59.0521E-03
             379     10.5130E-03     62.8226E-03    -9.89279E+06    -67.4106E+06    -5.47488E+06     644.238E+03    -28.0176E-03     55.0380E-03    -27.0204E-03     64.6393E-03    -28.0140E-03     54.7759E-03    -26.9357E-03     64.5570E-03
             380     11.3891E-03     62.8866E-03    -9.41949E+06    -51.4529E+06    -4.69423E+06     760.224E+03    -28.1329E-03     55.1287E-03    -26.9958E-03     71.2409E-03    -28.1779E-03     54.9712E-03    -26.9310E-03     71.1359E-03
             381     12.2654E-03     62.9577E-03    -8.44942E+06    -33.8044E+06    -4.27126E+06     1.03529E+06    -28.3708E-03     55.3362E-03    -26.9654E-03     77.9996E-03    -28.4765E-03     55.3043E-03    -26.9255E-03     77.8698E-03
             382     13.1415E-03     63.0345E-03    -8.63952E+06    -19.3242E+06    -8.89685E+06     1.13405E+06    -28.3714E-03     55.2888E-03    -26.9175E-03     80.2570E-03    -28.5513E-03     55.3953E-03    -26.9214E-03     80.0939E-03
             383     14.0174E-03     63.1096E-03    -10.1004E+06     4.16085E+06    -17.3011E+06     466.788E+03    -28.9404E-03     55.7775E-03    -26.8371E-03     97.1784E-03    -29.3467E-03     56.2128E-03    -26.9150E-03     96.9505E-03
             384     14.8941E-03     63.2187E-03    -10.6884E+06     53.8664E+06    -23.4479E+06     529.205E+03    -35.7067E-03     62.4358E-03    -26.7290E-03     188.234E-03    -37.7143E-03     64.6646E-03    -26.9089E-03     187.932E-03
             385     15.7706E-03     63.4718E-03    -9.18367E+06     128.681E+06     25.5679E+06     1.29913E+06    -47.4414E-03     74.2878E-03    -26.8464E-03     333.950E-03    -58.2713E-03     85.4677E-03    -26.8918E-03     335.317E-03
             386     16.6462E-03     63.8717E-03    -5.08542E+06     173.993E+06     94.8029E+06     1.15065E+06    -46.1951E-03     73.2837E-03    -27.0886E-03     363.625E-03    -64.3912E-03     91.8046E-03    -26.8595E-03     373.526E-03
             387     876.145E-06     63.4633E-03    -23.2619E+06    -113.753E+06    -22.9115E+06     92.4269E+03    -26.9861E-03     53.9839E-03    -26.9978E-03     5.50317E-03    -26.9043E-03     53.4825E-03    -26.9137E-03     5.50182E-03
             388     1.75215E-03     63.4708E-03    -22.7978E+06    -112.486E+06    -21.0571E+06     191.636E+03    -27.0507E-03     54.0532E-03    -27.0026E-03     10.3392E-03    -26.9714E-03     53.5548E-03    -26.9117E-03     10.3367E-03
             389     2.62832E-03     63.4830E-03    -22.1170E+06    -111.129E+06    -18.6146E+06     299.710E+03    -27.1020E-03     54.1272E-03    -27.0251E-03     15.4986E-03    -27.0253E-03     53.6314E-03    -26.9250E-03     15.4947E-03
             390     3.50432E-03     63.5002E-03    -21.0696E+06    -108.181E+06    -16.0596E+06     342.369E+03    -27.1469E-03     54.1880E-03    -27.0410E-03     20.7402E-03    -27.0738E-03     53.7026E-03    -26.9339E-03     20.7335E-03
             391     4.38042E-03     63.5223E-03    -19.7406E+06    -104.769E+06    -12.4932E+06     235.386E+03    -27.2028E-03     54.2593E-03    -27.0565E-03     26.0938E-03    -27.1344E-03     53.7851E-03    -26.9384E-03     26.0817E-03
             392     5.25647E-03     63.5497E-03    -18.1208E+06    -100.291E+06    -8.53951E+06     206.273E+03    -27.2762E-03     54.3459E-03    -27.0697E-03     31.5030E-03    -27.2137E-03     53.8878E-03    -26.9407E-03     31.4857E-03
             393     6.13254E-03     63.5821E-03    -16.0821E+06    -96.1316E+06    -4.88309E+06     308.623E+03    -27.3557E-03     54.4349E-03    -27.0793E-03     36.9770E-03    -27.2969E-03     53.9919E-03    -26.9410E-03     36.9550E-03
             394     7.00861E-03     63.6199E-03    -14.2722E+06    -91.6615E+06    -2.32902E+06     312.421E+03    -27.4508E-03     54.5320E-03    -27.0812E-03     42.4914E-03    -27.3969E-03     54.1087E-03    -26.9392E-03     42.4617E-03
             395     7.88475E-03     63.6627E-03    -12.8824E+06    -85.3910E+06    -1.18889E+06     281.556E+03    -27.5603E-03     54.6331E-03    -27.0728E-03     48.0089E-03    -27.5155E-03     54.2429E-03    -26.9362E-03     47.9692E-03
             396     8.76084E-03     63.7110E-03    -11.5883E+06    -80.3582E+06    -352.892E+03     418.882E+03    -27.7032E-03     54.7682E-03    -27.0649E-03     53.5623E-03    -27.6683E-03     54.4079E-03    -26.9334E-03     53.5121E-03
             397     9.63698E-03     63.7644E-03    -10.5414E+06    -75.4637E+06    -1.89406E+06     482.014E+03    -27.8716E-03     54.9188E-03    -27.0471E-03     59.1227E-03    -27.8478E-03     54.5951E-03    -26.9319E-03     59.0579E-03
             398     10.5130E-03     63.8232E-03    -9.82692E+06    -67.7235E+06    -5.06852E+06     518.667E+03    -28.0115E-03     55.0292E-03    -27.0177E-03     64.5659E-03    -28.0077E-03     54.7648E-03    -26.9306E-03     64.4821E-03
             399     11.3892E-03     63.8870E-03    -9.20639E+06    -51.5019E+06    -4.10661E+06     536.574E+03    -28.1326E-03     55.1265E-03    -26.9939E-03     71.0412E-03    -28.1774E-03     54.9678E-03    -26.9264E-03     70.9330E-03
             400     12.2654E-03     63.9583E-03    -8.97714E+06    -34.3893E+06    -4.00826E+06     614.851E+03    -28.3290E-03     55.2921E-03    -26.9631E-03     77.9146E-03    -28.4367E-03     55.2575E-03    -26.9202E-03     77.7796E-03
             401     13.1415E-03     64.0352E-03    -8.47508E+06    -19.8367E+06    -8.60899E+06     1.49590E+06    -28.3686E-03     55.2823E-03    -26.9136E-03     79.8497E-03    -28.5469E-03     55.3850E-03    -26.9156E-03     79.6912E-03
             402     14.0181E-03     64.1100E-03    -8.83957E+06     4.63004E+06    -16.4778E+06     1.88785E+06    -29.2204E-03     56.0622E-03    -26.8418E-03     97.1712E-03    -29.6234E-03     56.4980E-03    -26.9181E-03     96.9576E-03
             403     14.8930E-03     64.2203E-03    -10.6933E+06     53.1819E+06    -23.9835E+06     388.438E+03    -35.8362E-03     62.5790E-03    -26.7428E-03     188.226E-03    -37.8314E-03     64.7946E-03    -26.9243E-03     187.922E-03
             404     15.7690E-03     64.4707E-03    -10.0911E+06     128.285E+06     23.8854E+06     76.3712E+03    -48.1995E-03     75.0774E-03    -26.8779E-03     334.420E-03    -59.1559E-03     86.3842E-03    -26.9299E-03     335.707E-03
             405     16.6445E-03     64.8749E-03    -5.99229E+06     174.659E+06     93.9512E+06     649.236E+03    -46.2386E-03     73.3776E-03    -27.1389E-03     364.424E-03    -64.5785E-03     92.0438E-03    -26.9137E-03     374.400E-03
             406     876.052E-06     64.4638E-03    -23.5054E+06    -113.841E+06    -23.1321E+06     107.993E+03    -26.9731E-03     54.0032E-03    -27.0301E-03     5.58651E-03    -26.8920E-03     53.5020E-03    -26.9466E-03     5.58530E-03
             407     1.75227E-03     64.4711E-03    -22.9344E+06    -112.936E+06    -21.7244E+06     220.682E+03    -27.0322E-03     54.0366E-03    -27.0044E-03     10.3834E-03    -26.9520E-03     53.5371E-03    -26.9160E-03     10.3812E-03
             408     2.62825E-03     64.4835E-03    -22.0061E+06    -111.434E+06    -19.0761E+06     488.347E+03    -27.0905E-03     54.1102E-03    -27.0198E-03     15.5117E-03    -27.0121E-03     53.6135E-03    -26.9217E-03     15.5101E-03
             409     3.50437E-03     64.5006E-03    -20.9182E+06    -108.095E+06    -15.9984E+06     369.391E+03    -27.1344E-03     54.1695E-03    -27.0351E-03     20.7202E-03    -27.0607E-03     53.6843E-03    -26.9281E-03     20.7139E-03
             410     4.38041E-03     64.5228E-03    -19.4667E+06    -104.598E+06    -12.3903E+06     129.111E+03    -27.1939E-03     54.2432E-03    -27.0493E-03     26.1080E-03    -27.1245E-03     53.7693E-03    -26.9314E-03     26.0946E-03
             411     5.25648E-03     64.5502E-03    -17.8195E+06    -100.399E+06    -8.36276E+06     44.4156E+03    -27.2663E-03     54.3289E-03    -27.0626E-03     31.5157E-03    -27.2023E-03     53.8695E-03    -26.9330E-03     31.4963E-03
             412     6.13258E-03     64.5826E-03    -16.2595E+06    -96.2182E+06    -4.66057E+06     37.7199E+03    -27.3479E-03     54.4208E-03    -27.0729E-03     36.9739E-03    -27.2902E-03     53.9773E-03    -26.9331E-03     36.9483E-03
             413     7.00871E-03     64.6204E-03    -14.5188E+06    -91.7677E+06    -2.04718E+06     127.891E+03    -27.4510E-03     54.5268E-03    -27.0759E-03     42.4722E-03    -27.3985E-03     54.1030E-03    -26.9320E-03     42.4401E-03
             414     7.88477E-03     64.6633E-03    -12.9545E+06    -85.5411E+06    -735.786E+03     323.963E+03    -27.5780E-03     54.6481E-03    -27.0701E-03     47.9674E-03    -27.5340E-03     54.2566E-03    -26.9310E-03     47.9283E-03
             415     8.76091E-03     64.7115E-03    -11.7114E+06    -80.4003E+06    -95.3056E+03     288.306E+03    -27.7226E-03     54.7864E-03    -27.0638E-03     53.5060E-03    -27.6886E-03     54.4257E-03    -26.9307E-03     53.4541E-03
             416     9.63693E-03     64.7650E-03    -10.6332E+06    -75.6714E+06    -1.84555E+06     336.926E+03    -27.8785E-03     54.9253E-03    -27.0468E-03     59.0508E-03    -27.8549E-03     54.6007E-03    -26.9309E-03     58.9841E-03
             417     10.5131E-03     64.8238E-03    -9.89801E+06    -67.7058E+06    -4.81005E+06     387.172E+03    -28.0374E-03     55.0572E-03    -27.0198E-03     64.4783E-03    -28.0344E-03     54.7927E-03    -26.9313E-03     64.3926E-03
             418     11.3890E-03     64.8876E-03     -9.5243E+06    -51.7429E+06    -4.24842E+06     455.917E+03    -28.2138E-03     55.2129E-03    -26.9991E-03     70.9420E-03    -28.2599E-03     55.0538E-03    -26.9315E-03     70.8322E-03
             419     12.2652E-03     64.9587E-03    -9.05734E+06    -34.5377E+06    -3.92485E+06     653.518E+03    -28.3645E-03     55.3376E-03    -26.9732E-03     77.7623E-03    -28.4726E-03     55.3024E-03    -26.9296E-03     77.6274E-03
             420     13.1415E-03     65.0358E-03    -8.70367E+06    -21.2692E+06    -10.0745E+06     938.451E+03    -28.4599E-03     55.3818E-03    -26.9219E-03     79.7662E-03    -28.6354E-03     55.4801E-03    -26.9288E-03     79.5996E-03
             421     14.0170E-03     65.1107E-03    -8.30843E+06     3.77373E+06    -14.4311E+06     2.00268E+06    -29.1309E-03     55.9959E-03    -26.8650E-03     97.2184E-03    -29.5355E-03     56.4263E-03    -26.9306E-03     97.0060E-03
             422     14.8938E-03     65.2216E-03    -8.12149E+06     54.2468E+06    -20.5507E+06     1.61401E+06    -35.4813E-03     62.2335E-03    -26.7523E-03     188.493E-03    -37.4601E-03     64.4358E-03    -26.9219E-03     188.210E-03
             423     15.7702E-03     65.4715E-03    -7.55340E+06     129.295E+06     23.6113E+06     218.264E+03    -48.5469E-03     75.4058E-03    -26.8589E-03     336.369E-03    -59.6378E-03     86.8604E-03    -26.9173E-03     337.623E-03
             424     16.6465E-03     65.8784E-03    -5.05197E+06     175.521E+06     94.1943E+06     886.578E+03    -46.3826E-03     73.5171E-03    -27.1346E-03     362.293E-03    -64.5635E-03     92.0301E-03    -26.9108E-03     372.145E-03
             425     876.124E-06     65.4641E-03    -23.6113E+06    -113.978E+06    -23.4054E+06     61.4420E+03    -27.0159E-03     54.0381E-03    -27.0222E-03     5.46732E-03    -26.9347E-03     53.5368E-03    -26.9398E-03     5.46557E-03
             426     1.75214E-03     65.4715E-03    -23.1573E+06    -113.175E+06    -22.0128E+06     90.7899E+03    -27.0185E-03     54.0339E-03    -27.0154E-03     10.3957E-03    -26.9387E-03     53.5339E-03    -26.9277E-03     10.3919E-03
             427     2.62830E-03     65.4839E-03    -22.1153E+06    -111.805E+06    -19.5113E+06     155.776E+03    -27.0673E-03     54.0868E-03    -27.0195E-03     15.5489E-03    -26.9883E-03     53.5890E-03    -26.9229E-03     15.5431E-03
             428     3.50435E-03     65.5011E-03    -20.6197E+06    -107.974E+06    -15.8758E+06     223.105E+03    -27.1299E-03     54.1617E-03    -27.0318E-03     20.7611E-03    -27.0551E-03     53.6764E-03    -26.9247E-03     20.7528E-03
             429     4.38045E-03     65.5233E-03    -19.3216E+06    -104.478E+06    -12.1346E+06     137.237E+03    -27.1869E-03     54.2332E-03    -27.0462E-03     26.1032E-03    -27.1173E-03     53.7593E-03    -26.9274E-03     26.0899E-03
             430     5.25656E-03     65.5506E-03    -18.0449E+06    -100.444E+06    -8.32031E+06     110.909E+03    -27.2583E-03     54.3170E-03    -27.0587E-03     31.5105E-03    -27.1955E-03     53.8577E-03    -26.9285E-03     31.4919E-03
             431     6.13263E-03     65.5832E-03    -16.4112E+06    -96.1690E+06    -4.33112E+06     80.2039E+03    -27.3592E-03     54.4304E-03    -27.0712E-03     36.9375E-03    -27.3028E-03     53.9868E-03    -26.9296E-03     36.9125E-03
             432     7.00868E-03     65.6208E-03    -14.8983E+06    -91.9534E+06    -2.08854E+06     79.4985E+03    -27.4704E-03     54.5460E-03    -27.0756E-03     42.4228E-03    -27.4194E-03     54.1218E-03    -26.9311E-03     42.3901E-03
             433     7.88480E-03     65.6639E-03    -13.3463E+06    -85.6971E+06    -1.23835E+06     131.571E+03    -27.6005E-03     54.6708E-03    -27.0702E-03     47.9364E-03    -27.5575E-03     54.2797E-03    -26.9328E-03     47.8947E-03
             434     8.76078E-03     65.7120E-03    -11.8480E+06    -80.3584E+06    -447.862E+03     167.922E+03    -27.7346E-03     54.8003E-03    -27.0658E-03     53.4697E-03    -27.7008E-03     54.4405E-03    -26.9343E-03     53.4163E-03
             435     9.63693E-03     65.7656E-03    -10.7769E+06    -75.8727E+06    -2.31582E+06     217.896E+03    -27.8805E-03     54.9295E-03    -27.0489E-03     59.0426E-03    -27.8567E-03     54.6047E-03    -26.9349E-03     58.9743E-03
             436     10.5129E-03     65.8243E-03    -10.0780E+06    -67.6947E+06    -5.39621E+06     234.293E+03    -28.0458E-03     55.0669E-03    -27.0211E-03     64.5182E-03    -28.0429E-03     54.8036E-03    -26.9353E-03     64.4304E-03
             437     11.3891E-03     65.8883E-03    -9.33751E+06    -51.8943E+06    -4.72235E+06     252.670E+03    -28.2471E-03     55.2487E-03    -27.0016E-03     71.0860E-03    -28.2914E-03     55.0894E-03    -26.9364E-03     70.9735E-03
             438     12.2650E-03     65.9595E-03    -8.39416E+06    -34.7420E+06    -4.32234E+06     212.000E+03    -28.4375E-03     55.4158E-03    -26.9783E-03     77.9030E-03    -28.5421E-03     55.3798E-03    -26.9374E-03     77.7617E-03
             439     13.1410E-03     66.0362E-03    -8.01685E+06    -22.5210E+06    -11.1486E+06     909.615E+03    -28.4248E-03     55.3496E-03    -26.9247E-03     80.2779E-03    -28.5937E-03     55.4424E-03    -26.9362E-03     80.1117E-03
             440     14.0172E-03     66.1122E-03    -8.25639E+06     3.39809E+06    -14.8046E+06     1.13155E+06    -28.8434E-03     55.7028E-03    -26.8594E-03     97.6138E-03    -29.2465E-03     56.1316E-03    -26.9264E-03     97.3947E-03
             441     14.8935E-03     66.2207E-03    -7.90231E+06     56.2500E+06    -19.3666E+06     853.598E+03    -35.4186E-03     62.1591E-03    -26.7405E-03     188.390E-03    -37.4080E-03     64.3763E-03    -26.9074E-03     188.094E-03
             442     15.7710E-03     66.4722E-03    -8.08166E+06     127.874E+06     22.1268E+06     1.57077E+06    -48.2496E-03     75.0733E-03    -26.8238E-03     337.724E-03    -59.3505E-03     86.5353E-03    -26.8868E-03     339.035E-03
             443     16.6440E-03     66.8826E-03    -5.13853E+06     175.316E+06     93.4183E+06     1.72151E+06    -46.4696E-03     73.5540E-03    -27.0844E-03     362.303E-03    -64.5129E-03     91.9306E-03    -26.8640E-03     372.082E-03
             444     875.986E-06     66.4644E-03    -23.8529E+06    -114.239E+06    -23.4706E+06     12.4422E+03    -27.0112E-03     54.0337E-03    -27.0225E-03     5.50280E-03    -26.9308E-03     53.5315E-03    -26.9396E-03     5.50039E-03
             445     1.75217E-03     66.4720E-03    -23.3096E+06    -113.159E+06    -21.8213E+06     141.423E+03    -27.0357E-03     54.0541E-03    -27.0184E-03     10.4384E-03    -26.9569E-03     53.5542E-03    -26.9296E-03     10.4352E-03
             446     2.62828E-03     66.4842E-03    -22.6199E+06    -111.881E+06    -19.4016E+06     20.0349E+03    -27.0583E-03     54.0834E-03    -27.0251E-03     15.5526E-03    -26.9819E-03     53.5858E-03    -26.9271E-03     15.5450E-03
             447     3.50441E-03     66.5016E-03    -21.7325E+06    -108.075E+06    -17.3198E+06     17.8556E+03    -27.1237E-03     54.1519E-03    -27.0282E-03     20.7668E-03    -27.0522E-03     53.6698E-03    -26.9266E-03     20.7559E-03
             448     4.38043E-03     66.5238E-03    -20.2463E+06    -104.385E+06    -13.3415E+06     10.0448E+03    -27.1977E-03     54.2415E-03    -27.0439E-03     26.0618E-03    -27.1311E-03     53.7712E-03    -26.9298E-03     26.0469E-03
             449     5.25651E-03     66.5512E-03    -18.3245E+06    -100.557E+06    -8.55189E+06     31.9857E+03    -27.2696E-03     54.3320E-03    -27.0625E-03     31.4712E-03    -27.2076E-03     53.8729E-03    -26.9328E-03     31.4517E-03
             450     6.13259E-03     66.5837E-03    -16.6561E+06    -96.2011E+06    -4.90023E+06     150.281E+03    -27.3692E-03     54.4433E-03    -27.0742E-03     36.9030E-03    -27.3130E-03     54.0008E-03    -26.9350E-03     36.8790E-03
             451     7.00866E-03     66.6214E-03    -15.0288E+06    -91.9548E+06    -2.41428E+06     143.707E+03    -27.4874E-03     54.5682E-03    -27.0807E-03     42.3915E-03    -27.4367E-03     54.1446E-03    -26.9377E-03     42.3597E-03
             452     7.88467E-03     66.6644E-03    -13.5580E+06    -85.5890E+06    -1.55763E+06    -47.0151E+03    -27.5933E-03     54.6686E-03    -27.0753E-03     47.9400E-03    -27.5511E-03     54.2789E-03    -26.9393E-03     47.8960E-03
             453     8.76081E-03     66.7127E-03    -12.2246E+06    -80.5093E+06    -902.258E+03    -75.9804E+03    -27.7217E-03     54.7908E-03    -27.0692E-03     53.4924E-03    -27.6889E-03     54.4315E-03    -26.9392E-03     53.4358E-03
             454     9.63684E-03     66.7661E-03    -11.0109E+06    -75.9750E+06    -2.40219E+06     23.5748E+03    -27.8756E-03     54.9282E-03    -27.0527E-03     59.0709E-03    -27.8526E-03     54.6034E-03    -26.9385E-03     59.0001E-03
             455     10.5130E-03     66.8250E-03    -10.1793E+06    -67.6207E+06    -5.30381E+06    -15.4949E+03    -28.0258E-03     55.0497E-03    -27.0239E-03     64.5792E-03    -28.0236E-03     54.7867E-03    -26.9376E-03     64.4884E-03
             456     11.3890E-03     66.8889E-03    -9.64310E+06    -51.9860E+06    -4.44101E+06    -92.7660E+03    -28.1972E-03     55.2002E-03    -27.0029E-03     71.1892E-03    -28.2434E-03     55.0404E-03    -26.9358E-03     71.0725E-03
             457     12.2652E-03     66.9602E-03    -9.31683E+06    -34.7868E+06    -3.87696E+06    -89.4360E+03    -28.3829E-03     55.3604E-03    -26.9775E-03     78.0563E-03    -28.4928E-03     55.3249E-03    -26.9329E-03     77.9114E-03
             458     13.1413E-03     67.0370E-03     -8.8096E+06    -23.7158E+06    -11.1351E+06     119.120E+03    -28.3004E-03     55.2181E-03    -26.9177E-03     80.2629E-03    -28.4713E-03     55.3058E-03    -26.9262E-03     80.0874E-03
             459     14.0179E-03     67.1121E-03    -8.40123E+06     3.59521E+06    -13.7613E+06     932.547E+03    -28.8380E-03     55.6900E-03    -26.8520E-03     97.1214E-03    -29.2419E-03     56.1167E-03    -26.9138E-03     96.8998E-03
             460     14.8948E-03     67.2215E-03    -10.7384E+06     56.4479E+06    -18.2902E+06     1.68073E+06    -35.3249E-03     62.0602E-03    -26.7353E-03     188.528E-03    -37.3405E-03     64.2911E-03    -26.8931E-03     188.250E-03
             461     15.7685E-03     67.4737E-03    -11.8117E+06     126.888E+06     22.9175E+06     1.36193E+06    -47.4013E-03     74.1934E-03    -26.7922E-03     338.459E-03    -58.4976E-03     85.6318E-03    -26.8444E-03     339.878E-03
             462     16.6525E-03     67.8807E-03    -6.78165E+06     175.793E+06     93.8911E+06     311.059E+03    -46.9304E-03     73.9624E-03    -27.0321E-03     363.197E-03    -65.0366E-03     92.3964E-03    -26.8077E-03     372.913E-03
             463     876.273E-06     67.4649E-03    -23.9909E+06    -114.421E+06    -23.6021E+06     69.4165E+03    -27.0064E-03     54.0015E-03    -26.9951E-03     5.58174E-03    -26.9262E-03     53.4988E-03    -26.9124E-03     5.58001E-03
             464     1.75218E-03     67.4724E-03    -23.4422E+06    -113.367E+06    -21.8943E+06     168.392E+03    -27.0689E-03     54.0815E-03    -27.0125E-03     10.4061E-03    -26.9904E-03     53.5808E-03    -26.9236E-03     10.4033E-03
             465     2.62823E-03     67.4847E-03    -22.4964E+06    -111.732E+06    -19.1447E+06     237.637E+03    -27.0950E-03     54.1295E-03    -27.0345E-03     15.5533E-03    -27.0186E-03     53.6321E-03    -26.9356E-03     15.5485E-03
             466     3.50429E-03     67.5020E-03    -21.4008E+06    -108.177E+06    -16.0811E+06     143.308E+03    -27.1372E-03     54.1845E-03    -27.0473E-03     20.7598E-03    -27.0657E-03     53.6997E-03    -26.9398E-03     20.7505E-03
             467     4.38041E-03     67.5243E-03    -20.4099E+06    -104.189E+06    -13.5613E+06     26.9948E+03    -27.2047E-03     54.2602E-03    -27.0555E-03     26.0427E-03    -27.1388E-03     53.7914E-03    -26.9427E-03     26.0279E-03
             468     5.25643E-03     67.5516E-03    -19.2223E+06    -100.547E+06    -9.98694E+06    -175.318E+03    -27.2759E-03     54.3445E-03    -27.0687E-03     31.4623E-03    -27.2164E-03     53.8888E-03    -26.9449E-03     31.4401E-03
             469     6.13251E-03     67.5842E-03    -17.2651E+06    -96.4202E+06    -5.61219E+06    -121.571E+03    -27.3621E-03     54.4445E-03    -27.0824E-03     36.9453E-03    -27.3077E-03     54.0028E-03    -26.9456E-03     36.9177E-03
             470     7.00854E-03     67.6220E-03    -15.2002E+06    -91.8011E+06    -2.68075E+06    -106.207E+03    -27.4768E-03     54.5644E-03    -27.0877E-03     42.4352E-03    -27.4267E-03     54.1423E-03    -26.9459E-03     42.4001E-03
             471     7.88467E-03     67.6650E-03    -13.5927E+06    -85.6561E+06    -1.40583E+06    -2.11134E+03    -27.5817E-03     54.6640E-03    -27.0823E-03     47.9457E-03    -27.5398E-03     54.2738E-03    -26.9454E-03     47.9023E-03
             472     8.76073E-03     67.7132E-03    -12.4265E+06    -80.2862E+06    -839.127E+03    -120.795E+03    -27.7079E-03     54.7816E-03    -27.0737E-03     53.5121E-03    -27.6766E-03     54.4236E-03    -26.9435E-03     53.4550E-03
             473     9.63687E-03     67.7667E-03    -11.5057E+06    -76.2094E+06    -2.76181E+06    -214.939E+03    -27.8723E-03     54.9274E-03    -27.0551E-03     59.0632E-03    -27.8509E-03     54.6026E-03    -26.9417E-03     58.9893E-03
             474     10.5129E-03     67.8255E-03    -10.9468E+06    -67.5434E+06    -5.66309E+06    -94.0682E+03    -28.0057E-03     55.0310E-03    -27.0253E-03     64.5421E-03    -28.0069E-03     54.7700E-03    -26.9398E-03     64.4504E-03
             475     11.3891E-03     67.8895E-03    -10.7312E+06    -52.0007E+06    -4.82231E+06    -50.3413E+03    -28.1564E-03     55.1592E-03    -27.0028E-03     71.1447E-03    -28.2073E-03     55.0014E-03    -26.9360E-03     71.0287E-03
             476     12.2652E-03     67.9607E-03    -10.6216E+06    -34.8874E+06    -4.56155E+06     63.8184E+03    -28.2979E-03     55.2704E-03    -26.9725E-03     77.8761E-03    -28.4126E-03     55.2367E-03    -26.9293E-03     77.7339E-03
             477     13.1416E-03     68.0375E-03    -11.0168E+06    -23.4734E+06    -12.1103E+06    -101.834E+03    -28.2338E-03     55.1423E-03    -26.9085E-03     79.9227E-03    -28.4142E-03     55.2354E-03    -26.9190E-03     79.7446E-03
             478     14.0174E-03     68.1125E-03    -11.6404E+06     892.524E+03    -16.3856E+06     858.216E+03    -28.8426E-03     55.6816E-03    -26.8390E-03     97.4342E-03    -29.2541E-03     56.1025E-03    -26.9054E-03     97.2118E-03
             479     14.8927E-03     68.2223E-03    -10.4865E+06     54.2013E+06    -20.2044E+06     2.30496E+06    -35.0379E-03     61.7530E-03    -26.7151E-03     187.948E-03    -37.0322E-03     63.9610E-03    -26.8795E-03     187.691E-03
             480     15.7746E-03     68.4717E-03    -8.24782E+06     130.026E+06     26.7476E+06     2.00203E+06    -47.7624E-03     74.5637E-03    -26.8014E-03     336.217E-03    -58.7690E-03     85.9250E-03    -26.8442E-03     337.574E-03
             481     16.6449E-03     68.8818E-03    -5.73063E+06     177.867E+06     96.9945E+06     317.026E+03    -47.2591E-03     74.3307E-03    -27.0716E-03     363.207E-03    -65.4500E-03     92.8515E-03    -26.8363E-03     372.974E-03
             482     875.954E-06     68.4653E-03    -24.0610E+06    -114.518E+06    -23.7279E+06     72.8664E+03    -27.0387E-03     54.0304E-03    -26.9917E-03     5.65526E-03    -26.9586E-03     53.5275E-03    -26.9094E-03     5.65349E-03
             483     1.75218E-03     68.4728E-03    -23.5340E+06    -113.577E+06    -22.1323E+06     104.478E+03    -27.0783E-03     54.1036E-03    -27.0253E-03     10.4116E-03    -26.9995E-03     53.6023E-03    -26.9371E-03     10.4079E-03
             484     2.62823E-03     68.4852E-03    -22.5499E+06    -111.894E+06    -19.2945E+06     192.062E+03    -27.1184E-03     54.1665E-03    -27.0481E-03     15.5496E-03    -27.0418E-03     53.6686E-03    -26.9496E-03     15.5442E-03
             485     3.50426E-03     68.5025E-03    -21.1384E+06    -107.983E+06    -15.8445E+06     150.954E+03    -27.1556E-03     54.2191E-03    -27.0635E-03     20.8041E-03    -27.0834E-03     53.7345E-03    -26.9555E-03     20.7949E-03
             486     4.38026E-03     68.5248E-03    -19.4895E+06    -104.283E+06    -12.1398E+06     143.203E+03    -27.2116E-03     54.2878E-03    -27.0762E-03     26.0902E-03    -27.1431E-03     53.8151E-03    -26.9574E-03     26.0769E-03
             487     5.25638E-03     68.5522E-03    -18.1072E+06    -100.378E+06    -8.69094E+06     218.854E+03    -27.2709E-03     54.3561E-03    -27.0852E-03     31.4762E-03    -27.2079E-03     53.8977E-03    -26.9568E-03     31.4590E-03
             488     6.13243E-03     68.5847E-03    -17.1114E+06    -96.2213E+06    -5.75892E+06    -151.528E+03    -27.3514E-03     54.4413E-03    -27.0899E-03     36.9936E-03    -27.2964E-03     54.0006E-03    -26.9543E-03     36.9655E-03
             489     7.00858E-03     68.6226E-03    -15.8681E+06    -91.9032E+06    -3.36817E+06    -213.691E+03    -27.4608E-03     54.5521E-03    -27.0913E-03     42.4715E-03    -27.4130E-03     54.1314E-03    -26.9518E-03     42.4350E-03
             490     7.88460E-03     68.6655E-03    -14.2839E+06    -85.6250E+06    -2.07308E+06    -264.329E+03    -27.5862E-03     54.6709E-03    -27.0847E-03     47.9500E-03    -27.5468E-03     54.2828E-03    -26.9502E-03     47.9031E-03
             491     8.76072E-03     68.7137E-03    -12.7014E+06    -80.2489E+06    -1.35966E+06    -202.711E+03    -27.7221E-03     54.7989E-03    -27.0768E-03     53.4998E-03    -27.6914E-03     54.4422E-03    -26.9489E-03     53.4415E-03
             492     9.63678E-03     68.7673E-03    -11.6934E+06    -76.1414E+06    -3.22503E+06    -180.110E+03    -27.8702E-03     54.9288E-03    -27.0586E-03     59.0297E-03    -27.8492E-03     54.6054E-03    -26.9473E-03     58.9562E-03
             493     10.5129E-03     68.8261E-03    -11.0555E+06    -67.7744E+06    -6.53120E+06    -157.496E+03    -28.0093E-03     55.0360E-03    -27.0268E-03     64.4794E-03    -28.0094E-03     54.7753E-03    -26.9451E-03     64.3867E-03
             494     11.3889E-03     68.8899E-03    -10.3552E+06    -51.9811E+06    -5.50048E+06    -53.8490E+03    -28.1292E-03     55.1320E-03    -27.0029E-03     71.0971E-03    -28.1771E-03     54.9746E-03    -26.9400E-03     70.9814E-03
             495     12.2652E-03     68.9614E-03    -9.47105E+06    -34.8678E+06    -4.93693E+06    -59.2400E+03    -28.2822E-03     55.2530E-03    -26.9708E-03     77.8686E-03    -28.3903E-03     55.2181E-03    -26.9312E-03     77.7251E-03
             496     13.1413E-03     69.0378E-03    -9.14680E+06    -24.2476E+06    -12.8659E+06     673.212E+03    -28.1573E-03     55.0588E-03    -26.9015E-03     79.7333E-03    -28.3258E-03     55.1461E-03    -26.9174E-03     79.5659E-03
             497     14.0182E-03     69.1129E-03    -9.93501E+06     -99.567E+03    -20.2661E+06     840.860E+03    -28.6253E-03     55.4328E-03    -26.8075E-03     97.2882E-03    -29.0177E-03     55.8483E-03    -26.8943E-03     97.0693E-03
             498     14.8961E-03     69.2225E-03    -11.0509E+06     54.0013E+06    -21.9456E+06     518.164E+03    -36.0733E-03     62.7950E-03    -26.7217E-03     187.416E-03    -38.0830E-03     65.0207E-03    -26.8937E-03     187.097E-03
             499     15.7667E-03     69.4715E-03    -9.98784E+06     129.454E+06     27.3750E+06     1.00568E+06    -48.7738E-03     75.6625E-03    -26.8888E-03     334.477E-03    -59.7684E-03     87.0019E-03    -26.9251E-03     335.742E-03
             500     16.6476E-03     69.8831E-03    -5.26230E+06     178.440E+06     96.9862E+06     955.776E+03    -46.2032E-03     73.3583E-03    -27.1551E-03     364.149E-03    -64.4770E-03     91.9656E-03    -26.9212E-03     374.086E-03
             501     876.212E-06     69.4657E-03    -24.1999E+06    -114.662E+06    -23.8646E+06     77.2427E+03    -27.0481E-03     54.1005E-03    -27.0524E-03     5.66297E-03    -26.9682E-03     53.5972E-03    -26.9703E-03     5.66128E-03
             502     1.75211E-03     69.4733E-03    -23.6730E+06    -113.634E+06    -22.1853E+06     54.7765E+03    -27.0823E-03     54.1367E-03    -27.0544E-03     10.4256E-03    -27.0041E-03     53.6354E-03    -26.9663E-03     10.4212E-03
             503     2.62812E-03     69.4857E-03    -22.7351E+06    -112.112E+06    -19.5816E+06     122.853E+03    -27.1038E-03     54.1687E-03    -27.0648E-03     15.5562E-03    -27.0274E-03     53.6704E-03    -26.9672E-03     15.5499E-03
             504     3.50421E-03     69.5029E-03    -21.7133E+06    -107.851E+06    -16.8570E+06     110.665E+03    -27.1479E-03     54.2171E-03    -27.0693E-03     20.8542E-03    -27.0773E-03     53.7355E-03    -26.9657E-03     20.8443E-03
             505     4.38031E-03     69.5254E-03    -20.5078E+06    -104.361E+06    -13.2001E+06    -4.85418E+03    -27.2153E-03     54.2957E-03    -27.0804E-03     26.1415E-03    -27.1503E-03     53.8257E-03    -26.9654E-03     26.1262E-03
             506     5.25630E-03     69.5526E-03    -18.6319E+06    -100.533E+06    -9.03178E+06     85.9489E+03    -27.2859E-03     54.3789E-03    -27.0930E-03     31.4904E-03    -27.2249E-03     53.9210E-03    -26.9653E-03     31.4715E-03
             507     6.13245E-03     69.5853E-03    -16.6045E+06    -95.7953E+06    -5.36795E+06     174.642E+03    -27.3632E-03     54.4630E-03    -27.0998E-03     36.9591E-03    -27.3068E-03     54.0231E-03    -26.9636E-03     36.9352E-03
             508     7.00846E-03     69.6231E-03    -15.0345E+06    -91.9310E+06    -3.03658E+06    -98.3047E+03    -27.4628E-03     54.5634E-03    -27.1006E-03     42.4252E-03    -27.4113E-03     54.1410E-03    -26.9607E-03     42.3902E-03
             509     7.88462E-03     69.6661E-03    -13.7682E+06    -85.2709E+06    -1.99492E+06    -306.577E+03    -27.5922E-03     54.6841E-03    -27.0919E-03     47.9277E-03    -27.5509E-03     54.2969E-03    -26.9582E-03     47.8803E-03
             510     8.76061E-03     69.7143E-03    -12.6427E+06    -80.4939E+06    -1.42975E+06    -415.158E+03    -27.7391E-03     54.8242E-03    -27.0851E-03     53.4678E-03    -27.7078E-03     54.4663E-03    -26.9572E-03     53.4066E-03
             511     9.63670E-03     69.7679E-03    -11.5159E+06    -76.1078E+06    -3.17412E+06    -237.746E+03    -27.8727E-03     54.9397E-03    -27.0670E-03     58.9897E-03    -27.8510E-03     54.6161E-03    -26.9558E-03     58.9155E-03
             512     10.5128E-03     69.8266E-03    -10.7853E+06    -67.7261E+06    -6.10960E+06    -284.382E+03    -28.0072E-03     55.0435E-03    -27.0363E-03     64.4586E-03    -28.0067E-03     54.7820E-03    -26.9530E-03     64.3642E-03
             513     11.3889E-03     69.8906E-03    -10.4168E+06    -52.1503E+06    -5.13240E+06    -316.114E+03    -28.1227E-03     55.1349E-03    -27.0122E-03     70.9713E-03    -28.1713E-03     54.9762E-03    -26.9471E-03     70.8520E-03
             514     12.2653E-03     69.9616E-03    -10.2673E+06    -34.9971E+06    -3.79453E+06    -86.8230E+03    -28.2426E-03     55.2261E-03    -26.9835E-03     77.7666E-03    -28.3563E-03     55.1901E-03    -26.9368E-03     77.6228E-03
             515     13.1415E-03     70.0387E-03    -9.90190E+06    -24.8551E+06    -11.2439E+06    -90.7871E+03    -28.2850E-03     55.2057E-03    -26.9207E-03     79.2732E-03    -28.4592E-03     55.2891E-03    -26.9265E-03     79.0942E-03
             516     14.0177E-03     70.1122E-03    -9.50791E+06    -623.847E+03    -18.2605E+06     882.884E+03    -29.0374E-03     55.8829E-03    -26.8455E-03     96.1724E-03    -29.4341E-03     56.2966E-03    -26.9221E-03     95.9464E-03
             517     14.8928E-03     70.2231E-03    -11.0299E+06     54.2665E+06    -18.8867E+06     1.54433E+06    -36.2268E-03     63.0012E-03    -26.7744E-03     188.939E-03    -38.2492E-03     65.2318E-03    -26.9315E-03     188.630E-03
             518     15.7692E-03     70.4784E-03    -10.8007E+06     130.191E+06     29.7176E+06     309.986E+03    -48.3850E-03     75.3010E-03    -26.9160E-03     336.777E-03    -59.4381E-03     86.6917E-03    -26.9405E-03     338.111E-03
             519     16.6420E-03     70.8758E-03    -6.44544E+06     177.837E+06     96.4562E+06    -261.865E+03    -46.1968E-03     73.3440E-03    -27.1472E-03     366.145E-03    -64.6690E-03     92.1449E-03    -26.9134E-03     376.170E-03
             520     875.874E-06     70.4662E-03    -24.3673E+06    -114.770E+06    -23.9905E+06     61.3565E+03    -27.0664E-03     54.1635E-03    -27.0971E-03     5.69432E-03    -26.9871E-03     53.6602E-03    -27.0153E-03     5.69243E-03
             521     1.75202E-03     70.4739E-03    -23.7514E+06    -113.659E+06    -22.2699E+06     60.6613E+03    -27.0765E-03     54.1550E-03    -27.0785E-03     10.4632E-03    -26.9986E-03     53.6538E-03    -26.9906E-03     10.4589E-03
             522     2.62816E-03     70.4861E-03    -22.8448E+06    -112.252E+06    -19.7166E+06     87.9647E+03    -27.1154E-03     54.1960E-03    -27.0806E-03     15.5668E-03    -27.0392E-03     53.6974E-03    -26.9833E-03     15.5600E-03
             523     3.50420E-03     70.5036E-03    -21.6520E+06    -107.859E+06    -16.9091E+06     132.155E+03    -27.1588E-03     54.2426E-03    -27.0838E-03     20.8099E-03    -27.0879E-03     53.7609E-03    -26.9806E-03     20.8003E-03
             524     4.38023E-03     70.5258E-03    -20.2922E+06    -104.235E+06    -13.2329E+06     54.7563E+03    -27.2151E-03     54.3079E-03    -27.0928E-03     26.0798E-03    -27.1491E-03     53.8383E-03    -26.9784E-03     26.0653E-03
             525     5.25633E-03     70.5533E-03    -18.9175E+06    -100.501E+06    -9.21558E+06    -194.050E+03    -27.3017E-03     54.4063E-03    -27.1046E-03     31.4602E-03    -27.2419E-03     53.9492E-03    -26.9775E-03     31.4376E-03
             526     6.13225E-03     70.5858E-03    -17.1424E+06    -95.8518E+06    -5.81864E+06    -255.166E+03    -27.3824E-03     54.4941E-03    -27.1116E-03     36.9335E-03    -27.3280E-03     54.0554E-03    -26.9769E-03     36.9040E-03
             527     7.00841E-03     70.6237E-03    -15.1245E+06    -91.5644E+06    -3.16118E+06    -258.621E+03    -27.4754E-03     54.5888E-03    -27.1134E-03     42.4189E-03    -27.4247E-03     54.1685E-03    -26.9745E-03     42.3817E-03
             528     7.88441E-03     70.6666E-03    -13.4747E+06    -85.3282E+06    -1.86368E+06    -296.127E+03    -27.5930E-03     54.6982E-03    -27.1052E-03     47.9212E-03    -27.5503E-03     54.3102E-03    -26.9713E-03     47.8738E-03
             529     8.76056E-03     70.7150E-03    -12.2802E+06    -80.2676E+06    -1.07256E+06    -273.014E+03    -27.7286E-03     54.8258E-03    -27.0972E-03     53.4547E-03    -27.6963E-03     54.4681E-03    -26.9684E-03     53.3953E-03
             530     9.63659E-03     70.7684E-03    -11.5545E+06    -76.4566E+06    -3.20599E+06    -285.246E+03    -27.8853E-03     54.9629E-03    -27.0776E-03     58.9593E-03    -27.8632E-03     54.6377E-03    -26.9661E-03     58.8843E-03
             531     10.5127E-03     70.8272E-03    -11.3394E+06    -67.5666E+06    -6.14238E+06    -47.8778E+03    -28.0099E-03     55.0568E-03    -27.0469E-03     64.4012E-03    -28.0124E-03     54.7970E-03    -26.9632E-03     64.3098E-03
             532     11.3888E-03     70.8911E-03    -11.5762E+06    -52.3559E+06    -5.36915E+06     141.219E+03    -28.1738E-03     55.1988E-03    -27.0250E-03     70.8704E-03    -28.2278E-03     55.0413E-03    -26.9591E-03     70.7566E-03
             533     12.2648E-03     70.9622E-03    -11.8045E+06    -35.2797E+06    -5.10212E+06     274.905E+03    -28.3110E-03     55.3069E-03    -26.9958E-03     77.5031E-03    -28.4301E-03     55.2736E-03    -26.9531E-03     77.3633E-03
             534     13.1412E-03     71.0388E-03    -12.0408E+06    -23.8971E+06    -12.0751E+06    -196.749E+03    -28.4664E-03     55.4088E-03    -26.9424E-03     79.4132E-03    -28.6514E-03     55.5012E-03    -26.9506E-03     79.2320E-03
             535     14.0165E-03     71.1140E-03    -12.2318E+06    -3.47962E+06    -21.3180E+06     266.797E+03    -29.4001E-03     56.2770E-03    -26.8769E-03     96.9974E-03    -29.8083E-03     56.6913E-03    -26.9607E-03     96.7586E-03
             536     14.8925E-03     71.2238E-03    -10.0316E+06     53.0182E+06    -21.6218E+06     1.42936E+06    -35.4346E-03     62.2185E-03    -26.7839E-03     189.313E-03    -37.4191E-03     64.4183E-03    -26.9543E-03     189.029E-03
             537     15.7713E-03     71.4767E-03    -7.68213E+06     132.176E+06     30.8298E+06     749.635E+03    -47.2894E-03     74.1739E-03    -26.8844E-03     335.940E-03    -58.1997E-03     85.4365E-03    -26.9108E-03     337.310E-03
             538     16.6516E-03     71.8843E-03    -5.74629E+06     178.733E+06     97.6294E+06    -68.8167E+03    -46.6189E-03     73.7311E-03    -27.1122E-03     364.060E-03    -64.9284E-03     92.3715E-03    -26.8749E-03     373.988E-03
             539     876.110E-06     71.4668E-03    -24.3166E+06    -114.691E+06    -24.0412E+06    -17.9793E+03    -27.0879E-03     54.1725E-03    -27.0846E-03     5.69307E-03    -27.0083E-03     53.6695E-03    -27.0032E-03     5.69013E-03
             540     1.75212E-03     71.4743E-03    -23.7877E+06    -113.789E+06    -22.4797E+06     21.1485E+03    -27.1090E-03     54.1967E-03    -27.0878E-03     10.4670E-03    -27.0307E-03     53.6953E-03    -27.0007E-03     10.4622E-03
             541     2.62805E-03     71.4868E-03    -22.9235E+06    -112.263E+06    -19.8078E+06     22.2968E+03    -27.1516E-03     54.2504E-03    -27.0989E-03     15.5699E-03    -27.0756E-03     53.7520E-03    -27.0019E-03     15.5623E-03
             542     3.50404E-03     71.5040E-03    -21.6805E+06    -107.856E+06    -16.9775E+06    -49.7217E+03    -27.1809E-03     54.2861E-03    -27.1051E-03     20.8136E-03    -27.1100E-03     53.8045E-03    -27.0022E-03     20.8017E-03
             543     4.38011E-03     71.5265E-03    -20.2165E+06    -104.223E+06    -13.2428E+06    -12.1839E+03    -27.2234E-03     54.3364E-03    -27.1130E-03     26.1053E-03    -27.1570E-03     53.8667E-03    -26.9988E-03     26.0899E-03
             544     5.25612E-03     71.5538E-03    -18.6139E+06    -100.204E+06      -9.154E+06    -61.2487E+03    -27.2947E-03     54.4157E-03    -27.1210E-03     31.4899E-03    -27.2339E-03     53.9596E-03    -26.9945E-03     31.4690E-03
             545     6.13229E-03     71.5865E-03    -17.1588E+06    -95.6519E+06    -5.90652E+06    -390.953E+03    -27.3865E-03     54.5116E-03    -27.1251E-03     36.9383E-03    -27.3323E-03     54.0740E-03    -26.9910E-03     36.9070E-03
             546     7.00824E-03     71.6242E-03    -15.6797E+06    -91.4492E+06    -3.69442E+06    -590.244E+03    -27.4878E-03     54.6126E-03    -27.1248E-03     42.4513E-03    -27.4393E-03     54.1945E-03    -26.9880E-03     42.4098E-03
             547     7.88437E-03     71.6673E-03    -14.0864E+06    -85.3604E+06    -2.50634E+06    -546.245E+03    -27.5960E-03     54.7120E-03    -27.1160E-03     47.9583E-03    -27.5555E-03     54.3257E-03    -26.9843E-03     47.9076E-03
             548     8.76039E-03     71.7155E-03    -12.6699E+06    -80.4430E+06    -1.70080E+06    -337.496E+03    -27.7238E-03     54.8304E-03    -27.1066E-03     53.4705E-03    -27.6923E-03     54.4733E-03    -26.9801E-03     53.4103E-03
             549     9.63653E-03     71.7692E-03    -11.5778E+06    -76.3957E+06    -3.59809E+06    -186.269E+03    -27.8856E-03     54.9716E-03    -27.0860E-03     58.9792E-03    -27.8632E-03     54.6474E-03    -26.9765E-03     58.9055E-03
             550     10.5125E-03     71.8277E-03    -10.8336E+06    -68.1920E+06    -7.02298E+06     69.6984E+03    -28.0323E-03     55.0852E-03    -27.0529E-03     64.4030E-03    -28.0301E-03     54.8228E-03    -26.9734E-03     64.3130E-03
             551     11.3887E-03     71.8917E-03    -10.1830E+06    -52.5982E+06    -5.77987E+06     632.424E+03    -28.2040E-03     55.2359E-03    -27.0319E-03     71.0217E-03    -28.2499E-03     55.0757E-03    -26.9698E-03     70.9144E-03
             552     12.2647E-03     71.9629E-03    -9.68602E+06    -35.2224E+06    -5.32016E+06     709.469E+03    -28.4493E-03     55.4555E-03    -27.0062E-03     77.7022E-03    -28.5577E-03     55.4200E-03    -26.9677E-03     77.5675E-03
             553     13.1406E-03     72.0394E-03    -9.90683E+06    -23.7779E+06    -12.3348E+06     642.450E+03    -28.3686E-03     55.3200E-03    -26.9514E-03     79.8760E-03    -28.5425E-03     55.4101E-03    -26.9643E-03     79.7068E-03
             554     14.0172E-03     72.1151E-03    -10.4317E+06    -2.42708E+06    -24.4131E+06    -671.126E+03    -29.1143E-03     55.9697E-03    -26.8555E-03     97.8776E-03    -29.5080E-03     56.3886E-03    -26.9589E-03     97.6323E-03
             555     14.8931E-03     72.2245E-03    -11.4654E+06     53.1009E+06    -25.2553E+06    -1.08275E+06    -35.9949E-03     62.7711E-03    -26.7763E-03     188.416E-03    -37.9958E-03     64.9932E-03    -26.9629E-03     188.085E-03
             556     15.7681E-03     72.4751E-03    -10.0867E+06     129.755E+06     28.6158E+06     81.0053E+03    -47.8848E-03     74.8170E-03    -26.9322E-03     334.222E-03    -58.7840E-03     86.0580E-03    -26.9627E-03     335.508E-03
             557     16.6419E-03     72.8803E-03    -4.32613E+06     178.425E+06     96.8324E+06     763.315E+03    -45.7709E-03     72.9283E-03    -27.1574E-03     363.647E-03    -63.9815E-03     91.4761E-03    -26.9257E-03     373.624E-03
             558     875.986E-06     72.4673E-03    -24.4615E+06    -114.723E+06    -24.0181E+06    -20.2398E+03    -27.1006E-03     54.2084E-03    -27.1078E-03     5.64129E-03    -27.0217E-03     53.7054E-03    -27.0260E-03     5.63831E-03
             559     1.75196E-03     72.4750E-03    -23.9448E+06    -113.776E+06    -22.5051E+06    -50.4347E+03    -27.1306E-03     54.2375E-03    -27.1069E-03     10.4444E-03    -27.0531E-03     53.7364E-03    -27.0197E-03     10.4387E-03
             560     2.62802E-03     72.4873E-03    -22.9452E+06    -112.192E+06    -19.8801E+06    -117.069E+03    -27.1545E-03     54.2704E-03    -27.1159E-03     15.6201E-03    -27.0786E-03     53.7724E-03    -27.0193E-03     15.6106E-03
             561     3.50407E-03     72.5047E-03    -21.6820E+06    -107.717E+06    -16.8901E+06    -199.252E+03    -27.1899E-03     54.3096E-03    -27.1197E-03     20.8567E-03    -27.1194E-03     53.8286E-03    -27.0165E-03     20.8428E-03
             562     4.38006E-03     72.5270E-03    -20.2294E+06    -104.302E+06    -13.4272E+06    -235.774E+03    -27.2381E-03     54.3640E-03    -27.1259E-03     26.1591E-03    -27.1715E-03     53.8942E-03    -27.0124E-03     26.1408E-03
             563     5.25615E-03     72.5545E-03    -18.5095E+06    -99.9836E+06    -9.49271E+06    -277.203E+03    -27.3039E-03     54.4359E-03    -27.1320E-03     31.5437E-03    -27.2424E-03     53.9813E-03    -27.0076E-03     31.5200E-03
             564     6.13210E-03     72.5870E-03    -16.5658E+06    -95.2710E+06    -5.62502E+06    -431.612E+03    -27.3915E-03     54.5286E-03    -27.1371E-03     36.9741E-03    -27.3353E-03     54.0917E-03    -27.0030E-03     36.9422E-03
             565     7.00824E-03     72.6249E-03    -14.8571E+06    -91.2287E+06    -3.30374E+06    -635.033E+03    -27.4936E-03     54.6296E-03    -27.1361E-03     42.4629E-03    -27.4418E-03     54.2108E-03    -26.9988E-03     42.4207E-03
             566     7.88425E-03     72.6678E-03    -13.4777E+06    -85.3797E+06    -2.48559E+06    -709.429E+03    -27.6017E-03     54.7268E-03    -27.1250E-03     47.9848E-03    -27.5581E-03     54.3394E-03    -26.9941E-03     47.9320E-03
             567     8.76035E-03     72.7162E-03    -12.1379E+06    -80.6907E+06    -1.79990E+06    -606.894E+03    -27.7268E-03     54.8414E-03    -27.1146E-03     53.5101E-03    -27.6922E-03     54.4825E-03    -26.9890E-03     53.4464E-03
             568     9.63638E-03     72.7696E-03    -10.8670E+06    -76.3619E+06    -3.57343E+06    -545.332E+03    -27.8684E-03     54.9605E-03    -27.0921E-03     59.0533E-03    -27.8425E-03     54.6353E-03    -26.9835E-03     58.9751E-03
             569     10.5126E-03     72.8286E-03    -9.87033E+06    -68.7696E+06    -6.94920E+06    -308.052E+03    -28.0359E-03     55.0938E-03    -27.0580E-03     64.4922E-03    -28.0281E-03     54.8271E-03    -26.9787E-03     64.3974E-03
             570     11.3886E-03     72.8921E-03    -8.85802E+06    -53.0917E+06    -5.46186E+06    -82.0577E+03    -28.2046E-03     55.2412E-03    -27.0367E-03     71.1036E-03    -28.2437E-03     55.0763E-03    -26.9741E-03     70.9870E-03
             571     12.2648E-03     72.9637E-03    -7.83815E+06    -35.9053E+06    -4.41005E+06     729.017E+03    -28.3854E-03     55.3953E-03    -27.0099E-03     77.9473E-03    -28.4849E-03     55.3523E-03    -26.9685E-03     77.8134E-03
             572     13.1408E-03     73.0404E-03    -7.62156E+06    -23.1119E+06    -9.97981E+06     848.528E+03    -28.3987E-03     55.3565E-03    -26.9578E-03     79.7211E-03    -28.5666E-03     55.4442E-03    -26.9631E-03     79.5533E-03
             573     14.0174E-03     73.1144E-03    -8.01800E+06     79.9895E+03    -21.1559E+06    -702.750E+03    -29.2376E-03     56.1062E-03    -26.8686E-03     97.5006E-03    -29.6276E-03     56.5294E-03    -26.9629E-03     97.2527E-03
             574     14.8933E-03     73.2270E-03    -10.2144E+06     53.3472E+06    -25.6997E+06    -1.68268E+06    -36.0367E-03     62.8162E-03    -26.7796E-03     188.764E-03    -38.0374E-03     65.0446E-03    -26.9706E-03     188.429E-03
             575     15.7677E-03     73.4776E-03    -9.86980E+06     128.192E+06     25.8420E+06    -71.7719E+03    -47.9521E-03     74.8727E-03    -26.9205E-03     336.347E-03    -58.9928E-03     86.2584E-03    -26.9629E-03     337.682E-03
             576     16.6468E-03     73.8817E-03    -5.31083E+06     177.781E+06     95.5158E+06     1.23768E+06    -46.0953E-03     73.2404E-03    -27.1450E-03     366.193E-03    -64.4828E-03     91.9631E-03    -26.9175E-03     376.203E-03
             577     875.976E-06     73.4681E-03    -24.6182E+06    -114.882E+06    -24.2316E+06     84.0206E+03    -27.1226E-03     54.2550E-03    -27.1324E-03     5.74952E-03    -27.0440E-03     53.7517E-03    -27.0513E-03     5.74783E-03
             578     1.75201E-03     73.4754E-03    -24.0281E+06    -113.568E+06    -22.3301E+06    -13.9008E+03    -27.1322E-03     54.2592E-03    -27.1270E-03     10.4536E-03    -27.0556E-03     53.7590E-03    -27.0391E-03     10.4483E-03
             579     2.62801E-03     73.4880E-03    -23.0592E+06    -111.900E+06    -19.7934E+06    -295.877E+03    -27.1562E-03     54.2857E-03    -27.1294E-03     15.6253E-03    -27.0815E-03     53.7892E-03    -27.0327E-03     15.6135E-03
             580     3.50398E-03     73.5052E-03    -21.6969E+06    -107.566E+06    -17.0217E+06    -460.554E+03    -27.1954E-03     54.3252E-03    -27.1298E-03     20.8356E-03    -27.1249E-03     53.8452E-03    -27.0275E-03     20.8184E-03
             581     4.38005E-03     73.5277E-03    -20.0308E+06    -104.085E+06    -13.2660E+06    -619.169E+03    -27.2466E-03     54.3828E-03    -27.1362E-03     26.1487E-03    -27.1795E-03     53.9136E-03    -27.0226E-03     26.1254E-03
             582     5.25602E-03     73.5550E-03    -18.2219E+06    -99.8983E+06    -9.71585E+06    -712.546E+03    -27.3100E-03     54.4498E-03    -27.1399E-03     31.5545E-03    -27.2468E-03     53.9956E-03    -27.0172E-03     31.5252E-03
             583     6.13215E-03     73.5877E-03    -16.5451E+06    -94.9974E+06    -6.33289E+06    -741.888E+03    -27.3910E-03     54.5324E-03    -27.1415E-03     37.0196E-03    -27.3341E-03     54.0979E-03    -27.0114E-03     36.9837E-03
             584     7.00811E-03     73.6254E-03    -14.8639E+06    -91.0033E+06    -3.62153E+06    -825.089E+03    -27.4948E-03     54.6362E-03    -27.1413E-03     42.4992E-03    -27.4430E-03     54.2190E-03    -27.0059E-03     42.4546E-03
             585     7.88422E-03     73.6686E-03    -13.1821E+06    -85.1441E+06    -2.54698E+06    -1.01084E+06    -27.5924E-03     54.7222E-03    -27.1298E-03     48.0192E-03    -27.5476E-03     54.3357E-03    -26.9999E-03     47.9625E-03
             586     8.76028E-03     73.7167E-03    -11.5308E+06    -80.7519E+06    -1.77724E+06    -1.13023E+06    -27.7147E-03     54.8324E-03    -27.1177E-03     53.5688E-03    -27.6769E-03     54.4722E-03    -26.9928E-03     53.4984E-03
             587     9.63644E-03     73.7704E-03    -10.2887E+06    -76.4722E+06    -3.32817E+06    -950.042E+03    -27.8683E-03     54.9635E-03    -27.0952E-03     59.0808E-03    -27.8397E-03     54.6366E-03    -26.9860E-03     58.9973E-03
             588     10.5125E-03     73.8289E-03    -9.55502E+06    -68.9959E+06    -6.44577E+06    -808.419E+03    -28.0425E-03     55.1052E-03    -27.0627E-03     64.5345E-03    -28.0336E-03     54.8361E-03    -26.9810E-03     64.4332E-03
             589     11.3886E-03     73.8931E-03    -9.05657E+06    -53.3193E+06    -5.52858E+06    -673.571E+03    -28.2153E-03     55.2550E-03    -27.0398E-03     71.0761E-03    -28.2551E-03     55.0895E-03    -26.9769E-03     70.9515E-03
             590     12.2646E-03     73.9640E-03    -8.17555E+06    -36.9612E+06    -4.93092E+06    -508.162E+03    -28.3278E-03     55.3385E-03    -27.0107E-03     77.7666E-03    -28.4264E-03     55.2911E-03    -26.9699E-03     77.6169E-03
             591     13.1413E-03     74.0410E-03    -6.56664E+06    -22.8745E+06    -9.74160E+06     274.658E+03    -28.6270E-03     55.5907E-03    -26.9637E-03     79.8309E-03    -28.7915E-03     55.6789E-03    -26.9698E-03     79.6537E-03
             592     14.0160E-03     74.1161E-03    -7.22189E+06     562.168E+03    -18.5145E+06     725.433E+03    -29.4135E-03     56.3121E-03    -26.8986E-03     97.6558E-03    -29.8069E-03     56.7355E-03    -26.9815E-03     97.4233E-03
             593     14.8917E-03     74.2270E-03    -8.19679E+06     52.5773E+06    -24.7377E+06     17.7803E+03    -35.1163E-03     61.8941E-03    -26.7778E-03     188.866E-03    -37.0760E-03     64.0831E-03    -26.9658E-03     188.576E-03
             594     15.7715E-03     74.4777E-03    -8.24336E+06     128.543E+06     23.8057E+06    -464.063E+03    -47.5646E-03     74.4349E-03    -26.8703E-03     335.334E-03    -58.5688E-03     85.7971E-03    -26.9257E-03     336.661E-03
             595     16.6478E-03     74.8826E-03    -6.60055E+06     177.773E+06     94.4723E+06     383.947E+03    -46.3635E-03     73.4863E-03    -27.1229E-03     362.396E-03    -64.5815E-03     92.0381E-03    -26.8987E-03     372.239E-03
             596     876.003E-06     74.4686E-03    -24.7307E+06    -114.778E+06    -24.4614E+06    -90.8825E+03    -27.1410E-03     54.2675E-03    -27.1266E-03     5.70614E-03    -27.0627E-03     53.7653E-03    -27.0466E-03     5.70225E-03
             597     1.75193E-03     74.4762E-03    -24.0309E+06    -113.570E+06    -22.6595E+06    -78.0177E+03    -27.1511E-03     54.2859E-03    -27.1347E-03     10.4509E-03    -27.0741E-03     53.7861E-03    -27.0485E-03     10.4448E-03
             598     2.62793E-03     74.4885E-03    -23.0824E+06    -111.251E+06    -19.8086E+06    -302.173E+03    -27.1719E-03     54.3127E-03    -27.1408E-03     15.6316E-03    -27.0981E-03     53.8195E-03    -27.0451E-03     15.6198E-03
             599     3.50397E-03     74.5059E-03    -21.9206E+06    -107.261E+06    -17.2670E+06    -749.906E+03    -27.1968E-03     54.3372E-03    -27.1403E-03     20.8562E-03    -27.1276E-03     53.8594E-03    -27.0394E-03     20.8352E-03
             600     4.37995E-03     74.5282E-03    -20.5906E+06    -103.673E+06    -14.3491E+06    -950.001E+03    -27.2450E-03     54.3858E-03    -27.1408E-03     26.1728E-03    -27.1797E-03     53.9210E-03    -27.0323E-03     26.1453E-03
             601     5.25604E-03     74.5557E-03    -19.0870E+06    -99.6591E+06    -10.6671E+06    -1.14262E+06    -27.3056E-03     54.4496E-03    -27.1440E-03     31.5713E-03    -27.2457E-03     53.9991E-03    -27.0252E-03     31.5364E-03
             602     6.13203E-03     74.5882E-03    -17.2163E+06    -94.8837E+06    -7.16226E+06    -1.16952E+06    -27.3799E-03     54.5242E-03    -27.1443E-03     37.0283E-03    -27.3253E-03     54.0924E-03    -27.0175E-03     36.9871E-03
             603     7.00817E-03     74.6262E-03    -15.1957E+06    -90.5184E+06    -4.21719E+06    -1.40419E+06    -27.4729E-03     54.6146E-03    -27.1417E-03     42.5265E-03    -27.4225E-03     54.2012E-03    -27.0095E-03     42.4744E-03
             604     7.88419E-03     74.6690E-03    -13.2666E+06    -84.8847E+06    -2.69135E+06    -1.65173E+06    -27.5823E-03     54.7125E-03    -27.1302E-03     48.0384E-03    -27.5381E-03     54.3277E-03    -27.0013E-03     47.9735E-03
             605     8.76035E-03     74.7174E-03    -11.7276E+06    -80.5903E+06    -1.88861E+06    -1.68145E+06    -27.7138E-03     54.8318E-03    -27.1180E-03     53.5833E-03    -27.6771E-03     54.4728E-03    -26.9935E-03     53.5058E-03
             606     9.63639E-03     74.7708E-03    -10.4959E+06    -76.9049E+06    -3.68510E+06    -1.39775E+06    -27.8876E-03     54.9834E-03    -27.0958E-03     59.0913E-03    -27.8590E-03     54.6552E-03    -26.9875E-03     59.0020E-03
             607     10.5125E-03     74.8297E-03    -9.70350E+06    -68.9356E+06    -6.46106E+06    -1.13557E+06    -28.0488E-03     55.1140E-03    -27.0652E-03     64.5636E-03    -28.0408E-03     54.8455E-03    -26.9835E-03     64.4580E-03
             608     11.3885E-03     74.8935E-03    -9.20228E+06    -53.6407E+06    -5.62385E+06    -898.357E+03    -28.2172E-03     55.2597E-03    -27.0425E-03     71.1157E-03    -28.2570E-03     55.0927E-03    -26.9795E-03     70.9885E-03
             609     12.2647E-03     74.9649E-03    -9.00873E+06    -36.5680E+06    -5.37299E+06    -984.897E+03    -28.4532E-03     55.4691E-03    -27.0160E-03     77.7721E-03    -28.5565E-03     55.4263E-03    -26.9767E-03     77.6151E-03
             610     13.1403E-03     75.0413E-03    -9.32911E+06    -24.6486E+06    -11.9310E+06    -842.313E+03    -28.4785E-03     55.4434E-03    -26.9649E-03     80.4606E-03    -28.6504E-03     55.5293E-03    -26.9753E-03     80.2711E-03
             611     14.0169E-03     75.1183E-03    -9.01308E+06     295.940E+03    -16.1353E+06     630.521E+03    -28.8478E-03     55.7436E-03    -26.8958E-03     98.1659E-03    -29.2489E-03     56.1606E-03    -26.9639E-03     97.9406E-03
             612     14.8938E-03     75.2263E-03    -8.91939E+06     54.7139E+06    -20.3415E+06     1.08583E+06    -35.2880E-03     62.0582E-03    -26.7702E-03     188.481E-03    -37.2727E-03     64.2645E-03    -26.9383E-03     188.192E-03
             613     15.7693E-03     75.4765E-03    -9.69607E+06     127.542E+06     21.2381E+06     222.550E+03    -48.5792E-03     75.4376E-03    -26.8584E-03     337.125E-03    -59.6343E-03     86.8494E-03    -26.9231E-03     338.361E-03
             614     16.6412E-03     75.8866E-03    -6.72807E+06     177.287E+06     92.2245E+06    -235.500E+03    -46.3866E-03     73.5073E-03    -27.1207E-03     362.838E-03    -64.5177E-03     91.9765E-03    -26.9069E-03     372.706E-03
             615     875.927E-06     75.4693E-03    -25.0066E+06    -114.420E+06    -24.6615E+06    -203.352E+03    -27.1339E-03     54.2851E-03    -27.1513E-03     5.62969E-03    -27.0572E-03     53.7854E-03    -27.0724E-03     5.62440E-03
             616     1.75199E-03     75.4768E-03    -24.4501E+06    -113.509E+06    -23.2252E+06    -328.070E+03    -27.1539E-03     54.2953E-03    -27.1414E-03     10.4865E-03    -27.0783E-03     53.7972E-03    -27.0575E-03     10.4772E-03
             617     2.62794E-03     75.4892E-03    -23.3901E+06    -110.675E+06    -20.9745E+06    -508.085E+03    -27.1755E-03     54.3173E-03    -27.1418E-03     15.6266E-03    -27.1024E-03     53.8292E-03    -27.0523E-03     15.6120E-03
             618     3.50392E-03     75.5065E-03    -22.0856E+06    -106.424E+06    -17.9013E+06    -1.01534E+06    -27.1934E-03     54.3353E-03    -27.1419E-03     20.8846E-03    -27.1253E-03     53.8629E-03    -27.0451E-03     20.8602E-03
             619     4.37997E-03     75.5289E-03    -20.6372E+06    -103.588E+06    -14.2207E+06    -1.16035E+06    -27.2455E-03     54.3912E-03    -27.1457E-03     26.2012E-03    -27.1808E-03     53.9267E-03    -27.0367E-03     26.1710E-03
             620     5.25597E-03     75.5563E-03    -19.1431E+06    -98.9404E+06    -10.5043E+06    -1.29157E+06    -27.3105E-03     54.4584E-03    -27.1480E-03     31.6020E-03    -27.2522E-03     54.0114E-03    -27.0293E-03     31.5652E-03
             621     6.13204E-03     75.5890E-03    -17.3143E+06    -94.3991E+06    -7.10954E+06    -1.93003E+06    -27.3766E-03     54.5244E-03    -27.1478E-03     37.0441E-03    -27.3233E-03     54.0951E-03    -27.0214E-03     36.9930E-03
             622     7.00809E-03     75.6266E-03    -15.1448E+06    -89.9868E+06    -4.42974E+06    -2.21081E+06    -27.4568E-03     54.5989E-03    -27.1421E-03     42.5290E-03    -27.4067E-03     54.1884E-03    -27.0118E-03     42.4666E-03
             623     7.88426E-03     75.6698E-03    -13.3318E+06    -84.6477E+06    -2.80392E+06    -2.24980E+06    -27.5834E-03     54.7140E-03    -27.1306E-03     48.0325E-03    -27.5397E-03     54.3306E-03    -27.0025E-03     47.9598E-03
             624     8.76026E-03     75.7179E-03    -11.8682E+06    -80.6028E+06    -1.99758E+06    -2.06934E+06    -27.7294E-03     54.8491E-03    -27.1196E-03     53.5527E-03    -27.6933E-03     54.4905E-03    -26.9956E-03     53.4701E-03
             625     9.63641E-03     75.7716E-03    -10.6767E+06    -77.0468E+06    -4.00693E+06    -1.94561E+06    -27.8790E-03     54.9759E-03    -27.0970E-03     59.1114E-03    -27.8505E-03     54.6477E-03    -26.9898E-03     59.0150E-03
             626     10.5124E-03     75.8302E-03    -9.76561E+06    -69.2888E+06    -7.12570E+06    -1.57316E+06    -28.0219E-03     55.0849E-03    -27.0630E-03     64.5979E-03    -28.0127E-03     54.8157E-03    -26.9840E-03     64.4868E-03
             627     11.3886E-03     75.8943E-03    -9.17422E+06    -53.8613E+06    -5.94750E+06    -1.15330E+06    -28.1935E-03     55.2329E-03    -27.0394E-03     71.2410E-03    -28.2324E-03     55.0653E-03    -26.9777E-03     71.1106E-03
             628     12.2645E-03     75.9655E-03    -8.75654E+06    -36.5949E+06    -5.67788E+06    -666.904E+03    -28.4265E-03     55.4364E-03    -27.0098E-03     78.1648E-03    -28.5286E-03     55.3939E-03    -26.9725E-03     78.0120E-03
             629     13.1408E-03     76.0426E-03    -9.14464E+06    -25.2997E+06    -13.0974E+06    -422.708E+03    -28.2319E-03     55.1781E-03    -26.9462E-03     80.4166E-03    -28.3996E-03     55.2615E-03    -26.9617E-03     80.2343E-03
             630     14.0175E-03     76.1172E-03    -9.55282E+06     106.168E+03    -18.8859E+06    -931.771E+03    -28.6713E-03     55.5294E-03    -26.8582E-03     97.4137E-03    -29.0679E-03     55.9472E-03    -26.9389E-03     97.1702E-03
             631     14.8943E-03     76.2273E-03    -9.06089E+06     54.0825E+06    -24.1192E+06     447.987E+03    -35.5215E-03     62.2531E-03    -26.7316E-03     188.208E-03    -37.5157E-03     64.4771E-03    -26.9175E-03     187.905E-03
             632     15.7693E-03     76.4791E-03    -8.12861E+06     127.368E+06     19.8490E+06     2.16726E+06    -48.0124E-03     74.8278E-03    -26.8154E-03     338.370E-03    -59.0793E-03     86.2603E-03    -26.8890E-03     339.696E-03
             633     16.6520E-03     76.8886E-03    -4.57928E+06     178.948E+06     93.0796E+06     894.798E+03    -46.4993E-03     73.5645E-03    -27.0652E-03     363.090E-03    -64.5559E-03     91.9702E-03    -26.8527E-03     372.848E-03
             634     875.996E-06     76.4698E-03    -25.3196E+06    -114.041E+06    -24.9412E+06    -145.897E+03    -27.1474E-03     54.3024E-03    -27.1550E-03     5.58462E-03    -27.0725E-03     53.8055E-03    -27.0777E-03     5.58012E-03
             635     1.75190E-03     76.4775E-03    -24.7179E+06    -112.941E+06    -23.4406E+06    -546.490E+03    -27.1504E-03     54.2982E-03    -27.1478E-03     10.4926E-03    -27.0767E-03     53.8037E-03    -27.0654E-03     10.4804E-03
             636     2.62792E-03     76.4898E-03    -23.7146E+06    -109.956E+06    -21.8059E+06    -1.08284E+06    -27.1627E-03     54.3029E-03    -27.1402E-03     15.6145E-03    -27.0911E-03     53.8200E-03    -27.0555E-03     15.5926E-03
             637     3.50395E-03     76.5072E-03    -22.5391E+06    -105.694E+06    -18.5497E+06    -1.30446E+06    -27.1899E-03     54.3287E-03    -27.1388E-03     20.8962E-03    -27.1241E-03     53.8615E-03    -27.0456E-03     20.8681E-03
             638     4.37996E-03     76.5295E-03    -21.0943E+06    -103.296E+06    -13.9907E+06    -1.47472E+06    -27.2507E-03     54.3988E-03    -27.1481E-03     26.2136E-03    -27.1891E-03     53.9361E-03    -27.0377E-03     26.1792E-03
             639     5.25600E-03     76.5570E-03    -19.0254E+06    -98.0916E+06    -10.5573E+06    -1.87860E+06    -27.3056E-03     54.4532E-03    -27.1476E-03     31.6018E-03    -27.2479E-03     54.0103E-03    -27.0306E-03     31.5574E-03
             640     6.13203E-03     76.5895E-03    -16.9446E+06    -93.2165E+06    -7.11393E+06    -2.50776E+06    -27.3758E-03     54.5220E-03    -27.1462E-03     37.0510E-03    -27.3223E-03     54.0981E-03    -27.0221E-03     36.9924E-03
             641     7.00812E-03     76.6273E-03    -15.2201E+06    -89.6998E+06    -4.78217E+06    -2.91904E+06    -27.4774E-03     54.6191E-03    -27.1418E-03     42.5307E-03    -27.4275E-03     54.2107E-03    -27.0136E-03     42.4591E-03
             642     7.88415E-03     76.6703E-03    -13.4834E+06    -84.4192E+06    -3.36785E+06    -2.77295E+06    -27.5909E-03     54.7218E-03    -27.1309E-03     48.0511E-03    -27.5475E-03     54.3406E-03    -27.0058E-03     47.9717E-03
             643     8.76028E-03     76.7187E-03    -11.8820E+06    -80.6486E+06    -2.41754E+06    -2.64893E+06    -27.7306E-03     54.8516E-03    -27.1210E-03     53.5639E-03    -27.6939E-03     54.4934E-03    -26.9989E-03     53.4738E-03
             644     9.63630E-03     76.7720E-03    -10.5316E+06    -76.9413E+06    -4.32556E+06    -2.50397E+06    -27.8648E-03     54.9623E-03    -27.0974E-03     59.0912E-03    -27.8354E-03     54.6348E-03    -26.9922E-03     58.9876E-03
             645     10.5125E-03     76.8310E-03    -9.62687E+06    -69.8234E+06    -7.63385E+06    -2.17923E+06    -28.0072E-03     55.0692E-03    -27.0620E-03     64.5606E-03    -27.9958E-03     54.7979E-03    -26.9850E-03     64.4416E-03
             646     11.3886E-03     76.8947E-03    -8.91443E+06    -54.3308E+06    -6.54303E+06    -1.56631E+06    -28.1521E-03     55.1876E-03    -27.0355E-03     71.1474E-03    -28.1883E-03     55.0183E-03    -26.9765E-03     71.0116E-03
             647     12.2650E-03     76.9662E-03    -8.31360E+06    -37.5313E+06    -5.92361E+06    -872.864E+03    -28.2541E-03     55.2549E-03    -27.0008E-03     78.0134E-03    -28.3514E-03     55.2066E-03    -26.9640E-03     77.8594E-03
             648     13.1412E-03     77.0429E-03    -7.88659E+06    -24.7878E+06    -12.3198E+06    -344.239E+03    -28.2515E-03     55.1864E-03    -26.9349E-03     79.8814E-03    -28.4144E-03     55.2690E-03    -26.9491E-03     79.6999E-03
             649     14.0173E-03     77.1176E-03    -8.53748E+06     -63.244E+03    -19.0447E+06    -111.319E+03    -28.9980E-03     55.8531E-03    -26.8550E-03     97.3741E-03    -29.3897E-03     56.2694E-03    -26.9378E-03     97.1371E-03
             650     14.8926E-03     77.2281E-03    -10.0861E+06     50.8465E+06    -25.7468E+06    -511.063E+03    -35.3292E-03     62.0635E-03    -26.7344E-03     188.001E-03    -37.3140E-03     64.2677E-03    -26.9222E-03     187.695E-03
             651     15.7718E-03     77.4778E-03    -8.64498E+06     127.440E+06     20.0037E+06     674.019E+03    -47.3106E-03     74.1172E-03    -26.8066E-03     336.498E-03    -58.2963E-03     85.4665E-03    -26.8788E-03     337.879E-03
             652     16.6439E-03     77.8864E-03    -4.79184E+06     180.458E+06     93.5300E+06     1.21987E+06    -46.5351E-03     73.5820E-03    -27.0470E-03     363.595E-03    -64.6734E-03     92.0728E-03    -26.8340E-03     373.420E-03
             653     875.900E-06     77.4706E-03    -26.3356E+06    -113.552E+06    -26.2039E+06    -275.139E+03    -27.1598E-03     54.2995E-03    -27.1396E-03     5.55925E-03    -27.0889E-03     53.8082E-03    -27.0678E-03     5.55310E-03
             654     1.75196E-03     77.4781E-03    -25.6648E+06    -111.764E+06    -24.7252E+06    -896.203E+03    -27.1431E-03     54.2862E-03    -27.1431E-03     10.4938E-03    -27.0739E-03     53.8008E-03    -27.0674E-03     10.4771E-03
             655     2.62793E-03     77.4905E-03    -24.6696E+06    -108.980E+06    -21.9649E+06    -1.50488E+06    -27.1566E-03     54.2968E-03    -27.1402E-03     15.6115E-03    -27.0910E-03     53.8204E-03    -27.0562E-03     15.5841E-03
             656     3.50394E-03     77.5077E-03    -23.3862E+06    -105.362E+06    -18.8360E+06    -1.60912E+06    -27.1931E-03     54.3326E-03    -27.1395E-03     20.8813E-03    -27.1316E-03     53.8687E-03    -27.0470E-03     20.8492E-03
             657     4.37995E-03     77.5302E-03    -21.6738E+06    -102.236E+06    -14.9542E+06    -2.01362E+06    -27.2393E-03     54.3830E-03    -27.1438E-03     26.2226E-03    -27.1806E-03     53.9279E-03    -27.0389E-03     26.1813E-03
             658     5.25595E-03     77.5575E-03    -19.7268E+06    -97.0691E+06    -11.3956E+06    -2.76273E+06    -27.2957E-03     54.4384E-03    -27.1427E-03     31.6084E-03    -27.2418E-03     54.0029E-03    -27.0303E-03     31.5526E-03
             659     6.13206E-03     77.5902E-03    -17.7591E+06    -92.2339E+06    -8.26049E+06    -3.15302E+06    -27.3771E-03     54.5170E-03    -27.1399E-03     37.0641E-03    -27.3275E-03     54.1009E-03    -27.0218E-03     36.9971E-03
             660     7.00809E-03     77.6279E-03    -15.8665E+06    -88.9904E+06    -5.70481E+06    -3.45296E+06    -27.4887E-03     54.6267E-03    -27.1380E-03     42.5455E-03    -27.4418E-03     54.2241E-03    -27.0144E-03     42.4671E-03
             661     7.88416E-03     77.6710E-03    -14.0842E+06    -84.3889E+06    -4.46635E+06    -3.56014E+06    -27.5968E-03     54.7250E-03    -27.1282E-03     48.0767E-03    -27.5548E-03     54.3464E-03    -27.0078E-03     47.9872E-03
             662     8.76023E-03     77.7192E-03    -12.3187E+06    -80.2799E+06    -3.34556E+06    -3.45769E+06    -27.7241E-03     54.8424E-03    -27.1183E-03     53.6079E-03    -27.6888E-03     54.4880E-03    -27.0007E-03     53.5073E-03
             663     9.63636E-03     77.7728E-03    -10.8869E+06    -77.1451E+06    -5.05840E+06    -3.26026E+06    -27.8882E-03     54.9853E-03    -27.0971E-03     59.0691E-03    -27.8593E-03     54.6585E-03    -26.9947E-03     58.9555E-03
             664     10.5124E-03     77.8314E-03    -9.93331E+06    -70.1122E+06    -8.12629E+06    -2.78797E+06    -28.0318E-03     55.0966E-03    -27.0648E-03     64.5315E-03    -28.0209E-03     54.8251E-03    -26.9894E-03     64.4045E-03
             665     11.3885E-03     77.8956E-03    -9.23376E+06    -55.0930E+06    -7.23389E+06    -2.23565E+06    -28.1560E-03     55.1951E-03    -27.0391E-03     71.0335E-03    -28.1917E-03     55.0233E-03    -26.9820E-03     70.8890E-03
             666     12.2646E-03     77.9664E-03    -8.62764E+06    -38.3926E+06    -6.77159E+06    -1.41883E+06    -28.2333E-03     55.2367E-03    -27.0034E-03     77.6928E-03    -28.3293E-03     55.1854E-03    -26.9690E-03     77.5318E-03
             667     13.1411E-03     78.0434E-03    -8.52049E+06    -25.4065E+06    -13.2270E+06    -523.871E+03    -28.2949E-03     55.2330E-03    -26.9381E-03     79.8101E-03    -28.4580E-03     55.3140E-03    -26.9551E-03     79.6264E-03
             668     14.0171E-03     78.1184E-03    -9.40972E+06    -981.177E+03    -18.1484E+06     430.046E+03    -28.9095E-03     55.7764E-03    -26.8670E-03     97.2208E-03    -29.3048E-03     56.1875E-03    -26.9426E-03     96.9920E-03
             669     14.8945E-03     78.2286E-03    -9.55089E+06     50.7767E+06    -24.9024E+06     483.540E+03    -35.6564E-03     62.4054E-03    -26.7490E-03     187.930E-03    -37.6417E-03     64.6092E-03    -26.9333E-03     187.627E-03
             670     15.7678E-03     78.4780E-03    -9.49438E+06     126.599E+06     17.8475E+06    -689.438E+03    -47.7295E-03     74.5667E-03    -26.8372E-03     334.842E-03    -58.6529E-03     85.8539E-03    -26.9178E-03     336.205E-03
             671     16.6512E-03     78.8864E-03    -6.78276E+06     180.062E+06     92.5013E+06    -432.507E+03    -46.2983E-03     73.3966E-03    -27.0983E-03     364.340E-03    -64.5932E-03     92.0384E-03    -26.8870E-03     374.277E-03
             672     876.023E-06     78.4713E-03    -27.3195E+06    -112.547E+06    -27.2839E+06    -700.205E+03    -27.1361E-03     54.2686E-03    -27.1325E-03     5.60129E-03    -27.0699E-03     53.7854E-03    -27.0661E-03     5.58960E-03
             673     1.75190E-03     78.4788E-03    -26.6254E+06    -110.307E+06    -25.4868E+06    -1.29498E+06    -27.1446E-03     54.2764E-03    -27.1318E-03     10.4669E-03    -27.0812E-03     53.8008E-03    -27.0607E-03     10.4451E-03
             674     2.62794E-03     78.4911E-03     -25.631E+06    -107.921E+06    -22.5733E+06    -1.76787E+06    -27.1624E-03     54.2982E-03    -27.1358E-03     15.6276E-03    -27.1022E-03     53.8294E-03    -27.0550E-03     15.5968E-03
             675     3.50390E-03     78.5085E-03    -24.0679E+06    -104.661E+06    -19.4779E+06    -2.18413E+06    -27.1925E-03     54.3298E-03    -27.1374E-03     20.8899E-03    -27.1345E-03     53.8714E-03    -27.0481E-03     20.8504E-03
             676     4.37995E-03     78.5307E-03    -22.2348E+06    -100.881E+06    -16.1826E+06    -2.73212E+06    -27.2259E-03     54.3627E-03    -27.1368E-03     26.2322E-03    -27.1703E-03     53.9169E-03    -27.0392E-03     26.1817E-03
             677     5.25604E-03     78.5583E-03    -20.4248E+06    -95.7906E+06    -12.3748E+06    -3.35640E+06    -27.2948E-03     54.4313E-03    -27.1365E-03     31.6137E-03    -27.2448E-03     54.0046E-03    -27.0298E-03     31.5502E-03
             678     6.13202E-03     78.5907E-03    -18.5987E+06    -91.3923E+06    -9.12919E+06    -3.85548E+06    -27.3821E-03     54.5182E-03    -27.1360E-03     37.0598E-03    -27.3366E-03     54.1087E-03    -27.0222E-03     36.9838E-03
             679     7.00811E-03     78.6286E-03    -16.7400E+06    -88.1252E+06    -6.69386E+06    -4.13197E+06    -27.4798E-03     54.6136E-03    -27.1338E-03     42.5551E-03    -27.4370E-03     54.2180E-03    -27.0152E-03     42.4679E-03
             680     7.88416E-03     78.6715E-03    -14.9537E+06    -83.8552E+06    -5.36901E+06    -4.38471E+06    -27.5990E-03     54.7239E-03    -27.1249E-03     48.0662E-03    -27.5608E-03     54.3505E-03    -27.0085E-03     47.9660E-03
             681     8.76026E-03     78.7199E-03    -13.2691E+06    -80.0458E+06    -4.43489E+06    -4.43622E+06    -27.7304E-03     54.8458E-03    -27.1153E-03     53.6068E-03    -27.6986E-03     54.4955E-03    -27.0022E-03     53.4936E-03
             682     9.63629E-03     78.7733E-03    -11.7574E+06    -77.1886E+06    -6.03614E+06    -4.13593E+06    -27.9007E-03     54.9966E-03    -27.0960E-03     59.1038E-03    -27.8746E-03     54.6723E-03    -26.9972E-03     58.9789E-03
             683     10.5124E-03     78.8322E-03    -10.4860E+06    -70.4783E+06    -9.11041E+06    -3.77964E+06    -28.0431E-03     55.1077E-03    -27.0646E-03     64.5534E-03    -28.0330E-03     54.8366E-03    -26.9928E-03     64.4135E-03
             684     11.3884E-03     78.8959E-03    -9.41046E+06    -55.7932E+06    -7.94112E+06    -3.00927E+06    -28.1740E-03     55.2148E-03    -27.0409E-03     71.1159E-03    -28.2084E-03     55.0408E-03    -26.9860E-03     70.9615E-03
             685     12.2647E-03     78.9672E-03    -8.46095E+06    -39.2303E+06     -7.3329E+06    -2.18271E+06    -28.3665E-03     55.3769E-03    -27.0103E-03     77.7235E-03    -28.4605E-03     55.3228E-03    -26.9778E-03     77.5515E-03
             686     13.1407E-03     79.0435E-03    -7.74696E+06    -27.2485E+06    -14.5215E+06    -907.581E+03    -28.3515E-03     55.2990E-03    -26.9474E-03     79.8550E-03    -28.5066E-03     55.3719E-03    -26.9693E-03     79.6658E-03
             687     14.0170E-03     79.1195E-03    -7.58726E+06    -988.808E+03    -18.3243E+06     168.057E+03    -29.0098E-03     55.8917E-03    -26.8819E-03     96.8207E-03    -29.3987E-03     56.3033E-03    -26.9611E-03     96.5864E-03
             688     14.8927E-03     79.2277E-03    -10.0477E+06     51.3918E+06    -24.9830E+06     315.136E+03    -35.7035E-03     62.4736E-03    -26.7702E-03     187.839E-03    -37.6906E-03     64.6800E-03    -26.9550E-03     187.531E-03
             689     15.7705E-03     79.4821E-03    -10.2013E+06     125.924E+06     17.3631E+06     413.501E+03    -48.4533E-03     75.3329E-03    -26.8796E-03     334.570E-03    -59.3881E-03     86.6281E-03    -26.9606E-03     335.840E-03
             690     16.6400E-03     79.8801E-03    -5.44617E+06     180.440E+06     92.8814E+06    -76.5660E+03    -46.2407E-03     73.4026E-03    -27.1619E-03     363.956E-03    -64.5946E-03     92.1084E-03    -26.9512E-03     373.915E-03
             691     875.939E-06     79.4720E-03    -27.4290E+06    -110.897E+06    -26.9668E+06    -988.066E+03    -27.1429E-03     54.2615E-03    -27.1186E-03     5.61452E-03    -27.0801E-03     53.7862E-03    -27.0529E-03     5.59908E-03
             692     1.75199E-03     79.4794E-03    -26.7630E+06    -108.921E+06    -25.3727E+06    -1.50997E+06    -27.1456E-03     54.2758E-03    -27.1302E-03     10.4210E-03    -27.0851E-03     53.8072E-03    -27.0603E-03     10.3964E-03
             693     2.62792E-03     79.4918E-03    -25.6562E+06    -106.530E+06    -23.0372E+06    -2.12394E+06    -27.1535E-03     54.2846E-03    -27.1311E-03     15.6207E-03    -27.0948E-03     53.8234E-03    -27.0546E-03     15.5853E-03
             694     3.50397E-03     79.5091E-03    -24.2339E+06    -103.236E+06    -20.0044E+06    -2.88476E+06    -27.1899E-03     54.3214E-03    -27.1315E-03     20.8927E-03    -27.1341E-03     53.8711E-03    -27.0467E-03     20.8441E-03
             695     4.37996E-03     79.5314E-03    -22.4481E+06    -99.5398E+06    -16.4865E+06    -3.53934E+06    -27.2454E-03     54.3799E-03    -27.1345E-03     26.2104E-03    -27.1923E-03     53.9416E-03    -27.0400E-03     26.1495E-03
             696     5.25595E-03     79.5588E-03    -20.4170E+06    -94.4470E+06    -12.8188E+06    -4.08228E+06    -27.2992E-03     54.4347E-03    -27.1356E-03     31.5980E-03    -27.2504E-03     54.0154E-03    -27.0331E-03     31.5252E-03
             697     6.13204E-03     79.5915E-03    -18.3990E+06    -90.3794E+06    -9.02350E+06    -4.49146E+06    -27.3796E-03     54.5176E-03    -27.1380E-03     37.0402E-03    -27.3347E-03     54.1127E-03    -27.0254E-03     36.9559E-03
             698     7.00807E-03     79.6291E-03    -16.5172E+06    -87.2674E+06    -6.51713E+06    -4.77869E+06    -27.4809E-03     54.6168E-03    -27.1359E-03     42.5295E-03    -27.4385E-03     54.2249E-03    -27.0180E-03     42.4339E-03
             699     7.88416E-03     79.6723E-03    -14.8280E+06    -82.9250E+06    -5.38763E+06    -5.06034E+06    -27.6001E-03     54.7261E-03    -27.1260E-03     48.0550E-03    -27.5626E-03     54.3573E-03    -27.0112E-03     47.9461E-03
             700     8.76018E-03     79.7204E-03    -13.4234E+06    -79.8022E+06    -4.82950E+06    -5.09213E+06    -27.7356E-03     54.8518E-03    -27.1161E-03     53.5906E-03    -27.7044E-03     54.5036E-03    -27.0051E-03     53.4689E-03
             701     9.63630E-03     79.7741E-03    -12.1574E+06    -76.9038E+06    -6.71711E+06    -5.08685E+06    -27.8840E-03     54.9790E-03    -27.0950E-03     59.1346E-03    -27.8593E-03     54.6576E-03    -26.9994E-03     58.9976E-03
             702     10.5124E-03     79.8327E-03    -11.0955E+06    -70.6391E+06    -10.0198E+06    -4.85520E+06    -28.0388E-03     55.1013E-03    -27.0625E-03     64.5289E-03    -28.0302E-03     54.8316E-03    -26.9941E-03     64.3752E-03
             703     11.3885E-03     79.8966E-03    -10.0465E+06    -56.6563E+06    -8.96556E+06    -4.24427E+06    -28.2143E-03     55.2550E-03    -27.0407E-03     71.0644E-03    -28.2493E-03     55.0793E-03    -26.9888E-03     70.8937E-03
             704     12.2646E-03     79.9677E-03    -8.89394E+06    -40.2667E+06    -8.02667E+06    -3.12895E+06    -28.4482E-03     55.4641E-03    -27.0159E-03     77.7693E-03    -28.5421E-03     55.4068E-03    -26.9848E-03     77.5845E-03
             705     13.1405E-03     80.0446E-03    -8.15910E+06    -28.6296E+06    -14.9664E+06    -2.11850E+06    -28.4068E-03     55.3658E-03    -26.9590E-03     79.7775E-03    -28.5621E-03     55.4339E-03    -26.9804E-03     79.5717E-03
             706     14.0168E-03     80.1192E-03    -7.41147E+06    -2.62779E+06    -18.1625E+06    -835.061E+03    -29.2395E-03     56.1422E-03    -26.9027E-03     97.5791E-03    -29.6290E-03     56.5488E-03    -26.9790E-03     97.3285E-03
             707     14.8924E-03     80.2305E-03    -8.07090E+06     51.5946E+06    -23.5512E+06     438.320E+03    -35.5637E-03     62.3584E-03    -26.7946E-03     187.824E-03    -37.5503E-03     64.5678E-03    -26.9755E-03     187.524E-03
             708     15.7682E-03     80.4786E-03    -9.16722E+06     127.064E+06     17.1303E+06     1.11295E+06    -47.5852E-03     74.4358E-03    -26.8506E-03     337.813E-03    -58.5853E-03     85.8047E-03    -26.9359E-03     339.139E-03
             709     16.6476E-03     80.8925E-03    -5.42099E+06     180.436E+06     91.4638E+06     871.285E+03    -46.8782E-03     73.9613E-03    -27.0831E-03     367.803E-03    -65.2270E-03     92.6664E-03    -26.8795E-03     377.708E-03
             710     875.994E-06     80.4726E-03    -27.3337E+06    -109.053E+06    -27.0318E+06    -898.368E+03    -27.1475E-03     54.2773E-03    -27.1298E-03     5.58918E-03    -27.0868E-03     53.8112E-03    -27.0672E-03     5.57493E-03
             711     1.75187E-03     80.4802E-03    -26.8037E+06    -107.142E+06    -25.7121E+06    -1.74848E+06    -27.1358E-03     54.2687E-03    -27.1329E-03     10.4109E-03    -27.0775E-03     53.8095E-03    -27.0673E-03     10.3832E-03
             712     2.62794E-03     80.4924E-03    -25.7113E+06    -104.779E+06    -23.2986E+06    -2.64019E+06    -27.1570E-03     54.2881E-03    -27.1311E-03     15.5935E-03    -27.1008E-03     53.8362E-03    -27.0584E-03     15.5515E-03
             713     3.50393E-03     80.5098E-03    -24.3495E+06    -101.452E+06    -20.1933E+06    -3.43269E+06    -27.2001E-03     54.3334E-03    -27.1334E-03     20.8614E-03    -27.1472E-03     53.8925E-03    -27.0519E-03     20.8057E-03
             714     4.37992E-03     80.5321E-03    -22.8035E+06    -97.8631E+06    -16.7716E+06    -4.26802E+06    -27.2456E-03     54.3828E-03    -27.1372E-03     26.1795E-03    -27.1963E-03     53.9538E-03    -27.0461E-03     26.1091E-03
             715     5.25595E-03     80.5595E-03    -20.9978E+06    -93.0475E+06    -13.4385E+06    -4.93247E+06    -27.2924E-03     54.4290E-03    -27.1365E-03     31.6050E-03    -27.2477E-03     54.0184E-03    -27.0384E-03     31.5211E-03
             716     6.13198E-03     80.5920E-03    -18.9709E+06    -89.2401E+06    -9.86557E+06    -5.35033E+06    -27.3739E-03     54.5110E-03    -27.1371E-03     37.0731E-03    -27.3324E-03     54.1139E-03    -27.0295E-03     36.9778E-03
             717     7.00804E-03     80.6299E-03    -16.8658E+06    -86.3501E+06    -7.13779E+06    -5.57908E+06    -27.4866E-03     54.6225E-03    -27.1358E-03     42.5461E-03    -27.4465E-03     54.2366E-03    -27.0219E-03     42.4401E-03
             718     7.88409E-03     80.6728E-03    -15.1038E+06    -82.1449E+06    -5.95210E+06    -5.63567E+06    -27.5964E-03     54.7227E-03    -27.1263E-03     48.0668E-03    -27.5606E-03     54.3589E-03    -27.0150E-03     47.9504E-03
             719     8.76020E-03     80.7212E-03    -13.5029E+06    -79.0964E+06    -5.38198E+06    -5.81630E+06    -27.7307E-03     54.8463E-03    -27.1156E-03     53.6071E-03    -27.7000E-03     54.5025E-03    -27.0082E-03     53.4761E-03
             720     9.63623E-03     80.7745E-03    -12.1023E+06    -76.4371E+06    -7.39066E+06    -5.92801E+06    -27.8821E-03     54.9755E-03    -27.0934E-03     59.1203E-03    -27.8569E-03     54.6573E-03    -27.0019E-03     58.9724E-03
             721     10.5124E-03     80.8335E-03    -11.1394E+06    -70.5979E+06    -10.7525E+06    -5.72877E+06    -28.0581E-03     55.1199E-03    -27.0618E-03     64.5423E-03    -28.0487E-03     54.8515E-03    -26.9971E-03     64.3773E-03
             722     11.3884E-03     80.8971E-03    -10.4775E+06    -57.2704E+06    -10.3738E+06    -5.19971E+06    -28.2564E-03     55.2966E-03    -27.0402E-03     71.0998E-03    -28.2908E-03     55.1206E-03    -26.9938E-03     70.9165E-03
             723     12.2643E-03     80.9686E-03    -9.65182E+06    -41.3095E+06    -9.94094E+06    -4.44465E+06    -28.3744E-03     55.3867E-03    -27.0123E-03     77.9357E-03    -28.4671E-03     55.3273E-03    -26.9881E-03     77.7350E-03
             724     13.1407E-03     81.0451E-03    -8.81928E+06    -29.6597E+06    -17.0173E+06    -3.23032E+06    -28.3825E-03     55.3329E-03    -26.9504E-03     79.9849E-03    -28.5367E-03     55.3998E-03    -26.9797E-03     79.7652E-03
             725     14.0167E-03     81.1201E-03    -8.60820E+06    -5.37625E+06    -20.8994E+06    -1.81653E+06    -28.9073E-03     55.7886E-03    -26.8813E-03     98.3585E-03    -29.2906E-03     56.1829E-03    -26.9656E-03     98.1014E-03
             726     14.8928E-03     81.2317E-03    -7.01420E+06     49.5034E+06    -26.1921E+06     547.938E+03    -35.5037E-03     62.2574E-03    -26.7537E-03     188.932E-03    -37.4791E-03     64.4595E-03    -26.9463E-03     188.636E-03
             727     15.7698E-03     81.4791E-03    -6.06866E+06     129.483E+06     18.7927E+06     2.13745E+06    -46.7920E-03     73.6034E-03    -26.8114E-03     334.864E-03    -57.6135E-03     84.8084E-03    -26.8964E-03     336.325E-03
             728     16.6526E-03     81.8860E-03    -5.46069E+06     181.680E+06     92.8868E+06     1.10293E+06    -46.1975E-03     73.2340E-03    -27.0365E-03     366.240E-03    -64.4418E-03     91.8346E-03    -26.8275E-03     376.045E-03
             729     875.895E-06     81.4734E-03    -27.4155E+06    -107.065E+06    -27.1974E+06    -948.093E+03    -27.1203E-03     54.2639E-03    -27.1436E-03     5.58402E-03    -27.0627E-03     53.8082E-03    -27.0846E-03     5.56914E-03
             730     1.75199E-03     81.4808E-03    -26.7983E+06    -104.889E+06    -25.8571E+06    -2.03910E+06    -27.1478E-03     54.2770E-03    -27.1292E-03     10.4319E-03    -27.0926E-03     53.8293E-03    -27.0676E-03     10.4004E-03
             731     2.62790E-03     81.4931E-03    -25.9190E+06    -102.664E+06    -23.4494E+06    -3.08564E+06    -27.1827E-03     54.3180E-03    -27.1352E-03     15.5915E-03    -27.1304E-03     53.8771E-03    -27.0660E-03     15.5437E-03
             732     3.50385E-03     81.5104E-03    -24.5815E+06    -99.5523E+06    -20.5046E+06    -3.94786E+06    -27.1971E-03     54.3365E-03    -27.1395E-03     20.8693E-03    -27.1476E-03     53.9059E-03    -27.0620E-03     20.8070E-03
             733     4.37987E-03     81.5328E-03    -23.0226E+06    -95.8406E+06    -17.1292E+06    -4.77713E+06    -27.2262E-03     54.3656E-03    -27.1395E-03     26.1963E-03    -27.1804E-03     53.9476E-03    -27.0528E-03     26.1193E-03
             734     5.25593E-03     81.5601E-03    -21.3942E+06    -91.3780E+06    -14.0071E+06    -5.58462E+06    -27.2899E-03     54.4258E-03    -27.1360E-03     31.6060E-03    -27.2487E-03     54.0250E-03    -27.0425E-03     31.5138E-03
             735     6.13198E-03     81.5928E-03    -19.6678E+06    -87.8682E+06    -11.0546E+06    -6.16900E+06    -27.3721E-03     54.5059E-03    -27.1339E-03     37.0755E-03    -27.3343E-03     54.1184E-03    -27.0332E-03     36.9696E-03
             736     7.00805E-03     81.6304E-03    -17.8640E+06    -85.3736E+06    -8.49362E+06    -6.47971E+06    -27.4740E-03     54.6060E-03    -27.1320E-03     42.5663E-03    -27.4383E-03     54.2284E-03    -27.0248E-03     42.4487E-03
             737     7.88408E-03     81.6736E-03    -15.8363E+06    -81.3441E+06    -7.04083E+06    -6.62952E+06    -27.5876E-03     54.7101E-03    -27.1225E-03     48.0847E-03    -27.5550E-03     54.3529E-03    -27.0168E-03     47.9556E-03
             738     8.76016E-03     81.7216E-03    -13.8447E+06     -77.996E+06    -6.25591E+06    -6.94040E+06    -27.7129E-03     54.8235E-03    -27.1106E-03     53.6633E-03    -27.6842E-03     54.4869E-03    -27.0087E-03     53.5180E-03
             739     9.63624E-03     81.7754E-03    -12.1711E+06    -76.0370E+06    -8.36821E+06    -6.99542E+06    -27.8819E-03     54.9694E-03    -27.0875E-03     59.2001E-03    -27.8561E-03     54.6547E-03    -27.0014E-03     59.0387E-03
             740     10.5123E-03     81.8338E-03    -10.9746E+06    -70.5635E+06    -11.6268E+06    -6.66878E+06    -28.0519E-03     55.1079E-03    -27.0560E-03     64.7095E-03    -28.0403E-03     54.8406E-03    -26.9959E-03     64.5326E-03
             741     11.3883E-03     81.8982E-03    -10.0412E+06    -57.5627E+06    -10.9508E+06    -6.08664E+06    -28.2014E-03     55.2345E-03    -27.0330E-03     71.3143E-03    -28.2320E-03     55.0568E-03    -26.9897E-03     71.1204E-03
             742     12.2646E-03     81.9688E-03    -9.40310E+06    -41.8808E+06    -10.8337E+06    -5.39706E+06    -28.3348E-03     55.3353E-03    -27.0005E-03     78.0146E-03    -28.4239E-03     55.2737E-03    -26.9803E-03     77.8021E-03
             743     13.1409E-03     82.0458E-03    -9.18294E+06    -31.0729E+06    -18.3717E+06    -4.40198E+06    -28.3950E-03     55.3325E-03    -26.9375E-03     80.0896E-03    -28.5465E-03     55.3943E-03    -26.9710E-03     79.8553E-03
             744     14.0170E-03     82.1207E-03    -8.97263E+06    -6.92970E+06    -22.0317E+06    -2.72887E+06    -28.9429E-03     55.8168E-03    -26.8739E-03     97.0945E-03    -29.3211E-03     56.2024E-03    -26.9610E-03     96.8248E-03
             745     14.8953E-03     82.2302E-03    -10.7846E+06     48.1206E+06    -27.2248E+06    -712.436E+03    -35.7034E-03     62.4678E-03    -26.7644E-03     187.144E-03    -37.6633E-03     64.6392E-03    -26.9547E-03     186.823E-03
             746     15.7701E-03     82.4833E-03    -9.89833E+06     126.463E+06     14.9431E+06     834.678E+03    -47.7174E-03     74.5842E-03    -26.8668E-03     330.670E-03    -58.5071E-03     85.7442E-03    -26.9611E-03     332.025E-03
             747     16.6398E-03     82.8783E-03    -5.10020E+06     181.474E+06     90.6265E+06     1.18087E+06    -45.2337E-03     72.3528E-03    -27.1191E-03     366.082E-03    -63.7318E-03     91.2143E-03    -26.9217E-03     376.141E-03
             748     876.045E-06     82.4739E-03    -27.7502E+06    -104.702E+06    -27.6222E+06    -1.24003E+06    -27.0914E-03     54.2515E-03    -27.1602E-03     5.52056E-03    -27.0383E-03     53.8087E-03    -27.1062E-03     5.50196E-03
             749     1.75190E-03     82.4815E-03    -27.2147E+06    -102.428E+06    -26.1974E+06    -2.31746E+06    -27.1574E-03     54.2838E-03    -27.1264E-03     10.4487E-03    -27.1074E-03     53.8495E-03    -27.0694E-03     10.4136E-03
             750     2.62785E-03     82.4938E-03    -26.2891E+06    -100.242E+06    -23.8138E+06    -3.39195E+06    -27.1811E-03     54.3163E-03    -27.1352E-03     15.6108E-03    -27.1335E-03     53.8886E-03    -27.0708E-03     15.5590E-03
             751     3.50387E-03     82.5111E-03    -24.9523E+06    -97.2431E+06    -20.9473E+06    -4.55830E+06    -27.1947E-03     54.3334E-03    -27.1387E-03     20.8686E-03    -27.1498E-03     53.9155E-03    -27.0663E-03     20.7983E-03
             752     4.37991E-03     82.5334E-03    -23.2220E+06    -93.7944E+06    -17.7458E+06    -5.46590E+06    -27.2346E-03     54.3730E-03    -27.1384E-03     26.1866E-03    -27.1919E-03     53.9664E-03    -27.0575E-03     26.1007E-03
             753     5.25589E-03     82.5608E-03    -21.3795E+06    -89.3973E+06    -14.3859E+06    -6.21683E+06    -27.2938E-03     54.4306E-03    -27.1367E-03     31.5880E-03    -27.2550E-03     54.0401E-03    -27.0480E-03     31.4875E-03
             754     6.13193E-03     82.5933E-03    -19.5938E+06    -86.3794E+06    -11.1910E+06    -6.79752E+06    -27.3614E-03     54.4970E-03    -27.1356E-03     37.0590E-03    -27.3251E-03     54.1170E-03    -27.0379E-03     36.9451E-03
             755     7.00798E-03     82.6312E-03    -17.7860E+06    -84.0035E+06    -8.84107E+06    -7.26397E+06    -27.4443E-03     54.5743E-03    -27.1300E-03     42.5777E-03    -27.4096E-03     54.2039E-03    -27.0266E-03     42.4502E-03
             756     7.88412E-03     82.6741E-03    -15.8442E+06    -79.9779E+06    -7.64020E+06    -7.94832E+06    -27.5540E-03     54.6697E-03    -27.1157E-03     48.1340E-03    -27.5225E-03     54.3202E-03    -27.0150E-03     47.9880E-03
             757     8.76018E-03     82.7224E-03    -13.8997E+06    -77.0518E+06    -6.79417E+06    -8.22768E+06    -27.6784E-03     54.7800E-03    -27.1015E-03     53.7213E-03    -27.6505E-03     54.4489E-03    -27.0036E-03     53.5596E-03
             758     9.63636E-03     82.7758E-03    -12.3373E+06    -75.4652E+06    -8.69159E+06    -8.17834E+06    -27.8343E-03     54.9112E-03    -27.0768E-03     59.3352E-03    -27.8095E-03     54.5999E-03    -26.9930E-03     59.1589E-03
             759     10.5124E-03     82.8348E-03    -11.1611E+06    -70.5018E+06    -12.1869E+06    -7.90351E+06    -27.9865E-03     55.0271E-03    -27.0407E-03     64.8507E-03    -27.9750E-03     54.7611E-03    -26.9832E-03     64.6584E-03
             760     11.3887E-03     82.8983E-03    -10.0844E+06    -57.8004E+06    -11.2800E+06    -7.36296E+06    -28.1540E-03     55.1693E-03    -27.0153E-03     71.4300E-03    -28.1838E-03     54.9908E-03    -26.9733E-03     71.2200E-03
             761     12.2648E-03     82.9698E-03    -9.04731E+06    -42.5592E+06    -10.9225E+06    -6.32686E+06    -28.4345E-03     55.4210E-03    -26.9866E-03     78.0881E-03    -28.5212E-03     55.3563E-03    -26.9664E-03     77.8628E-03
             762     13.1408E-03     83.0460E-03    -8.54698E+06    -32.5680E+06    -18.3658E+06    -5.01101E+06    -28.5838E-03     55.5188E-03    -26.9350E-03     80.0646E-03    -28.7307E-03     55.5730E-03    -26.9672E-03     79.8205E-03
             763     14.0168E-03     83.1218E-03    -9.37374E+06    -8.93802E+06    -23.1165E+06    -3.13188E+06    -29.6533E-03     56.5490E-03    -26.8958E-03     97.2635E-03    -30.0386E-03     56.9364E-03    -26.9848E-03     96.9775E-03
             764     14.8896E-03     83.2312E-03    -10.2864E+06     45.7250E+06    -32.0803E+06    -227.795E+03    -35.7756E-03     62.5614E-03    -26.7857E-03     187.962E-03    -37.7168E-03     64.7213E-03    -26.9975E-03     187.657E-03
             765     15.7661E-03     83.4826E-03    -9.88106E+06     123.872E+06     9.09917E+06     216.943E+03    -47.3267E-03     74.1798E-03    -26.8530E-03     335.135E-03    -58.4177E-03     85.6491E-03    -26.9728E-03     336.518E-03
             766     16.6478E-03     83.8843E-03    -5.70200E+06     181.664E+06     89.6086E+06     5.20338E+03    -45.6046E-03     72.7045E-03    -27.0998E-03     367.152E-03    -64.1626E-03     91.6273E-03    -26.9069E-03     377.122E-03
             767     875.881E-06     83.4747E-03    -27.9889E+06    -101.906E+06    -27.8184E+06    -1.51069E+06    -27.0938E-03     54.2633E-03    -27.1695E-03     5.54551E-03    -27.0457E-03     53.8350E-03    -27.1202E-03     5.52339E-03
             768     1.75193E-03     83.4822E-03    -27.3689E+06    -99.7566E+06    -26.3912E+06    -2.61658E+06    -27.1509E-03     54.2808E-03    -27.1299E-03     10.4744E-03    -27.1052E-03     53.8603E-03    -27.0775E-03     10.4354E-03
             769     2.62792E-03     83.4946E-03    -26.3529E+06    -97.5538E+06    -23.9579E+06    -3.81296E+06    -27.1755E-03     54.3108E-03    -27.1352E-03     15.5794E-03    -27.1320E-03     53.8968E-03    -27.0754E-03     15.5222E-03
             770     3.50387E-03     83.5118E-03    -25.0242E+06    -94.3788E+06    -21.1231E+06    -5.13762E+06    -27.2063E-03     54.3451E-03    -27.1388E-03     20.8224E-03    -27.1657E-03     53.9418E-03    -27.0713E-03     20.7447E-03
             771     4.37980E-03     83.5341E-03    -23.3631E+06    -91.5457E+06    -17.9715E+06    -6.33964E+06    -27.2388E-03     54.3796E-03    -27.1408E-03     26.1684E-03    -27.1998E-03     53.9848E-03    -27.0641E-03     26.0713E-03
             772     5.25586E-03     83.5614E-03    -21.5020E+06    -87.4617E+06    -14.6516E+06    -7.00568E+06    -27.2757E-03     54.4135E-03    -27.1378E-03     31.6021E-03    -27.2399E-03     54.0333E-03    -27.0531E-03     31.4915E-03
             773     6.13191E-03     83.5940E-03    -19.5305E+06    -84.6025E+06    -11.1828E+06    -7.60665E+06    -27.3349E-03     54.4694E-03    -27.1345E-03     37.0816E-03    -27.3010E-03     54.0982E-03    -27.0394E-03     36.9572E-03
             774     7.00804E-03     83.6317E-03    -17.3560E+06    -82.2221E+06    -8.78205E+06    -8.33571E+06    -27.4147E-03     54.5397E-03    -27.1250E-03     42.6061E-03    -27.3805E-03     54.1775E-03    -27.0246E-03     42.4648E-03
             775     7.88412E-03     83.6748E-03    -15.3857E+06    -78.1209E+06    -7.57034E+06    -9.04051E+06    -27.5102E-03     54.6170E-03    -27.1068E-03     48.1624E-03    -27.4792E-03     54.2760E-03    -27.0091E-03     48.0025E-03
             776     8.76034E-03     83.7228E-03    -13.6687E+06    -76.1372E+06    -6.80752E+06    -9.46386E+06    -27.6319E-03     54.7220E-03    -27.0900E-03     53.7343E-03    -27.6041E-03     54.3951E-03    -26.9938E-03     53.5568E-03
             777     9.63643E-03     83.7765E-03    -12.0856E+06    -74.8086E+06    -8.67560E+06    -9.35641E+06    -27.7588E-03     54.8200E-03    -27.0612E-03     59.3508E-03    -27.7336E-03     54.5115E-03    -26.9786E-03     59.1596E-03
             778     10.5128E-03     83.8351E-03    -10.8986E+06     -70.106E+06    -12.2768E+06    -9.14884E+06    -27.9235E-03     54.9436E-03    -27.0202E-03     64.8821E-03    -27.9109E-03     54.6791E-03    -26.9641E-03     64.6742E-03
             779     11.3888E-03     83.8991E-03    -9.90674E+06    -58.0494E+06    -11.8097E+06    -8.66251E+06    -28.1555E-03     55.1480E-03    -26.9925E-03     71.4896E-03    -28.1834E-03     54.9689E-03    -26.9530E-03     71.2628E-03
             780     12.2650E-03     83.9702E-03    -8.71831E+06    -43.5904E+06    -11.5532E+06    -7.68626E+06    -28.4148E-03     55.3791E-03    -26.9643E-03     78.4184E-03    -28.4972E-03     55.3093E-03    -26.9462E-03     78.1762E-03
             781     13.1409E-03     84.0474E-03    -7.86894E+06    -34.2803E+06    -18.9423E+06    -5.90330E+06    -28.7223E-03     55.6391E-03    -26.9168E-03     80.8494E-03    -28.8648E-03     55.6869E-03    -26.9504E-03     80.5922E-03
             782     14.0164E-03     84.1224E-03    -7.65033E+06    -12.8618E+06    -23.7922E+06    -2.61987E+06    -29.5004E-03     56.3754E-03    -26.8750E-03     99.0016E-03    -29.8706E-03     56.7418E-03    -26.9643E-03     98.7262E-03
             783     14.8937E-03     84.2350E-03    -8.27413E+06     41.6338E+06    -34.0381E+06    -69.4593E+03    -34.5478E-03     61.2637E-03    -26.7159E-03     188.484E-03    -36.4296E-03     63.3626E-03    -26.9345E-03     188.215E-03
             784     15.7736E-03     84.4789E-03    -9.10237E+06     125.370E+06     11.1597E+06     150.524E+03    -46.8529E-03     73.5887E-03    -26.7358E-03     337.998E-03    -58.0555E-03     85.1716E-03    -26.8486E-03     339.410E-03
             785     16.6470E-03     84.8900E-03    -5.89046E+06     183.555E+06     92.7891E+06    -564.709E+03    -47.0484E-03     74.0510E-03    -27.0026E-03     365.452E-03    -65.4230E-03     92.7873E-03    -26.7963E-03     375.140E-03
             786     876.017E-06     84.4754E-03    -27.4690E+06    -98.7010E+06    -27.2658E+06    -1.64117E+06    -27.1613E-03     54.2848E-03    -27.1234E-03     5.59159E-03    -27.1160E-03     53.8710E-03    -27.0768E-03     5.56774E-03
             787     1.75189E-03     84.4830E-03    -26.8758E+06    -96.7311E+06    -25.9113E+06    -2.98644E+06    -27.1618E-03     54.3024E-03    -27.1407E-03     10.4394E-03    -27.1187E-03     53.8957E-03    -27.0910E-03     10.3957E-03
             788     2.62781E-03     84.4953E-03    -25.8306E+06    -94.6055E+06    -23.5775E+06    -4.29533E+06    -27.1677E-03     54.3106E-03    -27.1429E-03     15.5684E-03    -27.1264E-03     53.9102E-03    -27.0862E-03     15.5050E-03
             789     3.50379E-03     84.5126E-03    -24.4794E+06    -91.1124E+06    -20.6151E+06    -5.73777E+06    -27.1906E-03     54.3321E-03    -27.1415E-03     20.8483E-03    -27.1527E-03     53.9437E-03    -27.0770E-03     20.7629E-03
             790     4.37984E-03     84.5348E-03    -22.9213E+06    -88.9132E+06    -17.1874E+06    -7.00588E+06    -27.2225E-03     54.3647E-03    -27.1421E-03     26.1941E-03    -27.1863E-03     53.9812E-03    -27.0659E-03     26.0883E-03
             791     5.25585E-03     84.5621E-03    -21.1638E+06    -85.4859E+06    -14.2988E+06    -7.84038E+06    -27.2594E-03     54.3948E-03    -27.1353E-03     31.6145E-03    -27.2253E-03     54.0235E-03    -27.0522E-03     31.4932E-03
             792     6.13198E-03     84.5946E-03    -19.0835E+06    -82.2747E+06    -11.0701E+06    -8.69896E+06    -27.3136E-03     54.4415E-03    -27.1279E-03     37.0740E-03    -27.2810E-03     54.0811E-03    -27.0362E-03     36.9356E-03
             793     7.00804E-03     84.6323E-03    -16.9611E+06    -80.2333E+06    -8.53347E+06    -9.56583E+06    -27.3891E-03     54.5065E-03    -27.1173E-03     42.5860E-03    -27.3562E-03     54.1532E-03    -27.0191E-03     42.4289E-03
             794     7.88424E-03     84.6752E-03    -14.9456E+06    -76.2562E+06    -7.43477E+06    -10.1622E+06    -27.4733E-03     54.5693E-03    -27.0960E-03     48.1472E-03    -27.4429E-03     54.2368E-03    -27.0010E-03     47.9729E-03
             795     8.76035E-03     84.7235E-03    -13.1624E+06    -74.8197E+06    -6.74442E+06    -10.5583E+06    -27.5852E-03     54.6615E-03    -27.0763E-03     53.7229E-03    -27.5568E-03     54.3403E-03    -26.9824E-03     53.5315E-03
             796     9.63668E-03     84.7768E-03    -11.6303E+06    -74.0781E+06     -8.8483E+06    -10.6843E+06    -27.7170E-03     54.7612E-03    -27.0443E-03     59.2784E-03    -27.6903E-03     54.4559E-03    -26.9642E-03     59.0702E-03
             797     10.5128E-03     84.8356E-03    -10.3453E+06    -69.5854E+06    -12.0848E+06    -10.4074E+06    -27.8870E-03     54.8901E-03    -27.0032E-03     64.8806E-03    -27.8726E-03     54.6271E-03    -26.9477E-03     64.6567E-03
             798     11.3891E-03     84.8995E-03    -9.41618E+06    -58.2119E+06    -11.7005E+06    -9.83612E+06    -28.0776E-03     55.0504E-03    -26.9729E-03     71.5278E-03    -28.1025E-03     54.8692E-03    -26.9333E-03     71.2866E-03
             799     12.2653E-03     84.9709E-03    -8.90580E+06    -44.3299E+06    -11.9046E+06    -8.91188E+06    -28.2838E-03     55.2217E-03    -26.9379E-03     78.5129E-03    -28.3652E-03     55.1486E-03    -26.9202E-03     78.2558E-03
             800     13.1419E-03     85.0477E-03    -8.30233E+06    -36.2056E+06    -19.5056E+06    -7.47003E+06    -28.4852E-03     55.3653E-03    -26.8801E-03     81.3867E-03    -28.6258E-03     55.4044E-03    -26.9131E-03     81.1115E-03
             801     14.0176E-03     85.1247E-03    -7.82417E+06    -17.7303E+06    -23.4601E+06    -4.07536E+06    -28.6799E-03     55.4964E-03    -26.8165E-03     98.5519E-03    -29.0342E-03     55.8280E-03    -26.8967E-03     98.2687E-03
             802     14.8943E-03     85.2323E-03    -7.63150E+06     38.0795E+06    -33.4016E+06    -78.4151E+03    -34.1246E-03     60.7554E-03    -26.6308E-03     185.883E-03    -35.9762E-03     62.8119E-03    -26.8420E-03     185.610E-03
             803     15.7715E-03     85.4771E-03    -7.23035E+06     127.527E+06     14.3832E+06     880.014E+03    -47.4752E-03     74.1430E-03    -26.6678E-03     337.117E-03    -58.5219E-03     85.5751E-03    -26.7703E-03     338.423E-03
             804     16.6512E-03     85.8938E-03    -5.43979E+06     185.058E+06     95.0207E+06    -98.7366E+03    -47.9896E-03     74.9605E-03    -26.9709E-03     365.567E-03    -66.3048E-03     93.6378E-03    -26.7562E-03     375.263E-03
             805     875.892E-06     85.4763E-03    -26.8032E+06    -95.0339E+06    -26.6826E+06    -1.91782E+06    -27.1572E-03     54.2908E-03    -27.1337E-03     5.61332E-03    -27.1147E-03     53.8936E-03    -27.0904E-03     5.58585E-03
             806     1.75182E-03     85.4837E-03    -26.2281E+06    -93.3445E+06    -25.2201E+06    -3.31276E+06    -27.1556E-03     54.2980E-03    -27.1424E-03     10.4764E-03    -27.1152E-03     53.9063E-03    -27.0951E-03     10.4284E-03
             807     2.62785E-03     85.4960E-03    -25.1954E+06    -91.2539E+06    -22.8617E+06    -4.83946E+06    -27.1582E-03     54.2998E-03    -27.1416E-03     15.6203E-03    -27.1197E-03     53.9142E-03    -27.0870E-03     15.5498E-03
             808     3.50386E-03     85.5132E-03    -23.8097E+06    -87.7363E+06    -19.9360E+06    -6.30015E+06    -27.1748E-03     54.3120E-03    -27.1372E-03     20.8547E-03    -27.1395E-03     53.9385E-03    -27.0751E-03     20.7620E-03
             809     4.37984E-03     85.5355E-03    -22.3233E+06    -86.1288E+06    -16.4345E+06    -7.47697E+06    -27.2114E-03     54.3486E-03    -27.1372E-03     26.1646E-03    -27.1772E-03     53.9771E-03    -27.0621E-03     26.0528E-03
             810     5.25591E-03     85.5628E-03    -20.6012E+06    -82.8010E+06    -13.5932E+06    -8.65012E+06    -27.2512E-03     54.3810E-03    -27.1298E-03     31.5743E-03    -27.2191E-03     54.0213E-03    -27.0479E-03     31.4425E-03
             811     6.13194E-03     85.5952E-03    -18.6240E+06    -79.6246E+06    -10.9129E+06    -9.86141E+06    -27.2957E-03     54.4147E-03    -27.1190E-03     37.0496E-03    -27.2648E-03     54.0667E-03    -27.0311E-03     36.8962E-03
             812     7.00813E-03     85.6328E-03    -16.5135E+06    -78.0107E+06    -8.50023E+06    -10.7479E+06    -27.3622E-03     54.4688E-03    -27.1066E-03     42.5666E-03    -27.3302E-03     54.1260E-03    -27.0121E-03     42.3943E-03
             813     7.88424E-03     85.6758E-03    -14.6703E+06    -74.5095E+06    -7.52986E+06    -11.2648E+06    -27.4448E-03     54.5284E-03    -27.0835E-03     48.1178E-03    -27.4155E-03     54.2043E-03    -26.9919E-03     47.9293E-03
             814     8.76056E-03     85.7238E-03    -13.0080E+06    -73.0825E+06    -6.77804E+06    -11.7183E+06    -27.5546E-03     54.6171E-03    -27.0625E-03     53.6798E-03    -27.5279E-03     54.3044E-03    -26.9716E-03     53.4735E-03
             815     9.63669E-03     85.7773E-03    -11.5302E+06    -73.0659E+06    -8.98845E+06    -11.9583E+06    -27.7109E-03     54.7415E-03    -27.0306E-03     59.2248E-03    -27.6849E-03     54.4413E-03    -26.9529E-03     59.0001E-03
             816     10.5130E-03     85.8358E-03    -10.4402E+06    -69.1593E+06    -12.3591E+06    -11.7246E+06    -27.8449E-03     54.8342E-03    -26.9892E-03     64.8408E-03    -27.8312E-03     54.5737E-03    -26.9356E-03     64.5999E-03
             817     11.3892E-03     85.9001E-03    -9.58180E+06    -58.2962E+06    -11.8229E+06    -11.0283E+06    -27.9806E-03     54.9370E-03    -26.9564E-03     71.4539E-03    -28.0056E-03     54.7554E-03    -26.9171E-03     71.1979E-03
             818     12.2658E-03     85.9709E-03    -8.60738E+06    -44.9170E+06    -12.1444E+06    -9.97665E+06    -28.2626E-03     55.1805E-03    -26.9179E-03     78.4655E-03    -28.3418E-03     55.1049E-03    -26.9010E-03     78.1942E-03
             819     13.1415E-03     86.0486E-03    -8.44794E+06    -37.7215E+06    -20.0349E+06    -8.60079E+06    -28.0255E-03     54.8723E-03    -26.8468E-03     80.9786E-03    -28.1607E-03     54.9017E-03    -26.8800E-03     80.6932E-03
             820     14.0187E-03     86.1242E-03    -8.71632E+06    -21.9168E+06    -24.6992E+06    -5.84787E+06    -28.1521E-03     54.9097E-03    -26.7576E-03     97.6089E-03    -28.4980E-03     55.2184E-03    -26.8366E-03     97.3094E-03
             821     14.8964E-03     86.2319E-03    -8.33502E+06     34.8128E+06    -36.0258E+06    -2.29240E+06    -35.4944E-03     62.0865E-03    -26.5921E-03     185.556E-03    -37.3922E-03     64.1827E-03    -26.8106E-03     185.209E-03
             822     15.7724E-03     86.4783E-03    -6.82597E+06     126.557E+06     10.4552E+06     815.132E+03    -48.7436E-03     75.4506E-03    -26.7070E-03     334.185E-03    -59.5985E-03     86.7002E-03    -26.8283E-03     335.332E-03
             823     16.6474E-03     86.8907E-03    -4.81441E+06     185.519E+06     93.1894E+06     1.70341E+06    -46.9488E-03     73.9892E-03    -27.0404E-03     365.360E-03    -65.2223E-03     92.6340E-03    -26.8365E-03     375.138E-03
             824     875.964E-06     86.4770E-03    -26.3347E+06    -91.0649E+06    -26.0193E+06    -2.08133E+06    -27.1247E-03     54.2522E-03    -27.1275E-03     5.71206E-03    -27.0866E-03     53.8732E-03    -27.0874E-03     5.68241E-03
             825     1.75198E-03     86.4845E-03    -25.7034E+06    -89.5641E+06    -24.5613E+06    -3.63885E+06    -27.1486E-03     54.2750E-03    -27.1263E-03     10.4687E-03    -27.1120E-03     53.9004E-03    -27.0820E-03     10.4165E-03
             826     2.62786E-03     86.4968E-03    -24.6415E+06    -87.4360E+06    -22.2008E+06    -5.35599E+06    -27.1656E-03     54.2967E-03    -27.1311E-03     15.5761E-03    -27.1307E-03     53.9284E-03    -27.0796E-03     15.4989E-03
             827     3.50382E-03     86.5140E-03    -23.3155E+06    -84.3762E+06    -19.5133E+06    -6.83537E+06    -27.1693E-03     54.2990E-03    -27.1297E-03     20.8141E-03    -27.1370E-03     53.9409E-03    -27.0711E-03     20.7146E-03
             828     4.37987E-03     86.5362E-03    -21.6738E+06    -83.0920E+06    -16.0387E+06    -8.07184E+06    -27.1947E-03     54.3238E-03    -27.1291E-03     26.1525E-03    -27.1623E-03     53.9659E-03    -27.0573E-03     26.0330E-03
             829     5.25588E-03     86.5634E-03    -19.8539E+06    -79.5345E+06    -13.0142E+06    -9.41820E+06    -27.2283E-03     54.3483E-03    -27.1200E-03     31.5664E-03    -27.1981E-03     54.0030E-03    -27.0410E-03     31.4247E-03
             830     6.13205E-03     86.5958E-03    -18.0977E+06    -76.6569E+06    -10.5530E+06    -10.7415E+06    -27.2734E-03     54.3803E-03    -27.1069E-03     37.0411E-03    -27.2447E-03     54.0458E-03    -27.0223E-03     36.8764E-03
             831     7.00814E-03     86.6334E-03    -16.5040E+06    -75.6494E+06    -8.62990E+06    -11.7095E+06    -27.3433E-03     54.4359E-03    -27.0926E-03     42.5515E-03    -27.3146E-03     54.1051E-03    -27.0021E-03     42.3667E-03
             832     7.88441E-03     86.6762E-03    -14.7115E+06    -72.4775E+06    -7.62263E+06    -12.4057E+06    -27.4316E-03     54.5016E-03    -27.0700E-03     48.0928E-03    -27.4053E-03     54.1879E-03    -26.9817E-03     47.8896E-03
             833     8.76051E-03     86.7243E-03    -12.9397E+06    -71.2815E+06    -6.92477E+06    -12.8881E+06    -27.5397E-03     54.5886E-03    -27.0489E-03     53.6477E-03    -27.5150E-03     54.2850E-03    -26.9614E-03     53.4263E-03
             834     9.63690E-03     86.7776E-03    -11.5238E+06    -71.7484E+06    -9.29793E+06    -13.1280E+06    -27.6953E-03     54.7121E-03    -27.0167E-03     59.2513E-03    -27.6709E-03     54.4189E-03    -26.9425E-03     59.0116E-03
             835     10.5130E-03     86.8364E-03    -10.5958E+06    -68.7279E+06    -13.2773E+06    -12.8914E+06    -27.8176E-03     54.7907E-03    -26.9731E-03     64.7636E-03    -27.8039E-03     54.5339E-03    -26.9244E-03     64.5078E-03
             836     11.3895E-03     86.9000E-03    -9.79092E+06    -58.2041E+06    -12.7890E+06    -12.2499E+06    -27.9675E-03     54.9075E-03    -26.9401E-03     71.4373E-03    -27.9925E-03     54.7282E-03    -26.9054E-03     71.1655E-03
             837     12.2655E-03     86.9716E-03    -8.99801E+06    -45.6962E+06    -13.4001E+06    -11.3077E+06    -28.1538E-03     55.0518E-03    -26.8980E-03     78.6212E-03    -28.2315E-03     54.9742E-03    -26.8857E-03     78.3340E-03
             838     13.1422E-03     87.0488E-03    -8.92245E+06    -39.6846E+06    -20.4552E+06    -8.98880E+06    -27.8757E-03     54.7018E-03    -26.8260E-03     80.2121E-03    -28.0082E-03     54.7210E-03    -26.8578E-03     79.9233E-03
             839     14.0195E-03     87.1225E-03    -9.44578E+06    -24.0850E+06    -25.4074E+06    -7.17101E+06    -28.5570E-03     55.3044E-03    -26.7474E-03     96.4742E-03    -28.9025E-03     55.6046E-03    -26.8258E-03     96.1526E-03
             840     14.8959E-03     87.2324E-03    -10.4444E+06     31.5133E+06    -40.9189E+06    -4.94127E+06    -36.7822E-03     63.3946E-03    -26.6124E-03     186.446E-03    -38.7170E-03     65.5229E-03    -26.8475E-03     186.031E-03
             841     15.7671E-03     87.4833E-03    -10.9419E+06     121.673E+06     -836.14E+03    -846.058E+03    -49.6050E-03     76.3693E-03    -26.7644E-03     332.959E-03    -60.4566E-03     87.6164E-03    -26.9291E-03     334.067E-03
             842     16.6428E-03     87.8855E-03    -6.29386E+06     184.352E+06     86.8751E+06     1.28902E+06    -45.4067E-03     72.5118E-03    -27.1051E-03     365.785E-03    -63.7785E-03     91.2638E-03    -26.9289E-03     375.782E-03
             843     875.987E-06     87.4778E-03    -25.3012E+06    -86.8285E+06    -24.9040E+06    -2.06375E+06    -27.1642E-03     54.2498E-03    -27.0856E-03     5.64011E-03    -27.1287E-03     53.8888E-03    -27.0475E-03     5.61074E-03
             844     1.75185E-03     87.4853E-03    -24.5788E+06    -85.2169E+06    -23.4604E+06    -4.02332E+06    -27.1389E-03     54.2623E-03    -27.1234E-03     10.4298E-03    -27.1046E-03     53.9063E-03    -27.0815E-03     10.3727E-03
             845     2.62786E-03     87.4976E-03    -23.5521E+06    -83.4333E+06    -21.3572E+06    -5.81494E+06    -27.1399E-03     54.2625E-03    -27.1226E-03     15.5681E-03    -27.1066E-03     53.9114E-03    -27.0743E-03     15.4850E-03
             846     3.50387E-03     87.5147E-03    -22.2871E+06    -80.7991E+06    -18.7830E+06    -7.35592E+06    -27.1482E-03     54.2651E-03    -27.1169E-03     20.8297E-03    -27.1169E-03     53.9224E-03    -27.0614E-03     20.7234E-03
             847     4.37989E-03     87.5368E-03    -20.7435E+06    -79.6416E+06    -15.5892E+06    -8.83876E+06    -27.1701E-03     54.2829E-03    -27.1128E-03     26.1755E-03    -27.1387E-03     53.9403E-03    -27.0452E-03     26.0460E-03
             848     5.25602E-03     87.5640E-03    -18.9450E+06    -76.1289E+06    -12.4864E+06    -10.2178E+06    -27.2043E-03     54.3066E-03    -27.1023E-03     31.5772E-03    -27.1752E-03     53.9762E-03    -27.0269E-03     31.4252E-03
             849     6.13209E-03     87.5964E-03    -17.2659E+06    -73.6841E+06    -9.55375E+06    -11.2984E+06    -27.2562E-03     54.3478E-03    -27.0915E-03     37.0289E-03    -27.2291E-03     54.0255E-03    -27.0074E-03     36.8570E-03
             850     7.00831E-03     87.6339E-03    -15.6318E+06    -72.8157E+06    -7.80099E+06    -12.3804E+06    -27.3279E-03     54.4044E-03    -27.0766E-03     42.5526E-03    -27.3001E-03     54.0853E-03    -26.9873E-03     42.3592E-03
             851     7.88440E-03     87.6767E-03    -14.0443E+06    -69.9666E+06    -7.55321E+06    -13.5125E+06    -27.4097E-03     54.4603E-03    -27.0506E-03     48.1283E-03    -27.3838E-03     54.1580E-03    -26.9665E-03     47.9110E-03
             852     8.76076E-03     87.7247E-03    -12.4467E+06    -69.5555E+06    -7.16571E+06    -14.0479E+06    -27.5235E-03     54.5523E-03    -27.0288E-03     53.7169E-03    -27.4985E-03     54.2569E-03    -26.9457E-03     53.4806E-03
             853     9.63688E-03     87.7780E-03    -11.0705E+06    -70.1890E+06    -9.49710E+06    -14.2665E+06    -27.6653E-03     54.6615E-03    -26.9963E-03     59.3455E-03    -27.6404E-03     54.3757E-03    -26.9259E-03     59.0913E-03
             854     10.5133E-03     87.8367E-03    -9.96457E+06    -68.0799E+06    -13.6486E+06    -14.1189E+06    -27.8274E-03     54.7804E-03    -26.9530E-03     64.8235E-03    -27.8109E-03     54.5264E-03    -26.9081E-03     64.5520E-03
             855     11.3894E-03     87.9003E-03    -9.21359E+06    -58.3110E+06    -13.5585E+06    -13.3412E+06    -27.9849E-03     54.9060E-03    -26.9210E-03     71.5226E-03    -28.0058E-03     54.7265E-03    -26.8909E-03     71.2368E-03
             856     12.2661E-03     87.9718E-03    -8.99629E+06    -46.2311E+06    -14.3087E+06    -12.0543E+06    -28.0819E-03     54.9608E-03    -26.8789E-03     78.4375E-03    -28.1563E-03     54.8806E-03    -26.8703E-03     78.1419E-03
             857     13.1426E-03     88.0485E-03    -8.56226E+06    -41.9976E+06    -21.2730E+06    -10.1524E+06    -28.3277E-03     55.1510E-03    -26.8233E-03     79.6852E-03    -28.4543E-03     55.1598E-03    -26.8563E-03     79.3782E-03
             858     14.0182E-03     88.1229E-03    -8.68489E+06    -26.2951E+06    -26.1634E+06    -7.07897E+06    -29.4967E-03     56.2844E-03    -26.7877E-03     96.4620E-03    -29.8419E-03     56.5813E-03    -26.8678E-03     96.1285E-03
             859     14.8930E-03     88.2337E-03    -12.2069E+06     26.8240E+06    -45.9536E+06    -3.93303E+06    -36.4228E-03     63.0671E-03    -26.6443E-03     189.161E-03    -38.3550E-03     65.1844E-03    -26.8953E-03     188.780E-03
             860     15.7701E-03     88.4878E-03    -12.9139E+06     119.347E+06    -8.24297E+06    -2.93971E+06    -48.5878E-03     75.3071E-03    -26.7194E-03     336.395E-03    -59.5615E-03     86.6826E-03    -26.9149E-03     337.645E-03
             861     16.6455E-03     88.8874E-03    -7.56606E+06     184.035E+06     82.7410E+06    -2.11022E+06    -45.3798E-03     72.4173E-03    -27.0375E-03     364.356E-03    -63.6992E-03     91.1233E-03    -26.8797E-03     374.350E-03
             862     875.883E-06     88.4786E-03    -23.1506E+06    -82.1312E+06    -23.2423E+06    -2.30298E+06    -27.1371E-03     54.2455E-03    -27.1084E-03     5.66858E-03    -27.1000E-03     53.9024E-03    -27.0719E-03     5.63609E-03
             863     1.75192E-03     88.4860E-03    -22.7573E+06    -80.5478E+06    -22.1094E+06    -4.35162E+06    -27.1046E-03     54.2167E-03    -27.1121E-03     10.4790E-03    -27.0699E-03     53.8794E-03    -27.0728E-03     10.4176E-03
             864     2.62792E-03     88.4982E-03    -21.8582E+06    -79.1028E+06    -20.0771E+06    -6.33429E+06    -27.1081E-03     54.2107E-03    -27.1026E-03     15.5911E-03    -27.0745E-03     53.8769E-03    -27.0566E-03     15.5013E-03
             865     3.50395E-03     88.5154E-03    -20.5540E+06    -76.9647E+06    -17.6015E+06    -7.99391E+06    -27.1246E-03     54.2188E-03    -27.0942E-03     20.8236E-03    -27.0920E-03     53.8910E-03    -27.0408E-03     20.7090E-03
             866     4.38003E-03     88.5375E-03    -19.0906E+06    -75.8404E+06    -14.3758E+06    -9.48151E+06    -27.1475E-03     54.2371E-03    -27.0896E-03     26.1567E-03    -27.1151E-03     53.9094E-03    -27.0238E-03     26.0191E-03
             867     5.25608E-03     88.5646E-03    -17.7144E+06    -72.8019E+06    -11.5225E+06    -10.7905E+06    -27.1720E-03     54.2502E-03    -27.0782E-03     31.5811E-03    -27.1430E-03     53.9332E-03    -27.0045E-03     31.4218E-03
             868     6.13227E-03     88.5969E-03    -16.1490E+06    -70.6364E+06    -8.81734E+06    -11.9105E+06    -27.2187E-03     54.2837E-03    -27.0650E-03     37.0679E-03    -27.1915E-03     53.9740E-03    -26.9833E-03     36.8882E-03
             869     7.00838E-03     88.6344E-03    -14.3686E+06    -69.4858E+06    -7.15268E+06    -13.2409E+06    -27.2824E-03     54.3291E-03    -27.0467E-03     42.6318E-03    -27.2540E-03     54.0237E-03    -26.9608E-03     42.4276E-03
             870     7.88473E-03     88.6771E-03    -12.7907E+06    -67.2494E+06    -7.00642E+06    -14.3016E+06    -27.3617E-03     54.3801E-03    -27.0185E-03     48.2431E-03    -27.3341E-03     54.0887E-03    -26.9374E-03     48.0159E-03
             871     8.76089E-03     88.7251E-03    -11.4833E+06    -67.4243E+06    -6.76438E+06    -15.1117E+06    -27.4775E-03     54.4724E-03    -26.9949E-03     53.8927E-03    -27.4513E-03     54.1857E-03    -26.9143E-03     53.6431E-03
             872     9.63730E-03     88.7784E-03    -10.1444E+06    -68.5656E+06    -9.05816E+06    -15.4662E+06    -27.6338E-03     54.5959E-03    -26.9621E-03     59.5505E-03    -27.6072E-03     54.3161E-03    -26.8932E-03     59.2813E-03
             873     10.5135E-03     88.8369E-03    -9.15080E+06    -67.1369E+06    -13.3600E+06    -15.4072E+06    -27.8292E-03     54.7490E-03    -26.9198E-03     65.1131E-03    -27.8103E-03     54.4981E-03    -26.8760E-03     64.8253E-03
             874     11.3899E-03     88.9008E-03    -8.12459E+06    -58.3932E+06    -13.4130E+06    -14.7358E+06    -28.0478E-03     54.9400E-03    -26.8922E-03     71.7295E-03    -28.0634E-03     54.7583E-03    -26.8628E-03     71.4257E-03
             875     12.2660E-03     88.9717E-03    -6.84731E+06    -47.4881E+06    -13.8855E+06    -13.0244E+06    -28.2908E-03     55.1530E-03    -26.8622E-03     78.5036E-03    -28.3535E-03     55.0631E-03    -26.8528E-03     78.1945E-03
             876     13.1421E-03     89.0490E-03    -6.64540E+06    -43.9039E+06    -20.6561E+06    -10.7344E+06    -28.5941E-03     55.4177E-03    -26.8235E-03     80.7564E-03    -28.7103E-03     55.4143E-03    -26.8535E-03     80.4407E-03
             877     14.0174E-03     89.1248E-03    -8.12549E+06    -31.9533E+06    -28.1051E+06    -6.19428E+06    -29.5247E-03     56.3119E-03    -26.7872E-03     98.4119E-03    -29.8629E-03     56.5893E-03    -26.8696E-03     98.0903E-03
             878     14.8938E-03     89.2343E-03    -8.45092E+06     25.8768E+06    -43.4243E+06    -2.51939E+06    -35.3702E-03     61.9904E-03    -26.6202E-03     190.115E-03    -37.2737E-03     64.0817E-03    -26.8626E-03     189.788E-03
             879     15.7718E-03     89.4860E-03    -8.50614E+06     120.779E+06     190.002E+03    -3.64724E+06    -47.2656E-03     73.9111E-03    -26.6456E-03     338.170E-03    -58.2699E-03     85.3135E-03    -26.8074E-03     339.498E-03
             880     16.6493E-03     89.8930E-03    -6.35540E+06     180.457E+06     86.5635E+06    -3.40504E+06    -46.2559E-03     73.1935E-03    -26.9376E-03     362.485E-03    -64.3554E-03     91.6601E-03    -26.7572E-03     372.249E-03
             881     876.019E-06     89.4793E-03    -20.7792E+06    -77.0289E+06    -20.9500E+06    -2.65910E+06    -27.0997E-03     54.1838E-03    -27.0841E-03     5.64873E-03    -27.0615E-03     53.8595E-03    -27.0470E-03     5.61169E-03
             882     1.75198E-03     89.4868E-03    -20.4393E+06    -75.5920E+06    -20.2062E+06    -4.69493E+06    -27.0772E-03     54.1571E-03    -27.0799E-03     10.4413E-03    -27.0409E-03     53.8385E-03    -27.0417E-03     10.3755E-03
             883     2.62800E-03     89.4990E-03    -19.8458E+06    -74.3490E+06    -18.4182E+06    -6.76398E+06    -27.0777E-03     54.1482E-03    -27.0705E-03     15.5773E-03    -27.0433E-03     53.8329E-03    -27.0260E-03     15.4820E-03
             884     3.50404E-03     89.5160E-03    -18.8478E+06    -72.7554E+06    -16.1167E+06    -8.67687E+06    -27.0888E-03     54.1505E-03    -27.0617E-03     20.8454E-03    -27.0559E-03     53.8392E-03    -27.0095E-03     20.7221E-03
             885     4.38010E-03     89.5381E-03    -17.4939E+06    -72.0928E+06    -13.2352E+06    -10.1158E+06    -27.1027E-03     54.1570E-03    -27.0544E-03     26.1861E-03    -27.0693E-03     53.8440E-03    -26.9906E-03     26.0403E-03
             886     5.25629E-03     89.5652E-03    -15.8392E+06    -69.3056E+06    -10.4897E+06    -11.3804E+06    -27.1131E-03     54.1520E-03    -27.0389E-03     31.6381E-03    -27.0812E-03     53.8483E-03    -26.9679E-03     31.4714E-03
             887     6.13247E-03     89.5974E-03    -14.0812E+06    -67.2436E+06    -7.88488E+06    -12.7475E+06    -27.1419E-03     54.1620E-03    -27.0200E-03     37.1633E-03    -27.1105E-03     53.8647E-03    -26.9415E-03     36.9731E-03
             888     7.00880E-03     89.6348E-03    -12.5701E+06    -66.1626E+06    -5.82873E+06    -13.8996E+06    -27.1961E-03     54.1945E-03    -26.9985E-03     42.7578E-03    -27.1653E-03     53.9012E-03    -26.9134E-03     42.5455E-03
             889     7.88501E-03     89.6774E-03    -11.2546E+06    -64.3218E+06    -5.50602E+06    -15.0502E+06    -27.2769E-03     54.2441E-03    -26.9672E-03     48.4299E-03    -27.2479E-03     53.9628E-03    -26.8852E-03     48.1936E-03
             890     8.76147E-03     89.7254E-03    -9.91550E+06    -64.8319E+06    -5.46286E+06    -15.9626E+06    -27.3953E-03     54.3345E-03    -26.9392E-03     54.1381E-03    -27.3666E-03     54.0564E-03    -26.8582E-03     53.8782E-03
             891     9.63776E-03     89.7786E-03    -8.93718E+06    -66.8703E+06    -7.91064E+06    -16.4371E+06    -27.5638E-03     54.4684E-03    -26.9047E-03     59.8739E-03    -27.5349E-03     54.1934E-03    -26.8343E-03     59.5930E-03
             892     10.5142E-03     89.8373E-03    -8.31845E+06    -65.9136E+06    -12.4744E+06    -16.4120E+06    -27.7834E-03     54.6446E-03    -26.8612E-03     65.5664E-03    -27.7632E-03     54.3971E-03    -26.8160E-03     65.2665E-03
             893     11.3904E-03     89.9010E-03    -7.85995E+06    -57.9450E+06    -12.8135E+06    -16.1450E+06    -28.0722E-03     54.9086E-03    -26.8364E-03     72.3256E-03    -28.0880E-03     54.7279E-03    -26.8050E-03     72.0041E-03
             894     12.2666E-03     89.9725E-03    -7.05916E+06    -49.0257E+06    -13.6214E+06    -14.8847E+06    -28.3490E-03     55.1623E-03    -26.8133E-03     79.3802E-03    -28.4119E-03     55.0656E-03    -26.8001E-03     79.0469E-03
             895     13.1427E-03     90.0494E-03    -6.51298E+06    -47.8595E+06    -20.0002E+06    -11.2496E+06    -28.3253E-03     55.0988E-03    -26.7735E-03     82.0131E-03    -28.4365E-03     55.0750E-03    -26.7946E-03     81.6933E-03
             896     14.0198E-03     90.1255E-03    -5.61226E+06    -36.4981E+06    -27.2974E+06    -7.20972E+06    -29.0656E-03     55.7778E-03    -26.7122E-03     99.6301E-03    -29.3850E-03     56.0268E-03    -26.7876E-03     99.3032E-03
             897     14.8956E-03     90.2352E-03    -5.44218E+06     24.9797E+06    -41.4543E+06    -4.14814E+06    -35.1439E-03     61.6750E-03    -26.5311E-03     189.355E-03    -37.0411E-03     63.7618E-03    -26.7667E-03     189.020E-03
             898     15.7728E-03     90.4840E-03    -5.07119E+06     121.221E+06     8.10495E+06    -1.92695E+06    -47.3361E-03     73.9203E-03    -26.5842E-03     338.482E-03    -58.3662E-03     85.3392E-03    -26.7121E-03     339.819E-03
             899     16.6510E-03     90.8942E-03    -2.81380E+06     179.259E+06     93.1638E+06    -810.938E+03    -46.8525E-03     73.7355E-03    -26.8830E-03     363.220E-03    -64.8912E-03     92.1304E-03    -26.6730E-03     372.907E-03
             900     875.964E-06     90.4800E-03    -18.6046E+06    -71.3275E+06    -18.5070E+06    -2.98129E+06    -27.0638E-03     54.1077E-03    -27.0438E-03     5.60177E-03    -27.0266E-03     53.8052E-03    -27.0060E-03     5.56063E-03
             901     1.75201E-03     90.4875E-03    -17.9863E+06    -70.4105E+06    -17.4705E+06    -5.09226E+06    -27.0333E-03     54.0766E-03    -27.0433E-03     10.4216E-03    -26.9962E-03     53.7763E-03    -27.0025E-03     10.3508E-03
             902     2.62810E-03     90.4996E-03    -17.1415E+06    -69.2361E+06    -15.8432E+06    -7.23643E+06    -27.0163E-03     54.0445E-03    -27.0281E-03     15.5952E-03    -26.9795E-03     53.7470E-03    -26.9821E-03     15.4939E-03
             903     3.50422E-03     90.5166E-03    -16.1921E+06    -68.3427E+06    -13.7204E+06    -9.10212E+06    -27.0186E-03     54.0318E-03    -27.0132E-03     20.8882E-03    -26.9823E-03     53.7352E-03    -26.9592E-03     20.7596E-03
             904     4.38039E-03     90.5386E-03    -14.9855E+06    -68.0072E+06    -11.3398E+06    -10.8203E+06    -27.0209E-03     54.0189E-03    -26.9981E-03     26.2477E-03    -26.9836E-03     53.7199E-03    -26.9344E-03     26.0931E-03
             905     5.25658E-03     90.5656E-03    -13.2841E+06    -65.4367E+06    -8.98708E+06    -12.4918E+06    -27.0196E-03     53.9944E-03    -26.9748E-03     31.7401E-03    -26.9827E-03     53.7041E-03    -26.9055E-03     31.5594E-03
             906     6.13290E-03     90.5978E-03    -11.5635E+06    -63.9931E+06    -6.04545E+06    -13.5362E+06    -27.0335E-03     53.9855E-03    -26.9520E-03     37.2961E-03    -26.9968E-03     53.6981E-03    -26.8727E-03     37.0963E-03
             907     7.00923E-03     90.6350E-03    -10.0405E+06    -62.9365E+06    -3.84093E+06    -14.4723E+06    -27.0749E-03     53.9993E-03    -26.9244E-03     42.9335E-03    -27.0389E-03     53.7154E-03    -26.8378E-03     42.7145E-03
             908     7.88576E-03     90.6777E-03    -8.82040E+06    -61.1457E+06    -3.26078E+06    -15.5083E+06    -27.1533E-03     54.0417E-03    -26.8884E-03     48.6536E-03    -27.1198E-03     53.7693E-03    -26.8033E-03     48.4122E-03
             909     8.76214E-03     90.7255E-03    -8.07299E+06    -62.2019E+06    -3.50095E+06    -16.4060E+06    -27.2746E-03     54.1302E-03    -26.8556E-03     54.4231E-03    -27.2431E-03     53.8594E-03    -26.7712E-03     54.1584E-03
             910     9.63870E-03     90.7788E-03    -7.50206E+06    -64.8447E+06    -6.13069E+06    -16.9290E+06    -27.4380E-03     54.2552E-03    -26.8172E-03     60.2326E-03    -27.4072E-03     53.9854E-03    -26.7430E-03     59.9464E-03
             911     10.5151E-03     90.8373E-03    -7.30133E+06    -64.7441E+06    -10.9710E+06    -16.9166E+06    -27.6626E-03     54.4329E-03    -26.7703E-03     66.0763E-03    -27.6408E-03     54.1872E-03    -26.7207E-03     65.7712E-03
             912     11.3916E-03     90.9014E-03    -7.39740E+06    -56.7330E+06    -11.5007E+06    -16.7033E+06    -27.9394E-03     54.6806E-03    -26.7412E-03     72.9950E-03    -27.9562E-03     54.5031E-03    -26.7057E-03     72.6677E-03
             913     12.2680E-03     90.9726E-03    -7.51350E+06    -49.9846E+06    -13.3130E+06    -15.9738E+06    -28.1932E-03     54.9060E-03    -26.7128E-03     79.9804E-03    -28.2572E-03     54.8044E-03    -26.6960E-03     79.6347E-03
             914     13.1446E-03     91.0497E-03    -6.84684E+06    -51.7003E+06    -20.8673E+06    -13.4241E+06    -28.2670E-03     54.9366E-03    -26.6696E-03     82.2136E-03    -28.3736E-03     54.8958E-03    -26.6890E-03     81.8664E-03
             915     14.0206E-03     91.1250E-03    -5.93989E+06    -40.3685E+06    -29.0758E+06    -9.88821E+06    -28.9528E-03     55.5572E-03    -26.6044E-03     99.6168E-03    -29.2598E-03     55.7842E-03    -26.6827E-03     99.2597E-03
             916     14.8975E-03     91.2363E-03    -5.88850E+06     21.4980E+06    -42.5525E+06    -6.47753E+06    -35.3411E-03     61.7793E-03    -26.4381E-03     188.348E-03    -37.2325E-03     63.8495E-03    -26.6735E-03     187.979E-03
             917     15.7745E-03     91.4826E-03    -6.51014E+06     118.675E+06     2.84164E+06    -1.76347E+06    -47.9033E-03     74.4071E-03    -26.5038E-03     337.389E-03    -58.9166E-03     85.8104E-03    -26.6523E-03     338.684E-03
             918     16.6507E-03     91.8956E-03    -4.75710E+06     178.455E+06     87.6093E+06     659.689E+03    -46.9409E-03     73.7603E-03    -26.8194E-03     364.801E-03    -65.1195E-03     92.3015E-03    -26.6332E-03     374.576E-03
             919     876.086E-06     91.4808E-03    -15.9172E+06    -65.0836E+06    -15.7972E+06    -3.20537E+06    -26.9864E-03     53.9667E-03    -26.9803E-03     5.68168E-03    -26.9488E-03     53.6877E-03    -26.9418E-03     5.63763E-03
             920     1.75214E-03     91.4880E-03    -15.3450E+06    -64.7796E+06    -14.5610E+06    -5.59454E+06    -26.9561E-03     53.9294E-03    -26.9734E-03     10.4375E-03    -26.9181E-03     53.6493E-03    -26.9300E-03     10.3602E-03
             921     2.62828E-03     91.5001E-03    -14.3882E+06    -63.9502E+06    -13.1622E+06    -7.83455E+06    -26.9340E-03     53.8884E-03    -26.9544E-03     15.6608E-03    -26.8950E-03     53.6095E-03    -26.9066E-03     15.5519E-03
             922     3.50446E-03     91.5171E-03    -13.1890E+06    -63.7700E+06    -11.2100E+06    -9.71689E+06    -26.9173E-03     53.8517E-03    -26.9344E-03     20.9454E-03    -26.8762E-03     53.5699E-03    -26.8789E-03     20.8091E-03
             923     4.38072E-03     91.5390E-03    -11.7736E+06    -63.2371E+06    -8.81287E+06    -11.6237E+06    -26.8957E-03     53.8068E-03    -26.9112E-03     26.3282E-03    -26.8529E-03     53.5233E-03    -26.8465E-03     26.1636E-03
             924     5.25709E-03     91.5659E-03    -10.6085E+06    -61.4632E+06    -6.77184E+06    -13.2577E+06    -26.8828E-03     53.7627E-03    -26.8800E-03     31.8520E-03    -26.8414E-03     53.4851E-03    -26.8093E-03     31.6619E-03
             925     6.13351E-03     91.5979E-03    -9.43722E+06    -60.9162E+06    -4.47299E+06    -14.2655E+06    -26.8882E-03     53.7370E-03    -26.8488E-03     37.4510E-03    -26.8475E-03     53.4595E-03    -26.7691E-03     37.2424E-03
             926     7.01007E-03     91.6351E-03     -7.9979E+06    -59.5033E+06    -2.35141E+06    -15.2669E+06    -26.9229E-03     53.7368E-03    -26.8138E-03     43.1416E-03    -26.8836E-03     53.4647E-03    -26.7277E-03     42.9131E-03
             927     7.88657E-03     91.6776E-03    -6.74249E+06    -58.6889E+06    -1.34603E+06    -15.8244E+06    -26.9900E-03     53.7651E-03    -26.7751E-03     48.9069E-03    -26.9522E-03     53.4989E-03    -26.6869E-03     48.6623E-03
             928     8.76327E-03     91.7255E-03    -6.07904E+06    -59.3098E+06    -1.27738E+06    -16.2670E+06    -27.1019E-03     53.8389E-03    -26.7370E-03     54.7538E-03    -27.0675E-03     53.5761E-03    -26.6486E-03     54.4922E-03
             929     9.63987E-03     91.7785E-03    -5.86700E+06    -62.6477E+06    -4.26628E+06    -17.0420E+06    -27.2812E-03     53.9745E-03    -26.6933E-03     60.6356E-03    -27.2477E-03     53.7101E-03    -26.6153E-03     60.3493E-03
             930     10.5165E-03     91.8373E-03    -5.83248E+06    -63.5245E+06    -9.60965E+06    -17.0967E+06    -27.5010E-03     54.1424E-03    -26.6414E-03     66.5616E-03    -27.4751E-03     53.8982E-03    -26.5889E-03     66.2558E-03
             931     11.3931E-03     91.9012E-03    -5.91501E+06    -55.4630E+06    -10.2474E+06    -16.8211E+06    -27.7774E-03     54.3852E-03    -26.6077E-03     73.5031E-03    -27.7897E-03     54.2093E-03    -26.5700E-03     73.1763E-03
             932     12.2697E-03     91.9729E-03    -6.01061E+06    -49.8187E+06    -11.8225E+06    -16.3147E+06    -28.1648E-03     54.7480E-03    -26.5832E-03     80.3588E-03    -28.2231E-03     54.6424E-03    -26.5614E-03     80.0100E-03
             933     13.1460E-03     92.0496E-03    -6.12865E+06    -53.9150E+06    -20.8922E+06    -14.9893E+06    -28.4560E-03     55.0058E-03    -26.5498E-03     82.5445E-03    -28.5561E-03     54.9533E-03    -26.5672E-03     82.1767E-03
             934     14.0222E-03     92.1258E-03    -6.32650E+06    -43.9596E+06    -31.9889E+06    -12.0900E+06    -29.2092E-03     55.7036E-03    -26.4944E-03     99.6610E-03    -29.5050E-03     55.9136E-03    -26.5814E-03     99.2749E-03
             935     14.8986E-03     92.2353E-03    -6.60320E+06     15.4596E+06    -45.9957E+06    -7.60585E+06    -36.0083E-03     62.3682E-03    -26.3600E-03     188.672E-03    -37.8951E-03     64.4199E-03    -26.6028E-03     188.268E-03
             936     15.7734E-03     92.4851E-03    -6.80656E+06     113.804E+06    -1.28086E+06    -2.14968E+06    -48.4787E-03     74.9408E-03    -26.4622E-03     336.314E-03    -59.4352E-03     86.2809E-03    -26.6237E-03     337.601E-03
             937     16.6514E-03     92.8925E-03    -5.07159E+06     178.725E+06     84.8098E+06     1.14672E+06    -46.5189E-03     73.3099E-03    -26.7910E-03     365.327E-03    -64.8279E-03     91.9894E-03    -26.6188E-03     375.281E-03
             938     876.140E-06     92.4813E-03    -12.4242E+06    -58.4987E+06    -12.2788E+06    -3.29677E+06    -26.8704E-03     53.7318E-03    -26.8614E-03     5.69081E-03    -26.8299E-03     53.4755E-03    -26.8200E-03     5.64563E-03
             939     1.75235E-03     92.4884E-03    -12.0556E+06    -58.5258E+06    -11.5920E+06    -5.98516E+06    -26.8446E-03     53.6998E-03    -26.8552E-03     10.4476E-03    -26.8036E-03     53.4418E-03    -26.8108E-03     10.3655E-03
             940     2.62860E-03     92.5005E-03    -11.3252E+06    -58.3556E+06    -10.3763E+06    -8.45573E+06    -26.8131E-03     53.6499E-03    -26.8368E-03     15.7153E-03    -26.7709E-03     53.3905E-03    -26.7877E-03     15.5986E-03
             941     3.50490E-03     92.5173E-03    -10.2618E+06    -58.7687E+06    -8.70215E+06    -10.5693E+06    -26.7739E-03     53.5864E-03    -26.8125E-03     21.0259E-03    -26.7290E-03     53.3217E-03    -26.7559E-03     20.8789E-03
             942     4.38131E-03     92.5391E-03    -9.05130E+06    -58.2889E+06    -6.68733E+06    -12.5019E+06    -26.7361E-03     53.5172E-03    -26.7811E-03     26.4434E-03    -26.6898E-03     53.2513E-03    -26.7169E-03     26.2680E-03
             943     5.25780E-03     92.5659E-03    -7.81716E+06    -57.8507E+06    -4.48884E+06    -13.6915E+06    -26.7095E-03     53.4549E-03    -26.7454E-03     31.9777E-03    -26.6625E-03     53.1878E-03    -26.6726E-03     31.7826E-03
             944     6.13440E-03     92.5978E-03    -6.75511E+06    -57.2736E+06    -2.43337E+06    -14.7608E+06    -26.7005E-03     53.4062E-03    -26.7057E-03     37.6256E-03    -26.6544E-03     53.1399E-03    -26.6250E-03     37.4114E-03
             945     7.01104E-03     92.6349E-03    -5.89238E+06    -56.3935E+06    -872.360E+03    -15.6997E+06    -26.7191E-03     53.3811E-03    -26.6620E-03     43.3993E-03    -26.6756E-03     53.1191E-03    -26.5761E-03     43.1664E-03
             946     7.88785E-03     92.6773E-03    -5.22066E+06    -56.5859E+06    -128.062E+03    -16.0005E+06    -26.7761E-03     53.3928E-03    -26.6168E-03     49.2431E-03    -26.7351E-03     53.1328E-03    -26.5278E-03     48.9977E-03
             947     8.76465E-03     92.7249E-03    -4.39215E+06    -56.5937E+06     19.7646E+03    -16.4275E+06    -26.8853E-03     53.4563E-03    -26.5710E-03     55.1898E-03    -26.8477E-03     53.2022E-03    -26.4825E-03     54.9278E-03
             948     9.64154E-03     92.7783E-03    -3.72910E+06    -60.1918E+06    -2.45416E+06    -16.9987E+06    -27.0932E-03     53.6178E-03    -26.5246E-03     61.1742E-03    -27.0545E-03     53.3594E-03    -26.4442E-03     60.8903E-03
             949     10.5183E-03     92.8367E-03    -3.69397E+06    -62.3006E+06    -8.56829E+06    -17.2069E+06    -27.3557E-03     53.8246E-03    -26.4690E-03     67.1423E-03    -27.3217E-03     53.5813E-03    -26.4161E-03     66.8369E-03
             950     11.3951E-03     92.9010E-03    -3.90498E+06    -54.1613E+06    -9.35063E+06    -16.9401E+06    -27.6792E-03     54.1154E-03    -26.4362E-03     74.1890E-03    -27.6838E-03     53.9409E-03    -26.3987E-03     73.8628E-03
             951     12.2717E-03     92.9726E-03    -4.05230E+06    -49.1992E+06    -9.92541E+06    -16.5259E+06    -28.2217E-03     54.6472E-03    -26.4256E-03     81.2469E-03    -28.2736E-03     54.5389E-03    -26.3980E-03     80.8966E-03
             952     13.1479E-03     93.0502E-03    -4.73224E+06    -55.1534E+06    -20.4098E+06    -15.3154E+06    -28.5795E-03     54.9822E-03    -26.4027E-03     83.3123E-03    -28.6711E-03     54.9203E-03    -26.4179E-03     82.9414E-03
             953     14.0238E-03     93.1258E-03    -5.80967E+06    -46.3212E+06    -33.6680E+06    -13.1331E+06    -29.6007E-03     55.9622E-03    -26.3615E-03     100.573E-03    -29.8904E-03     56.1644E-03    -26.4542E-03     100.171E-03
             954     14.8994E-03     93.2364E-03    -7.34961E+06     8.67894E+06    -47.8266E+06    -8.74135E+06    -36.9793E-03     63.2543E-03    -26.2750E-03     190.325E-03    -38.8829E-03     65.3013E-03    -26.5160E-03     189.882E-03
             955     15.7753E-03     93.4870E-03    -8.46260E+06     106.356E+06    -4.78602E+06    -2.81845E+06    -49.1366E-03     75.5570E-03    -26.4204E-03     335.804E-03    -60.0506E-03     86.8324E-03    -26.5863E-03     337.048E-03
             956     16.6496E-03     93.8923E-03    -5.99512E+06     178.050E+06     82.7451E+06     768.198E+03    -45.8346E-03     72.5898E-03    -26.7552E-03     365.067E-03    -64.1592E-03     91.2852E-03    -26.5909E-03     375.141E-03
             957     876.329E-06     93.4815E-03    -8.56464E+06    -51.6482E+06    -8.59743E+06    -3.43567E+06    -26.6973E-03     53.4022E-03    -26.7049E-03     5.67588E-03    -26.6528E-03     53.1692E-03    -26.6606E-03     5.62903E-03
             958     1.75265E-03     93.4887E-03    -8.23403E+06    -51.7693E+06    -8.08200E+06    -6.27710E+06    -26.6801E-03     53.3690E-03    -26.6890E-03     10.5091E-03    -26.6348E-03     53.1342E-03    -26.6424E-03     10.4234E-03
             959     2.62900E-03     93.5005E-03    -7.67541E+06    -52.3228E+06    -7.07021E+06    -8.98115E+06    -26.6424E-03     53.3121E-03    -26.6697E-03     15.7597E-03    -26.5955E-03     53.0727E-03    -26.6181E-03     15.6365E-03
             960     3.50551E-03     93.5173E-03    -6.88867E+06    -53.2913E+06    -5.68407E+06    -11.2979E+06    -26.5829E-03     53.2242E-03    -26.6413E-03     21.0978E-03    -26.5333E-03     52.9775E-03    -26.5825E-03     20.9419E-03
             961     4.38207E-03     93.5389E-03    -5.97534E+06    -53.4047E+06    -4.21445E+06    -13.1630E+06    -26.5305E-03     53.1329E-03    -26.6024E-03     26.5534E-03    -26.4794E-03     52.8833E-03    -26.5374E-03     26.3701E-03
             962     5.25875E-03     93.5656E-03    -4.95645E+06    -54.3359E+06    -2.47108E+06    -14.3960E+06    -26.4827E-03     53.0422E-03    -26.5595E-03     32.1518E-03    -26.4293E-03     52.7855E-03    -26.4859E-03     31.9484E-03
             963     6.13555E-03     93.5973E-03    -3.90513E+06    -53.6787E+06    -759.634E+03    -15.1310E+06    -26.4497E-03     52.9589E-03    -26.5092E-03     37.8867E-03    -26.3968E-03     52.7037E-03    -26.4295E-03     37.6689E-03
             964     7.01250E-03     93.6343E-03    -3.30451E+06    -53.7770E+06     617.649E+03    -15.5515E+06    -26.4493E-03     52.9060E-03    -26.4567E-03     43.7385E-03    -26.3985E-03     52.6507E-03    -26.3708E-03     43.5089E-03
             965     7.88950E-03     93.6765E-03    -2.82627E+06    -54.0997E+06     1.11670E+06    -15.9762E+06    -26.5027E-03     52.9041E-03    -26.4015E-03     49.6950E-03    -26.4546E-03     52.6507E-03    -26.3133E-03     49.4516E-03
             966     8.76659E-03     93.7242E-03    -2.30819E+06    -53.8666E+06     1.19158E+06    -16.7089E+06    -26.6259E-03     52.9742E-03    -26.3483E-03     55.7693E-03    -26.5830E-03     52.7284E-03    -26.2609E-03     55.5057E-03
             967     9.64367E-03     93.7773E-03    -1.88016E+06    -58.1146E+06    -757.231E+03    -17.1634E+06    -26.8614E-03     53.1628E-03    -26.3014E-03     61.9086E-03    -26.8182E-03     52.9088E-03    -26.2182E-03     61.6249E-03
             968     10.5207E-03     93.8362E-03    -1.81308E+06    -60.5963E+06    -6.81978E+06    -17.2703E+06    -27.2042E-03     53.4510E-03    -26.2468E-03     67.9672E-03    -27.1651E-03     53.2101E-03    -26.1904E-03     67.6633E-03
             969     11.3975E-03     93.9002E-03    -2.12853E+06    -53.2466E+06    -8.23036E+06    -17.0178E+06    -27.6223E-03     53.8409E-03    -26.2185E-03     75.1269E-03    -27.6203E-03     53.6662E-03    -26.1794E-03     74.8018E-03
             970     12.2743E-03     93.9726E-03    -2.42379E+06    -48.2220E+06    -7.92186E+06    -16.6165E+06    -28.1784E-03     54.3995E-03    -26.2211E-03     82.4963E-03    -28.2259E-03     54.2902E-03    -26.1873E-03     82.1470E-03
             971     13.1504E-03     94.0504E-03    -3.02063E+06    -56.4120E+06    -18.9193E+06    -15.2209E+06    -28.8005E-03     55.0152E-03    -26.2147E-03     84.4487E-03    -28.8840E-03     54.9426E-03    -26.2231E-03     84.0793E-03
             972     14.0266E-03     94.1260E-03    -5.08823E+06    -47.9654E+06    -33.0415E+06    -12.9443E+06    -30.2141E-03     56.4198E-03    -26.2057E-03     101.546E-03    -30.5055E-03     56.6186E-03    -26.2940E-03     101.140E-03
             973     14.9021E-03     94.2383E-03    -8.21405E+06     2.90040E+06    -45.5335E+06    -9.39434E+06    -37.3736E-03     63.5415E-03    -26.1679E-03     192.120E-03    -39.2883E-03     65.5693E-03    -26.3879E-03     191.664E-03
             974     15.7746E-03     94.4906E-03    -8.68287E+06     98.5035E+06    -8.63701E+06    -2.64950E+06    -49.0775E-03     75.3672E-03    -26.2897E-03     337.688E-03    -60.0705E-03     86.7041E-03    -26.4631E-03     338.962E-03
             975     16.6522E-03     94.8915E-03    -5.45841E+06     177.348E+06     78.5558E+06     993.897E+03    -46.0930E-03     72.7088E-03    -26.6158E-03     365.182E-03    -64.4262E-03     91.4245E-03    -26.4723E-03     375.197E-03
             976     876.472E-06     94.4813E-03    -4.72041E+06    -44.3976E+06    -4.84068E+06    -3.69392E+06    -26.4676E-03     52.9619E-03    -26.4942E-03     5.62265E-03    -26.4198E-03     52.7541E-03    -26.4472E-03     5.57269E-03
             977     1.75304E-03     94.4885E-03    -4.46245E+06    -44.6277E+06    -4.50984E+06    -6.63991E+06    -26.4460E-03     52.9110E-03    -26.4650E-03     10.5802E-03    -26.3974E-03     52.7012E-03    -26.4163E-03     10.4901E-03
             978     2.62964E-03     94.5003E-03    -4.09214E+06    -46.0422E+06    -3.71610E+06    -9.34878E+06    -26.4026E-03     52.8438E-03    -26.4411E-03     15.8179E-03    -26.3517E-03     52.6257E-03    -26.3870E-03     15.6904E-03
             979     3.50628E-03     94.5169E-03    -3.61492E+06    -47.4096E+06    -2.85019E+06    -11.7647E+06    -26.3273E-03     52.7333E-03    -26.4060E-03     21.2260E-03    -26.2740E-03     52.5071E-03    -26.3462E-03     21.0646E-03
             980     4.38310E-03     94.5383E-03    -3.03339E+06    -48.6522E+06    -2.12218E+06    -13.6361E+06    -26.2486E-03     52.6066E-03    -26.3579E-03     26.7451E-03    -26.1927E-03     52.3733E-03    -26.2936E-03     26.5564E-03
             981     5.26005E-03     94.5648E-03    -2.40208E+06    -50.3114E+06    -1.13888E+06    -14.9720E+06    -26.1808E-03     52.4843E-03    -26.3035E-03     32.4098E-03    -26.1222E-03     52.2419E-03    -26.2328E-03     32.2001E-03
             982     6.13715E-03     94.5963E-03    -1.70052E+06    -50.7986E+06    -126.082E+03    -15.6587E+06    -26.1250E-03     52.3668E-03    -26.2418E-03     38.2198E-03    -26.0658E-03     52.1216E-03    -26.1663E-03     37.9966E-03
             983     7.01436E-03     94.6331E-03    -894.953E+03    -51.4981E+06     1.44714E+06    -15.6143E+06    -26.1056E-03     52.2859E-03    -26.1803E-03     44.1725E-03    -26.0468E-03     52.0369E-03    -26.0970E-03     43.9438E-03
             984     7.89171E-03     94.6752E-03    -336.447E+03    -51.2752E+06     2.25686E+06    -15.9885E+06    -26.1537E-03     52.2692E-03    -26.1155E-03     50.2825E-03    -26.0983E-03     52.0240E-03    -26.0294E-03     50.0412E-03
             985     8.76912E-03     94.7228E-03    -333.304E+03    -51.5625E+06     2.50822E+06    -16.2911E+06    -26.3029E-03     52.3600E-03    -26.0571E-03     56.5187E-03    -26.2545E-03     52.1201E-03    -25.9693E-03     56.2631E-03
             986     9.64648E-03     94.7761E-03    -776.651E+03    -55.5922E+06     1.07525E+06    -16.8830E+06    -26.5779E-03     52.5881E-03    -26.0102E-03     62.8338E-03    -26.5345E-03     52.3415E-03    -25.9231E-03     62.5566E-03
             987     10.5238E-03     94.8349E-03    -1.14384E+06    -59.0151E+06    -5.27242E+06    -17.3431E+06    -27.0119E-03     52.9699E-03    -25.9580E-03     69.1063E-03    -26.9728E-03     52.7326E-03    -25.8971E-03     68.8045E-03
             988     11.4007E-03     94.8995E-03    -1.58580E+06    -52.3004E+06    -7.36802E+06    -16.9811E+06    -27.5908E-03     53.5287E-03    -25.9379E-03     76.3968E-03    -27.5881E-03     53.3561E-03    -25.8966E-03     76.0743E-03
             989     12.2774E-03     94.9718E-03    -2.09278E+06    -47.2061E+06    -6.31948E+06    -16.6633E+06    -28.2102E-03     54.1713E-03    -25.9611E-03     83.6846E-03    -28.2591E-03     54.0636E-03    -25.9213E-03     83.3367E-03
             990     13.1542E-03     95.0505E-03    -2.76978E+06    -58.0822E+06    -17.7917E+06    -15.1013E+06    -29.1728E-03     55.1560E-03    -25.9832E-03     86.0724E-03    -29.2553E-03     55.0741E-03    -25.9840E-03     85.7043E-03
             991     14.0286E-03     95.1277E-03    -4.20608E+06    -50.2070E+06    -32.2023E+06    -12.0103E+06    -30.8632E-03     56.8778E-03    -26.0146E-03     103.153E-03    -31.1575E-03     57.0723E-03    -26.0967E-03     102.753E-03
             992     14.9027E-03     95.2399E-03    -7.31496E+06    -2.24897E+06    -41.3504E+06    -8.30779E+06    -37.0883E-03     63.1040E-03    -26.0157E-03     193.097E-03    -38.9864E-03     65.0880E-03    -26.2085E-03     192.672E-03
             993     15.7818E-03     95.4920E-03    -8.27320E+06     92.1721E+06    -7.07113E+06    -3.91581E+06    -48.9118E-03     75.0326E-03    -26.1208E-03     338.143E-03    -59.9557E-03     86.3949E-03    -26.2778E-03     339.406E-03
             994     16.6576E-03     95.8957E-03    -4.95914E+06     176.236E+06     77.4184E+06     329.403E+03    -46.6390E-03     73.0928E-03    -26.4538E-03     362.244E-03    -64.8062E-03     91.6436E-03    -26.3151E-03     372.061E-03
             995     876.764E-06     95.4807E-03    -1.09638E+06    -36.5928E+06    -1.21491E+06    -3.81128E+06    -26.1649E-03     52.3764E-03    -26.2115E-03     5.61656E-03    -26.1156E-03     52.1971E-03    -26.1629E-03     5.56534E-03
             996     1.75354E-03     95.4879E-03    -1.00017E+06    -37.3497E+06    -1.10374E+06    -6.95735E+06    -26.1307E-03     52.2982E-03    -26.1675E-03     10.6651E-03    -26.0803E-03     52.1148E-03    -26.1174E-03     10.5712E-03
             997     2.63039E-03     95.4995E-03    -707.461E+03    -39.5345E+06    -720.734E+03    -9.67702E+06    -26.0657E-03     52.1986E-03    -26.1328E-03     15.9251E-03    -26.0116E-03     52.0037E-03    -26.0781E-03     15.7939E-03
             998     3.50742E-03     95.5159E-03    -370.078E+03    -41.3784E+06    -488.205E+03    -12.0878E+06    -25.9789E-03     52.0646E-03    -26.0857E-03     21.3896E-03    -25.9214E-03     51.8604E-03    -26.0276E-03     21.2248E-03
             999     4.38453E-03     95.5371E-03    -80.5368E+03    -43.8273E+06    -274.201E+03    -13.9821E+06    -25.8862E-03     51.9148E-03    -26.0286E-03     26.9705E-03    -25.8250E-03     51.6985E-03    -25.9663E-03     26.7784E-03
            1000     5.26181E-03     95.5634E-03     179.558E+03    -46.1239E+06     78.0464E+03    -15.2923E+06    -25.7914E-03     51.7544E-03    -25.9630E-03     32.7160E-03    -25.7275E-03     51.5271E-03    -25.8960E-03     32.5035E-03
            1001     6.13923E-03     95.5947E-03     361.717E+03    -48.0210E+06     591.027E+03    -15.9243E+06    -25.7094E-03     51.6001E-03    -25.8907E-03     38.6364E-03    -25.6446E-03     51.3644E-03    -25.8187E-03     38.4115E-03
            1002     7.01685E-03     95.6313E-03     781.632E+03    -49.1917E+06     1.50833E+06    -16.2093E+06    -25.6718E-03     51.4875E-03    -25.8157E-03     44.7449E-03    -25.6075E-03     51.2469E-03    -25.7380E-03     44.5108E-03
            1003     7.89461E-03     95.6732E-03     1.17389E+06    -49.2618E+06     2.68987E+06    -15.8792E+06    -25.7227E-03     51.4658E-03    -25.7431E-03     51.0229E-03    -25.6624E-03     51.2270E-03    -25.6600E-03     50.7857E-03
            1004     8.77239E-03     95.7208E-03     1.00216E+06    -49.7858E+06     3.53584E+06    -15.5151E+06    -25.8994E-03     51.5803E-03    -25.6809E-03     57.4631E-03    -25.8473E-03     51.3447E-03    -25.5925E-03     57.2207E-03
            1005     9.65014E-03     95.7741E-03     501.879E+03    -52.6916E+06     2.90165E+06    -15.8969E+06    -26.2359E-03     51.8697E-03    -25.6337E-03     63.9949E-03    -26.1917E-03     51.6318E-03    -25.5436E-03     63.7340E-03
            1006     10.5277E-03     95.8332E-03    -731.436E+03    -57.2447E+06    -3.45560E+06    -16.5363E+06    -26.7837E-03     52.3725E-03    -25.5887E-03     70.5422E-03    -26.7465E-03     52.1394E-03    -25.5219E-03     70.2544E-03
            1007     11.4049E-03     95.8982E-03    -1.81704E+06    -50.8783E+06    -6.83041E+06    -16.8083E+06    -27.5497E-03     53.1275E-03    -25.5778E-03     78.0793E-03    -27.5499E-03     52.9605E-03    -25.5356E-03     77.7620E-03
            1008     12.2816E-03     95.9714E-03    -2.25052E+06    -46.3399E+06    -5.07830E+06    -16.5667E+06    -28.4609E-03     54.0946E-03    -25.6337E-03     85.3628E-03    -28.5139E-03     53.9899E-03    -25.5886E-03     85.0171E-03
            1009     13.1572E-03     96.0501E-03    -3.23468E+06    -60.8844E+06    -17.7052E+06    -14.5193E+06    -29.3980E-03     55.0862E-03    -25.6882E-03     88.4878E-03    -29.4795E-03     54.9914E-03    -25.6837E-03     88.1292E-03
            1010     14.0328E-03     96.1304E-03    -5.54340E+06    -52.7463E+06    -32.9188E+06    -11.3619E+06    -30.9410E-03     56.6783E-03    -25.7372E-03     105.866E-03    -31.2381E-03     56.8638E-03    -25.8173E-03     105.479E-03
            1011     14.9079E-03     96.2413E-03    -6.95467E+06    -3.72347E+06    -35.6385E+06    -7.69760E+06    -37.6618E-03     63.4593E-03    -25.7975E-03     193.791E-03    -39.5818E-03     65.4448E-03    -25.9602E-03     193.361E-03
            1012     15.7817E-03     96.4910E-03    -8.88477E+06     86.7855E+06    -6.53395E+06    -3.88449E+06    -49.7104E-03     75.6351E-03    -25.9247E-03     339.901E-03    -60.7870E-03     87.0071E-03    -26.0704E-03     341.128E-03
            1013     16.6546E-03     96.8998E-03    -7.22807E+06     172.200E+06     73.1065E+06    -1.19237E+06    -47.1879E-03     73.4494E-03    -26.2615E-03     362.973E-03    -65.2705E-03     91.9056E-03    -26.1351E-03     372.757E-03
            1014     877.056E-06     96.4795E-03     3.11643E+06    -28.4987E+06     2.74737E+06    -3.94587E+06    -25.7951E-03     51.5869E-03    -25.7918E-03     5.68710E-03    -25.7422E-03     51.4362E-03    -25.7413E-03     5.63430E-03
            1015     1.75423E-03     96.4865E-03     2.92665E+06    -29.9644E+06     2.62013E+06    -7.03680E+06    -25.7194E-03     51.4880E-03    -25.7686E-03     10.7522E-03    -25.6655E-03     51.3305E-03    -25.7163E-03     10.6577E-03
            1016     2.63150E-03     96.4980E-03     2.83653E+06    -32.7804E+06     2.20366E+06    -9.89727E+06    -25.6345E-03     51.3579E-03    -25.7235E-03     16.0785E-03    -25.5766E-03     51.1874E-03    -25.6690E-03     15.9451E-03
            1017     3.50884E-03     96.5142E-03     2.75620E+06    -35.3930E+06     1.54684E+06    -12.3565E+06    -25.5339E-03     51.1989E-03    -25.6650E-03     21.5841E-03    -25.4723E-03     51.0170E-03    -25.6100E-03     21.4168E-03
            1018     4.38636E-03     96.5353E-03     2.61801E+06    -38.8771E+06     1.29856E+06    -14.1453E+06    -25.4136E-03     51.0120E-03    -25.5984E-03     27.2535E-03    -25.3482E-03     50.8140E-03    -25.5393E-03     27.0605E-03
            1019     5.26405E-03     96.5612E-03     2.35295E+06    -42.1690E+06     1.07064E+06    -15.2848E+06    -25.2892E-03     50.8099E-03    -25.5208E-03     33.0992E-03    -25.2212E-03     50.5975E-03    -25.4577E-03     32.8884E-03
            1020     6.14199E-03     96.5922E-03     2.06235E+06    -45.0915E+06     1.02267E+06    -15.8667E+06    -25.1854E-03     50.6210E-03    -25.4357E-03     39.1468E-03    -25.1164E-03     50.3963E-03    -25.3682E-03     38.9247E-03
            1021     7.02007E-03     96.6286E-03     1.56020E+06    -46.6552E+06     1.30032E+06    -16.1012E+06    -25.1422E-03     50.4903E-03    -25.3481E-03     45.4169E-03    -25.0766E-03     50.2608E-03    -25.2762E-03     45.1868E-03
            1022     7.89829E-03     96.6704E-03     1.06180E+06    -48.3314E+06     1.87451E+06    -15.6610E+06    -25.1992E-03     50.4662E-03    -25.2670E-03     51.9054E-03    -25.1387E-03     50.2324E-03    -25.1891E-03     51.6742E-03
            1023     8.77657E-03     96.7179E-03     962.193E+03    -48.0987E+06     3.01437E+06    -15.0294E+06    -25.4068E-03     50.6056E-03    -25.1988E-03     58.6064E-03    -25.3553E-03     50.3779E-03    -25.1153E-03     58.3740E-03
            1024     9.65474E-03     96.7714E-03     431.091E+03    -50.9605E+06     3.59618E+06    -14.6880E+06    -25.8269E-03     50.9837E-03    -25.1567E-03     65.4057E-03    -25.7850E-03     50.7520E-03    -25.0655E-03     65.1644E-03
            1025     10.5327E-03     96.8309E-03    -871.193E+03    -54.8944E+06    -1.02911E+06    -14.7658E+06    -26.5149E-03     51.6420E-03    -25.1271E-03     72.2846E-03    -26.4837E-03     51.4158E-03    -25.0514E-03     72.0238E-03
            1026     11.4100E-03     96.8966E-03    -2.98312E+06    -48.9334E+06    -4.79378E+06    -15.4814E+06    -27.4611E-03     52.5949E-03    -25.1338E-03     80.1666E-03    -27.4718E-03     52.4352E-03    -25.0825E-03     79.8702E-03
            1027     12.2867E-03     96.9706E-03    -4.69780E+06    -44.9820E+06    -2.97781E+06    -15.9745E+06    -28.5775E-03     53.7977E-03    -25.2203E-03     87.7957E-03    -28.6477E-03     53.7003E-03    -25.1632E-03     87.4600E-03
            1028     13.1627E-03     97.0508E-03    -5.72075E+06    -64.3310E+06    -17.0617E+06    -14.4407E+06    -29.6265E-03     54.9347E-03    -25.3082E-03     90.8893E-03    -29.7175E-03     54.8266E-03    -25.2919E-03     90.5332E-03
            1029     14.0382E-03     97.1303E-03    -6.57874E+06    -54.4124E+06    -32.2182E+06    -11.0916E+06    -31.3356E-03     56.7263E-03    -25.3907E-03     107.692E-03    -31.6358E-03     56.9035E-03    -25.4633E-03     107.309E-03
            1030     14.9126E-03     97.2445E-03    -8.33670E+06    -6.45919E+06    -31.3806E+06    -7.66369E+06    -38.4768E-03     63.9991E-03    -25.5223E-03     194.788E-03    -40.4339E-03     65.9947E-03    -25.6578E-03     194.347E-03
            1031     15.7865E-03     97.4951E-03    -8.27244E+06     81.3313E+06    -5.01388E+06    -3.20770E+06    -49.8904E-03     75.5684E-03    -25.6780E-03     340.254E-03    -60.9323E-03     86.8841E-03    -25.8090E-03     341.519E-03
            1032     16.6682E-03     97.9019E-03    -5.05466E+06     171.761E+06     72.4826E+06    -963.442E+03    -48.2198E-03     74.2551E-03    -26.0353E-03     363.462E-03    -66.3233E-03     92.7403E-03    -25.9146E-03     373.143E-03
            1033     877.579E-06     97.4775E-03     6.02432E+06    -20.4001E+06     5.61059E+06    -4.10738E+06    -25.2974E-03     50.5386E-03    -25.2412E-03     5.73814E-03    -25.2458E-03     50.4201E-03    -25.1923E-03     5.68345E-03
            1034     1.75514E-03     97.4842E-03     5.67211E+06    -22.5355E+06     4.92718E+06    -6.95974E+06    -25.1903E-03     50.4317E-03    -25.2415E-03     10.8347E-03    -25.1366E-03     50.3039E-03    -25.1924E-03     10.7417E-03
            1035     2.63285E-03     97.4956E-03     5.28277E+06    -25.8509E+06     4.06779E+06    -9.93876E+06    -25.0936E-03     50.2853E-03    -25.1917E-03     16.2499E-03    -25.0362E-03     50.1431E-03    -25.1415E-03     16.1167E-03
            1036     3.51070E-03     97.5116E-03     4.72754E+06    -29.5147E+06     2.78931E+06    -12.3067E+06    -24.9593E-03     50.0842E-03    -25.1250E-03     21.8145E-03    -24.8980E-03     49.9269E-03    -25.0751E-03     21.6489E-03
            1037     4.38875E-03     97.5323E-03     3.94236E+06    -34.0705E+06     1.58219E+06    -13.9725E+06    -24.8072E-03     49.8518E-03    -25.0446E-03     27.5930E-03    -24.7423E-03     49.6753E-03    -24.9930E-03     27.4037E-03
            1038     5.26702E-03     97.5580E-03     3.05067E+06    -38.5502E+06     618.688E+03    -14.8804E+06    -24.6655E-03     49.6194E-03    -24.9539E-03     33.5375E-03    -24.5983E-03     49.4243E-03    -24.8993E-03     33.3338E-03
            1039     6.14545E-03     97.5887E-03     1.93519E+06    -42.2036E+06    -43.0912E+03    -15.2572E+06    -24.5517E-03     49.4088E-03    -24.8571E-03     39.7220E-03    -24.4854E-03     49.1996E-03    -24.7989E-03     39.5101E-03
            1040     7.02412E-03     97.6248E-03     526.455E+03    -44.8269E+06    -293.448E+03    -14.9241E+06    -24.5021E-03     49.2624E-03    -24.7603E-03     46.1755E-03    -24.4412E-03     49.0450E-03    -24.6975E-03     45.9635E-03
            1041     7.90291E-03     97.6664E-03    -1.00810E+06    -46.7552E+06     125.362E+03    -14.6504E+06    -24.5740E-03     49.2470E-03    -24.6730E-03     52.9042E-03    -24.5224E-03     49.0254E-03    -24.6031E-03     52.6896E-03
            1042     8.78173E-03     97.7140E-03    -2.33047E+06    -47.0975E+06     958.006E+03    -14.3081E+06    -24.8313E-03     49.4339E-03    -24.6026E-03     59.9069E-03    -24.7932E-03     49.2175E-03    -24.5261E-03     59.6879E-03
            1043     9.66044E-03     97.7677E-03    -2.95867E+06    -49.7700E+06     2.82214E+06    -13.7328E+06    -25.3534E-03     49.9235E-03    -24.5701E-03     67.0307E-03    -25.3273E-03     49.7020E-03    -24.4795E-03     66.8063E-03
            1044     10.5387E-03     97.8277E-03    -3.86449E+06    -53.9245E+06     55.3775E+03    -13.0128E+06    -26.1966E-03     50.7581E-03    -24.5615E-03     74.2723E-03    -26.1816E-03     50.5378E-03    -24.4775E-03     74.0387E-03
            1045     11.4164E-03     97.8944E-03    -5.87494E+06    -46.4213E+06    -2.32259E+06    -12.7697E+06    -27.3210E-03     51.9154E-03    -24.5944E-03     82.4774E-03    -27.3520E-03     51.7675E-03    -24.5301E-03     82.2201E-03
            1046     12.2933E-03     97.9695E-03    -7.82622E+06    -42.0441E+06    -219.853E+03    -14.6465E+06    -28.6431E-03     53.3563E-03    -24.7132E-03     90.1845E-03    -28.7368E-03     53.2736E-03    -24.6420E-03     89.8689E-03
            1047     13.1693E-03     98.0506E-03    -8.86487E+06    -66.3984E+06    -15.8006E+06    -14.5587E+06    -30.1278E-03     54.9763E-03    -24.8485E-03     93.1143E-03    -30.2353E-03     54.8625E-03    -24.8183E-03     92.7559E-03
            1048     14.0433E-03     98.1321E-03    -9.91551E+06    -57.7468E+06    -33.1663E+06    -11.4250E+06    -32.3451E-03     57.3365E-03    -24.9914E-03     110.287E-03    -32.6628E-03     57.5103E-03    -25.0591E-03     109.892E-03
            1049     14.9165E-03     98.2473E-03    -9.92247E+06    -10.8150E+06    -27.8204E+06    -8.59046E+06    -39.5789E-03     64.8045E-03    -25.2256E-03     195.844E-03    -41.5627E-03     66.7954E-03    -25.3346E-03     195.371E-03
            1050     15.7918E-03     98.4969E-03    -8.58479E+06     77.7954E+06    -217.766E+03    -5.26947E+06    -51.1495E-03     76.6373E-03    -25.4878E-03     336.299E-03    -62.1636E-03     87.8977E-03    -25.5892E-03     337.434E-03
            1051     16.6619E-03     98.8998E-03    -5.42032E+06     169.934E+06     72.0840E+06    -1.93579E+06    -48.7468E-03     74.6570E-03    -25.9102E-03     361.572E-03    -66.9417E-03     93.2269E-03    -25.7883E-03     371.189E-03
            1052     878.055E-06     98.4742E-03     7.00874E+06    -12.4902E+06     7.00128E+06    -3.96777E+06    -24.6156E-03     49.2138E-03    -24.5982E-03     5.74034E-03    -24.5725E-03     49.1313E-03    -24.5553E-03     5.68780E-03
            1053     1.75632E-03     98.4809E-03     6.75577E+06    -15.0827E+06     5.88244E+06    -6.92268E+06    -24.5219E-03     49.0992E-03    -24.5773E-03     10.9469E-03    -24.4750E-03     49.0057E-03    -24.5359E-03     10.8549E-03
            1054     2.63457E-03     98.4921E-03     6.06057E+06    -19.0528E+06     4.42179E+06    -9.72899E+06    -24.4043E-03     48.9252E-03    -24.5209E-03     16.4283E-03    -24.3533E-03     48.8152E-03    -24.4800E-03     16.2986E-03
            1055     3.51304E-03     98.5077E-03     5.00004E+06    -23.9873E+06     2.57621E+06    -11.8395E+06    -24.2478E-03     48.6934E-03    -24.4456E-03     22.0633E-03    -24.1927E-03     48.5634E-03    -24.4052E-03     21.9049E-03
            1056     4.39172E-03     98.5282E-03     3.50675E+06    -29.6799E+06     414.940E+03    -13.1361E+06    -24.0771E-03     48.4310E-03    -24.3539E-03     27.9147E-03    -24.0187E-03     48.2784E-03    -24.3138E-03     27.7378E-03
            1057     5.27061E-03     98.5535E-03     1.60341E+06       -35.3E+06    -1.62056E+06    -13.8017E+06    -23.9119E-03     48.1629E-03    -24.2511E-03     33.9837E-03    -23.8529E-03     47.9890E-03    -24.2103E-03     33.7961E-03
            1058     6.14976E-03     98.5839E-03    -637.555E+03    -40.0962E+06    -2.89616E+06    -13.5986E+06    -23.7918E-03     47.9370E-03    -24.1452E-03     40.3317E-03    -23.7366E-03     47.7456E-03    -24.1007E-03     40.1439E-03
            1059     7.02907E-03     98.6197E-03    -2.98373E+06    -43.5033E+06    -3.07492E+06    -13.0136E+06    -23.7558E-03     47.8003E-03    -24.0445E-03     46.9838E-03    -23.7094E-03     47.5977E-03    -23.9925E-03     46.7996E-03
            1060     7.90853E-03     98.6613E-03    -5.41537E+06    -45.4024E+06    -2.07229E+06    -12.2465E+06    -23.8674E-03     47.8260E-03    -23.9586E-03     53.9547E-03    -23.8353E-03     47.6195E-03    -23.8953E-03     53.7748E-03
            1061     8.78797E-03     98.7089E-03    -8.05665E+06    -45.7409E+06    -662.930E+03    -11.9123E+06    -24.1995E-03     48.0956E-03    -23.8961E-03     61.2579E-03    -24.1881E-03     47.8950E-03    -23.8214E-03     61.0741E-03
            1062     9.66718E-03     98.7629E-03    -9.91073E+06    -47.9572E+06     1.08476E+06    -12.6262E+06    -24.8431E-03     48.7178E-03    -23.8747E-03     68.7704E-03    -24.8500E-03     48.5162E-03    -23.7854E-03     68.5648E-03
            1063     10.5459E-03     98.8237E-03    -10.0323E+06    -54.2298E+06    -315.934E+03    -12.3304E+06    -25.8720E-03     49.7670E-03    -23.8950E-03     76.3787E-03    -25.8851E-03     49.5528E-03    -23.8034E-03     76.1583E-03
            1064     11.4238E-03     98.8914E-03    -9.16858E+06    -44.6175E+06    -1.11301E+06    -11.6967E+06    -27.2387E-03     51.1984E-03    -23.9597E-03     84.8663E-03    -27.2893E-03     51.0612E-03    -23.8872E-03     84.6266E-03
            1065     12.3008E-03     98.9679E-03    -8.99596E+06    -37.6951E+06     2.99658E+06    -12.8870E+06    -28.9200E-03     53.0479E-03    -24.1279E-03     92.7151E-03    -29.0309E-03     52.9844E-03    -24.0452E-03     92.4237E-03
            1066     13.1761E-03     99.0508E-03    -10.0954E+06    -67.9550E+06    -14.3020E+06    -13.5937E+06    -30.8680E-03     55.1972E-03    -24.3292E-03     95.7174E-03    -30.9849E-03     55.0786E-03    -24.2875E-03     95.3690E-03
            1067     14.0505E-03     99.1340E-03    -11.0698E+06    -58.9080E+06    -30.9573E+06    -12.8690E+06    -33.5201E-03     58.0800E-03    -24.5599E-03     112.700E-03    -33.8571E-03     58.2585E-03    -24.6133E-03     112.275E-03
            1068     14.9234E-03     99.2517E-03    -10.9644E+06    -13.7233E+06    -22.8402E+06    -11.4572E+06    -41.4169E-03     66.3335E-03    -24.9166E-03     197.517E-03    -43.4378E-03     68.3332E-03    -24.9950E-03     196.960E-03
            1069     15.7917E-03     99.5024E-03    -8.05984E+06     72.6678E+06     159.464E+03    -6.64519E+06    -53.6006E-03     78.8886E-03    -25.2880E-03     337.284E-03    -64.7947E-03     90.3116E-03    -25.3809E-03     338.251E-03
            1070     16.6661E-03     99.9047E-03    -4.20133E+06     167.662E+06     69.9205E+06    -1.52087E+06    -49.5600E-03     75.3506E-03    -25.7907E-03     361.289E-03    -67.8651E-03     94.0333E-03    -25.6781E-03     370.879E-03
            1071     878.876E-06     99.4695E-03     8.37004E+06    -4.79125E+06     7.96552E+06    -3.68622E+06    -23.7541E-03     47.5810E-03    -23.8268E-03     5.81087E-03    -23.7169E-03     47.5336E-03    -23.7922E-03     5.76228E-03
            1072     1.75765E-03     99.4761E-03     7.33560E+06    -7.90337E+06     6.45708E+06    -6.51443E+06    -23.7121E-03     47.4732E-03    -23.7611E-03     11.0901E-03    -23.6735E-03     47.4138E-03    -23.7280E-03     11.0039E-03
            1073     2.63672E-03     99.4870E-03     5.90929E+06    -12.8705E+06     4.03854E+06    -8.93929E+06    -23.5750E-03     47.2769E-03    -23.7019E-03     16.5858E-03    -23.5331E-03     47.1985E-03    -23.6716E-03     16.4673E-03
            1074     3.51591E-03     99.5024E-03     3.80924E+06    -19.1768E+06     1.03258E+06    -10.5296E+06    -23.4065E-03     47.0264E-03    -23.6199E-03     22.2911E-03    -23.3619E-03     46.9242E-03    -23.5924E-03     22.1509E-03
            1075     4.39530E-03     99.5225E-03     1.12318E+06    -26.1287E+06    -2.14019E+06    -11.2791E+06    -23.2187E-03     46.7400E-03    -23.5213E-03     28.2243E-03    -23.1734E-03     46.6121E-03    -23.4958E-03     28.0730E-03
            1076     5.27497E-03     99.5474E-03    -2.20257E+06    -32.8749E+06    -4.95726E+06    -11.2566E+06    -23.0408E-03     46.4533E-03    -23.4126E-03     34.4116E-03    -22.9990E-03     46.3013E-03    -23.3865E-03     34.2589E-03
            1077     6.15487E-03     99.5775E-03    -5.82143E+06    -38.8967E+06    -6.53205E+06    -10.6757E+06    -22.9286E-03     46.2332E-03    -23.3046E-03     40.9022E-03    -22.8951E-03     46.0598E-03    -23.2725E-03     40.7547E-03
            1078     7.03496E-03     99.6131E-03    -9.35176E+06    -42.5121E+06    -6.30429E+06    -9.83692E+06    -22.9325E-03     46.1402E-03    -23.2076E-03     47.7398E-03    -22.9137E-03     45.9554E-03    -23.1640E-03     47.5997E-03
            1079     7.91510E-03     99.6545E-03    -12.2166E+06    -44.8049E+06    -4.35610E+06    -9.14063E+06    -23.1165E-03     46.2498E-03    -23.1333E-03     54.9590E-03    -23.1147E-03     46.0582E-03    -23.0724E-03     54.8228E-03
            1080     8.79517E-03     99.7023E-03    -13.7836E+06    -43.9390E+06    -1.31126E+06    -9.09562E+06    -23.5575E-03     46.6456E-03    -23.0881E-03     62.5763E-03    -23.5747E-03     46.4617E-03    -23.0110E-03     62.4328E-03
            1081     9.67493E-03     99.7569E-03    -14.8577E+06    -44.9511E+06     1.39588E+06    -10.3063E+06    -24.3573E-03     47.4467E-03    -23.0894E-03     70.4785E-03    -24.3920E-03     47.2650E-03    -22.9957E-03     70.3072E-03
            1082     10.5540E-03     99.8186E-03    -15.0215E+06    -52.7910E+06     175.618E+03    -12.3920E+06    -25.6026E-03     48.7462E-03    -23.1436E-03     78.5165E-03    -25.6417E-03     48.5440E-03    -23.0444E-03     78.2996E-03
            1083     11.4322E-03     99.8876E-03    -13.7193E+06    -43.8914E+06    -616.882E+03    -12.7877E+06    -27.2902E-03     50.5433E-03    -23.2531E-03     87.4180E-03    -27.3645E-03     50.4149E-03    -23.1726E-03     87.1673E-03
            1084     12.3089E-03     99.9660E-03    -12.0108E+06    -35.1995E+06     5.01640E+06    -12.4958E+06    -29.3762E-03     52.8621E-03    -23.4859E-03     95.4805E-03    -29.5104E-03     52.8142E-03    -23.3924E-03     95.1941E-03
            1085     13.1843E-03     100.051E-03    -10.7428E+06    -66.8983E+06    -10.9831E+06    -13.5668E+06    -31.9208E-03     55.6981E-03    -23.7773E-03     98.6064E-03    -32.0535E-03     55.5872E-03    -23.7196E-03     98.2520E-03
            1086     14.0563E-03     100.137E-03    -9.86772E+06    -58.1876E+06    -27.3020E+06    -14.1748E+06    -35.0119E-03     59.1250E-03    -24.1131E-03     115.375E-03    -35.3680E-03     59.3189E-03    -24.1510E-03     114.915E-03
            1087     14.9266E-03     100.257E-03    -9.23389E+06    -15.7108E+06    -18.5946E+06    -13.5218E+06    -42.6163E-03     67.1875E-03    -24.5712E-03     199.835E-03    -44.6555E-03     69.1921E-03    -24.6280E-03     199.221E-03
            1088     15.8001E-03     100.510E-03    -8.54612E+06     64.6510E+06    -2.51771E+06    -9.22844E+06    -54.7891E-03     79.7803E-03    -24.9912E-03     339.414E-03    -66.0719E-03     91.2697E-03    -25.0852E-03     340.242E-03
            1089     16.6682E-03     100.912E-03    -5.39738E+06     163.043E+06     65.7222E+06    -2.25923E+06    -51.1641E-03     76.7330E-03    -25.5689E-03     358.473E-03    -69.2845E-03     95.2225E-03    -25.4689E-03     367.706E-03
            1090     879.642E-06     100.463E-03     7.34410E+06     2.06789E+06     7.04875E+06    -3.06056E+06    -22.7756E-03     45.6374E-03    -22.8618E-03     5.92625E-03    -22.7520E-03     45.6271E-03    -22.8402E-03     5.88601E-03
            1091     1.75946E-03     100.470E-03     5.72995E+06    -1.69154E+06     4.61414E+06    -5.35598E+06    -22.7496E-03     45.5384E-03    -22.7888E-03     11.1487E-03    -22.7253E-03     45.5150E-03    -22.7716E-03     11.0780E-03
            1092     2.63922E-03     100.480E-03     3.15432E+06    -7.94545E+06     1.36088E+06    -7.03100E+06    -22.6041E-03     45.3352E-03    -22.7311E-03     16.6971E-03    -22.5791E-03     45.2891E-03    -22.7173E-03     16.6041E-03
            1093     3.51925E-03     100.495E-03    -308.351E+03    -15.6968E+06    -2.65544E+06    -7.75644E+06    -22.4270E-03     45.0746E-03    -22.6475E-03     22.4750E-03    -22.4025E-03     45.0009E-03    -22.6376E-03     22.3717E-03
            1094     4.39954E-03     100.515E-03    -4.72263E+06    -23.9403E+06    -6.68286E+06    -7.67741E+06    -22.2435E-03     44.7924E-03    -22.5489E-03     28.4671E-03    -22.2237E-03     44.6901E-03    -22.5407E-03     28.3639E-03
            1095     5.28003E-03     100.540E-03    -9.54151E+06    -31.8683E+06    -9.48445E+06    -6.93043E+06    -22.0898E-03     44.5367E-03    -22.4469E-03     34.7442E-03    -22.0791E-03     44.4065E-03    -22.4343E-03     34.6492E-03
            1096     6.16074E-03     100.569E-03    -14.1714E+06    -38.0119E+06    -10.3345E+06    -6.26457E+06    -22.0140E-03     44.3652E-03    -22.3511E-03     41.3702E-03    -22.0173E-03     44.2131E-03    -22.3271E-03     41.2819E-03
            1097     7.04158E-03     100.605E-03    -17.6183E+06    -41.9084E+06    -8.93588E+06    -5.96462E+06    -22.0803E-03     44.3517E-03    -22.2714E-03     48.3979E-03    -22.0989E-03     44.1848E-03    -22.2298E-03     48.3106E-03
            1098     7.92245E-03     100.646E-03    -19.1135E+06    -43.1131E+06    -5.48015E+06    -6.61069E+06    -22.3642E-03     44.5819E-03    -22.2177E-03     55.8801E-03    -22.3965E-03     44.4091E-03    -22.1549E-03     55.7798E-03
            1099     8.80312E-03     100.694E-03    -18.8551E+06    -42.2806E+06    -1.30433E+06    -7.72592E+06    -22.9471E-03     45.1463E-03    -22.1992E-03     63.8369E-03    -22.9907E-03     44.9765E-03    -22.1171E-03     63.7148E-03
            1100     9.68335E-03     100.750E-03    -17.0229E+06    -41.3197E+06     2.94111E+06    -9.38693E+06    -23.9350E-03     46.1679E-03    -22.2329E-03     72.1598E-03    -23.9864E-03     46.0036E-03    -22.1336E-03     72.0042E-03
            1101     10.5628E-03     100.812E-03    -14.9973E+06    -48.7933E+06     2.74178E+06    -12.1999E+06    -25.4436E-03     47.7747E-03    -22.3311E-03     80.6376E-03    -25.4907E-03     47.5874E-03    -22.2249E-03     80.4266E-03
            1102     11.4410E-03     100.883E-03    -13.6241E+06    -43.7037E+06     1.36482E+06    -13.2295E+06    -27.4860E-03     49.9857E-03    -22.4997E-03     90.0556E-03    -27.5627E-03     49.8550E-03    -22.4098E-03     89.8012E-03
            1103     12.3176E-03     100.964E-03    -11.3089E+06    -32.9047E+06     6.83480E+06    -13.7994E+06    -30.0410E-03     52.8438E-03    -22.8028E-03     98.5651E-03    -30.1801E-03     52.8063E-03    -22.7046E-03     98.2604E-03
            1104     13.1917E-03     101.052E-03    -8.56147E+06    -65.2404E+06    -7.96908E+06    -15.0418E+06    -32.9450E-03     56.1342E-03    -23.1892E-03     102.267E-03    -33.0801E-03     56.0306E-03    -23.1220E-03     101.888E-03
            1105     14.0635E-03     101.142E-03    -8.38161E+06    -57.9019E+06    -26.5444E+06    -14.5357E+06    -36.2199E-03     59.8301E-03    -23.6102E-03     119.291E-03    -36.5848E-03     60.0369E-03    -23.6468E-03     118.815E-03
            1106     14.9343E-03     101.263E-03    -8.27226E+06    -14.4539E+06    -16.7282E+06    -13.6859E+06    -44.2936E-03     68.4686E-03    -24.1750E-03     202.083E-03    -46.3748E-03     70.5178E-03    -24.2257E-03     201.419E-03
            1107     15.8026E-03     101.516E-03    -8.89092E+06     57.1671E+06    -9.58867E+06    -10.4500E+06    -55.8421E-03     80.4997E-03    -24.6576E-03     339.316E-03    -67.0572E-03     91.9141E-03    -24.7755E-03     340.071E-03
            1108     16.6748E-03     101.923E-03    -6.85699E+06     154.740E+06     55.7561E+06    -4.23537E+06    -52.5955E-03     77.9032E-03    -25.3077E-03     356.556E-03    -70.4946E-03     96.1656E-03    -25.2433E-03     365.446E-03
            1109     880.682E-06     101.455E-03     3.02573E+06     7.03645E+06     2.74747E+06    -1.78599E+06    -21.7019E-03     43.4311E-03    -21.7292E-03     6.02000E-03    -21.7009E-03     43.4581E-03    -21.7300E-03     5.99647E-03
            1110     1.76123E-03     101.461E-03     318.934E+03     2.45961E+06    -376.893E+03    -2.97423E+06    -21.6281E-03     43.3102E-03    -21.6821E-03     11.1538E-03    -21.6296E-03     43.3226E-03    -21.6880E-03     11.1145E-03
            1111     2.64214E-03     101.471E-03    -3.60625E+06    -5.17165E+06    -4.45664E+06    -3.43181E+06    -21.4846E-03     43.1054E-03    -21.6208E-03     16.7477E-03    -21.4889E-03     43.0914E-03    -21.6304E-03     16.7019E-03
            1112     3.52313E-03     101.486E-03    -8.63309E+06    -14.3520E+06    -8.81771E+06    -3.06349E+06    -21.3395E-03     42.8827E-03    -21.5432E-03     22.5654E-03    -21.3495E-03     42.8366E-03    -21.5540E-03     22.5239E-03
            1113     4.40430E-03     101.506E-03    -14.2158E+06    -23.7475E+06    -12.2750E+06    -1.99025E+06    -21.1994E-03     42.6609E-03    -21.4615E-03     28.5968E-03    -21.2189E-03     42.5812E-03    -21.4678E-03     28.5684E-03
            1114     5.28568E-03     101.530E-03    -19.6318E+06    -31.7759E+06    -13.7988E+06    -1.11965E+06    -21.0982E-03     42.4810E-03    -21.3827E-03     34.9532E-03    -21.1314E-03     42.3716E-03    -21.3772E-03     34.9350E-03
            1115     6.16720E-03     101.559E-03    -23.6583E+06    -37.0860E+06    -12.9764E+06    -1.24418E+06    -21.0911E-03     42.4043E-03    -21.3132E-03     41.7175E-03    -21.1387E-03     42.2738E-03    -21.2900E-03     41.6960E-03
            1116     7.04880E-03     101.595E-03    -25.5730E+06    -40.0821E+06    -10.1874E+06    -2.72603E+06    -21.2474E-03     42.5083E-03    -21.2609E-03     48.9521E-03    -21.3057E-03     42.3631E-03    -21.2167E-03     48.9090E-03
            1117     7.93033E-03     101.636E-03    -25.3556E+06    -39.8620E+06    -6.03729E+06    -5.28397E+06    -21.6400E-03     42.8745E-03    -21.2345E-03     56.7224E-03    -21.7063E-03     42.7267E-03    -21.1701E-03     56.6420E-03
            1118     8.81157E-03     101.685E-03    -23.5744E+06    -39.8710E+06    -1.72477E+06    -7.66454E+06    -22.3815E-03     43.6311E-03    -21.2496E-03     65.0585E-03    -22.4501E-03     43.4794E-03    -21.1662E-03     64.9403E-03
            1119     9.69226E-03     101.741E-03    -21.1120E+06    -36.9909E+06     2.48772E+06    -10.3995E+06    -23.5659E-03     44.8870E-03    -21.3210E-03     73.8841E-03    -23.6418E-03     44.7493E-03    -21.2243E-03     73.7189E-03
            1120     10.5719E-03     101.805E-03    -17.8069E+06    -44.3300E+06     2.62355E+06    -13.6975E+06    -25.3341E-03     46.8038E-03    -21.4697E-03     82.9449E-03    -25.4003E-03     46.6418E-03    -21.3665E-03     82.7178E-03
            1121     11.4501E-03     101.878E-03    -13.4205E+06    -42.8896E+06     1.49225E+06    -15.3283E+06    -27.7273E-03     49.4301E-03    -21.7028E-03     93.1087E-03    -27.8042E-03     49.3029E-03    -21.6137E-03     92.8292E-03
            1122     12.3263E-03     101.962E-03    -9.70483E+06    -30.3931E+06     7.17465E+06    -15.6466E+06    -30.6353E-03     52.7117E-03    -22.0764E-03     102.478E-03    -30.7730E-03     52.6864E-03    -21.9824E-03     102.149E-03
            1123     13.2002E-03     102.053E-03    -8.72124E+06    -64.6248E+06    -8.80976E+06    -15.9780E+06    -33.8227E-03     56.3674E-03    -22.5447E-03     106.401E-03    -33.9648E-03     56.2749E-03    -22.4824E-03     106.005E-03
            1124     14.0717E-03     102.145E-03    -8.22558E+06    -56.9110E+06    -27.3533E+06    -15.9649E+06    -37.7139E-03     60.7783E-03    -23.0644E-03     122.769E-03    -38.0950E-03     61.0078E-03    -23.1067E-03     122.257E-03
            1125     14.9404E-03     102.271E-03    -6.92426E+06    -15.4657E+06    -16.3934E+06    -13.8461E+06    -46.3254E-03     70.0833E-03    -23.7579E-03     204.276E-03    -48.4364E-03     72.1626E-03    -23.8074E-03     203.559E-03
            1126     15.8071E-03     102.527E-03    -6.36570E+06     51.1432E+06    -13.2018E+06    -9.16826E+06    -57.3405E-03     81.6828E-03    -24.3424E-03     338.577E-03    -68.4079E-03     92.9475E-03    -24.4733E-03     339.248E-03
            1127     16.6771E-03     102.924E-03    -5.63174E+06     149.540E+06     50.3858E+06    -5.19664E+06    -54.6220E-03     79.7161E-03    -25.0941E-03     356.572E-03    -72.5339E-03     97.9930E-03    -25.0509E-03     365.202E-03
            1128     881.632E-06     102.444E-03     -5.0359E+06     8.44088E+06    -4.72713E+06     289.455E+03    -20.4831E-03     40.9659E-03    -20.4829E-03     6.01934E-03    -20.5136E-03     41.0225E-03    -20.5114E-03     6.02282E-03
            1129     1.76349E-03     102.450E-03    -8.56879E+06     2.92872E+06    -8.07755E+06     1.28689E+06    -20.3826E-03     40.8338E-03    -20.4512E-03     11.1448E-03    -20.4181E-03     40.8726E-03    -20.4834E-03     11.1609E-03
            1130     2.64531E-03     102.460E-03    -13.9326E+06    -5.56663E+06    -11.8905E+06     2.45069E+06    -20.2968E-03     40.6982E-03    -20.4014E-03     16.7293E-03    -20.3413E-03     40.7079E-03    -20.4326E-03     16.7602E-03
            1131     3.52733E-03     102.475E-03    -19.9260E+06    -15.5402E+06    -15.2808E+06     3.76039E+06    -20.2036E-03     40.5544E-03    -20.3508E-03     22.5306E-03    -20.2588E-03     40.5279E-03    -20.3758E-03     22.5780E-03
            1132     4.40946E-03     102.494E-03    -25.3503E+06    -25.1467E+06    -16.8484E+06     4.82596E+06    -20.1302E-03     40.4330E-03    -20.3028E-03     28.5929E-03    -20.1965E-03     40.3688E-03    -20.3138E-03     28.6535E-03
            1133     5.29170E-03     102.518E-03    -29.0908E+06    -31.7477E+06    -16.1202E+06     4.75462E+06    -20.1115E-03     40.3707E-03    -20.2592E-03     35.0346E-03    -20.1883E-03     40.2782E-03    -20.2516E-03     35.0935E-03
            1134     6.17403E-03     102.547E-03    -30.8406E+06    -35.1749E+06    -13.7571E+06     2.87933E+06    -20.1972E-03     40.4204E-03    -20.2232E-03     41.9397E-03    -20.2819E-03     40.3105E-03    -20.1962E-03     41.9732E-03
            1135     7.05634E-03     102.583E-03    -30.7141E+06    -36.2758E+06    -10.3599E+06    -549.723E+03    -20.4496E-03     40.6522E-03    -20.2026E-03     49.3927E-03    -20.5382E-03     40.5329E-03    -20.1573E-03     49.3797E-03
            1136     7.93850E-03     102.625E-03    -29.3195E+06    -35.3576E+06    -6.35984E+06    -4.56274E+06    -20.9555E-03     41.1649E-03    -20.2094E-03     57.4815E-03    -21.0467E-03     41.0448E-03    -20.1474E-03     57.4129E-03
            1137     8.82032E-03     102.674E-03    -26.9867E+06    -36.1070E+06    -2.73163E+06    -8.21394E+06    -21.8443E-03     42.1059E-03    -20.2617E-03     66.2716E-03    -21.9326E-03     41.9782E-03    -20.1839E-03     66.1492E-03
            1138     9.70137E-03     102.731E-03    -24.3120E+06    -32.5530E+06     769.933E+03    -11.0298E+06    -23.1884E-03     43.5612E-03    -20.3728E-03     75.6959E-03    -23.2827E-03     43.4513E-03    -20.2865E-03     75.5259E-03
            1139     10.5814E-03     102.797E-03    -22.3357E+06    -38.3329E+06     654.571E+03    -15.1171E+06    -25.1538E-03     45.7229E-03    -20.5691E-03     85.5614E-03    -25.2469E-03     45.5987E-03    -20.4778E-03     85.3196E-03
            1140     11.4597E-03     102.872E-03    -20.0106E+06    -40.1455E+06    -1.55850E+06    -19.0138E+06    -27.8659E-03     48.7281E-03    -20.8622E-03     96.6862E-03    -27.9751E-03     48.6283E-03    -20.7828E-03     96.3617E-03
            1141     12.3359E-03     102.959E-03    -16.5041E+06    -30.7696E+06     3.18176E+06    -18.6687E+06    -31.1246E-03     52.4298E-03    -21.3051E-03     106.680E-03    -31.2925E-03     52.4208E-03    -21.2207E-03     106.312E-03
            1142     13.2096E-03     103.054E-03    -12.9372E+06    -62.9697E+06    -10.7405E+06    -17.9235E+06    -34.9136E-03     56.7791E-03    -21.8655E-03     110.780E-03    -35.0843E-03     56.7118E-03    -21.8091E-03     110.352E-03
            1143     14.0793E-03     103.150E-03    -11.4161E+06    -56.1295E+06    -28.9814E+06    -18.2342E+06    -39.6507E-03     62.1560E-03    -22.5053E-03     127.649E-03    -40.0708E-03     62.4208E-03    -22.5522E-03     127.083E-03
            1144     14.9454E-03     103.281E-03    -9.39632E+06    -20.3271E+06    -19.1246E+06    -17.2254E+06    -48.6793E-03     72.0232E-03    -23.3439E-03     206.630E-03    -50.8170E-03     74.1112E-03    -23.3965E-03     205.802E-03
            1145     15.8140E-03     103.535E-03    -5.78790E+06     44.2786E+06    -14.8787E+06    -11.7366E+06    -59.5809E-03     83.6711E-03    -24.0902E-03     334.832E-03    -70.3933E-03     94.6633E-03    -24.2204E-03     335.217E-03
            1146     16.6801E-03     103.936E-03    -4.29636E+06     144.844E+06     49.2353E+06    -4.79368E+06    -56.3626E-03     81.3408E-03    -24.9782E-03     355.265E-03    -74.1993E-03     99.5337E-03    -24.9358E-03     363.589E-03
            1147     882.852E-06     103.431E-03    -16.7906E+06     3.64658E+06    -15.0388E+06     4.36063E+06    -19.1668E-03     38.3095E-03    -19.1426E-03     5.90496E-03    -19.2342E-03     38.3740E-03    -19.1988E-03     5.96116E-03
            1148     1.76576E-03     103.437E-03    -20.8704E+06    -1.74068E+06    -17.3158E+06     7.37498E+06    -19.1137E-03     38.2612E-03    -19.1475E-03     11.0267E-03    -19.1905E-03     38.3078E-03    -19.2013E-03     11.1217E-03
            1149     2.64874E-03     103.447E-03    -25.7338E+06    -9.79737E+06    -18.9279E+06     10.0432E+06    -19.0952E-03     38.2320E-03    -19.1369E-03     16.5546E-03    -19.1822E-03     38.2477E-03    -19.1800E-03     16.6839E-03
            1150     3.53170E-03     103.461E-03    -30.4532E+06    -18.8713E+06    -19.3874E+06     11.5984E+06    -19.0695E-03     38.1992E-03    -19.1297E-03     22.3609E-03    -19.1664E-03     38.1772E-03    -19.1551E-03     22.5101E-03
            1151     4.41476E-03     103.480E-03    -33.7895E+06    -26.5641E+06    -18.5147E+06     11.3217E+06    -19.0821E-03     38.2041E-03    -19.1220E-03     28.4874E-03    -19.1859E-03     38.1473E-03    -19.1271E-03     28.6327E-03
            1152     5.29786E-03     103.504E-03    -34.7588E+06    -30.5093E+06    -16.3327E+06     8.84448E+06    -19.1662E-03     38.2813E-03    -19.1150E-03     35.0187E-03    -19.2726E-03     38.2032E-03    -19.1021E-03     35.1314E-03
            1153     6.18096E-03     103.533E-03    -33.4800E+06    -31.9006E+06    -13.3417E+06     5.01721E+06    -19.3450E-03     38.4589E-03    -19.1138E-03     42.0548E-03    -19.4478E-03     38.3682E-03    -19.0857E-03     42.1171E-03
            1154     7.06396E-03     103.569E-03    -31.3160E+06    -31.2799E+06    -9.79504E+06     512.282E+03    -19.6845E-03     38.8119E-03    -19.1274E-03     49.7314E-03    -19.7835E-03     38.7170E-03    -19.0856E-03     49.7337E-03
            1155     7.94679E-03     103.611E-03    -29.2869E+06    -30.4897E+06    -6.23248E+06    -3.74769E+06    -20.2997E-03     39.4703E-03    -19.1707E-03     58.1636E-03    -20.3970E-03     39.3734E-03    -19.1151E-03     58.1076E-03
            1156     8.82909E-03     103.661E-03    -27.4857E+06    -30.5300E+06    -3.22385E+06    -8.14788E+06    -21.2902E-03     40.5502E-03    -19.2600E-03     67.4475E-03    -21.3871E-03     40.4505E-03    -19.1920E-03     67.3287E-03
            1157     9.71069E-03     103.720E-03    -24.8950E+06    -28.6637E+06    -550.481E+03    -11.8954E+06    -22.7435E-03     42.1533E-03    -19.4099E-03     77.5166E-03    -22.8426E-03     42.0639E-03    -19.3350E-03     77.3390E-03
            1158     10.5911E-03     103.788E-03    -21.8457E+06    -31.3031E+06     1.15758E+06    -15.3536E+06    -24.9048E-03     44.5566E-03    -19.6518E-03     88.2604E-03    -25.0045E-03     44.4643E-03    -19.5689E-03     88.0194E-03
            1159     11.4697E-03     103.866E-03    -20.2109E+06    -35.0387E+06    -471.435E+03    -19.5069E+06    -27.9647E-03     47.9689E-03    -20.0041E-03     100.327E-03    -28.0833E-03     47.8928E-03    -19.9264E-03     99.9988E-03
            1160     12.3458E-03     103.956E-03    -18.3471E+06    -31.0226E+06     1.98106E+06    -21.1746E+06    -31.7001E-03     52.2154E-03    -20.5153E-03     111.098E-03    -31.8776E-03     52.2121E-03    -20.4338E-03     110.697E-03
            1161     13.2185E-03     104.055E-03    -15.1237E+06    -61.5202E+06    -11.8585E+06    -21.5308E+06    -35.9894E-03     57.1517E-03    -21.1624E-03     116.195E-03    -36.1797E-03     57.1047E-03    -21.1105E-03     115.714E-03
            1162     14.0876E-03     104.157E-03    -11.8240E+06    -54.4720E+06    -27.3343E+06    -22.0185E+06    -41.5617E-03     63.4882E-03    -21.9265E-03     133.686E-03    -42.0136E-03     63.7847E-03    -21.9671E-03     133.045E-03
            1163     14.9541E-03     104.292E-03    -9.37588E+06    -22.2634E+06    -18.0171E+06    -20.5547E+06    -52.0935E-03     75.0253E-03    -22.9319E-03     210.634E-03    -54.2723E-03     77.1446E-03    -22.9761E-03     209.651E-03
            1164     15.8121E-03     104.550E-03    -9.33767E+06     34.5287E+06    -21.0291E+06    -15.3083E+06    -62.6520E-03     86.5010E-03    -23.8490E-03     333.695E-03    -73.1970E-03     97.1965E-03    -23.9907E-03     333.781E-03
            1165     16.6776E-03     104.940E-03    -7.04176E+06     135.623E+06     43.8668E+06    -7.20758E+06    -57.8576E-03     82.7237E-03    -24.8662E-03     356.340E-03    -75.5966E-03     100.792E-03    -24.8333E-03     364.391E-03
            1166     884.096E-06     104.415E-03    -30.4941E+06    -10.0587E+06    -27.4962E+06     9.73790E+06    -17.8747E-03     35.7086E-03    -17.8339E-03     5.69842E-03    -17.9727E-03     35.7426E-03    -17.9126E-03     5.82414E-03
            1167     1.76805E-03     104.421E-03    -33.4944E+06    -11.9502E+06    -25.7079E+06     14.8897E+06    -17.8818E-03     35.7624E-03    -17.8806E-03     10.7877E-03    -17.9947E-03     35.7884E-03    -17.9432E-03     10.9799E-03
            1168     2.65200E-03     104.431E-03    -36.0872E+06    -16.8477E+06    -23.5103E+06     17.3044E+06    -17.9122E-03     35.8226E-03    -17.9104E-03     16.2874E-03    -18.0341E-03     35.8247E-03    -17.9512E-03     16.5107E-03
            1169     3.53601E-03     104.445E-03    -36.5349E+06    -22.8439E+06    -20.6796E+06     17.3562E+06    -17.9709E-03     35.9092E-03    -17.9383E-03     22.0964E-03    -18.0905E-03     35.8779E-03    -17.9556E-03     22.3203E-03
            1170     4.42000E-03     104.464E-03    -35.1286E+06    -26.9659E+06    -17.4429E+06     15.1538E+06    -18.0873E-03     36.0514E-03    -17.9640E-03     28.3062E-03    -18.1986E-03     35.9927E-03    -17.9612E-03     28.5014E-03
            1171     5.30391E-03     104.488E-03    -33.3212E+06    -27.9061E+06    -14.5098E+06     11.2650E+06    -18.2685E-03     36.2580E-03    -17.9896E-03     34.9260E-03    -18.3738E-03     36.1880E-03    -17.9733E-03     35.0707E-03
            1172     6.18774E-03     104.518E-03    -31.9144E+06    -27.4707E+06    -11.9981E+06     6.30655E+06    -18.5311E-03     36.5530E-03    -18.0219E-03     42.0746E-03    -18.6341E-03     36.4799E-03    -17.9958E-03     42.1545E-03
            1173     7.07148E-03     104.553E-03    -30.2255E+06    -25.8995E+06    -9.23799E+06     1.12610E+06    -18.9488E-03     37.0187E-03    -18.0699E-03     49.9509E-03    -19.0505E-03     36.9478E-03    -18.0347E-03     49.9624E-03
            1174     7.95489E-03     104.596E-03    -27.8852E+06    -25.6747E+06    -6.30545E+06    -3.41399E+06    -19.6398E-03     37.7880E-03    -18.1482E-03     58.7205E-03    -19.7361E-03     37.7124E-03    -18.1021E-03     58.6706E-03
            1175     8.83783E-03     104.647E-03    -25.0711E+06    -23.9108E+06    -2.64748E+06    -8.07662E+06    -20.6952E-03     38.9676E-03    -18.2724E-03     68.4756E-03    -20.7892E-03     38.8953E-03    -18.2146E-03     68.3602E-03
            1176     9.71993E-03     104.707E-03    -22.3809E+06    -23.8311E+06     582.722E+03    -12.6128E+06    -22.2785E-03     40.7412E-03    -18.4628E-03     79.1757E-03    -22.3719E-03     40.6689E-03    -18.3928E-03     78.9920E-03
            1177     10.6008E-03     104.777E-03    -19.8260E+06    -25.8026E+06     2.52756E+06    -16.1082E+06    -24.6124E-03     43.3565E-03    -18.7441E-03     90.8580E-03    -24.7099E-03     43.2847E-03    -18.6653E-03     90.6112E-03
            1178     11.4796E-03     104.858E-03    -16.6937E+06    -28.6325E+06     1.99839E+06    -19.8306E+06    -27.9342E-03     47.0765E-03    -19.1422E-03     104.132E-03    -28.0463E-03     47.0220E-03    -19.0665E-03     103.803E-03
            1179     12.3557E-03     104.953E-03    -13.6590E+06    -29.2343E+06     3.60004E+06    -22.3112E+06    -32.0739E-03     51.7822E-03    -19.7083E-03     116.145E-03    -32.2338E-03     51.7797E-03    -19.6281E-03     115.731E-03
            1180     13.2285E-03     105.057E-03    -11.4293E+06    -58.4207E+06    -9.37530E+06    -24.0768E+06    -36.9310E-03     57.3632E-03    -20.4322E-03     122.366E-03    -37.1174E-03     57.3293E-03    -20.3777E-03     121.849E-03
            1181     14.0971E-03     105.164E-03    -8.97362E+06    -51.6851E+06    -22.0006E+06    -26.0441E+06    -43.7187E-03     65.0419E-03    -21.3232E-03     141.304E-03    -44.1969E-03     65.3693E-03    -21.3452E-03     140.582E-03
            1182     14.9584E-03     105.308E-03    -7.92061E+06    -27.1805E+06    -14.6228E+06    -22.7557E+06    -54.8473E-03     77.3217E-03    -22.4743E-03     217.037E-03    -57.0371E-03     79.4298E-03    -22.4966E-03     215.944E-03
            1183     15.8219E-03     105.569E-03    -6.56654E+06     26.6723E+06    -22.4697E+06    -14.7809E+06    -64.7513E-03     88.2505E-03    -23.4992E-03     334.250E-03    -74.8669E-03     98.5026E-03    -23.6407E-03     334.114E-03
            1184     16.6849E-03     105.953E-03    -3.81938E+06     127.928E+06     41.5895E+06    -7.36127E+06    -60.9094E-03     85.5485E-03    -24.6390E-03     357.736E-03    -78.3665E-03     103.326E-03    -24.6111E-03     365.246E-03
            1185     884.993E-06     105.396E-03    -47.2818E+06    -30.8601E+06    -45.1179E+06     11.6024E+06    -16.6765E-03     33.3673E-03    -16.6908E-03     5.60387E-03    -16.8027E-03     33.3472E-03    -16.8031E-03     5.75364E-03
            1186     1.77010E-03     105.402E-03    -43.3320E+06    -26.9725E+06    -35.8108E+06     18.5816E+06    -16.7320E-03     33.4591E-03    -16.7271E-03     10.5186E-03    -16.8576E-03     33.4389E-03    -16.8042E-03     10.7584E-03
            1187     2.65511E-03     105.412E-03    -39.8328E+06    -25.1108E+06    -26.3952E+06     21.5145E+06    -16.8043E-03     33.5842E-03    -16.7799E-03     15.9818E-03    -16.9288E-03     33.5546E-03    -16.8178E-03     16.2596E-03
            1188     3.54002E-03     105.427E-03    -37.0634E+06    -25.7325E+06    -20.5448E+06     19.9559E+06    -16.9553E-03     33.7833E-03    -16.8279E-03     21.7991E-03    -17.0735E-03     33.7380E-03    -16.8396E-03     22.0567E-03
            1189     4.42487E-03     105.446E-03    -34.0002E+06    -26.1861E+06    -17.0452E+06     16.0504E+06    -17.1479E-03     34.0225E-03    -16.8745E-03     28.0121E-03    -17.2553E-03     33.9655E-03    -16.8725E-03     28.2193E-03
            1190     5.30963E-03     105.470E-03    -30.3786E+06    -25.0955E+06    -13.6977E+06     11.5794E+06    -17.3893E-03     34.3150E-03    -16.9257E-03     34.6738E-03    -17.4851E-03     34.2535E-03    -16.9137E-03     34.8231E-03
            1191     6.19425E-03     105.500E-03    -26.8736E+06    -22.8418E+06    -10.0840E+06     6.95030E+06    -17.7363E-03     34.7241E-03    -16.9878E-03     41.9366E-03    -17.8233E-03     34.6638E-03    -16.9662E-03     42.0255E-03
            1192     7.07856E-03     105.536E-03    -25.0128E+06    -20.9989E+06    -7.05236E+06     2.47600E+06    -18.2515E-03     35.3209E-03    -17.0694E-03     50.0165E-03    -18.3369E-03     35.2634E-03    -17.0380E-03     50.0464E-03
            1193     7.96264E-03     105.580E-03    -24.3287E+06    -19.7760E+06    -4.54245E+06    -2.52992E+06    -19.0010E-03     36.1817E-03    -17.1808E-03     59.0655E-03    -19.0899E-03     36.1272E-03    -17.1395E-03     59.0286E-03
            1194     8.84612E-03     105.632E-03    -22.9173E+06    -16.7976E+06    -1.04842E+06    -8.39396E+06    -20.1080E-03     37.4447E-03    -17.3367E-03     69.2341E-03    -20.2026E-03     37.4013E-03    -17.2843E-03     69.1169E-03
            1195     9.72885E-03     105.693E-03    -20.5922E+06    -18.6910E+06     2.02132E+06    -12.8741E+06    -21.7865E-03     39.3473E-03    -17.5608E-03     80.5883E-03    -21.8787E-03     39.2941E-03    -17.4937E-03     80.4045E-03
            1196     10.6100E-03     105.765E-03    -18.4376E+06    -20.2817E+06     3.78250E+06    -16.5091E+06    -24.1824E-03     42.0524E-03    -17.8700E-03     93.2801E-03    -24.2798E-03     42.0014E-03    -17.7949E-03     93.0328E-03
            1197     11.4895E-03     105.849E-03    -17.1918E+06    -22.2659E+06     2.81099E+06    -20.6043E+06    -27.5890E-03     45.8809E-03    -18.2919E-03     108.002E-03    -27.7101E-03     45.8539E-03    -18.2206E-03     107.670E-03
            1198     12.3660E-03     105.949E-03    -15.9360E+06    -25.7545E+06     3.11059E+06    -23.7148E+06    -32.0600E-03     50.9467E-03    -18.8867E-03     121.437E-03    -32.2328E-03     50.9627E-03    -18.8107E-03     121.011E-03
            1199     13.2389E-03     106.058E-03    -12.5538E+06    -52.3688E+06    -6.43288E+06    -27.8540E+06    -37.6832E-03     57.3580E-03    -19.6748E-03     129.412E-03    -37.8918E-03     57.3553E-03    -19.6128E-03     128.844E-03
            1200     14.1060E-03     106.172E-03    -8.71784E+06    -50.2726E+06    -15.4744E+06    -29.8718E+06    -45.5390E-03     66.2176E-03    -20.6786E-03     150.738E-03    -46.0534E-03     66.5684E-03    -20.6704E-03     149.941E-03
            1201     14.9693E-03     106.325E-03    -4.96106E+06    -35.8686E+06    -10.2950E+06    -25.3732E+06    -56.8213E-03     78.7594E-03    -21.9381E-03     223.430E-03    -58.9655E-03     80.7891E-03    -21.9304E-03     222.243E-03
            1202     15.8260E-03     106.586E-03    -1.93712E+06     17.9340E+06    -19.3743E+06    -16.1486E+06    -67.0041E-03     90.0770E-03    -23.0729E-03     333.397E-03    -76.5427E-03     99.7287E-03    -23.1929E-03     332.936E-03
            1203     16.6892E-03     106.966E-03    -1.19485E+06     120.575E+06     44.2335E+06    -5.35100E+06    -64.9946E-03     89.3723E-03    -24.3777E-03     357.778E-03    -81.9806E-03     106.654E-03    -24.3296E-03     364.471E-03
            1204     886.003E-06     106.376E-03    -76.4515E+06    -48.2327E+06    -76.9118E+06     6.02181E+06    -15.6657E-03     31.3581E-03    -15.6924E-03     5.54488E-03    -15.8664E-03     31.3395E-03    -15.8961E-03     5.62252E-03
            1205     1.77176E-03     106.382E-03    -64.4722E+06    -41.2884E+06    -61.1998E+06     10.7400E+06    -15.7222E-03     31.4446E-03    -15.7224E-03     10.1976E-03    -15.8960E-03     31.4204E-03    -15.8751E-03     10.3362E-03
            1206     2.65773E-03     106.392E-03    -49.1170E+06    -34.2516E+06    -41.9351E+06     14.9245E+06    -15.8100E-03     31.5958E-03    -15.7858E-03     15.5397E-03    -15.9451E-03     31.5565E-03    -15.8746E-03     15.7323E-03
            1207     3.54356E-03     106.407E-03    -36.0421E+06    -28.7092E+06    -26.6565E+06     16.1325E+06    -15.9996E-03     31.8480E-03    -15.8483E-03     21.3080E-03    -16.0995E-03     31.7952E-03    -15.8877E-03     21.5163E-03
            1208     4.42916E-03     106.426E-03    -28.4627E+06    -25.9993E+06    -18.3425E+06     14.6859E+06    -16.2561E-03     32.1650E-03    -15.9089E-03     27.5324E-03    -16.3341E-03     32.1028E-03    -15.9217E-03     27.7221E-03
            1209     5.31467E-03     106.450E-03    -25.7370E+06    -22.6727E+06    -13.5921E+06     11.6883E+06    -16.5654E-03     32.5422E-03    -15.9768E-03     34.2389E-03    -16.6415E-03     32.4858E-03    -15.9745E-03     34.3898E-03
            1210     6.19999E-03     106.481E-03    -24.9701E+06    -18.7043E+06    -9.85879E+06     7.37538E+06    -16.9787E-03     33.0395E-03    -16.0609E-03     41.5445E-03    -17.0623E-03     32.9967E-03    -16.0468E-03     41.6392E-03
            1211     7.08514E-03     106.517E-03    -22.5510E+06    -16.1286E+06    -5.96948E+06     2.37736E+06    -17.5649E-03     33.7342E-03    -16.1693E-03     49.7448E-03    -17.6463E-03     33.6955E-03    -16.1431E-03     49.7742E-03
            1212     7.96968E-03     106.562E-03    -18.4368E+06    -13.5152E+06    -1.33240E+06    -2.70099E+06    -18.3925E-03     34.7029E-03    -16.3103E-03     59.0415E-03    -18.4651E-03     34.6658E-03    -16.2706E-03     59.0035E-03
            1213     8.85374E-03     106.614E-03    -16.6015E+06    -10.8071E+06     2.84332E+06    -6.67924E+06    -19.5788E-03     36.0750E-03    -16.4962E-03     69.6236E-03    -19.6550E-03     36.0457E-03    -16.4423E-03     69.5305E-03
            1214     9.73677E-03     106.677E-03    -17.3575E+06    -12.4869E+06     4.84694E+06    -11.2056E+06    -21.2333E-03     37.9756E-03    -16.7423E-03     81.5670E-03    -21.3202E-03     37.9425E-03    -16.6748E-03     81.4080E-03
            1215     10.6188E-03     106.752E-03    -17.4178E+06    -14.3808E+06     5.75269E+06    -15.8261E+06    -23.5673E-03     40.6314E-03    -17.0642E-03     95.2193E-03    -23.6672E-03     40.6018E-03    -16.9893E-03     94.9862E-03
            1216     11.4988E-03     106.839E-03    -17.2386E+06    -16.6074E+06     5.52637E+06    -18.9543E+06    -27.0056E-03     44.5020E-03    -17.4964E-03     111.329E-03    -27.1330E-03     44.4932E-03    -17.4196E-03     111.026E-03
            1217     12.3762E-03     106.943E-03    -17.3323E+06    -18.9387E+06     5.35545E+06    -23.3401E+06    -31.7460E-03     49.8416E-03    -18.0956E-03     126.513E-03    -31.9323E-03     49.8839E-03    -18.0162E-03     126.100E-03
            1218     13.2493E-03     107.058E-03    -16.3222E+06    -42.2896E+06    -2.23796E+06    -31.3765E+06    -37.9184E-03     56.8333E-03    -18.9150E-03     136.791E-03    -38.1640E-03     56.8780E-03    -18.8412E-03     136.183E-03
            1219     14.1174E-03     107.181E-03    -12.6413E+06    -49.7501E+06    -11.7292E+06    -35.8806E+06    -46.6638E-03     66.6439E-03    -19.9800E-03     160.668E-03    -47.2154E-03     67.0089E-03    -19.9482E-03     159.783E-03
            1220     14.9767E-03     107.343E-03    -7.06539E+06    -44.8694E+06    -8.70129E+06    -31.2055E+06    -59.2266E-03     80.5653E-03    -21.3386E-03     229.815E-03    -61.3290E-03     82.5094E-03    -21.3068E-03     228.472E-03
            1221     15.8376E-03     107.605E-03    -5.25579E+06     3.79688E+06    -15.0988E+06    -18.8926E+06    -70.4178E-03     93.0702E-03    -22.6524E-03     332.865E-03    -79.2459E-03     101.937E-03    -22.7258E-03     331.974E-03
            1222     16.6934E-03     107.987E-03    -4.75005E+06     108.435E+06     49.1450E+06    -5.17299E+06    -69.4829E-03     93.6279E-03    -24.1450E-03     360.453E-03    -85.9668E-03     110.338E-03    -24.0496E-03     366.286E-03
            1223     886.307E-06     107.353E-03    -95.0506E+06    -52.4445E+06    -95.6438E+06    -1.95844E+06    -14.9858E-03     29.9634E-03    -14.9776E-03     5.32902E-03    -15.2462E-03     29.9779E-03    -15.2420E-03     5.30359E-03
            1224     1.77296E-03     107.359E-03    -86.7700E+06    -46.7681E+06    -85.0656E+06    -2.08247E+06    -14.9751E-03     29.9738E-03    -14.9987E-03     9.85116E-03    -15.2178E-03     29.9891E-03    -15.2304E-03     9.82407E-03
            1225     2.65940E-03     107.370E-03    -73.4442E+06    -39.9077E+06    -70.6323E+06    -908.212E+03    -15.0271E-03     30.0526E-03    -15.0255E-03     14.9674E-03    -15.2341E-03     30.0620E-03    -15.2143E-03     14.9554E-03
            1226     3.54599E-03     107.385E-03    -56.6118E+06    -32.7018E+06    -54.8257E+06     1.50029E+06    -15.1358E-03     30.1964E-03    -15.0605E-03     20.5113E-03    -15.2920E-03     30.1945E-03    -15.2052E-03     20.5305E-03
            1227     4.43260E-03     107.404E-03    -39.5728E+06    -28.3690E+06    -38.1646E+06     4.07084E+06    -15.3851E-03     30.5046E-03    -15.1195E-03     26.5489E-03    -15.4865E-03     30.4754E-03    -15.2118E-03     26.6013E-03
            1228     5.31888E-03     107.429E-03    -25.5026E+06    -23.3081E+06    -22.5809E+06     6.01666E+06    -15.7566E-03     30.9597E-03    -15.2031E-03     33.2293E-03    -15.8176E-03     30.9129E-03    -15.2453E-03     33.3069E-03
            1229     6.20483E-03     107.460E-03    -16.9592E+06    -16.2985E+06    -10.1160E+06     6.03236E+06    -16.2752E-03     31.5841E-03    -15.3089E-03     40.6941E-03    -16.3218E-03     31.5420E-03    -15.3112E-03     40.7717E-03
            1230     7.09028E-03     107.497E-03    -14.5984E+06    -10.7883E+06    -2.66097E+06     2.60273E+06    -16.9660E-03     32.4045E-03    -15.4385E-03     49.0252E-03    -17.0200E-03     32.3761E-03    -15.4150E-03     49.0578E-03
            1231     7.97557E-03     107.542E-03    -15.2664E+06    -7.81979E+06     1.46200E+06    -2.31389E+06    -17.8574E-03     33.4578E-03    -15.6004E-03     58.4361E-03    -17.9260E-03     33.4402E-03    -15.5596E-03     58.4038E-03
            1232     8.86005E-03     107.596E-03    -13.8897E+06    -6.81121E+06     5.05131E+06    -6.09824E+06    -19.0380E-03     34.8420E-03    -15.8040E-03     69.2781E-03    -19.1086E-03     34.8244E-03    -15.7487E-03     69.1941E-03
            1233     9.74376E-03     107.660E-03    -11.1337E+06    -6.18134E+06     8.93365E+06    -9.15334E+06    -20.6227E-03     36.6828E-03    -16.0602E-03     81.6827E-03    -20.6911E-03     36.6639E-03    -15.9904E-03     81.5535E-03
            1234     10.6262E-03     107.737E-03    -11.0582E+06    -8.82259E+06     11.2215E+06    -12.7098E+06    -22.9279E-03     39.3180E-03    -16.3900E-03     96.1689E-03    -23.0076E-03     39.2945E-03    -16.3051E-03     95.9815E-03
            1235     11.5071E-03     107.827E-03    -11.7649E+06    -11.4512E+06     11.8646E+06    -16.1591E+06    -26.3105E-03     43.1311E-03    -16.8206E-03     113.499E-03    -26.4190E-03     43.1229E-03    -16.7276E-03     113.241E-03
            1236     12.3851E-03     107.935E-03    -11.5359E+06    -9.83663E+06     12.6407E+06    -21.0282E+06    -31.1279E-03     48.5318E-03    -17.4039E-03     130.739E-03    -31.2976E-03     48.5892E-03    -17.3097E-03     130.369E-03
            1237     13.2593E-03     108.057E-03    -13.4684E+06    -29.4367E+06     6.50999E+06    -28.4807E+06    -37.6498E-03     55.8692E-03    -18.2194E-03     143.457E-03    -37.9004E-03     55.9492E-03    -18.1247E-03     142.899E-03
            1238     14.1270E-03     108.189E-03    -18.7018E+06    -42.7357E+06    -6.95630E+06    -36.4861E+06    -47.4525E-03     66.7575E-03    -19.3050E-03     169.899E-03    -48.0451E-03     67.1533E-03    -19.2507E-03     169.003E-03
            1239     14.9899E-03     108.362E-03    -19.9965E+06    -50.6696E+06    -9.32519E+06    -39.0103E+06    -61.9656E-03     82.7227E-03    -20.7571E-03     236.920E-03    -64.0496E-03     84.5843E-03    -20.7013E-03     235.387E-03
            1240     15.8400E-03     108.630E-03    -13.9021E+06    -18.8736E+06    -14.3151E+06    -26.7982E+06    -73.5828E-03     95.8346E-03    -22.2518E-03     331.456E-03    -81.5052E-03     103.682E-03    -22.2758E-03     330.066E-03
            1241     16.7001E-03     109.003E-03    -6.25677E+06     90.5838E+06     50.0676E+06    -7.68534E+06    -73.9048E-03     97.8046E-03    -23.8998E-03     364.488E-03    -89.8093E-03     113.864E-03    -23.7718E-03     369.204E-03
            1242     886.837E-06     108.330E-03    -82.3058E+06    -46.2994E+06    -81.3154E+06    -4.55564E+06    -14.6235E-03     29.2878E-03    -14.6643E-03     5.03044E-03    -14.8499E-03     29.2938E-03    -14.8844E-03     4.97138E-03
            1243     1.77353E-03     108.336E-03    -81.0064E+06    -42.1822E+06    -78.7874E+06    -7.95878E+06    -14.6525E-03     29.2995E-03    -14.6470E-03     9.49176E-03    -14.8821E-03     29.3204E-03    -14.8624E-03     9.38855E-03
            1244     2.66037E-03     108.346E-03    -77.4659E+06    -37.5957E+06    -73.7865E+06    -10.9040E+06    -14.6968E-03     29.3573E-03    -14.6605E-03     14.2663E-03    -14.9227E-03     29.3887E-03    -14.8626E-03     14.1249E-03
            1245     3.54722E-03     108.361E-03    -71.0579E+06    -32.8211E+06    -66.4200E+06    -12.1946E+06    -14.7510E-03     29.4336E-03    -14.6825E-03     19.4087E-03    -14.9626E-03     29.4690E-03    -14.8640E-03     19.2505E-03
            1246     4.43404E-03     108.381E-03    -60.5000E+06    -29.7865E+06    -56.0988E+06    -11.8336E+06    -14.8544E-03     29.5697E-03    -14.7153E-03     24.9984E-03    -15.0326E-03     29.5901E-03    -14.8649E-03     24.8448E-03
            1247     5.32097E-03     108.406E-03    -45.6808E+06    -25.7820E+06    -43.4187E+06    -9.92001E+06    -15.0922E-03     29.8522E-03    -14.7600E-03     31.3255E-03    -15.2206E-03     29.8528E-03    -14.8735E-03     31.1966E-03
            1248     6.20776E-03     108.437E-03    -28.7398E+06    -18.4011E+06    -29.1690E+06    -6.28629E+06    -15.5670E-03     30.3959E-03    -14.8288E-03     38.6673E-03    -15.6421E-03     30.3882E-03    -14.9063E-03     38.5854E-03
            1249     7.09414E-03     108.475E-03    -14.9042E+06    -10.2334E+06    -11.6292E+06    -2.05251E+06    -16.3251E-03     31.2855E-03    -14.9604E-03     47.0721E-03    -16.3685E-03     31.2734E-03    -14.9821E-03     47.0445E-03
            1250     7.97946E-03     108.521E-03    -8.28339E+06    -3.89510E+06     3.26926E+06    -1.25469E+06    -17.3428E-03     32.4895E-03    -15.1467E-03     56.7263E-03    -17.3846E-03     32.4786E-03    -15.1127E-03     56.7080E-03
            1251     8.86427E-03     108.576E-03    -8.16664E+06    -2.12143E+06     9.07292E+06    -4.48343E+06    -18.5639E-03     33.9231E-03    -15.3592E-03     67.7352E-03    -18.6177E-03     33.9141E-03    -15.2990E-03     67.6731E-03
            1252     9.74842E-03     108.642E-03    -9.24946E+06    -1.82605E+06     12.0586E+06    -8.13223E+06    -20.0871E-03     35.7023E-03    -15.6152E-03     80.3361E-03    -20.1549E-03     35.6958E-03    -15.5389E-03     80.2226E-03
            1253     10.6317E-03     108.720E-03    -7.22796E+06    -3.58250E+06     16.4367E+06    -11.3052E+06    -22.3025E-03     38.2456E-03    -15.9430E-03     95.4724E-03    -22.3734E-03     38.2304E-03    -15.8452E-03     95.3086E-03
            1254     11.5128E-03     108.814E-03    -3.57119E+06    -5.74209E+06     20.1384E+06    -15.3977E+06    -25.5715E-03     41.9344E-03    -16.3629E-03     113.825E-03    -25.6494E-03     41.9209E-03    -16.2487E-03     113.588E-03
            1255     12.3921E-03     108.925E-03    -1.20343E+06    -3.32119E+06     22.7086E+06    -18.4650E+06    -30.2807E-03     47.1991E-03    -16.9184E-03     133.025E-03    -30.4055E-03     47.2422E-03    -16.7983E-03     132.703E-03
            1256     13.2671E-03     109.055E-03    -2.48593E+06    -19.4500E+06     17.3491E+06    -21.0585E+06    -37.1037E-03     54.8008E-03    -17.6971E-03     148.330E-03    -37.3065E-03     54.8760E-03    -17.5785E-03     147.887E-03
            1257     14.1368E-03     109.195E-03    -6.63854E+06    -29.4203E+06     5.83533E+06    -26.9173E+06    -48.2768E-03     67.0629E-03    -18.7861E-03     178.038E-03    -48.8223E-03     67.4648E-03    -18.7046E-03     177.268E-03
            1258     14.9944E-03     109.383E-03    -12.9750E+06    -44.2131E+06     867.086E+03    -34.3414E+06    -63.8053E-03     84.0991E-03    -20.2937E-03     244.179E-03    -65.7456E-03     85.8351E-03    -20.2064E-03     242.664E-03
            1259     15.8511E-03     109.657E-03    -16.8642E+06    -37.9042E+06    -13.1904E+06    -31.7753E+06    -76.1919E-03     98.0852E-03    -21.8932E-03     330.481E-03    -83.0992E-03     104.837E-03    -21.8798E-03     328.671E-03
            1260     16.7026E-03     110.022E-03    -12.6755E+06     65.6584E+06     43.3273E+06    -17.0320E+06    -78.5685E-03     102.231E-03    -23.6626E-03     370.006E-03    -93.8951E-03     117.621E-03    -23.5228E-03     373.371E-03
            1261     886.878E-06     109.306E-03    -60.0811E+06    -37.3100E+06    -59.7123E+06    -4.48236E+06    -14.5959E-03     29.3019E-03    -14.7059E-03     4.63599E-03    -14.7556E-03     29.2893E-03    -14.8633E-03     4.57769E-03
            1262     1.77379E-03     109.312E-03    -58.6265E+06    -33.2442E+06    -56.2126E+06    -8.62641E+06    -14.7569E-03     29.4340E-03    -14.6771E-03     8.80805E-03    -14.9204E-03     29.4344E-03    -14.8250E-03     8.69584E-03
            1263     2.66053E-03     109.323E-03    -57.0081E+06    -30.2704E+06    -50.8712E+06    -12.3220E+06    -14.8904E-03     29.6305E-03    -14.7401E-03     13.2164E-03    -15.0580E-03     29.6358E-03    -14.8679E-03     13.0561E-03
            1264     3.54711E-03     109.338E-03    -55.5013E+06    -27.5463E+06    -46.2074E+06    -15.1042E+06    -15.0036E-03     29.8075E-03    -14.8038E-03     17.8879E-03    -15.1746E-03     29.8176E-03    -14.9145E-03     17.6911E-03
            1265     4.43375E-03     109.357E-03    -54.2885E+06    -25.6444E+06    -43.9218E+06    -17.7985E+06    -15.0820E-03     29.9318E-03    -14.8498E-03     22.9413E-03    -15.2532E-03     29.9466E-03    -14.9535E-03     22.7095E-03
            1266     5.32043E-03     109.383E-03    -51.7368E+06    -23.6563E+06    -41.8452E+06    -20.3437E+06    -15.2111E-03     30.0967E-03    -14.8856E-03     28.6094E-03    -15.3757E-03     30.1149E-03    -14.9855E-03     28.3444E-03
            1267     6.20710E-03     109.414E-03    -45.4854E+06    -20.3784E+06    -36.9308E+06    -20.4394E+06    -15.4421E-03     30.3719E-03    -14.9299E-03     35.2000E-03    -15.5874E-03     30.3906E-03    -15.0190E-03     34.9337E-03
            1268     7.09367E-03     109.453E-03    -33.3801E+06    -15.0230E+06    -25.7924E+06    -16.5444E+06    -15.8854E-03     30.8924E-03    -15.0070E-03     43.0861E-03    -15.9943E-03     30.9043E-03    -15.0658E-03     42.8701E-03
            1269     7.98015E-03     109.500E-03    -17.9348E+06    -5.68059E+06    -11.4968E+06    -10.6858E+06    -16.7127E-03     31.8352E-03    -15.1224E-03     52.5921E-03    -16.7790E-03     31.8510E-03    -15.1457E-03     52.4515E-03
            1270     8.86545E-03     109.556E-03    -5.85528E+06    -827.346E+03     4.48149E+06    -6.38012E+06    -17.9742E-03     33.2871E-03    -15.3130E-03     63.7659E-03    -18.0112E-03     33.2875E-03    -15.2809E-03     63.6799E-03
            1271     9.74963E-03     109.623E-03    -787.334E+03     2.16943E+06     18.2029E+06    -6.39114E+06    -19.6356E-03     35.2100E-03    -15.5744E-03     76.7693E-03    -19.6742E-03     35.2008E-03    -15.4854E-03     76.6801E-03
            1272     10.6327E-03     109.703E-03    -501.245E+03     1.93461E+06     23.6377E+06    -10.2285E+06    -21.8391E-03     37.7234E-03    -15.8843E-03     92.3346E-03    -21.8903E-03     37.7112E-03    -15.7682E-03     92.1892E-03
            1273     11.5150E-03     109.799E-03    -640.506E+03     908.424E+03     27.3799E+06    -14.9985E+06    -24.8545E-03     41.1341E-03    -16.2796E-03     111.265E-03    -24.9270E-03     41.1283E-03    -16.1431E-03     111.042E-03
            1274     12.3943E-03     109.914E-03     932.923E+03     199.356E+03     29.5663E+06    -18.3802E+06    -29.3323E-03     46.1260E-03    -16.7938E-03     132.182E-03    -29.4393E-03     46.1516E-03    -16.6476E-03     131.880E-03
            1275     13.2710E-03     110.049E-03     4.25685E+06    -16.2288E+06     25.5425E+06    -18.5160E+06    -36.3868E-03     53.9071E-03    -17.5203E-03     150.699E-03    -36.5381E-03     53.9424E-03    -17.3752E-03     150.315E-03
            1276     14.1397E-03     110.200E-03     5.98259E+06    -18.7850E+06     18.3596E+06    -20.7355E+06    -48.2375E-03     66.8057E-03    -18.5682E-03     184.770E-03    -48.6947E-03     67.1655E-03    -18.4578E-03     184.110E-03
            1277     15.0020E-03     110.402E-03     5.80902E+06    -34.6367E+06     13.9590E+06    -22.9601E+06    -64.5431E-03     84.5983E-03    -20.0552E-03     249.462E-03    -66.2124E-03     86.1262E-03    -19.9436E-03     248.108E-03
            1278     15.8532E-03     110.681E-03     2.10245E+06    -40.5734E+06    -2.53483E+06    -20.9791E+06    -77.8646E-03     99.5630E-03    -21.6984E-03     327.484E-03    -83.5914E-03     105.161E-03    -21.6553E-03     325.533E-03
            1279     16.7076E-03     111.048E-03    -1.54237E+06     49.6034E+06     45.4931E+06    -14.4165E+06    -81.7785E-03     105.314E-03    -23.5357E-03     373.998E-03    -96.1637E-03     119.739E-03    -23.3779E-03     376.030E-03
            1280     886.574E-06     110.283E-03    -38.5799E+06    -27.3294E+06    -38.4579E+06    -5.31978E+06    -15.1661E-03     30.3859E-03    -15.2198E-03     4.14793E-03    -15.2635E-03     30.3612E-03    -15.3165E-03     4.07852E-03
            1281     1.77299E-03     110.289E-03    -37.6485E+06    -24.6057E+06    -34.6445E+06    -8.70749E+06    -15.3575E-03     30.5938E-03    -15.2364E-03     7.74032E-03    -15.4599E-03     30.5757E-03    -15.3193E-03     7.62653E-03
            1282     2.65925E-03     110.300E-03    -36.4831E+06    -22.6840E+06    -30.1565E+06    -11.2775E+06    -15.5738E-03     30.9021E-03    -15.3283E-03     11.6584E-03    -15.6799E-03     30.8856E-03    -15.3933E-03     11.5106E-03
            1283     3.54539E-03     110.315E-03    -35.2703E+06    -20.7931E+06    -26.5832E+06    -13.8109E+06    -15.8356E-03     31.2699E-03    -15.4343E-03     15.6898E-03    -15.9439E-03     31.2562E-03    -15.4859E-03     15.5085E-03
            1284     4.43129E-03     110.335E-03    -33.5465E+06    -18.4867E+06    -22.6122E+06    -16.6520E+06    -16.1102E-03     31.6625E-03    -15.5523E-03     20.0133E-03    -16.2193E-03     31.6524E-03    -15.5899E-03     19.7943E-03
            1285     5.31695E-03     110.360E-03    -32.5884E+06    -17.1696E+06    -18.8401E+06    -19.7224E+06    -16.3402E-03     32.0135E-03    -15.6733E-03     24.8503E-03    -16.4525E-03     32.0036E-03    -15.6953E-03     24.5908E-03
            1286     6.20246E-03     110.392E-03    -32.8886E+06    -16.7426E+06    -16.6384E+06    -22.4280E+06    -16.4875E-03     32.2665E-03    -15.7791E-03     30.4801E-03    -16.6056E-03     32.2565E-03    -15.7903E-03     30.1851E-03
            1287     7.08815E-03     110.430E-03    -32.3731E+06    -15.1785E+06    -16.1335E+06    -24.3546E+06    -16.6141E-03     32.4707E-03    -15.8566E-03     37.2621E-03    -16.7331E-03     32.4675E-03    -15.8683E-03     36.9420E-03
            1288     7.97378E-03     110.477E-03    -27.7247E+06    -10.0867E+06    -14.1289E+06    -22.7236E+06    -16.8786E-03     32.7975E-03    -15.9189E-03     45.6153E-03    -16.9849E-03     32.8104E-03    -15.9347E-03     45.3164E-03
            1289     8.85968E-03     110.534E-03    -17.5664E+06    -4.96793E+06    -3.44459E+06    -17.6288E+06    -17.5579E-03     33.5842E-03    -16.0262E-03     56.0077E-03    -17.6367E-03     33.5929E-03    -16.0108E-03     55.7748E-03
            1290     9.74477E-03     110.603E-03    -5.44872E+06     1.13909E+06     12.0551E+06    -12.0520E+06    -18.9555E-03     35.1546E-03    -16.1991E-03     69.0040E-03    -19.0061E-03     35.1550E-03    -16.1326E-03     68.8423E-03
            1291     10.6283E-03     110.685E-03     2.75847E+06     6.25747E+06     26.0036E+06    -10.0215E+06    -21.1948E-03     37.6497E-03    -16.4549E-03     85.1446E-03    -21.2356E-03     37.6472E-03    -16.3380E-03     85.0056E-03
            1292     11.5095E-03     110.783E-03     5.57945E+06     7.15737E+06     34.9551E+06    -12.7566E+06    -24.2335E-03     41.0410E-03    -16.8075E-03     104.598E-03    -24.2846E-03     41.0360E-03    -16.6512E-03     104.414E-03
            1293     12.3902E-03     110.901E-03     4.60329E+06     3.87417E+06     35.2601E+06    -15.3704E+06    -28.5551E-03     45.8182E-03    -17.2631E-03     126.703E-03    -28.6337E-03     45.8248E-03    -17.0991E-03     126.460E-03
            1294     13.2665E-03     111.042E-03     3.27608E+06    -12.7145E+06     30.7942E+06    -18.8641E+06    -35.2683E-03     53.1911E-03    -17.9228E-03     148.501E-03    -35.3923E-03     53.1928E-03    -17.7551E-03     148.147E-03
            1295     14.1382E-03     111.203E-03     1.06069E+06    -17.0229E+06     24.7122E+06    -17.9444E+06    -47.0335E-03     65.9250E-03    -18.8915E-03     186.225E-03    -47.4250E-03     66.1894E-03    -18.7448E-03     185.664E-03
            1296     14.9991E-03     111.418E-03    -2.33865E+06    -24.5151E+06     22.4534E+06    -22.1686E+06    -63.9660E-03     84.2660E-03    -20.3000E-03     250.558E-03    -65.3902E-03     85.5312E-03    -20.1488E-03     249.305E-03
            1297     15.8533E-03     111.708E-03     1.78382E+06    -47.4312E+06     1.20013E+06    -23.9833E+06    -77.2021E-03     99.0802E-03    -21.8781E-03     322.252E-03    -81.7250E-03     103.438E-03    -21.8059E-03     320.212E-03
            1298     16.7042E-03     112.067E-03     5.36312E+06     31.9598E+06     39.6447E+06    -7.36936E+06    -81.5420E-03     105.133E-03    -23.5913E-03     377.875E-03    -94.5832E-03     118.193E-03    -23.4472E-03     378.762E-03
            1299     885.482E-06     111.261E-03    -16.7934E+06    -17.8412E+06    -15.0811E+06    -4.45549E+06    -16.5385E-03     32.9513E-03    -16.4128E-03     3.52918E-03    -16.5747E-03     32.9085E-03    -16.4380E-03     3.47049E-03
            1300     1.77087E-03     111.268E-03    -17.1989E+06    -16.6256E+06    -14.1999E+06    -7.50025E+06    -16.7122E-03     33.2443E-03    -16.5322E-03     6.36052E-03    -16.7538E-03     33.2068E-03    -16.5541E-03     6.26151E-03
            1301     2.65612E-03     111.279E-03    -16.6703E+06    -16.0594E+06    -11.9581E+06    -10.2576E+06    -17.0225E-03     33.6776E-03    -16.6551E-03     9.50576E-03    -17.0657E-03     33.6391E-03    -16.6675E-03     9.36986E-03
            1302     3.54097E-03     111.294E-03    -15.4312E+06    -14.2292E+06    -8.01053E+06    -12.6758E+06    -17.4548E-03     34.2735E-03    -16.8187E-03     12.6657E-03    -17.5007E-03     34.2370E-03    -16.8157E-03     12.4972E-03
            1303     4.42534E-03     111.314E-03    -15.0109E+06    -12.3650E+06    -4.20360E+06    -14.8010E+06    -17.9133E-03     34.9259E-03    -17.0126E-03     16.0908E-03    -17.9658E-03     34.8931E-03    -16.9940E-03     15.8932E-03
            1304     5.30933E-03     111.340E-03    -15.2349E+06    -10.9718E+06    -1.45330E+06    -16.5494E+06    -18.3199E-03     35.5357E-03    -17.2158E-03     19.9147E-03    -18.3802E-03     35.5068E-03    -17.1851E-03     19.6928E-03
            1305     6.19314E-03     111.372E-03    -15.4487E+06    -10.6430E+06     778.895E+03    -18.7737E+06    -18.6396E-03     36.0540E-03    -17.4144E-03     24.3519E-03    -18.7055E-03     36.0245E-03    -17.3727E-03     24.0996E-03
            1306     7.07659E-03     111.410E-03    -16.0685E+06    -9.56108E+06     3.41590E+06    -21.4350E+06    -18.8136E-03     36.4103E-03    -17.5967E-03     29.7270E-03    -18.8890E-03     36.3842E-03    -17.5425E-03     29.4392E-03
            1307     7.96019E-03     111.457E-03    -17.4165E+06    -9.39565E+06     5.06426E+06    -23.3463E+06    -18.8297E-03     36.5753E-03    -17.7456E-03     36.4188E-03    -18.9153E-03     36.5504E-03    -17.6814E-03     36.1058E-03
            1308     8.84386E-03     111.514E-03    -18.0657E+06    -7.34720E+06     5.36106E+06    -22.9521E+06    -18.8564E-03     36.7068E-03    -17.8504E-03     44.9072E-03    -18.9494E-03     36.6933E-03    -17.7867E-03     44.5996E-03
            1309     9.72810E-03     111.583E-03    -15.0580E+06    -3.14441E+06     9.39503E+06    -20.2851E+06    -19.3000E-03     37.2514E-03    -17.9514E-03     56.0963E-03    -19.3902E-03     37.2492E-03    -17.8780E-03     55.8239E-03
            1310     10.6120E-03     111.666E-03    -8.04388E+06     4.68428E+06     22.2742E+06    -15.8733E+06    -20.6156E-03     38.7294E-03    -18.1138E-03     71.1034E-03    -20.7016E-03     38.7386E-03    -17.9976E-03     70.8884E-03
            1311     11.4949E-03     111.766E-03    -2.22333E+06     10.1888E+06     34.4096E+06    -12.9724E+06    -23.2113E-03     41.5708E-03    -18.3596E-03     90.5350E-03    -23.2973E-03     41.5853E-03    -18.1991E-03     90.3545E-03
            1312     12.3736E-03     111.887E-03    -1.19677E+06     4.90297E+06     38.3880E+06    -11.4522E+06    -27.3529E-03     46.0760E-03    -18.7231E-03     113.993E-03    -27.4444E-03     46.0695E-03    -18.5365E-03     113.819E-03
            1313     13.2508E-03     112.032E-03    -6.70401E+06    -3.91620E+06     36.4310E+06    -12.9277E+06    -34.0021E-03     53.2895E-03    -19.2874E-03     138.557E-03    -34.1495E-03     53.2938E-03    -19.0898E-03     138.319E-03
            1314     14.1220E-03     112.202E-03    -10.6941E+06    -19.6174E+06     29.8047E+06    -15.8952E+06    -45.5028E-03     65.6751E-03    -20.1723E-03     178.120E-03    -45.8295E-03     65.8084E-03    -19.9794E-03     177.670E-03
            1315     14.9861E-03     112.430E-03    -9.17847E+06    -10.2472E+06     31.8742E+06    -19.4050E+06    -60.7280E-03     82.1593E-03    -21.4313E-03     241.925E-03    -61.7996E-03     83.0706E-03    -21.2438E-03     240.920E-03
            1316     15.8408E-03     112.728E-03    -18.2929E+06    -47.2274E+06     2.64305E+06    -26.6049E+06    -72.3704E-03     95.1841E-03    -22.8136E-03     307.751E-03    -75.6043E-03     98.1781E-03    -22.7054E-03     305.935E-03
            1317     16.6996E-03     113.082E-03    -20.7939E+06     -824.01E+03     15.9044E+06    -22.6202E+06    -73.1384E-03     97.2377E-03    -24.0993E-03     371.810E-03    -83.3935E-03     107.371E-03    -23.9884E-03     372.013E-03
            1318     883.758E-06     112.243E-03     2.29362E+06    -10.6374E+06     3.21320E+06    -2.78219E+06    -18.8102E-03     37.3967E-03    -18.5865E-03     2.57079E-03    -18.7881E-03     37.3355E-03    -18.5583E-03     2.53322E-03
            1319     1.76719E-03     112.249E-03     2.06539E+06    -9.66821E+06     4.53066E+06    -5.48597E+06    -19.0708E-03     37.8570E-03    -18.7862E-03     4.62005E-03    -19.0536E-03     37.7990E-03    -18.7525E-03     4.54596E-03
            1320     2.65022E-03     112.261E-03     1.51685E+06    -9.41718E+06     6.53582E+06    -8.52302E+06    -19.5369E-03     38.5140E-03    -18.9771E-03     6.79086E-03    -19.5259E-03     38.4553E-03    -18.9330E-03     6.67568E-03
            1321     3.53283E-03     112.277E-03     968.787E+03    -8.84058E+06     8.32104E+06    -10.7366E+06    -20.0610E-03     39.2679E-03    -19.2069E-03     8.95691E-03    -20.0566E-03     39.2106E-03    -19.1539E-03     8.81108E-03
            1322     4.41495E-03     112.298E-03     676.156E+03    -7.59588E+06     10.5395E+06    -11.9365E+06    -20.6538E-03     40.1210E-03    -19.4672E-03     11.2893E-03    -20.6564E-03     40.0676E-03    -19.4044E-03     11.1256E-03
            1323     5.29652E-03     112.324E-03     426.237E+03    -6.26287E+06     13.3645E+06    -13.3123E+06    -21.2889E-03     41.0448E-03    -19.7558E-03     13.9254E-03    -21.2996E-03     40.9950E-03    -19.6806E-03     13.7413E-03
            1324     6.17732E-03     112.357E-03    -370.082E+03    -5.63374E+06     16.6017E+06    -14.6812E+06    -21.8801E-03     41.9449E-03    -20.0648E-03     16.9978E-03    -21.9013E-03     41.8956E-03    -19.9731E-03     16.7932E-03
            1325     7.05778E-03     112.395E-03    -2.45102E+06    -4.60674E+06     18.7615E+06    -15.8924E+06    -22.3373E-03     42.7081E-03    -20.3707E-03     20.7435E-03    -22.3747E-03     42.6647E-03    -20.2667E-03     20.5206E-03
            1326     7.93780E-03     112.442E-03    -5.16866E+06    -4.80338E+06     19.8036E+06    -17.3613E+06    -22.6264E-03     43.2859E-03    -20.6595E-03     25.3871E-03    -22.6800E-03     43.2451E-03    -20.5460E-03     25.1428E-03
            1327     8.81785E-03     112.498E-03    -7.22481E+06    -5.32474E+06     20.7989E+06    -18.8715E+06    -22.7271E-03     43.6477E-03    -20.9206E-03     31.3764E-03    -22.7931E-03     43.6070E-03    -20.7984E-03     31.1110E-03
            1328     9.69769E-03     112.566E-03    -9.25931E+06    -3.69952E+06     22.7330E+06    -19.0184E+06    -22.6910E-03     43.8397E-03    -21.1487E-03     39.4308E-03    -22.7738E-03     43.8084E-03    -21.0162E-03     39.1631E-03
            1329     10.5781E-03     112.648E-03    -11.5274E+06     725.791E+03     26.7521E+06    -16.9326E+06    -22.7745E-03     44.1278E-03    -21.3532E-03     50.6903E-03    -22.8817E-03     44.1167E-03    -21.2038E-03     50.4512E-03
            1330     11.4585E-03     112.749E-03    -12.9006E+06     7.48235E+06     32.5247E+06    -12.2441E+06    -23.5630E-03     45.1213E-03    -21.5583E-03     66.6346E-03    -23.6954E-03     45.1381E-03    -21.3878E-03     66.4590E-03
            1331     12.3396E-03     112.872E-03    -12.8327E+06     4.90702E+06     40.5207E+06    -8.98181E+06    -26.0622E-03     47.9063E-03    -21.8442E-03     88.1907E-03    -26.2037E-03     47.9010E-03    -21.6301E-03     88.0577E-03
            1332     13.2161E-03     113.021E-03    -9.24784E+06    -443.026E+03     47.2395E+06    -7.11886E+06    -32.1475E-03     54.4547E-03    -22.3072E-03     114.760E-03    -32.2915E-03     54.4271E-03    -22.0570E-03     114.630E-03
            1333     14.0857E-03     113.200E-03    -7.24482E+06    -11.3514E+06     44.2155E+06    -10.6702E+06    -42.7098E-03     65.7709E-03    -23.0611E-03     155.239E-03    -42.9243E-03     65.7916E-03    -22.8130E-03     154.956E-03
            1334     14.9474E-03     113.432E-03    -12.6202E+06    -9.44291E+06     36.8989E+06    -11.4899E+06    -55.6241E-03     79.7526E-03    -24.1286E-03     215.177E-03    -56.2772E-03     80.2200E-03    -23.9121E-03     214.543E-03
            1335     15.8093E-03     113.735E-03    -14.6919E+06    -28.0976E+06     31.9905E+06    -14.0102E+06    -64.2007E-03     89.5750E-03    -25.3743E-03     273.100E-03    -66.1024E-03     91.2317E-03    -25.1523E-03     271.886E-03
            1336     16.6654E-03     114.086E-03    -11.0602E+06    -6.92245E+06     27.2348E+06    -28.1641E+06    -46.1334E-03     71.9585E-03    -25.8251E-03     334.855E-03    -51.5576E-03     77.2531E-03    -25.6629E-03     335.044E-03
            1337     880.681E-06     113.229E-03     17.2619E+06    -5.50110E+06     17.4207E+06    -2.05099E+06    -22.1474E-03     44.2883E-03    -22.1408E-03     1.41229E-03    -22.0789E-03     44.2102E-03    -22.0708E-03     1.38374E-03
            1338     1.76127E-03     113.237E-03     16.7844E+06    -4.44054E+06     19.1204E+06    -3.86206E+06    -22.6532E-03     44.9199E-03    -22.2667E-03     2.53534E-03    -22.5914E-03     44.8450E-03    -22.1890E-03     2.48123E-03
            1339     2.64117E-03     113.249E-03     16.2504E+06    -4.14466E+06     21.6930E+06    -5.52227E+06    -23.2011E-03     45.7215E-03    -22.5203E-03     3.52386E-03    -23.1464E-03     45.6453E-03    -22.4294E-03     3.44603E-03
            1340     3.52051E-03     113.266E-03     15.0484E+06    -4.29238E+06     22.9417E+06    -7.27411E+06    -23.8291E-03     46.6391E-03    -22.8100E-03     4.57103E-03    -23.7822E-03     46.5623E-03    -22.7109E-03     4.46803E-03
            1341     4.39922E-03     113.288E-03     13.9149E+06    -4.03303E+06     23.8837E+06    -8.75674E+06    -24.5790E-03     47.7164E-03    -23.1373E-03     5.71687E-03    -24.5400E-03     47.6415E-03    -23.0323E-03     5.59180E-03
            1342     5.27707E-03     113.315E-03     12.7120E+06    -2.81397E+06     26.3616E+06    -9.43345E+06    -25.4363E-03     48.9506E-03    -23.5143E-03     7.05995E-03    -25.4092E-03     48.8803E-03    -23.3968E-03     6.92280E-03
            1343     6.15419E-03     113.348E-03     11.0230E+06    -2.62684E+06     29.0759E+06    -9.76433E+06    -26.3821E-03     50.3199E-03    -23.9378E-03     8.62668E-03    -26.3684E-03     50.2496E-03    -23.8045E-03     8.48143E-03
            1344     7.03024E-03     113.388E-03     9.61193E+06    -1.54323E+06     31.5781E+06    -10.1225E+06    -27.3683E-03     51.7667E-03    -24.3984E-03     10.5100E-03    -27.3678E-03     51.7009E-03    -24.2522E-03     10.3557E-03
            1345     7.90537E-03     113.435E-03     7.95045E+06    -1.18901E+06     34.0547E+06    -10.7278E+06    -28.2990E-03     53.1913E-03    -24.8923E-03     12.8258E-03    -28.3123E-03     53.1269E-03    -24.7318E-03     12.6590E-03
            1346     8.77937E-03     113.492E-03     4.38530E+06    -2.11712E+06     35.7107E+06    -11.2660E+06    -29.0953E-03     54.5026E-03    -25.4074E-03     15.8822E-03    -29.1292E-03     54.4373E-03    -25.2321E-03     15.7035E-03
            1347     9.65285E-03     113.559E-03     193.850E+03    -2.07111E+06     36.6522E+06    -11.5215E+06    -29.6613E-03     55.5879E-03    -25.9266E-03     20.0578E-03    -29.7197E-03     55.5286E-03    -25.7406E-03     19.8715E-03
            1348     10.5255E-03     113.640E-03    -2.38179E+06    -519.048E+03     39.4658E+06    -10.8051E+06    -29.8070E-03     56.2480E-03    -26.4410E-03     25.9887E-03    -29.8868E-03     56.1970E-03    -26.2395E-03     25.8088E-03
            1349     11.3985E-03     113.738E-03    -3.15288E+06     2.02546E+06     41.7037E+06    -7.62256E+06    -29.4553E-03     56.3715E-03    -26.9162E-03     34.9408E-03    -29.5476E-03     56.3316E-03    -26.7060E-03     34.8028E-03
            1350     12.2709E-03     113.859E-03    -2.44912E+06     4.72492E+06     49.7228E+06    -4.54181E+06    -29.3935E-03     56.7816E-03    -27.3881E-03     49.1931E-03    -29.4988E-03     56.7430E-03    -27.1428E-03     49.0992E-03
            1351     13.1447E-03     114.008E-03     205.188E+03     638.327E+03     58.8624E+06    -5.85573E+06    -31.7083E-03     59.6292E-03    -27.9209E-03     71.7295E-03    -31.8106E-03     59.5575E-03    -27.6278E-03     71.6200E-03
            1352     14.0139E-03     114.194E-03     1.32828E+06    -6.48920E+06     53.4923E+06    -2.78154E+06    -38.2744E-03     66.8535E-03    -28.5791E-03     108.092E-03    -38.3812E-03     66.7825E-03    -28.3041E-03     107.990E-03
            1353     14.8773E-03     114.429E-03     3.11496E+06    -8.54199E+06     55.9733E+06    -651.161E+03    -48.5884E-03     78.1453E-03    -29.5569E-03     161.591E-03    -48.8564E-03     78.2287E-03    -29.2692E-03     161.342E-03
            1354     15.7287E-03     114.731E-03     17.3952E+06    -9.75335E+06     66.1524E+06    -13.1387E+06    -49.6515E-03     80.1969E-03    -30.5454E-03     213.385E-03    -50.3467E-03     80.7294E-03    -30.2257E-03     212.713E-03
            1355     16.5932E-03     115.069E-03     18.4738E+06     905.328E+03     44.9187E+06    -15.9473E+06    -12.1818E-03     42.3083E-03    -30.1264E-03     234.858E-03    -13.5549E-03     43.6190E-03    -29.9299E-03     234.904E-03
            1356     876.734E-06     114.225E-03     27.1637E+06    -1.97412E+06     27.6269E+06    -1.48082E+06    -27.1230E-03     54.3707E-03    -27.2477E-03    -226.405E-06    -27.0255E-03     54.2804E-03    -27.1461E-03    -247.228E-06
            1357     1.75258E-03     114.233E-03     26.4667E+06    -1.34569E+06     28.5662E+06    -2.17064E+06    -27.5164E-03     54.7992E-03    -27.2828E-03    -164.823E-06    -27.4249E-03     54.7114E-03    -27.1764E-03    -196.653E-06
            1358     2.62825E-03     114.246E-03     25.7044E+06    -1.32905E+06     30.3590E+06    -2.73079E+06    -28.0929E-03     55.5925E-03    -27.4996E-03    -290.653E-06    -28.0079E-03     55.5033E-03    -27.3832E-03    -331.602E-06
            1359     3.50324E-03     114.264E-03     24.9082E+06    -1.05763E+06     33.5209E+06    -3.41472E+06    -28.8716E-03     56.6854E-03    -27.8138E-03    -373.545E-06    -28.7957E-03     56.5941E-03    -27.6807E-03    -425.524E-06
            1360     4.37730E-03     114.287E-03     23.3380E+06    -1.30470E+06     35.9786E+06    -4.29671E+06    -29.8619E-03     58.0727E-03    -28.2108E-03    -459.946E-06    -29.7972E-03     57.9789E-03    -28.0628E-03    -525.832E-06
            1361     5.25046E-03     114.315E-03     21.5081E+06    -1.15161E+06     36.9095E+06    -4.65542E+06    -31.0779E-03     59.7638E-03    -28.6859E-03    -588.481E-06    -31.0243E-03     59.6721E-03    -28.5309E-03    -661.974E-06
            1362     6.12221E-03     114.350E-03     20.1889E+06    -701.129E+03     39.2021E+06    -4.80212E+06    -32.5586E-03     61.8173E-03    -29.2587E-03    -806.442E-06    -32.5159E-03     61.7263E-03    -29.0909E-03    -885.469E-06
            1363     6.99241E-03     114.391E-03     18.7791E+06    -134.852E+03     43.0289E+06    -4.82662E+06    -34.2607E-03     64.1977E-03    -29.9370E-03    -1.09780E-03    -34.2321E-03     64.1061E-03    -29.7489E-03    -1.18159E-03
            1364     7.86065E-03     114.440E-03     16.8952E+06     420.917E+03     46.0558E+06    -4.40015E+06    -36.1532E-03     66.8655E-03    -30.7123E-03    -1.45801E-03    -36.1399E-03     66.7747E-03    -30.5071E-03    -1.54181E-03
            1365     8.72707E-03     114.497E-03     15.5499E+06    -805.004E+03     48.9822E+06    -3.75141E+06    -38.2000E-03     69.7918E-03    -31.5918E-03    -1.88336E-03    -38.1970E-03     69.6922E-03    -31.3682E-03    -1.96549E-03
            1366     9.59082E-03     114.566E-03     14.6877E+06     32.5468E+03     52.1746E+06    -3.90268E+06    -40.1892E-03     72.7584E-03    -32.5691E-03    -2.33847E-03    -40.1978E-03     72.6591E-03    -32.3296E-03    -2.43007E-03
            1367     10.4523E-03     114.647E-03     13.3362E+06    -661.222E+03     54.4533E+06    -3.72608E+06    -41.7217E-03     75.3479E-03    -33.6263E-03    -2.64087E-03    -41.7412E-03     75.2430E-03    -33.3724E-03    -2.73787E-03
            1368     11.3112E-03     114.744E-03     12.7248E+06    -614.057E+03     55.0501E+06    -2.71317E+06    -42.2922E-03     77.0083E-03    -34.7161E-03    -2.02292E-03    -42.3182E-03     76.9023E-03    -34.4584E-03    -2.11363E-03
            1369     12.1698E-03     114.860E-03     13.9393E+06     2.14346E+06     59.9487E+06    -1.12187E+06    -41.6878E-03     77.5101E-03    -35.8222E-03     1.58221E-03    -41.7218E-03     77.4072E-03    -35.5458E-03     1.50854E-03
            1370     13.0266E-03     115.005E-03     12.9313E+06     4.05675E+06     65.8820E+06    -442.716E+03    -40.7006E-03     77.6390E-03    -36.9384E-03     10.8560E-03    -40.7546E-03     77.5365E-03    -36.6336E-03     10.7921E-03
            1371     13.8848E-03     115.185E-03     12.9394E+06    -10.7782E+06     59.1027E+06     1.29041E+06    -41.0067E-03     79.0976E-03    -38.0910E-03     29.8106E-03    -41.0349E-03     78.9310E-03    -37.7986E-03     29.7703E-03
            1372     14.7382E-03     115.419E-03     23.9706E+06    -8.37453E+06     70.8989E+06     22.4937E+03    -40.9065E-03     80.2938E-03    -39.3873E-03     64.8002E-03    -40.9343E-03     80.1414E-03    -39.0554E-03     64.7108E-03
            1373     15.5910E-03     115.716E-03     22.0233E+06     8.42804E+06     71.8341E+06    -8.65859E+06    -23.5718E-03     63.6901E-03    -40.1183E-03     97.5548E-03    -23.7047E-03     63.7052E-03    -39.8033E-03     97.3278E-03
            1374     16.4741E-03     116.013E-03     10.8588E+06     2.60368E+06     33.2996E+06    -3.80415E+06     10.4919E-03     28.8092E-03    -39.3011E-03     86.9942E-03     10.3872E-03     28.8508E-03    -39.1541E-03     86.9073E-03
            1375     16.6449E-03     57.8672E-03    -5.72954E+06     170.475E+06     92.9252E+06     917.470E+03    -46.7194E-03     73.8038E-03    -27.0844E-03     363.183E-03    -64.9619E-03     92.3617E-03    -26.8587E-03     373.082E-03
            1376     15.7718E-03     57.4695E-03    -9.72085E+06     128.390E+06     29.5907E+06     1.99240E+06    -47.3112E-03     74.1683E-03    -26.8571E-03     334.872E-03    -58.1814E-03     85.3740E-03    -26.8812E-03     336.267E-03
            1377     14.8926E-03     57.2152E-03    -9.79861E+06     55.0009E+06    -20.4045E+06     1.41797E+06    -35.3332E-03     62.0859E-03    -26.7528E-03     189.513E-03    -37.3283E-03     64.3007E-03    -26.9203E-03     189.234E-03
            1378     14.0168E-03     57.1056E-03    -7.14937E+06     1.90304E+06    -19.7482E+06    -41.2699E+03    -29.0733E-03     55.9216E-03    -26.8484E-03     97.2448E-03    -29.4635E-03     56.3505E-03    -26.9395E-03     97.0068E-03
            1379     13.1412E-03     57.0312E-03    -6.12996E+06    -18.8847E+06    -8.66593E+06     689.523E+03    -28.3429E-03     55.2808E-03    -26.9379E-03     79.8410E-03    -28.5106E-03     55.3848E-03    -26.9449E-03     79.6723E-03
            1380     12.2650E-03     56.9543E-03    -6.73720E+06    -31.0726E+06    -2.22833E+06     1.26127E+06    -28.3331E-03     55.3297E-03    -26.9966E-03     77.9520E-03    -28.4369E-03     55.3058E-03    -26.9529E-03     77.8254E-03
            1381     11.3887E-03     56.8832E-03    -8.05341E+06    -49.9927E+06    -3.12000E+06     1.02093E+06    -28.1914E-03     55.2196E-03    -27.0282E-03     71.1991E-03    -28.2344E-03     55.0656E-03    -26.9597E-03     71.0968E-03
            1382     10.5127E-03     56.8193E-03    -9.01667E+06    -65.9573E+06    -4.50985E+06     868.403E+03    -28.0123E-03     55.0631E-03    -27.0508E-03     64.5892E-03    -28.0079E-03     54.8055E-03    -26.9646E-03     64.5098E-03
            1383     9.63653E-03     56.7606E-03    -9.85855E+06    -74.7066E+06    -1.38960E+06     760.073E+03    -27.8505E-03     54.9362E-03    -27.0857E-03     59.0693E-03    -27.8251E-03     54.6146E-03    -26.9700E-03     59.0081E-03
            1384     8.76046E-03     56.7071E-03    -10.8589E+06    -78.8913E+06     307.071E+03     567.786E+03    -27.7021E-03     54.8103E-03    -27.1081E-03     53.5438E-03    -27.6666E-03     54.4553E-03    -26.9765E-03     53.4956E-03
            1385     7.88435E-03     56.6589E-03    -12.1687E+06    -84.0346E+06    -452.916E+03     457.483E+03    -27.5711E-03     54.6920E-03    -27.1208E-03     48.0000E-03    -27.5258E-03     54.3064E-03    -26.9836E-03     47.9626E-03
            1386     7.00828E-03     56.6159E-03    -13.5691E+06    -90.8446E+06    -1.33959E+06     581.109E+03    -27.4557E-03     54.5920E-03    -27.1363E-03     42.4491E-03    -27.4008E-03     54.1704E-03    -26.9916E-03     42.4229E-03
            1387     6.13215E-03     56.5783E-03    -15.0165E+06    -95.0254E+06    -3.57854E+06     413.785E+03    -27.3556E-03     54.4979E-03    -27.1424E-03     36.9396E-03    -27.2949E-03     54.0570E-03    -27.0007E-03     36.9189E-03
            1388     5.25610E-03     56.5458E-03    -16.7278E+06    -98.8714E+06    -7.29701E+06     164.175E+03    -27.2797E-03     54.4213E-03    -27.1416E-03     31.4733E-03    -27.2140E-03     53.9664E-03    -27.0105E-03     31.4555E-03
            1389     4.38002E-03     56.5185E-03    -18.5192E+06    -104.628E+06    -10.9270E+06     150.149E+03    -27.2201E-03     54.3649E-03    -27.1448E-03     26.0566E-03    -27.1480E-03     53.8873E-03    -27.0209E-03     26.0434E-03
            1390     3.50400E-03     56.4962E-03    -20.0761E+06    -108.363E+06    -14.8471E+06    -30.5375E+03    -27.1714E-03     54.3163E-03    -27.1449E-03     20.6973E-03    -27.0948E-03     53.8267E-03    -27.0329E-03     20.6858E-03
            1391     2.62794E-03     56.4792E-03    -21.3934E+06    -110.544E+06    -18.4192E+06    -86.0851E+03    -27.1387E-03     54.2863E-03    -27.1476E-03     15.4116E-03    -27.0595E-03     53.7921E-03    -27.0484E-03     15.4027E-03
            1392     1.75192E-03     56.4669E-03    -22.3135E+06    -111.884E+06    -20.8212E+06     95.0534E+03    -27.1372E-03     54.2949E-03    -27.1577E-03     10.2546E-03    -27.0567E-03     53.7984E-03    -27.0672E-03     10.2510E-03
            1393     875.941E-06     56.4597E-03    -22.8876E+06    -113.004E+06    -22.4840E+06     96.9861E+03    -27.1300E-03     54.3300E-03    -27.2000E-03     5.23580E-03    -27.0479E-03     53.8311E-03    -27.1154E-03     5.23470E-03
            1394     16.6497E-03     56.8698E-03    -3.69989E+06     167.380E+06     97.9680E+06     1.22933E+06    -46.0333E-03     73.1573E-03    -27.1239E-03     363.157E-03    -64.1682E-03     91.5891E-03    -26.8714E-03     373.081E-03
            1395     15.7681E-03     56.4680E-03    -4.33464E+06     128.605E+06     37.4452E+06     3.31021E+06    -47.4776E-03     74.3988E-03    -26.9212E-03     335.388E-03    -58.3641E-03     85.6178E-03    -26.9141E-03     336.824E-03
            1396     14.8944E-03     56.2154E-03    -6.14867E+06     59.2197E+06    -13.5290E+06     2.24676E+06    -35.8200E-03     62.6138E-03    -26.7939E-03     189.549E-03    -37.8284E-03     64.8498E-03    -26.9385E-03     189.262E-03
            1397     14.0174E-03     56.1050E-03    -8.86525E+06     1.63009E+06    -18.3196E+06     76.2068E+03    -28.9362E-03     55.8031E-03    -26.8669E-03     97.2985E-03    -29.3361E-03     56.2304E-03    -26.9480E-03     97.0635E-03
            1398     13.1408E-03     56.0304E-03    -9.33356E+06    -20.1006E+06    -10.8383E+06     392.523E+03    -28.3626E-03     55.3082E-03    -26.9456E-03     79.7497E-03    -28.5414E-03     55.4139E-03    -26.9571E-03     79.5771E-03
            1399     12.2647E-03     55.9538E-03    -9.18241E+06    -31.0914E+06    -3.10052E+06     1.24425E+06    -28.3751E-03     55.3809E-03    -27.0058E-03     77.9982E-03    -28.4900E-03     55.3618E-03    -26.9629E-03     77.8711E-03
            1400     11.3887E-03     55.8825E-03    -9.11197E+06    -49.6679E+06    -3.32982E+06     1.31107E+06    -28.2189E-03     55.2545E-03    -27.0357E-03     71.1201E-03    -28.2673E-03     55.1040E-03    -26.9671E-03     71.0214E-03
            1401     10.5126E-03     55.8187E-03    -9.50154E+06    -65.5941E+06    -4.35458E+06     1.10268E+06    -28.0303E-03     55.0876E-03    -27.0573E-03     64.5055E-03    -28.0290E-03     54.8323E-03    -26.9701E-03     64.4291E-03
            1402     9.63655E-03     55.7600E-03    -10.1763E+06    -74.4746E+06    -1.38123E+06     852.077E+03    -27.8620E-03     54.9523E-03    -27.0902E-03     59.0404E-03    -27.8385E-03     54.6322E-03    -26.9744E-03     58.9804E-03
            1403     8.76041E-03     55.7066E-03    -11.2711E+06    -78.4766E+06     464.220E+03     631.281E+03    -27.7064E-03     54.8190E-03    -27.1126E-03     53.5217E-03    -27.6737E-03     54.4664E-03    -26.9802E-03     53.4743E-03
            1404     7.88434E-03     55.6583E-03    -12.6010E+06    -84.0731E+06    -467.078E+03     526.467E+03    -27.5766E-03     54.7012E-03    -27.1247E-03     47.9827E-03    -27.5333E-03     54.3161E-03    -26.9868E-03     47.9462E-03
            1405     7.00822E-03     55.6154E-03    -13.9567E+06    -90.5966E+06    -1.60897E+06     357.344E+03    -27.4640E-03     54.6016E-03    -27.1376E-03     42.4403E-03    -27.4110E-03     54.1821E-03    -26.9941E-03     42.4112E-03
            1406     6.13218E-03     55.5777E-03    -15.2989E+06    -94.7603E+06    -3.79263E+06     174.210E+03    -27.3641E-03     54.5067E-03    -27.1427E-03     36.9357E-03    -27.3049E-03     54.0678E-03    -27.0020E-03     36.9120E-03
            1407     5.25607E-03     55.5452E-03    -16.7388E+06    -98.9240E+06    -7.08108E+06     325.504E+03    -27.2851E-03     54.4282E-03    -27.1431E-03     31.4742E-03    -27.2197E-03     53.9727E-03    -27.0108E-03     31.4585E-03
            1408     4.38006E-03     55.5178E-03    -18.3260E+06    -104.393E+06    -10.6872E+06     297.475E+03    -27.2230E-03     54.3678E-03    -27.1449E-03     26.0548E-03    -27.1506E-03     53.8908E-03    -27.0204E-03     26.0436E-03
            1409     3.50397E-03     55.4957E-03    -19.9434E+06    -108.216E+06    -14.7253E+06     224.795E+03    -27.1705E-03     54.3148E-03    -27.1443E-03     20.7008E-03    -27.0936E-03     53.8257E-03    -27.0321E-03     20.6926E-03
            1410     2.62795E-03     55.4784E-03    -21.3622E+06    -110.486E+06    -18.3506E+06     166.644E+03    -27.1471E-03     54.2924E-03    -27.1453E-03     15.4225E-03    -27.0679E-03     53.7984E-03    -27.0459E-03     15.4169E-03
            1411     1.75195E-03     55.4664E-03    -22.3917E+06    -111.940E+06    -20.8845E+06     32.8785E+03    -27.1329E-03     54.2862E-03    -27.1534E-03     10.2835E-03    -27.0526E-03     53.7897E-03    -27.0630E-03     10.2790E-03
            1412     875.926E-06     55.4588E-03    -22.8619E+06    -112.891E+06    -22.4184E+06    -10.3599E+03    -27.1222E-03     54.3217E-03    -27.1995E-03     5.29711E-03    -27.0402E-03     53.8232E-03    -27.1147E-03     5.29457E-03
            1413     16.6436E-03     55.8716E-03    -4.87532E+06     166.058E+06     97.2142E+06    -1.27199E+06    -45.8612E-03     73.0312E-03    -27.1700E-03     363.597E-03    -64.0270E-03     91.4873E-03    -26.9176E-03     373.524E-03
            1414     15.7697E-03     55.4652E-03    -9.11143E+06     123.828E+06     34.3173E+06     28.9092E+03    -48.1113E-03     75.0704E-03    -26.9590E-03     335.752E-03    -59.0864E-03     86.3532E-03    -26.9538E-03     337.075E-03
            1415     14.8923E-03     55.2148E-03    -9.32621E+06     59.2744E+06    -11.4519E+06     2.86042E+06    -35.9459E-03     62.7730E-03    -26.8271E-03     188.778E-03    -37.9702E-03     65.0079E-03    -26.9568E-03     188.495E-03
            1416     14.0167E-03     55.1042E-03    -9.12430E+06     5.05485E+06    -14.0691E+06     2.13830E+06    -29.0234E-03     55.9159E-03    -26.8925E-03     97.2803E-03    -29.4362E-03     56.3551E-03    -26.9570E-03     97.0705E-03
            1417     13.1409E-03     55.0300E-03    -9.89898E+06    -20.8522E+06    -11.1185E+06     328.475E+03    -28.3744E-03     55.3263E-03    -26.9519E-03     79.7215E-03    -28.5544E-03     55.4294E-03    -26.9629E-03     79.5479E-03
            1418     12.2647E-03     54.9530E-03    -9.78318E+06    -31.5384E+06    -2.97816E+06     532.465E+03    -28.4164E-03     55.4282E-03    -27.0117E-03     77.8070E-03    -28.5340E-03     55.4077E-03    -26.9667E-03     77.6702E-03
            1419     11.3886E-03     54.8819E-03    -9.75748E+06    -49.5603E+06    -3.41313E+06     859.505E+03    -28.1961E-03     55.2350E-03    -27.0388E-03     71.0404E-03    -28.2477E-03     55.0859E-03    -26.9699E-03     70.9360E-03
            1420     10.5126E-03     54.8180E-03    -9.89299E+06    -65.4185E+06    -4.20264E+06     961.342E+03    -28.0304E-03     55.0923E-03    -27.0619E-03     64.4735E-03    -28.0315E-03     54.8383E-03    -26.9737E-03     64.3952E-03
            1421     9.63648E-03     54.7594E-03    -10.3446E+06    -73.9941E+06    -1.27654E+06     828.194E+03    -27.8733E-03     54.9667E-03    -27.0934E-03     59.0312E-03    -27.8515E-03     54.6492E-03    -26.9775E-03     58.9709E-03
            1422     8.76042E-03     54.7059E-03    -11.2502E+06    -78.3549E+06     550.717E+03     660.240E+03    -27.7148E-03     54.8299E-03    -27.1151E-03     53.5138E-03    -27.6823E-03     54.4778E-03    -26.9825E-03     53.4667E-03
            1423     7.88430E-03     54.6577E-03    -12.5418E+06    -83.8606E+06    -314.432E+03     609.136E+03    -27.5825E-03     54.7092E-03    -27.1268E-03     47.9613E-03    -27.5394E-03     54.3248E-03    -26.9885E-03     47.9258E-03
            1424     7.00825E-03     54.6148E-03    -14.1528E+06    -90.1767E+06    -1.88068E+06     351.710E+03    -27.4708E-03     54.6077E-03    -27.1369E-03     42.4273E-03    -27.4190E-03     54.1910E-03    -26.9951E-03     42.3982E-03
            1425     6.13214E-03     54.5771E-03    -16.0693E+06    -94.7509E+06    -4.41565E+06     227.264E+03    -27.3700E-03     54.5106E-03    -27.1405E-03     36.9234E-03    -27.3138E-03     54.0737E-03    -27.0019E-03     36.9004E-03
            1426     5.25612E-03     54.5446E-03    -17.8670E+06    -98.9732E+06    -8.40770E+06     181.688E+03    -27.2826E-03     54.4198E-03    -27.1372E-03     31.4638E-03    -27.2209E-03     53.9676E-03    -27.0098E-03     31.4463E-03
            1427     4.38001E-03     54.5173E-03    -19.1947E+06    -104.201E+06    -11.9309E+06     179.921E+03    -27.2208E-03     54.3591E-03    -27.1382E-03     26.0461E-03    -27.1513E-03     53.8861E-03    -27.0190E-03     26.0334E-03
            1428     3.50402E-03     54.4950E-03    -20.3527E+06    -108.256E+06    -14.5818E+06     224.353E+03    -27.1774E-03     54.3200E-03    -27.1425E-03     20.6991E-03    -27.1027E-03     53.8310E-03    -27.0290E-03     20.6910E-03
            1429     2.62796E-03     54.4779E-03    -21.3827E+06    -110.147E+06    -17.8740E+06     188.973E+03    -27.1480E-03     54.2892E-03    -27.1412E-03     15.4484E-03    -27.0701E-03     53.7962E-03    -27.0399E-03     15.4431E-03
            1430     1.75196E-03     54.4656E-03    -22.2070E+06    -111.858E+06    -20.8268E+06     41.1400E+03    -27.1313E-03     54.2755E-03    -27.1443E-03     10.2970E-03    -27.0502E-03     53.7790E-03    -27.0540E-03     10.2926E-03
            1431     875.966E-06     54.4583E-03    -22.8201E+06    -112.935E+06    -22.6109E+06    -37.9524E+03    -27.1187E-03     54.3002E-03    -27.1815E-03     5.43434E-03    -27.0362E-03     53.8018E-03    -27.0977E-03     5.43133E-03
            1432     16.6458E-03     54.8679E-03    -6.91956E+06     167.949E+06     92.1929E+06    -1.16711E+06    -46.0516E-03     73.2080E-03    -27.1563E-03     363.022E-03    -64.3084E-03     91.7690E-03    -26.9289E-03     372.982E-03
            1433     15.7684E-03     54.4657E-03    -12.7403E+06     120.911E+06     21.6201E+06    -1.54257E+06    -48.0146E-03     74.9140E-03    -26.8994E-03     334.141E-03    -58.9076E-03     86.1283E-03    -26.9481E-03     335.421E-03
            1434     14.8934E-03     54.2126E-03    -12.2358E+06     55.6607E+06    -19.3581E+06     395.862E+03    -35.6729E-03     62.4665E-03    -26.7935E-03     188.351E-03    -37.6827E-03     64.6865E-03    -26.9533E-03     188.044E-03
            1435     14.0174E-03     54.1045E-03    -9.18270E+06     7.11587E+06    -13.4988E+06     1.78324E+06    -29.0869E-03     55.9805E-03    -26.8936E-03     96.7201E-03    -29.5029E-03     56.4283E-03    -26.9581E-03     96.5050E-03
            1436     13.1407E-03     54.0287E-03    -8.38365E+06    -19.8068E+06    -10.5627E+06     1.00053E+06    -28.4016E-03     55.3498E-03    -26.9481E-03     79.7259E-03    -28.5763E-03     55.4550E-03    -26.9601E-03     79.5608E-03
            1437     12.2649E-03     53.9525E-03    -9.02038E+06    -32.0193E+06    -3.15182E+06     343.043E+03    -28.3669E-03     55.3754E-03    -27.0085E-03     77.7194E-03    -28.4794E-03     55.3514E-03    -26.9648E-03     77.5806E-03
            1438     11.3886E-03     53.8812E-03    -9.56036E+06    -49.6165E+06    -3.41021E+06     589.787E+03    -28.1668E-03     55.2065E-03    -27.0397E-03     71.0735E-03    -28.2172E-03     55.0567E-03    -26.9709E-03     70.9659E-03
            1439     10.5125E-03     53.8174E-03    -9.81546E+06    -65.4649E+06    -4.22191E+06     661.614E+03    -28.0243E-03     55.0887E-03    -27.0644E-03     64.4637E-03    -28.0248E-03     54.8342E-03    -26.9764E-03     64.3817E-03
            1440     9.63648E-03     53.7588E-03    -10.2453E+06    -73.6781E+06    -1.12776E+06     656.952E+03    -27.8851E-03     54.9813E-03    -27.0961E-03     59.0136E-03    -27.8634E-03     54.6649E-03    -26.9801E-03     58.9511E-03
            1441     8.76038E-03     53.7053E-03    -11.1185E+06    -78.2563E+06     623.583E+03     601.024E+03    -27.7321E-03     54.8486E-03    -27.1165E-03     53.4917E-03    -27.6993E-03     54.4967E-03    -26.9838E-03     53.4439E-03
            1442     7.88433E-03     53.6571E-03    -12.2503E+06    -83.6852E+06    -89.2558E+03     561.178E+03    -27.5961E-03     54.7230E-03    -27.1270E-03     47.9343E-03    -27.5521E-03     54.3388E-03    -26.9883E-03     47.8982E-03
            1443     7.00821E-03     53.6142E-03    -13.6584E+06    -89.9426E+06    -1.29397E+06     594.360E+03    -27.4777E-03     54.6150E-03    -27.1373E-03     42.3957E-03    -27.4246E-03     54.1979E-03    -26.9936E-03     42.3698E-03
            1444     6.13219E-03     53.5765E-03    -15.2535E+06    -94.4645E+06    -3.86468E+06     401.288E+03    -27.3757E-03     54.5150E-03    -27.1393E-03     36.8953E-03    -27.3166E-03     54.0776E-03    -26.9995E-03     36.8746E-03
            1445     5.25609E-03     53.5440E-03    -16.7863E+06    -98.8506E+06    -7.23833E+06     176.428E+03    -27.2930E-03     54.4306E-03    -27.1376E-03     31.4365E-03    -27.2277E-03     53.9758E-03    -27.0061E-03     31.4188E-03
            1446     4.38009E-03     53.5167E-03    -18.4803E+06    -104.254E+06    -10.6769E+06     176.083E+03    -27.2266E-03     54.3646E-03    -27.1380E-03     26.0236E-03    -27.1552E-03     53.8884E-03    -27.0134E-03     26.0108E-03
            1447     3.50399E-03     53.4945E-03    -20.0882E+06    -108.016E+06    -14.4794E+06     59.3016E+03    -27.1769E-03     54.3119E-03    -27.1350E-03     20.6896E-03    -27.1013E-03     53.8236E-03    -27.0216E-03     20.6793E-03
            1448     2.62800E-03     53.4773E-03    -21.2620E+06    -110.204E+06    -17.9633E+06    -9.95009E+03    -27.1420E-03     54.2743E-03    -27.1323E-03     15.4580E-03    -27.0633E-03     53.7811E-03    -27.0315E-03     15.4501E-03
            1449     1.75197E-03     53.4650E-03    -22.1783E+06    -111.707E+06    -20.6716E+06     132.770E+03    -27.1197E-03     54.2568E-03    -27.1370E-03     10.3162E-03    -27.0390E-03     53.7607E-03    -27.0463E-03     10.3130E-03
            1450     875.958E-06     53.4576E-03    -22.8644E+06    -112.840E+06    -22.4711E+06     155.383E+03    -27.1124E-03     54.2868E-03    -27.1744E-03     5.56017E-03    -27.0305E-03     53.7887E-03    -27.0900E-03     5.55957E-03
            1451     16.6457E-03     53.8659E-03    -5.19813E+06     168.513E+06     93.6830E+06     365.854E+03    -46.2151E-03     73.3230E-03    -27.1079E-03     363.338E-03    -64.4778E-03     91.8938E-03    -26.8763E-03     373.321E-03
            1452     15.7713E-03     53.4662E-03    -6.73367E+06     122.628E+06     22.0409E+06     960.964E+03    -47.3390E-03     74.1897E-03    -26.8508E-03     334.128E-03    -58.1342E-03     85.3325E-03    -26.9086E-03     335.520E-03
            1453     14.8929E-03     53.2124E-03    -8.48914E+06     54.5498E+06    -21.6933E+06     576.451E+03    -35.4997E-03     62.2648E-03    -26.7651E-03     189.237E-03    -37.4924E-03     64.4839E-03    -26.9404E-03     188.937E-03
            1454     14.0167E-03     53.1031E-03    -9.39926E+06     5.99985E+06    -14.6063E+06     750.130E+03    -29.0396E-03     55.9268E-03    -26.8872E-03     96.8826E-03    -29.4525E-03     56.3700E-03    -26.9553E-03     96.6553E-03
            1455     13.1413E-03     53.0285E-03    -8.80683E+06    -18.4663E+06    -10.3129E+06     1.10380E+06    -28.4012E-03     55.3482E-03    -26.9470E-03     79.7945E-03    -28.5806E-03     55.4606E-03    -26.9590E-03     79.6307E-03
            1456     12.2646E-03     52.9517E-03    -8.76523E+06    -31.9859E+06    -2.92602E+06     665.662E+03    -28.3272E-03     55.3369E-03    -27.0096E-03     77.7827E-03    -28.4388E-03     55.3122E-03    -26.9652E-03     77.6483E-03
            1457     11.3887E-03     52.8807E-03    -9.21284E+06    -49.6085E+06    -3.26985E+06     464.840E+03    -28.1896E-03     55.2307E-03    -27.0411E-03     71.0463E-03    -28.2384E-03     55.0801E-03    -26.9721E-03     70.9370E-03
            1458     10.5125E-03     52.8168E-03    -9.53071E+06    -65.4046E+06    -4.01724E+06     433.037E+03    -28.0267E-03     55.0919E-03    -27.0652E-03     64.4466E-03    -28.0261E-03     54.8370E-03    -26.9767E-03     64.3617E-03
            1459     9.63645E-03     52.7582E-03    -9.97755E+06    -73.6989E+06    -1.00149E+06     486.839E+03    -27.8927E-03     54.9889E-03    -27.0963E-03     58.9726E-03    -27.8697E-03     54.6719E-03    -26.9799E-03     58.9078E-03
            1460     8.76040E-03     52.7046E-03    -10.9498E+06    -78.1532E+06     877.524E+03     600.920E+03    -27.7451E-03     54.8613E-03    -27.1161E-03     53.4483E-03    -27.7119E-03     54.5092E-03    -26.9825E-03     53.4004E-03
            1461     7.88432E-03     52.6565E-03    -12.3544E+06    -83.5489E+06     48.9621E+03     556.798E+03    -27.6089E-03     54.7335E-03    -27.1246E-03     47.8909E-03    -27.5659E-03     54.3499E-03    -26.9853E-03     47.8548E-03
            1462     7.00830E-03     52.6135E-03    -13.6752E+06    -89.7401E+06    -1.14517E+06     354.343E+03    -27.4850E-03     54.6180E-03    -27.1330E-03     42.3596E-03    -27.4325E-03     54.2016E-03    -26.9887E-03     42.3305E-03
            1463     6.13219E-03     52.5759E-03    -14.9270E+06    -94.2405E+06    -3.58730E+06     275.299E+03    -27.3762E-03     54.5099E-03    -27.1337E-03     36.8617E-03    -27.3161E-03     54.0727E-03    -26.9934E-03     36.8393E-03
            1464     5.25616E-03     52.5434E-03    -16.6201E+06    -98.7699E+06    -7.06285E+06     343.117E+03    -27.2924E-03     54.4233E-03    -27.1310E-03     31.4119E-03    -27.2266E-03     53.9684E-03    -26.9990E-03     31.3964E-03
            1465     4.38009E-03     52.5161E-03    -18.2763E+06    -104.073E+06    -10.4212E+06     238.355E+03    -27.2288E-03     54.3587E-03    -27.1299E-03     26.0121E-03    -27.1570E-03     53.8828E-03    -27.0046E-03     26.0001E-03
            1466     3.50409E-03     52.4939E-03    -19.6853E+06    -107.854E+06    -14.3666E+06     139.875E+03    -27.1750E-03     54.2990E-03    -27.1240E-03     20.6866E-03    -27.0978E-03     53.8108E-03    -27.0109E-03     20.6774E-03
            1467     2.62801E-03     52.4767E-03    -21.1416E+06    -110.278E+06    -18.2099E+06     169.419E+03    -27.1313E-03     54.2507E-03    -27.1194E-03     15.4490E-03    -27.0515E-03     53.7573E-03    -27.0199E-03     15.4434E-03
            1468     1.75199E-03     52.4644E-03    -22.1969E+06    -111.685E+06    -20.7334E+06     168.946E+03    -27.1167E-03     54.2391E-03    -27.1223E-03     10.3336E-03    -27.0360E-03     53.7432E-03    -27.0319E-03     10.3308E-03
            1469     875.956E-06     52.4570E-03    -22.6496E+06    -112.538E+06    -22.2912E+06     139.550E+03    -27.1357E-03     54.2529E-03    -27.1172E-03     5.54507E-03    -27.0534E-03     53.7558E-03    -27.0327E-03     5.54426E-03
            1470     16.6492E-03     52.8677E-03    -5.59881E+06     167.553E+06     92.8015E+06    -310.664E+03    -46.0570E-03     73.1435E-03    -27.0865E-03     364.272E-03    -64.2833E-03     91.6757E-03    -26.8574E-03     374.246E-03
            1471     15.7687E-03     52.4656E-03    -9.08723E+06     121.133E+06     22.4349E+06     213.407E+03    -47.4598E-03     74.3148E-03    -26.8550E-03     335.762E-03    -58.3470E-03     85.5347E-03    -26.9053E-03     337.164E-03
            1472     14.8936E-03     52.2123E-03    -8.99575E+06     54.8816E+06    -19.8690E+06     1.12485E+06    -35.6528E-03     62.4228E-03    -26.7700E-03     189.084E-03    -37.6586E-03     64.6491E-03    -26.9358E-03     188.785E-03
            1473     14.0172E-03     52.1022E-03    -8.37920E+06     6.54289E+06    -13.6597E+06     918.932E+03    -28.8246E-03     55.7109E-03    -26.8863E-03     97.0184E-03    -29.2312E-03     56.1506E-03    -26.9519E-03     96.7965E-03
            1474     13.1406E-03     52.0278E-03    -8.33421E+06    -18.5326E+06    -9.40527E+06     496.628E+03    -28.4084E-03     55.3628E-03    -26.9544E-03     79.6662E-03    -28.5871E-03     55.4734E-03    -26.9624E-03     79.4940E-03
            1475     12.2649E-03     51.9512E-03    -8.14579E+06    -31.6080E+06    -2.40439E+06     688.631E+03    -28.3894E-03     55.4012E-03    -27.0117E-03     77.7374E-03    -28.4994E-03     55.3770E-03    -26.9661E-03     77.6027E-03
            1476     11.3886E-03     51.8800E-03    -8.59318E+06    -49.4315E+06    -3.19332E+06     533.927E+03    -28.1960E-03     55.2348E-03    -27.0388E-03     70.9876E-03    -28.2421E-03     55.0841E-03    -26.9706E-03     70.8792E-03
            1477     10.5126E-03     51.8162E-03    -9.19770E+06    -65.3758E+06    -4.01958E+06     457.257E+03    -28.0439E-03     55.1060E-03    -27.0621E-03     64.4212E-03    -28.0417E-03     54.8508E-03    -26.9741E-03     64.3365E-03
            1478     9.63651E-03     51.7575E-03    -10.0528E+06    -73.7128E+06    -1.12555E+06     516.482E+03    -27.8988E-03     54.9907E-03    -27.0919E-03     58.9488E-03    -27.8760E-03     54.6738E-03    -26.9760E-03     58.8844E-03
            1479     8.76043E-03     51.7040E-03    -11.1017E+06    -78.2428E+06     665.486E+03     597.652E+03    -27.7508E-03     54.8612E-03    -27.1104E-03     53.4015E-03    -27.7179E-03     54.5092E-03    -26.9776E-03     53.3536E-03
            1480     7.88440E-03     51.6558E-03    -12.2798E+06    -83.2317E+06     77.3965E+03     580.983E+03    -27.6135E-03     54.7314E-03    -27.1179E-03     47.8481E-03    -27.5706E-03     54.3492E-03    -26.9790E-03     47.8123E-03
            1481     7.00831E-03     51.6130E-03    -13.8432E+06    -89.3356E+06    -1.35113E+06     260.428E+03    -27.4905E-03     54.6141E-03    -27.1237E-03     42.3183E-03    -27.4390E-03     54.2004E-03    -26.9808E-03     42.2880E-03
            1482     6.13230E-03     51.5753E-03    -15.7178E+06    -94.4768E+06    -4.06087E+06     249.555E+03    -27.3774E-03     54.5003E-03    -27.1229E-03     36.8253E-03    -27.3202E-03     54.0637E-03    -26.9835E-03     36.8026E-03
            1483     5.25619E-03     51.5428E-03    -17.2742E+06    -98.5987E+06    -8.11214E+06     370.231E+03    -27.2827E-03     54.3978E-03    -27.1151E-03     31.3735E-03    -27.2189E-03     53.9462E-03    -26.9876E-03     31.3585E-03
            1484     4.38015E-03     51.5155E-03    -18.6287E+06    -103.742E+06    -11.6536E+06     136.311E+03    -27.2152E-03     54.3274E-03    -27.1122E-03     25.9881E-03    -27.1439E-03     53.8555E-03    -26.9931E-03     25.9748E-03
            1485     3.50408E-03     51.4933E-03    -20.0147E+06    -108.095E+06    -14.6550E+06     212.456E+03    -27.1663E-03     54.2777E-03    -27.1114E-03     20.6745E-03    -27.0900E-03     53.7891E-03    -26.9989E-03     20.6661E-03
            1486     2.62808E-03     51.4761E-03    -21.1599E+06    -110.025E+06    -17.9951E+06     351.546E+03    -27.1281E-03     54.2337E-03    -27.1056E-03     15.4474E-03    -27.0491E-03     53.7412E-03    -27.0053E-03     15.4441E-03
            1487     1.75201E-03     51.4639E-03    -21.9695E+06    -111.480E+06    -20.6220E+06     178.576E+03    -27.1107E-03     54.2131E-03    -27.1024E-03     10.3668E-03    -27.0294E-03     53.7178E-03    -27.0120E-03     10.3641E-03
            1488     876.072E-06     51.4562E-03    -22.5341E+06    -112.367E+06    -22.1630E+06     116.385E+03    -27.1331E-03     54.2072E-03    -27.0741E-03     5.62394E-03    -27.0506E-03     53.7106E-03    -26.9894E-03     5.62279E-03
            1489     16.6446E-03     51.8706E-03    -5.77948E+06     167.164E+06     92.1612E+06     344.660E+03    -46.1887E-03     73.3000E-03    -27.1113E-03     363.515E-03    -64.3381E-03     91.7551E-03    -26.8845E-03     373.450E-03
            1490     15.7696E-03     51.4625E-03    -9.35677E+06     121.431E+06     23.7097E+06     63.3530E+03    -48.0555E-03     74.9264E-03    -26.8709E-03     335.714E-03    -58.9919E-03     86.1919E-03    -26.9148E-03     337.026E-03
            1491     14.8939E-03     51.2124E-03    -9.34983E+06     54.5128E+06    -22.3310E+06    -637.659E+03    -35.5605E-03     62.3131E-03    -26.7526E-03     188.451E-03    -37.5539E-03     64.5316E-03    -26.9297E-03     188.135E-03
            1492     14.0169E-03     51.1021E-03    -7.40194E+06     5.89994E+06    -17.2997E+06     387.295E+03    -28.8261E-03     55.6877E-03    -26.8616E-03     97.5311E-03    -29.2219E-03     56.1283E-03    -26.9459E-03     97.3034E-03
            1493     13.1410E-03     51.0268E-03    -6.57611E+06    -18.2175E+06    -9.25806E+06     1.16614E+06    -28.3508E-03     55.2999E-03    -26.9492E-03     79.5965E-03    -28.5207E-03     55.4087E-03    -26.9595E-03     79.4336E-03
            1494     12.2648E-03     50.9506E-03    -7.84075E+06    -31.6278E+06    -2.96100E+06     933.820E+03    -28.4076E-03     55.4146E-03    -27.0069E-03     77.6672E-03    -28.5153E-03     55.3907E-03    -26.9645E-03     77.5355E-03
            1495     11.3887E-03     50.8793E-03    -8.61262E+06    -48.9936E+06    -3.24559E+06     813.785E+03    -28.2220E-03     55.2564E-03    -27.0343E-03     70.9624E-03    -28.2687E-03     55.1080E-03    -26.9670E-03     70.8574E-03
            1496     10.5126E-03     50.8155E-03    -9.34641E+06    -65.4075E+06    -4.34494E+06     737.758E+03    -28.0563E-03     55.1115E-03    -27.0552E-03     64.3835E-03    -28.0543E-03     54.8567E-03    -26.9685E-03     64.3025E-03
            1497     9.63655E-03     50.7568E-03    -10.1540E+06    -73.5456E+06    -1.11653E+06     676.387E+03    -27.9115E-03     54.9960E-03    -27.0845E-03     58.9020E-03    -27.8894E-03     54.6800E-03    -26.9687E-03     58.8397E-03
            1498     8.76053E-03     50.7034E-03    -11.1311E+06    -78.1388E+06     483.718E+03     485.740E+03    -27.7521E-03     54.8526E-03    -27.1005E-03     53.3544E-03    -27.7192E-03     54.5013E-03    -26.9686E-03     53.3051E-03
            1499     7.88444E-03     50.6552E-03    -12.1838E+06    -83.0346E+06    -63.7259E+03     341.410E+03    -27.6134E-03     54.7200E-03    -27.1066E-03     47.7979E-03    -27.5700E-03     54.3388E-03    -26.9689E-03     47.7590E-03
            1500     7.00843E-03     50.6123E-03    -13.5123E+06    -89.2318E+06    -1.03777E+06     516.535E+03    -27.4895E-03     54.6027E-03    -27.1132E-03     42.2617E-03    -27.4370E-03     54.1885E-03    -26.9694E-03     42.2348E-03
            1501     6.13233E-03     50.5747E-03    -15.3312E+06    -94.4677E+06    -3.64738E+06     562.882E+03    -27.3791E-03     54.4904E-03    -27.1113E-03     36.7772E-03    -27.3206E-03     54.0528E-03    -26.9704E-03     36.7585E-03
            1502     5.25632E-03     50.5422E-03    -17.1181E+06    -98.2294E+06    -8.09755E+06     242.083E+03    -27.2778E-03     54.3771E-03    -27.0994E-03     31.3378E-03    -27.2138E-03     53.9272E-03    -26.9726E-03     31.3211E-03
            1503     4.38022E-03     50.5150E-03    -18.6074E+06    -103.744E+06    -11.8632E+06     234.045E+03    -27.2006E-03     54.2958E-03    -27.0952E-03     25.9652E-03    -27.1289E-03     53.8241E-03    -26.9771E-03     25.9532E-03
            1504     3.50417E-03     50.4927E-03    -20.0326E+06    -108.074E+06    -14.7972E+06     237.628E+03    -27.1524E-03     54.2466E-03    -27.0942E-03     20.6526E-03    -27.0761E-03     53.7584E-03    -26.9824E-03     20.6446E-03
            1505     2.62807E-03     50.4756E-03    -21.1211E+06    -109.864E+06    -17.8129E+06     124.878E+03    -27.1254E-03     54.2119E-03    -27.0865E-03     15.4365E-03    -27.0468E-03     53.7199E-03    -26.9856E-03     15.4303E-03
            1506     1.75210E-03     50.4632E-03    -21.8691E+06    -111.252E+06    -20.3942E+06     156.082E+03    -27.0933E-03     54.1719E-03    -27.0786E-03     10.3391E-03    -27.0121E-03     53.6772E-03    -26.9875E-03     10.3361E-03
            1507     875.936E-06     50.4558E-03    -22.3764E+06    -112.226E+06    -22.0149E+06     125.300E+03    -27.0832E-03     54.1552E-03    -27.0720E-03     5.62710E-03    -27.0003E-03     53.6588E-03    -26.9869E-03     5.62604E-03
            1508     16.6469E-03     50.8689E-03    -5.00809E+06     167.499E+06     93.2179E+06     300.715E+03    -46.4229E-03     73.5425E-03    -27.1196E-03     362.819E-03    -64.5581E-03     91.9842E-03    -26.8891E-03     372.679E-03
            1509     15.7707E-03     50.4624E-03    -8.60731E+06     122.058E+06     25.6026E+06    -69.6684E+03    -47.9572E-03     74.8326E-03    -26.8754E-03     335.818E-03    -58.9113E-03     86.1153E-03    -26.9119E-03     337.134E-03
            1510     14.8929E-03     50.2123E-03    -9.36838E+06     54.4344E+06    -21.2625E+06    -577.775E+03    -35.5755E-03     62.3332E-03    -26.7577E-03     188.613E-03    -37.5710E-03     64.5504E-03    -26.9294E-03     188.300E-03
            1511     14.0175E-03     50.1011E-03    -9.43533E+06     4.67151E+06    -17.5968E+06     114.370E+03    -28.9791E-03     55.8387E-03    -26.8596E-03     97.3606E-03    -29.3840E-03     56.2778E-03    -26.9407E-03     97.1265E-03
            1512     13.1409E-03     50.0267E-03    -9.68028E+06    -18.5532E+06    -10.0653E+06     1.04990E+06    -28.2584E-03     55.2004E-03    -26.9419E-03     79.8173E-03    -28.4413E-03     55.3122E-03    -26.9513E-03     79.6541E-03
            1513     12.2647E-03     49.9496E-03    -8.78832E+06    -31.0308E+06    -2.83280E+06     1.02632E+06    -28.4032E-03     55.4054E-03    -27.0022E-03     77.6050E-03    -28.5164E-03     55.3855E-03    -26.9587E-03     77.4746E-03
            1514     11.3888E-03     49.8788E-03    -9.05671E+06    -49.0316E+06    -3.00510E+06     882.372E+03    -28.2432E-03     55.2719E-03    -27.0287E-03     70.8158E-03    -28.2923E-03     55.1235E-03    -26.9595E-03     70.7116E-03
            1515     10.5127E-03     49.8148E-03    -9.40288E+06    -65.0314E+06    -3.97714E+06     803.801E+03    -28.0704E-03     55.1168E-03    -27.0464E-03     64.3174E-03    -28.0697E-03     54.8634E-03    -26.9584E-03     64.2372E-03
            1516     9.63671E-03     49.7562E-03    -9.79515E+06    -73.4571E+06    -923.354E+03     594.441E+03    -27.9145E-03     54.9873E-03    -27.0728E-03     58.8313E-03    -27.8910E-03     54.6709E-03    -26.9567E-03     58.7680E-03
            1517     8.76061E-03     49.7027E-03    -10.6874E+06    -77.7517E+06     703.703E+03     488.836E+03    -27.7547E-03     54.8415E-03    -27.0868E-03     53.2885E-03    -27.7205E-03     54.4913E-03    -26.9550E-03     53.2393E-03
            1518     7.88461E-03     49.6546E-03    -12.0777E+06    -82.9501E+06    -95.0012E+03     326.621E+03    -27.6086E-03     54.6998E-03    -27.0912E-03     47.7312E-03    -27.5648E-03     54.3189E-03    -26.9539E-03     47.6922E-03
            1519     7.00849E-03     49.6117E-03    -13.5529E+06    -89.5395E+06    -1.21120E+06     432.725E+03    -27.4809E-03     54.5775E-03    -27.0966E-03     42.2003E-03    -27.4279E-03     54.1620E-03    -26.9532E-03     42.1723E-03
            1520     6.13248E-03     49.5741E-03    -14.7849E+06    -94.0728E+06    -3.61380E+06     492.714E+03    -27.3664E-03     54.4596E-03    -27.0932E-03     36.7244E-03    -27.3058E-03     54.0231E-03    -26.9534E-03     36.7048E-03
            1521     5.25636E-03     49.5417E-03    -16.2305E+06    -98.0745E+06    -7.05985E+06     460.249E+03    -27.2701E-03     54.3553E-03    -27.0852E-03     31.2878E-03    -27.2034E-03     53.9032E-03    -26.9547E-03     31.2738E-03
            1522     4.38032E-03     49.5144E-03    -18.0501E+06    -103.751E+06    -10.6428E+06     517.268E+03    -27.1937E-03     54.2743E-03    -27.0807E-03     25.9279E-03    -27.1209E-03     53.8000E-03    -26.9573E-03     25.9196E-03
            1523     3.50421E-03     49.4922E-03    -19.6460E+06    -107.607E+06    -14.4098E+06     307.974E+03    -27.1407E-03     54.2133E-03    -27.0727E-03     20.6467E-03    -27.0636E-03     53.7263E-03    -26.9602E-03     20.6396E-03
            1524     2.62821E-03     49.4750E-03    -20.9380E+06    -109.847E+06    -17.8514E+06     41.9575E+03    -27.1119E-03     54.1726E-03    -27.0607E-03     15.4366E-03    -27.0323E-03     53.6805E-03    -26.9603E-03     15.4293E-03
            1525     1.75211E-03     49.4628E-03    -21.7801E+06    -111.172E+06    -20.2668E+06     21.1804E+03    -27.0912E-03     54.1347E-03    -27.0435E-03     10.3047E-03    -27.0099E-03     53.6402E-03    -26.9521E-03     10.2999E-03
            1526     876.167E-06     49.4553E-03    -22.3331E+06    -112.135E+06    -21.8776E+06     96.5093E+03    -27.0543E-03     54.0678E-03    -27.0136E-03     5.57766E-03    -26.9715E-03     53.5716E-03    -26.9280E-03     5.57627E-03
            1527     16.6466E-03     49.8664E-03    -5.73370E+06     166.835E+06     92.9379E+06    -438.146E+03    -46.3256E-03     73.4413E-03    -27.1156E-03     363.094E-03    -64.4896E-03     91.9076E-03    -26.8845E-03     372.958E-03
            1528     15.7686E-03     49.4636E-03    -9.63007E+06     121.592E+06     26.6004E+06    -533.325E+03    -47.6709E-03     74.5588E-03    -26.8879E-03     336.038E-03    -58.6185E-03     85.8267E-03    -26.9173E-03     337.381E-03
            1529     14.8937E-03     49.2096E-03    -10.7313E+06     54.3287E+06    -20.1617E+06     449.694E+03    -35.7389E-03     62.5148E-03    -26.7759E-03     189.031E-03    -37.7446E-03     64.7337E-03    -26.9399E-03     188.723E-03
            1530     14.0175E-03     49.1019E-03    -10.4172E+06     4.28527E+06    -17.7718E+06     709.094E+03    -29.1467E-03     56.0101E-03    -26.8634E-03     97.3689E-03    -29.5560E-03     56.4492E-03    -26.9434E-03     97.1408E-03
            1531     13.1410E-03     49.0255E-03    -9.49236E+06    -18.4586E+06    -9.95063E+06     74.1016E+03    -28.4215E-03     55.3554E-03    -26.9339E-03     79.9583E-03    -28.6043E-03     55.4678E-03    -26.9431E-03     79.7814E-03
            1532     12.2651E-03     48.9492E-03    -9.14629E+06    -31.1778E+06    -3.14950E+06     306.671E+03    -28.3876E-03     55.3751E-03    -26.9875E-03     77.4982E-03    -28.5016E-03     55.3551E-03    -26.9448E-03     77.3588E-03
            1533     11.3889E-03     48.8779E-03    -9.01967E+06    -49.0423E+06    -3.33785E+06     670.411E+03    -28.2256E-03     55.2386E-03    -27.0130E-03     70.7498E-03    -28.2739E-03     55.0905E-03    -26.9455E-03     70.6430E-03
            1534     10.5129E-03     48.8143E-03    -9.19697E+06    -64.7617E+06    -4.17558E+06     633.714E+03    -28.0765E-03     55.1064E-03    -27.0299E-03     64.2588E-03    -28.0748E-03     54.8543E-03    -26.9436E-03     64.1764E-03
            1535     9.63680E-03     48.7555E-03    -9.85153E+06    -73.2807E+06    -1.24910E+06     547.029E+03    -27.9183E-03     54.9725E-03    -27.0542E-03     58.7769E-03    -27.8948E-03     54.6575E-03    -26.9400E-03     58.7130E-03
            1536     8.76084E-03     48.7022E-03    -10.8386E+06    -77.5808E+06     363.712E+03     482.570E+03    -27.7498E-03     54.8163E-03    -27.0665E-03     53.2173E-03    -27.7159E-03     54.4675E-03    -26.9365E-03     53.1681E-03
            1537     7.88471E-03     48.6540E-03    -12.0474E+06    -82.8392E+06    -350.056E+03     496.683E+03    -27.6001E-03     54.6697E-03    -27.0696E-03     47.6623E-03    -27.5559E-03     54.2897E-03    -26.9338E-03     47.6255E-03
            1538     7.00871E-03     48.6112E-03    -13.5290E+06    -89.5067E+06    -1.46349E+06     380.563E+03    -27.4660E-03     54.5401E-03    -27.0741E-03     42.1347E-03    -27.4126E-03     54.1251E-03    -26.9320E-03     42.1061E-03
            1539     6.13256E-03     48.5736E-03    -15.1963E+06    -93.8991E+06    -3.98939E+06     254.085E+03    -27.3449E-03     54.4147E-03    -27.0697E-03     36.6696E-03    -27.2861E-03     53.9801E-03    -26.9315E-03     36.6470E-03
            1540     5.25652E-03     48.5412E-03    -16.7218E+06    -98.3321E+06    -7.37211E+06     486.579E+03    -27.2520E-03     54.3139E-03    -27.0619E-03     31.2351E-03    -27.1869E-03     53.8618E-03    -26.9320E-03     31.2216E-03
            1541     4.38040E-03     48.5140E-03    -18.0757E+06    -103.475E+06    -10.5593E+06     656.889E+03    -27.1817E-03     54.2376E-03    -27.0559E-03     25.8767E-03    -27.1096E-03     53.7646E-03    -26.9325E-03     25.8701E-03
            1542     3.50435E-03     48.4917E-03    -19.5265E+06    -107.096E+06    -14.0736E+06     396.417E+03    -27.1207E-03     54.1669E-03    -27.0462E-03     20.6179E-03    -27.0443E-03     53.6818E-03    -26.9330E-03     20.6120E-03
            1543     2.62820E-03     48.4746E-03    -20.7927E+06    -109.626E+06    -17.6010E+06     115.859E+03    -27.0797E-03     54.1137E-03    -27.0339E-03     15.4307E-03    -27.0001E-03     53.6221E-03    -26.9328E-03     15.4243E-03
            1544     1.75221E-03     48.4622E-03    -21.7400E+06    -111.213E+06    -20.2622E+06    -20.1502E+03    -27.0610E-03     54.0791E-03    -27.0181E-03     10.3362E-03    -26.9794E-03     53.5843E-03    -26.9267E-03     10.3309E-03
            1545     876.089E-06     48.4549E-03    -22.1796E+06    -112.035E+06    -21.7767E+06    -77.5946E+03    -27.0152E-03     54.0203E-03    -27.0051E-03     5.54931E-03    -26.9320E-03     53.5242E-03    -26.9193E-03     5.54571E-03
            1546     16.6463E-03     48.8678E-03    -5.91180E+06     166.895E+06     93.4180E+06    -137.515E+03    -46.2024E-03     73.3574E-03    -27.1549E-03     364.458E-03    -64.4846E-03     91.9401E-03    -26.9213E-03     374.443E-03
            1547     15.7706E-03     48.4622E-03    -8.95796E+06     121.601E+06     27.0880E+06     288.189E+03    -48.3790E-03     75.2960E-03    -26.9171E-03     336.146E-03    -59.3545E-03     86.5929E-03    -26.9450E-03     337.446E-03
            1548     14.8926E-03     48.2103E-03    -9.80034E+06     54.1925E+06    -20.5297E+06     557.383E+03    -35.8964E-03     62.6741E-03    -26.7777E-03     188.726E-03    -37.8957E-03     64.8905E-03    -26.9447E-03     188.416E-03
            1549     14.0165E-03     48.0996E-03    -9.10233E+06     4.63286E+06    -17.8691E+06     40.2254E+03    -29.2696E-03     56.1251E-03    -26.8554E-03     96.8302E-03    -29.6727E-03     56.5641E-03    -26.9383E-03     96.5921E-03
            1550     13.1417E-03     48.0254E-03    -8.39402E+06    -18.2728E+06    -10.2695E+06    -158.458E+03    -28.5419E-03     55.4577E-03    -26.9158E-03     79.5133E-03    -28.7195E-03     55.5704E-03    -26.9285E-03     79.3322E-03
            1551     12.2651E-03     47.9483E-03    -8.85332E+06    -31.6709E+06    -3.82540E+06     88.8743E+03    -28.3424E-03     55.3084E-03    -26.9660E-03     77.5296E-03    -28.4529E-03     55.2862E-03    -26.9264E-03     77.3879E-03
            1552     11.3892E-03     47.8775E-03    -9.23813E+06    -49.2343E+06    -4.11020E+06     344.920E+03    -28.2149E-03     55.2071E-03    -26.9922E-03     70.7573E-03    -28.2629E-03     55.0594E-03    -26.9280E-03     70.6464E-03
            1553     10.5130E-03     47.8135E-03    -9.58940E+06    -64.7309E+06    -4.65419E+06     576.656E+03    -28.0819E-03     55.0911E-03    -27.0091E-03     64.1952E-03    -28.0816E-03     54.8403E-03    -26.9246E-03     64.1121E-03
            1554     9.63712E-03     47.7550E-03    -10.1410E+06    -73.0406E+06    -1.47110E+06     567.740E+03    -27.9166E-03     54.9486E-03    -27.0320E-03     58.6918E-03    -27.8945E-03     54.6355E-03    -26.9188E-03     58.6282E-03
            1555     8.76095E-03     47.7015E-03    -11.0911E+06    -77.4769E+06     12.4577E+03     442.800E+03    -27.7382E-03     54.7802E-03    -27.0420E-03     53.1484E-03    -27.7052E-03     54.4328E-03    -26.9135E-03     53.0988E-03
            1556     7.88498E-03     47.6535E-03    -12.2205E+06    -82.8372E+06    -656.818E+03     431.251E+03    -27.5823E-03     54.6265E-03    -27.0442E-03     47.5993E-03    -27.5384E-03     54.2471E-03    -26.9097E-03     47.5618E-03
            1557     7.00881E-03     47.6107E-03    -13.6277E+06    -89.3429E+06    -1.38691E+06     530.973E+03    -27.4482E-03     54.4974E-03    -27.0492E-03     42.0797E-03    -27.3955E-03     54.0832E-03    -26.9068E-03     42.0531E-03
            1558     6.13279E-03     47.5731E-03    -15.3966E+06    -93.6554E+06    -3.68757E+06     437.775E+03    -27.3274E-03     54.3719E-03    -27.0445E-03     36.6106E-03    -27.2703E-03     53.9384E-03    -26.9048E-03     36.5904E-03
            1559     5.25662E-03     47.5407E-03    -17.2033E+06    -98.6449E+06    -7.56554E+06     374.154E+03    -27.2305E-03     54.2643E-03    -27.0339E-03     31.1925E-03    -27.1670E-03     53.8116E-03    -26.9037E-03     31.1776E-03
            1560     4.38056E-03     47.5135E-03    -18.7767E+06    -103.309E+06    -11.4414E+06     569.085E+03    -27.1573E-03     54.1797E-03    -27.0225E-03     25.8425E-03    -27.0876E-03     53.7098E-03    -26.9026E-03     25.8349E-03
            1561     3.50443E-03     47.4913E-03    -20.0047E+06    -106.369E+06    -14.6222E+06     280.844E+03    -27.0952E-03     54.1064E-03    -27.0113E-03     20.5896E-03    -27.0214E-03     53.6264E-03    -26.9011E-03     20.5822E-03
            1562     2.62838E-03     47.4741E-03    -20.9528E+06    -109.587E+06    -17.4745E+06    -64.0634E+03    -27.0385E-03     54.0416E-03    -27.0031E-03     15.3982E-03    -26.9598E-03     53.5503E-03    -26.9012E-03     15.3896E-03
            1563     1.75216E-03     47.4619E-03    -21.6960E+06    -111.101E+06    -20.1551E+06    -74.5812E+03    -26.9969E-03     53.9964E-03    -26.9995E-03     10.3147E-03    -26.9154E-03     53.5019E-03    -26.9077E-03     10.3087E-03
            1564     876.099E-06     47.4544E-03    -22.2253E+06    -112.181E+06    -21.9026E+06    -152.865E+03    -26.9878E-03     54.0044E-03    -27.0166E-03     5.46999E-03    -26.9044E-03     53.5079E-03    -26.9313E-03     5.46544E-03
            1565     16.6426E-03     47.8630E-03    -5.09387E+06     167.211E+06     93.3878E+06     804.647E+03    -46.1777E-03     73.3460E-03    -27.1683E-03     364.967E-03    -64.4856E-03     91.9586E-03    -26.9365E-03     374.932E-03
            1566     15.7674E-03     47.4599E-03    -10.2371E+06     120.538E+06     26.0793E+06     16.7466E+03    -48.7860E-03     75.6989E-03    -26.9129E-03     334.075E-03    -59.7372E-03     86.9659E-03    -26.9424E-03     335.322E-03
            1567     14.8941E-03     47.2094E-03    -10.1456E+06     54.6658E+06    -20.3377E+06    -826.104E+03    -36.0763E-03     62.8196E-03    -26.7433E-03     187.033E-03    -38.0787E-03     65.0390E-03    -26.9095E-03     186.701E-03
            1568     14.0184E-03     47.0991E-03    -8.32339E+06     4.93169E+06    -17.9020E+06    -309.233E+03    -28.9530E-03     55.7670E-03    -26.8140E-03     96.4650E-03    -29.3490E-03     56.2029E-03    -26.8986E-03     96.2261E-03
            1569     13.1414E-03     47.0244E-03    -8.41311E+06    -18.9005E+06    -10.0874E+06     272.290E+03    -28.3000E-03     55.1932E-03    -26.8932E-03     79.2726E-03    -28.4757E-03     55.3012E-03    -26.9041E-03     79.0990E-03
            1570     12.2657E-03     46.9481E-03    -8.95313E+06    -31.5766E+06    -3.39345E+06     395.419E+03    -28.3656E-03     55.3148E-03    -26.9491E-03     77.5230E-03    -28.4774E-03     55.2925E-03    -26.9073E-03     77.3852E-03
            1571     11.3892E-03     46.8767E-03    -9.66163E+06    -49.4125E+06    -4.20638E+06     299.703E+03    -28.2281E-03     55.1986E-03    -26.9706E-03     70.7170E-03    -28.2777E-03     55.0507E-03    -26.9059E-03     70.6056E-03
            1572     10.5135E-03     46.8130E-03    -9.93684E+06    -64.7921E+06    -4.73512E+06     346.944E+03    -28.0694E-03     55.0545E-03    -26.9851E-03     64.0991E-03    -28.0704E-03     54.8039E-03    -26.9004E-03     64.0130E-03
            1573     9.63722E-03     46.7543E-03    -10.3395E+06    -72.9431E+06    -1.52166E+06     413.455E+03    -27.8958E-03     54.9025E-03    -27.0067E-03     58.6333E-03    -27.8747E-03     54.5902E-03    -26.8935E-03     58.5679E-03
            1574     8.76131E-03     46.7010E-03    -11.1427E+06    -77.3514E+06     160.779E+03     407.424E+03    -27.7223E-03     54.7388E-03    -27.0165E-03     53.0845E-03    -27.6899E-03     54.3917E-03    -26.8873E-03     53.0345E-03
            1575     7.88509E-03     46.6530E-03    -12.3889E+06    -82.8174E+06    -523.788E+03     403.399E+03    -27.5658E-03     54.5833E-03    -27.0175E-03     47.5377E-03    -27.5229E-03     54.2039E-03    -26.8821E-03     47.5000E-03
            1576     7.00909E-03     46.6102E-03    -13.7376E+06    -89.4115E+06    -1.36386E+06     448.075E+03    -27.4313E-03     54.4516E-03    -27.0203E-03     42.0110E-03    -27.3791E-03     54.0372E-03    -26.8776E-03     41.9834E-03
            1577     6.13290E-03     46.5727E-03    -15.1004E+06    -93.3182E+06    -3.50334E+06     450.056E+03    -27.3061E-03     54.3198E-03    -27.0137E-03     36.5488E-03    -27.2483E-03     53.8873E-03    -26.8740E-03     36.5288E-03
            1578     5.25686E-03     46.5403E-03    -16.7637E+06    -98.8818E+06    -6.37181E+06     546.717E+03    -27.2084E-03     54.2155E-03    -27.0071E-03     31.1435E-03    -27.1442E-03     53.7592E-03    -26.8713E-03     31.1309E-03
            1579     4.38068E-03     46.5131E-03    -18.5381E+06    -103.010E+06    -10.6718E+06     562.980E+03    -27.1250E-03     54.1170E-03    -26.9920E-03     25.8018E-03    -27.0557E-03     53.6472E-03    -26.8691E-03     25.7941E-03
            1580     3.50458E-03     46.4909E-03    -19.9328E+06    -105.518E+06    -14.9647E+06     45.9913E+03    -27.0543E-03     54.0297E-03    -26.9754E-03     20.5742E-03    -26.9809E-03     53.5544E-03    -26.8683E-03     20.5638E-03
            1581     2.62840E-03     46.4738E-03    -20.9705E+06    -109.787E+06    -17.6895E+06    -295.051E+03    -27.0077E-03     53.9780E-03    -26.9704E-03     15.3947E-03    -26.9285E-03     53.4860E-03    -26.8692E-03     15.3831E-03
            1582     1.75233E-03     46.4615E-03    -21.7963E+06    -111.225E+06    -20.3517E+06    -149.281E+03    -26.9619E-03     53.9294E-03    -26.9676E-03     10.3063E-03    -26.8804E-03     53.4348E-03    -26.8765E-03     10.2994E-03
            1583     876.071E-06     46.4541E-03    -22.3281E+06    -112.232E+06    -22.0244E+06    -4.49625E+03    -26.9610E-03     53.9433E-03    -26.9824E-03     5.54089E-03    -26.8778E-03     53.4468E-03    -26.8974E-03     5.53823E-03
            1584     16.6482E-03     46.8672E-03    -4.99699E+06     167.176E+06     93.6867E+06     526.906E+03    -47.0315E-03     74.1097E-03    -27.0782E-03     363.121E-03    -65.1680E-03     92.5502E-03    -26.8449E-03     372.868E-03
            1585     15.7716E-03     46.4575E-03    -8.71375E+06     121.269E+06     26.9349E+06     497.430E+03    -47.6154E-03     74.4367E-03    -26.8213E-03     333.713E-03    -58.4551E-03     85.5978E-03    -26.8498E-03     335.016E-03
            1586     14.8951E-03     46.2088E-03    -10.8328E+06      54.975E+06    -21.3622E+06    -102.234E+03    -35.4845E-03     62.1767E-03    -26.6923E-03     187.481E-03    -37.4850E-03     64.3959E-03    -26.8631E-03     187.176E-03
            1587     14.0181E-03     46.0992E-03    -10.9484E+06     4.62676E+06    -19.6173E+06    -457.665E+03    -28.9156E-03     55.6966E-03    -26.7811E-03     97.0478E-03    -29.3216E-03     56.1371E-03    -26.8700E-03     96.8077E-03
            1588     13.1421E-03     46.0241E-03    -9.77473E+06    -19.3916E+06    -11.0417E+06     102.767E+03    -28.2020E-03     55.0681E-03    -26.8662E-03     79.5897E-03    -28.3813E-03     55.1759E-03    -26.8791E-03     79.4155E-03
            1589     12.2655E-03     45.9473E-03    -9.49618E+06    -31.5448E+06    -3.54884E+06     381.015E+03    -28.3816E-03     55.3069E-03    -26.9253E-03     77.4771E-03    -28.4958E-03     55.2857E-03    -26.8835E-03     77.3391E-03
            1590     11.3899E-03     45.8762E-03    -9.57193E+06    -49.1777E+06    -3.84567E+06     205.844E+03    -28.2289E-03     55.1742E-03    -26.9453E-03     70.6615E-03    -28.2787E-03     55.0266E-03    -26.8794E-03     70.5490E-03
            1591     10.5135E-03     45.8124E-03    -9.95483E+06    -64.9408E+06    -4.64212E+06     197.689E+03    -28.0359E-03     54.9942E-03    -26.9583E-03     64.0715E-03    -28.0367E-03     54.7426E-03    -26.8729E-03     63.9840E-03
            1592     9.63766E-03     45.7538E-03    -10.5420E+06    -72.9022E+06    -1.39090E+06     253.726E+03    -27.8757E-03     54.8555E-03    -26.9799E-03     58.5885E-03    -27.8557E-03     54.5434E-03    -26.8658E-03     58.5213E-03
            1593     8.76140E-03     45.7005E-03    -11.4868E+06    -77.3502E+06     286.860E+03     286.901E+03    -27.7054E-03     54.6940E-03    -26.9886E-03     53.0221E-03    -27.6748E-03     54.3472E-03    -26.8584E-03     52.9708E-03
            1594     7.88546E-03     45.6525E-03    -12.5144E+06    -82.7082E+06    -460.756E+03     276.703E+03    -27.5544E-03     54.5413E-03    -26.9868E-03     47.4704E-03    -27.5124E-03     54.1625E-03    -26.8511E-03     47.4312E-03
            1595     7.00925E-03     45.6098E-03    -13.7040E+06    -89.3530E+06    -1.36629E+06     168.676E+03    -27.4121E-03     54.3991E-03    -26.9870E-03     41.9517E-03    -27.3597E-03     53.9848E-03    -26.8444E-03     41.9207E-03
            1596     6.13321E-03     45.5723E-03    -15.1823E+06    -93.4776E+06    -3.57430E+06     324.669E+03    -27.2806E-03     54.2594E-03    -26.9788E-03     36.4892E-03    -27.2228E-03     53.8262E-03    -26.8391E-03     36.4678E-03
            1597     5.25697E-03     45.5400E-03    -16.8031E+06    -98.9328E+06    -6.36101E+06     574.789E+03    -27.1779E-03     54.1490E-03    -26.9711E-03     31.0939E-03    -27.1138E-03     53.6924E-03    -26.8351E-03     31.0817E-03
            1598     4.38090E-03     45.5128E-03    -18.1973E+06    -102.460E+06    -10.0562E+06     329.554E+03    -27.0873E-03     54.0444E-03    -26.9570E-03     25.7539E-03    -27.0180E-03     53.5759E-03    -26.8324E-03     25.7433E-03
            1599     3.50465E-03     45.4907E-03    -19.4007E+06    -105.016E+06    -14.5275E+06     2.66723E+03    -27.0068E-03     53.9478E-03    -26.9410E-03     20.5291E-03    -26.9321E-03     53.4735E-03    -26.8332E-03     20.5182E-03
            1600     2.62851E-03     45.4735E-03    -20.7368E+06    -109.900E+06    -17.9359E+06    -70.7480E+03    -26.9690E-03     53.9059E-03    -26.9369E-03     15.3733E-03    -26.8882E-03     53.4134E-03    -26.8372E-03     15.3647E-03
            1601     1.75228E-03     45.4613E-03    -21.9181E+06    -111.420E+06    -20.6248E+06    -15.6020E+03    -26.9526E-03     53.8815E-03    -26.9288E-03     10.2882E-03    -26.8711E-03     53.3864E-03    -26.8386E-03     10.2831E-03
            1602     876.195E-06     45.4538E-03    -22.4970E+06    -112.244E+06    -22.1601E+06     17.1596E+03    -26.9330E-03     53.8523E-03    -26.9193E-03     5.57107E-03    -26.8505E-03     53.3562E-03    -26.8347E-03     5.56868E-03
            1603     16.6502E-03     45.8648E-03    -5.63499E+06     166.292E+06     92.5322E+06    -153.711E+03    -47.3284E-03     74.3319E-03    -27.0034E-03     362.337E-03    -65.3383E-03     92.6438E-03    -26.7737E-03     372.001E-03
            1604     15.7726E-03     45.4617E-03    -8.54408E+06     121.176E+06     26.7550E+06      1.6456E+06    -47.1270E-03     73.8978E-03    -26.7708E-03     337.664E-03    -58.0272E-03     85.1203E-03    -26.8003E-03     339.072E-03
            1605     14.8931E-03     45.2070E-03    -10.2105E+06     57.7871E+06    -16.1949E+06     1.72986E+06    -35.4463E-03     62.1473E-03    -26.7010E-03     188.735E-03    -37.4526E-03     64.3695E-03    -26.8510E-03     188.447E-03
            1606     14.0186E-03     45.0987E-03    -11.0090E+06     6.01559E+06    -14.9882E+06    -409.484E+03    -29.0165E-03     55.8092E-03    -26.7926E-03     96.3819E-03    -29.4315E-03     56.2499E-03    -26.8603E-03     96.1401E-03
            1607     13.1421E-03     45.0238E-03    -11.1411E+06    -20.7268E+06    -11.7467E+06    -1.17803E+06    -28.3340E-03     55.1811E-03    -26.8470E-03     79.8714E-03    -28.5177E-03     55.2857E-03    -26.8596E-03     79.6799E-03
            1608     12.2664E-03     44.9466E-03    -9.99956E+06    -31.4452E+06    -3.77659E+06    -500.469E+03    -28.3814E-03     55.2810E-03    -26.8996E-03     77.6231E-03    -28.4979E-03     55.2613E-03    -26.8584E-03     77.4739E-03
            1609     11.3898E-03     44.8757E-03    -9.77769E+06    -49.5730E+06    -3.95166E+06    -95.8821E+03    -28.2156E-03     55.1349E-03    -26.9193E-03     70.6412E-03    -28.2654E-03     54.9855E-03    -26.8530E-03     70.5252E-03
            1610     10.5141E-03     44.8119E-03    -9.99049E+06    -64.8446E+06    -4.38888E+06     154.741E+03    -28.0338E-03     54.9652E-03    -26.9314E-03     64.0436E-03    -28.0351E-03     54.7136E-03    -26.8448E-03     63.9558E-03
            1611     9.63776E-03     44.7534E-03    -10.5584E+06    -72.9738E+06    -1.29229E+06     150.768E+03    -27.8667E-03     54.8169E-03    -26.9502E-03     58.5299E-03    -27.8468E-03     54.5041E-03    -26.8355E-03     58.4616E-03
            1612     8.76185E-03     44.7000E-03    -11.3911E+06    -77.2701E+06     407.367E+03     133.069E+03    -27.6931E-03     54.6496E-03    -26.9565E-03     52.9494E-03    -27.6623E-03     54.3028E-03    -26.8259E-03     52.8963E-03
            1613     7.88561E-03     44.6521E-03    -12.5673E+06    -82.6668E+06    -526.378E+03     92.9708E+03    -27.5318E-03     54.4840E-03    -26.9522E-03     47.4000E-03    -27.4899E-03     54.1056E-03    -26.8168E-03     47.3585E-03
            1614     7.00959E-03     44.6094E-03    -14.0510E+06    -89.2372E+06    -1.61804E+06     106.384E+03    -27.3880E-03     54.3380E-03    -26.9500E-03     41.8831E-03    -27.3371E-03     53.9252E-03    -26.8084E-03     41.8514E-03
            1615     6.13335E-03     44.5720E-03    -15.7219E+06    -93.8814E+06    -4.06848E+06     266.649E+03    -27.2577E-03     54.1971E-03    -26.9394E-03     36.4287E-03    -27.2013E-03     53.7634E-03    -26.8009E-03     36.4066E-03
            1616     5.25728E-03     44.5396E-03    -17.2066E+06    -98.6954E+06    -7.59139E+06     328.573E+03    -27.1439E-03     54.0690E-03    -26.9250E-03     31.0310E-03    -27.0804E-03     53.6159E-03    -26.7949E-03     31.0157E-03
            1617     4.38100E-03     44.5126E-03    -18.5095E+06    -101.925E+06    -11.4098E+06    -14.8081E+03    -27.0455E-03     53.9546E-03    -26.9091E-03     25.7002E-03    -26.9765E-03     53.4912E-03    -26.7915E-03     25.6852E-03
            1618     3.50486E-03     44.4904E-03    -19.7401E+06    -105.245E+06    -14.9135E+06     17.8220E+03    -26.9748E-03     53.8724E-03    -26.8976E-03     20.4658E-03    -26.9009E-03     53.3981E-03    -26.7909E-03     20.4551E-03
            1619     2.62859E-03     44.4734E-03    -20.9251E+06    -109.803E+06    -17.9141E+06     299.184E+03    -26.9269E-03     53.8196E-03    -26.8927E-03     15.3228E-03    -26.8471E-03     53.3277E-03    -26.7927E-03     15.3190E-03
            1620     1.75243E-03     44.4610E-03    -21.8942E+06    -111.274E+06    -20.4976E+06     145.858E+03    -26.9062E-03     53.7907E-03    -26.8845E-03     10.2680E-03    -26.8249E-03     53.2961E-03    -26.7939E-03     10.2650E-03
            1621     876.225E-06     44.4537E-03    -22.5391E+06    -112.242E+06    -22.1413E+06     31.9611E+03    -26.9018E-03     53.7633E-03    -26.8615E-03     5.56863E-03    -26.8195E-03     53.2673E-03    -26.7768E-03     5.56643E-03
            1622     16.6486E-03     44.8677E-03    -6.70897E+06     164.729E+06     89.7656E+06    -111.074E+03    -46.7605E-03     73.8306E-03    -27.0700E-03     362.836E-03    -64.7910E-03     92.1618E-03    -26.8503E-03     372.563E-03
            1623     15.7686E-03     44.4601E-03    -9.04418E+06     120.793E+06     25.3403E+06     1.02969E+06    -48.8327E-03     75.6472E-03    -26.8145E-03     337.418E-03    -59.8246E-03     86.9623E-03    -26.8499E-03     338.654E-03
            1624     14.8962E-03     44.2064E-03    -7.64107E+06     58.5099E+06    -14.2365E+06     1.08191E+06    -35.7510E-03     62.4487E-03    -26.6977E-03     188.167E-03    -37.7390E-03     64.6585E-03    -26.8426E-03     187.857E-03
            1625     14.0184E-03     44.0986E-03    -6.76786E+06     6.95955E+06    -13.7347E+06     708.320E+03    -28.8558E-03     55.6332E-03    -26.7775E-03     96.6205E-03    -29.2512E-03     56.0692E-03    -26.8464E-03     96.3964E-03
            1626     13.1426E-03     44.0229E-03    -7.66123E+06    -20.0454E+06    -10.6986E+06    -270.103E+03    -28.4984E-03     55.3310E-03    -26.8326E-03     79.9482E-03    -28.6681E-03     55.4334E-03    -26.8460E-03     79.7671E-03
            1627     12.2661E-03     43.9463E-03    -9.19248E+06    -32.2782E+06    -3.92248E+06    -819.304E+03    -28.4386E-03     55.3160E-03    -26.8774E-03     77.6487E-03    -28.5496E-03     55.2912E-03    -26.8369E-03     77.4953E-03
            1628     11.3904E-03     43.8750E-03    -9.75164E+06    -49.8156E+06    -4.37156E+06    -293.809E+03    -28.2379E-03     55.1294E-03    -26.8915E-03     70.5811E-03    -28.2865E-03     54.9792E-03    -26.8270E-03     70.4627E-03
            1629     10.5141E-03     43.8115E-03    -10.0277E+06    -65.1256E+06    -4.86973E+06    -107.774E+03    -28.0533E-03     54.9528E-03    -26.8995E-03     63.9732E-03    -28.0536E-03     54.7004E-03    -26.8148E-03     63.8820E-03
            1630     9.63827E-03     43.7528E-03    -10.4090E+06    -72.8775E+06    -1.48636E+06     45.8230E+03    -27.8660E-03     54.7812E-03    -26.9152E-03     58.4475E-03    -27.8450E-03     54.4688E-03    -26.8018E-03     58.3780E-03
            1631     8.76202E-03     43.6997E-03    -11.4337E+06    -77.3587E+06     133.776E+03     105.156E+03    -27.6727E-03     54.5919E-03    -26.9192E-03     52.8697E-03    -27.6414E-03     54.2450E-03    -26.7898E-03     52.8164E-03
            1632     7.88602E-03     43.6517E-03    -12.8603E+06    -82.6258E+06    -848.255E+03     219.364E+03    -27.5062E-03     54.4192E-03    -26.9131E-03     47.3110E-03    -27.4652E-03     54.0418E-03    -26.7789E-03     47.2713E-03
            1633     7.00977E-03     43.6091E-03    -14.4920E+06    -89.2045E+06    -2.23420E+06     212.008E+03    -27.3570E-03     54.2651E-03    -26.9081E-03     41.8018E-03    -27.3075E-03     53.8539E-03    -26.7689E-03     41.7716E-03
            1634     6.13369E-03     43.5717E-03    -16.1566E+06    -94.1346E+06    -4.81662E+06     297.032E+03    -27.2268E-03     54.1224E-03    -26.8956E-03     36.3618E-03    -27.1710E-03     53.6891E-03    -26.7598E-03     36.3402E-03
            1635     5.25742E-03     43.5395E-03    -17.8157E+06    -98.2299E+06    -8.77245E+06     186.025E+03    -27.1107E-03     53.9871E-03    -26.8763E-03     30.9701E-03    -27.0491E-03     53.5389E-03    -26.7519E-03     30.9531E-03
            1636     4.38128E-03     43.5124E-03    -19.1975E+06    -101.581E+06    -12.8311E+06    -159.198E+03    -27.0160E-03     53.8725E-03    -26.8566E-03     25.6484E-03    -26.9488E-03     53.4138E-03    -26.7456E-03     25.6317E-03
            1637     3.50496E-03     43.4903E-03    -20.3169E+06    -105.779E+06    -15.5870E+06    -67.7515E+03    -26.9459E-03     53.7909E-03    -26.8450E-03     20.4082E-03    -26.8731E-03     53.3157E-03    -26.7401E-03     20.3965E-03
            1638     2.62881E-03     43.4732E-03    -21.1875E+06    -109.666E+06    -17.7617E+06     141.177E+03    -26.8868E-03     53.7235E-03    -26.8367E-03     15.2803E-03    -26.8087E-03     53.2325E-03    -26.7358E-03     15.2745E-03
            1639     1.75249E-03     43.4610E-03      -21.88E+06    -111.071E+06    -20.3711E+06     133.760E+03    -26.8394E-03     53.6662E-03    -26.8268E-03     10.2521E-03    -26.7585E-03     53.1724E-03    -26.7358E-03     10.2489E-03
            1640     876.207E-06     43.4534E-03    -22.4118E+06    -112.134E+06    -22.0939E+06     87.1251E+03    -26.8045E-03     53.6517E-03    -26.8471E-03     5.52205E-03    -26.7219E-03     53.1559E-03    -26.7625E-03     5.52061E-03
            1641     16.6399E-03     43.8611E-03    -5.71571E+06     165.595E+06     90.7062E+06     189.334E+03    -46.8993E-03     74.0411E-03    -27.1418E-03     362.954E-03    -65.0807E-03     92.5271E-03    -26.9201E-03     372.724E-03
            1642     15.7730E-03     43.4563E-03    -7.88887E+06     120.277E+06     23.2169E+06    -1.08327E+06    -49.5868E-03     76.4149E-03    -26.8281E-03     333.652E-03    -60.4943E-03     87.6539E-03    -26.8750E-03     334.734E-03
            1643     14.8943E-03     43.2082E-03    -6.95040E+06     56.0917E+06    -17.2842E+06     171.181E+03    -35.5968E-03     62.2700E-03    -26.6732E-03     187.646E-03    -37.5722E-03     64.4700E-03    -26.8309E-03     187.337E-03
            1644     14.0184E-03     43.0970E-03    -7.09364E+06     7.28578E+06    -13.5128E+06     1.51821E+06    -28.9639E-03     55.7285E-03    -26.7646E-03     97.0299E-03    -29.3628E-03     56.1673E-03    -26.8324E-03     96.8148E-03
            1645     13.1424E-03     43.0228E-03    -7.33029E+06    -18.3569E+06    -9.52586E+06     941.029E+03    -28.5438E-03     55.3596E-03    -26.8158E-03     79.5539E-03    -28.7163E-03     55.4685E-03    -26.8261E-03     79.3873E-03
            1646     12.2668E-03     42.9453E-03    -7.92039E+06    -32.3097E+06    -3.22659E+06     186.830E+03    -28.4622E-03     55.3170E-03    -26.8547E-03     77.4739E-03    -28.5674E-03     55.2887E-03    -26.8125E-03     77.3336E-03
            1647     11.3905E-03     42.8748E-03    -9.03279E+06    -49.9258E+06    -4.39200E+06    -159.715E+03    -28.2606E-03     55.1232E-03    -26.8625E-03     70.5189E-03    -28.3053E-03     54.9712E-03    -26.7990E-03     70.4022E-03
            1648     10.5147E-03     42.8107E-03    -9.59880E+06    -65.3356E+06    -5.17136E+06    -119.943E+03    -28.0799E-03     54.9452E-03    -26.8653E-03     63.8986E-03    -28.0772E-03     54.6915E-03    -26.7825E-03     63.8074E-03
            1649     9.63849E-03     42.7526E-03    -10.4049E+06    -73.0356E+06    -1.85761E+06     94.9436E+03    -27.8672E-03     54.7441E-03    -26.8770E-03     58.3450E-03    -27.8453E-03     54.4314E-03    -26.7653E-03     58.2762E-03
            1650     8.76249E-03     42.6992E-03    -11.5415E+06    -77.4420E+06    -104.137E+03     293.079E+03    -27.6579E-03     54.5364E-03    -26.8785E-03     52.7759E-03    -27.6266E-03     54.1895E-03    -26.7500E-03     52.7252E-03
            1651     7.88625E-03     42.6515E-03    -12.8362E+06    -82.6196E+06    -984.723E+03     316.175E+03    -27.4819E-03     54.3520E-03    -26.8701E-03     47.2063E-03    -27.4406E-03     53.9747E-03    -26.7366E-03     47.1681E-03
            1652     7.01016E-03     42.6088E-03    -14.2559E+06    -89.1345E+06    -2.14894E+06     341.900E+03    -27.3289E-03     54.1925E-03    -26.8636E-03     41.7011E-03    -27.2783E-03     53.7811E-03    -26.7244E-03     41.6727E-03
            1653     6.13388E-03     42.5716E-03    -15.8342E+06    -94.1610E+06    -4.63794E+06     321.271E+03    -27.1907E-03     54.0405E-03    -26.8498E-03     36.2555E-03    -27.1335E-03     53.6063E-03    -26.7135E-03     36.2344E-03
            1654     5.25772E-03     42.5393E-03    -17.1566E+06    -97.6479E+06    -8.26633E+06     39.2668E+03    -27.0807E-03     53.9091E-03    -26.8284E-03     30.8736E-03    -27.0173E-03     53.4621E-03    -26.7033E-03     30.8548E-03
            1655     4.38142E-03     42.5123E-03    -18.4090E+06    -101.566E+06    -11.6416E+06    -161.744E+03    -26.9905E-03     53.7990E-03    -26.8085E-03     25.5616E-03    -26.9211E-03     53.3375E-03    -26.6928E-03     25.5448E-03
            1656     3.50526E-03     42.4902E-03    -19.7608E+06    -106.048E+06    -14.7226E+06    -76.4401E+03    -26.9093E-03     53.7002E-03    -26.7909E-03     20.3438E-03    -26.8346E-03     53.2216E-03    -26.6821E-03     20.3321E-03
            1657     2.62890E-03     42.4732E-03    -21.0347E+06    -109.650E+06    -17.8476E+06    -15.4610E+03    -26.8430E-03     53.6153E-03    -26.7723E-03     15.2201E-03    -26.7641E-03     53.1242E-03    -26.6720E-03     15.2123E-03
            1658     1.75266E-03     42.4610E-03    -21.9686E+06    -111.070E+06    -20.4608E+06     29.2432E+03    -26.7886E-03     53.5424E-03    -26.7538E-03     10.2099E-03    -26.7080E-03     53.0489E-03    -26.6632E-03     10.2054E-03
            1659     876.362E-06     42.4536E-03    -22.4326E+06    -112.015E+06    -22.1448E+06     88.5052E+03    -26.7268E-03     53.4946E-03    -26.7678E-03     5.46348E-03    -26.6443E-03     52.9995E-03    -26.6836E-03     5.46209E-03
            1660     16.6498E-03     42.8566E-03    -4.63439E+06     166.621E+06     91.7633E+06     350.466E+03    -47.0243E-03     74.1026E-03    -27.0783E-03     363.313E-03    -65.2165E-03     92.6038E-03    -26.8543E-03     373.065E-03
            1661     15.7693E-03     42.4558E-03    -8.28008E+06     119.593E+06     22.2795E+06    -1.22962E+06    -47.7659E-03     74.5654E-03    -26.7995E-03     332.760E-03    -58.5562E-03     85.6862E-03    -26.8495E-03     334.039E-03
            1662     14.8956E-03     42.2068E-03    -10.0455E+06     53.9659E+06    -23.5273E+06    -806.684E+03    -35.8587E-03     62.5211E-03    -26.6624E-03     187.880E-03    -37.8475E-03     64.7340E-03    -26.8437E-03     187.559E-03
            1663     14.0193E-03     42.0972E-03    -8.25238E+06     7.37104E+06    -17.2109E+06     1.11381E+06    -29.3964E-03     56.1363E-03    -26.7399E-03     97.3806E-03    -29.7993E-03     56.5859E-03    -26.8247E-03     97.1552E-03
            1664     13.1433E-03     42.0215E-03    -7.23828E+06    -17.3495E+06    -9.26365E+06     1.29111E+06    -28.5538E-03     55.3473E-03    -26.7935E-03     79.6382E-03    -28.7273E-03     55.4604E-03    -26.8042E-03     79.4763E-03
            1665     12.2669E-03     41.9454E-03    -7.75785E+06    -31.7355E+06    -3.23859E+06     860.893E+03    -28.4841E-03     55.3132E-03    -26.8290E-03     77.4918E-03    -28.5891E-03     55.2873E-03    -26.7880E-03     77.3605E-03
            1666     11.3910E-03     41.8738E-03    -8.43664E+06    -49.6140E+06    -4.05217E+06     506.949E+03    -28.2986E-03     55.1328E-03    -26.8343E-03     70.5089E-03    -28.3411E-03     54.9811E-03    -26.7703E-03     70.4008E-03
            1667     10.5149E-03     41.8106E-03    -9.46152E+06    -65.3500E+06    -5.24186E+06     324.351E+03    -28.1050E-03     54.9362E-03    -26.8311E-03     63.7845E-03    -28.1014E-03     54.6821E-03    -26.7489E-03     63.6990E-03
            1668     9.63895E-03     41.7519E-03    -10.4297E+06    -73.2340E+06    -1.84192E+06     363.268E+03    -27.8830E-03     54.7215E-03    -26.8385E-03     58.2264E-03    -27.8608E-03     54.4076E-03    -26.7264E-03     58.1613E-03
            1669     8.76279E-03     41.6991E-03    -11.4879E+06    -77.3612E+06    -55.1445E+03     371.994E+03    -27.6600E-03     54.4946E-03    -26.8346E-03     52.6410E-03    -27.6285E-03     54.1478E-03    -26.7060E-03     52.5915E-03
            1670     7.88670E-03     41.6511E-03    -12.7519E+06    -82.5935E+06    -851.475E+03     341.478E+03    -27.4681E-03     54.2901E-03    -26.8220E-03     47.0735E-03    -27.4266E-03     53.9126E-03    -26.6880E-03     47.0357E-03
            1671     7.01046E-03     41.6088E-03    -14.2191E+06    -89.1064E+06    -2.01944E+06     359.687E+03    -27.3054E-03     54.1168E-03    -26.8114E-03     41.5479E-03    -27.2549E-03     53.7053E-03    -26.6717E-03     41.5199E-03
            1672     6.13430E-03     41.5714E-03    -15.6268E+06    -93.8038E+06    -4.40104E+06     142.352E+03    -27.1567E-03     53.9502E-03    -26.7935E-03     36.1120E-03    -27.0993E-03     53.5171E-03    -26.6569E-03     36.0887E-03
            1673     5.25799E-03     41.5393E-03    -17.0904E+06    -97.3589E+06    -8.10936E+06    -111.160E+03    -27.0352E-03     53.8041E-03    -26.7689E-03     30.7598E-03    -26.9722E-03     53.3583E-03    -26.6435E-03     30.7391E-03
            1674     4.38178E-03     41.5122E-03    -18.5799E+06    -101.659E+06    -11.7674E+06    -128.333E+03    -26.9356E-03     53.6818E-03    -26.7462E-03     25.4587E-03    -26.8668E-03     53.2202E-03    -26.6307E-03     25.4426E-03
            1675     3.50539E-03     41.4904E-03    -19.9013E+06    -106.197E+06    -14.9945E+06    -19.4287E+03    -26.8538E-03     53.5796E-03    -26.7258E-03     20.2690E-03    -26.7791E-03     53.1008E-03    -26.6179E-03     20.2581E-03
            1676     2.62916E-03     41.4733E-03    -21.0635E+06    -109.656E+06    -18.0260E+06     73.6368E+03    -26.7899E-03     53.4935E-03    -26.7035E-03     15.1662E-03    -26.7109E-03     53.0027E-03    -26.6041E-03     15.1596E-03
            1677     1.75277E-03     41.4612E-03    -21.9774E+06    -111.047E+06    -20.5772E+06     52.0076E+03    -26.7254E-03     53.4057E-03    -26.6803E-03     10.1754E-03    -26.6447E-03     52.9125E-03    -26.5903E-03     10.1713E-03
            1678     876.376E-06     41.4537E-03    -22.6641E+06    -111.957E+06    -22.0797E+06     56.1475E+03    -26.6953E-03     53.3430E-03    -26.6477E-03     5.47689E-03    -26.6142E-03     52.8485E-03    -26.5629E-03     5.47510E-03
            1679     16.6487E-03     41.8614E-03    -4.97904E+06     166.436E+06     92.0310E+06    -357.058E+03    -46.6654E-03     73.7177E-03    -27.0523E-03     364.979E-03    -64.8455E-03     92.2042E-03    -26.8262E-03     374.803E-03
            1680     15.7717E-03     41.4555E-03    -9.88507E+06     119.142E+06     23.6508E+06     810.824E+03    -47.5039E-03     74.3271E-03    -26.8232E-03     335.864E-03    -58.3904E-03     85.5328E-03    -26.8633E-03     337.255E-03
            1681     14.8931E-03     41.2055E-03    -12.1106E+06     54.4200E+06    -22.1981E+06    -60.0990E+03    -36.3273E-03     63.0228E-03    -26.6955E-03     187.806E-03    -38.3375E-03     65.2476E-03    -26.8678E-03     187.482E-03
            1682     14.0186E-03     41.0955E-03    -11.6348E+06     6.33495E+06    -18.8897E+06    -671.254E+03    -29.6227E-03     56.3638E-03    -26.7412E-03     96.8716E-03    -30.0405E-03     56.8176E-03    -26.8279E-03     96.6207E-03
            1683     13.1429E-03     41.0214E-03    -10.1460E+06    -17.8347E+06    -11.0462E+06     441.700E+03    -28.6813E-03     55.4607E-03    -26.7794E-03     79.6702E-03    -28.8657E-03     55.5778E-03    -26.7941E-03     79.4972E-03
            1684     12.2673E-03     40.9442E-03    -9.44145E+06    -31.2278E+06    -3.83437E+06     835.647E+03    -28.6196E-03     55.4263E-03    -26.8067E-03     77.3877E-03    -28.7331E-03     55.4065E-03    -26.7669E-03     77.2552E-03
            1685     11.3912E-03     40.8736E-03    -9.70430E+06    -49.4077E+06    -4.39035E+06     701.171E+03    -28.3668E-03     55.1696E-03    -26.8028E-03     70.3511E-03    -28.4154E-03     55.0211E-03    -26.7390E-03     70.2455E-03
            1686     10.5153E-03     40.8098E-03    -9.95073E+06    -65.0263E+06    -5.07505E+06     591.832E+03    -28.1273E-03     54.9209E-03    -26.7936E-03     63.5777E-03    -28.1267E-03     54.6689E-03    -26.7103E-03     63.4958E-03
            1687     9.63931E-03     40.7518E-03    -10.4004E+06    -73.2272E+06    -1.73225E+06     360.360E+03    -27.9008E-03     54.6952E-03    -26.7943E-03     58.0265E-03    -27.8786E-03     54.3811E-03    -26.6817E-03     57.9614E-03
            1688     8.76327E-03     40.6986E-03    -11.2734E+06    -77.2932E+06     243.731E+03     380.331E+03    -27.6665E-03     54.4513E-03    -26.7848E-03     52.4472E-03    -27.6344E-03     54.1041E-03    -26.6552E-03     52.3978E-03
            1689     7.88712E-03     40.6511E-03    -12.5642E+06    -82.5777E+06    -652.164E+03     442.334E+03    -27.4596E-03     54.2254E-03    -26.7659E-03     46.9075E-03    -27.4173E-03     53.8473E-03    -26.6312E-03     46.8711E-03
            1690     7.01096E-03     40.6085E-03    -13.9495E+06    -88.8331E+06    -1.83398E+06     286.339E+03    -27.2796E-03     54.0290E-03    -26.7494E-03     41.4026E-03    -27.2283E-03     53.6181E-03    -26.6095E-03     41.3738E-03
            1691     6.13468E-03     40.5715E-03    -15.5171E+06    -93.5164E+06    -4.29422E+06     79.8704E+03    -27.1185E-03     53.8452E-03    -26.7267E-03     35.9808E-03    -27.0611E-03     53.4132E-03    -26.5901E-03     35.9568E-03
            1692     5.25841E-03     40.5393E-03    -17.1569E+06    -97.2260E+06    -8.15173E+06    -37.0786E+03    -26.9792E-03     53.6774E-03    -26.6982E-03     30.6456E-03    -26.9166E-03     53.2323E-03    -26.5731E-03     30.6260E-03
            1693     4.38202E-03     40.5125E-03    -18.6065E+06    -101.773E+06    -11.9642E+06    -77.5532E+03    -26.8707E-03     53.5434E-03    -26.6727E-03     25.3439E-03    -26.8016E-03     53.0816E-03    -26.5580E-03     25.3284E-03
            1694     3.50572E-03     40.4905E-03    -19.9626E+06    -106.355E+06    -15.2683E+06     41.0420E+03    -26.7831E-03     53.4336E-03    -26.6506E-03     20.1607E-03    -26.7081E-03     52.9545E-03    -26.5438E-03     20.1506E-03
            1695     2.62926E-03     40.4736E-03    -21.1286E+06    -109.595E+06    -18.1013E+06     109.974E+03    -26.7058E-03     53.3359E-03    -26.6301E-03     15.0831E-03    -26.6271E-03     52.8456E-03    -26.5311E-03     15.0771E-03
            1696     1.75290E-03     40.4614E-03    -22.0015E+06    -110.948E+06    -20.6071E+06     110.374E+03    -26.6382E-03     53.2520E-03    -26.6138E-03     10.1174E-03    -26.5578E-03     52.7594E-03    -26.5241E-03     10.1141E-03
            1697     876.465E-06     40.4541E-03    -22.5110E+06    -111.835E+06    -22.1346E+06    -47.0893E+03    -26.6342E-03     53.2207E-03    -26.5865E-03     5.52530E-03    -26.5524E-03     52.7266E-03    -26.5024E-03     5.52218E-03
            1698     16.6451E-03     40.8590E-03    -5.48675E+06     165.871E+06     91.6850E+06    -9.97022E+03    -46.2928E-03     73.3937E-03    -27.1009E-03     363.183E-03    -64.3804E-03     91.7848E-03    -26.8751E-03     372.994E-03
            1699     15.7676E-03     40.4548E-03    -11.1204E+06     119.071E+06     24.8792E+06     693.301E+03    -48.5849E-03     75.4358E-03    -26.8510E-03     335.127E-03    -59.5214E-03     86.6835E-03    -26.8831E-03     336.397E-03
            1700     14.8953E-03     40.2025E-03    -11.0411E+06     56.2195E+06    -16.6317E+06     490.674E+03    -36.3617E-03     63.0626E-03    -26.7009E-03     186.462E-03    -38.3642E-03     65.2737E-03    -26.8495E-03     186.135E-03
            1701     14.0192E-03     40.0956E-03    -10.3717E+06     5.54713E+06    -16.2255E+06    -741.862E+03    -29.4710E-03     56.2042E-03    -26.7332E-03     95.6422E-03    -29.8832E-03     56.6463E-03    -26.8073E-03     95.3912E-03
            1702     13.1433E-03     40.0198E-03    -10.5819E+06    -19.3893E+06    -11.3322E+06    -346.693E+03    -28.7799E-03     55.5375E-03    -26.7575E-03     79.1332E-03    -28.9634E-03     55.6474E-03    -26.7707E-03     78.9494E-03
            1703     12.2675E-03     39.9440E-03    -10.4688E+06    -30.8834E+06    -3.45918E+06     308.170E+03    -28.7050E-03     55.4813E-03    -26.7763E-03     76.8927E-03    -28.8245E-03     55.4640E-03    -26.7336E-03     76.7527E-03
            1704     11.3918E-03     39.8727E-03    -10.4000E+06    -49.3756E+06    -4.69387E+06     252.954E+03    -28.4025E-03     55.1626E-03    -26.7601E-03     70.0208E-03    -28.4539E-03     55.0154E-03    -26.6969E-03     69.9092E-03
            1705     10.5158E-03     39.8097E-03    -10.3201E+06    -64.8060E+06    -5.17123E+06     197.930E+03    -28.1355E-03     54.8804E-03    -26.7449E-03     63.3344E-03    -28.1367E-03     54.6299E-03    -26.6618E-03     63.2474E-03
            1706     9.63986E-03     39.7512E-03    -10.6335E+06    -73.1495E+06    -1.96340E+06     213.501E+03    -27.8978E-03     54.6373E-03    -26.7395E-03     57.8061E-03    -27.8763E-03     54.3241E-03    -26.6278E-03     57.7392E-03
            1707     8.76380E-03     39.6986E-03    -11.5433E+06    -77.4199E+06     63.4211E+03     289.466E+03    -27.6566E-03     54.3817E-03    -26.7251E-03     52.2504E-03    -27.6253E-03     54.0344E-03    -26.5958E-03     52.2000E-03
            1708     7.88764E-03     39.6509E-03    -12.5173E+06    -82.3992E+06    -645.348E+03     268.598E+03    -27.4381E-03     54.1389E-03    -26.7008E-03     46.7299E-03    -27.3958E-03     53.7615E-03    -26.5664E-03     46.6914E-03
            1709     7.01141E-03     39.6087E-03    -13.7182E+06    -88.6995E+06    -1.83910E+06     241.720E+03    -27.2449E-03     53.9240E-03    -26.6790E-03     41.2494E-03    -27.1926E-03     53.5134E-03    -26.5397E-03     41.2202E-03
            1710     6.13515E-03     39.5715E-03    -15.3042E+06    -93.2596E+06    -4.22479E+06     186.772E+03    -27.0767E-03     53.7284E-03    -26.6517E-03     35.8326E-03    -27.0186E-03     53.2972E-03    -26.5154E-03     35.8101E-03
            1711     5.25880E-03     39.5396E-03    -16.8480E+06    -97.0863E+06    -8.00003E+06    -3.26890E+03    -26.9233E-03     53.5424E-03    -26.6191E-03     30.5032E-03    -26.8595E-03     53.0973E-03    -26.4939E-03     30.4842E-03
            1712     4.38245E-03     39.5127E-03    -18.3096E+06    -101.952E+06    -11.6869E+06     37.2628E+03    -26.8013E-03     53.3927E-03    -26.5914E-03     25.2411E-03    -26.7307E-03     52.9291E-03    -26.4754E-03     25.2273E-03
            1713     3.50599E-03     39.4909E-03    -19.7656E+06    -106.475E+06    -14.8652E+06     234.332E+03    -26.7065E-03     53.2740E-03    -26.5675E-03     20.0598E-03    -26.6309E-03     52.7934E-03    -26.4588E-03     20.0523E-03
            1714     2.62957E-03     39.4740E-03    -21.0425E+06    -109.409E+06    -18.0131E+06     213.822E+03    -26.6137E-03     53.1589E-03    -26.5452E-03     14.9788E-03    -26.5350E-03     52.6693E-03    -26.4461E-03     14.9742E-03
            1715     1.75300E-03     39.4619E-03    -21.8984E+06    -110.780E+06    -20.5508E+06     53.7190E+03    -26.5591E-03     53.0872E-03    -26.5280E-03     10.0284E-03    -26.4785E-03     52.5951E-03    -26.4384E-03     10.0244E-03
            1716     876.445E-06     39.4546E-03    -22.5237E+06    -111.818E+06    -22.2650E+06     50.0612E+03    -26.5426E-03     53.0452E-03    -26.5025E-03     5.42414E-03    -26.4607E-03     52.5514E-03    -26.4191E-03     5.42230E-03
            1717     16.6465E-03     39.8604E-03    -5.45112E+06     165.874E+06     91.6443E+06     719.857E+03    -47.1944E-03     74.2663E-03    -27.0719E-03     361.401E-03    -65.2495E-03     92.6252E-03    -26.8463E-03     371.066E-03
            1718     15.7732E-03     39.4528E-03    -7.07563E+06     121.186E+06     25.4752E+06     822.461E+03    -48.5780E-03     75.3509E-03    -26.7728E-03     333.230E-03    -59.4423E-03     86.5463E-03    -26.8109E-03     334.454E-03
            1719     14.8952E-03     39.2025E-03     -7.6697E+06     56.3356E+06    -17.2982E+06     805.134E+03    -35.7292E-03     62.3557E-03    -26.6265E-03     186.327E-03    -37.6858E-03     64.5353E-03    -26.7836E-03     186.019E-03
            1720     14.0195E-03     39.0940E-03    -8.77239E+06     5.84431E+06    -15.6143E+06     398.578E+03    -29.4194E-03     56.1038E-03    -26.6844E-03     95.5592E-03    -29.8233E-03     56.5426E-03    -26.7582E-03     95.3231E-03
            1721     13.1441E-03     39.0196E-03    -8.90514E+06    -19.4317E+06    -10.7909E+06    -38.1003E+03    -28.8162E-03     55.5220E-03    -26.7058E-03     78.5983E-03    -28.9918E-03     55.6283E-03    -26.7186E-03     78.4179E-03
            1722     12.2683E-03     38.9427E-03    -9.14170E+06    -31.2474E+06    -3.16749E+06    -64.1306E+03    -28.6015E-03     55.3238E-03    -26.7223E-03     76.5493E-03    -28.7133E-03     55.3015E-03    -26.6796E-03     76.4056E-03
            1723     11.3924E-03     38.8726E-03    -9.43845E+06    -49.0187E+06    -4.16593E+06    -11.2093E+03    -28.3798E-03     55.0867E-03    -26.7069E-03     69.7669E-03    -28.4275E-03     54.9389E-03    -26.6430E-03     69.6522E-03
            1724     10.5164E-03     38.8089E-03    -9.84593E+06    -65.0748E+06    -5.13302E+06    -27.4868E+03    -28.1289E-03     54.8160E-03    -26.6871E-03     63.1210E-03    -28.1272E-03     54.5632E-03    -26.6041E-03     63.0314E-03
            1725     9.64048E-03     38.7512E-03    -10.4924E+06    -73.1339E+06    -1.86783E+06     223.156E+03    -27.8817E-03     54.5592E-03    -26.6774E-03     57.5951E-03    -27.8596E-03     54.2455E-03    -26.5655E-03     57.5286E-03
            1726     8.76435E-03     38.6983E-03    -11.4043E+06    -77.3609E+06    -74.6588E+03     149.613E+03    -27.6362E-03     54.2930E-03    -26.6568E-03     52.0482E-03    -27.6039E-03     53.9458E-03    -26.5285E-03     51.9962E-03
            1727     7.88823E-03     38.6510E-03    -12.6834E+06    -82.3709E+06    -910.554E+03     163.111E+03    -27.4104E-03     54.0374E-03    -26.6270E-03     46.5226E-03    -27.3685E-03     53.6607E-03    -26.4937E-03     46.4829E-03
            1728     7.01196E-03     38.6087E-03    -14.1505E+06    -88.6566E+06    -2.38618E+06     182.971E+03    -27.2077E-03     53.8062E-03    -26.5984E-03     41.0574E-03    -27.1567E-03     53.3971E-03    -26.4613E-03     41.0276E-03
            1729     6.13566E-03     38.5718E-03    -15.4852E+06    -93.0858E+06     -4.7812E+06     95.9737E+03    -27.0214E-03     53.5867E-03    -26.5653E-03     35.6532E-03    -26.9636E-03     53.1573E-03    -26.4318E-03     35.6297E-03
            1730     5.25928E-03     38.5399E-03    -17.0185E+06    -97.0646E+06    -8.22202E+06     149.308E+03    -26.8531E-03     53.3837E-03    -26.5305E-03     30.3408E-03    -26.7898E-03     52.9392E-03    -26.4062E-03     30.3239E-03
            1731     4.38280E-03     38.5132E-03    -18.6880E+06    -102.049E+06    -11.7600E+06     211.783E+03    -26.7198E-03     53.2209E-03    -26.5011E-03     25.1255E-03    -26.6509E-03     52.7574E-03    -26.3848E-03     25.1140E-03
            1732     3.50632E-03     38.4914E-03    -20.0001E+06    -106.510E+06    -14.9768E+06     226.299E+03    -26.6205E-03     53.0949E-03    -26.4744E-03     19.9541E-03    -26.5459E-03     52.6146E-03    -26.3658E-03     19.9466E-03
            1733     2.62977E-03     38.4746E-03    -20.9194E+06    -109.132E+06    -17.9122E+06     211.048E+03    -26.5384E-03     52.9855E-03    -26.4471E-03     14.8779E-03    -26.4596E-03     52.4969E-03    -26.3481E-03     14.8733E-03
            1734     1.75323E-03     38.4626E-03    -21.8584E+06    -110.653E+06    -20.5145E+06     195.769E+03    -26.4871E-03     52.9030E-03    -26.4160E-03     9.98302E-03    -26.4065E-03     52.4115E-03    -26.3264E-03     9.98088E-03
            1735     876.759E-06     38.4551E-03    -22.6236E+06    -111.686E+06    -22.1276E+06     152.386E+03    -26.4351E-03     52.8006E-03    -26.3655E-03     5.28347E-03    -26.3540E-03     52.3074E-03    -26.2814E-03     5.28299E-03
            1736     16.6488E-03     38.8551E-03    -5.24176E+06     165.870E+06     91.1052E+06    -142.841E+03    -47.8204E-03     74.8438E-03    -27.0235E-03     362.588E-03    -65.9338E-03     93.2633E-03    -26.8009E-03     372.187E-03
            1737     15.7727E-03     38.4536E-03    -7.54625E+06     120.175E+06     23.4588E+06     694.906E+03    -48.5232E-03     75.2368E-03    -26.7136E-03     334.611E-03    -59.4067E-03     86.4521E-03    -26.7596E-03     335.857E-03
            1738     14.8967E-03     38.2026E-03    -8.79256E+06     56.4262E+06    -18.5136E+06     1.48474E+06    -35.9304E-03     62.5031E-03    -26.5727E-03     187.383E-03    -37.9015E-03     64.6970E-03    -26.7344E-03     187.084E-03
            1739     14.0205E-03     38.0927E-03    -8.10372E+06     7.51855E+06    -14.7793E+06     762.912E+03    -29.4476E-03     56.0770E-03    -26.6294E-03     95.6806E-03    -29.8502E-03     56.5204E-03    -26.7024E-03     95.4496E-03
            1740     13.1452E-03     38.0186E-03    -8.03225E+06    -19.3647E+06    -10.8223E+06     96.7562E+03    -28.7264E-03     55.3736E-03    -26.6473E-03     78.3649E-03    -28.8967E-03     55.4781E-03    -26.6617E-03     78.1871E-03
            1741     12.2690E-03     37.9427E-03    -8.32783E+06    -31.2628E+06    -3.11136E+06     51.3482E+03    -28.5667E-03     55.2318E-03    -26.6650E-03     76.6776E-03    -28.6742E-03     55.2077E-03    -26.6232E-03     76.5362E-03
            1742     11.3930E-03     37.8717E-03    -8.81941E+06    -48.9863E+06    -3.89000E+06     42.2330E+03    -28.3770E-03     55.0253E-03    -26.6483E-03     69.6365E-03    -28.4216E-03     54.8760E-03    -26.5839E-03     69.5229E-03
            1743     10.5172E-03     37.8089E-03    -9.32881E+06    -65.2131E+06    -5.03014E+06     171.920E+03    -28.1332E-03     54.7559E-03    -26.6227E-03     62.8827E-03    -28.1286E-03     54.5013E-03    -26.5398E-03     62.7959E-03
            1744     9.64108E-03     37.7508E-03    -9.88657E+06    -73.1904E+06    -1.84670E+06     178.508E+03    -27.8724E-03     54.4788E-03    -26.6063E-03     57.3655E-03    -27.8470E-03     54.1637E-03    -26.4951E-03     57.2987E-03
            1745     8.76509E-03     37.6984E-03    -10.8521E+06    -77.2989E+06     52.1202E+03     292.134E+03    -27.6162E-03     54.1964E-03    -26.5802E-03     51.7963E-03    -27.5812E-03     53.8484E-03    -26.4521E-03     51.7464E-03
            1746     7.88882E-03     37.6510E-03    -12.2970E+06    -82.4966E+06    -821.857E+03     425.579E+03    -27.3806E-03     53.9251E-03    -26.5445E-03     46.2796E-03    -27.3365E-03     53.5469E-03    -26.4112E-03     46.2436E-03
            1747     7.01262E-03     37.6091E-03    -13.8679E+06    -88.2423E+06    -2.18037E+06     261.811E+03    -27.1613E-03     53.6712E-03    -26.5099E-03     40.8315E-03    -27.1097E-03     53.2634E-03    -26.3727E-03     40.8029E-03
            1748     6.13623E-03     37.5721E-03      -15.53E+06    -93.1315E+06    -4.77882E+06     44.7012E+03    -26.9566E-03     53.4282E-03    -26.4716E-03     35.4523E-03    -26.8989E-03     52.9986E-03    -26.3379E-03     35.4283E-03
            1749     5.25978E-03     37.5405E-03    -16.9591E+06    -97.1578E+06    -8.15019E+06     158.060E+03    -26.7831E-03     53.2152E-03    -26.4321E-03     30.1413E-03    -26.7194E-03     52.7700E-03    -26.3074E-03     30.1246E-03
            1750     4.38327E-03     37.5138E-03    -18.1878E+06    -101.994E+06    -11.2030E+06     243.208E+03    -26.6370E-03     53.0364E-03    -26.3994E-03     24.9407E-03    -26.5664E-03     52.5716E-03    -26.2811E-03     24.9297E-03
            1751     3.50668E-03     37.4921E-03    -19.5460E+06    -106.465E+06    -14.4711E+06     251.800E+03    -26.5200E-03     52.8896E-03    -26.3696E-03     19.8053E-03    -26.4439E-03     52.4081E-03    -26.2592E-03     19.7983E-03
            1752     2.63007E-03     37.4754E-03    -20.9595E+06    -109.035E+06    -17.9706E+06     294.963E+03    -26.4448E-03     52.7811E-03    -26.3363E-03     14.7790E-03    -26.3662E-03     52.2931E-03    -26.2377E-03     14.7756E-03
            1753     1.75345E-03     37.4634E-03    -21.9399E+06    -110.489E+06    -20.4565E+06     301.148E+03    -26.3640E-03     52.6696E-03    -26.3057E-03     9.91505E-03    -26.2841E-03     52.1790E-03    -26.2159E-03     9.91433E-03
            1754     876.657E-06     37.4562E-03    -22.1889E+06    -111.260E+06    -21.9460E+06     56.5389E+03    -26.2912E-03     52.5863E-03    -26.2952E-03     5.28814E-03    -26.2088E-03     52.0944E-03    -26.2114E-03     5.28639E-03
            1755     16.6478E-03     37.8561E-03    -5.62327E+06     165.211E+06     89.4225E+06     19.0880E+03    -47.5549E-03     74.5999E-03    -27.0450E-03     363.648E-03    -65.6753E-03     93.0275E-03    -26.8293E-03     373.323E-03
            1756     15.7708E-03     37.4502E-03    -10.3718E+06     117.817E+06     20.3433E+06    -189.253E+03    -49.2727E-03     75.9985E-03    -26.7258E-03     333.985E-03    -60.1218E-03     87.1700E-03    -26.7799E-03     335.159E-03
            1757     14.8967E-03     37.2017E-03    -9.92592E+06     56.3585E+06    -18.9484E+06    -4.37043E+03    -36.5740E-03     63.1227E-03    -26.5487E-03     186.594E-03    -38.5560E-03     65.3246E-03    -26.7108E-03     186.258E-03
            1758     14.0215E-03     37.0917E-03    -7.94799E+06     8.21504E+06    -15.2159E+06     779.112E+03    -29.3806E-03     55.9612E-03    -26.5806E-03     95.9288E-03    -29.7795E-03     56.4052E-03    -26.6571E-03     95.7012E-03
            1759     13.1451E-03     37.0184E-03    -7.90526E+06    -18.8989E+06    -11.3819E+06     592.290E+03    -28.7026E-03     55.3016E-03    -26.5989E-03     78.4714E-03    -28.8709E-03     55.4077E-03    -26.6170E-03     78.3014E-03
            1760     12.2695E-03     36.9419E-03    -8.22654E+06    -31.2568E+06    -3.62874E+06     173.239E+03    -28.7365E-03     55.3454E-03    -26.6089E-03     76.4340E-03    -28.8427E-03     55.3219E-03    -26.5698E-03     76.2933E-03
            1761     11.3938E-03     36.8715E-03    -8.78659E+06    -49.0078E+06    -4.10562E+06     327.084E+03    -28.4042E-03     54.9858E-03    -26.5816E-03     69.3522E-03    -28.4478E-03     54.8361E-03    -26.5183E-03     69.2426E-03
            1762     10.5178E-03     36.8084E-03    -9.32779E+06    -65.0784E+06    -5.24197E+06     269.450E+03    -28.1316E-03     54.6802E-03    -26.5486E-03     62.5896E-03    -28.1265E-03     54.4262E-03    -26.4669E-03     62.5044E-03
            1763     9.64197E-03     36.7509E-03    -10.0103E+06    -73.2713E+06    -2.15634E+06     254.513E+03    -27.8647E-03     54.3900E-03    -26.5252E-03     57.0874E-03    -27.8391E-03     54.0749E-03    -26.4152E-03     57.0219E-03
            1764     8.76574E-03     36.6984E-03    -11.1125E+06    -77.5200E+06    -85.5302E+03     485.511E+03    -27.5890E-03     54.0823E-03    -26.4933E-03     51.5291E-03    -27.5546E-03     53.7336E-03    -26.3652E-03     51.4820E-03
            1765     7.88966E-03     36.6513E-03    -12.2427E+06    -82.2891E+06    -771.763E+03     472.853E+03    -27.3402E-03     53.7910E-03    -26.4508E-03     46.0179E-03    -27.2961E-03     53.4135E-03    -26.3176E-03     45.9828E-03
            1766     7.01326E-03     36.6094E-03    -13.5732E+06    -88.0638E+06    -1.80254E+06     417.016E+03    -27.1041E-03     53.5153E-03    -26.4112E-03     40.5715E-03    -27.0518E-03     53.1074E-03    -26.2728E-03     40.5451E-03
            1767     6.13688E-03     36.5728E-03    -15.3392E+06    -92.8988E+06    -4.18864E+06     383.190E+03    -26.8935E-03     53.2612E-03    -26.3676E-03     35.1997E-03    -26.8360E-03     52.8316E-03    -26.2316E-03     35.1802E-03
            1768     5.26038E-03     36.5411E-03    -17.2061E+06    -97.1130E+06     -8.3287E+06     87.9494E+03    -26.7094E-03     53.0274E-03    -26.3181E-03     29.9211E-03    -26.6467E-03     52.5831E-03    -26.1939E-03     29.9038E-03
            1769     4.38381E-03     36.5146E-03    -18.7201E+06    -102.131E+06    -12.1366E+06     171.602E+03    -26.5446E-03     52.8200E-03    -26.2754E-03     24.7366E-03    -26.4751E-03     52.3566E-03    -26.1608E-03     24.7249E-03
            1770     3.50712E-03     36.4931E-03    -20.0095E+06    -106.370E+06    -15.0629E+06     360.321E+03    -26.4060E-03     52.6478E-03    -26.2418E-03     19.6448E-03    -26.3314E-03     52.1683E-03    -26.1339E-03     19.6392E-03
            1771     2.63040E-03     36.4763E-03    -21.0429E+06    -108.900E+06    -17.8587E+06     308.769E+03    -26.3033E-03     52.5155E-03    -26.2122E-03     14.6665E-03    -26.2255E-03     52.0282E-03    -26.1131E-03     14.6634E-03
            1772     1.75363E-03     36.4645E-03    -21.7404E+06    -110.224E+06    -20.4514E+06     159.685E+03    -26.2165E-03     52.4079E-03    -26.1914E-03     9.78806E-03    -26.1360E-03     51.9183E-03    -26.1023E-03     9.78557E-03
            1773     876.826E-06     36.4574E-03    -22.0627E+06    -110.991E+06    -21.8651E+06     61.3973E+03    -26.1581E-03     52.3757E-03    -26.2176E-03     5.26698E-03    -26.0756E-03     51.8848E-03    -26.1340E-03     5.26543E-03
            1774     16.6445E-03     36.8506E-03    -5.11012E+06     165.698E+06     91.2965E+06     272.017E+03    -47.9720E-03     75.0172E-03    -27.0452E-03     361.978E-03    -66.0533E-03     93.4039E-03    -26.8216E-03     371.587E-03
            1775     15.7728E-03     36.4488E-03    -8.04669E+06     118.571E+06     21.6305E+06     160.904E+03    -49.1358E-03     75.8249E-03    -26.6892E-03     330.904E-03    -59.8076E-03     86.8264E-03    -26.7413E-03     332.042E-03
            1776     14.8977E-03     36.1993E-03    -8.85392E+06     55.2269E+06    -19.9805E+06     448.643E+03    -36.1570E-03     62.6614E-03    -26.5044E-03     185.785E-03    -38.1015E-03     64.8284E-03    -26.6715E-03     185.465E-03
            1777     14.0215E-03     36.0922E-03    -9.62347E+06     7.79581E+06    -15.1547E+06     485.972E+03    -29.5957E-03     56.1409E-03    -26.5452E-03     95.3735E-03    -30.0032E-03     56.5859E-03    -26.6183E-03     95.1393E-03
            1778     13.1459E-03     36.0169E-03    -8.73749E+06    -17.9668E+06    -10.9474E+06     351.099E+03    -28.8792E-03     55.4236E-03    -26.5444E-03     77.9949E-03    -29.0533E-03     55.5346E-03    -26.5604E-03     77.8206E-03
            1779     12.2706E-03     35.9414E-03    -8.49619E+06    -31.4358E+06    -3.63365E+06     307.358E+03    -28.7559E-03     55.2961E-03    -26.5402E-03     75.8290E-03    -28.8625E-03     55.2715E-03    -26.5005E-03     75.6901E-03
            1780     11.3946E-03     35.8710E-03    -8.94462E+06    -49.0297E+06    -3.86914E+06     381.386E+03    -28.4112E-03     54.9171E-03    -26.5059E-03     68.9901E-03    -28.4555E-03     54.7668E-03    -26.4412E-03     68.8815E-03
            1781     10.5188E-03     35.8084E-03    -9.33670E+06    -64.9280E+06    -4.74971E+06     440.532E+03    -28.1134E-03     54.5802E-03    -26.4667E-03     62.2910E-03    -28.1089E-03     54.3258E-03    -26.3828E-03     62.2085E-03
            1782     9.64271E-03     35.7508E-03    -10.1173E+06    -73.3466E+06    -1.86809E+06     499.245E+03    -27.8460E-03     54.2819E-03    -26.4359E-03     56.7585E-03    -27.8209E-03     53.9659E-03    -26.3242E-03     56.6965E-03
            1783     8.76673E-03     35.6986E-03    -11.0693E+06    -77.5248E+06     104.160E+03     448.387E+03    -27.5590E-03     53.9545E-03    -26.3955E-03     51.2257E-03    -27.5245E-03     53.6052E-03    -26.2666E-03     51.1785E-03
            1784     7.89037E-03     35.6516E-03    -12.2039E+06    -82.0727E+06    -589.527E+03     386.614E+03    -27.2944E-03     53.6394E-03    -26.3450E-03     45.7045E-03    -27.2505E-03     53.2626E-03    -26.2113E-03     45.6686E-03
            1785     7.01412E-03     35.6100E-03    -13.5821E+06    -88.2002E+06    -1.87502E+06     462.933E+03    -27.0475E-03     53.3445E-03    -26.2969E-03     40.2617E-03    -26.9948E-03     52.9358E-03    -26.1587E-03     40.2362E-03
            1786     6.13761E-03     35.5734E-03    -14.9883E+06    -92.5334E+06    -4.09357E+06     484.421E+03    -26.8169E-03     53.0623E-03    -26.2455E-03     34.9223E-03    -26.7582E-03     52.6338E-03    -26.1100E-03     34.9045E-03
            1787     5.26107E-03     35.5420E-03    -16.5021E+06    -96.8840E+06    -7.35401E+06     369.409E+03    -26.6158E-03     52.8092E-03    -26.1934E-03     29.6744E-03    -26.5513E-03     52.3635E-03    -26.0658E-03     29.6609E-03
            1788     4.38437E-03     35.5157E-03    -18.2591E+06    -102.353E+06    -11.0321E+06     384.849E+03    -26.4393E-03     52.5856E-03    -26.1463E-03     24.5185E-03    -26.3687E-03     52.1188E-03    -26.0265E-03     24.5098E-03
            1789     3.50765E-03     35.4942E-03    -19.7244E+06    -106.096E+06    -14.7468E+06     337.278E+03    -26.2858E-03     52.3885E-03    -26.1026E-03     19.4857E-03    -26.2107E-03     51.9094E-03    -25.9939E-03     19.4800E-03
            1790     2.63079E-03     35.4777E-03    -20.8107E+06    -108.725E+06    -17.8384E+06     167.669E+03    -26.1573E-03     52.2270E-03    -26.0697E-03     14.5221E-03    -26.0786E-03     51.7402E-03    -25.9711E-03     14.5173E-03
            1791     1.75384E-03     35.4658E-03    -21.5774E+06    -109.945E+06    -20.2534E+06     71.9831E+03    -26.0763E-03     52.1261E-03    -26.0498E-03     9.67897E-03    -25.9957E-03     51.6373E-03    -25.9604E-03     9.67541E-03
            1792     876.905E-06     35.4587E-03    -22.2857E+06    -110.961E+06    -21.8719E+06     116.382E+03    -26.0651E-03     52.0897E-03    -26.0246E-03     5.23696E-03    -25.9837E-03     51.5992E-03    -25.9408E-03     5.23618E-03
            1793     16.6512E-03     35.8471E-03    -5.38847E+06     165.668E+06     91.8216E+06    -158.710E+03    -48.4408E-03     75.4186E-03    -26.9779E-03     361.902E-03    -66.4886E-03     93.7692E-03    -26.7512E-03     371.394E-03
            1794     15.7752E-03     35.4495E-03    -8.45967E+06     118.754E+06     22.8063E+06     613.548E+03    -48.4661E-03     75.0936E-03    -26.6275E-03     331.163E-03    -59.0987E-03     86.0516E-03    -26.6734E-03     332.402E-03
            1795     14.8972E-03     35.1992E-03    -9.89368E+06     55.7456E+06    -19.4607E+06     913.904E+03    -36.3172E-03     62.7694E-03    -26.4522E-03     185.917E-03    -38.2694E-03     64.9408E-03    -26.6160E-03     185.599E-03
            1796     14.0226E-03     35.0900E-03    -9.05485E+06     8.17564E+06    -14.2443E+06    -209.798E+03    -29.7523E-03     56.2318E-03    -26.4795E-03     94.4014E-03    -30.1577E-03     56.6753E-03    -26.5494E-03     94.1558E-03
            1797     13.1476E-03     35.0169E-03    -8.43519E+06    -18.4460E+06    -10.4946E+06    -64.6538E+03    -28.8717E-03     55.3382E-03    -26.4665E-03     77.5289E-03    -29.0429E-03     55.4444E-03    -26.4800E-03     77.3497E-03
            1798     12.2714E-03     34.9407E-03    -8.56414E+06    -31.2937E+06    -3.22097E+06     355.947E+03    -28.6587E-03     55.1177E-03    -26.4590E-03     75.6562E-03    -28.7655E-03     55.0924E-03    -26.4173E-03     75.5191E-03
            1799     11.3958E-03     34.8709E-03    -8.81932E+06    -49.2639E+06    -3.58433E+06     374.364E+03    -28.4114E-03     54.8323E-03    -26.4208E-03     68.6755E-03    -28.4546E-03     54.6796E-03    -26.3545E-03     68.5673E-03
            1800     10.5197E-03     34.8082E-03    -9.33233E+06    -64.9377E+06    -4.51267E+06     581.535E+03    -28.1102E-03     54.4836E-03    -26.3734E-03     61.9899E-03    -28.1055E-03     54.2283E-03    -26.2882E-03     61.9098E-03
            1801     9.64385E-03     34.7510E-03    -9.84368E+06    -73.2478E+06    -1.59080E+06     574.968E+03    -27.8269E-03     54.1606E-03    -26.3337E-03     56.4390E-03    -27.8006E-03     53.8440E-03    -26.2212E-03     56.3784E-03
            1802     8.76758E-03     34.6989E-03    -10.7721E+06    -77.2834E+06     202.137E+03     435.783E+03    -27.5362E-03     53.8194E-03    -26.2832E-03     50.8765E-03    -27.5004E-03     53.4704E-03    -26.1545E-03     50.8295E-03
            1803     7.89146E-03     34.6522E-03    -12.0188E+06    -82.1160E+06    -546.156E+03     416.788E+03    -27.2445E-03     53.4682E-03    -26.2237E-03     45.3541E-03    -27.1995E-03     53.0906E-03    -26.0899E-03     45.3190E-03
            1804     7.01497E-03     34.6107E-03    -13.3917E+06    -88.1254E+06    -1.97167E+06     456.651E+03    -26.9750E-03     53.1414E-03    -26.1664E-03     39.9348E-03    -26.9210E-03     52.7328E-03    -26.0291E-03     39.9096E-03
            1805     6.13850E-03     34.5744E-03    -14.8411E+06    -92.3599E+06    -4.23803E+06     351.821E+03    -26.7250E-03     52.8322E-03    -26.1071E-03     34.6277E-03    -26.6655E-03     52.4044E-03    -25.9729E-03     34.6084E-03
            1806     5.26179E-03     34.5432E-03    -16.3540E+06    -96.9023E+06    -7.14045E+06     493.437E+03    -26.5016E-03     52.5524E-03    -26.0508E-03     29.3964E-03    -26.4366E-03     52.1060E-03    -25.9223E-03     29.3847E-03
            1807     4.38506E-03     34.5170E-03    -17.8178E+06    -102.151E+06    -10.2182E+06      499.34E+03    -26.3102E-03     52.3111E-03    -26.0010E-03     24.2748E-03    -26.2388E-03     51.8435E-03    -25.8781E-03     24.2678E-03
            1808     3.50814E-03     34.4957E-03    -19.2795E+06    -105.899E+06    -13.9820E+06     403.541E+03    -26.1470E-03     52.1000E-03    -25.9530E-03     19.2894E-03    -26.0710E-03     51.6202E-03    -25.8414E-03     19.2848E-03
            1809     2.63120E-03     34.4792E-03    -20.6050E+06    -108.384E+06    -17.5960E+06     301.366E+03    -26.0245E-03     51.9358E-03    -25.9113E-03     14.3783E-03    -25.9456E-03     51.4500E-03    -25.8122E-03     14.3753E-03
            1810     1.75419E-03     34.4676E-03    -21.6785E+06    -109.822E+06    -20.1005E+06     122.383E+03    -25.9364E-03     51.8153E-03    -25.8789E-03     9.58295E-03    -25.8566E-03     51.3270E-03    -25.7887E-03     9.58016E-03
            1811     877.121E-06     34.4603E-03    -22.4160E+06    -110.877E+06    -21.8358E+06     179.746E+03    -25.8794E-03     51.7292E-03    -25.8498E-03     5.21185E-03    -25.7988E-03     51.2393E-03    -25.7657E-03     5.21189E-03
            1812     16.6489E-03     34.8468E-03    -5.62709E+06     165.235E+06     90.9416E+06     187.288E+03    -48.3222E-03     75.2837E-03    -26.9615E-03     361.712E-03    -66.2455E-03     93.5100E-03    -26.7382E-03     371.134E-03
            1813     15.7715E-03     34.4465E-03    -9.96598E+06     118.217E+06     22.4617E+06     181.664E+03    -49.0767E-03     75.6856E-03    -26.6089E-03     331.797E-03    -59.7739E-03     86.7020E-03    -26.6536E-03     332.989E-03
            1814     14.9002E-03     34.1975E-03    -9.61193E+06     56.3900E+06    -18.0577E+06    -308.067E+03    -36.9821E-03     63.3823E-03    -26.4002E-03     185.068E-03    -38.9396E-03     65.5582E-03    -26.5583E-03     184.713E-03
            1815     14.0243E-03     34.0895E-03    -8.21708E+06     8.21939E+06    -14.5916E+06     39.8343E+03    -29.6360E-03     56.0316E-03    -26.3956E-03     94.3832E-03    -30.0308E-03     56.4687E-03    -26.4686E-03     94.1443E-03
            1816     13.1480E-03     34.0161E-03    -8.31487E+06    -18.8381E+06    -11.3437E+06     213.977E+03    -28.7947E-03     55.1779E-03    -26.3832E-03     77.4188E-03    -28.9618E-03     55.2815E-03    -26.4005E-03     77.2449E-03
            1817     12.2727E-03     33.9406E-03    -8.37468E+06    -31.5074E+06    -3.73591E+06     215.889E+03    -28.7211E-03     55.0927E-03    -26.3716E-03     75.5197E-03    -28.8252E-03     55.0661E-03    -26.3325E-03     75.3812E-03
            1818     11.3966E-03     33.8705E-03    -8.80900E+06    -49.3232E+06    -3.98794E+06     576.454E+03    -28.4275E-03     54.7515E-03    -26.3240E-03     68.3310E-03    -28.4692E-03     54.5984E-03    -26.2596E-03     68.2259E-03
            1819     10.5210E-03     33.8083E-03    -9.27659E+06    -64.9404E+06    -4.81417E+06     599.498E+03    -28.1136E-03     54.3809E-03    -26.2672E-03     61.6327E-03    -28.1077E-03     54.1255E-03    -26.1837E-03     61.5532E-03
            1820     9.64477E-03     33.7511E-03    -9.94453E+06    -73.0716E+06    -1.91516E+06     575.735E+03    -27.8163E-03     54.0337E-03    -26.2174E-03     56.1071E-03    -27.7899E-03     53.7181E-03    -26.1066E-03     56.0471E-03
            1821     8.76884E-03     33.6994E-03    -10.9037E+06    -77.1064E+06    -79.9577E+03     512.270E+03    -27.5048E-03     53.6615E-03    -26.1567E-03     50.5139E-03    -27.4692E-03     53.3137E-03    -26.0295E-03     50.4684E-03
            1822     7.89241E-03     33.6529E-03    -12.2034E+06    -82.1411E+06    -819.767E+03     519.192E+03    -27.1886E-03     53.2762E-03    -26.0876E-03     44.9887E-03    -27.1438E-03     52.8989E-03    -25.9549E-03     44.9554E-03
            1823     7.01605E-03     33.6117E-03    -13.5914E+06    -87.8236E+06    -2.12819E+06     400.822E+03    -26.8896E-03     52.9109E-03    -26.0213E-03     39.5896E-03    -26.8367E-03     52.5041E-03    -25.8849E-03     39.5642E-03
            1824     6.13938E-03     33.5756E-03    -15.1627E+06    -92.5046E+06    -4.52331E+06     481.916E+03    -26.6179E-03     52.5722E-03    -25.9543E-03     34.2967E-03    -26.5593E-03     52.1444E-03    -25.8208E-03     34.2796E-03
            1825     5.26269E-03     33.5446E-03    -16.8661E+06    -96.8177E+06    -8.07775E+06     568.296E+03    -26.3699E-03     52.2581E-03    -25.8882E-03     29.1053E-03    -26.3060E-03     51.8141E-03    -25.7638E-03     29.0949E-03
            1826     4.38573E-03     33.5186E-03    -18.3980E+06    -101.775E+06    -11.2005E+06     365.534E+03    -26.1646E-03     51.9974E-03    -25.8328E-03     24.0323E-03    -26.0952E-03     51.5339E-03    -25.7145E-03     24.0238E-03
            1827     3.50879E-03     33.4974E-03    -19.6246E+06    -105.880E+06    -13.9483E+06     310.575E+03    -25.9949E-03     51.7801E-03    -25.7852E-03     19.0661E-03    -25.9206E-03     51.3007E-03    -25.6730E-03     19.0604E-03
            1828     2.63164E-03     33.4812E-03    -20.7069E+06    -108.057E+06    -17.2856E+06     342.989E+03    -25.8574E-03     51.5976E-03    -25.7403E-03     14.2315E-03    -25.7798E-03     51.1131E-03    -25.6400E-03     14.2292E-03
            1829     1.75450E-03     33.4694E-03    -21.6265E+06    -109.691E+06    -20.1589E+06     266.235E+03    -25.7746E-03     51.4754E-03    -25.7008E-03     9.51502E-03    -25.6947E-03     50.9878E-03    -25.6112E-03     9.51421E-03
            1830     877.281E-06     33.4626E-03    -22.0862E+06    -110.537E+06    -21.7835E+06     115.546E+03    -25.6776E-03     51.3664E-03    -25.6887E-03     5.11185E-03    -25.5960E-03     50.8777E-03    -25.6054E-03     5.11110E-03
            1831     16.6483E-03     33.8479E-03    -5.83383E+06     164.970E+06     90.6568E+06    -115.744E+03    -48.8420E-03     75.8424E-03    -27.0005E-03     360.885E-03    -66.7886E-03     94.0911E-03    -26.7779E-03     370.269E-03
            1832     15.7758E-03     33.4426E-03    -8.04835E+06     119.040E+06     23.0333E+06    -51.1797E+03    -50.3240E-03     76.9148E-03    -26.5907E-03     330.339E-03    -60.9914E-03     87.9094E-03    -26.6365E-03     331.376E-03
            1833     14.8994E-03     33.1963E-03    -8.37247E+06     55.8448E+06    -19.2383E+06     352.111E+03    -36.9921E-03     63.3235E-03    -26.3314E-03     183.794E-03    -38.9093E-03     65.4650E-03    -26.4964E-03     183.447E-03
            1834     14.0244E-03     33.0887E-03    -8.62599E+06     8.11917E+06    -15.5998E+06     528.083E+03    -29.7887E-03     56.1049E-03    -26.3161E-03     93.5204E-03    -30.1793E-03     56.5389E-03    -26.3934E-03     93.2872E-03
            1835     13.1495E-03     33.0159E-03    -8.49589E+06    -18.2564E+06    -11.6063E+06     302.685E+03    -28.8042E-03     55.0980E-03    -26.2938E-03     76.8408E-03    -28.9715E-03     55.2039E-03    -26.3130E-03     76.6686E-03
            1836     12.2735E-03     32.9399E-03    -8.70403E+06    -32.0452E+06    -4.48324E+06     279.397E+03    -28.7159E-03     54.9897E-03    -26.2737E-03     75.0884E-03    -28.8190E-03     54.9611E-03    -26.2371E-03     74.9513E-03
            1837     11.3981E-03     32.8705E-03    -9.15781E+06    -49.3624E+06    -4.35175E+06     530.826E+03    -28.4232E-03     54.6424E-03    -26.2192E-03     68.0049E-03    -28.4654E-03     54.4895E-03    -26.1561E-03     67.8998E-03
            1838     10.5219E-03     32.8084E-03    -9.51694E+06    -64.8715E+06    -5.11289E+06     658.456E+03    -28.1250E-03     54.2775E-03    -26.1526E-03     61.3071E-03    -28.1194E-03     54.0227E-03    -26.0703E-03     61.2290E-03
            1839     9.64622E-03     32.7515E-03    -10.0714E+06    -72.9210E+06    -2.10012E+06     640.584E+03    -27.8139E-03     53.9051E-03    -26.0912E-03     55.7557E-03    -27.7876E-03     53.5903E-03    -25.9814E-03     55.6971E-03
            1840     8.76986E-03     32.7000E-03    -11.1558E+06    -77.0465E+06    -346.241E+03     657.822E+03    -27.4653E-03     53.4844E-03    -26.0191E-03     50.1166E-03    -27.4303E-03     53.1372E-03    -25.8929E-03     50.0737E-03
            1841     7.89370E-03     32.6538E-03    -12.4050E+06    -81.8992E+06    -910.531E+03     551.414E+03    -27.1221E-03     53.0620E-03    -25.9400E-03     44.5899E-03    -27.0782E-03     52.6861E-03    -25.8078E-03     44.5576E-03
            1842     7.01710E-03     32.6129E-03    -13.8218E+06    -87.7031E+06     -2.2883E+06     473.243E+03    -26.8037E-03     52.6673E-03    -25.8635E-03     39.2214E-03    -26.7517E-03     52.2614E-03    -25.7278E-03     39.1975E-03
            1843     6.14048E-03     32.5770E-03    -15.3366E+06    -92.6333E+06    -4.69710E+06     542.854E+03    -26.4997E-03     52.2875E-03    -25.7878E-03     33.9392E-03    -26.4413E-03     51.8594E-03    -25.6547E-03     33.9234E-03
            1844     5.26352E-03     32.5463E-03    -16.6634E+06    -96.5544E+06    -8.01294E+06     558.154E+03    -26.2310E-03     51.9457E-03    -25.7147E-03     28.7829E-03    -26.1666E-03     51.5025E-03    -25.5906E-03     28.7729E-03
            1845     4.38657E-03     32.5205E-03    -17.9904E+06    -101.409E+06    -11.0536E+06     400.052E+03    -26.0072E-03     51.6608E-03    -25.6536E-03     23.7576E-03    -25.9364E-03     51.1982E-03    -25.5358E-03     23.7499E-03
            1846     3.50937E-03     32.4996E-03    -19.4932E+06    -105.817E+06    -14.0474E+06     221.866E+03    -25.8239E-03     51.4256E-03    -25.6017E-03     18.8580E-03    -25.7489E-03     50.9465E-03    -25.4902E-03     18.8515E-03
            1847     2.63218E-03     32.4833E-03    -20.7686E+06    -107.983E+06    -17.4335E+06     235.408E+03    -25.6798E-03     51.2332E-03    -25.5534E-03     14.0683E-03    -25.6024E-03     50.7493E-03    -25.4539E-03     14.0648E-03
            1848     1.75475E-03     32.4719E-03    -21.5645E+06    -109.398E+06    -20.1184E+06     228.733E+03    -25.5759E-03     51.0920E-03    -25.5161E-03     9.39035E-03    -25.4961E-03     50.6057E-03    -25.4268E-03     9.38918E-03
            1849     877.437E-06     32.4647E-03    -21.9065E+06    -110.225E+06    -21.7205E+06     79.9328E+03    -25.5046E-03     51.0040E-03    -25.4994E-03     4.99179E-03    -25.4226E-03     50.5165E-03    -25.4164E-03     4.99067E-03
            1850     16.6451E-03     32.8341E-03    -5.35611E+06     164.938E+06     89.3376E+06     36.0934E+03    -49.4641E-03     76.4409E-03    -26.9768E-03     361.073E-03    -67.4495E-03     94.7338E-03    -26.7615E-03     370.359E-03
            1851     15.7746E-03     32.4419E-03    -9.61133E+06     117.483E+06     20.7852E+06    -208.057E+03    -50.8062E-03     77.3245E-03    -26.5183E-03     326.604E-03    -61.3130E-03     88.1540E-03    -26.5708E-03     327.572E-03
            1852     14.9013E-03     32.1934E-03    -10.4477E+06     56.5122E+06    -19.1384E+06     426.352E+03    -37.0213E-03     63.2486E-03    -26.2273E-03     181.220E-03    -38.9208E-03     65.3671E-03    -26.3898E-03     180.872E-03
            1853     14.0269E-03     32.0883E-03    -9.84831E+06     9.04645E+06    -15.3798E+06         402.220    -29.5682E-03     55.7686E-03    -26.2004E-03     91.6491E-03    -29.9589E-03     56.2011E-03    -26.2762E-03     91.4126E-03
            1854     13.1508E-03     32.0153E-03    -9.24983E+06    -18.4550E+06    -11.8422E+06    -162.779E+03    -28.5721E-03     54.7520E-03    -26.1799E-03     76.2592E-03    -28.7402E-03     54.8561E-03    -26.1989E-03     76.0835E-03
            1855     12.2753E-03     31.9400E-03    -8.96597E+06    -32.0853E+06    -4.73305E+06     286.611E+03    -28.5369E-03     54.7012E-03    -26.1643E-03     74.9933E-03    -28.6395E-03     54.6718E-03    -26.1285E-03     74.8583E-03
            1856     11.3989E-03     31.8704E-03    -9.24227E+06    -49.7752E+06    -4.49999E+06     468.243E+03    -28.4132E-03     54.5220E-03    -26.1088E-03     67.7424E-03    -28.4541E-03     54.3664E-03    -26.0457E-03     67.6374E-03
            1857     10.5235E-03     31.8086E-03    -9.62199E+06    -64.7507E+06    -4.99452E+06     696.210E+03    -28.1494E-03     54.1814E-03    -26.0320E-03     60.9641E-03    -28.1439E-03     53.9264E-03    -25.9492E-03     60.8872E-03
            1858     9.64725E-03     31.7520E-03    -10.2422E+06    -72.9216E+06    -2.10929E+06     717.224E+03    -27.8237E-03     53.7804E-03    -25.9567E-03     55.3452E-03    -27.7977E-03     53.4653E-03    -25.8467E-03     55.2883E-03
            1859     8.77138E-03     31.7007E-03    -11.0779E+06    -76.8206E+06    -311.281E+03     686.299E+03    -27.4215E-03     53.2927E-03    -25.8711E-03     49.6614E-03    -27.3860E-03     52.9460E-03    -25.7452E-03     49.6196E-03
            1860     7.89482E-03     31.6550E-03    -12.2351E+06    -81.6992E+06    -875.933E+03     583.627E+03    -27.0490E-03     52.8300E-03    -25.7809E-03     44.1833E-03    -27.0043E-03     52.4543E-03    -25.6491E-03     44.1521E-03
            1861     7.01836E-03     31.6142E-03    -13.6704E+06    -87.6995E+06    -2.08159E+06     625.337E+03    -26.7126E-03     52.4077E-03    -25.6950E-03     38.8018E-03    -26.6599E-03     52.0011E-03    -25.5585E-03     38.7804E-03
            1862     6.14150E-03     31.5788E-03    -15.2901E+06    -92.4286E+06    -4.49181E+06     577.797E+03    -26.3843E-03     51.9930E-03    -25.6086E-03     33.5384E-03    -26.3261E-03     51.5653E-03    -25.4749E-03     33.5236E-03
            1863     5.26461E-03     31.5483E-03    -16.9021E+06    -96.4396E+06    -8.22572E+06     461.175E+03    -26.0861E-03     51.6107E-03    -25.5246E-03     28.4204E-03    -26.0225E-03     51.1686E-03    -25.4014E-03     28.4096E-03
            1864     4.38739E-03     31.5228E-03    -18.3519E+06    -101.141E+06    -11.8243E+06     482.345E+03    -25.8312E-03     51.2852E-03    -25.4540E-03     23.4414E-03    -25.7614E-03     50.8255E-03    -25.3399E-03     23.4351E-03
            1865     3.51011E-03     31.5020E-03    -19.6489E+06    -105.509E+06    -14.8728E+06     309.693E+03    -25.6342E-03     51.0315E-03    -25.3973E-03     18.5965E-03    -25.5592E-03     50.5553E-03    -25.2902E-03     18.5915E-03
            1866     2.63262E-03     31.4860E-03    -20.7730E+06    -107.936E+06    -17.7066E+06     165.596E+03    -25.4912E-03     50.8387E-03    -25.3475E-03     13.8699E-03    -25.4135E-03     50.3554E-03    -25.2494E-03     13.8657E-03
            1867     1.75526E-03     31.4745E-03    -21.6181E+06    -109.150E+06    -20.0505E+06     105.407E+03    -25.3706E-03     50.6783E-03    -25.3077E-03     9.24149E-03    -25.2916E-03     50.1932E-03    -25.2183E-03     9.23886E-03
            1868     877.548E-06     31.4678E-03    -22.1684E+06    -110.093E+06    -21.7356E+06     124.890E+03    -25.2805E-03     50.5830E-03    -25.3025E-03     4.92614E-03    -25.1999E-03     50.0965E-03    -25.2194E-03     4.92565E-03
            1869     16.6521E-03     31.8357E-03    -4.95457E+06     164.887E+06     89.1649E+06     1.24233E+06    -50.6466E-03     77.4891E-03    -26.8425E-03     359.418E-03    -68.3010E-03     95.4528E-03    -26.6285E-03     368.321E-03
            1870     15.7774E-03     31.4348E-03    -9.81335E+06     117.430E+06     21.3915E+06     818.805E+03    -50.2136E-03     76.5706E-03    -26.3570E-03     323.538E-03    -60.4934E-03     87.1704E-03    -26.4060E-03     324.478E-03
            1871     14.9054E-03     31.1941E-03    -11.0875E+06     57.4804E+06    -17.4359E+06    -693.035E+03    -36.5577E-03     62.6320E-03    -26.0742E-03     178.713E-03    -38.4291E-03     64.7186E-03    -26.2287E-03     178.354E-03
            1872     14.0284E-03     31.0872E-03    -9.44506E+06     9.55810E+06    -14.8380E+06    -527.590E+03    -28.8103E-03     54.8701E-03    -26.0599E-03     91.4566E-03    -29.1897E-03     55.2930E-03    -26.1342E-03     91.2244E-03
            1873     13.1529E-03     31.0163E-03    -8.80997E+06    -18.9285E+06    -12.0352E+06    -35.2236E+03    -28.2019E-03     54.2675E-03    -26.0655E-03     76.6437E-03    -28.3640E-03     54.3660E-03    -26.0855E-03     76.4738E-03
            1874     12.2759E-03     30.9399E-03    -9.22805E+06    -32.3168E+06    -5.13701E+06     95.0506E+03    -28.5671E-03     54.6215E-03    -26.0544E-03     75.2894E-03    -28.6693E-03     54.5911E-03    -26.0199E-03     75.1527E-03
            1875     11.4008E-03     30.8705E-03    -9.40202E+06    -50.0152E+06    -4.82273E+06     450.983E+03    -28.4658E-03     54.4534E-03    -25.9876E-03     67.3739E-03    -28.5053E-03     54.2960E-03    -25.9256E-03     67.2698E-03
            1876     10.5245E-03     30.8090E-03    -9.71823E+06    -64.9552E+06    -5.17723E+06     675.843E+03    -28.1744E-03     54.0714E-03    -25.8971E-03     60.5031E-03    -28.1679E-03     53.8150E-03    -25.8147E-03     60.4269E-03
            1877     9.64898E-03     30.7524E-03    -10.2556E+06    -72.7084E+06    -2.08412E+06     783.258E+03    -27.7908E-03     53.5997E-03    -25.8089E-03     54.7765E-03    -27.7645E-03     53.2849E-03    -25.6990E-03     54.7214E-03
            1878     8.77254E-03     30.7019E-03    -11.2664E+06    -76.5698E+06    -566.631E+03     615.180E+03    -27.3589E-03     53.0696E-03    -25.7107E-03     49.1779E-03    -27.3237E-03     52.7243E-03    -25.5862E-03     49.1362E-03
            1879     7.89630E-03     30.6562E-03    -12.4074E+06    -81.6655E+06    -1.00784E+06     596.645E+03    -26.9874E-03     52.5966E-03    -25.6092E-03     43.7114E-03    -26.9430E-03     52.2211E-03    -25.4778E-03     43.6812E-03
            1880     7.01957E-03     30.6161E-03    -13.7137E+06    -87.6166E+06    -2.12608E+06     633.198E+03    -26.6146E-03     52.1253E-03    -25.5108E-03     38.3090E-03    -26.5618E-03     51.7190E-03    -25.3745E-03     38.2884E-03
            1881     6.14278E-03     30.5808E-03    -15.0992E+06    -92.2260E+06    -4.64334E+06     600.988E+03    -26.2612E-03     51.6728E-03    -25.4116E-03     33.0831E-03    -26.2019E-03     51.2460E-03    -25.2792E-03     33.0692E-03
            1882     5.26563E-03     30.5507E-03    -16.6256E+06    -96.4174E+06    -8.28481E+06     707.160E+03    -25.9413E-03     51.2582E-03    -25.3169E-03     27.9937E-03    -25.8762E-03     50.8158E-03    -25.1944E-03     27.9866E-03
            1883     4.38837E-03     30.5254E-03    -18.1847E+06    -100.785E+06    -11.8763E+06     609.636E+03    -25.6662E-03     50.9009E-03    -25.2346E-03     23.0587E-03    -25.5959E-03     50.4427E-03    -25.1215E-03     23.0545E-03
            1884     3.51087E-03     30.5049E-03    -19.5386E+06    -105.137E+06    -14.8960E+06     397.246E+03    -25.4435E-03     50.6106E-03    -25.1671E-03     18.2604E-03    -25.3683E-03     50.1360E-03    -25.0608E-03     18.2568E-03
            1885     2.63334E-03     30.4890E-03    -20.6656E+06    -107.773E+06    -17.9326E+06     216.111E+03    -25.2536E-03     50.3652E-03    -25.1117E-03     13.5989E-03    -25.1752E-03     49.8829E-03    -25.0151E-03     13.5956E-03
            1886     1.75549E-03     30.4778E-03    -21.6137E+06    -109.072E+06    -20.3654E+06     151.389E+03    -25.1318E-03     50.2052E-03    -25.0734E-03     9.08551E-03    -25.0524E-03     49.7210E-03    -24.9857E-03     9.08361E-03
            1887     877.877E-06     30.4709E-03    -22.1558E+06    -109.815E+06    -21.7956E+06     16.1932E+03    -25.0705E-03     50.1196E-03    -25.0491E-03     4.84842E-03    -24.9901E-03     49.6346E-03    -24.9667E-03     4.84651E-03
            1888     16.6542E-03     30.8333E-03    -5.66783E+06     164.512E+06     89.7724E+06     1.01413E+06    -51.9722E-03     78.7046E-03    -26.7324E-03     357.402E-03    -69.3137E-03     96.3500E-03    -26.5139E-03     365.925E-03
            1889     15.7821E-03     30.4328E-03    -7.15402E+06     120.275E+06     24.8987E+06     1.34399E+06    -49.7573E-03     76.0014E-03    -26.2441E-03     327.210E-03    -60.0702E-03     86.6437E-03    -26.2836E-03     328.154E-03
            1890     14.9060E-03     30.1927E-03    -7.46627E+06     58.1325E+06    -15.1043E+06    -183.302E+03    -36.3072E-03     62.3015E-03    -25.9943E-03     179.371E-03    -38.1298E-03     64.3477E-03    -26.1432E-03     179.013E-03
            1891     14.0309E-03     30.0891E-03    -8.26373E+06     8.40736E+06    -14.3666E+06     248.390E+03    -28.9438E-03     54.9237E-03    -25.9799E-03     92.1266E-03    -29.3070E-03     55.3291E-03    -26.0520E-03     91.9032E-03
            1892     13.1527E-03     30.0167E-03    -8.67192E+06    -18.6625E+06    -12.0959E+06     516.259E+03    -28.4113E-03     54.3791E-03    -25.9678E-03     77.2748E-03    -28.5721E-03     54.4779E-03    -25.9886E-03     77.1115E-03
            1893     12.2780E-03     29.9395E-03    -8.82684E+06    -32.3471E+06    -5.14174E+06     223.810E+03    -28.7765E-03     54.7121E-03    -25.9357E-03     74.9836E-03    -28.8758E-03     54.6802E-03    -25.9017E-03     74.8483E-03
            1894     11.4018E-03     29.8709E-03    -9.41945E+06    -50.3482E+06    -5.16068E+06     427.068E+03    -28.5094E-03     54.3581E-03    -25.8487E-03     66.8711E-03    -28.5466E-03     54.1981E-03    -25.7878E-03     66.7677E-03
            1895     10.5266E-03     29.8090E-03    -9.75359E+06    -65.0069E+06    -5.36472E+06     650.455E+03    -28.1443E-03     53.8895E-03    -25.7452E-03     59.9866E-03    -28.1366E-03     53.6320E-03    -25.6637E-03     59.9112E-03
            1896     9.65028E-03     29.7535E-03    -10.3588E+06    -72.6225E+06    -2.23577E+06     747.210E+03    -27.7131E-03     53.3600E-03    -25.6470E-03     54.2419E-03    -27.6862E-03     53.0451E-03    -25.5378E-03     54.1878E-03
            1897     8.77423E-03     29.7029E-03    -11.2059E+06    -76.2900E+06    -483.859E+03     722.586E+03    -27.3193E-03     52.8569E-03    -25.5376E-03     48.6646E-03    -27.2838E-03     52.5122E-03    -25.4132E-03     48.6253E-03
            1898     7.89766E-03     29.6579E-03    -12.4463E+06    -81.5813E+06    -1.34718E+06     579.758E+03    -26.9294E-03     52.3485E-03    -25.4192E-03     43.1321E-03    -26.8844E-03     51.9736E-03    -25.2896E-03     43.1026E-03
            1899     7.02107E-03     29.6179E-03    -13.6903E+06    -87.5103E+06    -2.57046E+06     518.486E+03    -26.5240E-03     51.8283E-03    -25.3043E-03     37.7256E-03    -26.4703E-03     51.4228E-03    -25.1705E-03     37.7044E-03
            1900     6.14403E-03     29.5833E-03    -15.1674E+06    -92.3211E+06    -5.00698E+06     689.763E+03    -26.1386E-03     51.3292E-03    -25.1906E-03     32.5006E-03    -26.0787E-03     50.9023E-03    -25.0598E-03     32.4884E-03
            1901     5.26687E-03     29.5534E-03    -16.6560E+06    -96.2925E+06    -8.50424E+06     805.970E+03    -25.7974E-03     50.8778E-03    -25.0803E-03     27.4364E-03    -25.7322E-03     50.4362E-03    -24.9591E-03     27.4310E-03
            1902     4.38943E-03     29.5285E-03    -17.9381E+06    -100.386E+06    -11.7995E+06     772.518E+03    -25.4962E-03     50.4779E-03    -24.9816E-03     22.5524E-03    -25.4253E-03     50.0211E-03    -24.8691E-03     22.5506E-03
            1903     3.51186E-03     29.5082E-03    -19.2646E+06    -104.768E+06    -14.9042E+06     609.147E+03    -25.2234E-03     50.1220E-03    -24.8985E-03     17.8363E-03    -25.1474E-03     49.6488E-03    -24.7932E-03     17.8357E-03
            1904     2.63400E-03     29.4926E-03    -20.5253E+06    -107.510E+06    -18.0799E+06     473.594E+03    -25.0001E-03     49.8319E-03    -24.8318E-03     13.2539E-03    -24.9211E-03     49.3509E-03    -24.7366E-03     13.2541E-03
            1905     1.75610E-03     29.4815E-03    -21.5192E+06    -108.850E+06    -20.6042E+06     336.933E+03    -24.8499E-03     49.6380E-03    -24.7881E-03     8.85638E-03    -24.7700E-03     49.1551E-03    -24.7021E-03     8.85698E-03
            1906     877.962E-06     29.4746E-03    -22.0570E+06    -109.460E+06    -21.7655E+06     30.0242E+03    -24.7984E-03     49.5503E-03    -24.7519E-03     4.71602E-03    -24.7179E-03     49.0669E-03    -24.6700E-03     4.71440E-03
            1907     16.6551E-03     29.8310E-03    -5.99272E+06     164.546E+06     89.2834E+06    -127.740E+03    -51.2938E-03     78.2131E-03    -26.9193E-03     363.050E-03    -69.0213E-03     96.2445E-03    -26.7027E-03     371.727E-03
            1908     15.7773E-03     29.4295E-03    -8.30759E+06     119.168E+06     22.8860E+06    -754.488E+03    -53.8342E-03     80.2192E-03    -26.3850E-03     330.703E-03    -64.5041E-03     91.2161E-03    -26.4313E-03     331.241E-03
            1909     14.9048E-03     29.1899E-03    -7.51489E+06     56.5334E+06    -16.1118E+06     815.368E+03    -38.2938E-03     64.2765E-03    -25.9828E-03     173.849E-03    -40.0132E-03     66.2170E-03    -26.1344E-03     173.428E-03
            1910     14.0292E-03     29.0900E-03    -7.01515E+06     9.09535E+06    -12.8406E+06     1.63981E+06    -29.0333E-03     54.9308E-03    -25.8975E-03     89.5413E-03    -29.3755E-03     55.3176E-03    -25.9647E-03     89.3385E-03
            1911     13.1556E-03     29.0161E-03    -8.06761E+06    -18.2058E+06    -11.6479E+06     550.295E+03    -28.6319E-03     54.4928E-03    -25.8610E-03     77.4998E-03    -28.7925E-03     54.5939E-03    -25.8811E-03     77.3352E-03
            1912     12.2793E-03     28.9400E-03    -8.71987E+06    -32.4976E+06    -5.34252E+06     626.545E+03    -28.9059E-03     54.7133E-03    -25.8074E-03     74.8836E-03    -29.0033E-03     54.6798E-03    -25.7743E-03     74.7535E-03
            1913     11.4041E-03     28.8708E-03    -9.13103E+06    -50.2517E+06    -5.01425E+06     550.825E+03    -28.5249E-03     54.2310E-03    -25.7061E-03     66.7282E-03    -28.5599E-03     54.0697E-03    -25.6451E-03     66.6276E-03
            1914     10.5279E-03     28.8100E-03    -9.62586E+06    -65.2329E+06    -5.47277E+06     661.944E+03    -28.1268E-03     53.7167E-03    -25.5899E-03     59.6518E-03    -28.1167E-03     53.4568E-03    -25.5087E-03     59.5783E-03
            1915     9.65210E-03     28.7544E-03    -10.0639E+06    -72.4291E+06    -2.22282E+06     724.182E+03    -27.7454E-03     53.2210E-03    -25.4756E-03     53.7902E-03    -27.7164E-03     52.9057E-03    -25.3671E-03     53.7371E-03
            1916     8.77575E-03     28.7044E-03    -10.8329E+06    -76.2668E+06    -691.213E+03     677.389E+03    -27.3445E-03     52.6886E-03    -25.3441E-03     48.0347E-03    -27.3062E-03     52.3431E-03    -25.2213E-03     47.9958E-03
            1917     7.89943E-03     28.6596E-03    -11.8550E+06    -81.3117E+06    -1.50072E+06     733.222E+03    -26.8960E-03     52.0989E-03    -25.2029E-03     42.3853E-03    -26.8477E-03     51.7242E-03    -25.0753E-03     42.3587E-03
            1918     7.02260E-03     28.6203E-03    -13.5168E+06    -87.5948E+06    -2.87060E+06     822.038E+03    -26.4531E-03     51.5196E-03    -25.0665E-03     36.9480E-03    -26.3977E-03     51.1135E-03    -24.9342E-03     36.9314E-03
            1919     6.14566E-03     28.5859E-03    -15.2924E+06    -92.2538E+06    -5.24644E+06     912.824E+03    -26.0295E-03     50.9599E-03    -24.9304E-03     31.7238E-03    -25.9698E-03     50.5336E-03    -24.8007E-03     31.7150E-03
            1920     5.26832E-03     28.5566E-03    -16.8596E+06    -96.0813E+06    -8.97356E+06     868.405E+03    -25.6311E-03     50.4277E-03    -24.7967E-03     26.7218E-03    -25.5663E-03     49.9880E-03    -24.6778E-03     26.7177E-03
            1921     4.39078E-03     28.5319E-03    -18.2740E+06    -100.179E+06    -12.6611E+06     875.282E+03    -25.2725E-03     49.9496E-03    -24.6772E-03     21.9209E-03    -25.2022E-03     49.4956E-03    -24.5687E-03     21.9209E-03
            1922     3.51292E-03     28.5121E-03    -19.4720E+06    -104.359E+06    -15.6224E+06     866.422E+03    -24.9625E-03     49.5406E-03    -24.5781E-03     17.3006E-03    -24.8869E-03     49.0707E-03    -24.4767E-03     17.3035E-03
            1923     2.63490E-03     28.4967E-03    -20.5460E+06    -107.168E+06    -18.1323E+06     748.600E+03    -24.7166E-03     49.2147E-03    -24.4980E-03     12.8495E-03    -24.6382E-03     48.7354E-03    -24.4035E-03     12.8534E-03
            1924     1.75668E-03     28.4858E-03    -21.3520E+06    -108.223E+06    -20.1997E+06     599.021E+03    -24.5314E-03     48.9700E-03    -24.4386E-03     8.59119E-03    -24.4521E-03     48.4893E-03    -24.3518E-03     8.59529E-03
            1925     878.423E-06     28.4791E-03    -21.9717E+06    -109.150E+06    -21.8279E+06     234.147E+03    -24.4265E-03     48.8316E-03    -24.4051E-03     4.62197E-03    -24.3458E-03     48.3497E-03    -24.3241E-03     4.62307E-03
            1926     16.6321E-03     28.8220E-03    -5.38937E+06     164.845E+06     88.9350E+06    -563.439E+03    -53.0633E-03     80.1431E-03    -27.0798E-03     365.049E-03    -71.4061E-03     98.7970E-03    -26.8664E-03     373.909E-03
            1927     15.7707E-03     28.4072E-03    -7.70948E+06     116.031E+06     19.4389E+06    -1.69400E+06    -56.5829E-03     82.9113E-03    -26.3285E-03     309.153E-03    -66.4650E-03     93.1224E-03    -26.3883E-03     308.927E-03
            1928     14.9108E-03     28.1890E-03    -7.09939E+06     55.9961E+06     -18.533E+06     563.155E+03    -34.9861E-03     60.8203E-03    -25.8342E-03     164.601E-03    -36.4976E-03     62.5586E-03    -25.9978E-03     164.274E-03
            1929     14.0350E-03     28.0918E-03    -8.29128E+06     9.19715E+06    -15.3739E+06     1.60330E+06    -28.2842E-03     54.1219E-03    -25.8377E-03     92.9810E-03    -28.6412E-03     54.5267E-03    -25.9159E-03     92.7872E-03
            1930     13.1556E-03     28.0163E-03    -8.49049E+06    -17.9650E+06    -12.7261E+06     1.63121E+06    -29.2250E-03     55.0411E-03    -25.8161E-03     80.4193E-03    -29.3917E-03     55.1507E-03    -25.8414E-03     80.2635E-03
            1931     12.2810E-03     27.9396E-03    -8.68998E+06    -31.9304E+06    -5.50437E+06     929.561E+03    -29.3772E-03     55.1079E-03    -25.7306E-03     75.7808E-03    -29.4751E-03     55.0775E-03    -25.6993E-03     75.6530E-03
            1932     11.4050E-03     27.8715E-03    -9.01467E+06    -50.3699E+06    -5.63903E+06     688.226E+03    -28.8884E-03     54.4804E-03    -25.5920E-03     66.9175E-03    -28.9212E-03     54.3187E-03    -25.5341E-03     66.8186E-03
            1933     10.5296E-03     27.8105E-03    -9.19658E+06    -65.1427E+06    -6.03353E+06     755.067E+03    -28.4246E-03     53.8633E-03    -25.4388E-03     59.2823E-03    -28.4108E-03     53.6032E-03    -25.3612E-03     59.2106E-03
            1934     9.65368E-03     27.7556E-03    -9.71443E+06    -72.4452E+06    -2.83131E+06     747.633E+03    -27.9689E-03     53.2553E-03    -25.2864E-03     53.1055E-03    -27.9367E-03     52.9397E-03    -25.1815E-03     53.0532E-03
            1935     8.77779E-03     27.7058E-03    -10.6556E+06    -76.0902E+06    -1.15520E+06     827.587E+03    -27.4481E-03     52.5671E-03    -25.1189E-03     47.1101E-03    -27.4079E-03     52.2223E-03    -24.9989E-03     47.0738E-03
            1936     7.90132E-03     27.6618E-03    -12.0870E+06    -81.5164E+06    -2.13386E+06     1.01987E+06    -26.9053E-03     51.8500E-03    -24.9447E-03     41.3821E-03    -26.8565E-03     51.4752E-03    -24.8197E-03     41.3597E-03
            1937     7.02467E-03     27.6228E-03    -13.4609E+06    -87.4414E+06    -3.43612E+06     1.25049E+06    -26.3869E-03     51.1637E-03    -24.7768E-03     35.9474E-03    -26.3303E-03     50.7589E-03    -24.6477E-03     35.9367E-03
            1938     6.14754E-03     27.5891E-03    -14.9180E+06    -92.0218E+06    -5.80473E+06     1.17241E+06    -25.8905E-03     50.5022E-03    -24.6117E-03     30.7742E-03    -25.8283E-03     50.0772E-03    -24.4856E-03     30.7692E-03
            1939     5.27015E-03     27.5601E-03    -16.4163E+06    -95.8084E+06    -9.15190E+06     1.14025E+06    -25.4178E-03     49.8725E-03    -24.4547E-03     25.8576E-03    -25.3508E-03     49.4336E-03    -24.3377E-03     25.8573E-03
            1940     4.39233E-03     27.5361E-03    -17.7983E+06    -99.9687E+06    -12.3987E+06     1.10587E+06    -24.9942E-03     49.3113E-03    -24.3171E-03     21.1690E-03    -24.9221E-03     48.8571E-03    -24.2083E-03     21.1722E-03
            1941     3.51426E-03     27.5165E-03    -19.1169E+06    -104.055E+06    -15.1376E+06     1.15899E+06    -24.6468E-03     48.8486E-03    -24.2018E-03     16.6811E-03    -24.5706E-03     48.3790E-03    -24.0989E-03     16.6881E-03
            1942     2.63595E-03     27.5015E-03    -20.3315E+06    -106.497E+06    -17.8394E+06     1.02219E+06    -24.3639E-03     48.4685E-03    -24.1046E-03     12.3837E-03    -24.2858E-03     47.9919E-03    -24.0099E-03     12.3913E-03
            1943     1.75740E-03     27.4908E-03    -21.1578E+06    -107.609E+06    -19.9645E+06     695.709E+03    -24.1493E-03     48.1799E-03    -24.0306E-03     8.27348E-03    -24.0702E-03     47.7016E-03    -23.9437E-03     8.27894E-03
            1944     878.707E-06     27.4842E-03    -21.6056E+06    -108.378E+06    -21.4378E+06     510.502E+03    -24.0105E-03     48.0018E-03    -23.9913E-03     4.48882E-03    -23.9296E-03     47.5226E-03    -23.9100E-03     4.49349E-03
            1945     16.6466E-03     27.7791E-03    -1.67461E+06     166.351E+06     94.6174E+06    -1.21842E+06    -55.3288E-03     81.7364E-03    -26.4075E-03     351.035E-03    -72.4785E-03     99.2007E-03    -26.1732E-03     358.488E-03
            1946     15.8048E-03     27.4136E-03    -3.20763E+06     118.519E+06     26.1989E+06     359.806E+03    -41.5430E-03     67.4198E-03    -25.8768E-03     298.785E-03    -49.9399E-03     76.1485E-03    -25.9130E-03     299.586E-03
            1947     14.9083E-03     27.1959E-03    -8.77458E+06     52.0042E+06    -22.0792E+06     2.78552E+06    -29.4520E-03     55.3612E-03    -25.9092E-03     180.720E-03    -30.9781E-03     57.1042E-03    -26.0823E-03     180.615E-03
            1948     14.0255E-03     27.0912E-03    -11.0041E+06     7.79726E+06    -19.3868E+06     3.00298E+06    -31.2191E-03     57.2617E-03    -26.0426E-03     100.298E-03    -31.6251E-03     57.7121E-03    -26.1348E-03     100.083E-03
            1949     13.1548E-03     27.0143E-03    -9.52297E+06    -15.5397E+06    -12.9068E+06     1.59915E+06    -31.2966E-03     57.1897E-03    -25.8931E-03     80.6451E-03    -31.4747E-03     57.3163E-03    -25.9213E-03     80.4737E-03
            1950     12.2800E-03     26.9392E-03    -8.66042E+06    -31.7867E+06    -6.35340E+06     783.751E+03    -30.3524E-03     56.0563E-03    -25.7039E-03     75.2944E-03    -30.4492E-03     56.0280E-03    -25.6770E-03     75.1605E-03
            1951     11.4060E-03     26.8708E-03    -8.67199E+06    -50.2269E+06    -6.71484E+06     889.912E+03    -29.7186E-03     55.2096E-03    -25.4910E-03     65.9469E-03    -29.7484E-03     55.0498E-03    -25.4392E-03     65.8474E-03
            1952     10.5311E-03     26.8112E-03    -9.09436E+06    -65.0832E+06    -6.84701E+06     878.345E+03    -29.0069E-03     54.2774E-03    -25.2705E-03     58.1154E-03    -28.9914E-03     54.0184E-03    -25.1972E-03     58.0436E-03
            1953     9.65593E-03     26.7563E-03    -9.71722E+06    -72.4491E+06    -3.70054E+06     1.05858E+06    -28.3027E-03     53.3615E-03    -25.0589E-03     51.8579E-03    -28.2688E-03     53.0467E-03    -24.9582E-03     51.8092E-03
            1954     8.78006E-03     26.7076E-03    -10.9364E+06    -76.1046E+06    -1.89452E+06     1.27811E+06    -27.5931E-03     52.4363E-03    -24.8432E-03     45.7879E-03    -27.5528E-03     52.0925E-03    -24.7264E-03     45.7575E-03
            1955     7.90387E-03     26.6640E-03    -12.2410E+06    -81.5155E+06    -2.98175E+06     1.41523E+06    -26.9192E-03     51.5451E-03    -24.6259E-03     40.0950E-03    -26.8696E-03     51.1714E-03    -24.5049E-03     40.0780E-03
            1956     7.02710E-03     26.6259E-03    -13.5419E+06    -87.1718E+06    -4.36579E+06     1.33144E+06    -26.2790E-03     50.6997E-03    -24.4206E-03     34.7343E-03    -26.2216E-03     50.2974E-03    -24.2964E-03     34.7250E-03
            1957     6.14993E-03     26.5926E-03    -14.7617E+06    -91.8082E+06    -6.47630E+06     1.37799E+06    -25.6797E-03     49.9062E-03    -24.2265E-03     29.6678E-03    -25.6158E-03     49.4828E-03    -24.1044E-03     29.6658E-03
            1958     5.27226E-03     26.5644E-03    -16.0849E+06    -95.5207E+06    -9.33809E+06     1.42399E+06    -25.1346E-03     49.1815E-03    -24.0469E-03     24.8661E-03    -25.0660E-03     48.7438E-03    -23.9318E-03     24.8698E-03
            1959     4.39424E-03     26.5408E-03    -17.4836E+06    -99.6685E+06    -11.9912E+06     1.43288E+06    -24.6520E-03     48.5437E-03    -23.8916E-03     20.3351E-03    -24.5793E-03     48.0898E-03    -23.7817E-03     20.3429E-03
            1960     3.51584E-03     26.5218E-03    -18.8417E+06    -103.702E+06    -14.6043E+06     1.42247E+06    -24.2507E-03     48.0117E-03    -23.7610E-03     16.0226E-03    -24.1743E-03     47.5427E-03    -23.6564E-03     16.0331E-03
            1961     2.63712E-03     26.5071E-03    -19.9086E+06    -105.610E+06    -17.4390E+06     1.24601E+06    -23.9368E-03     47.5874E-03    -23.6506E-03     11.8832E-03    -23.8584E-03     47.1140E-03    -23.5558E-03     11.8939E-03
            1962     1.75826E-03     26.4966E-03    -20.7490E+06    -106.776E+06    -19.6825E+06     883.529E+03    -23.7037E-03     47.2699E-03    -23.5662E-03     7.93624E-03    -23.6242E-03     46.7947E-03    -23.4797E-03     7.94423E-03
            1963     879.184E-06     26.4903E-03    -21.3992E+06    -107.505E+06    -21.0354E+06     573.663E+03    -23.5467E-03     47.0629E-03    -23.5162E-03     4.29535E-03    -23.4666E-03     46.5872E-03    -23.4345E-03     4.30088E-03
            1964     16.7126E-03     26.7929E-03    -3.30174E+06     164.833E+06     92.4091E+06    -3.07704E+06    -50.7179E-03     76.9639E-03    -26.2460E-03     369.688E-03    -68.0168E-03     94.5739E-03    -26.0182E-03     378.173E-03
            1965     15.7787E-03     26.4437E-03    -11.2154E+06     113.242E+06     20.8565E+06     1.94781E+06    -35.3063E-03     61.5133E-03    -26.2070E-03     331.329E-03    -44.4958E-03     70.9956E-03    -26.2507E-03     333.726E-03
            1966     14.8869E-03     26.1935E-03    -14.1722E+06     52.1268E+06    -26.8531E+06     5.04417E+06    -36.8609E-03     63.2311E-03    -26.3702E-03     191.766E-03    -38.6797E-03     65.2619E-03    -26.5595E-03     191.509E-03
            1967     14.0252E-03     26.0813E-03    -11.4390E+06     11.6822E+06    -21.7277E+06     700.602E+03    -35.1783E-03     61.3914E-03    -26.2131E-03     93.7067E-03    -35.5921E-03     61.8686E-03    -26.3221E-03     93.4123E-03
            1968     13.1540E-03     26.0125E-03    -9.16252E+06    -15.7036E+06    -13.7840E+06    -251.662E+03    -32.7460E-03     58.6390E-03    -25.8930E-03     74.8120E-03    -32.9188E-03     58.7636E-03    -25.9259E-03     74.6037E-03
            1969     12.2813E-03     25.9366E-03    -8.72524E+06    -31.7110E+06    -7.36413E+06     970.519E+03    -31.2246E-03     56.8344E-03    -25.6098E-03     72.5271E-03    -31.3196E-03     56.8072E-03    -25.5880E-03     72.3908E-03
            1970     11.4076E-03     25.8700E-03    -9.32905E+06    -49.9291E+06    -7.98426E+06     942.642E+03    -30.4087E-03     55.7309E-03    -25.3222E-03     63.5335E-03    -30.4398E-03     55.5748E-03    -25.2762E-03     63.4315E-03
            1971     10.5336E-03     25.8108E-03    -9.59243E+06    -65.3510E+06    -7.88538E+06     1.07944E+06    -29.5082E-03     54.5423E-03    -25.0341E-03     55.9467E-03    -29.4929E-03     54.2838E-03    -24.9649E-03     55.8754E-03
            1972     9.65863E-03     25.7575E-03    -10.1338E+06    -72.2857E+06    -4.70369E+06     1.36842E+06    -28.5562E-03     53.3176E-03    -24.7614E-03     49.9778E-03    -28.5227E-03     53.0052E-03    -24.6654E-03     49.9324E-03
            1973     8.78313E-03     25.7092E-03    -10.9113E+06    -76.4459E+06    -2.62683E+06     1.58988E+06    -27.6729E-03     52.1698E-03    -24.4969E-03     44.0926E-03    -27.6305E-03     51.8249E-03    -24.3833E-03     44.0661E-03
            1974     7.90691E-03     25.6668E-03    -12.0138E+06    -80.9995E+06    -3.23700E+06     1.72632E+06    -26.8468E-03     51.0850E-03    -24.2382E-03     38.5748E-03    -26.7962E-03     50.7136E-03    -24.1195E-03     38.5621E-03
            1975     7.03012E-03     25.6293E-03    -13.2820E+06    -86.8785E+06    -4.60892E+06     1.54700E+06    -26.0837E-03     50.0822E-03    -23.9985E-03     33.3905E-03    -26.0248E-03     49.6811E-03    -23.8764E-03     33.3845E-03
            1976     6.15271E-03     25.5970E-03    -14.7297E+06    -91.7245E+06    -6.50482E+06     1.60591E+06    -25.3857E-03     49.1640E-03    -23.7782E-03     28.4875E-03    -25.3216E-03     48.7407E-03    -23.6564E-03     28.4890E-03
            1977     5.27480E-03     25.5693E-03    -16.1789E+06    -95.1716E+06    -9.58958E+06     1.70537E+06    -24.7672E-03     48.3424E-03    -23.5752E-03     23.8536E-03    -24.6990E-03     47.9067E-03    -23.4617E-03     23.8614E-03
            1978     4.39641E-03     25.5465E-03    -17.4668E+06    -99.2803E+06    -12.0893E+06     1.67884E+06    -24.2342E-03     47.6369E-03    -23.4027E-03     19.4794E-03    -24.1618E-03     47.1850E-03    -23.2939E-03     19.4907E-03
            1979     3.51759E-03     25.5279E-03    -18.5902E+06    -103.115E+06    -14.5989E+06     1.58854E+06    -23.7886E-03     47.0470E-03    -23.2584E-03     15.3415E-03    -23.7118E-03     46.5804E-03    -23.1549E-03     15.3546E-03
            1980     2.63852E-03     25.5136E-03    -19.5951E+06    -104.821E+06    -17.3539E+06     1.37413E+06    -23.4362E-03     46.5766E-03    -23.1404E-03     11.3724E-03    -23.3575E-03     46.1065E-03    -23.0467E-03     11.3851E-03
            1981     1.75910E-03     25.5035E-03    -20.3442E+06    -105.715E+06    -19.2638E+06     1.08437E+06    -23.1913E-03     46.2464E-03    -23.0552E-03     7.61027E-03    -23.1119E-03     45.7754E-03    -22.9687E-03     7.62101E-03
            1982     879.619E-06     25.4973E-03    -20.9101E+06    -106.322E+06    -20.4899E+06     540.989E+03    -23.0592E-03     46.0405E-03    -22.9813E-03     4.09815E-03    -22.9792E-03     45.5693E-03    -22.8993E-03     4.10337E-03
            1983     16.6109E-03     25.8016E-03    -7.81913E+06     158.932E+06     80.0288E+06     943.981E+03    -41.9844E-03     69.3652E-03    -27.3809E-03     360.399E-03    -59.2056E-03     86.8964E-03    -27.1998E-03     370.030E-03
            1984     15.7475E-03     25.4299E-03    -17.9765E+06     111.464E+06     15.5260E+06     3.31916E+06    -52.5180E-03     79.6262E-03    -27.1082E-03     323.974E-03    -63.0008E-03     90.3893E-03    -27.1661E-03     325.321E-03
            1985     14.9030E-03     25.1827E-03    -15.6515E+06     61.5050E+06    -18.2542E+06    -844.706E+03    -45.5614E-03     72.0826E-03    -26.5212E-03     175.766E-03    -47.5532E-03     74.2897E-03    -26.6790E-03     175.161E-03
            1986     14.0281E-03     25.0757E-03    -9.49791E+06     13.8201E+06    -21.1821E+06    -2.45968E+06    -34.7485E-03     60.7718E-03    -26.0233E-03     86.7410E-03    -35.1280E-03     61.2280E-03    -26.1355E-03     86.4182E-03
            1987     13.1570E-03     25.0078E-03    -8.86344E+06    -19.0032E+06    -15.7045E+06     28.4379E+03    -32.7444E-03     58.4303E-03    -25.6860E-03     69.8804E-03    -32.9034E-03     58.5360E-03    -25.7241E-03     69.6746E-03
            1988     12.2843E-03     24.9353E-03    -9.66233E+06    -31.4339E+06    -8.13691E+06     1.09766E+06    -31.6890E-03     57.0510E-03    -25.3620E-03     68.9457E-03    -31.7866E-03     57.0264E-03    -25.3431E-03     68.8074E-03
            1989     11.4109E-03     24.8680E-03    -9.65527E+06    -49.6883E+06    -8.50559E+06     1.19641E+06    -30.5726E-03     55.5955E-03    -25.0229E-03     60.6417E-03    -30.6031E-03     55.4401E-03    -24.9794E-03     60.5426E-03
            1990     10.5371E-03     24.8110E-03    -9.97834E+06    -65.4424E+06    -8.57686E+06     1.22086E+06    -29.6057E-03     54.2973E-03    -24.6915E-03     53.2985E-03    -29.5902E-03     54.0390E-03    -24.6251E-03     53.2285E-03
            1991     9.66242E-03     24.7583E-03    -10.3881E+06    -72.4585E+06    -5.19044E+06     1.43477E+06    -28.5580E-03     52.9363E-03    -24.3783E-03     47.8569E-03    -28.5241E-03     52.6234E-03    -24.2841E-03     47.8125E-03
            1992     8.78689E-03     24.7116E-03    -11.0976E+06    -76.4018E+06    -3.16070E+06     1.69203E+06    -27.5615E-03     51.6370E-03    -24.0756E-03     42.3081E-03    -27.5187E-03     51.2928E-03    -23.9645E-03     42.2835E-03
            1993     7.91057E-03     24.6699E-03    -11.9748E+06    -80.8377E+06    -3.29981E+06     1.79283E+06    -26.6341E-03     50.4203E-03    -23.7862E-03     37.0377E-03    -26.5829E-03     50.0492E-03    -23.6682E-03     37.0267E-03
            1994     7.03353E-03     24.6336E-03    -13.1630E+06    -86.4175E+06    -4.47402E+06     1.93102E+06    -25.7782E-03     49.2979E-03    -23.5197E-03     32.0536E-03    -25.7192E-03     48.8984E-03    -23.3977E-03     32.0534E-03
            1995     6.15584E-03     24.6020E-03    -14.5819E+06    -91.6156E+06    -6.44318E+06     1.89701E+06    -25.0101E-03     48.2870E-03    -23.2769E-03     27.3406E-03    -24.9452E-03     47.8638E-03    -23.1552E-03     27.3467E-03
            1996     5.27757E-03     24.5753E-03    -15.8695E+06    -94.7799E+06    -9.41848E+06     1.96172E+06    -24.3336E-03     47.3891E-03    -23.0555E-03     22.8756E-03    -24.2645E-03     46.9545E-03    -22.9421E-03     22.8874E-03
            1997     4.39877E-03     24.5530E-03    -17.0792E+06    -98.7299E+06    -12.1378E+06     1.88216E+06    -23.7612E-03     46.6277E-03    -22.8665E-03     18.6612E-03    -23.6874E-03     46.1780E-03    -22.7593E-03     18.6757E-03
            1998     3.51960E-03     24.5351E-03    -18.2543E+06    -102.500E+06    -14.5200E+06     1.78805E+06    -23.2811E-03     45.9915E-03    -22.7104E-03     14.6683E-03    -23.2035E-03     45.5273E-03    -22.6079E-03     14.6844E-03
            1999     2.63994E-03     24.5212E-03    -19.2628E+06    -103.834E+06    -17.1493E+06     1.53656E+06    -22.8973E-03     45.4809E-03    -22.5835E-03     10.8642E-03    -22.8186E-03     45.0149E-03    -22.4908E-03     10.8793E-03
            2000     1.76014E-03     24.5114E-03    -20.0043E+06    -104.693E+06    -19.0578E+06     1.00398E+06    -22.6308E-03     45.1255E-03    -22.4947E-03     7.25449E-03    -22.5515E-03     44.6587E-03    -22.4092E-03     7.26438E-03
            2001     880.074E-06     24.5054E-03    -20.0751E+06    -104.953E+06    -19.9287E+06     551.139E+03    -22.4865E-03     44.9216E-03    -22.4351E-03     3.92729E-03    -22.4052E-03     44.4551E-03    -22.3534E-03     3.93273E-03
            2002     16.6277E-03     24.8062E-03    -7.78242E+06     158.682E+06     83.7847E+06     4.17307E+06    -45.9235E-03     73.5610E-03    -27.6375E-03     332.435E-03    -62.2252E-03     90.1569E-03    -27.4374E-03     340.330E-03
            2003     15.7739E-03     24.3992E-03    -8.03068E+06     120.352E+06     26.6799E+06     1.47381E+06    -57.7062E-03     84.6219E-03    -26.9157E-03     298.420E-03    -67.9466E-03     95.1832E-03    -26.9452E-03     298.536E-03
            2004     14.9022E-03     24.1769E-03    -3.59856E+06     60.7599E+06    -16.2271E+06    -2.22265E+06    -42.9542E-03     69.0179E-03    -26.0638E-03     164.218E-03    -44.7751E-03     71.0891E-03    -26.2278E-03     163.641E-03
            2005     14.0339E-03     24.0718E-03    -6.47241E+06     11.0444E+06    -20.7507E+06     988.476E+03    -33.7200E-03     59.3354E-03    -25.6154E-03     82.7381E-03    -34.0655E-03     59.7574E-03    -25.7258E-03     82.4720E-03
            2006     13.1611E-03     24.0039E-03    -8.89434E+06    -17.8892E+06    -15.2216E+06     1.42127E+06    -32.0356E-03     57.3329E-03    -25.2974E-03     66.3479E-03    -32.1889E-03     57.4353E-03    -25.3346E-03     66.1670E-03
            2007     12.2896E-03     23.9328E-03    -8.86801E+06    -33.2331E+06    -9.59622E+06     891.809E+03    -31.5776E-03     56.5359E-03    -24.9583E-03     65.5579E-03    -31.6643E-03     56.5010E-03    -24.9452E-03     65.4166E-03
            2008     11.4162E-03     23.8676E-03    -9.17582E+06    -48.5652E+06    -7.84422E+06     1.57691E+06    -30.3072E-03     54.9095E-03    -24.6024E-03     58.1678E-03    -30.3354E-03     54.7555E-03    -24.5578E-03     58.0759E-03
            2009     10.5419E-03     23.8110E-03    -9.53201E+06    -65.6975E+06    -9.08335E+06     1.45185E+06    -29.2648E-03     53.5164E-03    -24.2517E-03     51.2415E-03    -29.2440E-03     53.2550E-03    -24.1880E-03     51.1770E-03
            2010     9.66696E-03     23.7601E-03    -10.1426E+06    -72.4963E+06    -5.18695E+06     1.72633E+06    -28.2905E-03     52.2145E-03    -23.9240E-03     45.9935E-03    -28.2542E-03     51.8999E-03    -23.8301E-03     45.9544E-03
            2011     8.79109E-03     23.7143E-03    -10.9898E+06    -76.1523E+06    -3.35781E+06     1.71674E+06    -27.2569E-03     50.8563E-03    -23.5993E-03     40.7563E-03    -27.2128E-03     50.5125E-03    -23.4897E-03     40.7337E-03
            2012     7.91456E-03     23.6740E-03    -11.9354E+06    -80.9506E+06    -3.63531E+06     1.87337E+06    -26.3034E-03     49.5925E-03    -23.2891E-03     35.6343E-03    -26.2508E-03     49.2206E-03    -23.1726E-03     35.6257E-03
            2013     7.03721E-03     23.6386E-03    -13.0691E+06    -86.2022E+06    -4.56358E+06     2.19931E+06    -25.3998E-03     48.4025E-03    -23.0027E-03     30.8194E-03    -25.3400E-03     48.0036E-03    -22.8816E-03     30.8239E-03
            2014     6.15918E-03     23.6081E-03    -14.3762E+06    -91.0860E+06    -6.54892E+06     2.22007E+06    -24.5861E-03     47.3264E-03    -22.7404E-03     26.2378E-03    -24.5204E-03     46.9053E-03    -22.6202E-03     26.2491E-03
            2015     5.28050E-03     23.5821E-03    -15.6746E+06    -94.4754E+06    -9.56215E+06     2.10162E+06    -23.8650E-03     46.3672E-03    -22.5022E-03     21.9166E-03    -23.7950E-03     45.9339E-03    -22.3903E-03     21.9311E-03
            2016     4.40130E-03     23.5606E-03    -16.8504E+06    -98.1881E+06    -12.4303E+06     2.20920E+06    -23.2509E-03     45.5489E-03    -22.2980E-03     17.8462E-03    -23.1762E-03     45.1018E-03    -22.1933E-03     17.8656E-03
            2017     3.52157E-03     23.5433E-03    -18.0416E+06    -101.663E+06    -14.4577E+06     2.02184E+06    -22.7443E-03     44.8753E-03    -22.1310E-03     13.9998E-03    -22.6669E-03     44.4149E-03    -22.0297E-03     14.0194E-03
            2018     2.64158E-03     23.5300E-03    -19.0303E+06    -102.639E+06    -16.6609E+06     1.56057E+06    -22.3440E-03     44.3369E-03    -21.9929E-03     10.3613E-03    -22.2665E-03     43.8758E-03    -21.8998E-03     10.3770E-03
            2019     1.76118E-03     23.5204E-03    -19.5392E+06    -103.450E+06    -18.5041E+06     996.391E+03    -22.0513E-03     43.9416E-03    -21.8902E-03     6.90426E-03    -21.9723E-03     43.4796E-03    -21.8044E-03     6.91430E-03
            2020     880.678E-06     23.5147E-03    -19.8628E+06    -104.047E+06    -19.7193E+06     567.860E+03    -21.8508E-03     43.6969E-03    -21.8462E-03     3.73324E-03    -21.7701E-03     43.2345E-03    -21.7651E-03     3.73901E-03
            2021     16.6579E-03     23.7871E-03    -5.00575E+06     163.798E+06     91.2136E+06     2.04137E+06    -56.1322E-03     83.0830E-03    -26.9507E-03     345.168E-03    -73.0180E-03     100.268E-03    -26.7249E-03     352.533E-03
            2022     15.7853E-03     23.4056E-03    -4.41484E+06     120.757E+06     27.3710E+06    -973.021E+03    -53.4145E-03     79.5294E-03    -26.1149E-03     307.653E-03    -63.2744E-03     89.7229E-03    -26.1467E-03     308.006E-03
            2023     14.9132E-03     23.1664E-03    -6.96138E+06     55.6064E+06    -26.9125E+06     1.12764E+06    -40.1206E-03     65.5684E-03    -25.4478E-03     163.568E-03    -41.8061E-03     67.5047E-03    -25.6529E-03     163.122E-03
            2024     14.0430E-03     23.0701E-03    -7.58597E+06     10.2718E+06    -22.6430E+06     2.77493E+06    -33.0110E-03     58.1188E-03    -25.1078E-03     78.9349E-03    -33.3447E-03     58.5278E-03    -25.2250E-03     78.6981E-03
            2025     13.1695E-03     23.0021E-03    -6.83941E+06    -16.1793E+06    -13.2841E+06     2.12472E+06    -31.2146E-03     56.0265E-03    -24.8119E-03     65.8329E-03    -31.3552E-03     56.1239E-03    -24.8450E-03     65.6719E-03
            2026     12.2955E-03     22.9308E-03    -7.32894E+06    -33.1509E+06    -9.81631E+06     1.92917E+06    -30.9101E-03     55.3917E-03    -24.4816E-03     64.2508E-03    -30.9842E-03     55.3505E-03    -24.4719E-03     64.1296E-03
            2027     11.4219E-03     22.8681E-03    -8.09855E+06    -49.1048E+06    -8.04387E+06     1.91308E+06    -29.9142E-03     54.0427E-03    -24.1286E-03     56.6632E-03    -29.9327E-03     53.8816E-03    -24.0858E-03     56.5799E-03
            2028     10.5471E-03     22.8122E-03    -8.63397E+06    -64.6623E+06    -9.08670E+06     2.19502E+06    -28.8216E-03     52.5913E-03    -23.7698E-03     50.0556E-03    -28.7954E-03     52.3313E-03    -23.7089E-03     50.0050E-03
            2029     9.67170E-03     22.7625E-03    -9.15407E+06    -73.0470E+06    -5.86320E+06     2.00450E+06    -27.9024E-03     51.3351E-03    -23.4327E-03     44.6105E-03    -27.8578E-03     51.0157E-03    -23.3428E-03     44.5779E-03
            2030     8.79560E-03     22.7180E-03    -10.0419E+06    -75.4870E+06    -3.20484E+06     2.25531E+06    -26.8903E-03     49.9871E-03    -23.0968E-03     39.3948E-03    -26.8416E-03     49.6441E-03    -22.9888E-03     39.3814E-03
            2031     7.91864E-03     22.6788E-03    -11.3632E+06    -81.0884E+06    -4.20847E+06     2.19212E+06    -25.9153E-03     48.6837E-03    -22.7685E-03     34.3585E-03    -25.8579E-03     48.3104E-03    -22.6555E-03     34.3558E-03
            2032     7.04099E-03     22.6446E-03    -12.6226E+06    -86.1219E+06    -4.55734E+06     2.47404E+06    -25.0046E-03     47.4714E-03    -22.4668E-03     29.6035E-03    -24.9422E-03     47.0717E-03    -22.3464E-03     29.6130E-03
            2033     6.16259E-03     22.6150E-03    -13.8419E+06    -90.3800E+06    -6.62276E+06     2.46236E+06    -24.1469E-03     46.3310E-03    -22.1841E-03     25.1429E-03    -24.0791E-03     45.9125E-03    -22.0661E-03     25.1584E-03
            2034     5.28355E-03     22.5901E-03    -15.1017E+06    -94.2184E+06    -9.25263E+06     2.45536E+06    -23.3885E-03     45.3192E-03    -21.9306E-03     20.9431E-03    -23.3162E-03     44.8856E-03    -21.8184E-03     20.9630E-03
            2035     4.40387E-03     22.5693E-03    -16.4740E+06    -97.6496E+06    -11.6801E+06     2.58081E+06    -22.7315E-03     44.4436E-03    -21.7121E-03     17.0054E-03    -22.6566E-03     43.9974E-03    -21.6050E-03     17.0303E-03
            2036     3.52376E-03     22.5526E-03    -17.6279E+06    -100.357E+06    -13.9812E+06     2.23536E+06    -22.1894E-03     43.7177E-03    -21.5283E-03     13.3031E-03    -22.1125E-03     43.2625E-03    -21.4271E-03     13.3260E-03
            2037     2.64313E-03     22.5398E-03    -18.4817E+06    -101.401E+06    -16.1775E+06     1.51136E+06    -21.7613E-03     43.1389E-03    -21.3776E-03     9.83740E-03    -21.6835E-03     42.6825E-03    -21.2847E-03     9.85283E-03
            2038     1.76234E-03     22.5307E-03    -19.1887E+06    -102.277E+06    -17.9331E+06     968.695E+03    -21.4469E-03     42.7106E-03    -21.2637E-03     6.54771E-03    -21.3686E-03     42.2531E-03    -21.1773E-03     6.55764E-03
            2039     881.201E-06     22.5251E-03    -19.7726E+06    -103.034E+06    -19.3826E+06     644.532E+03    -21.2499E-03     42.4282E-03    -21.1783E-03     3.53390E-03    -21.1708E-03     41.9702E-03    -21.0972E-03     3.54083E-03
            2040     16.6537E-03     22.7826E-03    -5.33559E+06     162.152E+06     86.7036E+06    -326.049E+03    -57.5064E-03     84.1045E-03    -26.5980E-03     347.520E-03    -74.1149E-03     101.018E-03    -26.3919E-03     354.787E-03
            2041     15.7861E-03     22.3939E-03    -8.29930E+06     118.248E+06     26.1189E+06     1.44229E+06    -54.8824E-03     80.6181E-03    -25.7357E-03     310.446E-03    -64.5259E-03     90.5764E-03    -25.7646E-03     310.821E-03
            2042     14.9217E-03     22.1638E-03    -11.8617E+06     56.7819E+06    -22.1367E+06     1.92515E+06    -40.3996E-03     65.4517E-03    -25.0521E-03     164.961E-03    -42.0598E-03     67.3357E-03    -25.2279E-03     164.530E-03
            2043     14.0474E-03     22.0675E-03    -9.47485E+06     10.2761E+06    -23.5418E+06     1.07800E+06    -32.4242E-03     57.0969E-03    -24.6726E-03     80.1384E-03    -32.7491E-03     57.4929E-03    -24.7915E-03     79.8984E-03
            2044     13.1747E-03     22.0016E-03    -7.17878E+06    -16.8815E+06    -14.4357E+06     2.10804E+06    -31.1199E-03     55.4918E-03    -24.3719E-03     66.5946E-03    -31.2536E-03     55.5820E-03    -24.4092E-03     66.4411E-03
            2045     12.3010E-03     21.9306E-03    -6.81391E+06    -32.1044E+06    -9.53303E+06     2.94823E+06    -30.5099E-03     54.5442E-03    -24.0343E-03     64.4561E-03    -30.5783E-03     54.5021E-03    -24.0255E-03     64.3561E-03
            2046     11.4269E-03     21.8685E-03    -7.28865E+06    -49.4070E+06    -8.64177E+06     2.93237E+06    -29.6575E-03     53.3266E-03    -23.6691E-03     55.5990E-03    -29.6675E-03     53.1604E-03    -23.6301E-03     55.5334E-03
            2047     10.5522E-03     21.8148E-03    -7.92885E+06    -63.7913E+06    -8.80124E+06     2.73081E+06    -28.5547E-03     51.8501E-03    -23.2953E-03     49.0469E-03    -28.5245E-03     51.5907E-03    -23.2353E-03     49.0071E-03
            2048     9.67640E-03     21.7655E-03    -8.28958E+06    -72.7101E+06    -6.46382E+06     2.43164E+06    -27.5648E-03     50.5018E-03    -22.9370E-03     43.4739E-03    -27.5138E-03     50.1821E-03    -22.8519E-03     43.4502E-03
            2049     8.80007E-03     21.7227E-03    -8.94992E+06    -75.9042E+06    -3.13813E+06     2.74959E+06    -26.5533E-03     49.1412E-03    -22.5879E-03     38.0509E-03    -26.4975E-03     48.7933E-03    -22.4805E-03     38.0462E-03
            2050     7.92282E-03     21.6844E-03    -10.1044E+06    -80.2363E+06    -3.78728E+06     3.06357E+06    -25.5397E-03     47.7800E-03    -22.2403E-03     33.0852E-03    -25.4772E-03     47.4078E-03    -22.1283E-03     33.0957E-03
            2051     7.04486E-03     21.6515E-03    -11.4559E+06    -86.0870E+06    -4.59045E+06     2.72332E+06    -24.6015E-03     46.5201E-03    -21.9186E-03     28.3630E-03    -24.5328E-03     46.1184E-03    -21.8001E-03     28.3770E-03
            2052     6.16610E-03     21.6230E-03    -12.8249E+06    -89.8350E+06    -5.84556E+06     2.98181E+06    -23.7100E-03     45.3297E-03    -21.6196E-03     23.9920E-03    -23.6388E-03     44.9109E-03    -21.5000E-03     24.0153E-03
            2053     5.28663E-03     21.5990E-03    -14.4640E+06    -93.7531E+06    -8.23780E+06     3.00831E+06    -22.9050E-03     44.2537E-03    -21.3487E-03     19.9237E-03    -22.8315E-03     43.8198E-03    -21.2329E-03     19.9516E-03
            2054     4.40657E-03     21.5791E-03    -15.8378E+06    -96.8560E+06    -10.0325E+06     2.83474E+06    -22.2080E-03     43.3227E-03    -21.1147E-03     16.1343E-03    -22.1333E-03     42.8771E-03    -21.0015E-03     16.1631E-03
            2055     3.52591E-03     21.5631E-03    -16.9469E+06    -98.8502E+06    -13.1592E+06     2.31076E+06    -21.6220E-03     42.5318E-03    -20.9098E-03     12.6000E-03    -21.5450E-03     42.0818E-03    -20.8076E-03     12.6244E-03
            2056     2.64490E-03     21.5509E-03    -17.8144E+06    -100.186E+06    -15.8264E+06     1.67039E+06    -21.1563E-03     41.9017E-03    -20.7454E-03     9.29186E-03    -21.0775E-03     41.4498E-03    -20.6534E-03     9.30972E-03
            2057     1.76340E-03     21.5421E-03    -18.7210E+06    -101.134E+06    -17.7729E+06     1.14935E+06    -20.8134E-03     41.4385E-03    -20.6251E-03     6.16808E-03    -20.7346E-03     40.9858E-03    -20.5402E-03     6.18059E-03
            2058     881.817E-06     21.5370E-03    -19.3301E+06    -101.715E+06    -19.0082E+06     593.862E+03    -20.6105E-03     41.1504E-03    -20.5399E-03     3.36017E-03    -20.5317E-03     40.6978E-03    -20.4595E-03     3.36661E-03
            2059     16.6560E-03     21.7706E-03    -5.83343E+06     160.379E+06     85.0534E+06    -89.3529E+03    -58.4084E-03     84.8800E-03    -26.4716E-03     344.947E-03    -74.7001E-03     101.474E-03    -26.2704E-03     351.939E-03
            2060     15.7951E-03     21.3832E-03    -7.93129E+06     114.717E+06     20.8163E+06     820.041E+03    -56.0619E-03     81.5725E-03    -25.5106E-03     306.196E-03    -65.4670E-03     91.2966E-03    -25.5614E-03     306.394E-03
            2061     14.9221E-03     21.1614E-03    -5.66979E+06     57.9422E+06    -20.4938E+06     3.03354E+06    -40.6181E-03     65.3942E-03    -24.7761E-03     162.228E-03    -42.1864E-03     67.2076E-03    -24.9544E-03     161.818E-03
            2062     14.0521E-03     21.0640E-03    -7.40833E+06     12.8096E+06    -19.7552E+06     2.35758E+06    -32.8723E-03     57.2381E-03    -24.3658E-03     78.7162E-03    -33.1849E-03     57.6273E-03    -24.4724E-03     78.4925E-03
            2063     13.1795E-03     21.0017E-03    -8.60988E+06    -18.1598E+06    -15.4149E+06     1.42646E+06    -31.2590E-03     55.2683E-03    -24.0093E-03     65.6956E-03    -31.3919E-03     55.3510E-03    -24.0476E-03     65.5361E-03
            2064     12.3058E-03     20.9303E-03    -7.67609E+06    -32.9888E+06    -9.32704E+06     2.62191E+06    -30.6052E-03     54.2461E-03    -23.6408E-03     63.9977E-03    -30.6737E-03     54.1973E-03    -23.6285E-03     63.8971E-03
            2065     11.4318E-03     20.8702E-03    -7.25701E+06    -48.5480E+06    -7.78383E+06     3.45105E+06    -29.5578E-03     52.8012E-03    -23.2434E-03     54.4258E-03    -29.5670E-03     52.6350E-03    -23.2014E-03     54.3708E-03
            2066     10.5569E-03     20.8172E-03    -7.29687E+06    -63.4345E+06    -8.24431E+06      3.1737E+06    -28.4464E-03     51.2849E-03    -22.8385E-03     47.7646E-03    -28.4123E-03     51.0237E-03    -22.7772E-03     47.7334E-03
            2067     9.68122E-03     20.7698E-03    -7.75825E+06    -71.7165E+06    -6.03059E+06     2.91235E+06    -27.3297E-03     49.7803E-03    -22.4506E-03     42.2112E-03    -27.2766E-03     49.4626E-03    -22.3655E-03     42.1965E-03
            2068     8.80451E-03     20.7277E-03    -8.39465E+06    -76.6527E+06    -3.13118E+06     3.00257E+06    -26.2535E-03     48.3312E-03    -22.0777E-03     36.6872E-03    -26.1929E-03     47.9777E-03    -21.9700E-03     36.6880E-03
            2069     7.92713E-03     20.6912E-03    -9.03862E+06    -79.6195E+06    -2.61174E+06     3.50313E+06    -25.1928E-03     46.9029E-03    -21.7102E-03     31.7203E-03    -25.1268E-03     46.5299E-03    -21.5947E-03     31.7381E-03
            2070     7.04871E-03     20.6591E-03    -10.1992E+06    -85.3387E+06    -4.14389E+06     3.49118E+06    -24.1922E-03     45.5552E-03    -21.3630E-03     27.0873E-03    -24.1184E-03     45.1543E-03    -21.2452E-03     27.1127E-03
            2071     6.16967E-03     20.6320E-03    -11.7747E+06    -89.8351E+06    -4.45784E+06     3.53366E+06    -23.2704E-03     44.3200E-03    -21.0496E-03     22.7796E-03    -23.1956E-03     43.8974E-03    -20.9246E-03     22.8111E-03
            2072     5.28980E-03     20.6090E-03    -13.2321E+06    -92.6846E+06    -6.57661E+06     3.67161E+06    -22.4154E-03     43.1736E-03    -20.7582E-03     18.8501E-03    -22.3395E-03     42.7407E-03    -20.6375E-03     18.8874E-03
            2073     4.40927E-03     20.5900E-03    -14.8435E+06    -95.7233E+06    -9.57961E+06     3.11496E+06    -21.6649E-03     42.1664E-03    -20.5015E-03     15.2188E-03    -21.5875E-03     41.7242E-03    -20.3891E-03     15.2519E-03
            2074     3.52816E-03     20.5748E-03    -16.2577E+06    -97.4178E+06    -12.6335E+06     2.56310E+06    -21.0364E-03     41.3204E-03    -20.2840E-03     11.8704E-03    -20.9586E-03     40.8757E-03    -20.1823E-03     11.8985E-03
            2075     2.64653E-03     20.5631E-03    -17.4628E+06    -98.9276E+06    -15.6476E+06     2.04197E+06    -20.5415E-03     40.6509E-03    -20.1094E-03     8.74574E-03    -20.4630E-03     40.2045E-03    -20.0188E-03     8.76875E-03
            2076     1.76462E-03     20.5550E-03    -18.1747E+06    -99.7297E+06    -17.5835E+06     1.47434E+06    -20.1762E-03     40.1604E-03    -19.9842E-03     5.79212E-03    -20.0970E-03     39.7137E-03    -19.9012E-03     5.80906E-03
            2077     882.312E-06     20.5499E-03    -18.5784E+06    -100.235E+06    -18.6676E+06     811.588E+03    -19.9499E-03     39.8704E-03    -19.9204E-03     3.15505E-03    -19.8701E-03     39.4235E-03    -19.8415E-03     3.16444E-03
            2078     16.6598E-03     20.7507E-03    -4.50848E+06     161.533E+06     85.7118E+06     1.03772E+06    -60.0223E-03     86.4018E-03    -26.3795E-03     342.398E-03    -76.0535E-03     102.742E-03    -26.1786E-03     349.061E-03
            2079     15.7920E-03     20.3762E-03    -8.24021E+06     113.248E+06     17.7189E+06    -385.043E+03    -56.5861E-03     81.9079E-03    -25.3218E-03     301.382E-03    -65.7034E-03     91.3469E-03    -25.3855E-03     301.510E-03
            2080     14.9282E-03     20.1536E-03    -8.13493E+06     55.0234E+06    -24.7645E+06     1.04995E+06    -41.2568E-03     65.7756E-03    -24.5188E-03     157.834E-03    -42.7509E-03     67.5082E-03    -24.7106E-03     157.384E-03
            2081     14.0570E-03     20.0636E-03    -5.50508E+06     14.4822E+06    -17.1834E+06     4.58043E+06    -33.0831E-03     57.1596E-03    -24.0765E-03     76.5386E-03    -33.3775E-03     57.5358E-03    -24.1755E-03     76.3470E-03
            2082     13.1834E-03     20.0003E-03    -6.67268E+06    -16.3412E+06    -12.0756E+06     3.13181E+06    -31.5346E-03     55.2189E-03    -23.6843E-03     64.8814E-03    -31.6619E-03     55.2996E-03    -23.7113E-03     64.7450E-03
            2083     12.3106E-03     19.9311E-03    -7.74047E+06    -34.2899E+06    -9.42424E+06     1.83266E+06    -30.8159E-03     54.0788E-03    -23.2629E-03     62.7356E-03    -30.8793E-03     54.0204E-03    -23.2491E-03     62.6268E-03
            2084     11.4365E-03     19.8716E-03    -6.97081E+06    -48.9032E+06    -6.65264E+06     2.95409E+06    -29.5545E-03     52.3846E-03    -22.8301E-03     52.9414E-03    -29.5606E-03     52.2116E-03    -22.7823E-03     52.8831E-03
            2085     10.5618E-03     19.8207E-03    -6.64192E+06    -62.5572E+06    -6.89214E+06     3.50524E+06    -28.3487E-03     50.7391E-03    -22.3903E-03     46.2094E-03    -28.3127E-03     50.4774E-03    -22.3244E-03     46.1851E-03
            2086     9.68581E-03     19.7743E-03    -6.98608E+06    -71.4130E+06    -4.91516E+06     3.38258E+06    -27.1471E-03     49.1178E-03    -21.9707E-03     40.7381E-03    -27.0908E-03     48.7975E-03    -21.8816E-03     40.7319E-03
            2087     8.80912E-03     19.7340E-03    -7.60427E+06    -76.1280E+06    -2.88592E+06     3.26259E+06    -25.9721E-03     47.5376E-03    -21.5655E-03     35.2748E-03    -25.9075E-03     47.1842E-03    -21.4586E-03     35.2811E-03
            2088     7.93131E-03     19.6985E-03    -8.50254E+06    -80.3106E+06    -2.16335E+06     3.66744E+06    -24.8636E-03     46.0396E-03    -21.1760E-03     30.3101E-03    -24.7939E-03     45.6610E-03    -21.0581E-03     30.3317E-03
            2089     7.05279E-03     19.6681E-03    -9.74573E+06    -84.3083E+06    -3.05895E+06     4.38021E+06    -23.7919E-03     44.5978E-03    -20.8059E-03     25.7388E-03    -23.7185E-03     44.1994E-03    -20.6848E-03     25.7770E-03
            2090     6.17322E-03     19.6418E-03    -11.2116E+06    -89.3562E+06    -4.85069E+06     4.11629E+06    -22.8047E-03     43.2704E-03    -20.4657E-03     21.5587E-03    -22.7268E-03     42.8496E-03    -20.3441E-03     21.5988E-03
            2091     5.29303E-03     19.6201E-03    -12.7793E+06    -92.0346E+06    -6.99571E+06     4.25003E+06    -21.9111E-03     42.0676E-03    -20.1565E-03     17.7518E-03    -21.8330E-03     41.6377E-03    -20.0395E-03     17.7974E-03
            2092     4.41199E-03     19.6021E-03    -14.3169E+06    -93.7553E+06    -10.5073E+06     3.92177E+06    -21.1132E-03     40.9933E-03    -19.8801E-03     14.2868E-03    -21.0345E-03     40.5614E-03    -19.7759E-03     14.3309E-03
            2093     3.53037E-03     19.5877E-03    -15.7753E+06    -96.2136E+06    -12.8419E+06     3.07971E+06    -20.4468E-03     40.1026E-03    -19.6558E-03     11.0987E-03    -20.3680E-03     39.6635E-03    -19.5576E-03     11.1340E-03
            2094     2.64823E-03     19.5768E-03    -16.8921E+06    -97.1632E+06    -15.1132E+06     2.48960E+06    -19.9184E-03     39.3956E-03    -19.4772E-03     8.15641E-03    -19.8402E-03     38.9563E-03    -19.3874E-03     8.18553E-03
            2095     1.76567E-03     19.5689E-03    -17.6959E+06    -98.1448E+06    -17.0119E+06     1.63192E+06    -19.5477E-03     38.8962E-03    -19.3485E-03     5.39866E-03    -19.4692E-03     38.4558E-03    -19.2655E-03     5.41785E-03
            2096     882.938E-06     19.5644E-03    -18.0401E+06    -98.4890E+06    -17.9622E+06     1.25988E+06    -19.3323E-03     38.5934E-03    -19.2611E-03     2.95800E-03    -19.2533E-03     38.1535E-03    -19.1820E-03     2.97324E-03
            2097     16.6583E-03     19.7383E-03    -5.21188E+06     160.615E+06     86.2608E+06     493.086E+03    -61.7043E-03     88.0116E-03    -26.3073E-03     339.671E-03    -77.4185E-03     104.028E-03    -26.1014E-03     345.954E-03
            2098     15.7994E-03     19.3617E-03    -8.97188E+06     114.902E+06     23.1762E+06     347.401E+03    -57.8449E-03     82.9993E-03    -25.1544E-03     293.243E-03    -66.5544E-03     92.0182E-03    -25.1921E-03     293.141E-03
            2099     14.9311E-03     19.1500E-03    -9.79836E+06     52.4492E+06    -25.1210E+06     292.206E+03    -41.0374E-03     65.2878E-03    -24.2504E-03     151.859E-03    -42.4296E-03     66.9046E-03    -24.4379E-03     151.409E-03
            2100     14.0594E-03     19.0608E-03    -8.44534E+06     11.1991E+06    -23.4127E+06     2.58383E+06    -33.1040E-03     56.8570E-03    -23.7530E-03     74.0875E-03    -33.3829E-03     57.2136E-03    -23.8740E-03     73.8772E-03
            2101     13.1883E-03     18.9998E-03    -5.82997E+06    -13.1120E+06    -12.0225E+06     4.31366E+06    -31.8511E-03     55.1922E-03    -23.3411E-03     63.2748E-03    -31.9743E-03     55.2831E-03    -23.3737E-03     63.1546E-03
            2102     12.3151E-03     18.9312E-03    -6.01388E+06    -33.5808E+06    -9.02911E+06     2.84329E+06    -30.9631E-03     53.8432E-03    -22.8801E-03     61.0527E-03    -31.0157E-03     53.7815E-03    -22.8678E-03     60.9595E-03
            2103     11.4416E-03     18.8740E-03    -6.98190E+06    -49.8643E+06    -7.56085E+06     2.49336E+06    -29.5515E-03     51.9595E-03    -22.4080E-03     51.2714E-03    -29.5520E-03     51.7802E-03    -22.3634E-03     51.2101E-03
            2104     10.5664E-03     18.8242E-03    -6.84997E+06    -62.5267E+06    -7.09013E+06     3.39459E+06    -28.2360E-03     50.1736E-03    -21.9376E-03     44.6175E-03    -28.1987E-03     49.9107E-03    -21.8724E-03     44.5945E-03
            2105     9.69065E-03     18.7798E-03    -6.67140E+06    -70.6496E+06    -4.94525E+06     3.51846E+06    -26.9690E-03     48.4552E-03    -21.4862E-03     39.1102E-03    -26.9108E-03     48.1369E-03    -21.3988E-03     39.1081E-03
            2106     8.81352E-03     18.7407E-03    -7.01606E+06    -75.9672E+06    -3.11694E+06     3.54532E+06    -25.7070E-03     46.7587E-03    -21.0517E-03     33.7339E-03    -25.6384E-03     46.4046E-03    -20.9470E-03     33.7460E-03
            2107     7.93566E-03     18.7068E-03    -7.97285E+06    -80.8537E+06    -2.83477E+06     4.34135E+06    -24.5273E-03     45.1629E-03    -20.6356E-03     28.8179E-03    -24.4525E-03     44.7810E-03    -20.5210E-03     28.8500E-03
            2108     7.05667E-03     18.6776E-03    -9.06823E+06    -83.8338E+06    -3.44435E+06     4.81108E+06    -23.3963E-03     43.6382E-03    -20.2419E-03     24.3268E-03    -23.3192E-03     43.2413E-03    -20.1244E-03     24.3719E-03
            2109     6.17689E-03     18.6529E-03    -10.3628E+06    -88.3998E+06    -5.37531E+06     5.08121E+06    -22.3400E-03     42.2198E-03    -19.8798E-03     20.2616E-03    -22.2583E-03     41.8031E-03    -19.7635E-03     20.3153E-03
            2110     5.29609E-03     18.6322E-03    -11.9140E+06    -91.3170E+06    -7.76436E+06     4.93134E+06    -21.3907E-03     40.9446E-03    -19.5539E-03     16.5851E-03    -21.3080E-03     40.5180E-03    -19.4431E-03     16.6404E-03
            2111     4.41469E-03     18.6153E-03    -13.1897E+06    -91.9524E+06    -10.0718E+06     4.73686E+06    -20.5644E-03     39.8325E-03    -19.2682E-03     13.2805E-03    -20.4832E-03     39.4073E-03    -19.1661E-03     13.3358E-03
            2112     3.53255E-03     18.6018E-03    -14.5392E+06    -94.2281E+06    -12.4519E+06     4.05032E+06    -19.8680E-03     38.8990E-03    -19.0311E-03     10.2776E-03    -19.7864E-03     38.4674E-03    -18.9356E-03     10.3258E-03
            2113     2.64991E-03     18.5915E-03    -15.9349E+06    -95.1946E+06    -14.2482E+06     2.93383E+06    -19.3108E-03     38.1561E-03    -18.8453E-03     7.52449E-03    -19.2320E-03     37.7240E-03    -18.7554E-03     7.55965E-03
            2114     1.76682E-03     18.5843E-03    -16.9272E+06    -96.0590E+06    -15.7344E+06     2.03141E+06    -18.9230E-03     37.6326E-03    -18.7097E-03     4.97571E-03    -18.8455E-03     37.1997E-03    -18.6245E-03     5.00023E-03
            2115     883.481E-06     18.5797E-03    -17.9609E+06    -96.5730E+06    -17.0204E+06     1.11883E+06    -18.6964E-03     37.2997E-03    -18.6032E-03     2.69306E-03    -18.6212E-03     36.8678E-03    -18.5223E-03     2.70662E-03
            2116     16.6600E-03     18.7111E-03    -4.66036E+06     160.399E+06     86.8154E+06     970.101E+03    -63.7099E-03     89.8716E-03    -26.1617E-03     334.060E-03    -78.9163E-03     105.380E-03    -25.9534E-03     339.842E-03
            2117     15.8021E-03     18.3501E-03    -8.82381E+06     115.079E+06     24.8147E+06     1.21499E+06    -57.5210E-03     82.4384E-03    -24.9174E-03     284.477E-03    -65.7098E-03     90.9332E-03    -24.9474E-03     284.328E-03
            2118     14.9363E-03     18.1457E-03    -10.7955E+06     53.7697E+06    -25.5980E+06     1.41245E+06    -40.9498E-03     64.9116E-03    -23.9618E-03     146.886E-03    -42.2573E-03     66.4462E-03    -24.1521E-03     146.463E-03
            2119     14.0660E-03     18.0593E-03    -10.2897E+06     9.68701E+06    -28.6228E+06     960.793E+03    -33.3450E-03     56.7545E-03    -23.4095E-03     71.7801E-03    -33.6092E-03     57.0997E-03    -23.5517E-03     71.5519E-03
            2120     13.1926E-03     17.9989E-03    -8.06748E+06    -14.5182E+06    -16.2466E+06     2.22522E+06    -31.8759E-03     54.8447E-03    -22.9688E-03     61.8953E-03    -31.9963E-03     54.9320E-03    -23.0172E-03     61.7523E-03
            2121     12.3202E-03     17.9319E-03    -6.26400E+06    -31.6156E+06    -9.47180E+06     3.70581E+06    -30.9967E-03     53.4845E-03    -22.4879E-03     59.2223E-03    -31.0484E-03     53.4293E-03    -22.4803E-03     59.1436E-03
            2122     11.4460E-03     17.8766E-03    -6.33096E+06    -50.0085E+06    -8.63098E+06     3.11821E+06    -29.5204E-03     51.5013E-03    -21.9809E-03     49.3663E-03    -29.5127E-03     51.3187E-03    -21.9423E-03     49.3165E-03
            2123     10.5714E-03     17.8284E-03    -6.61523E+06    -62.8675E+06    -8.47364E+06     3.20891E+06    -28.1421E-03     49.6190E-03    -21.4769E-03     42.8169E-03    -28.0991E-03     49.3540E-03    -21.4185E-03     42.7943E-03
            2124     9.69517E-03     17.7856E-03    -6.76906E+06    -70.1293E+06    -6.12651E+06     3.66246E+06    -26.7896E-03     47.7835E-03    -20.9939E-03     37.2833E-03    -26.7294E-03     47.4681E-03    -20.9130E-03     37.2855E-03
            2125     8.81818E-03     17.7483E-03    -7.44692E+06    -76.1095E+06    -4.53072E+06     4.05129E+06    -25.4494E-03     45.9793E-03    -20.5300E-03     31.9805E-03    -25.3796E-03     45.6261E-03    -20.4315E-03     32.0012E-03
            2126     7.93987E-03     17.7159E-03    -7.90022E+06    -80.9824E+06    -4.63802E+06     4.47564E+06    -24.1781E-03     44.2631E-03    -20.0850E-03     27.1587E-03    -24.0994E-03     43.8824E-03    -19.9793E-03     27.1943E-03
            2127     7.06068E-03     17.6883E-03    -8.34109E+06    -83.8477E+06    -4.85641E+06     5.30339E+06    -22.9882E-03     42.6579E-03    -19.6698E-03     22.7439E-03    -22.9048E-03     42.2614E-03    -19.5604E-03     22.7969E-03
            2128     6.18041E-03     17.6649E-03    -9.31003E+06    -87.5831E+06    -5.35569E+06     5.83267E+06    -21.8784E-03     41.1715E-03    -19.2931E-03     18.7989E-03    -21.7922E-03     40.7569E-03    -19.1794E-03     18.8634E-03
            2129     5.29937E-03     17.6455E-03    -10.3466E+06    -89.9104E+06    -6.87856E+06     5.71893E+06    -20.8734E-03     39.8264E-03    -18.9530E-03     15.3048E-03    -20.7860E-03     39.4030E-03    -18.8420E-03     15.3711E-03
            2130     4.41735E-03     17.6296E-03    -11.6337E+06      -90.67E+06    -8.76052E+06     5.51670E+06    -20.0061E-03     38.6622E-03    -18.6561E-03     12.1698E-03    -19.9207E-03     38.2391E-03    -18.5516E-03     12.2357E-03
            2131     3.53478E-03     17.6170E-03    -12.9302E+06    -91.6641E+06    -11.0390E+06     5.01198E+06    -19.2804E-03     37.6869E-03    -18.4066E-03     9.35551E-03    -19.1964E-03     37.2637E-03    -18.3101E-03     9.41658E-03
            2132     2.65155E-03     17.6075E-03    -14.1209E+06    -92.7077E+06    -13.1542E+06     3.86998E+06    -18.7045E-03     36.9139E-03    -18.2093E-03     6.84457E-03    -18.6218E-03     36.4900E-03    -18.1202E-03     6.89209E-03
            2133     1.76800E-03     17.6007E-03    -15.3310E+06    -93.4926E+06    -14.5186E+06     2.57047E+06    -18.2963E-03     36.3624E-03    -18.0661E-03     4.55152E-03    -18.2164E-03     35.9382E-03    -17.9809E-03     4.58318E-03
            2134     884.082E-06     17.5966E-03    -16.1089E+06    -94.1738E+06    -15.9688E+06     1.11073E+06    -18.0531E-03     36.0076E-03    -17.9545E-03     2.41434E-03    -17.9736E-03     35.5835E-03    -17.8744E-03     2.42790E-03
            2135     16.6699E-03     17.6934E-03    -4.92313E+06     158.995E+06     86.2678E+06     1.10172E+06    -65.5684E-03     91.5608E-03    -25.9924E-03     329.281E-03    -80.2100E-03     106.500E-03    -25.7844E-03     334.523E-03
            2136     15.8060E-03     17.3393E-03    -8.61640E+06     114.388E+06     26.6946E+06     2.30867E+06    -57.1996E-03     81.8786E-03    -24.6790E-03     276.993E-03    -64.9296E-03     89.9072E-03    -24.6989E-03     276.816E-03
            2137     14.9392E-03     17.1389E-03    -9.51922E+06     55.3311E+06    -24.0076E+06     2.20335E+06    -41.1042E-03     64.7783E-03    -23.6741E-03     140.582E-03    -42.3102E-03     66.2169E-03    -23.8606E-03     140.166E-03
            2138     14.0691E-03     17.0584E-03    -9.10394E+06     10.9741E+06    -30.1927E+06     1.37589E+06    -33.3997E-03     56.4659E-03    -23.0662E-03     69.2910E-03    -33.6422E-03     56.8027E-03    -23.2199E-03     69.0737E-03
            2139     13.1977E-03     16.9982E-03    -8.72752E+06    -16.2383E+06    -19.4821E+06     1.15651E+06    -32.0107E-03     54.6028E-03    -22.5921E-03     60.6570E-03    -32.1216E-03     54.6816E-03    -22.6533E-03     60.5035E-03
            2140     12.3247E-03     16.9331E-03    -7.64171E+06    -32.4566E+06    -12.1994E+06     2.24704E+06    -31.0247E-03     53.1034E-03    -22.0787E-03     57.1701E-03    -31.0726E-03     53.0445E-03    -22.0816E-03     57.0770E-03
            2141     11.4513E-03     16.8795E-03    -6.17305E+06    -49.2544E+06    -9.28900E+06     3.49827E+06    -29.4864E-03     51.0294E-03    -21.5430E-03     47.1807E-03    -29.4744E-03     50.8477E-03    -21.5091E-03     47.1395E-03
            2142     10.5761E-03     16.8332E-03    -6.08177E+06    -63.0170E+06    -9.42940E+06     3.62212E+06    -28.0417E-03     49.0458E-03    -21.0042E-03     40.7152E-03    -27.9919E-03     48.7782E-03    -20.9511E-03     40.7012E-03
            2143     9.70014E-03     16.7921E-03    -6.48083E+06    -70.2888E+06    -6.73038E+06     4.14576E+06    -26.6105E-03     47.1007E-03    -20.4902E-03     35.1717E-03    -26.5461E-03     46.7833E-03    -20.4125E-03     35.1829E-03
            2144     8.82272E-03     16.7566E-03    -6.91289E+06    -75.8534E+06    -4.81828E+06     4.59659E+06    -25.1820E-03     45.1781E-03    -19.9961E-03     29.9320E-03    -25.1084E-03     44.8246E-03    -19.9002E-03     29.9620E-03
            2145     7.94435E-03     16.7259E-03    -7.78846E+06    -80.8219E+06    -5.37017E+06     4.79565E+06    -23.8249E-03     43.3471E-03    -19.5222E-03     25.2283E-03    -23.7441E-03     42.9673E-03    -19.4206E-03     25.2699E-03
            2146     7.06473E-03     16.6998E-03    -8.49585E+06    -84.2797E+06    -6.13898E+06     5.47904E+06    -22.5497E-03     41.6322E-03    -19.0826E-03     20.9549E-03    -22.4641E-03     41.2351E-03    -18.9787E-03     21.0116E-03
            2147     6.18417E-03     16.6779E-03    -8.94468E+06    -86.8039E+06    -5.97104E+06     6.28554E+06    -21.3780E-03     40.0666E-03    -18.6885E-03     17.1719E-03    -21.2900E-03     39.6559E-03    -18.5796E-03     17.2434E-03
            2148     5.30252E-03     16.6598E-03    -10.0017E+06    -88.5682E+06    -6.56453E+06     6.46486E+06    -20.3288E-03     38.6662E-03    -18.3374E-03     13.8987E-03    -20.2418E-03     38.2483E-03    -18.2273E-03     13.9755E-03
            2149     4.42020E-03     16.6451E-03    -11.0286E+06    -88.9239E+06    -8.40109E+06     6.11816E+06    -19.4191E-03     37.4474E-03    -18.0283E-03     11.0067E-03    -19.3337E-03     37.0315E-03    -17.9254E-03     11.0810E-03
            2150     3.53700E-03     16.6334E-03    -11.6814E+06    -89.3386E+06    -10.1654E+06     5.46761E+06    -18.6690E-03     36.4408E-03    -17.7718E-03     8.42506E-03    -18.5834E-03     36.0261E-03    -17.6761E-03     8.49245E-03
            2151     2.65332E-03     16.6247E-03    -12.1836E+06      -89.73E+06    -11.6962E+06     4.64113E+06    -18.0786E-03     35.6489E-03    -17.5703E-03     6.14010E-03    -17.9926E-03     35.2350E-03    -17.4810E-03     6.19788E-03
            2152     1.76906E-03     16.6184E-03    -12.6691E+06    -90.3497E+06    -13.1916E+06     3.34869E+06    -17.6546E-03     35.0796E-03    -17.4250E-03     4.08970E-03    -17.5678E-03     34.6653E-03    -17.3416E-03     4.13159E-03
            2153     884.633E-06     16.6146E-03    -13.2579E+06    -90.8181E+06    -13.7090E+06     1.90431E+06    -17.4151E-03     34.7413E-03    -17.3262E-03     2.15227E-03    -17.3295E-03     34.3266E-03    -17.2438E-03     2.17616E-03
            2154     16.6641E-03     16.6705E-03    -5.00706E+06     158.055E+06     86.7168E+06     519.814E+03    -67.4087E-03     93.3012E-03    -25.8925E-03     321.085E-03    -81.3713E-03     107.556E-03    -25.6808E-03     325.800E-03
            2155     15.8098E-03     16.3231E-03    -8.74357E+06     113.298E+06     29.3664E+06     2.96408E+06    -58.0707E-03     82.5333E-03    -24.4626E-03     267.002E-03    -65.2676E-03     90.0172E-03    -24.4674E-03     266.608E-03
            2156     14.9465E-03     16.1361E-03    -10.6729E+06     56.7242E+06    -22.6916E+06     3.51240E+06    -40.6536E-03     64.0383E-03    -23.3848E-03     134.912E-03    -41.7515E-03     65.3660E-03    -23.5650E-03     134.531E-03
            2157     14.0748E-03     16.0564E-03    -9.26199E+06     13.0960E+06    -31.2019E+06     1.86797E+06    -33.6410E-03     56.3767E-03    -22.7358E-03     67.5351E-03    -33.8714E-03     56.7113E-03    -22.8973E-03     67.3288E-03
            2158     13.2024E-03     15.9982E-03    -7.87780E+06    -16.7176E+06    -21.3773E+06     1.23513E+06    -32.3708E-03     54.5860E-03    -22.2152E-03     59.0519E-03    -32.4676E-03     54.6575E-03    -22.2864E-03     58.9018E-03
            2159     12.3302E-03     15.9341E-03      -7.396E+06    -33.6451E+06    -13.8021E+06     2.03130E+06    -31.1241E-03     52.7841E-03    -21.6599E-03     55.0552E-03    -31.1609E-03     52.7153E-03    -21.6694E-03     54.9642E-03
            2160     11.4562E-03     15.8831E-03    -7.65893E+06    -49.8850E+06    -11.1742E+06     3.08708E+06    -29.5055E-03     50.5899E-03    -21.0845E-03     44.9162E-03    -29.4935E-03     50.4061E-03    -21.0569E-03     44.8738E-03
            2161     10.5814E-03     15.8383E-03    -7.14268E+06    -62.6770E+06    -10.7591E+06     3.86753E+06    -27.9868E-03     48.4927E-03    -20.5059E-03     38.3673E-03    -27.9384E-03     48.2278E-03    -20.4585E-03     38.3598E-03
            2162     9.70515E-03     15.7994E-03    -6.70794E+06    -70.6747E+06    -7.73427E+06     4.21357E+06    -26.4402E-03     46.3951E-03    -19.9549E-03     32.7460E-03    -26.3731E-03     46.0759E-03    -19.8814E-03     32.7610E-03
            2163     8.82777E-03     15.7656E-03    -6.74462E+06    -75.7139E+06    -5.05963E+06     4.90629E+06    -24.9035E-03     44.3325E-03    -19.4290E-03     27.5596E-03    -24.8277E-03     43.9787E-03    -19.3347E-03     27.5960E-03
            2164     7.94900E-03     15.7368E-03    -7.07743E+06    -80.4638E+06    -5.09180E+06     5.43239E+06    -23.4344E-03     42.3622E-03    -18.9278E-03     22.9766E-03    -23.3501E-03     41.9819E-03    -18.8263E-03     23.0283E-03
            2165     7.06910E-03     15.7124E-03    -7.70061E+06    -84.3531E+06    -5.77712E+06     5.79852E+06    -22.0617E-03     40.5288E-03    -18.4672E-03     18.9134E-03    -21.9720E-03     40.1291E-03    -18.3626E-03     18.9758E-03
            2166     6.18799E-03     15.6920E-03    -8.42643E+06    -86.6087E+06    -5.82860E+06     6.56236E+06    -20.8185E-03     38.8753E-03    -18.0568E-03     15.3675E-03    -20.7280E-03     38.4643E-03    -17.9481E-03     15.4437E-03
            2167     5.30600E-03     15.6753E-03    -8.91351E+06    -86.9934E+06    -6.54582E+06     6.94964E+06    -19.7194E-03     37.4121E-03    -17.6927E-03     12.3454E-03    -19.6291E-03     37.0004E-03    -17.5864E-03     12.4292E-03
            2168     4.42295E-03     15.6617E-03    -9.50252E+06    -86.8890E+06    -8.27215E+06     6.47497E+06    -18.7807E-03     36.1593E-03    -17.3787E-03     9.73962E-03    -18.6906E-03     35.7511E-03    -17.2803E-03     9.81917E-03
            2169     3.53930E-03     15.6511E-03    -10.0589E+06    -86.9031E+06    -9.69446E+06     5.80859E+06    -18.0245E-03     35.1464E-03    -17.1219E-03     7.44835E-03    -17.9350E-03     34.7408E-03    -17.0298E-03     7.52057E-03
            2170     2.65495E-03     15.6430E-03    -10.4431E+06    -86.8816E+06    -10.3771E+06     4.95308E+06    -17.4443E-03     34.3655E-03    -16.9212E-03     5.39939E-03    -17.3556E-03     33.9614E-03    -16.8320E-03     5.46149E-03
            2171     1.77029E-03     15.6375E-03    -10.7468E+06    -86.8381E+06    -10.8968E+06     4.01593E+06    -17.0058E-03     33.7821E-03    -16.7763E-03     3.55487E-03    -16.9177E-03     33.3793E-03    -16.6893E-03     3.60558E-03
            2172     885.159E-06     15.6339E-03    -10.7207E+06    -86.3388E+06    -11.1634E+06     2.64854E+06    -16.7713E-03     33.4397E-03    -16.6684E-03     1.88991E-03    -16.6832E-03     33.0400E-03    -16.5835E-03     1.92351E-03
            2173     16.6708E-03     15.6376E-03    -6.47314E+06     156.022E+06     86.0519E+06     295.055E+03    -68.5643E-03     94.3902E-03    -25.8259E-03     316.157E-03    -82.0379E-03     108.146E-03    -25.6125E-03     320.428E-03
            2174     15.8162E-03     15.3123E-03    -9.27369E+06     111.311E+06     29.3394E+06     2.80422E+06    -58.8147E-03     83.1110E-03    -24.2963E-03     255.424E-03    -65.4030E-03     89.9779E-03    -24.2976E-03     254.878E-03
            2175     14.9466E-03     15.1306E-03    -8.91529E+06     58.3803E+06    -21.9866E+06     3.81831E+06    -40.9859E-03     64.1149E-03    -23.1290E-03     129.465E-03    -41.9735E-03     65.3423E-03    -23.3107E-03     129.093E-03
            2176     14.0780E-03     15.0549E-03    -8.06022E+06     14.9692E+06    -31.1108E+06     2.07436E+06    -34.2294E-03     56.6500E-03    -22.4206E-03     65.5536E-03    -34.4418E-03     56.9773E-03    -22.5862E-03     65.3521E-03
            2177     13.2075E-03     14.9972E-03    -7.18056E+06    -17.5495E+06    -23.2068E+06     1.72207E+06    -32.8531E-03     54.6891E-03    -21.8360E-03     57.0895E-03    -32.9365E-03     54.7521E-03    -21.9162E-03     56.9473E-03
            2178     12.3351E-03     14.9362E-03    -7.60312E+06    -34.5073E+06    -15.2885E+06     3.12554E+06    -31.4092E-03     52.6359E-03    -21.2267E-03     52.5710E-03    -31.4381E-03     52.5598E-03    -21.2421E-03     52.4980E-03
            2179     11.4618E-03     14.8864E-03    -7.86103E+06    -49.8573E+06    -11.9695E+06     3.49339E+06    -29.6503E-03     50.2501E-03    -20.5998E-03     42.2562E-03    -29.6343E-03     50.0640E-03    -20.5760E-03     42.2229E-03
            2180     10.5870E-03     14.8443E-03    -7.80189E+06    -62.7165E+06    -12.3435E+06     3.49793E+06    -27.9955E-03     47.9628E-03    -19.9673E-03     35.6043E-03    -27.9455E-03     47.6984E-03    -19.9268E-03     35.5953E-03
            2181     9.71082E-03     14.8071E-03    -7.44674E+06    -70.9170E+06    -9.31453E+06     4.13890E+06    -26.2844E-03     45.6553E-03    -19.3709E-03     29.9683E-03    -26.2165E-03     45.3364E-03    -19.3038E-03     29.9853E-03
            2182     8.83318E-03     14.7756E-03    -7.40393E+06    -76.0510E+06    -6.47835E+06     4.93204E+06    -24.5896E-03     43.3972E-03    -18.8076E-03     24.9005E-03    -24.5133E-03     43.0435E-03    -18.7189E-03     24.9398E-03
            2183     7.95418E-03     14.7486E-03    -7.64451E+06    -80.1780E+06    -6.01566E+06     5.64093E+06    -22.9871E-03     41.2652E-03    -18.2781E-03     20.4791E-03    -22.9040E-03     40.8878E-03    -18.1808E-03     20.5355E-03
            2184     7.07380E-03     14.7261E-03    -8.02941E+06    -84.1396E+06    -6.28706E+06     6.25501E+06    -21.5066E-03     39.3047E-03    -17.7981E-03     16.6470E-03    -21.4177E-03     38.9068E-03    -17.6959E-03     16.7168E-03
            2185     6.19225E-03     14.7074E-03    -8.31790E+06    -86.1263E+06    -6.63230E+06     6.59532E+06    -20.1880E-03     37.5601E-03    -17.3721E-03     13.3809E-03    -20.0962E-03     37.1523E-03    -17.2683E-03     13.4586E-03
            2186     5.30953E-03     14.6921E-03    -8.27994E+06    -85.7037E+06    -7.27478E+06     6.77067E+06    -19.0456E-03     36.0457E-03    -17.0001E-03     10.6344E-03    -18.9528E-03     35.6404E-03    -16.9002E-03     10.7168E-03
            2187     4.42602E-03     14.6798E-03    -8.17184E+06    -84.8491E+06    -8.01424E+06     6.77610E+06    -18.0906E-03     34.7775E-03    -16.6869E-03     8.30002E-03    -17.9972E-03     34.3770E-03    -16.5920E-03     8.38403E-03
            2188     3.54164E-03     14.6700E-03    -8.36140E+06    -84.3724E+06    -8.78274E+06     6.22724E+06    -17.3272E-03     33.7601E-03    -16.4329E-03     6.29608E-03    -17.2341E-03     33.3632E-03    -16.3424E-03     6.37412E-03
            2189     2.65679E-03     14.6628E-03    -8.71593E+06    -83.9018E+06    -8.84299E+06     5.37446E+06    -16.7537E-03     32.9901E-03    -16.2365E-03     4.55433E-03    -16.6628E-03     32.5961E-03    -16.1464E-03     4.62217E-03
            2190     1.77143E-03     14.6576E-03    -9.00998E+06    -83.0862E+06    -8.39121E+06     4.08279E+06    -16.3401E-03     32.4293E-03    -16.0892E-03     2.95707E-03    -16.2525E-03     32.0391E-03    -15.9976E-03     3.00885E-03
            2191     885.830E-06     14.6547E-03    -9.05316E+06    -81.4094E+06    -8.52164E+06     2.57028E+06    -16.1001E-03     32.0430E-03    -15.9429E-03     1.61761E-03    -16.0147E-03     31.6617E-03    -15.8543E-03     1.65031E-03
            2192     16.6652E-03     14.6033E-03    -5.68519E+06     155.382E+06     87.4184E+06     2.09412E+06    -69.5781E-03     95.3995E-03    -25.8213E-03     315.054E-03    -82.7541E-03     108.853E-03    -25.6013E-03     318.999E-03
            2193     15.8124E-03     14.2928E-03    -9.50108E+06     108.863E+06     29.0107E+06     944.860E+03    -60.7732E-03     84.9428E-03    -24.1696E-03     240.058E-03    -66.7760E-03     91.2156E-03    -24.1686E-03     239.247E-03
            2194     14.9543E-03     14.1274E-03    -6.07846E+06     58.6776E+06    -21.0549E+06     1.38647E+06    -41.9254E-03     64.7746E-03    -22.8492E-03     118.481E-03    -42.7826E-03     65.8806E-03    -23.0307E-03     118.059E-03
            2195     14.0834E-03     14.0517E-03    -4.98236E+06     15.7587E+06    -30.7374E+06     3.49456E+06    -34.0301E-03     56.1029E-03    -22.0728E-03     63.0959E-03    -34.2121E-03     56.4123E-03    -22.2421E-03     62.9222E-03
            2196     13.2123E-03     13.9972E-03    -7.17424E+06    -17.9481E+06    -25.5741E+06     4.20412E+06    -33.4091E-03     54.8504E-03    -21.4413E-03     54.8896E-03    -33.4829E-03     54.9092E-03    -21.5327E-03     54.7796E-03
            2197     12.3410E-03     13.9373E-03    -8.03366E+06    -34.5432E+06    -16.9553E+06     3.72697E+06    -31.9679E-03     52.7320E-03    -20.7641E-03     49.4695E-03    -31.9906E-03     52.6530E-03    -20.7871E-03     49.4070E-03
            2198     11.4679E-03     13.8908E-03    -7.53271E+06    -49.4253E+06    -13.0818E+06     3.80289E+06    -29.8846E-03     49.9528E-03    -20.0682E-03     39.2258E-03    -29.8619E-03     49.7660E-03    -20.0511E-03     39.2006E-03
            2199     10.5932E-03     13.8502E-03    -7.42259E+06    -62.4699E+06    -13.2878E+06     3.95026E+06    -28.0274E-03     47.4052E-03    -19.3778E-03     32.4961E-03    -27.9718E-03     47.1402E-03    -19.3429E-03     32.4965E-03
            2200     9.71703E-03     13.8159E-03    -7.63038E+06    -71.3761E+06    -10.5434E+06     4.29664E+06    -26.1142E-03     44.8452E-03    -18.7310E-03     26.8674E-03    -26.0431E-03     44.5243E-03    -18.6692E-03     26.8893E-03
            2201     8.83916E-03     13.7863E-03    -7.92438E+06    -76.3577E+06    -7.56102E+06     5.17139E+06    -24.2385E-03     42.3660E-03    -18.1275E-03     21.9742E-03    -24.1617E-03     42.0120E-03    -18.0431E-03     22.0189E-03
            2202     7.95979E-03     13.7617E-03    -8.45310E+06    -80.1386E+06    -6.76724E+06     5.93303E+06    -22.4993E-03     40.0667E-03    -17.5674E-03     17.7302E-03    -22.4184E-03     39.6910E-03    -17.4728E-03     17.7923E-03
            2203     7.07896E-03     13.7410E-03    -8.78527E+06    -83.5429E+06    -7.03364E+06     6.24440E+06    -20.9167E-03     37.9787E-03    -17.0620E-03     14.1371E-03    -20.8309E-03     37.5856E-03    -16.9633E-03     14.2081E-03
            2204     6.19681E-03     13.7241E-03    -8.69931E+06    -85.2003E+06    -7.23288E+06     6.29860E+06    -19.5166E-03     36.1348E-03    -16.6183E-03     11.1335E-03    -19.4269E-03     35.7328E-03    -16.5183E-03     11.2083E-03
            2205     5.31358E-03     13.7103E-03    -8.50334E+06    -84.6416E+06    -7.49232E+06     6.34001E+06    -18.3238E-03     34.5601E-03    -16.2363E-03     8.67413E-03    -18.2332E-03     34.1605E-03    -16.1387E-03     8.75163E-03
            2206     4.42932E-03     13.6991E-03    -8.09608E+06    -83.2627E+06    -7.41581E+06     6.37298E+06    -17.3364E-03     33.2552E-03    -15.9188E-03     6.65384E-03    -17.2457E-03     32.8617E-03    -15.8235E-03     6.73315E-03
            2207     3.54440E-03     13.6905E-03    -7.50601E+06    -81.8364E+06    -6.92075E+06     6.11429E+06    -16.5481E-03     32.2144E-03    -15.6663E-03     4.99252E-03    -16.4570E-03     31.8262E-03    -15.5714E-03     5.06946E-03
            2208     2.65876E-03     13.6838E-03    -6.88591E+06    -80.5715E+06    -6.35367E+06     5.03653E+06    -15.9590E-03     31.4339E-03    -15.4749E-03     3.59858E-03    -15.8674E-03     31.0502E-03    -15.3798E-03     3.66231E-03
            2209     1.77277E-03     13.6793E-03    -6.03029E+06    -79.1706E+06    -5.61760E+06     3.48806E+06    -15.5714E-03     30.9057E-03    -15.3344E-03     2.34692E-03    -15.4786E-03     30.5267E-03    -15.2389E-03     2.39118E-03
            2210     886.533E-06     13.6765E-03    -5.48334E+06    -77.1717E+06    -5.06641E+06     1.77628E+06    -15.3413E-03     30.5449E-03    -15.2036E-03     1.25464E-03    -15.2492E-03     30.1746E-03    -15.1091E-03     1.27720E-03
            2211     16.6676E-03     13.5750E-03    -2.93882E+06     156.094E+06     90.4787E+06     615.942E+03    -72.0492E-03     97.6366E-03    -25.5874E-03     301.162E-03    -84.3540E-03     110.223E-03    -25.3571E-03     304.364E-03
            2212     15.8203E-03     13.2653E-03    -2.92281E+06     110.653E+06     35.0154E+06     35.7657E+03    -57.0808E-03     80.9536E-03    -23.8728E-03     219.263E-03    -62.1177E-03     86.2736E-03    -23.8539E-03     218.465E-03
            2213     14.9595E-03     13.1242E-03    -8.12002E+06     53.5106E+06    -24.6503E+06     3.30835E+06    -40.2260E-03     62.8202E-03    -22.5942E-03     113.807E-03    -40.9656E-03     63.7928E-03    -22.7833E-03     113.466E-03
            2214     14.0879E-03     13.0522E-03    -10.4143E+06     14.6986E+06    -37.0218E+06     6.63681E+06    -35.9548E-03     57.7227E-03    -21.7679E-03     64.5076E-03    -36.1491E-03     58.0397E-03    -21.9592E-03     64.3645E-03
            2215     13.2174E-03     12.9942E-03    -9.23225E+06    -14.9004E+06    -28.5763E+06     5.63443E+06    -34.5476E-03     55.5702E-03    -21.0226E-03     52.5599E-03    -34.6236E-03     55.6437E-03    -21.1305E-03     52.4686E-03
            2216     12.3472E-03     12.9395E-03    -7.72250E+06    -34.2436E+06    -18.7945E+06     4.20941E+06    -32.5335E-03     52.7917E-03    -20.2582E-03     45.7233E-03    -32.5459E-03     52.7099E-03    -20.2913E-03     45.6709E-03
            2217     11.4743E-03     12.8945E-03    -8.02094E+06    -49.0569E+06    -14.5079E+06     4.30608E+06    -30.1874E-03     49.6764E-03    -19.4890E-03     35.9077E-03    -30.1617E-03     49.4904E-03    -19.4788E-03     35.8929E-03
            2218     10.6001E-03     12.8572E-03    -8.10131E+06    -62.2456E+06    -14.2290E+06     4.48500E+06    -28.0633E-03     46.7987E-03    -18.7354E-03     29.1088E-03    -28.0075E-03     46.5346E-03    -18.7045E-03     29.1196E-03
            2219     9.72374E-03     12.8251E-03    -8.32938E+06    -71.5558E+06    -11.1874E+06     5.06102E+06    -25.9330E-03     43.9680E-03    -18.0350E-03     23.5211E-03    -25.8626E-03     43.6466E-03    -17.9751E-03     23.5558E-03
            2220     8.84580E-03     12.7984E-03    -8.91293E+06    -76.5200E+06    -7.94857E+06     5.55010E+06    -23.8792E-03     41.2660E-03    -17.3868E-03     18.8030E-03    -23.8055E-03     40.9122E-03    -17.3027E-03     18.8549E-03
            2221     7.96599E-03     12.7758E-03    -9.03596E+06    -79.7523E+06    -6.69416E+06     5.87136E+06    -21.9939E-03     38.7838E-03    -16.7899E-03     14.7936E-03    -21.9160E-03     38.4102E-03    -16.6946E-03     14.8565E-03
            2222     7.08476E-03     12.7574E-03    -8.97288E+06    -82.7798E+06    -6.11088E+06     6.01732E+06    -20.3011E-03     36.5583E-03    -16.2571E-03     11.4623E-03    -20.2183E-03     36.1675E-03    -16.1547E-03     11.5315E-03
            2223     6.20207E-03     12.7422E-03    -9.18741E+06    -84.1044E+06    -6.08219E+06     5.97877E+06    -18.8103E-03     34.6007E-03    -15.7904E-03     8.80202E-03    -18.7261E-03     34.2030E-03    -15.6856E-03     8.87354E-03
            2224     5.31817E-03     12.7299E-03    -9.11880E+06    -83.3108E+06    -6.57254E+06     5.63714E+06    -17.5420E-03     32.9316E-03    -15.3896E-03     6.70516E-03    -17.4577E-03     32.5382E-03    -15.2884E-03     6.77409E-03
            2225     4.43328E-03     12.7201E-03    -8.50478E+06    -81.8103E+06    -6.29040E+06     5.23030E+06    -16.5003E-03     31.5622E-03    -15.0619E-03     5.05307E-03    -16.4153E-03     31.1748E-03    -14.9624E-03     5.11796E-03
            2226     3.54749E-03     12.7124E-03    -7.36226E+06    -79.5201E+06    -5.02371E+06     4.60346E+06    -15.6874E-03     30.4928E-03    -14.8055E-03     3.74761E-03    -15.6017E-03     30.1132E-03    -14.7046E-03     3.80526E-03
            2227     2.66115E-03     12.7066E-03    -5.96764E+06    -77.4268E+06    -4.38146E+06     3.53803E+06    -15.0845E-03     29.6948E-03    -14.6103E-03     2.66403E-03    -14.9958E-03     29.3227E-03    -14.5112E-03     2.70854E-03
            2228     1.77429E-03     12.7024E-03    -4.79526E+06    -75.9085E+06    -4.33518E+06     2.17792E+06    -14.6738E-03     29.1487E-03    -14.4749E-03     1.72848E-03    -14.5814E-03     28.7824E-03    -14.3796E-03     1.75590E-03
            2229     887.148E-06     12.7000E-03    -3.63871E+06    -74.3215E+06    -3.67388E+06     923.675E+03    -14.4847E-03     28.8474E-03    -14.3627E-03     818.001E-06    -14.3896E-03     28.4867E-03    -14.2680E-03     829.577E-06
            2230     16.6886E-03     12.5261E-03    -3.66060E+06     154.261E+06     86.9931E+06    -1.69008E+06    -73.0879E-03     98.3990E-03    -25.3112E-03     298.288E-03    -84.9187E-03     110.515E-03    -25.0946E-03     300.921E-03
            2231     15.8336E-03     12.2707E-03    -6.28754E+06     105.618E+06     33.4195E+06     3.94069E+06    -53.4466E-03     77.1058E-03    -23.6592E-03     212.987E-03    -57.8236E-03     81.7406E-03    -23.6362E-03     212.524E-03
            2232     14.9504E-03     12.1161E-03    -13.0500E+06     51.2042E+06    -19.8675E+06     8.57673E+06    -41.1144E-03     63.5713E-03    -22.4570E-03     111.509E-03    -41.8173E-03     64.4669E-03    -22.6116E-03     111.246E-03
            2233     14.0897E-03     12.0448E-03    -14.0691E+06     16.6183E+06    -34.2308E+06     5.45027E+06    -38.3724E-03     59.8638E-03    -21.4914E-03     58.5266E-03    -38.5794E-03     60.1790E-03    -21.6662E-03     58.3527E-03
            2234     13.2243E-03     11.9932E-03    -11.0456E+06    -13.0429E+06    -29.6673E+06     3.88028E+06    -35.7760E-03     56.3505E-03    -20.5745E-03     48.2174E-03    -35.8534E-03     56.4288E-03    -20.6879E-03     48.1029E-03
            2235     12.3536E-03     11.9403E-03    -9.99644E+06    -34.2309E+06    -20.9598E+06     4.77728E+06    -33.0436E-03     52.7521E-03    -19.7085E-03     41.6952E-03    -33.0581E-03     52.6706E-03    -19.7492E-03     41.6544E-03
            2236     11.4818E-03     11.8993E-03    -9.57099E+06    -48.2907E+06    -15.3678E+06     4.89082E+06    -30.4883E-03     49.3533E-03    -18.8650E-03     32.1225E-03    -30.4665E-03     49.1709E-03    -18.8580E-03     32.1192E-03
            2237     10.6073E-03     11.8643E-03    -9.80129E+06    -62.2881E+06    -14.7573E+06     5.09935E+06    -28.0800E-03     46.1247E-03    -18.0447E-03     25.3918E-03    -28.0296E-03     45.8613E-03    -18.0139E-03     25.4140E-03
            2238     9.73122E-03     11.8356E-03    -10.0068E+06    -71.4329E+06    -11.2505E+06     5.55374E+06    -25.7020E-03     42.9910E-03    -17.2890E-03     19.9935E-03    -25.6386E-03     42.6713E-03    -17.2271E-03     20.0371E-03
            2239     8.85284E-03     11.8113E-03    -9.98912E+06    -75.9611E+06    -7.62250E+06     5.62195E+06    -23.4596E-03     40.0547E-03    -16.5951E-03     15.6280E-03    -23.3918E-03     39.7040E-03    -16.5086E-03     15.6826E-03
            2240     7.97286E-03     11.7914E-03    -10.1186E+06    -79.0783E+06    -6.02901E+06     5.43670E+06    -21.4102E-03     37.3742E-03    -15.9640E-03     12.0200E-03    -21.3393E-03     37.0042E-03    -15.8648E-03     12.0785E-03
            2241     7.09097E-03     11.7751E-03    -10.2069E+06    -82.0649E+06    -5.35167E+06     5.46143E+06    -19.5912E-03     34.9975E-03    -15.4063E-03     9.13694E-03    -19.5165E-03     34.6108E-03    -15.2993E-03     9.19971E-03
            2242     6.20770E-03     11.7619E-03    -9.96901E+06    -82.8041E+06    -4.59948E+06     5.24545E+06    -18.0251E-03     32.9490E-03    -14.9239E-03     6.91370E-03    -17.9488E-03     32.5567E-03    -14.8124E-03     6.97615E-03
            2243     5.32307E-03     11.7513E-03    -9.68228E+06    -81.6715E+06    -4.81045E+06     4.57784E+06    -16.7067E-03     31.2177E-03    -14.5110E-03     5.20742E-03    -16.6300E-03     30.8306E-03    -14.4026E-03     5.26286E-03
            2244     4.43736E-03     11.7428E-03    -9.16945E+06    -79.9971E+06    -4.87643E+06     3.58339E+06    -15.6396E-03     29.8113E-03    -14.1717E-03     3.89361E-03    -15.5626E-03     29.4319E-03    -14.0668E-03     3.93731E-03
            2245     3.55085E-03     11.7361E-03    -8.35617E+06    -77.5141E+06    -4.65372E+06     2.49161E+06    -14.8146E-03     28.7150E-03    -13.9004E-03     2.87158E-03    -14.7373E-03     28.3464E-03    -13.7992E-03     2.90196E-03
            2246     2.66366E-03     11.7310E-03    -7.47912E+06    -75.4168E+06    -5.02738E+06     1.61868E+06    -14.2019E-03     27.8897E-03    -13.6878E-03     1.99115E-03    -14.1226E-03     27.5307E-03    -13.5928E-03     2.01084E-03
            2247     1.77605E-03     11.7275E-03    -6.74403E+06    -73.8618E+06    -5.73335E+06     907.150E+03    -13.7545E-03     27.2902E-03    -13.5356E-03     1.24480E-03    -13.6728E-03     26.9389E-03    -13.4474E-03     1.25578E-03
            2248     888.126E-06     11.7252E-03    -6.49651E+06    -73.0124E+06    -6.15188E+06     324.445E+03    -13.5207E-03     26.9482E-03    -13.4275E-03     631.008E-06    -13.4381E-03     26.6018E-03    -13.3430E-03     634.806E-06
            2249     16.6712E-03     11.4941E-03    -5.52688E+06     148.179E+06     78.4273E+06     566.278E+03    -69.6692E-03     95.0966E-03    -25.4274E-03     292.453E-03    -80.5977E-03     106.306E-03    -25.2421E-03     295.046E-03
            2250     15.8104E-03     11.2518E-03    -16.5988E+06     98.6034E+06     28.7301E+06     5.51934E+06    -58.4294E-03     82.1714E-03    -23.7420E-03     201.745E-03    -62.4916E-03     86.4420E-03    -23.7172E-03     201.140E-03
            2251     14.9695E-03     11.1079E-03    -14.1895E+06     57.5337E+06    -5.65023E+06     6.45491E+06    -46.2671E-03     68.5414E-03    -22.2744E-03     102.480E-03    -46.9774E-03     69.4228E-03    -22.3655E-03     102.103E-03
            2252     14.0990E-03     11.0394E-03    -9.37007E+06     20.1312E+06    -27.1028E+06     4.87696E+06    -38.4354E-03     59.5136E-03    -21.0782E-03     54.3045E-03    -38.6092E-03     59.8042E-03    -21.2293E-03     54.1415E-03
            2253     13.2298E-03     10.9900E-03    -10.2305E+06    -14.2651E+06    -31.1543E+06     5.49824E+06    -36.4373E-03     56.5082E-03    -20.0709E-03     43.9216E-03    -36.4979E-03     56.5725E-03    -20.1912E-03     43.8325E-03
            2254     12.3614E-03     10.9422E-03    -11.2699E+06    -33.2647E+06    -21.3644E+06     5.34757E+06    -33.7379E-03     52.8584E-03    -19.1204E-03     37.1291E-03    -33.7539E-03     52.7786E-03    -19.1627E-03     37.0986E-03
            2255     11.4891E-03     10.9036E-03    -11.5143E+06    -48.0173E+06    -16.1741E+06     5.43030E+06    -30.6684E-03     48.8615E-03    -18.1931E-03     27.9911E-03    -30.6521E-03     48.6811E-03    -18.1876E-03     27.9987E-03
            2256     10.6155E-03     10.8725E-03    -11.5132E+06    -61.6629E+06    -14.5658E+06     5.57690E+06    -27.9300E-03     45.2452E-03    -17.3152E-03     21.5028E-03    -27.8873E-03     44.9852E-03    -17.2819E-03     21.5341E-03
            2257     9.73881E-03     10.8467E-03    -11.2653E+06    -70.9666E+06    -10.9330E+06     5.30362E+06    -25.2695E-03     41.7855E-03    -16.5160E-03     16.6497E-03    -25.2125E-03     41.4685E-03    -16.4514E-03     16.6923E-03
            2258     8.86035E-03     10.8256E-03    -11.0125E+06    -75.0958E+06    -6.85028E+06     5.16626E+06    -22.8205E-03     38.6173E-03    -15.7968E-03     12.8765E-03    -22.7596E-03     38.2708E-03    -15.7062E-03     12.9267E-03
            2259     7.97950E-03     10.8083E-03    -11.0393E+06    -78.1985E+06    -4.61760E+06     4.98124E+06    -20.6318E-03     35.7882E-03    -15.1564E-03     9.86913E-03    -20.5686E-03     35.4216E-03    -15.0501E-03     9.92260E-03
            2260     7.09706E-03     10.7945E-03    -11.0322E+06    -80.9595E+06    -3.56804E+06     4.41511E+06    -18.7480E-03     33.3461E-03    -14.5981E-03     7.55294E-03    -18.6815E-03     32.9634E-03    -14.4826E-03     7.60260E-03
            2261     6.21289E-03     10.7832E-03    -10.8313E+06    -81.6049E+06    -2.96323E+06     3.82575E+06    -17.1686E-03     31.2869E-03    -14.1183E-03     5.79069E-03    -17.1007E-03     30.8994E-03    -13.9991E-03     5.83494E-03
            2262     5.32756E-03     10.7743E-03    -10.5193E+06    -79.9559E+06    -3.12417E+06     3.13135E+06    -15.8707E-03     29.5796E-03    -13.7089E-03     4.43287E-03    -15.8032E-03     29.2000E-03    -13.5934E-03     4.46960E-03
            2263     4.44113E-03     10.7672E-03    -10.3212E+06    -78.0379E+06    -4.30399E+06     1.96115E+06    -14.8336E-03     28.1983E-03    -13.3647E-03     3.40317E-03    -14.7660E-03     27.8295E-03    -13.2581E-03     3.42582E-03
            2264     3.55389E-03     10.7615E-03    -10.1774E+06    -76.0459E+06    -6.01072E+06     820.527E+03    -14.0192E-03     27.1005E-03    -13.0812E-03     2.57066E-03    -13.9512E-03     26.7438E-03    -12.9863E-03     2.57934E-03
            2265     2.66602E-03     10.7573E-03    -10.0027E+06    -74.4972E+06    -7.59926E+06     179.100E+03    -13.3946E-03     26.2523E-03    -12.8577E-03     1.83959E-03    -13.3256E-03     25.9053E-03    -12.7732E-03     1.84058E-03
            2266     1.77767E-03     10.7542E-03    -9.84097E+06    -73.2534E+06    -8.61920E+06    -29.8157E+03    -12.9435E-03     25.6372E-03    -12.6937E-03     1.17436E-03    -12.8740E-03     25.2977E-03    -12.6163E-03     1.17313E-03
            2267     888.882E-06     10.7526E-03    -9.69751E+06    -72.6788E+06     -9.4811E+06     62.7285E+03    -12.6542E-03     25.2462E-03    -12.5920E-03     653.452E-06    -12.5832E-03     24.9109E-03    -12.5200E-03     653.829E-06
            2268     16.6695E-03     10.4796E-03    -5.79491E+06     145.719E+06     80.4089E+06     3.44665E+06    -72.0284E-03     97.4924E-03    -25.4639E-03     274.415E-03    -81.8041E-03     107.532E-03    -25.2648E-03     276.431E-03
            2269     15.8284E-03     10.2144E-03    -11.3190E+06     101.702E+06     34.2617E+06     4.76378E+06    -60.9758E-03     84.5365E-03    -23.5607E-03     181.200E-03    -64.5037E-03     88.2876E-03    -23.5204E-03     180.283E-03
            2270     14.9647E-03     10.0981E-03    -12.5976E+06     56.1394E+06    -8.70979E+06     4.73983E+06    -46.8206E-03     68.7186E-03    -21.8980E-03     89.5007E-03    -47.4462E-03     69.5252E-03    -22.0047E-03     89.0962E-03
            2271     14.1030E-03     10.0356E-03    -13.6698E+06     19.6354E+06    -30.7411E+06     7.09023E+06    -39.7019E-03     60.3040E-03    -20.6020E-03     51.0517E-03    -39.8765E-03     60.5892E-03    -20.7644E-03     50.9194E-03
            2272     13.2374E-03     9.98604E-03    -13.0438E+06    -12.1638E+06    -32.3211E+06     7.28382E+06    -37.0324E-03     56.5365E-03    -19.5040E-03     39.2708E-03    -37.0997E-03     56.6083E-03    -19.6291E-03     39.2090E-03
            2273     12.3689E-03     9.94332E-03    -12.1981E+06    -32.9384E+06    -21.8313E+06     6.36088E+06    -34.0652E-03     52.5423E-03    -18.4771E-03     31.5012E-03    -34.0803E-03     52.4609E-03    -18.5208E-03     31.4867E-03
            2274     11.4980E-03     9.90892E-03    -12.5370E+06    -46.6763E+06    -15.5134E+06     5.99056E+06    -30.4916E-03     47.9852E-03    -17.4936E-03     23.6922E-03    -30.4805E-03     47.8092E-03    -17.4853E-03     23.7107E-03
            2275     10.6232E-03     9.88142E-03    -12.3600E+06    -60.8415E+06    -13.7372E+06     5.26480E+06    -27.3403E-03     43.9274E-03    -16.5871E-03     18.0133E-03    -27.3027E-03     43.6700E-03    -16.5496E-03     18.0436E-03
            2276     9.74654E-03     9.85931E-03    -11.8901E+06    -69.7579E+06    -9.52330E+06     4.77339E+06    -24.4670E-03     40.2513E-03    -15.7843E-03     13.9646E-03    -24.4162E-03     39.9384E-03    -15.7135E-03     14.0023E-03
            2277     8.86688E-03     9.84134E-03    -11.6838E+06    -74.5332E+06    -5.15062E+06     4.34486E+06    -21.8643E-03     36.9447E-03    -15.0804E-03     10.9645E-03    -21.8098E-03     36.5992E-03    -14.9812E-03     11.0052E-03
            2278     7.98543E-03     9.82691E-03    -11.5347E+06    -77.0876E+06    -2.46182E+06     4.04538E+06    -19.6317E-03     34.1003E-03    -14.4686E-03     8.64663E-03    -19.5756E-03     33.7368E-03    -14.3524E-03     8.68861E-03
            2279     7.10189E-03     9.81540E-03    -11.6725E+06    -79.4350E+06    -1.21749E+06     3.24770E+06    -17.7878E-03     31.7334E-03    -13.9456E-03     6.93023E-03    -17.7302E-03     31.3559E-03    -13.8196E-03     6.96505E-03
            2280     6.21707E-03     9.80613E-03    -11.8217E+06    -80.3261E+06    -1.13422E+06     2.16821E+06    -16.2923E-03     29.7921E-03    -13.4998E-03     5.61523E-03    -16.2339E-03     29.4099E-03    -13.3719E-03     5.63810E-03
            2281     5.33090E-03     9.79881E-03    -11.6892E+06    -78.6084E+06    -2.36764E+06     1.26268E+06    -15.0895E-03     28.2074E-03    -13.1179E-03     4.57929E-03    -15.0309E-03     27.8351E-03    -12.9988E-03     4.59183E-03
            2282     4.44384E-03     9.79291E-03    -11.4622E+06    -76.5949E+06    -4.88703E+06     452.078E+03    -14.1387E-03     26.9333E-03    -12.7946E-03     3.74900E-03    -14.0781E-03     26.5743E-03    -12.6914E-03     3.75206E-03
            2283     3.55600E-03     9.78836E-03    -11.5689E+06    -75.2592E+06    -7.75792E+06    -183.601E+03    -13.3836E-03     25.9141E-03    -12.5305E-03     3.00597E-03    -13.3212E-03     25.5659E-03    -12.4434E-03     3.00159E-03
            2284     2.66753E-03     9.78486E-03    -11.8752E+06    -74.2935E+06    -9.90471E+06    -530.836E+03    -12.8013E-03     25.1298E-03    -12.3285E-03     2.27674E-03    -12.7386E-03     24.7899E-03    -12.2531E-03     2.26848E-03
            2285     1.77855E-03     9.78253E-03    -12.1555E+06    -73.5477E+06    -11.3190E+06    -552.946E+03    -12.4053E-03     24.5885E-03    -12.1832E-03     1.53709E-03    -12.3430E-03     24.2548E-03    -12.1155E-03     1.52905E-03
            2286     889.449E-06     9.78103E-03    -12.3506E+06    -72.9646E+06    -11.7728E+06    -272.211E+03    -12.1882E-03     24.2439E-03    -12.0557E-03     816.937E-06    -12.1268E-03     23.9144E-03    -11.9908E-03     812.975E-06
            2287     16.6829E-03     9.42820E-03    -6.57056E+06     145.431E+06     82.7776E+06     3.37474E+06    -77.9146E-03     103.176E-03    -25.2614E-03     267.036E-03    -87.2393E-03     112.755E-03    -25.0489E-03     268.237E-03
            2288     15.8335E-03     9.20196E-03    -8.76776E+06     99.4288E+06     34.2834E+06     6.36819E+06    -61.4117E-03     84.5494E-03    -23.1377E-03     169.976E-03    -64.4467E-03     87.8095E-03    -23.0977E-03     168.972E-03
            2289     14.9757E-03     9.08444E-03    -11.4020E+06     53.1809E+06    -9.63723E+06     8.09640E+06    -46.5470E-03     67.9629E-03    -21.4160E-03     78.8679E-03    -47.0732E-03     68.6663E-03    -21.5247E-03     78.5344E-03
            2290     14.1129E-03     9.02889E-03    -12.9208E+06     20.2951E+06    -25.3828E+06     8.27225E+06    -40.8212E-03     60.8919E-03    -20.0706E-03     42.9004E-03    -40.9861E-03     61.1570E-03    -20.2082E-03     42.7804E-03
            2291     13.2466E-03     8.98322E-03    -13.3519E+06    -10.1863E+06    -27.6717E+06     7.30787E+06    -37.1253E-03     56.0077E-03    -18.8824E-03     34.1251E-03    -37.1948E-03     56.0743E-03    -18.9866E-03     34.0703E-03
            2292     12.3781E-03     8.94470E-03    -13.3578E+06    -31.5167E+06    -19.8920E+06     7.14064E+06    -33.4371E-03     51.2487E-03    -17.8116E-03     26.5270E-03    -33.4577E-03     51.1681E-03    -17.8460E-03     26.5296E-03
            2293     11.5057E-03     8.91549E-03    -13.0995E+06    -44.9890E+06    -13.1430E+06     5.94374E+06    -29.6320E-03     46.4618E-03    -16.8298E-03     19.9951E-03    -29.6272E-03     46.2892E-03    -16.8112E-03     20.0179E-03
            2294     10.6308E-03     8.89186E-03    -12.7860E+06    -59.0498E+06    -10.5821E+06     4.67938E+06    -26.2059E-03     42.1573E-03    -15.9514E-03     15.5064E-03    -26.1765E-03     41.9038E-03    -15.9001E-03     15.5326E-03
            2295     9.75246E-03     8.87358E-03    -12.2461E+06    -68.7939E+06    -6.50584E+06     3.69564E+06    -23.2194E-03     38.4164E-03    -15.1970E-03     12.3443E-03    -23.1757E-03     38.1041E-03    -15.1120E-03     12.3702E-03
            2296     8.87211E-03     8.85878E-03    -11.6178E+06    -73.4343E+06    -1.58123E+06     3.06622E+06    -20.6198E-03     35.1788E-03    -14.5590E-03     10.1704E-03    -20.5716E-03     34.8334E-03    -14.4436E-03     10.1957E-03
            2297     7.98925E-03     8.84720E-03    -11.3507E+06    -76.4027E+06     1.32210E+06     2.54231E+06    -18.4695E-03     32.4921E-03    -14.0226E-03     8.59897E-03    -18.4190E-03     32.1263E-03    -13.8888E-03     8.62215E-03
            2298     7.10492E-03     8.83779E-03    -11.4566E+06    -77.8753E+06     2.26558E+06     1.99701E+06    -16.7789E-03     30.3534E-03    -13.5746E-03     7.43060E-03    -16.7275E-03     29.9785E-03    -13.4337E-03     7.44954E-03
            2299     6.21908E-03     8.83040E-03    -11.9725E+06    -78.6037E+06     686.449E+03     609.904E+03    -15.4593E-03     28.6565E-03    -13.1971E-03     6.49105E-03    -15.4069E-03     28.2805E-03    -13.0624E-03     6.49393E-03
            2300     5.33233E-03     8.82440E-03    -12.2322E+06    -77.7786E+06    -2.65522E+06    -653.901E+03    -14.4411E-03     27.3195E-03    -12.8783E-03     5.69036E-03    -14.3861E-03     26.9526E-03    -12.7611E-03     5.67823E-03
            2301     4.44469E-03     8.81972E-03    -12.2751E+06    -76.2474E+06    -5.86284E+06    -962.642E+03    -13.6532E-03     26.2716E-03    -12.6185E-03     4.90570E-03    -13.5957E-03     25.9170E-03    -12.5194E-03     4.89055E-03
            2302     3.55643E-03     8.81599E-03    -12.3751E+06    -75.1432E+06    -8.40569E+06    -973.864E+03    -13.0486E-03     25.4640E-03    -12.4154E-03     4.06900E-03    -12.9895E-03     25.1186E-03    -12.3305E-03     4.05445E-03
            2303     2.66769E-03     8.81327E-03    -12.6094E+06    -74.6083E+06    -10.5689E+06    -929.453E+03    -12.6051E-03     24.8686E-03    -12.2635E-03     3.14892E-03    -12.5447E-03     24.5293E-03    -12.1899E-03     3.13554E-03
            2304     1.77867E-03     8.81130E-03    -12.8102E+06    -74.1861E+06    -12.1166E+06    -767.673E+03    -12.3036E-03     24.4636E-03    -12.1600E-03     2.18114E-03    -12.2425E-03     24.1288E-03    -12.0944E-03     2.17036E-03
            2305     889.315E-06     8.81016E-03    -12.8551E+06    -73.6667E+06    -12.6088E+06    -637.542E+03    -12.1713E-03     24.2393E-03    -12.0680E-03     1.19843E-03    -12.1102E-03     23.9082E-03    -12.0056E-03     1.18976E-03
            2306     16.6763E-03     8.38458E-03    -5.02884E+06     140.467E+06     81.4375E+06     3.65122E+06    -79.4560E-03     104.491E-03    -25.0354E-03     255.442E-03    -87.9826E-03     113.264E-03    -24.8246E-03     256.127E-03
            2307     15.8364E-03     8.17429E-03    -9.04568E+06     93.5928E+06     36.7573E+06     6.61225E+06    -62.9659E-03     85.7553E-03    -22.7894E-03     151.839E-03    -65.4689E-03     88.4542E-03    -22.7282E-03     150.780E-03
            2308     14.9842E-03     8.07277E-03    -10.2019E+06     54.2842E+06    -207.037E+03     9.30852E+06    -48.0275E-03     68.9665E-03    -20.9390E-03     70.7429E-03    -48.4949E-03     69.5923E-03    -21.0040E-03     70.4328E-03
            2309     14.1212E-03     8.02247E-03    -9.93238E+06     22.1755E+06    -19.8637E+06     10.0693E+06    -40.7692E-03     60.2551E-03    -19.4859E-03     39.1287E-03    -40.9132E-03     60.5007E-03    -19.6029E-03     39.0489E-03
            2310     13.2558E-03     7.98107E-03    -11.3662E+06    -8.75218E+06    -22.9620E+06     9.79427E+06    -36.5129E-03     54.7885E-03    -18.2756E-03     30.3639E-03    -36.5729E-03     54.8442E-03    -18.3612E-03     30.3544E-03
            2311     12.3857E-03     7.94839E-03    -13.0881E+06    -28.7463E+06    -14.9231E+06     8.14294E+06    -32.1096E-03     49.3388E-03    -17.2292E-03     23.1512E-03    -32.1353E-03     49.2597E-03    -17.2431E-03     23.1777E-03
            2312     11.5127E-03     7.92330E-03    -13.9589E+06    -42.2378E+06    -8.73351E+06     5.78378E+06    -28.0517E-03     44.3608E-03    -16.3091E-03     17.6560E-03    -28.0596E-03     44.1949E-03    -16.2713E-03     17.6833E-03
            2313     10.6357E-03     7.90459E-03    -13.7405E+06    -56.6099E+06    -5.73012E+06     3.39628E+06    -24.5678E-03     40.0886E-03    -15.5207E-03     14.3399E-03    -24.5531E-03     39.8409E-03    -15.4474E-03     14.3535E-03
            2314     9.75640E-03     7.88948E-03    -12.6685E+06    -67.5292E+06    -2.09363E+06     1.73190E+06    -21.6088E-03     36.4793E-03    -14.8705E-03     12.1657E-03    -21.5753E-03     36.1673E-03    -14.7647E-03     12.1686E-03
            2315     8.87425E-03     7.87815E-03    -11.7540E+06    -72.7367E+06     2.41764E+06     1.07748E+06    -19.1814E-03     33.5294E-03    -14.3481E-03     10.7773E-03    -19.1407E-03     33.1819E-03    -14.2135E-03     10.7783E-03
            2316     7.99042E-03     7.86880E-03    -11.4470E+06    -75.7075E+06     5.01624E+06     682.619E+03    -17.2893E-03     31.2189E-03    -13.9296E-03     9.85354E-03    -17.2457E-03     30.8514E-03    -13.7781E-03     9.85347E-03
            2317     7.10492E-03     7.86147E-03    -11.3473E+06    -76.8334E+06     5.15871E+06    -50.8344E+03    -15.8723E-03     29.4652E-03    -13.5929E-03     9.05686E-03    -15.8262E-03     29.0912E-03    -13.4393E-03     9.04984E-03
            2318     6.21847E-03     7.85541E-03    -11.2452E+06    -77.0021E+06     2.09056E+06    -1.00468E+06    -14.8340E-03     28.1504E-03    -13.3163E-03     8.25611E-03    -14.7824E-03     27.7794E-03    -13.1779E-03     8.23848E-03
            2319     5.33111E-03     7.85065E-03    -11.7902E+06    -77.3876E+06    -2.56666E+06    -1.89892E+06    -14.0823E-03     27.1767E-03    -13.0944E-03     7.43119E-03    -14.0258E-03     26.8111E-03    -12.9779E-03     7.40325E-03
            2320     4.44325E-03     7.84670E-03    -12.2522E+06    -76.5659E+06    -5.59215E+06    -2.28878E+06    -13.5438E-03     26.4709E-03    -12.9271E-03     6.49119E-03    -13.4862E-03     26.1142E-03    -12.8262E-03     6.45914E-03
            2321     3.55498E-03     7.84370E-03    -12.1931E+06    -75.8412E+06    -7.76825E+06    -2.14721E+06    -13.1598E-03     25.9618E-03    -12.8020E-03     5.39383E-03    -13.0997E-03     25.6117E-03    -12.7132E-03     5.36432E-03
            2322     2.66645E-03     7.84133E-03    -11.9260E+06    -75.4437E+06    -9.57381E+06    -1.63869E+06    -12.8936E-03     25.6054E-03    -12.7118E-03     4.18818E-03    -12.8300E-03     25.2594E-03    -12.6330E-03     4.16580E-03
            2323     1.77769E-03     7.83976E-03    -11.8094E+06    -75.0810E+06    -10.7047E+06    -1.20071E+06    -12.7258E-03     25.3793E-03    -12.6534E-03     2.89058E-03    -12.6605E-03     25.0365E-03    -12.5810E-03     2.87431E-03
            2324     888.890E-06     7.83872E-03    -11.8043E+06    -74.9128E+06    -11.4561E+06    -727.231E+03    -12.6322E-03     25.2581E-03    -12.6259E-03     1.57401E-03    -12.5657E-03     24.9175E-03    -12.5574E-03     1.56423E-03
            2325     16.6911E-03     7.34095E-03    -3.22213E+06     136.460E+06     84.2437E+06     4.23092E+06    -82.3571E-03     107.133E-03    -24.7757E-03     244.036E-03    -90.0645E-03     115.071E-03    -24.5476E-03     244.081E-03
            2326     15.8475E-03     7.14752E-03    -6.43638E+06     90.2018E+06     42.5449E+06     6.85871E+06    -63.2369E-03     85.6400E-03    -22.4032E-03     134.338E-03    -65.2507E-03     87.8307E-03    -22.3119E-03     133.291E-03
            2327     14.9902E-03     7.06075E-03    -8.76715E+06     52.2948E+06     4.41056E+06     9.66939E+06    -47.8358E-03     68.3190E-03    -20.4832E-03     60.3333E-03    -48.2301E-03     68.8564E-03    -20.5243E-03     60.0599E-03
            2328     14.1289E-03     7.01551E-03    -11.2651E+06     21.7722E+06    -16.7368E+06     12.8300E+06    -40.2669E-03     59.2704E-03    -19.0035E-03     34.6785E-03    -40.4071E-03     59.4970E-03    -19.1024E-03     34.6521E-03
            2329     13.2622E-03     6.98087E-03    -14.2183E+06    -5.68403E+06    -18.7463E+06     13.0321E+06    -35.2349E-03     53.0531E-03    -17.8182E-03     26.8870E-03    -35.3124E-03     53.1149E-03    -17.8831E-03     26.9338E-03
            2330     12.3916E-03     6.95345E-03    -16.1867E+06    -23.4075E+06    -9.61751E+06     9.19673E+06    -30.1647E-03     47.0165E-03    -16.8519E-03     20.9271E-03    -30.2175E-03     46.9571E-03    -16.8426E-03     20.9788E-03
            2331     11.5160E-03     6.93406E-03    -16.0990E+06    -37.9346E+06    -3.43777E+06     4.36229E+06    -25.8705E-03     41.9274E-03    -16.0569E-03     17.1317E-03    -25.9015E-03     41.7768E-03    -15.9957E-03     17.1481E-03
            2332     10.6377E-03     6.91878E-03    -14.6166E+06    -53.6308E+06    -161.807E+03     888.550E+03    -22.5459E-03     37.9659E-03    -15.4200E-03     14.9639E-03    -22.5474E-03     37.7257E-03    -15.3218E-03     14.9496E-03
            2333     9.75619E-03     6.90775E-03    -13.1116E+06    -66.1911E+06     3.04682E+06    -1.18308E+06    -19.8699E-03     34.7972E-03    -14.9273E-03     13.6375E-03    -19.8478E-03     34.4849E-03    -14.7971E-03     13.6054E-03
            2334     8.87279E-03     6.89864E-03    -11.9095E+06    -72.9773E+06     6.58324E+06    -1.60472E+06    -17.8304E-03     32.3886E-03    -14.5582E-03     12.8393E-03    -17.7962E-03     32.0340E-03    -14.4022E-03     12.8073E-03
            2335     7.98767E-03     6.89162E-03    -11.2842E+06    -75.0859E+06     7.90299E+06    -1.68936E+06    -16.3702E-03     30.6476E-03    -14.2774E-03     12.1716E-03    -16.3308E-03     30.2788E-03    -14.1127E-03     12.1419E-03
            2336     7.10158E-03     6.88549E-03    -11.0568E+06    -75.9675E+06     6.17815E+06    -2.59132E+06    -15.3513E-03     29.4129E-03    -14.0616E-03     11.4001E-03    -15.3065E-03     29.0413E-03    -13.9045E-03     11.3610E-03
            2337     6.21466E-03     6.88062E-03    -10.9394E+06    -76.8563E+06     2.69692E+06    -3.09735E+06    -14.6744E-03     28.5724E-03    -13.8980E-03     10.4109E-03    -14.6222E-03     28.2007E-03    -13.7572E-03     10.3668E-03
            2338     5.32735E-03     6.87646E-03    -10.6717E+06    -77.2200E+06    -715.430E+03    -3.29795E+06    -14.2314E-03     28.0092E-03    -13.7778E-03     9.27007E-03    -14.1722E-03     27.6400E-03    -13.6539E-03     9.22449E-03
            2339     4.43970E-03     6.87309E-03    -10.5510E+06    -77.1138E+06    -3.61107E+06    -3.70572E+06    -13.9433E-03     27.6347E-03    -13.6914E-03     7.98346E-03    -13.8793E-03     27.2699E-03    -13.5823E-03     7.93346E-03
            2340     3.55189E-03     6.87031E-03    -10.4162E+06    -77.1958E+06    -6.09633E+06    -3.54655E+06    -13.7631E-03     27.3932E-03    -13.6301E-03     6.53481E-03    -13.6946E-03     27.0312E-03    -13.5335E-03     6.48750E-03
            2341     2.66396E-03     6.86829E-03    -10.0963E+06    -77.0484E+06    -7.62865E+06    -2.85797E+06    -13.6506E-03     27.2401E-03    -13.5895E-03     5.00987E-03    -13.5784E-03     26.8805E-03    -13.5013E-03     4.97195E-03
            2342     1.77600E-03     6.86671E-03    -9.69773E+06    -76.6535E+06    -8.21899E+06    -1.95382E+06    -13.5902E-03     27.1544E-03    -13.5641E-03     3.43137E-03    -13.5157E-03     26.7970E-03    -13.4800E-03     3.40551E-03
            2343     888.033E-06     6.86581E-03    -9.64330E+06    -76.7474E+06    -8.97161E+06    -1.07318E+06    -13.5407E-03     27.0997E-03    -13.5590E-03     1.86577E-03    -13.4644E-03     26.7433E-03    -13.4786E-03     1.85160E-03
            2344     16.6887E-03     6.29089E-03    -5.10791E+06     132.024E+06     84.3258E+06     2.68019E+06    -85.4027E-03     109.974E-03    -24.5713E-03     230.276E-03    -92.2184E-03     116.999E-03    -24.3337E-03     229.667E-03
            2345     15.8503E-03     6.12003E-03     -7.8084E+06     86.1859E+06     44.7028E+06     6.68371E+06    -63.4060E-03     85.4797E-03    -22.0737E-03     118.681E-03    -65.0530E-03     87.2785E-03    -21.9638E-03     117.675E-03
            2346     14.9988E-03     6.04877E-03    -10.9195E+06     48.0167E+06     8.07830E+06     12.1568E+06    -47.0061E-03     67.1426E-03    -20.1365E-03     51.2377E-03    -47.3439E-03     67.5904E-03    -20.1499E-03     51.0409E-03
            2347     14.1341E-03     6.01115E-03    -15.1129E+06     20.0684E+06    -12.3229E+06     17.4151E+06    -38.4427E-03     57.1524E-03    -18.7097E-03     31.8914E-03    -38.5925E-03     57.3562E-03    -18.7785E-03     31.9514E-03
            2348     13.2663E-03     5.98149E-03    -19.0270E+06     445.632E+03    -13.3908E+06     16.0203E+06    -32.8500E-03     50.4834E-03    -17.6335E-03     25.1467E-03    -32.9615E-03     50.5684E-03    -17.6735E-03     25.2515E-03
            2349     12.3927E-03     5.96203E-03    -20.2208E+06    -14.1090E+06    -2.88434E+06     8.18408E+06    -27.5232E-03     44.3512E-03    -16.8281E-03     20.8758E-03    -27.6166E-03     44.3315E-03    -16.7927E-03     20.9263E-03
            2350     11.5151E-03     5.94657E-03    -18.6110E+06    -32.2512E+06     2.72616E+06     568.837E+03    -23.4239E-03     39.6447E-03    -16.2208E-03     18.9769E-03    -23.4836E-03     39.5162E-03    -16.1334E-03     18.9516E-03
            2351     10.6342E-03     5.93561E-03    -15.7896E+06    -51.1331E+06     5.13645E+06    -3.44475E+06    -20.5713E-03     36.3458E-03    -15.7745E-03     17.5413E-03    -20.5894E-03     36.1116E-03    -15.6518E-03     17.4756E-03
            2352     9.75128E-03     5.92687E-03    -13.5118E+06    -65.7405E+06     7.54442E+06    -4.66807E+06    -18.4841E-03     33.9435E-03    -15.4594E-03     16.4820E-03    -18.4708E-03     33.6272E-03    -15.3068E-03     16.4076E-03
            2353     8.86662E-03     5.92027E-03    -12.2581E+06    -73.4942E+06     9.34810E+06    -4.97720E+06    -17.0397E-03     32.2799E-03    -15.2402E-03     15.7608E-03    -17.0103E-03     31.9190E-03    -15.0691E-03     15.6870E-03
            2354     7.98106E-03     5.91414E-03    -10.9032E+06    -75.2431E+06     8.95316E+06    -5.10468E+06    -16.1204E-03     31.1994E-03    -15.0790E-03     14.8166E-03    -16.0803E-03     30.8275E-03    -14.9093E-03     14.7440E-03
            2355     7.09483E-03     5.90927E-03    -9.94297E+06    -75.9438E+06     5.91452E+06    -5.04783E+06    -15.5405E-03     30.4977E-03    -14.9572E-03     13.5896E-03    -15.4897E-03     30.1248E-03    -14.8031E-03     13.5196E-03
            2356     6.20827E-03     5.90469E-03    -9.62583E+06    -77.3578E+06     2.28847E+06    -5.30784E+06    -15.1889E-03     30.0598E-03    -14.8709E-03     12.1390E-03    -15.1288E-03     29.6842E-03    -14.7334E-03     12.0670E-03
            2357     5.32152E-03     5.90105E-03    -9.14620E+06    -77.7672E+06     29.7981E+03    -5.57526E+06    -14.9802E-03     29.7937E-03    -14.8136E-03     10.5582E-03    -14.9136E-03     29.4184E-03    -14.6874E-03     10.4836E-03
            2358     4.43468E-03     5.89775E-03    -8.50654E+06    -78.3091E+06    -2.49674E+06    -5.32182E+06    -14.8558E-03     29.6261E-03    -14.7704E-03     8.89242E-03    -14.7814E-03     29.2507E-03    -14.6570E-03     8.82190E-03
            2359     3.54777E-03     5.89523E-03    -8.22689E+06    -79.0380E+06    -4.87807E+06    -4.73530E+06    -14.7860E-03     29.5248E-03    -14.7388E-03     7.12993E-03    -14.7056E-03     29.1486E-03    -14.6366E-03     7.06751E-03
            2360     2.66085E-03     5.89313E-03    -8.05445E+06    -79.2553E+06    -6.15239E+06    -3.99245E+06    -14.7433E-03     29.4614E-03    -14.7181E-03     5.38243E-03    -14.6598E-03     29.0857E-03    -14.6223E-03     5.33003E-03
            2361     1.77392E-03     5.89172E-03    -7.72748E+06    -79.3208E+06    -6.92184E+06    -2.83935E+06    -14.7055E-03     29.4127E-03    -14.7072E-03     3.65486E-03    -14.6191E-03     29.0372E-03    -14.6156E-03     3.61768E-03
            2362     886.914E-06     5.89075E-03    -7.34027E+06    -79.2786E+06    -7.17248E+06    -1.57960E+06    -14.6984E-03     29.4086E-03    -14.7103E-03     1.99502E-03    -14.6094E-03     29.0335E-03    -14.6205E-03     1.97436E-03
            2363     16.6969E-03     5.24354E-03    -5.09130E+06     127.274E+06     83.8315E+06     2.41090E+06    -86.7004E-03     111.172E-03    -24.4719E-03     212.076E-03    -92.4425E-03     117.110E-03    -24.2299E-03     211.003E-03
            2364     15.8565E-03     5.08912E-03    -10.8035E+06     79.6562E+06     47.0684E+06     8.34844E+06    -62.1524E-03     84.0904E-03    -21.9381E-03     101.584E-03    -63.4616E-03     85.5112E-03    -21.8025E-03     100.704E-03
            2365     14.9997E-03     5.03984E-03    -17.7764E+06     40.8441E+06     12.5903E+06     17.0421E+06    -44.6883E-03     64.7730E-03    -20.0847E-03     43.8023E-03    -44.9945E-03     65.1263E-03    -20.0552E-03     43.7350E-03
            2366     14.1349E-03     5.00787E-03    -22.8510E+06     19.8305E+06    -4.96458E+06     21.0820E+06    -35.5476E-03     54.3580E-03    -18.8105E-03     32.4549E-03    -35.7357E-03     54.5506E-03    -18.8309E-03     32.5943E-03
            2367     13.2634E-03     4.98638E-03    -23.6072E+06     12.0854E+06    -4.62914E+06     15.2541E+06    -29.6758E-03     47.5952E-03    -17.9194E-03     26.6417E-03    -29.8340E-03     47.7265E-03    -17.9259E-03     26.7584E-03
            2368     12.3873E-03     4.97218E-03    -20.7023E+06    -2.34232E+06     3.80804E+06     3.81430E+06    -24.8487E-03     42.1665E-03    -17.3179E-03     23.7208E-03    -24.9688E-03     42.1942E-03    -17.2654E-03     23.7263E-03
            2369     11.5071E-03     4.96184E-03    -17.6453E+06    -26.7320E+06     8.05550E+06    -4.34989E+06    -21.5709E-03     38.4869E-03    -16.9160E-03     22.7085E-03    -21.6403E-03     38.3756E-03    -16.8114E-03     22.6261E-03
            2370     10.6249E-03     4.95282E-03    -16.0943E+06    -49.8906E+06     8.18508E+06    -7.57858E+06    -19.4346E-03     36.0779E-03    -16.6433E-03     21.1418E-03    -19.4596E-03     35.8450E-03    -16.5067E-03     21.0268E-03
            2371     9.74105E-03     4.94677E-03    -14.9495E+06    -66.0419E+06     8.63682E+06    -8.69722E+06    -18.0927E-03     34.5582E-03    -16.4654E-03     19.6835E-03    -18.0874E-03     34.2402E-03    -16.3048E-03     19.5596E-03
            2372     8.85638E-03     4.94081E-03    -12.8210E+06    -74.0332E+06     8.64752E+06    -9.30631E+06    -17.3142E-03     33.6527E-03    -16.3385E-03     18.3537E-03    -17.2856E-03     33.2905E-03    -16.1693E-03     18.2255E-03
            2373     7.97126E-03     4.93581E-03    -10.7337E+06    -76.7215E+06     6.41639E+06    -9.07089E+06    -16.8504E-03     33.0833E-03    -16.2328E-03     16.6766E-03    -16.8035E-03     32.7071E-03    -16.0739E-03     16.5538E-03
            2374     7.08591E-03     4.93100E-03    -8.96721E+06    -77.4953E+06     3.52517E+06    -8.12160E+06    -16.5654E-03     32.7114E-03    -16.1459E-03     14.7918E-03    -16.5039E-03     32.3325E-03    -16.0029E-03     14.6828E-03
            2375     6.20043E-03     4.92699E-03    -7.59598E+06    -78.2305E+06     927.949E+03    -7.49561E+06    -16.3693E-03     32.4459E-03    -16.0766E-03     12.8206E-03    -16.2958E-03     32.0649E-03    -15.9475E-03     12.7208E-03
            2376     5.31479E-03     4.92328E-03    -7.21540E+06    -79.2193E+06    -1.60908E+06    -7.17837E+06    -16.2260E-03     32.2465E-03    -16.0205E-03     10.8643E-03    -16.1452E-03     31.8634E-03    -15.9032E-03     10.7695E-03
            2377     4.42912E-03     4.92027E-03    -7.38513E+06    -80.4675E+06    -4.05447E+06    -6.47515E+06    -16.1211E-03     32.0950E-03    -15.9739E-03     8.94295E-03    -16.0356E-03     31.7093E-03    -15.8668E-03     8.85780E-03
            2378     3.54338E-03     4.91767E-03    -7.40497E+06    -81.3762E+06    -5.76483E+06    -5.48351E+06    -16.0355E-03     31.9722E-03    -15.9367E-03     7.06763E-03    -15.9463E-03     31.5844E-03    -15.8368E-03     6.99573E-03
            2379     2.65760E-03     4.91575E-03    -7.50324E+06    -81.8910E+06    -6.65832E+06    -4.41542E+06    -15.9676E-03     31.8769E-03    -15.9093E-03     5.26711E-03    -15.8768E-03     31.4879E-03    -15.8129E-03     5.20936E-03
            2380     1.77173E-03     4.91430E-03    -7.70371E+06    -82.4831E+06    -7.59424E+06    -3.24456E+06    -15.9176E-03     31.8054E-03    -15.8878E-03     3.51997E-03    -15.8255E-03     31.4151E-03    -15.7950E-03     3.47762E-03
            2381     885.879E-06     4.91345E-03    -7.69866E+06    -82.7266E+06    -7.92328E+06    -1.72562E+06    -15.8745E-03     31.7602E-03    -15.8857E-03     1.94158E-03    -15.7812E-03     31.3695E-03    -15.7942E-03     1.91910E-03
            2382     16.6927E-03     4.18834E-03    -6.25127E+06     121.318E+06     76.4346E+06     4.29920E+06    -87.3362E-03     111.908E-03    -24.5719E-03     196.457E-03    -92.1983E-03     116.962E-03    -24.3565E-03     195.029E-03
            2383     15.8535E-03     4.06333E-03    -13.1034E+06     69.7438E+06     43.6402E+06     13.3170E+06    -59.4323E-03     81.5293E-03    -22.0970E-03     83.4147E-03    -60.3891E-03     82.5659E-03    -21.9609E-03     82.7532E-03
            2384     14.9959E-03     4.03229E-03    -19.9890E+06     35.4750E+06     22.7599E+06     21.9301E+06    -39.9909E-03     60.4964E-03    -20.5055E-03     39.5420E-03    -40.2656E-03     60.7615E-03    -20.4141E-03     39.6236E-03
            2385     14.1259E-03     4.00857E-03    -21.9845E+06     25.8614E+06     14.5112E+06     19.0903E+06    -32.0172E-03     51.5413E-03    -19.5241E-03     35.3621E-03    -32.2292E-03     51.7256E-03    -19.4572E-03     35.5066E-03
            2386     13.2518E-03     3.99310E-03    -17.3199E+06     26.7393E+06     11.2972E+06     8.66732E+06    -26.9272E-03     45.7650E-03    -18.8378E-03     30.1641E-03    -27.0922E-03     45.9311E-03    -18.7949E-03     30.2154E-03
            2387     12.3731E-03     3.98475E-03    -13.0908E+06     8.09118E+06     10.2841E+06    -1.73771E+06    -23.3996E-03     41.7978E-03    -18.3982E-03     27.7549E-03    -23.5034E-03     41.8541E-03    -18.3395E-03     27.6983E-03
            2388     11.4924E-03     3.97622E-03    -12.3160E+06    -23.8964E+06     10.0448E+06    -7.03974E+06    -21.2327E-03     39.3677E-03    -18.1350E-03     26.2011E-03    -21.2810E-03     39.2582E-03    -18.0322E-03     26.0889E-03
            2389     10.6101E-03     3.97022E-03    -13.2527E+06    -48.4037E+06     7.36783E+06    -9.64505E+06    -19.8593E-03     37.8081E-03    -17.9488E-03     23.8891E-03    -19.8701E-03     37.5784E-03    -17.8225E-03     23.7508E-03
            2390     9.72694E-03     3.96446E-03    -12.8400E+06    -65.6994E+06     5.34557E+06    -12.4859E+06    -19.1845E-03     36.9943E-03    -17.8097E-03     21.6214E-03    -19.1637E-03     36.6789E-03    -17.6691E-03     21.4506E-03
            2391     8.84364E-03     3.95952E-03    -11.2508E+06    -75.3603E+06     3.98061E+06    -13.5697E+06    -18.8169E-03     36.5019E-03    -17.6850E-03     19.2913E-03    -18.7713E-03     36.1370E-03    -17.5395E-03     19.1094E-03
            2392     7.96005E-03     3.95459E-03    -9.43718E+06    -79.5468E+06     1.25687E+06    -12.6620E+06    -18.5036E-03     36.0604E-03    -17.5568E-03     16.9056E-03    -18.4383E-03     35.6753E-03    -17.4215E-03     16.7374E-03
            2393     7.07630E-03     3.95032E-03    -7.85832E+06    -80.2343E+06    -775.062E+03    -11.0928E+06    -18.2254E-03     35.6625E-03    -17.4371E-03     14.5317E-03    -18.1479E-03     35.2743E-03    -17.3133E-03     14.3850E-03
            2394     6.19230E-03     3.94635E-03    -6.79920E+06     -80.737E+06    -2.20122E+06    -9.42126E+06    -17.9681E-03     35.2979E-03    -17.3298E-03     12.2764E-03    -17.8822E-03     34.9074E-03    -17.2139E-03     12.1522E-03
            2395     5.30818E-03     3.94306E-03    -6.44791E+06    -81.7416E+06    -4.04624E+06    -7.68089E+06    -17.7296E-03     34.9611E-03    -17.2315E-03     10.1739E-03    -17.6377E-03     34.5677E-03    -17.1239E-03     10.0729E-03
            2396     4.42380E-03     3.94010E-03    -6.90492E+06    -82.9753E+06    -6.04795E+06    -6.38603E+06    -17.5029E-03     34.6483E-03    -17.1454E-03     8.22444E-03    -17.4085E-03     34.2522E-03    -17.0453E-03     8.14068E-03
            2397     3.53927E-03     3.93781E-03    -7.68929E+06    -84.0744E+06    -7.58641E+06    -5.30981E+06    -17.3095E-03     34.3847E-03    -17.0752E-03     6.41925E-03    -17.2151E-03     33.9865E-03    -16.9801E-03     6.34975E-03
            2398     2.65456E-03     3.93593E-03    -8.38193E+06    -84.8068E+06    -8.38757E+06    -4.07158E+06    -17.1610E-03     34.1820E-03    -17.0210E-03     4.73310E-03    -17.0678E-03     33.7822E-03    -16.9278E-03     4.67989E-03
            2399     1.76982E-03     3.93464E-03    -9.14216E+06    -85.5022E+06    -9.02291E+06    -2.74907E+06    -17.0584E-03     34.0345E-03    -16.9762E-03     3.14665E-03    -16.9670E-03     33.6333E-03    -16.8840E-03     3.11078E-03
            2400     884.967E-06     3.93380E-03    -9.80356E+06    -86.2020E+06    -9.76248E+06    -1.51975E+06    -16.9552E-03     33.9080E-03    -16.9528E-03     1.69786E-03    -16.8647E-03     33.5057E-03    -16.8624E-03     1.67806E-03
            2401     16.6841E-03     3.11708E-03    -5.67648E+06     113.091E+06     66.3693E+06     8.72383E+06    -84.9605E-03     109.893E-03    -24.9327E-03     170.838E-03    -88.7445E-03     113.874E-03    -24.7566E-03     169.151E-03
            2402     15.8492E-03     3.04620E-03    -14.6880E+06     60.4333E+06     41.0533E+06     17.2007E+06    -51.7753E-03     74.5199E-03    -22.7446E-03     63.9948E-03    -52.3928E-03     75.1860E-03    -22.6056E-03     63.6485E-03
            2403     14.9798E-03     3.02973E-03    -16.8840E+06     37.1702E+06     35.3497E+06     20.1268E+06    -35.3661E-03     56.9288E-03    -21.5626E-03     42.0334E-03    -35.6183E-03     57.1511E-03    -21.4153E-03     42.1569E-03
            2404     14.1076E-03     3.01059E-03    -10.5956E+06     39.7871E+06     34.8288E+06     10.2356E+06    -29.6110E-03     50.4701E-03    -20.8591E-03     39.0506E-03    -29.8042E-03     50.6663E-03    -20.7273E-03     39.1076E-03
            2405     13.2310E-03     3.00183E-03    -4.74334E+06     37.2744E+06     21.9799E+06     484.995E+03    -26.0014E-03     46.3168E-03    -20.3154E-03     33.5105E-03    -26.1268E-03     46.4939E-03    -20.2526E-03     33.4730E-03
            2406     12.3527E-03     2.99499E-03    -3.35226E+06     12.4726E+06     10.2409E+06    -3.47706E+06    -24.1628E-03     44.1026E-03    -19.9399E-03     30.3012E-03    -24.2208E-03     44.1631E-03    -19.9019E-03     30.2297E-03
            2407     11.4731E-03     2.98935E-03    -5.55980E+06    -21.6122E+06     6.20261E+06    -6.40442E+06    -22.9261E-03     42.6146E-03    -19.6885E-03     27.1290E-03    -22.9363E-03     42.5100E-03    -19.6181E-03     27.0294E-03
            2408     10.5925E-03     2.98411E-03    -6.61849E+06    -45.6426E+06     656.941E+03    -10.6541E+06    -22.0704E-03     41.5273E-03    -19.4568E-03     23.8401E-03    -22.0411E-03     41.3101E-03    -19.3778E-03     23.6915E-03
            2409     9.71179E-03     2.97913E-03    -6.66251E+06    -64.6818E+06    -2.94808E+06    -14.0097E+06    -21.5867E-03     40.8336E-03    -19.2469E-03     20.7626E-03    -21.5236E-03     40.5255E-03    -19.1582E-03     20.5741E-03
            2410     8.83065E-03     2.97444E-03    -7.10011E+06    -77.2738E+06    -4.18288E+06    -15.2067E+06    -21.1390E-03     40.1851E-03    -19.0460E-03     17.7799E-03    -21.0575E-03     39.8159E-03    -18.9446E-03     17.5782E-03
            2411     7.94925E-03     2.97026E-03    -7.06943E+06    -82.8713E+06    -6.85865E+06    -14.5934E+06    -20.6373E-03     39.4722E-03    -18.8349E-03     15.1400E-03    -20.5432E-03     39.0785E-03    -18.7387E-03     14.9478E-03
            2412     7.06732E-03     2.96633E-03    -6.46822E+06    -84.3119E+06    -7.74517E+06    -12.5516E+06    -20.1291E-03     38.7682E-03    -18.6391E-03     12.7257E-03    -20.0284E-03     38.3675E-03    -18.5462E-03     12.5609E-03
            2413     6.18503E-03     2.96301E-03    -6.31960E+06    -84.6838E+06    -7.34490E+06    -9.85782E+06    -19.6466E-03     38.1119E-03    -18.4653E-03     10.5360E-03    -19.5450E-03     37.7084E-03    -18.3701E-03     10.4068E-03
            2414     5.30227E-03     2.96001E-03    -6.73126E+06    -85.2334E+06    -7.53689E+06    -7.50774E+06    -19.1973E-03     37.5060E-03    -18.3087E-03     8.60405E-03    -19.0966E-03     37.1006E-03    -18.2131E-03     8.50572E-03
            2415     4.41920E-03     2.95764E-03    -7.29393E+06    -85.7688E+06    -7.92978E+06    -5.56348E+06    -18.8008E-03     36.9736E-03    -18.1728E-03     6.87472E-03    -18.7015E-03     36.5668E-03    -18.0775E-03     6.80188E-03
            2416     3.53573E-03     2.95558E-03    -8.17998E+06    -86.5970E+06    -8.91694E+06    -4.16725E+06    -18.4678E-03     36.5255E-03    -18.0577E-03     5.31232E-03    -18.3702E-03     36.1172E-03    -17.9649E-03     5.25780E-03
            2417     2.65208E-03     2.95406E-03    -9.31113E+06    -87.4967E+06    -9.88567E+06    -3.03896E+06    -18.2045E-03     36.1709E-03    -17.9664E-03     3.88930E-03    -18.1099E-03     35.7612E-03    -17.8755E-03     3.84957E-03
            2418     1.76812E-03     2.95291E-03    -10.2378E+06    -88.1403E+06    -10.3758E+06    -1.89566E+06    -18.0096E-03     35.9099E-03    -17.9003E-03     2.57187E-03    -17.9179E-03     35.4990E-03    -17.8096E-03     2.54709E-03
            2419     884.101E-06     2.95225E-03    -10.7878E+06    -88.6669E+06    -11.0053E+06    -975.622E+03    -17.8804E-03     35.7455E-03    -17.8651E-03     1.36000E-03    -17.7893E-03     35.3341E-03    -17.7759E-03     1.34720E-03
            2420     16.6886E-03     2.07082E-03    -1.74948E+06     98.3724E+06     60.4876E+06     13.4392E+06    -76.2393E-03     102.138E-03    -25.8984E-03     144.738E-03    -78.5760E-03     104.657E-03    -25.7360E-03     143.289E-03
            2421     15.8196E-03     2.03915E-03    -6.48580E+06     58.7495E+06     49.4649E+06     19.4383E+06    -43.4382E-03     67.6406E-03    -24.2024E-03     62.0991E-03    -43.8060E-03     68.0515E-03    -24.0308E-03     62.0738E-03
            2422     14.9530E-03     2.02456E-03    -4.04416E+06     51.8712E+06     49.2949E+06     9.69794E+06    -35.1654E-03     58.4851E-03    -23.3197E-03     45.8440E-03    -35.3739E-03     58.7204E-03    -23.1426E-03     45.8673E-03
            2423     14.0810E-03     2.01428E-03     3.29270E+06     50.0410E+06     38.3226E+06    -535.389E+03    -30.6191E-03     53.2611E-03    -22.6420E-03     41.0413E-03    -30.7485E-03     53.4683E-03    -22.5278E-03     40.9851E-03
            2424     13.2053E-03     2.00719E-03     4.77160E+06     38.5214E+06     13.9863E+06    -1.63839E+06    -28.6410E-03     50.6958E-03    -22.0548E-03     33.1706E-03    -28.7018E-03     50.8691E-03    -22.0477E-03     33.1204E-03
            2425     12.3294E-03     2.00194E-03     2.87327E+06     13.6024E+06    -1.64262E+06    -1.45453E+06    -27.2626E-03     48.8515E-03    -21.5889E-03     27.4621E-03    -27.2704E-03     48.9221E-03    -21.6210E-03     27.4238E-03
            2426     11.4531E-03     1.99752E-03     2.09084E+06    -17.3883E+06    -6.00622E+06    -5.10896E+06    -26.1959E-03     47.4154E-03    -21.2196E-03     23.2984E-03    -26.1542E-03     47.3364E-03    -21.2274E-03     23.2201E-03
            2427     10.5762E-03     1.99358E-03     1.23971E+06    -42.6566E+06    -12.1974E+06    -9.58651E+06    -25.3691E-03     46.2200E-03    -20.8509E-03     19.7702E-03    -25.2849E-03     46.0238E-03    -20.8519E-03     19.6384E-03
            2428     9.69826E-03     1.98936E-03    -268.195E+03    -64.0390E+06    -17.1813E+06    -12.2147E+06    -24.4833E-03     44.9812E-03    -20.4979E-03     16.5381E-03    -24.3678E-03     44.6870E-03    -20.4906E-03     16.3750E-03
            2429     8.81973E-03     1.98572E-03    -1.64821E+06    -78.4665E+06    -17.4042E+06    -13.4205E+06    -23.5542E-03     43.7342E-03    -20.1800E-03     13.7713E-03    -23.4240E-03     43.3698E-03    -20.1508E-03     13.5942E-03
            2430     7.94028E-03     1.98245E-03    -3.04656E+06    -86.1330E+06    -18.3301E+06    -13.1392E+06    -22.6980E-03     42.5718E-03    -19.8737E-03     11.4971E-03    -22.5621E-03     42.1723E-03    -19.8361E-03     11.3249E-03
            2431     7.06012E-03     1.97953E-03    -4.56327E+06    -89.0929E+06    -16.4761E+06    -11.0687E+06    -21.8702E-03     41.4718E-03    -19.6015E-03     9.49599E-03    -21.7402E-03     41.0569E-03    -19.5481E-03     9.35125E-03
            2432     6.17921E-03     1.97693E-03    -5.90482E+06    -88.9245E+06    -13.0694E+06    -8.40267E+06    -21.0905E-03     40.4542E-03    -19.3637E-03     7.74017E-03    -20.9723E-03     40.0372E-03    -19.2915E-03     7.63036E-03
            2433     5.29769E-03     1.97484E-03    -6.96754E+06    -88.7579E+06    -11.3087E+06    -6.17033E+06    -20.4137E-03     39.5650E-03    -19.1513E-03     6.25435E-03    -20.3035E-03     39.1477E-03    -19.0690E-03     6.17374E-03
            2434     4.41555E-03     1.97295E-03    -8.03628E+06    -88.7543E+06     -10.435E+06    -4.31232E+06    -19.8472E-03     38.8155E-03    -18.9683E-03     4.95515E-03    -19.7436E-03     38.3985E-03    -18.8802E-03     4.89880E-03
            2435     3.53306E-03     1.97156E-03    -9.05896E+06    -88.8892E+06    -10.0677E+06    -2.74944E+06    -19.3813E-03     38.1973E-03    -18.8159E-03     3.80750E-03    -19.2831E-03     37.7805E-03    -18.7242E-03     3.77153E-03
            2436     2.65008E-03     1.97038E-03    -10.0553E+06    -89.3955E+06    -10.5494E+06    -1.71815E+06    -19.0136E-03     37.7068E-03    -18.6932E-03     2.77888E-03    -18.9189E-03     37.2896E-03    -18.6017E-03     2.75637E-03
            2437     1.76694E-03     1.96961E-03    -10.8040E+06    -89.9076E+06    -11.1547E+06    -1.04863E+06    -18.7456E-03     37.3502E-03    -18.6046E-03     1.81731E-03    -18.6530E-03     36.9325E-03    -18.5144E-03     1.80356E-03
            2438     883.479E-06     1.96912E-03    -11.1148E+06    -90.0876E+06    -11.4124E+06    -476.547E+03    -18.5727E-03     37.1416E-03    -18.5689E-03     953.420E-06    -18.4804E-03     36.7242E-03    -18.4792E-03     947.170E-06
            2439     16.6389E-03     1.06262E-03     598.861E+03     89.8126E+06     66.2646E+06     13.5023E+06    -79.0951E-03     107.268E-03    -28.1732E-03     118.586E-03    -80.2504E-03     108.560E-03    -27.9730E-03     117.517E-03
            2440     15.7799E-03     1.01624E-03     5.94008E+06     69.0822E+06     61.8958E+06     8.46604E+06    -47.3704E-03     73.6936E-03    -26.3232E-03     56.0291E-03    -47.5961E-03     74.0054E-03    -26.1225E-03     55.9995E-03
            2441     14.9194E-03     1.02078E-03     10.7759E+06     63.0568E+06     47.8774E+06    -2.56756E+06    -40.1027E-03     65.3285E-03    -25.2258E-03     34.7905E-03    -40.2256E-03     65.5744E-03    -25.0935E-03     34.7036E-03
            2442     14.0491E-03     1.01032E-03     9.79577E+06     49.4436E+06     22.8256E+06    -2.58517E+06    -35.8934E-03     60.2061E-03    -24.3126E-03     29.3892E-03    -35.9552E-03     60.4114E-03    -24.2844E-03     29.3326E-03
            2443     13.1818E-03     1.00580E-03     8.77031E+06     36.3697E+06     2.36727E+06     326.139E+03    -33.0963E-03     56.6463E-03    -23.5499E-03     21.2968E-03    -33.1116E-03     56.8145E-03    -23.6036E-03     21.2848E-03
            2444     12.3114E-03     1.00333E-03     8.80523E+06     15.3634E+06    -13.7433E+06    -306.176E+03    -31.1400E-03     54.0335E-03    -22.8935E-03     16.9195E-03    -31.0999E-03     54.1189E-03    -22.9973E-03     16.9050E-03
            2445     11.4383E-03     1.00084E-03     9.14129E+06    -13.3421E+06    -22.0817E+06    -3.00917E+06    -29.6060E-03     51.9380E-03    -22.3320E-03     13.8021E-03    -29.5098E-03     51.8908E-03    -22.4363E-03     13.7570E-03
            2446     10.5641E-03     997.930E-06     8.25949E+06    -40.6375E+06    -28.0219E+06    -5.44657E+06    -28.1974E-03     50.0131E-03    -21.8158E-03     11.2790E-03    -28.0570E-03     49.8390E-03    -21.9089E-03     11.2044E-03
            2447     9.68909E-03     995.861E-06     6.25944E+06    -63.1068E+06    -32.0690E+06    -7.28233E+06    -26.7795E-03     48.1192E-03    -21.3398E-03     9.25748E-03    -26.6104E-03     47.8413E-03    -21.4177E-03     9.16058E-03
            2448     8.81222E-03     993.865E-06     3.65782E+06    -79.2870E+06    -30.6646E+06    -8.35309E+06    -25.4234E-03     46.3484E-03    -20.9250E-03     7.63806E-03    -25.2458E-03     45.9913E-03    -20.9687E-03     7.52833E-03
            2449     7.93431E-03     991.977E-06     630.168E+03    -89.0129E+06    -27.1317E+06    -7.68279E+06    -24.1966E-03     44.7524E-03    -20.5558E-03     6.23933E-03    -24.0251E-03     44.3458E-03    -20.5633E-03     6.13883E-03
            2450     7.05540E-03     990.350E-06    -2.58970E+06    -92.5695E+06    -22.6694E+06    -6.31247E+06    -23.0706E-03     43.2972E-03    -20.2266E-03     5.07750E-03    -22.9165E-03     42.8710E-03    -20.2019E-03     4.99506E-03
            2451     6.17549E-03     989.033E-06    -5.21308E+06    -92.1228E+06    -17.8843E+06    -4.99418E+06    -22.0707E-03     42.0087E-03    -19.9379E-03     4.11684E-03    -21.9373E-03     41.5816E-03    -19.8862E-03     4.05171E-03
            2452     5.29472E-03     987.834E-06    -7.16033E+06    -91.5305E+06    -14.5566E+06    -3.59983E+06    -21.2270E-03     40.9129E-03    -19.6859E-03     3.30235E-03    -21.1089E-03     40.4867E-03    -19.6156E-03     3.25541E-03
            2453     4.41334E-03     986.907E-06    -8.61535E+06    -91.0228E+06    -12.5303E+06    -2.36468E+06    -20.5229E-03     39.9935E-03    -19.4705E-03     2.59923E-03    -20.4158E-03     39.5690E-03    -19.3887E-03     2.56836E-03
            2454     3.53128E-03     986.093E-06    -9.77403E+06    -90.6865E+06    -11.3251E+06    -1.42177E+06    -19.9573E-03     39.2508E-03    -19.2935E-03     1.98581E-03    -19.8582E-03     38.8279E-03    -19.2044E-03     1.96721E-03
            2455     2.64891E-03     985.535E-06    -10.4244E+06    -90.5294E+06    -10.9389E+06    -685.555E+03    -19.5235E-03     38.6769E-03    -19.1534E-03     1.44675E-03    -19.4284E-03     38.2551E-03    -19.0617E-03     1.43773E-03
            2456     1.76606E-03     985.093E-06    -10.9122E+06    -90.6413E+06    -11.1434E+06    -311.514E+03    -19.2179E-03     38.2687E-03    -19.0508E-03     949.657E-06    -19.1247E-03     37.8474E-03    -18.9593E-03     945.551E-06
            2457     883.138E-06     984.875E-06    -11.3568E+06    -90.7662E+06    -11.2359E+06    -267.574E+03    -19.0427E-03     38.0199E-03    -18.9771E-03     500.868E-06    -18.9507E-03     37.5992E-03    -18.8852E-03     497.552E-06


