********************************************************************************
Field Output Report, written Wed May 29 00:52:26 2024

Source 1
---------

   ODB: G:/Abaqus_calc_2019/1740/Vel_5/odb/zeides_2a_32_red_150_cal_50_vel_5_fric_0100.odb
   Step: Step-1
   Frame: Increment  13148338: Step Time =    1.715

Loc 1 : Nodal values from source 1

Output sorted by column "Nodal Label".

Field Output reported at nodes for region: DIE_2A_32_D0_36-1.Region_1
   Computation algorithm: EXTRAPOLATE_COMPUTE_AVERAGE
   Averaged at nodes
   Averaging regions: ODB_REGIONS

      Node Label     COORD.COOR1     COORD.COOR2
                          @Loc 1          @Loc 1
-------------------------------------------------
               1     22.6170E-03     111.118E-03


Field Output reported at nodes for region: DIE_2A_32_D0_36-1.Region_2
   Computation algorithm: EXTRAPOLATE_COMPUTE_AVERAGE
   Averaged at nodes
   Averaging regions: ODB_REGIONS

      Node Label     COORD.COOR1     COORD.COOR2
                          @Loc 1          @Loc 1
-------------------------------------------------
               1     22.6170E-03     111.118E-03


Field Output reported at nodes for part: WIRE-1
   Computation algorithm: EXTRAPOLATE_COMPUTE_AVERAGE
   Averaged at nodes
   Averaging regions: ODB_REGIONS

      Node Label     COORD.COOR1     COORD.COOR2           S.S11           S.S22           S.S33           S.S12         PE.PE11         PE.PE22         PE.PE33         PE.PE12         LE.LE11         LE.LE22         LE.LE33         LE.LE12
                          @Loc 1          @Loc 1          @Loc 1          @Loc 1          @Loc 1          @Loc 1          @Loc 1          @Loc 1          @Loc 1          @Loc 1          @Loc 1          @Loc 1          @Loc 1          @Loc 1
-------------------------------------------------------------------------------------------------------------------------------------------------------------------------------------------------------------------------------------------------
               1    -20.5562E-09     56.3798E-03    -12.2707E+06    -67.9490E+06    -12.2454E+06     5.10099E+03    -15.6961E-03     31.4038E-03    -15.7077E-03     2.07624E-03    -15.6411E-03     31.1000E-03    -15.6526E-03     2.07599E-03
               2     17.7205E-03     57.5598E-03    -2.46052E+06     177.031E+06     105.961E+06     462.239E+03    -33.1175E-03     49.0589E-03    -15.9414E-03     327.825E-03    -45.1142E-03     61.3680E-03    -15.6647E-03     337.187E-03
               3     17.4726E-03     114.215E-03     17.3701E+06    -12.6812E+06     17.5252E+06     2.92907E+06     12.2941E-03     12.4816E-03    -24.7758E-03     2.45546E-03     12.3551E-03     12.3488E-03    -24.6949E-03     2.49322E-03
               4    -1.00852E-06     113.031E-03     29.4815E+06     1.55595E+06     27.6835E+06    -1.45826E+06    -18.7692E-03     38.0658E-03    -19.2966E-03    -691.973E-06    -18.6641E-03     37.9911E-03    -19.2032E-03    -710.188E-06
               5     31.8074E-09     430.211E-18    -5.15135E+06    -58.1895E+06    -5.10671E+06    -228.624E+03    -12.7752E-03     25.4995E-03    -12.7243E-03     123.816E-06    -12.7083E-03     25.2239E-03    -12.6580E-03     121.237E-06
               6     17.6332E-03     430.211E-18    -2.41433E+06     92.4174E+06     66.0917E+06     11.9812E+06    -63.0212E-03     81.1043E-03    -18.0831E-03     74.3574E-03    -63.4667E-03     81.6807E-03    -17.8831E-03     74.0625E-03
               7     886.075E-06     56.3818E-03    -12.1224E+06    -67.0517E+06    -11.8709E+06     38.9773E+03    -15.7103E-03     31.4184E-03    -15.7081E-03     3.44496E-03    -15.6564E-03     31.1181E-03    -15.6527E-03     3.44496E-03
               8     1.77202E-03     56.3862E-03    -11.7562E+06    -65.9193E+06    -10.7032E+06     56.1511E+03    -15.7247E-03     31.4382E-03    -15.7135E-03     6.43060E-03    -15.6724E-03     31.1413E-03    -15.6544E-03     6.43037E-03
               9     2.65805E-03     56.3938E-03    -11.1788E+06    -64.5924E+06    -9.11910E+06     62.0128E+03    -15.7281E-03     31.4480E-03    -15.7198E-03     9.67739E-03    -15.6773E-03     31.1546E-03    -15.6556E-03     9.67673E-03
              10     3.54409E-03     56.4043E-03    -10.5018E+06    -62.7496E+06    -7.53990E+06     130.504E+03    -15.7467E-03     31.4701E-03    -15.7234E-03     13.0230E-03    -15.6976E-03     31.1828E-03    -15.6548E-03     13.0227E-03
              11     4.43008E-03     56.4180E-03    -9.80118E+06    -64.4432E+06    -5.70677E+06     379.179E+03    -15.7888E-03     31.5236E-03    -15.7347E-03     16.5154E-03    -15.7366E-03     31.2244E-03    -15.6556E-03     16.5176E-03
              12     5.31612E-03     56.4351E-03    -9.20192E+06    -64.0616E+06    -4.37514E+06     451.727E+03    -15.8364E-03     31.5790E-03    -15.7426E-03     20.1632E-03    -15.7840E-03     31.2792E-03    -15.6582E-03     20.1657E-03
              13     6.20209E-03     56.4556E-03    -8.81256E+06    -62.1713E+06    -4.03297E+06     8.32115E+03    -15.8856E-03     31.6300E-03    -15.7444E-03     24.0163E-03    -15.8349E-03     31.3390E-03    -15.6616E-03     24.0122E-03
              14     7.08807E-03     56.4798E-03    -8.45354E+06    -61.8379E+06    -3.90097E+06    -463.294E+03    -15.9417E-03     31.6888E-03    -15.7470E-03     28.0841E-03    -15.8906E-03     31.3994E-03    -15.6646E-03     28.0728E-03
              15     7.97411E-03     56.5078E-03    -8.01302E+06    -61.9745E+06    -2.43690E+06    -14.3081E+03    -16.0159E-03     31.7727E-03    -15.7568E-03     32.2725E-03    -15.9655E-03     31.4809E-03    -15.6675E-03     32.2654E-03
              16     8.86002E-03     56.5399E-03    -7.55439E+06    -58.7686E+06    -933.558E+03     849.588E+03    -16.0941E-03     31.8563E-03    -15.7622E-03     36.5992E-03    -16.0497E-03     31.5791E-03    -15.6707E-03     36.6010E-03
              17     9.74606E-03     56.5760E-03     -7.2072E+06    -55.0335E+06    -2.20695E+06     508.728E+03    -16.1768E-03     31.9296E-03    -15.7528E-03     40.9995E-03    -16.1367E-03     31.6749E-03    -15.6736E-03     40.9939E-03
              18     10.6320E-03     56.6160E-03    -6.13432E+06    -53.8566E+06    -4.32376E+06    -514.862E+03    -16.2929E-03     32.0348E-03    -15.7420E-03     45.3453E-03    -16.2499E-03     31.7915E-03    -15.6766E-03     45.3223E-03
              19     11.5180E-03     56.6602E-03    -4.67783E+06    -41.9321E+06    -1.60295E+06    -373.984E+03    -16.3961E-03     32.1358E-03    -15.7398E-03     49.9603E-03    -16.3733E-03     31.9523E-03    -15.6802E-03     49.9337E-03
              20     12.4038E-03     56.7089E-03    -4.38109E+06    -33.2845E+06    -5.70033E+03     405.897E+03    -16.5899E-03     32.3291E-03    -15.7392E-03     56.7760E-03    -16.5922E-03     32.1977E-03    -15.6846E-03     56.7522E-03
              21     13.2899E-03     56.7659E-03    -4.67997E+06    -35.1186E+06    -9.66885E+06     563.462E+03    -16.7130E-03     32.4138E-03    -15.7008E-03     58.8299E-03    -16.7166E-03     32.3042E-03    -15.6915E-03     58.7996E-03
              22     14.1756E-03     56.8182E-03    -5.34841E+06    -19.5204E+06    -15.2713E+06     651.686E+03    -16.8015E-03     32.4593E-03    -15.6578E-03     64.4246E-03    -16.8573E-03     32.4711E-03    -15.6981E-03     64.3889E-03
              23     15.0618E-03     56.8859E-03    -6.06602E+06     21.2917E+06    -16.4537E+06     904.715E+03    -18.5955E-03     34.1959E-03    -15.6004E-03     104.418E-03    -18.9432E-03     34.6454E-03    -15.7048E-03     104.401E-03
              24     15.9475E-03     57.0128E-03    -5.97679E+06       85.73E+06    -7.82828E+06     445.539E+03    -23.1989E-03     38.7473E-03    -15.5484E-03     188.880E-03    -25.5641E-03     41.4183E-03    -15.7032E-03     189.528E-03
              25     16.8340E-03     57.2414E-03    -4.11509E+06     151.298E+06     55.0750E+06     169.504E+03    -29.6235E-03     45.3664E-03    -15.7429E-03     284.542E-03    -37.6950E-03     53.8006E-03    -15.6809E-03     289.871E-03
              26     17.7206E-03     58.5413E-03    -2.67678E+06     177.211E+06     106.708E+06     167.950E+03    -33.1089E-03     49.0651E-03    -15.9562E-03     328.395E-03    -45.1341E-03     61.4004E-03    -15.6758E-03     337.773E-03
              27     17.7195E-03     59.5152E-03    -2.31963E+06     178.009E+06     107.585E+06     69.3781E+03    -32.3722E-03     48.3531E-03    -15.9809E-03     323.520E-03    -44.2021E-03     60.4947E-03    -15.6977E-03     332.957E-03
              28     17.7202E-03     60.4892E-03    -2.55579E+06     178.218E+06     107.482E+06     715.333E+03    -32.8628E-03     48.8282E-03    -15.9654E-03     320.995E-03    -44.5536E-03     60.8309E-03    -15.6827E-03     330.361E-03
              29     17.7195E-03     61.4766E-03    -3.03872E+06     178.824E+06     107.304E+06     613.933E+03    -33.5479E-03     49.5056E-03    -15.9578E-03     323.730E-03    -45.3943E-03     61.6649E-03    -15.6761E-03     333.031E-03
              30     17.7200E-03     62.4533E-03    -2.85704E+06     179.790E+06     106.879E+06     52.2196E+03    -32.3679E-03     48.3445E-03    -15.9766E-03     324.820E-03    -44.2997E-03     60.5945E-03    -15.6988E-03     334.278E-03
              31     17.7204E-03     63.4288E-03    -2.45821E+06     180.523E+06     107.046E+06     462.434E+03    -32.5073E-03     48.4650E-03    -15.9577E-03     325.277E-03    -44.4320E-03     60.7114E-03    -15.6807E-03     334.730E-03
              32     17.7203E-03     64.4135E-03    -2.73830E+06     181.939E+06     107.835E+06     887.597E+03    -33.4754E-03     49.4181E-03    -15.9427E-03     327.440E-03    -45.5049E-03     61.7711E-03    -15.6634E-03     336.788E-03
              33     17.7201E-03     65.3906E-03    -3.41012E+06     182.307E+06     107.928E+06    -91.8168E+03    -32.7472E-03     48.7158E-03    -15.9687E-03     327.446E-03    -44.7979E-03     61.0887E-03    -15.6884E-03     336.899E-03
              34     17.7201E-03     66.3660E-03    -1.86865E+06     183.194E+06     108.881E+06     147.893E+03    -32.1144E-03     48.0917E-03    -15.9773E-03     324.794E-03    -44.0297E-03     60.3350E-03    -15.6958E-03     334.296E-03
              35     17.7203E-03     67.3438E-03    -2.83972E+06     182.921E+06     108.324E+06     310.548E+03    -32.8523E-03     48.8095E-03    -15.9571E-03     324.483E-03    -44.7413E-03     61.0236E-03    -15.6766E-03     333.876E-03
              36     17.7199E-03     68.3266E-03    -3.03742E+06     183.813E+06     108.534E+06     371.114E+03    -33.1193E-03     49.0757E-03    -15.9564E-03     325.413E-03    -45.0725E-03     61.3559E-03    -15.6759E-03     334.788E-03
              37     17.7202E-03     69.3019E-03    -2.94699E+06     184.931E+06     109.127E+06     472.026E+03    -32.7198E-03     48.6881E-03    -15.9682E-03     325.330E-03    -44.6794E-03     60.9773E-03    -15.6865E-03     334.780E-03
              38     17.7199E-03     70.2824E-03    -3.13237E+06     184.109E+06     108.405E+06    -447.506E+03    -32.6751E-03     48.6432E-03    -15.9682E-03     325.445E-03    -44.6366E-03     60.9329E-03    -15.6885E-03     334.889E-03
              39     17.7203E-03     71.2605E-03    -2.18091E+06     184.773E+06     108.778E+06     203.155E+03    -32.4008E-03     48.3728E-03    -15.9720E-03     325.727E-03    -44.3873E-03     60.6920E-03    -15.6929E-03     335.207E-03
              40     17.7201E-03     72.2379E-03    -2.51006E+06     185.702E+06     108.782E+06     849.129E+03    -32.5553E-03     48.5182E-03    -15.9629E-03     326.281E-03    -44.5606E-03     60.8584E-03    -15.6847E-03     335.754E-03
              41     17.7205E-03     73.2185E-03    -3.44322E+06     185.666E+06     108.027E+06    -309.359E+03    -32.8331E-03     48.7843E-03    -15.9512E-03     327.301E-03    -44.8894E-03     61.1742E-03    -15.6752E-03     336.727E-03
              42     17.7203E-03     74.1966E-03    -2.64624E+06     185.974E+06     108.321E+06    -153.307E+03    -32.4878E-03     48.4473E-03    -15.9595E-03     327.515E-03    -44.5633E-03     60.8595E-03    -15.6837E-03     336.998E-03
              43     17.7204E-03     75.1734E-03    -2.58100E+06     187.321E+06     108.790E+06     564.399E+03    -32.3416E-03     48.3019E-03    -15.9603E-03     326.851E-03    -44.3712E-03     60.6718E-03    -15.6842E-03     336.345E-03
              44     17.7205E-03     76.1519E-03    -3.61489E+06     187.252E+06     108.783E+06     141.541E+03    -33.0426E-03     48.9958E-03    -15.9532E-03     327.280E-03    -45.0742E-03     61.3639E-03    -15.6756E-03     336.692E-03
              45     17.7197E-03     77.1330E-03    -2.42626E+06     188.350E+06     109.356E+06     196.802E+03    -32.6909E-03     48.6557E-03    -15.9648E-03     325.744E-03    -44.6690E-03     60.9767E-03    -15.6876E-03     335.181E-03
              46     17.7206E-03     78.1044E-03    -2.49768E+06     189.794E+06     109.233E+06     627.354E+03    -32.0782E-03     48.0358E-03    -15.9576E-03     324.147E-03    -43.9491E-03     60.2548E-03    -15.6830E-03     333.630E-03
              47     17.7206E-03     79.0883E-03    -4.24427E+06     189.479E+06     109.554E+06     93.3442E+03    -33.7424E-03     49.7093E-03    -15.9669E-03     324.898E-03    -45.6950E-03     62.0018E-03    -15.6877E-03     334.210E-03
              48     17.7165E-03     80.0697E-03    -3.64342E+06     191.541E+06     109.515E+06     2.39733E+06    -32.5011E-03     48.5474E-03    -16.0463E-03     323.631E-03    -44.4571E-03     60.8530E-03    -15.7711E-03     333.059E-03
              49     17.7207E-03     81.0373E-03     2.16300E+06     196.601E+06     108.549E+06     3.91446E+06    -28.0804E-03     44.1198E-03    -16.0394E-03     320.809E-03    -39.7219E-03     56.1523E-03    -15.7848E-03     330.530E-03
              50     17.7228E-03     82.0126E-03     232.538E+03     196.180E+06     108.816E+06    -2.24650E+06    -33.0381E-03     48.9021E-03    -15.8640E-03     328.692E-03    -45.1392E-03     61.3855E-03    -15.6047E-03     338.069E-03
              51     17.7200E-03     83.0165E-03    -6.41210E+06     191.008E+06     107.899E+06    -3.23291E+06    -38.0481E-03     53.8620E-03    -15.8139E-03     336.107E-03    -50.7081E-03     66.8657E-03    -15.5421E-03     345.116E-03
              52     17.7204E-03     83.9868E-03    -5.17404E+06     193.299E+06     109.140E+06     1.36218E+06    -32.1652E-03     48.1450E-03    -15.9799E-03     332.755E-03    -44.6023E-03     60.9344E-03    -15.7069E-03     342.390E-03
              53     17.7205E-03     84.9498E-03    -3.06380E+06     196.541E+06     111.728E+06     1.13058E+06    -30.5562E-03     46.5619E-03    -16.0057E-03     326.847E-03    -42.5876E-03     58.9565E-03    -15.7276E-03     336.602E-03
              54     17.7202E-03     85.9369E-03    -3.11910E+06     195.644E+06     111.288E+06    -304.892E+03    -33.3399E-03     49.2694E-03    -15.9295E-03     323.801E-03    -45.1970E-03     61.4873E-03    -15.6523E-03     333.064E-03
              55     17.7204E-03     86.9129E-03    -2.97854E+06     195.244E+06     110.578E+06    -439.714E+03    -32.7006E-03     48.6355E-03    -15.9349E-03     323.822E-03    -44.6048E-03     60.9016E-03    -15.6608E-03     333.198E-03
              56     17.7208E-03     87.8908E-03    -2.06717E+06     195.269E+06     110.147E+06     233.917E+03    -32.0777E-03     48.0052E-03    -15.9276E-03     324.323E-03    -44.0011E-03     60.2951E-03    -15.6570E-03     333.806E-03
              57     17.7213E-03     88.8719E-03    -3.10597E+06     195.729E+06     110.372E+06     303.129E+03    -32.7161E-03     48.6220E-03    -15.9060E-03     326.504E-03    -44.7573E-03     61.0270E-03    -15.6334E-03     335.935E-03
              58     17.7209E-03     89.8504E-03    -3.02060E+06     196.920E+06     111.069E+06     494.845E+03    -32.6272E-03     48.5225E-03    -15.8953E-03     326.935E-03    -44.6926E-03     60.9542E-03    -15.6211E-03     336.385E-03
              59     17.7223E-03     90.8272E-03    -3.16083E+06     197.236E+06     111.096E+06     432.021E+03    -32.5731E-03     48.4444E-03    -15.8714E-03     328.115E-03    -44.6399E-03     60.8781E-03    -15.5973E-03     337.574E-03
              60     17.7220E-03     91.8094E-03    -2.58894E+06     197.995E+06     112.303E+06     338.521E+03    -32.0816E-03     47.9406E-03    -15.8591E-03     326.839E-03    -44.0584E-03     60.2856E-03    -15.5809E-03     336.280E-03
              61     17.7229E-03     92.7789E-03    -3.14297E+06     197.486E+06     112.817E+06    -183.271E+03    -31.8599E-03     47.7001E-03    -15.8403E-03     323.012E-03    -43.6628E-03     59.8660E-03    -15.5580E-03     332.448E-03
              62     17.7224E-03     93.7602E-03    -3.01919E+06     196.643E+06     113.328E+06    -213.233E+03    -33.5022E-03     49.2869E-03    -15.7846E-03     322.611E-03    -45.2847E-03     61.4281E-03    -15.4987E-03     331.879E-03
              63     17.7236E-03     94.7440E-03    -3.13938E+06     196.081E+06     113.376E+06    -603.172E+03    -33.7156E-03     49.4721E-03    -15.7565E-03     323.892E-03    -45.5890E-03     61.7017E-03    -15.4694E-03     333.133E-03
              64     17.7236E-03     95.7189E-03    -2.59116E+06     194.644E+06     114.024E+06    -622.702E+03    -33.2090E-03     48.9551E-03    -15.7461E-03     323.182E-03    -45.0474E-03     61.1446E-03    -15.4545E-03     332.499E-03
              65     17.7242E-03     96.7000E-03    -2.80222E+06     192.888E+06     114.226E+06    -415.765E+03    -33.7365E-03     49.4447E-03    -15.7081E-03     322.119E-03    -45.4915E-03     61.5432E-03    -15.4126E-03     331.326E-03
              66     17.7248E-03     97.6793E-03    -3.17866E+06     190.153E+06     113.730E+06    -1.01805E+06    -34.1192E-03     49.7836E-03    -15.6644E-03     320.945E-03    -45.8221E-03     61.8205E-03    -15.3669E-03     330.091E-03
              67     17.7252E-03     98.6584E-03    -3.19603E+06     188.108E+06     114.491E+06    -1.00436E+06    -34.2200E-03     49.8559E-03    -15.6359E-03     319.025E-03    -45.8277E-03     61.7881E-03    -15.3316E-03     328.116E-03
              68     17.7256E-03     99.6400E-03    -2.50355E+06     185.635E+06     114.718E+06    -912.295E+03    -34.7383E-03     50.3361E-03    -15.5978E-03     319.372E-03    -46.3109E-03     62.2262E-03    -15.2897E-03     328.332E-03
              69     17.7266E-03     100.621E-03    -3.55006E+06     181.815E+06     113.690E+06    -1.85325E+06    -36.0842E-03     51.6287E-03    -15.5445E-03     318.837E-03    -47.5945E-03     63.4422E-03    -15.2346E-03     327.559E-03
              70     17.7257E-03     101.604E-03    -3.16938E+06     178.074E+06     113.081E+06    -1.73686E+06    -36.7402E-03     52.2514E-03    -15.5112E-03     317.606E-03    -48.1502E-03     63.9544E-03    -15.1994E-03     326.151E-03
              71     17.7276E-03     102.586E-03    -3.43605E+06     174.237E+06     112.253E+06    -1.74872E+06    -36.9734E-03     52.4442E-03    -15.4708E-03     317.987E-03    -48.3158E-03     64.0675E-03    -15.1572E-03     326.396E-03
              72     17.7274E-03     103.570E-03    -3.10535E+06     169.412E+06     111.223E+06    -2.36013E+06    -37.5652E-03     52.9631E-03    -15.3979E-03     317.846E-03    -48.7467E-03     64.4124E-03    -15.0829E-03     325.956E-03
              73     17.7301E-03     104.553E-03    -2.39400E+06     165.486E+06     111.598E+06    -1.20099E+06    -38.7620E-03     54.0682E-03    -15.3062E-03     317.001E-03    -49.7108E-03     65.2723E-03    -14.9847E-03     324.705E-03
              74     17.7296E-03     105.538E-03    -6.68751E+06     155.435E+06     103.609E+06    -6.37333E+06    -40.3956E-03     55.5679E-03    -15.1723E-03     314.987E-03    -51.0486E-03     66.4485E-03    -14.8699E-03     322.083E-03
              75     17.7328E-03     106.525E-03     3.80778E+06     149.855E+06     108.609E+06     309.188E+03    -42.1115E-03     57.2154E-03    -15.1039E-03     313.285E-03    -52.3789E-03     67.7134E-03    -14.7837E-03     319.856E-03
              76     17.7300E-03     107.514E-03     2.26885E+06     148.111E+06     104.959E+06     8.35463E+06    -42.9523E-03     57.9972E-03    -15.0448E-03     311.187E-03    -52.8164E-03     68.0905E-03    -14.7381E-03     317.093E-03
              77     17.7340E-03     108.497E-03    -18.4585E+06     111.409E+06     63.1053E+06    -7.98309E+06    -42.0518E-03     56.8848E-03    -14.8331E-03     302.823E-03    -51.1601E-03     66.1392E-03    -14.6523E-03     307.741E-03
              78     17.7348E-03     109.474E-03      48.805E+03     100.798E+06     62.3051E+06    -13.0813E+06    -45.2150E-03     59.8579E-03    -14.6429E-03     300.716E-03    -53.2504E-03     68.0717E-03    -14.4776E-03     304.368E-03
              79     17.7367E-03     110.490E-03    -5.97474E+06     94.7759E+06     58.3209E+06    -21.3595E+06    -42.6660E-03     57.3375E-03    -14.6715E-03     306.397E-03    -49.2918E-03     64.1118E-03    -14.5087E-03     308.655E-03
              80     17.7378E-03     111.454E-03    -8.32757E+06     41.3281E+06     22.7551E+06    -28.9448E+06    -17.7519E-03     32.8586E-03    -15.1068E-03     282.814E-03    -21.5415E-03     36.7083E-03    -15.0408E-03     284.186E-03
              81     17.7387E-03     112.354E-03     7.39542E+06     9.42611E+06     12.5414E+06    -9.69285E+06     12.4623E-03     4.17153E-03    -16.6338E-03     195.577E-03     11.4582E-03     5.20959E-03    -16.5955E-03     196.185E-03
              82     17.6674E-03     113.256E-03     3.97124E+06    -4.68689E+06     13.1224E+06     2.05115E+06     18.2307E-03     3.06075E-03    -21.2915E-03     67.7609E-03     18.1786E-03     3.05596E-03    -21.2248E-03     67.8363E-03
              83     16.5980E-03     114.033E-03     4.21633E+06     13.3068E+06     38.4172E+06     3.15123E+06     8.50555E-03     16.8563E-03    -25.3618E-03     13.3704E-03     8.44242E-03     16.8518E-03    -25.1951E-03     13.4110E-03
              84     15.7035E-03     113.886E-03    -5.46815E+06     4.57903E+06     58.4967E+06    -1.74810E+06    -11.3344E-03     37.3753E-03    -26.0409E-03     23.8906E-03    -11.4611E-03     37.3170E-03    -25.7471E-03     23.8584E-03
              85     14.8512E-03     113.725E-03     6.73508E+06    -7.54254E+06     52.5611E+06    -8.96544E+06    -27.7731E-03     53.4734E-03    -25.7003E-03     14.4513E-03    -27.8186E-03     53.3406E-03    -25.4364E-03     14.3172E-03
              86     13.9973E-03     113.599E-03     17.0490E+06    -5.34228E+06     51.7492E+06    -4.34615E+06    -27.6084E-03     52.6311E-03    -25.0227E-03     2.86402E-03    -27.5994E-03     52.4976E-03    -24.7809E-03     2.79206E-03
              87     13.1340E-03     113.505E-03     17.1222E+06    -943.293E+03     56.9992E+06     776.114E+03    -28.2760E-03     52.7412E-03    -24.4652E-03    -930.010E-06    -28.2766E-03     52.6250E-03    -24.2037E-03    -933.633E-06
              88     12.2690E-03     113.426E-03     16.6299E+06     1.42757E+06     50.9074E+06    -1.16103E+06    -30.0574E-03     53.8577E-03    -23.8003E-03    -2.67295E-03    -30.0537E-03     53.7638E-03    -23.5719E-03    -2.70093E-03
              89     11.4046E-03     113.358E-03     17.2775E+06    -2.61579E+06     47.5629E+06    -683.459E+03    -30.1359E-03     53.2076E-03    -23.0717E-03    -2.81979E-03    -30.1175E-03     53.0979E-03    -22.8551E-03    -2.84012E-03
              90     10.5369E-03     113.300E-03     16.7751E+06     1.33615E+06     47.4134E+06    -396.720E+03    -28.8687E-03     51.2144E-03    -22.3457E-03    -2.26453E-03    -28.8575E-03     51.1261E-03    -22.1349E-03    -2.27914E-03
              91     9.66736E-03     113.250E-03     16.2851E+06    -880.865E+03     45.4072E+06    -784.227E+03    -27.0695E-03     48.7494E-03    -21.6799E-03    -1.70462E-03    -27.0544E-03     48.6539E-03    -21.4752E-03    -1.72232E-03
              92     8.79479E-03     113.207E-03     16.2295E+06     1.49294E+06     43.0911E+06    -1.50089E+06    -25.2749E-03     46.3688E-03    -21.0940E-03    -1.16574E-03    -25.2596E-03     46.2891E-03    -20.9042E-03    -1.19094E-03
              93     7.91999E-03     113.171E-03     17.0968E+06    -1.30934E+06     40.4816E+06    -1.67338E+06    -23.8193E-03     44.4183E-03    -20.5990E-03    -821.109E-06    -23.7917E-03     44.3273E-03    -20.4195E-03    -847.257E-06
              94     7.04362E-03     113.139E-03     18.2587E+06     1.15949E+06     37.9062E+06    -1.76948E+06    -22.5315E-03     42.7055E-03    -20.1740E-03    -513.663E-06    -22.4978E-03     42.6290E-03    -20.0126E-03    -540.037E-06
              95     6.16567E-03     113.113E-03     19.6130E+06    -1.17409E+06     34.9664E+06    -1.78089E+06    -21.4371E-03     41.2688E-03    -19.8317E-03    -273.039E-06    -21.3888E-03     41.1831E-03    -19.6836E-03    -298.774E-06
              96     5.28645E-03     113.091E-03     20.8749E+06     524.488E+03     32.2699E+06    -1.34564E+06    -20.5810E-03     40.1398E-03    -19.5588E-03    -139.374E-06    -20.5248E-03     40.0647E-03    -19.4285E-03    -158.879E-06
              97     4.40639E-03     113.073E-03     22.9142E+06     283.859E+03     29.4638E+06    -2.30854E+06    -19.9790E-03     39.3287E-03    -19.3497E-03    -92.9219E-06    -19.9081E-03     39.2536E-03    -19.2360E-03    -124.388E-06
              98     3.52563E-03     113.058E-03     25.8346E+06    -1.20303E+06     31.4124E+06    -2.11231E+06    -19.5725E-03     38.7862E-03    -19.2137E-03    -78.9324E-06    -19.4876E-03     38.6966E-03    -19.0924E-03    -107.476E-06
              99     2.64453E-03     113.047E-03     27.5348E+06    -538.773E+03     30.9185E+06    -946.782E+03    -19.2548E-03     38.3641E-03    -19.1093E-03    -118.794E-06    -19.1617E-03     38.2761E-03    -18.9938E-03    -131.911E-06
             100     1.76287E-03     113.039E-03     27.9399E+06    -100.486E+03      29.428E+06    -629.443E+03    -19.0627E-03     38.1140E-03    -19.0512E-03    -117.923E-06    -18.9661E-03     38.0298E-03    -18.9445E-03    -126.606E-06
             101     881.532E-06     113.034E-03     28.7541E+06    -274.751E+03     28.5007E+06      -1.059E+06    -18.8898E-03     38.0588E-03    -19.1690E-03    -378.226E-06    -18.7873E-03     37.9743E-03    -19.0678E-03    -391.799E-06
             102     535.859E-09     112.047E-03     25.1088E+06    -1.66511E+06     25.2506E+06    -694.646E+03    -17.3364E-03     34.8307E-03    -17.4943E-03     61.0578E-06    -17.2449E-03     34.7497E-03    -17.4020E-03     52.3708E-06
             103    -335.822E-09     111.068E-03     17.9874E+06    -3.98201E+06     18.4112E+06    -215.341E+03    -14.7211E-03     29.3981E-03    -14.6770E-03     1.00252E-03    -14.6519E-03     29.3258E-03    -14.6053E-03     999.559E-06
             104     219.181E-09     110.094E-03     10.5100E+06    -6.74880E+06     10.7715E+06    -1.26923E+06    -12.8383E-03     25.7205E-03    -12.8821E-03     1.28153E-03    -12.7914E-03     25.6563E-03    -12.8337E-03     1.26490E-03
             105    -177.535E-09     109.122E-03    -333.514E+03    -11.6164E+06    -30.2883E+03    -1.63349E+06    -11.6319E-03     23.2367E-03    -11.6048E-03     1.48341E-03    -11.6165E-03     23.1795E-03    -11.5876E-03     1.46210E-03
             106     186.648E-09     108.153E-03    -14.8604E+06    -16.7647E+06    -14.8395E+06    -1.81635E+06    -10.8592E-03     21.7040E-03    -10.8449E-03     1.68506E-03    -10.8874E-03     21.6637E-03    -10.8732E-03     1.66143E-03
             107    -171.739E-09     107.184E-03    -30.4362E+06    -23.7364E+06    -30.0153E+06    -2.13440E+06    -10.5117E-03     20.9878E-03    -10.4761E-03     1.88782E-03    -10.5857E-03     20.9571E-03    -10.5476E-03     1.86016E-03
             108     222.974E-09     106.216E-03    -49.2104E+06    -32.2050E+06    -48.8804E+06    -2.94274E+06    -10.4802E-03     20.8748E-03    -10.3946E-03     2.04043E-03    -10.6084E-03     20.8563E-03    -10.5210E-03     2.00238E-03
             109    -120.318E-09     105.248E-03    -66.5275E+06    -42.0803E+06    -66.8374E+06    -2.99145E+06    -10.6363E-03     21.2572E-03    -10.6209E-03     2.15717E-03    -10.8108E-03     21.2406E-03    -10.7976E-03     2.11850E-03
             110     39.1362E-09     104.279E-03    -68.2755E+06    -50.0707E+06    -68.5868E+06    -1.95960E+06    -10.9892E-03     22.0761E-03    -11.0869E-03     2.18600E-03    -11.1583E-03     22.0245E-03    -11.2582E-03     2.16069E-03
             111    -137.788E-09     103.309E-03    -54.4444E+06    -53.0168E+06    -55.4868E+06     221.560E+03    -11.5498E-03     23.1474E-03    -11.5976E-03     2.20627E-03    -11.6646E-03     23.0421E-03    -11.7192E-03     2.20910E-03
             112     137.072E-09     102.338E-03    -42.0582E+06    -48.6092E+06    -42.3144E+06     2.42462E+06    -12.1833E-03     24.2794E-03    -12.0962E-03     2.29169E-03    -12.2615E-03     24.1591E-03    -12.1763E-03     2.32293E-03
             113     12.8092E-09     101.366E-03    -33.7350E+06    -39.8261E+06    -33.8360E+06     2.97404E+06    -12.7456E-03     25.3584E-03    -12.6128E-03     2.29741E-03    -12.8073E-03     25.2576E-03    -12.6753E-03     2.33571E-03
             114     69.4410E-09     100.393E-03    -29.1689E+06    -29.9717E+06    -28.9977E+06     2.97643E+06    -13.1926E-03     26.3559E-03    -13.1633E-03     2.21961E-03    -13.2528E-03     26.2907E-03    -13.2225E-03     2.25791E-03
             115    -100.175E-09     99.4190E-03    -26.0596E+06    -20.9503E+06    -25.9665E+06     2.50537E+06    -13.6424E-03     27.2726E-03    -13.6302E-03     2.04390E-03    -13.7045E-03     27.2437E-03    -13.6919E-03     2.07616E-03
             116     151.295E-09     98.4441E-03    -21.7428E+06    -13.8592E+06    -21.4614E+06     1.84237E+06    -14.0732E-03     28.1037E-03    -14.0306E-03     2.04801E-03    -14.1305E-03     28.0975E-03    -14.0863E-03     2.07167E-03
             117    -125.807E-09     97.4684E-03    -16.0850E+06    -9.99132E+06    -15.5776E+06     445.114E+03    -14.4005E-03     28.8641E-03    -14.4636E-03     2.08692E-03    -14.4437E-03     28.8604E-03    -14.5037E-03     2.09251E-03
             118    -8.01195E-09     96.4919E-03    -11.7370E+06    -9.91318E+06    -11.7278E+06    -446.135E+03    -14.7015E-03     29.4899E-03    -14.7884E-03     2.07124E-03    -14.7286E-03     29.4748E-03    -14.8157E-03     2.06530E-03
             119    -14.5195E-09     95.5151E-03    -9.49875E+06    -12.3613E+06    -9.30223E+06    -946.370E+03    -15.0142E-03     30.0214E-03    -15.0072E-03     2.09849E-03    -15.0302E-03     29.9872E-03    -15.0220E-03     2.08606E-03
             120     49.6109E-09     94.5376E-03    -7.28879E+06    -15.7386E+06    -7.31373E+06    -1.17798E+06    -15.2892E-03     30.4621E-03    -15.1729E-03     2.11008E-03    -15.2921E-03     30.4049E-03    -15.1760E-03     2.09462E-03
             121     119.037E-09     93.5599E-03    -6.69529E+06    -20.0101E+06    -6.50062E+06    -1.33651E+06    -15.4544E-03     30.7695E-03    -15.3151E-03     2.17615E-03    -15.4493E-03     30.6889E-03    -15.3089E-03     2.15863E-03
             122    -40.9590E-09     92.5819E-03    -6.44252E+06    -24.3966E+06    -6.67244E+06    -1.24692E+06    -15.4849E-03     30.9967E-03    -15.5119E-03     2.17629E-03    -15.4719E-03     30.8942E-03    -15.5005E-03     2.15992E-03
             123    -89.9699E-09     91.6039E-03    -7.65625E+06    -28.3571E+06    -7.58865E+06    -1.10932E+06    -15.5566E-03     31.2015E-03    -15.6450E-03     2.08990E-03    -15.5426E-03     31.0822E-03    -15.6307E-03     2.07531E-03
             124     62.8387E-09     90.6255E-03    -7.29713E+06    -31.6843E+06    -7.45201E+06    -925.922E+03    -15.7150E-03     31.3653E-03    -15.6503E-03     2.04061E-03    -15.6946E-03     31.2287E-03    -15.6310E-03     2.02839E-03
             125     75.0581E-09     89.6472E-03    -8.73335E+06    -34.7917E+06    -8.46848E+06    -1.00808E+06    -15.7882E-03     31.4856E-03    -15.6975E-03     2.12648E-03    -15.7690E-03     31.3370E-03    -15.6767E-03     2.11316E-03
             126    -51.4775E-09     88.6685E-03    -10.4538E+06    -38.4227E+06    -10.6709E+06    -1.14678E+06    -15.7943E-03     31.5694E-03    -15.7751E-03     2.13076E-03    -15.7752E-03     31.4083E-03    -15.7576E-03     2.11565E-03
             127     57.1753E-09     87.6901E-03    -11.2477E+06    -41.9152E+06    -11.2285E+06    -916.106E+03    -15.7875E-03     31.6093E-03    -15.8218E-03     2.11986E-03    -15.7665E-03     31.4327E-03    -15.8008E-03     2.10774E-03
             128    -125.628E-09     86.7115E-03    -12.1599E+06    -44.8540E+06    -12.2547E+06    -913.240E+03    -15.7739E-03     31.6481E-03    -15.8742E-03     2.02088E-03    -15.7517E-03     31.4596E-03    -15.8528E-03     2.00882E-03
             129     13.1875E-09     85.7330E-03    -13.0660E+06    -47.4206E+06    -13.1720E+06    -717.047E+03    -15.7954E-03     31.6782E-03    -15.8828E-03     1.93309E-03    -15.7727E-03     31.4796E-03    -15.8610E-03     1.92358E-03
             130    -58.7135E-09     84.7543E-03    -13.8408E+06    -49.7600E+06    -13.7183E+06    -768.602E+03    -15.8489E-03     31.7188E-03    -15.8699E-03     1.96702E-03    -15.8259E-03     31.5103E-03    -15.8463E-03     1.95683E-03
             131     66.3826E-09     83.7757E-03    -14.7601E+06    -52.3701E+06    -14.7373E+06    -811.237E+03    -15.8756E-03     31.7249E-03    -15.8493E-03     1.99636E-03    -15.8520E-03     31.5062E-03    -15.8256E-03     1.98562E-03
             132    -29.1893E-09     82.7969E-03    -14.9203E+06    -54.6150E+06    -15.0689E+06    -645.248E+03    -15.8592E-03     31.7041E-03    -15.8449E-03     2.12348E-03    -15.8326E-03     31.4749E-03    -15.8194E-03     2.11485E-03
             133     13.2929E-09     81.8184E-03    -14.5744E+06    -56.2657E+06    -14.6695E+06    -418.064E+03    -15.8437E-03     31.6894E-03    -15.8457E-03     2.14645E-03    -15.8136E-03     31.4508E-03    -15.8163E-03     2.14073E-03
             134    -4.24271E-09     80.8398E-03    -14.9971E+06    -57.9403E+06    -14.8259E+06    -410.130E+03    -15.8341E-03     31.6698E-03    -15.8357E-03     2.12920E-03    -15.8034E-03     31.4237E-03    -15.8041E-03     2.12360E-03
             135    -8.08086E-09     79.8614E-03    -15.1754E+06    -59.3549E+06    -15.3444E+06    -365.821E+03    -15.8572E-03     31.6706E-03    -15.8134E-03     2.08270E-03    -15.8246E-03     31.4185E-03    -15.7821E-03     2.07768E-03
             136     93.8774E-09     78.8827E-03    -15.1898E+06    -60.4319E+06    -15.0657E+06    -242.565E+03    -15.8920E-03     31.6611E-03    -15.7692E-03     2.07072E-03    -15.8583E-03     31.4032E-03    -15.7348E-03     2.06729E-03
             137     37.1734E-09     77.9044E-03    -15.0017E+06    -61.3477E+06    -15.0506E+06    -369.909E+03    -15.8995E-03     31.6538E-03    -15.7543E-03     2.05612E-03    -15.8635E-03     31.3910E-03    -15.7189E-03     2.05105E-03
             138     86.1698E-09     76.9257E-03    -14.6957E+06    -62.1150E+06    -14.6938E+06    -158.836E+03    -15.8959E-03     31.6606E-03    -15.7647E-03     2.10648E-03    -15.8578E-03     31.3930E-03    -15.7268E-03     2.10412E-03
             139     20.5872E-09     75.9472E-03    -14.5776E+06    -62.9622E+06    -14.4368E+06    -246.827E+03    -15.8373E-03     31.6329E-03    -15.7956E-03     2.18047E-03    -15.7978E-03     31.3605E-03    -15.7554E-03     2.17697E-03
             140    -54.3602E-09     74.9687E-03    -14.3824E+06    -63.7230E+06    -14.6269E+06    -114.367E+03    -15.7560E-03     31.5901E-03    -15.8341E-03     2.14124E-03    -15.7141E-03     31.3139E-03    -15.7940E-03     2.13946E-03
             141    -55.4952E-09     73.9904E-03    -14.5538E+06    -64.2213E+06    -14.3167E+06    -189.978E+03    -15.7721E-03     31.5972E-03    -15.8251E-03     2.08009E-03    -15.7309E-03     31.3183E-03    -15.7824E-03     2.07736E-03
             142     72.0484E-09     73.0118E-03    -14.3936E+06    -65.1735E+06    -14.5413E+06    -333.598E+03    -15.8068E-03     31.6076E-03    -15.8008E-03     2.11569E-03    -15.7630E-03     31.3241E-03    -15.7582E-03     2.11107E-03
             143    -82.0729E-09     72.0334E-03    -14.6979E+06    -65.8153E+06    -14.6547E+06    -132.268E+03    -15.7475E-03     31.5919E-03    -15.8444E-03     2.13470E-03    -15.7042E-03     31.3057E-03    -15.8009E-03     2.13266E-03
             144    -81.3334E-09     71.0551E-03    -14.4995E+06    -66.4509E+06    -14.5624E+06    -214.151E+03    -15.7257E-03     31.5936E-03    -15.8678E-03     2.03071E-03    -15.6806E-03     31.3038E-03    -15.8233E-03     2.02767E-03
             145    -9.97122E-09     70.0766E-03    -14.0405E+06    -67.1008E+06    -14.0702E+06    -170.595E+03    -15.8128E-03     31.6022E-03    -15.7894E-03     1.98817E-03    -15.7652E-03     31.3078E-03    -15.7421E-03     1.98570E-03
             146     140.317E-09     69.0982E-03    -13.7479E+06    -67.4812E+06    -13.7750E+06    -121.645E+03    -15.8329E-03     31.5956E-03    -15.7626E-03     2.06325E-03    -15.7837E-03     31.2984E-03    -15.7137E-03     2.06138E-03
             147    -148.544E-09     68.1197E-03    -13.5920E+06    -67.6463E+06    -13.5843E+06    -41.8705E+03    -15.7706E-03     31.5693E-03    -15.7987E-03     2.02905E-03    -15.7206E-03     31.2709E-03    -15.7488E-03     2.02822E-03
             148     104.901E-09     67.1414E-03    -13.2773E+06    -67.7434E+06    -13.2587E+06    -49.4187E+03    -15.8013E-03     31.5556E-03    -15.7543E-03     2.01037E-03    -15.7501E-03     31.2557E-03    -15.7031E-03     2.00945E-03
             149     20.2457E-09     66.1629E-03    -13.1181E+06    -67.8317E+06    -13.1050E+06     28.4724E+03    -15.8442E-03     31.5605E-03    -15.7163E-03     2.08148E-03    -15.7923E-03     31.2598E-03    -15.6645E-03     2.08155E-03
             150     79.2153E-09     65.1846E-03    -13.0865E+06    -67.8545E+06    -13.0257E+06    -54.9887E+03    -15.8052E-03     31.5380E-03    -15.7327E-03     2.06250E-03    -15.7533E-03     31.2369E-03    -15.6805E-03     2.06150E-03
             151    -51.6884E-09     64.2063E-03    -12.7090E+06    -67.9388E+06    -12.8202E+06     4.86770E+03    -15.7478E-03     31.5108E-03    -15.7630E-03     1.99289E-03    -15.6941E-03     31.2085E-03    -15.7102E-03     1.99268E-03
             152    -6.27181E-09     63.2281E-03    -12.6915E+06    -67.9067E+06    -12.6027E+06    -29.2946E+03    -15.7243E-03     31.5145E-03    -15.7902E-03     1.96706E-03    -15.6709E-03     31.2120E-03    -15.7363E-03     1.96643E-03
             153    -53.4605E-09     62.2495E-03    -12.6862E+06    -68.0299E+06    -12.7718E+06    -73.5663E+03    -15.7339E-03     31.5074E-03    -15.7735E-03     2.03417E-03    -15.6800E-03     31.2046E-03    -15.7204E-03     2.03293E-03
             154     39.7736E-09     61.2713E-03    -12.8102E+06    -68.1926E+06    -12.7174E+06    -54.2762E+03    -15.7384E-03     31.4891E-03    -15.7507E-03     2.09672E-03    -15.6850E-03     31.1855E-03    -15.6968E-03     2.09572E-03
             155    -48.9859E-09     60.2929E-03    -12.6174E+06    -68.2104E+06    -12.7389E+06     4.69604E+03    -15.7177E-03     31.4750E-03    -15.7573E-03     2.08910E-03    -15.6632E-03     31.1711E-03    -15.7038E-03     2.08886E-03
             156    -15.6830E-09     59.3147E-03    -12.8565E+06    -68.2611E+06    -12.8138E+06     79.3554E+03    -15.6954E-03     31.4443E-03    -15.7488E-03     1.98582E-03    -15.6420E-03     31.1405E-03    -15.6953E-03     1.98658E-03
             157    -15.8890E-09     58.3366E-03    -12.7238E+06    -68.2374E+06    -12.6940E+06    -18.8157E+03    -15.7275E-03     31.4658E-03    -15.7384E-03     1.96716E-03    -15.6736E-03     31.1618E-03    -15.6844E-03     1.96665E-03
             158     26.4351E-09     57.3581E-03    -12.3361E+06    -67.9326E+06    -12.3335E+06     59.9086E+03    -15.7378E-03     31.4651E-03    -15.7273E-03     2.01710E-03    -15.6829E-03     31.1616E-03    -15.6726E-03     2.01759E-03
             159    -7.72970E-09     55.4017E-03    -12.1447E+06    -67.9591E+06    -12.1895E+06    -31.8506E+03    -15.6995E-03     31.3994E-03    -15.6998E-03     2.04370E-03    -15.6439E-03     31.0952E-03    -15.6446E-03     2.04298E-03
             160     32.8638E-09     54.4233E-03    -12.2223E+06    -68.0047E+06    -12.1567E+06    -57.5565E+03    -15.7108E-03     31.3902E-03    -15.6794E-03     2.05107E-03    -15.6555E-03     31.0859E-03    -15.6238E-03     2.05003E-03
             161    -3.70710E-09     53.4452E-03    -12.2492E+06    -68.0684E+06    -12.3576E+06        -799.754    -15.6703E-03     31.3356E-03    -15.6654E-03     2.07895E-03    -15.6147E-03     31.0313E-03    -15.6107E-03     2.07863E-03
             162    -20.2799E-09     52.4670E-03    -12.5815E+06    -68.1906E+06    -12.4605E+06    -27.1061E+03    -15.6388E-03     31.2634E-03    -15.6246E-03     1.99819E-03    -15.5847E-03     30.9592E-03    -15.5698E-03     1.99755E-03
             163     68.8248E-09     51.4892E-03    -12.5209E+06    -68.3482E+06    -12.6059E+06    -55.4565E+03    -15.6406E-03     31.2266E-03    -15.5860E-03     1.95584E-03    -15.5857E-03     30.9217E-03    -15.5318E-03     1.95485E-03
             164    -23.5644E-09     50.5110E-03    -12.5674E+06    -68.2869E+06    -12.5839E+06     116.358E+03    -15.6201E-03     31.2168E-03    -15.5967E-03     1.93816E-03    -15.5655E-03     30.9122E-03    -15.5424E-03     1.93940E-03
             165     17.6334E-09     49.5330E-03    -12.3785E+06    -68.2385E+06    -12.2760E+06    -71.8476E+03    -15.5785E-03     31.1660E-03    -15.5875E-03     1.92477E-03    -15.5235E-03     30.8609E-03    -15.5320E-03     1.92359E-03
             166    -28.4219E-09     48.5550E-03    -11.9942E+06    -68.2217E+06    -12.1610E+06    -27.4936E+03    -15.5644E-03     31.1205E-03    -15.5561E-03     1.97118E-03    -15.5077E-03     30.8148E-03    -15.5006E-03     1.97054E-03
             167     50.0354E-09     47.5770E-03    -12.4987E+06    -68.2339E+06    -12.3476E+06     11.7555E+03    -15.5519E-03     31.0514E-03    -15.4995E-03     2.01930E-03    -15.4974E-03     30.7466E-03    -15.4441E-03     2.01916E-03
             168     20.8814E-09     46.5992E-03    -12.4801E+06    -68.3157E+06    -12.6352E+06     34.7709E+03    -15.5006E-03     30.9464E-03    -15.4458E-03     2.08380E-03    -15.4454E-03     30.6416E-03    -15.3918E-03     2.08394E-03
             169     1.25851E-09     45.6214E-03    -12.6076E+06    -68.1187E+06    -12.4913E+06     152.946E+03    -15.4514E-03     30.8640E-03    -15.4127E-03     2.03069E-03    -15.3974E-03     30.5602E-03    -15.3581E-03     2.03237E-03
             170     44.4123E-09     44.6439E-03    -12.6191E+06    -68.0804E+06    -12.5812E+06    -46.8255E+03    -15.4141E-03     30.7631E-03    -15.3491E-03     1.95062E-03    -15.3601E-03     30.4596E-03    -15.2950E-03     1.94974E-03
             171     23.5647E-09     43.6663E-03    -12.6109E+06    -68.0508E+06    -12.7374E+06     69.3691E+03    -15.3528E-03     30.6663E-03    -15.3136E-03     1.97197E-03    -15.2986E-03     30.3632E-03    -15.2603E-03     1.97258E-03
             172    -25.4644E-09     42.6889E-03    -12.7694E+06    -67.9213E+06    -12.6397E+06     67.2907E+03    -15.2754E-03     30.5602E-03    -15.2848E-03     1.91626E-03    -15.2222E-03     30.2578E-03    -15.2310E-03     1.91685E-03
             173     10.0936E-09     41.7115E-03    -12.5372E+06    -67.8488E+06    -12.5437E+06    -51.5526E+03    -15.2240E-03     30.4286E-03    -15.2046E-03     1.88532E-03    -15.1700E-03     30.1261E-03    -15.1508E-03     1.88438E-03
             174     37.7507E-09     40.7343E-03    -12.5149E+06    -67.7231E+06    -12.5735E+06     2.46206E+03    -15.1540E-03     30.2930E-03    -15.1390E-03     1.93237E-03    -15.1000E-03     29.9911E-03    -15.0855E-03     1.93212E-03
             175    -61.6480E-09     39.7571E-03    -12.7705E+06    -67.8076E+06    -12.7703E+06     26.6807E+03    -15.0433E-03     30.1060E-03    -15.0628E-03     1.94477E-03    -14.9901E-03     29.8044E-03    -15.0098E-03     1.94483E-03
             176     48.9476E-09     38.7804E-03    -12.9604E+06    -67.8669E+06    -12.8777E+06    -15.5173E+03    -14.9688E-03     29.9056E-03    -14.9368E-03     1.87528E-03    -14.9164E-03     29.6041E-03    -14.8840E-03     1.87481E-03
             177     19.6149E-09     37.8038E-03    -12.8814E+06    -67.8458E+06    -12.9637E+06     15.9323E+03    -14.8946E-03     29.7180E-03    -14.8234E-03     1.74871E-03    -14.8416E-03     29.4166E-03    -14.7712E-03     1.74868E-03
             178     35.3292E-09     36.8274E-03    -12.9030E+06    -67.8085E+06    -12.8275E+06        -154.434    -14.7550E-03     29.4933E-03    -14.7382E-03     1.70142E-03    -14.7024E-03     29.1919E-03    -14.6854E-03     1.70121E-03
             179    -61.2950E-09     35.8510E-03    -12.7000E+06    -67.8761E+06    -12.7584E+06     20.2067E+03    -14.5927E-03     29.2392E-03    -14.6465E-03     1.73710E-03    -14.5391E-03     28.9371E-03    -14.5935E-03     1.73713E-03
             180    -10.5521E-09     34.8751E-03    -12.5655E+06    -67.9094E+06    -12.6033E+06     12.4401E+03    -14.4352E-03     28.9492E-03    -14.5140E-03     1.72758E-03    -14.3811E-03     28.6465E-03    -14.4603E-03     1.72751E-03
             181    -59.4423E-09     33.8993E-03    -12.3673E+06    -67.9359E+06    -12.4098E+06     14.3593E+03    -14.3050E-03     28.6268E-03    -14.3218E-03     1.71405E-03    -14.2502E-03     28.3234E-03    -14.2674E-03     1.71401E-03
             182     97.5537E-09     32.9240E-03    -12.3722E+06    -67.9385E+06    -12.2986E+06    -5.40199E+03    -14.1738E-03     28.2901E-03    -14.1163E-03     1.68801E-03    -14.1191E-03     27.9865E-03    -14.0613E-03     1.68771E-03
             183    -34.3863E-09     31.9490E-03    -12.2898E+06    -68.0104E+06    -12.2979E+06    -137.731E+03    -13.9925E-03     27.9073E-03    -13.9148E-03     1.65428E-03    -13.9373E-03     27.6032E-03    -13.8598E-03     1.65227E-03
             184     107.497E-09     30.9744E-03    -12.2156E+06    -68.1834E+06    -12.1990E+06     36.8966E+03    -13.7671E-03     27.4813E-03    -13.7143E-03     1.67011E-03    -13.7114E-03     27.1762E-03    -13.6587E-03     1.67036E-03
             185    -88.2906E-09     30.0003E-03    -12.0266E+06    -68.0534E+06    -11.9347E+06     231.041E+03    -13.5346E-03     27.0324E-03    -13.4978E-03     1.58337E-03    -13.4786E-03     26.7273E-03    -13.4414E-03     1.58615E-03
             186     134.003E-09     29.0266E-03    -11.2350E+06    -67.5241E+06    -11.3168E+06     145.806E+03    -13.2754E-03     26.5560E-03    -13.2806E-03     1.47672E-03    -13.2171E-03     26.2515E-03    -13.2230E-03     1.47841E-03
             187    -191.210E-09     28.0534E-03    -10.7380E+06    -67.2101E+06    -10.6968E+06     12.1572E+03    -13.0391E-03     26.0680E-03    -13.0289E-03     1.39608E-03    -12.9796E-03     25.7634E-03    -12.9693E-03     1.39606E-03
             188     265.841E-09     27.0805E-03    -11.3628E+06    -67.6108E+06    -11.1758E+06    -160.235E+03    -12.8234E-03     25.5500E-03    -12.7266E-03     1.41702E-03    -12.7658E-03     25.2450E-03    -12.6679E-03     1.41479E-03
             189    -167.470E-09     26.1083E-03    -11.5691E+06    -68.2083E+06    -11.7248E+06    -87.9192E+03    -12.5108E-03     24.9767E-03    -12.4659E-03     1.43076E-03    -12.4525E-03     24.6698E-03    -12.4088E-03     1.42945E-03
             190     145.836E-09     25.1367E-03    -11.1486E+06    -67.9402E+06    -11.3254E+06     297.055E+03    -12.1977E-03     24.3901E-03    -12.1924E-03     1.31656E-03    -12.1383E-03     24.0834E-03    -12.1343E-03     1.32021E-03
             191    -117.950E-09     24.1657E-03    -10.5769E+06    -66.6078E+06    -10.5799E+06     393.070E+03    -11.8929E-03     23.8064E-03    -11.9135E-03     1.22234E-03    -11.8336E-03     23.5044E-03    -11.8544E-03     1.22724E-03
             192     52.2958E-09     23.1951E-03    -9.87926E+06    -65.1865E+06    -9.89855E+06     287.529E+03    -11.6255E-03     23.2504E-03    -11.6250E-03     1.11322E-03    -11.5657E-03     22.9535E-03    -11.5656E-03     1.11678E-03
             193     13.0135E-09     22.2252E-03    -9.25690E+06    -63.6857E+06    -9.45984E+06     481.510E+03    -11.3814E-03     22.7104E-03    -11.3291E-03     1.07344E-03    -11.3213E-03     22.4195E-03    -11.2706E-03     1.07952E-03
             194     11.4763E-09     21.2556E-03     -9.1675E+06    -62.2885E+06    -9.11409E+06     515.403E+03    -11.1140E-03     22.1877E-03    -11.0737E-03     1.07206E-03    -11.0561E-03     21.9032E-03    -11.0157E-03     1.07858E-03
             195     35.4637E-09     20.2867E-03    -8.73911E+06    -61.0888E+06    -8.69613E+06     444.447E+03    -10.8607E-03     21.6892E-03    -10.8284E-03     1.01221E-03    -10.8030E-03     21.4094E-03    -10.7706E-03     1.01782E-03
             196    -25.2782E-09     19.3182E-03    -7.54827E+06    -59.0731E+06    -7.62766E+06     687.500E+03    -10.6259E-03     21.2487E-03    -10.6228E-03     900.967E-06    -10.5667E-03     20.9757E-03    -10.5643E-03     909.722E-06
             197     18.9274E-09     18.3501E-03    -5.72962E+06    -56.1557E+06    -5.57108E+06     602.607E+03    -10.4670E-03     20.8828E-03    -10.4158E-03     802.799E-06    -10.4059E-03     20.6188E-03    -10.3539E-03     810.461E-06
             198     79.7347E-09     17.3821E-03    -2.87266E+06    -53.6590E+06    -3.02111E+06     647.380E+03    -10.2611E-03     20.4542E-03    -10.1931E-03     778.347E-06    -10.1930E-03     20.1949E-03    -10.1263E-03     786.589E-06
             199    -59.7958E-09     16.4149E-03    -11.1527E+03    -50.8884E+06    -28.9668E+03     776.217E+03    -10.0028E-03     19.9753E-03    -9.97249E-03     723.362E-06    -9.92873E-03     19.7213E-03    -9.89883E-03     733.273E-06
             200     92.9194E-09     15.4479E-03     999.990E+03    -48.5561E+06     1.07549E+06     737.457E+03    -9.77712E-03     19.4113E-03    -9.63414E-03     587.173E-06    -9.70299E-03     19.1659E-03    -9.55981E-03     596.610E-06
             201     129.144E-09     14.4816E-03     418.833E+03    -47.0786E+06     420.848E+03     512.862E+03    -9.47332E-03     18.6859E-03    -9.21262E-03     477.186E-06    -9.40329E-03     18.4497E-03    -9.14286E-03     483.734E-06
             202     113.194E-09     13.5163E-03    -818.992E+03    -45.9288E+06    -844.762E+03     332.562E+03    -9.02822E-03     17.8864E-03    -8.85815E-03     347.389E-06    -8.96422E-03     17.6596E-03    -8.79459E-03     351.616E-06
             203    -52.9556E-09     12.5514E-03    -3.14428E+06    -45.5432E+06    -3.08225E+06     97.1414E+03    -8.47503E-03     16.8998E-03    -8.42479E-03     183.539E-06    -8.41999E-03     16.6815E-03    -8.36960E-03     184.726E-06
             204     82.7526E-09     11.5878E-03    -6.07394E+06    -45.7060E+06    -5.97894E+06    -137.832E+03    -7.88886E-03     15.6940E-03    -7.80511E-03     95.9759E-06    -7.84404E-03     15.4833E-03    -7.75992E-03     94.1282E-06
             205     37.8563E-09     10.6254E-03    -8.93789E+06    -45.7769E+06    -8.78835E+06    -78.2335E+03    -7.28418E-03     14.4614E-03    -7.17721E-03     66.2299E-06    -7.24950E-03     14.2586E-03    -7.14181E-03     65.1532E-06
             206     34.0916E-09     9.66409E-03    -11.2285E+06    -45.9856E+06    -11.2882E+06     25.2342E+03    -6.80268E-03     13.4880E-03    -6.68532E-03     129.532E-06    -6.77552E-03     13.2911E-03    -6.65880E-03     129.788E-06
             207     102.726E-09     8.70355E-03    -12.6529E+06    -46.6517E+06    -12.3764E+06    -119.822E+03    -6.64528E-03     13.2142E-03    -6.56887E-03     280.660E-06    -6.62270E-03     13.0176E-03    -6.54476E-03     279.046E-06
             208    -100.173E-09     7.74301E-03    -12.0909E+06    -47.4759E+06    -11.7687E+06    -656.846E+03    -6.95387E-03     13.8919E-03    -6.93805E-03     415.943E-06    -6.92818E-03     13.6896E-03    -6.91052E-03     407.401E-06
             209     129.225E-09     6.78089E-03    -9.87966E+06    -48.5427E+06    -10.0480E+06    -499.052E+03    -7.69085E-03     15.3451E-03    -7.65421E-03     623.620E-06    -7.65506E-03     15.1317E-03    -7.61973E-03     617.139E-06
             210    -95.0879E-09     5.81743E-03    -7.24985E+06    -49.9450E+06    -7.17821E+06    -309.116E+03    -8.59115E-03     17.2063E-03    -8.61516E-03     762.108E-06    -8.54432E-03     16.9779E-03    -8.56812E-03     758.084E-06
             211     18.6358E-09     4.85186E-03    -4.81258E+06    -52.0716E+06    -4.69701E+06    -708.623E+03    -9.59327E-03     19.2275E-03    -9.63420E-03     750.664E-06    -9.53473E-03     18.9813E-03    -9.57520E-03     741.495E-06
             212    -14.2703E-09     3.88457E-03    -2.53205E+06    -54.3392E+06    -2.71080E+06    -959.590E+03    -10.5971E-03     21.2290E-03    -10.6319E-03     700.628E-06    -10.5267E-03     20.9653E-03    -10.5630E-03     688.221E-06
             213    -54.4699E-09     2.91519E-03    -1.22395E+06    -56.5419E+06    -1.47432E+06    -385.511E+03    -11.4747E-03     23.0067E-03    -11.5320E-03     579.186E-06    -11.3963E-03     22.7284E-03    -11.4556E-03     574.124E-06
             214     17.8007E-09     1.94434E-03    -3.84560E+06    -57.5783E+06    -3.95951E+06     27.2748E+03    -12.1728E-03     24.3475E-03    -12.1748E-03     427.482E-06    -12.1022E-03     24.0715E-03    -12.1055E-03     427.788E-06
             215     12.9151E-09     972.471E-06    -6.04572E+06    -57.9694E+06    -6.01493E+06    -211.452E+03    -12.6164E-03     25.1897E-03    -12.5733E-03     240.131E-06    -12.5530E-03     24.9178E-03    -12.5106E-03     237.609E-06
             216     888.583E-06     430.211E-18    -5.79484E+06    -57.9561E+06    -6.04217E+06     148.238E+03    -12.7824E-03     25.5227E-03    -12.7403E-03     188.465E-06    -12.7181E-03     25.2502E-03    -12.6780E-03     190.581E-06
             217     1.77715E-03     430.211E-18    -6.67215E+06    -58.2765E+06    -7.61190E+06     255.636E+03    -12.8330E-03     25.6018E-03    -12.7687E-03     343.263E-06    -12.7708E-03     25.3310E-03    -12.7126E-03     346.561E-06
             218     2.66562E-03     430.211E-18    -6.94549E+06    -59.3245E+06    -9.60093E+06    -452.618E+03    -12.9385E-03     25.7346E-03    -12.7961E-03     535.140E-06    -12.8732E-03     25.4620E-03    -12.7480E-03     529.263E-06
             219     3.55395E-03     430.211E-18    -6.77209E+06    -60.5788E+06    -12.5692E+06    -977.277E+03    -13.0817E-03     25.9122E-03    -12.8304E-03     745.589E-06    -13.0095E-03     25.6373E-03    -12.7956E-03     732.934E-06
             220     4.44218E-03     430.211E-18    -6.59593E+06    -61.6760E+06    -15.7456E+06    -977.723E+03    -13.2674E-03     26.1433E-03    -12.8759E-03     951.922E-06    -13.1881E-03     25.8673E-03    -12.8556E-03     939.241E-06
             221     5.33021E-03     430.211E-18    -6.16023E+06    -63.8127E+06    -18.1899E+06    -1.53971E+06    -13.5007E-03     26.4404E-03    -12.9397E-03     1.18530E-03    -13.4126E-03     26.1566E-03    -12.9292E-03     1.16535E-03
             222     6.21799E-03     430.211E-18    -4.93099E+06    -66.3550E+06    -21.1036E+06    -2.12985E+06    -13.7793E-03     26.7938E-03    -13.0145E-03     1.44245E-03    -13.6771E-03     26.4997E-03    -13.0166E-03     1.41485E-03
             223     7.10556E-03     430.211E-18    -2.99757E+06    -67.3812E+06    -25.2604E+06    -2.70430E+06    -14.0980E-03     27.1913E-03    -13.0934E-03     1.73980E-03    -13.9786E-03     26.8954E-03    -13.1176E-03     1.70476E-03
             224     7.99271E-03     430.211E-18    -205.823E+03    -68.8633E+06    -28.6641E+06    -3.60871E+06    -14.4609E-03     27.6496E-03    -13.1887E-03     2.06305E-03    -14.3205E-03     27.3472E-03    -13.2319E-03     2.01628E-03
             225     8.87973E-03     430.211E-18     3.22354E+06    -68.2442E+06    -33.5069E+06    -3.85340E+06    -14.9041E-03     28.1922E-03    -13.2881E-03     2.44100E-03    -14.7404E-03     27.8948E-03    -13.3613E-03     2.39103E-03
             226     9.76603E-03     430.211E-18     6.72431E+06    -63.9068E+06    -39.1281E+06    -4.15470E+06    -15.4290E-03     28.8255E-03    -13.3965E-03     2.99809E-03    -15.2460E-03     28.5529E-03    -13.5092E-03     2.94419E-03
             227     10.6519E-03     430.211E-18     10.3663E+06    -54.4693E+06    -41.2230E+06    -4.61215E+06    -15.9913E-03     29.5257E-03    -13.5344E-03     3.51162E-03    -15.8007E-03     29.2981E-03    -13.6766E-03     3.45166E-03
             228     11.5375E-03     430.211E-18     13.4000E+06    -35.6979E+06    -38.2003E+06    -3.23544E+06    -16.7381E-03     30.4480E-03    -13.7100E-03     4.11644E-03    -16.5639E-03     30.3055E-03    -13.8686E-03     4.07401E-03
             229     12.4219E-03     430.211E-18     14.6584E+06    -8.30704E+06    -29.6570E+06    -1.70501E+06    -17.7273E-03     31.6670E-03    -13.9397E-03     5.27014E-03    -17.5990E-03     31.6472E-03    -14.0972E-03     5.24747E-03
             230     13.3047E-03     430.211E-18     14.5508E+06     21.9253E+06    -12.6896E+06    -1.18893E+06    -19.0261E-03     33.2847E-03    -14.2586E-03     6.86167E-03    -18.9668E-03     33.3917E-03    -14.3750E-03     6.84479E-03
             231     14.1871E-03     430.211E-18     13.0114E+06     42.7376E+06     8.63327E+06     1.90821E+06    -21.3435E-03     36.0399E-03    -14.6964E-03     8.78037E-03    -21.3531E-03     36.2224E-03    -14.7340E-03     8.80269E-03
             232     15.0655E-03     430.211E-18     13.6276E+06     56.9228E+06     33.4384E+06    -2.76013E+06    -24.6589E-03     39.9424E-03    -15.2835E-03     10.9569E-03    -24.7220E-03     40.1591E-03    -15.2186E-03     10.9189E-03
             233     15.9410E-03     430.211E-18     11.4087E+06     69.0227E+06     56.3272E+06    -2.04440E+06    -29.8326E-03     45.8831E-03    -16.0505E-03     19.0259E-03    -29.9615E-03     46.1338E-03    -15.8855E-03     18.9803E-03
             234     16.8032E-03     430.211E-18     2.45385E+06     82.7359E+06     65.1707E+06     8.96375E+06    -48.1298E-03     65.4107E-03    -17.2809E-03     50.1695E-03    -48.4378E-03     65.8332E-03    -17.0786E-03     50.0426E-03
             235     17.6897E-03     1.05657E-03    -534.847E+03     101.827E+06     67.7609E+06     7.86813E+06    -58.8292E-03     76.0367E-03    -17.2075E-03     88.1788E-03    -59.4239E-03     76.8006E-03    -17.0156E-03     87.8492E-03
             236     17.7018E-03     2.09933E-03    -773.295E+03     117.217E+06     72.3486E+06     6.19660E+06    -60.7157E-03     76.7018E-03    -15.9861E-03     120.380E-03    -61.8034E-03     78.0027E-03    -15.7932E-03     119.919E-03
             237     17.7056E-03     3.15120E-03    -758.236E+03     132.107E+06     81.5337E+06     7.63852E+06    -67.3638E-03     82.9106E-03    -15.5468E-03     157.696E-03    -69.2486E-03     85.0334E-03    -15.3296E-03     157.110E-03
             238     17.7104E-03     4.19323E-03    -1.97461E+06     141.841E+06     88.7910E+06     2.06336E+06    -68.5564E-03     83.9687E-03    -15.4124E-03     190.774E-03    -71.3945E-03     87.0511E-03    -15.1712E-03     190.256E-03
             239     17.7096E-03     5.22753E-03    -3.89912E+06     145.362E+06     92.5208E+06     1.01925E+06    -66.2325E-03     81.6357E-03    -15.4032E-03     211.305E-03    -69.8977E-03     85.5380E-03    -15.1458E-03     211.268E-03
             240     17.7144E-03     6.25141E-03    -1.08839E+06     151.003E+06     95.1726E+06     2.48077E+06    -59.2158E-03     74.6866E-03    -15.4708E-03     225.365E-03    -63.4995E-03     79.2278E-03    -15.2123E-03     226.136E-03
             241     17.7148E-03     7.26025E-03    -1.88420E+06     153.541E+06     94.1362E+06     192.671E+03    -55.4093E-03     70.9213E-03    -15.5120E-03     236.244E-03    -60.2325E-03     76.0110E-03    -15.2612E-03     237.603E-03
             242     17.7138E-03     8.27526E-03    -3.46233E+06     154.758E+06      94.099E+06     393.028E+03    -54.7388E-03     70.2945E-03    -15.5557E-03     244.793E-03    -60.1254E-03     75.9465E-03    -15.3046E-03     246.615E-03
             243     17.7145E-03     9.28269E-03    -3.44963E+06     156.867E+06     94.0415E+06     845.347E+03    -52.7736E-03     68.3635E-03    -15.5900E-03     255.639E-03    -58.7465E-03     74.6092E-03    -15.3422E-03     258.025E-03
             244     17.7164E-03     10.2901E-03    -3.60950E+06     158.602E+06     95.6486E+06     1.17552E+06    -51.0211E-03     66.6764E-03    -15.6553E-03     264.115E-03    -57.5169E-03     73.4463E-03    -15.4018E-03     266.998E-03
             245     17.7120E-03     11.2962E-03    -3.44139E+06     160.304E+06     95.9726E+06     2.80748E+06    -48.8308E-03     64.5850E-03    -15.7542E-03     272.168E-03    -55.8486E-03     71.8814E-03    -15.5017E-03     275.558E-03
             246     17.7170E-03     12.2874E-03    -2.22593E+06     162.044E+06     95.2715E+06     1.11544E+06    -46.9789E-03     62.6962E-03    -15.7173E-03     277.557E-03    -54.3444E-03     70.3527E-03    -15.4727E-03     281.383E-03
             247     17.7175E-03     13.2906E-03     106.703E+03     165.763E+06     99.5908E+06    -1.34696E+06    -47.3636E-03     63.0122E-03    -15.6486E-03     283.956E-03    -55.1862E-03     71.1362E-03    -15.3912E-03     288.113E-03
             248     17.7175E-03     14.2955E-03    -592.630E+03     166.333E+06     100.438E+06     166.394E+03    -46.8810E-03     62.5552E-03    -15.6742E-03     292.956E-03    -55.2748E-03     71.2465E-03    -15.4123E-03     297.512E-03
             249     17.7179E-03     15.2830E-03    -2.92937E+06     164.562E+06     98.6344E+06     714.432E+03    -47.1039E-03     62.7708E-03    -15.6669E-03     297.265E-03    -55.8156E-03     71.7704E-03    -15.4081E-03     302.047E-03
             250     17.7177E-03     16.2844E-03    -2.74337E+06     165.481E+06     99.9130E+06     596.574E+03    -47.3024E-03     62.9579E-03    -15.6555E-03     297.192E-03    -56.2044E-03     72.1484E-03    -15.3919E-03     302.167E-03
             251     17.7182E-03     17.2765E-03    -2.73421E+06     166.290E+06     100.458E+06     498.108E+03    -46.2149E-03     61.8966E-03    -15.6817E-03     301.212E-03    -55.4538E-03     71.4251E-03    -15.4166E-03     306.586E-03
             252     17.7183E-03     18.2725E-03    -2.54647E+06     167.057E+06     101.131E+06     303.111E+03    -45.3383E-03     61.0408E-03    -15.7025E-03     303.527E-03    -54.8265E-03     70.8202E-03    -15.4354E-03     309.200E-03
             253     17.7181E-03     19.2638E-03    -2.44286E+06     167.712E+06     101.778E+06    -56.2627E+03    -44.4923E-03     60.2200E-03    -15.7277E-03     306.411E-03    -54.2511E-03     70.2707E-03    -15.4584E-03     312.394E-03
             254     17.7187E-03     20.2565E-03    -2.84165E+06     167.980E+06     101.966E+06     272.992E+03    -45.0318E-03     60.7564E-03    -15.7246E-03     310.527E-03    -55.0979E-03     71.1135E-03    -15.4542E-03     316.745E-03
             255     17.7179E-03     21.2519E-03    -2.03678E+06     169.238E+06     102.259E+06     1.16286E+06    -41.3362E-03     57.1340E-03    -15.7978E-03     308.329E-03    -51.4001E-03     67.4950E-03    -15.5289E-03     315.000E-03
             256     17.7195E-03     22.2265E-03    -2.47201E+06     169.335E+06     101.669E+06     396.897E+03    -39.0967E-03     54.9229E-03    -15.8262E-03     309.848E-03    -49.2366E-03     65.3606E-03    -15.5598E-03     316.861E-03
             257     17.7191E-03     23.2208E-03    -3.09231E+06     168.692E+06     101.953E+06    -200.840E+03    -42.3839E-03     58.1236E-03    -15.7398E-03     311.606E-03    -52.6668E-03     68.6996E-03    -15.4701E-03     318.365E-03
             258     17.7191E-03     24.2149E-03    -2.57192E+06     170.020E+06     102.955E+06     682.839E+03    -41.5773E-03     57.3487E-03    -15.7714E-03     314.331E-03    -52.1097E-03     68.1771E-03    -15.4994E-03     321.334E-03
             259     17.7192E-03     25.1960E-03    -2.33618E+06     171.277E+06     103.576E+06     639.202E+03    -39.2002E-03     55.0285E-03    -15.8283E-03     316.101E-03    -49.9116E-03     66.0392E-03    -15.5554E-03     323.554E-03
             260     17.7194E-03     26.1822E-03    -2.70843E+06     171.229E+06     103.519E+06     23.4853E+03    -39.2795E-03     55.0964E-03    -15.8170E-03     315.278E-03    -50.0118E-03     66.1268E-03    -15.5437E-03     322.794E-03
             261     17.7194E-03     27.1692E-03    -2.68725E+06     171.553E+06     103.841E+06     114.134E+03    -38.8915E-03     54.7230E-03    -15.8315E-03     316.129E-03    -49.7363E-03     65.8662E-03    -15.5572E-03     323.793E-03
             262     17.7192E-03     28.1531E-03    -2.49830E+06     172.376E+06     104.000E+06     272.842E+03    -37.8930E-03     53.7471E-03    -15.8541E-03     316.885E-03    -48.8542E-03     65.0098E-03    -15.5804E-03     324.770E-03
             263     17.7198E-03     29.1363E-03    -2.97123E+06     172.765E+06     103.789E+06     367.534E+03    -37.5161E-03     53.3702E-03    -15.8540E-03     318.586E-03    -48.6021E-03     64.7580E-03    -15.5813E-03     326.617E-03
             264     17.7196E-03     30.1238E-03    -2.72794E+06     173.346E+06     104.453E+06     105.517E+03    -37.1515E-03     53.0183E-03    -15.8667E-03     320.477E-03    -48.3776E-03     64.5471E-03    -15.5919E-03     328.639E-03
             265     17.7196E-03     31.1032E-03    -2.47537E+06     173.630E+06     104.811E+06     211.894E+03    -36.4814E-03     52.3674E-03    -15.8860E-03     320.189E-03    -47.7631E-03     63.9526E-03    -15.6101E-03     328.517E-03
             266     17.7196E-03     32.0860E-03    -2.87122E+06     173.514E+06     104.355E+06     283.181E+03    -36.2493E-03     52.1351E-03    -15.8858E-03     320.497E-03    -47.5878E-03     63.7768E-03    -15.6115E-03     328.924E-03
             267     17.7199E-03     33.0706E-03    -2.69027E+06     174.226E+06     104.683E+06     100.068E+03    -35.7548E-03     51.6499E-03    -15.8951E-03     322.442E-03    -47.2313E-03     63.4318E-03    -15.6204E-03     330.993E-03
             268     17.7199E-03     34.0505E-03    -2.14549E+06     174.864E+06     105.279E+06     471.522E+03    -35.1295E-03     51.0390E-03    -15.9094E-03     323.404E-03    -46.6741E-03     62.8914E-03    -15.6335E-03     332.096E-03
             269     17.7200E-03     35.0315E-03    -3.04138E+06     174.011E+06     104.351E+06    -351.676E+03    -35.1168E-03     51.0214E-03    -15.9046E-03     323.184E-03    -46.6724E-03     62.8812E-03    -15.6307E-03     331.896E-03
             270     17.7199E-03     36.0123E-03    -3.11987E+06     174.098E+06     104.493E+06    -484.623E+03    -35.1187E-03     51.0214E-03    -15.9028E-03     323.127E-03    -46.7042E-03     62.9109E-03    -15.6282E-03     331.876E-03
             271     17.7201E-03     36.9938E-03    -2.64271E+06     174.382E+06     105.133E+06     175.600E+03    -34.9830E-03     50.8963E-03    -15.9133E-03     324.551E-03    -46.6327E-03     62.8508E-03    -15.6367E-03     333.374E-03
             272     17.7198E-03     37.9759E-03    -2.73804E+06     174.083E+06     104.992E+06    -189.482E+03    -34.2229E-03     50.1541E-03    -15.9312E-03     324.165E-03    -45.8697E-03     62.1047E-03    -15.6547E-03     333.076E-03
             273     17.7202E-03     38.9502E-03    -2.49763E+06     174.182E+06     105.417E+06     226.303E+03    -34.0127E-03     49.9452E-03    -15.9325E-03     322.098E-03    -45.5902E-03     61.8265E-03    -15.6544E-03     331.071E-03
             274     17.7196E-03     39.9340E-03    -2.82104E+06     174.425E+06     105.573E+06     407.795E+03    -34.6388E-03     50.5624E-03    -15.9236E-03     322.369E-03    -46.2591E-03     62.4858E-03    -15.6446E-03     331.309E-03
             275     17.7200E-03     40.9154E-03    -2.45606E+06     175.311E+06     105.839E+06     313.256E+03    -34.0891E-03     50.0272E-03    -15.9381E-03     323.738E-03    -45.8199E-03     62.0647E-03    -15.6595E-03     332.781E-03
             276     17.7200E-03     41.8927E-03    -2.84476E+06     174.959E+06     105.177E+06    -64.4650E+03    -33.6756E-03     49.6143E-03    -15.9386E-03     324.469E-03    -45.4511E-03     61.6958E-03    -15.6623E-03     333.600E-03
             277     17.7203E-03     42.8752E-03    -2.92334E+06     174.864E+06     105.134E+06    -358.349E+03    -33.9587E-03     49.8879E-03    -15.9292E-03     325.696E-03    -45.8014E-03     62.0361E-03    -15.6529E-03     334.807E-03
             278     17.7201E-03     43.8544E-03    -2.51217E+06     175.333E+06     105.757E+06     132.193E+03    -33.7146E-03     49.6547E-03    -15.9401E-03     326.425E-03    -45.6113E-03     61.8582E-03    -15.6619E-03     335.602E-03
             279     17.7201E-03     44.8328E-03    -2.60456E+06     175.603E+06     105.944E+06     262.620E+03    -33.4696E-03     49.4194E-03    -15.9498E-03     326.012E-03    -45.3584E-03     61.6151E-03    -15.6709E-03     335.241E-03
             280     17.7200E-03     45.8120E-03    -2.78213E+06     175.418E+06     105.843E+06     12.6810E+03    -33.6777E-03     49.6248E-03    -15.9471E-03     325.846E-03    -45.5709E-03     61.8239E-03    -15.6682E-03     335.063E-03
             281     17.7200E-03     46.7918E-03    -3.01388E+06     174.836E+06     105.280E+06    -185.055E+03    -33.5948E-03     49.5401E-03    -15.9452E-03     325.738E-03    -45.4806E-03     61.7305E-03    -15.6680E-03     334.959E-03
             282     17.7202E-03     47.7705E-03    -2.68026E+06     175.182E+06     105.386E+06    -120.413E+03    -33.1973E-03     49.1437E-03    -15.9464E-03     325.532E-03    -45.0744E-03     61.3276E-03    -15.6696E-03     334.802E-03
             283     17.7203E-03     48.7488E-03    -2.98840E+06     174.851E+06     105.078E+06    -314.648E+03    -33.2077E-03     49.1510E-03    -15.9433E-03     325.624E-03    -45.0982E-03     61.3469E-03    -15.6671E-03     334.896E-03
             284     17.7201E-03     49.7294E-03    -2.38953E+06     175.589E+06     105.960E+06     442.138E+03    -33.4731E-03     49.4186E-03    -15.9455E-03     326.992E-03    -45.4296E-03     61.6826E-03    -15.6668E-03     336.278E-03
             285     17.7204E-03     50.7086E-03    -2.25722E+06     175.860E+06     106.549E+06     528.523E+03    -33.5408E-03     49.4949E-03    -15.9541E-03     327.305E-03    -45.5105E-03     61.7719E-03    -15.6731E-03     336.605E-03
             286     17.7196E-03     51.6866E-03    -3.01563E+06     175.190E+06     106.019E+06    -298.512E+03    -33.2070E-03     49.1734E-03    -15.9664E-03     324.937E-03    -45.0890E-03     61.3592E-03    -15.6860E-03     334.255E-03
             287     17.7200E-03     52.6628E-03    -2.50514E+06     175.751E+06     106.133E+06     252.557E+03    -32.8559E-03     48.8208E-03    -15.9648E-03     323.062E-03    -44.6479E-03     60.9200E-03    -15.6854E-03     332.406E-03
             288     17.7202E-03     53.6437E-03    -2.74178E+06     175.651E+06     105.740E+06     187.657E+03    -33.2333E-03     49.1822E-03    -15.9489E-03     324.587E-03    -45.0783E-03     61.3344E-03    -15.6709E-03     333.879E-03
             289     17.7200E-03     54.6252E-03    -2.72129E+06     175.938E+06     105.834E+06     158.410E+03    -33.3685E-03     49.3189E-03    -15.9505E-03     326.556E-03    -45.3298E-03     61.5882E-03    -15.6725E-03     335.863E-03
             290     17.7202E-03     55.6022E-03    -3.11030E+06     175.830E+06     105.263E+06    -296.290E+03    -32.8728E-03     48.8303E-03    -15.9575E-03     326.228E-03    -44.8345E-03     61.0999E-03    -15.6817E-03     335.613E-03
             291     17.7202E-03     56.5804E-03    -3.21209E+06     176.000E+06     105.042E+06    -458.137E+03    -32.7662E-03     48.7169E-03    -15.9507E-03     325.731E-03    -44.7007E-03     60.9602E-03    -15.6761E-03     335.118E-03
             292     885.964E-06     57.3600E-03    -12.2496E+06    -67.1124E+06    -12.0551E+06     44.7854E+03    -15.7242E-03     31.4498E-03    -15.7256E-03     3.43159E-03    -15.6706E-03     31.1497E-03    -15.6708E-03     3.43167E-03
             293     1.77202E-03     57.3646E-03    -11.8826E+06    -65.9799E+06    -10.9032E+06     64.9726E+03    -15.7195E-03     31.4443E-03    -15.7247E-03     6.45009E-03    -15.6675E-03     31.1475E-03    -15.6664E-03     6.44997E-03
             294     2.65804E-03     57.3720E-03    -11.3109E+06    -64.6527E+06    -9.22938E+06     103.938E+03    -15.7365E-03     31.4639E-03    -15.7274E-03     9.69429E-03    -15.6861E-03     31.1706E-03    -15.6634E-03     9.69417E-03
             295     3.54404E-03     57.3826E-03    -10.6616E+06    -62.9362E+06    -7.71038E+06     191.433E+03    -15.7611E-03     31.4928E-03    -15.7317E-03     13.0464E-03    -15.7123E-03     31.2051E-03    -15.6636E-03     13.0468E-03
             296     4.43007E-03     57.3963E-03    -9.78833E+06    -64.7315E+06    -5.94660E+06     276.621E+03    -15.8005E-03     31.5440E-03    -15.7435E-03     16.5373E-03    -15.7475E-03     31.2437E-03    -15.6652E-03     16.5383E-03
             297     5.31604E-03     57.4134E-03    -8.74408E+06    -64.1975E+06    -4.84389E+06     437.648E+03    -15.8370E-03     31.5855E-03    -15.7485E-03     20.2040E-03    -15.7815E-03     31.2850E-03    -15.6669E-03     20.2063E-03
             298     6.20206E-03     57.4339E-03    -7.85350E+06    -61.3613E+06    -3.48605E+06     155.411E+03    -15.8844E-03     31.6358E-03    -15.7514E-03     24.0543E-03    -15.8309E-03     31.3467E-03    -15.6685E-03     24.0521E-03
             299     7.08807E-03     57.4581E-03    -7.43177E+06    -61.8639E+06    -2.11126E+06    -32.6010E+03    -15.9507E-03     31.7114E-03    -15.7606E-03     28.0929E-03    -15.8971E-03     31.4178E-03    -15.6707E-03     28.0871E-03
             300     7.97401E-03     57.4862E-03    -7.35233E+06    -62.8924E+06    -1.47096E+06     432.531E+03    -16.0174E-03     31.7851E-03    -15.7677E-03     32.2951E-03    -15.9638E-03     31.4863E-03    -15.6732E-03     32.2937E-03
             301     8.86004E-03     57.5182E-03    -6.66848E+06    -59.1040E+06    -805.961E+03     596.519E+03    -16.0794E-03     31.8455E-03    -15.7661E-03     36.6383E-03    -16.0303E-03     31.5652E-03    -15.6747E-03     36.6369E-03
             302     9.74603E-03     57.5543E-03    -5.29518E+06    -53.9745E+06    -927.004E+03     131.530E+03    -16.1746E-03     31.9318E-03    -15.7572E-03     41.0196E-03    -16.1283E-03     31.6778E-03    -15.6759E-03     41.0091E-03
             303     10.6320E-03     57.5944E-03    -5.10925E+06    -52.8799E+06    -2.77114E+06    -719.311E+03    -16.3068E-03     32.0559E-03    -15.7491E-03     45.3539E-03    -16.2625E-03     31.8137E-03    -15.6788E-03     45.3281E-03
             304     11.5179E-03     57.6387E-03    -5.88789E+06    -43.2687E+06    -2.01591E+06    -437.804E+03    -16.3923E-03     32.1362E-03    -15.7439E-03     49.9960E-03    -16.3731E-03     31.9483E-03    -15.6827E-03     49.9686E-03
             305     12.4040E-03     57.6874E-03    -5.61299E+06    -33.6845E+06    -515.347E+03     355.157E+03    -16.5503E-03     32.2903E-03    -15.7400E-03     56.8621E-03    -16.5575E-03     32.1594E-03    -15.6856E-03     56.8378E-03
             306     13.2898E-03     57.7443E-03    -5.26163E+06    -35.1696E+06     -9.4929E+06     529.481E+03    -16.7403E-03     32.4434E-03    -15.7031E-03     59.0207E-03    -16.7470E-03     32.3341E-03    -15.6919E-03     58.9900E-03
             307     14.1756E-03     57.7971E-03    -5.57146E+06    -19.8665E+06    -14.7904E+06     724.576E+03    -16.9283E-03     32.5946E-03    -15.6663E-03     64.3553E-03    -16.9859E-03     32.6048E-03    -15.7033E-03     64.3200E-03
             308     15.0615E-03     57.8638E-03    -5.77635E+06     20.5921E+06    -15.4900E+06     1.02717E+06    -18.4292E-03     34.0384E-03    -15.6092E-03     104.724E-03    -18.7739E-03     34.4806E-03    -15.7081E-03     104.710E-03
             309     15.9469E-03     57.9928E-03    -4.85139E+06     85.7801E+06    -6.72875E+06     515.936E+03    -23.1928E-03     38.7429E-03    -15.5501E-03     188.882E-03    -25.5524E-03     41.4093E-03    -15.7011E-03     189.528E-03
             310     16.8341E-03     58.2169E-03    -3.26435E+06     152.478E+06     56.1208E+06    -15.4010E+03    -29.8498E-03     45.5997E-03    -15.7499E-03     284.318E-03    -37.9341E-03     54.0509E-03    -15.6856E-03     289.649E-03
             311     886.000E-06     58.3383E-03    -12.5849E+06    -67.2162E+06    -12.3485E+06     25.9455E+03    -15.7239E-03     31.4568E-03    -15.7329E-03     3.42634E-03    -15.6714E-03     31.1571E-03    -15.6789E-03     3.42618E-03
             312     1.77202E-03     58.3428E-03    -12.1637E+06    -65.9925E+06    -11.1319E+06     34.5774E+03    -15.7268E-03     31.4561E-03    -15.7293E-03     6.46384E-03    -15.6758E-03     31.1600E-03    -15.6716E-03     6.46333E-03
             313     2.65803E-03     58.3503E-03    -11.4817E+06    -64.7617E+06    -9.42577E+06     61.8224E+03    -15.7462E-03     31.4797E-03    -15.7334E-03     9.70409E-03    -15.6962E-03     31.1863E-03    -15.6700E-03     9.70342E-03
             314     3.54403E-03     58.3609E-03    -10.6152E+06    -63.0505E+06    -7.70711E+06     107.552E+03    -15.7717E-03     31.5110E-03    -15.7393E-03     13.0680E-03    -15.7225E-03     31.2226E-03    -15.6710E-03     13.0674E-03
             315     4.43001E-03     58.3746E-03    -9.60215E+06    -64.6616E+06    -5.80565E+06    -23.8778E+03    -15.8023E-03     31.5533E-03    -15.7510E-03     16.5527E-03    -15.7487E-03     31.2529E-03    -15.6723E-03     16.5497E-03
             316     5.31603E-03     58.3917E-03    -8.42144E+06    -64.3801E+06    -4.55926E+06    -139.074E+03    -15.8380E-03     31.5937E-03    -15.7557E-03     20.2288E-03    -15.7810E-03     31.2915E-03    -15.6730E-03     20.2237E-03
             317     6.20205E-03     58.4122E-03    -7.44417E+06    -61.1854E+06    -2.94561E+06     84.5181E+03    -15.8891E-03     31.6478E-03    -15.7586E-03     24.0831E-03    -15.8346E-03     31.3582E-03    -15.6738E-03     24.0800E-03
             318     7.08799E-03     58.4365E-03    -6.97374E+06    -62.3578E+06    -895.514E+03     543.504E+03    -15.9556E-03     31.7274E-03    -15.7719E-03     28.0960E-03    -15.9006E-03     31.4290E-03    -15.6758E-03     28.0976E-03
             319     7.97402E-03     58.4645E-03    -6.28411E+06    -63.0251E+06    -99.8515E+03     568.054E+03    -16.0171E-03     31.7949E-03    -15.7777E-03     32.2937E-03    -15.9599E-03     31.4919E-03    -15.6777E-03     32.2940E-03
             320     8.86000E-03     58.4966E-03    -5.21052E+06    -58.6544E+06     293.149E+03     1.30120E+03    -16.0924E-03     31.8655E-03    -15.7730E-03     36.6347E-03    -16.0383E-03     31.5837E-03    -15.6790E-03     36.6255E-03
             321     9.74600E-03     58.5327E-03    -4.58782E+06    -53.6638E+06     183.240E+03    -292.554E+03    -16.1921E-03     31.9583E-03    -15.7662E-03     41.0149E-03    -16.1443E-03     31.7032E-03    -15.6809E-03     40.9989E-03
             322     10.6319E-03     58.5729E-03    -4.44422E+06    -52.6811E+06    -324.619E+03     144.050E+03    -16.2934E-03     32.0582E-03    -15.7648E-03     45.3351E-03    -16.2496E-03     31.8126E-03    -15.6836E-03     45.3205E-03
             323     11.5179E-03     58.6170E-03    -4.44808E+06    -43.8344E+06     158.376E+03     316.410E+03    -16.3731E-03     32.1296E-03    -15.7565E-03     49.9866E-03    -16.3491E-03     31.9337E-03    -15.6857E-03     49.9688E-03
             324     12.4039E-03     58.6658E-03    -4.57050E+06    -34.0118E+06     140.289E+03     330.882E+03    -16.5427E-03     32.2864E-03    -15.7437E-03     56.8470E-03    -16.5452E-03     32.1515E-03    -15.6871E-03     56.8223E-03
             325     13.2899E-03     58.7228E-03    -4.71828E+06    -35.3461E+06    -8.54886E+06     540.763E+03    -16.6821E-03     32.3883E-03    -15.7062E-03     59.1547E-03    -16.6871E-03     32.2759E-03    -15.6909E-03     59.1243E-03
             326     14.1757E-03     58.7759E-03    -4.85531E+06    -20.1312E+06    -14.0228E+06     650.148E+03    -16.8521E-03     32.5158E-03    -15.6636E-03     64.7069E-03    -16.9069E-03     32.5225E-03    -15.6975E-03     64.6711E-03
             327     15.0611E-03     58.8427E-03    -4.89006E+06     19.9212E+06    -15.1803E+06     746.365E+03    -18.0595E-03     33.6511E-03    -15.5916E-03     104.734E-03    -18.3963E-03     34.0853E-03    -15.6893E-03     104.720E-03
             328     15.9492E-03     58.9695E-03    -5.21448E+06     85.9225E+06    -5.15983E+06     397.390E+03    -23.6833E-03     39.2218E-03    -15.5384E-03     190.300E-03    -26.0690E-03     41.9089E-03    -15.6813E-03     190.919E-03
             329     16.8329E-03     59.1992E-03    -3.94950E+06     153.322E+06     58.0907E+06     68.1659E+03    -30.3203E-03     46.0855E-03    -15.7652E-03     283.473E-03    -38.3390E-03     54.4660E-03    -15.6913E-03     288.807E-03
             330     886.034E-06     59.3166E-03    -12.6839E+06    -67.2482E+06    -12.4283E+06     13.5058E+03    -15.7207E-03     31.4597E-03    -15.7390E-03     3.41975E-03    -15.6685E-03     31.1600E-03    -15.6852E-03     3.41944E-03
             331     1.77199E-03     59.3211E-03    -12.2453E+06    -65.9985E+06    -11.1771E+06    -19.1467E+03    -15.7464E-03     31.4809E-03    -15.7345E-03     6.45551E-03    -15.6958E-03     31.1850E-03    -15.6769E-03     6.45431E-03
             332     2.65800E-03     59.3286E-03    -11.5804E+06    -64.7601E+06    -9.43108E+06    -46.3200E+03    -15.7529E-03     31.4952E-03    -15.7423E-03     9.71486E-03    -15.7034E-03     31.2020E-03    -15.6787E-03     9.71280E-03
             333     3.54400E-03     59.3392E-03    -10.6515E+06    -62.9756E+06    -7.65676E+06    -158.440E+03    -15.7674E-03     31.5140E-03    -15.7466E-03     13.0800E-03    -15.7185E-03     31.2260E-03    -15.6781E-03     13.0759E-03
             334     4.43001E-03     59.3529E-03    -9.63957E+06    -64.4215E+06    -5.44556E+06    -293.741E+03    -15.8035E-03     31.5614E-03    -15.7579E-03     16.5672E-03    -15.7509E-03     31.2617E-03    -15.6777E-03     16.5608E-03
             335     5.31600E-03     59.3700E-03    -8.85491E+06    -64.3391E+06    -4.09264E+06    -370.232E+03    -15.8480E-03     31.6122E-03    -15.7643E-03     20.2385E-03    -15.7938E-03     31.3102E-03    -15.6786E-03     20.2304E-03
             336     6.20197E-03     59.3906E-03    -8.13713E+06    -61.7532E+06    -3.43075E+06    -66.5609E+03    -15.8888E-03     31.6527E-03    -15.7639E-03     24.1000E-03    -15.8362E-03     31.3620E-03    -15.6797E-03     24.0949E-03
             337     7.08801E-03     59.4148E-03    -6.88545E+06    -62.7689E+06    -1.19030E+06     309.029E+03    -15.9560E-03     31.7321E-03    -15.7761E-03     28.1052E-03    -15.8996E-03     31.4319E-03    -15.6810E-03     28.1038E-03
             338     7.97395E-03     59.4429E-03    -5.53259E+06    -62.6474E+06     835.295E+03     173.885E+03    -16.0369E-03     31.8232E-03    -15.7863E-03     32.2812E-03    -15.9779E-03     31.5197E-03    -15.6832E-03     32.2764E-03
             339     8.85994E-03     59.4749E-03    -4.94205E+06    -58.2794E+06     887.924E+03    -15.9691E+03    -16.1093E-03     31.8911E-03    -15.7818E-03     36.6381E-03    -16.0552E-03     31.6100E-03    -15.6857E-03     36.6287E-03
             340     9.74587E-03     59.5111E-03    -4.90593E+06    -53.7802E+06    -233.658E+03     84.5396E+03    -16.1873E-03     31.9588E-03    -15.7715E-03     41.0399E-03    -16.1404E-03     31.7042E-03    -15.6876E-03     41.0288E-03
             341     10.6319E-03     59.5513E-03    -4.83036E+06    -53.2714E+06    -924.068E+03     316.563E+03    -16.2764E-03     32.0449E-03    -15.7685E-03     45.3404E-03    -16.2328E-03     31.7977E-03    -15.6889E-03     45.3280E-03
             342     11.5179E-03     59.5955E-03    -4.55312E+06    -43.7544E+06    -147.759E+03     576.382E+03    -16.3645E-03     32.1234E-03    -15.7589E-03     50.0030E-03    -16.3406E-03     31.9284E-03    -15.6896E-03     49.9887E-03
             343     12.4039E-03     59.6443E-03    -4.09679E+06    -34.0987E+06    -118.527E+03     483.701E+03    -16.5371E-03     32.2819E-03    -15.7448E-03     56.8822E-03    -16.5367E-03     32.1462E-03    -15.6900E-03     56.8595E-03
             344     13.2897E-03     59.7012E-03    -4.04143E+06    -35.7070E+06    -8.51839E+06     533.570E+03    -16.5437E-03     32.2474E-03    -15.7037E-03     59.1817E-03    -16.5447E-03     32.1320E-03    -15.6886E-03     59.1516E-03
             345     14.1759E-03     59.7543E-03    -4.70396E+06    -19.9175E+06    -13.8964E+06     523.585E+03    -16.4713E-03     32.1168E-03    -15.6455E-03     64.7124E-03    -16.5244E-03     32.1228E-03    -15.6792E-03     64.6766E-03
             346     15.0628E-03     59.8210E-03    -5.16248E+06     20.6453E+06    -14.9711E+06     84.2825E+03    -18.3354E-03     33.9080E-03    -15.5726E-03     104.046E-03    -18.6793E-03     34.3503E-03    -15.6699E-03     104.019E-03
             347     15.9482E-03     59.9467E-03    -5.82169E+06     86.2985E+06    -5.61661E+06     271.112E+03    -23.8013E-03     39.3296E-03    -15.5283E-03     190.891E-03    -26.2035E-03     42.0338E-03    -15.6731E-03     191.513E-03
             348     16.8336E-03     60.1827E-03    -4.50157E+06     153.055E+06     57.3212E+06     678.004E+03    -30.1585E-03     45.9099E-03    -15.7514E-03     283.480E-03    -38.1163E-03     54.2288E-03    -15.6802E-03     288.791E-03
             349     885.966E-06     60.2949E-03    -12.5719E+06    -67.1838E+06    -12.4109E+06    -18.9495E+03    -15.7304E-03     31.4780E-03    -15.7475E-03     3.46785E-03    -15.6778E-03     31.1785E-03    -15.6940E-03     3.46711E-03
             350     1.77200E-03     60.2994E-03    -12.2081E+06    -65.9822E+06    -11.1199E+06    -61.5570E+03    -15.7506E-03     31.4933E-03    -15.7427E-03     6.46714E-03    -15.6999E-03     31.1973E-03    -15.6850E-03     6.46539E-03
             351     2.65797E-03     60.3069E-03    -11.5083E+06    -64.6695E+06    -9.26994E+06    -84.0771E+03    -15.7579E-03     31.5075E-03    -15.7496E-03     9.73370E-03    -15.7084E-03     31.2144E-03    -15.6855E-03     9.73115E-03
             352     3.54397E-03     60.3175E-03    -10.8160E+06    -62.7282E+06    -7.47393E+06    -222.133E+03    -15.7674E-03     31.5206E-03    -15.7532E-03     13.0903E-03    -15.7200E-03     31.2338E-03    -15.6840E-03     13.0854E-03
             353     4.43000E-03     60.3313E-03    -10.1340E+06    -64.3369E+06    -5.51250E+06    -284.814E+03    -15.8083E-03     31.5719E-03    -15.7636E-03     16.5799E-03    -15.7582E-03     31.2734E-03    -15.6832E-03     16.5736E-03
             354     5.31595E-03     60.3484E-03    -9.38901E+06    -64.2759E+06    -4.34657E+06    -229.359E+03    -15.8523E-03     31.6217E-03    -15.7694E-03     20.2488E-03    -15.8006E-03     31.3211E-03    -15.6843E-03     20.2425E-03
             355     6.20197E-03     60.3689E-03    -8.66499E+06    -62.1216E+06    -3.92713E+06    -171.752E+03    -15.8917E-03     31.6602E-03    -15.7684E-03     24.1122E-03    -15.8406E-03     31.3691E-03    -15.6854E-03     24.1057E-03
             356     7.08791E-03     60.3932E-03    -7.91662E+06    -62.6844E+06    -2.69142E+06    -310.556E+03    -15.9620E-03     31.7377E-03    -15.7757E-03     28.1429E-03    -15.9087E-03     31.4416E-03    -15.6868E-03     28.1335E-03
             357     7.97391E-03     60.4213E-03    -6.89111E+06    -62.5589E+06    -540.528E+03    -362.746E+03    -16.0448E-03     31.8323E-03    -15.7875E-03     32.3179E-03    -15.9907E-03     31.5332E-03    -15.6895E-03     32.3062E-03
             358     8.85984E-03     60.4533E-03    -5.87812E+06    -58.6460E+06     226.350E+03     80.3949E+03    -16.1075E-03     31.8942E-03    -15.7867E-03     36.6585E-03    -16.0566E-03     31.6136E-03    -15.6920E-03     36.6504E-03
             359     9.74588E-03     60.4895E-03    -5.31530E+06    -53.8495E+06    -1.12231E+06     354.560E+03    -16.1806E-03     31.9539E-03    -15.7733E-03     41.0582E-03    -16.1343E-03     31.7008E-03    -15.6931E-03     41.0506E-03
             360     10.6318E-03     60.5297E-03    -5.07382E+06    -53.6103E+06    -1.37194E+06     461.704E+03    -16.2882E-03     32.0606E-03    -15.7724E-03     45.3303E-03    -16.2447E-03     31.8127E-03    -15.6941E-03     45.3198E-03
             361     11.5178E-03     60.5738E-03    -4.77858E+06    -43.8845E+06    -159.966E+03     517.159E+03    -16.3594E-03     32.1239E-03    -15.7645E-03     49.9906E-03    -16.3365E-03     31.9287E-03    -15.6948E-03     49.9754E-03
             362     12.4038E-03     60.6228E-03    -4.51346E+06    -33.8539E+06    -370.266E+03     427.865E+03    -16.4942E-03     32.2413E-03    -15.7471E-03     56.8684E-03    -16.4959E-03     32.1079E-03    -15.6933E-03     56.8450E-03
             363     13.2899E-03     60.6796E-03    -4.35044E+06    -35.8500E+06    -8.77582E+06     175.995E+03    -16.4617E-03     32.1641E-03    -15.7024E-03     58.8882E-03    -16.4634E-03     32.0486E-03    -15.6880E-03     58.8538E-03
             364     14.1762E-03     60.7322E-03    -4.34953E+06    -19.8663E+06    -13.9601E+06     246.992E+03    -16.5206E-03     32.1643E-03    -15.6437E-03     64.0410E-03    -16.5715E-03     32.1697E-03    -15.6784E-03     64.0015E-03
             365     15.0624E-03     60.7987E-03    -5.38568E+06     21.1634E+06    -15.1733E+06     267.129E+03    -18.6226E-03     34.2023E-03    -15.5797E-03     104.422E-03    -18.9740E-03     34.6537E-03    -15.6785E-03     104.396E-03
             366     15.9465E-03     60.9284E-03    -6.29154E+06     86.0276E+06    -6.94091E+06     598.402E+03    -23.5026E-03     39.0347E-03    -15.5321E-03     190.552E-03    -25.8894E-03     41.7247E-03    -15.6824E-03     191.204E-03
             367     16.8358E-03     61.1556E-03    -4.66392E+06     152.978E+06     56.1265E+06     908.564E+03    -30.0208E-03     45.7648E-03    -15.7440E-03     283.738E-03    -38.0323E-03     54.1400E-03    -15.6784E-03     289.048E-03
             368     886.015E-06     61.2732E-03    -12.6199E+06    -67.1466E+06    -12.3699E+06    -54.9087E+03    -15.7441E-03     31.4919E-03    -15.7478E-03     3.47879E-03    -15.6918E-03     31.1926E-03    -15.6940E-03     3.47758E-03
             369     1.77196E-03     61.2777E-03    -12.1886E+06    -65.9026E+06    -11.0978E+06    -64.1464E+03    -15.7507E-03     31.4990E-03    -15.7483E-03     6.47586E-03    -15.7001E-03     31.2034E-03    -15.6906E-03     6.47408E-03
             370     2.65798E-03     61.2852E-03    -11.5428E+06    -64.6020E+06    -9.23183E+06    -105.520E+03    -15.7591E-03     31.5127E-03    -15.7536E-03     9.73562E-03    -15.7099E-03     31.2200E-03    -15.6893E-03     9.73279E-03
             371     3.54398E-03     61.2958E-03    -10.7945E+06    -62.6558E+06    -7.41123E+06    -40.2558E+03    -15.7799E-03     31.5378E-03    -15.7579E-03     13.0978E-03    -15.7325E-03     31.2512E-03    -15.6885E-03     13.0952E-03
             372     4.42993E-03     61.3096E-03    -10.1311E+06    -64.2702E+06    -5.53547E+06    -32.4046E+03    -15.8147E-03     31.5837E-03    -15.7690E-03     16.5943E-03    -15.7647E-03     31.2856E-03    -15.6888E-03     16.5912E-03
             373     5.31596E-03     61.3267E-03    -9.39821E+06    -64.1535E+06    -4.54112E+06    -182.809E+03    -15.8542E-03     31.6278E-03    -15.7736E-03     20.2573E-03    -15.8024E-03     31.3281E-03    -15.6897E-03     20.2516E-03
             374     6.20191E-03     61.3473E-03    -8.49517E+06    -62.0517E+06    -3.86072E+06    -343.553E+03    -15.9053E-03     31.6793E-03    -15.7740E-03     24.1180E-03    -15.8535E-03     31.3882E-03    -15.6910E-03     24.1093E-03
             375     7.08793E-03     61.3715E-03    -7.66386E+06    -62.4561E+06    -2.58631E+06    -418.708E+03    -15.9712E-03     31.7529E-03    -15.7817E-03     28.1604E-03    -15.9171E-03     31.4574E-03    -15.6930E-03     28.1496E-03
             376     7.97386E-03     61.3997E-03    -7.10411E+06    -62.5013E+06    -968.840E+03    -534.151E+03    -16.0411E-03     31.8325E-03    -15.7914E-03     32.3363E-03    -15.9875E-03     31.5346E-03    -15.6953E-03     32.3223E-03
             377     8.85985E-03     61.4317E-03    -6.20522E+06    -59.2250E+06    -59.8457E+03    -432.170E+03    -16.1119E-03     31.9038E-03    -15.7919E-03     36.6544E-03    -16.0615E-03     31.6213E-03    -15.6973E-03     36.6396E-03
             378     9.74578E-03     61.4679E-03    -5.30522E+06    -54.4492E+06    -1.29839E+06     317.522E+03    -16.1966E-03     31.9756E-03    -15.7790E-03     41.0523E-03    -16.1492E-03     31.7198E-03    -15.6988E-03     41.0441E-03
             379     10.6318E-03     61.5081E-03    -5.23401E+06    -53.8488E+06    -1.63672E+06     885.563E+03    -16.2972E-03     32.0750E-03    -15.7779E-03     45.3310E-03    -16.2538E-03     31.8266E-03    -15.7004E-03     45.3258E-03
             380     11.5177E-03     61.5523E-03    -5.39388E+06    -43.5206E+06    -267.929E+03     634.742E+03    -16.3664E-03     32.1373E-03    -15.7709E-03     49.9666E-03    -16.3470E-03     31.9450E-03    -15.7013E-03     49.9530E-03
             381     12.4038E-03     61.6011E-03    -4.84051E+06    -33.5741E+06    -544.468E+03     69.9793E+03    -16.5041E-03     32.2574E-03    -15.7532E-03     56.7775E-03    -16.5077E-03     32.1261E-03    -15.7003E-03     56.7494E-03
             382     13.2897E-03     61.6580E-03    -4.48823E+06    -35.6573E+06    -8.98673E+06    -59.8673E+03    -16.5257E-03     32.2364E-03    -15.7107E-03     58.5297E-03    -16.5281E-03     32.1223E-03    -15.6974E-03     58.4920E-03
             383     14.1757E-03     61.7102E-03    -4.84082E+06    -20.2311E+06    -14.7898E+06     33.9705E+03    -16.7681E-03     32.4274E-03    -15.6593E-03     64.2353E-03    -16.8207E-03     32.4339E-03    -15.6969E-03     64.1920E-03
             384     15.0610E-03     61.7781E-03    -5.14019E+06     20.5302E+06    -16.0013E+06     334.651E+03    -18.4592E-03     34.0551E-03    -15.5959E-03     104.765E-03    -18.8064E-03     34.5033E-03    -15.6982E-03     104.742E-03
             385     15.9495E-03     61.9057E-03    -6.67642E+06     85.8083E+06    -6.65928E+06     1.09096E+06    -23.6865E-03     39.2411E-03    -15.5546E-03     189.884E-03    -26.0626E-03     41.9174E-03    -15.7026E-03     190.527E-03
             386     16.8318E-03     62.1359E-03    -5.45526E+06     153.228E+06     56.2754E+06     784.844E+03    -29.9647E-03     45.7347E-03    -15.7700E-03     283.756E-03    -38.0126E-03     54.1441E-03    -15.7029E-03     289.126E-03
             387     885.959E-06     62.2515E-03    -12.6224E+06    -67.0803E+06    -12.4013E+06    -45.9470E+03    -15.7400E-03     31.5018E-03    -15.7619E-03     3.46322E-03    -15.6878E-03     31.2029E-03    -15.7083E-03     3.46213E-03
             388     1.77198E-03     62.2560E-03    -12.2844E+06    -65.8605E+06    -11.1347E+06    -36.4018E+03    -15.7544E-03     31.5076E-03    -15.7532E-03     6.47982E-03    -15.7043E-03     31.2123E-03    -15.6955E-03     6.47839E-03
             389     2.65795E-03     62.2636E-03    -11.6858E+06    -64.5314E+06    -9.40126E+06    -54.3388E+03    -15.7671E-03     31.5252E-03    -15.7581E-03     9.73078E-03    -15.7184E-03     31.2333E-03    -15.6946E-03     9.72861E-03
             390     3.54393E-03     62.2742E-03    -10.9137E+06    -62.7768E+06    -7.73393E+06    -23.3366E+03    -15.7833E-03     31.5455E-03    -15.7622E-03     13.1020E-03    -15.7359E-03     31.2590E-03    -15.6940E-03     13.0996E-03
             391     4.42996E-03     62.2879E-03    -9.98703E+06    -64.2576E+06    -5.67736E+06     71.0428E+03    -15.8205E-03     31.5937E-03    -15.7733E-03     16.5966E-03    -15.7695E-03     31.2957E-03    -15.6940E-03     16.5948E-03
             392     5.31589E-03     62.3050E-03    -9.22374E+06    -63.8635E+06    -4.38733E+06    -52.7630E+03    -15.8654E-03     31.6447E-03    -15.7793E-03     20.2682E-03    -15.8134E-03     31.3460E-03    -15.6953E-03     20.2641E-03
             393     6.20190E-03     62.3256E-03    -8.67254E+06    -61.6917E+06    -3.71065E+06    -416.324E+03    -15.9140E-03     31.6948E-03    -15.7808E-03     24.1303E-03    -15.8638E-03     31.4055E-03    -15.6973E-03     24.1207E-03
             394     7.08780E-03     62.3500E-03    -7.92065E+06    -62.3630E+06    -2.71360E+06    -635.704E+03    -15.9719E-03     31.7595E-03    -15.7876E-03     28.1730E-03    -15.9191E-03     31.4651E-03    -15.6993E-03     28.1593E-03
             395     7.97382E-03     62.3781E-03    -7.16635E+06    -62.6310E+06    -1.39359E+06    -358.634E+03    -16.0419E-03     31.8372E-03    -15.7953E-03     32.3527E-03    -15.9878E-03     31.5394E-03    -15.7010E-03     32.3410E-03
             396     8.85975E-03     62.4101E-03    -7.11146E+06    -59.2078E+06    -535.073E+03    -265.123E+03    -16.1228E-03     31.9194E-03    -15.7967E-03     36.6636E-03    -16.0762E-03     31.6389E-03    -15.7032E-03     36.6509E-03
             397     9.74574E-03     62.4463E-03    -6.81274E+06    -55.4322E+06    -1.87224E+06    -108.045E+03    -16.2101E-03     31.9967E-03    -15.7865E-03     41.0565E-03    -16.1680E-03     31.7390E-03    -15.7056E-03     41.0428E-03
             398     10.6317E-03     62.4866E-03    -5.65675E+06    -54.4302E+06    -2.04619E+06     641.261E+03    -16.3097E-03     32.0946E-03    -15.7849E-03     45.3267E-03    -16.2670E-03     31.8445E-03    -15.7080E-03     45.3184E-03
             399     11.5177E-03     62.5306E-03    -4.31622E+06    -42.5441E+06     347.584E+03     378.087E+03    -16.3877E-03     32.1669E-03    -15.7792E-03     49.9408E-03    -16.3652E-03     31.9771E-03    -15.7095E-03     49.9238E-03
             400     12.4035E-03     62.5796E-03    -3.72492E+06    -33.4285E+06    -16.9307E+03    -94.0291E+03    -16.5532E-03     32.3172E-03    -15.7640E-03     56.7734E-03    -16.5522E-03     32.1843E-03    -15.7102E-03     56.7431E-03
             401     13.2895E-03     62.6363E-03    -4.11312E+06    -35.8748E+06    -9.31212E+06     197.289E+03    -16.6512E-03     32.3748E-03    -15.7236E-03     58.5232E-03    -16.6511E-03     32.2598E-03    -15.7122E-03     58.4884E-03
             402     14.1755E-03     62.6887E-03    -5.09292E+06    -20.0334E+06    -15.0690E+06     124.764E+03    -16.7557E-03     32.4310E-03    -15.6753E-03     64.3955E-03    -16.8097E-03     32.4395E-03    -15.7142E-03     64.3534E-03
             403     15.0621E-03     62.7567E-03    -6.21001E+06     19.9319E+06    -16.5782E+06     156.018E+03    -18.6207E-03     34.2367E-03    -15.6160E-03     104.803E-03    -18.9720E-03     34.6848E-03    -15.7188E-03     104.776E-03
             404     15.9455E-03     62.8839E-03    -6.01275E+06     85.4193E+06    -8.12668E+06     1.16293E+06    -23.4983E-03     39.0621E-03    -15.5638E-03     190.599E-03    -25.8856E-03     41.7548E-03    -15.7196E-03     191.253E-03
             405     16.8338E-03     63.1163E-03    -3.92734E+06     153.813E+06     55.3731E+06     1.19689E+06    -29.5822E-03     45.3401E-03    -15.7579E-03     284.839E-03    -37.6356E-03     53.7650E-03    -15.6984E-03     290.224E-03
             406     885.989E-06     63.2298E-03    -12.5624E+06    -67.0507E+06    -12.2623E+06    -10.2777E+03    -15.7381E-03     31.5105E-03    -15.7724E-03     3.44922E-03    -15.6858E-03     31.2114E-03    -15.7183E-03     3.44860E-03
             407     1.77196E-03     63.2344E-03    -12.1694E+06    -65.8441E+06    -11.0578E+06     1.33540E+03    -15.7625E-03     31.5205E-03    -15.7581E-03     6.49873E-03    -15.7119E-03     31.2251E-03    -15.7003E-03     6.49778E-03
             408     2.65793E-03     63.2419E-03    -11.5583E+06    -64.5347E+06    -9.37391E+06     18.3764E+03    -15.7757E-03     31.5396E-03    -15.7639E-03     9.73710E-03    -15.7265E-03     31.2475E-03    -15.7004E-03     9.73586E-03
             409     3.54393E-03     63.2525E-03    -10.8520E+06    -62.7362E+06    -7.75055E+06    -31.2168E+03    -15.7883E-03     31.5563E-03    -15.7680E-03     13.1133E-03    -15.7407E-03     31.2699E-03    -15.7000E-03     13.1109E-03
             410     4.42988E-03     63.2663E-03    -10.0094E+06    -64.3746E+06    -5.87626E+06    -55.4199E+03    -15.8265E-03     31.6048E-03    -15.7783E-03     16.6080E-03    -15.7752E-03     31.3065E-03    -15.6998E-03     16.6046E-03
             411     5.31590E-03     63.2834E-03    -9.15744E+06    -63.7814E+06    -4.56550E+06     87.1109E+03    -15.8717E-03     31.6557E-03    -15.7840E-03     20.2885E-03    -15.8192E-03     31.3575E-03    -15.7011E-03     20.2863E-03
             412     6.20181E-03     63.3041E-03    -8.63886E+06    -61.1446E+06    -3.73571E+06    -102.977E+03    -15.9145E-03     31.6997E-03    -15.7853E-03     24.1508E-03    -15.8649E-03     31.4132E-03    -15.7028E-03     24.1452E-03
             413     7.08785E-03     63.3283E-03    -8.45307E+06    -62.1023E+06    -2.84911E+06    -482.236E+03    -15.9749E-03     31.7674E-03    -15.7925E-03     28.1878E-03    -15.9249E-03     31.4752E-03    -15.7044E-03     28.1761E-03
             414     7.97377E-03     63.3565E-03    -8.16442E+06    -63.3393E+06    -1.89990E+06    -221.119E+03    -16.0492E-03     31.8499E-03    -15.8007E-03     32.3675E-03    -15.9984E-03     31.5507E-03    -15.7065E-03     32.3576E-03
             415     8.85975E-03     63.3885E-03    -7.53042E+06    -59.0923E+06    -895.088E+03     257.848E+03    -16.1250E-03     31.9259E-03    -15.8009E-03     36.6950E-03    -16.0802E-03     31.6471E-03    -15.7087E-03     36.6891E-03
             416     9.74564E-03     63.4247E-03     -7.2456E+06    -55.3274E+06    -2.29159E+06    -72.4122E+03    -16.2145E-03     32.0048E-03    -15.7904E-03     41.0890E-03    -16.1741E-03     31.7489E-03    -15.7111E-03     41.0757E-03
             417     10.6316E-03     63.4649E-03    -6.41919E+06    -54.5621E+06    -4.55031E+06    -839.958E+03    -16.3217E-03     32.1010E-03    -15.7793E-03     45.4334E-03    -16.2790E-03     31.8550E-03    -15.7136E-03     45.4060E-03
             418     11.5174E-03     63.5092E-03    -5.14229E+06    -42.5502E+06    -2.09211E+06    -547.599E+03    -16.3962E-03     32.1702E-03    -15.7741E-03     50.0609E-03    -16.3743E-03     31.9851E-03    -15.7154E-03     50.0319E-03
             419     12.4036E-03     63.5579E-03    -4.74541E+06    -33.7756E+06    -724.824E+03     240.027E+03    -16.5485E-03     32.3164E-03    -15.7679E-03     56.8975E-03    -16.5511E-03     32.1843E-03    -15.7156E-03     56.8716E-03
             420     13.2894E-03     63.6150E-03    -4.76266E+06    -35.7423E+06    -9.85941E+06     167.699E+03    -16.7207E-03     32.4493E-03    -15.7286E-03     58.8236E-03    -16.7236E-03     32.3370E-03    -15.7192E-03     58.7882E-03
             421     14.1751E-03     63.6672E-03    -5.09626E+06    -20.4632E+06    -15.0952E+06     397.644E+03    -16.8841E-03     32.5725E-03    -15.6883E-03     64.3799E-03    -16.9383E-03     32.5797E-03    -15.7268E-03     64.3405E-03
             422     15.0607E-03     63.7347E-03    -5.92261E+06     19.4213E+06    -16.6203E+06     971.086E+03    -18.4823E-03     34.1087E-03    -15.6263E-03     105.443E-03    -18.8313E-03     34.5538E-03    -15.7290E-03     105.428E-03
             423     15.9480E-03     63.8646E-03    -6.01391E+06     84.9363E+06    -8.55028E+06     487.533E+03    -22.9188E-03     38.4718E-03    -15.5530E-03     190.361E-03    -25.3003E-03     41.1583E-03    -15.7102E-03     191.030E-03
             424     16.8351E-03     64.0904E-03    -4.14560E+06     154.238E+06     55.5893E+06     399.881E+03    -29.6776E-03     45.4161E-03    -15.7385E-03     284.830E-03    -37.7793E-03     53.8894E-03    -15.6782E-03     290.170E-03
             425     885.973E-06     64.2082E-03    -12.6145E+06    -67.0633E+06    -12.4217E+06     3.32146E+03    -15.7590E-03     31.5203E-03    -15.7613E-03     3.46061E-03    -15.7068E-03     31.2215E-03    -15.7079E-03     3.46015E-03
             426     1.77195E-03     64.2127E-03    -12.2336E+06    -65.8274E+06    -11.1796E+06    -8.09408E+03    -15.7710E-03     31.5345E-03    -15.7635E-03     6.50064E-03    -15.7206E-03     31.2394E-03    -15.7062E-03     6.49957E-03
             427     2.65794E-03     64.2203E-03    -11.5450E+06    -64.5577E+06    -9.42060E+06    -19.9452E+03    -15.7784E-03     31.5482E-03    -15.7697E-03     9.73468E-03    -15.7290E-03     31.2559E-03    -15.7065E-03     9.73295E-03
             428     3.54389E-03     64.2309E-03    -10.7569E+06    -62.6885E+06    -7.68611E+06     2.20172E+03    -15.7958E-03     31.5695E-03    -15.7737E-03     13.1169E-03    -15.7478E-03     31.2831E-03    -15.7057E-03     13.1149E-03
             429     4.42991E-03     64.2447E-03    -9.96246E+06    -64.2539E+06    -5.81028E+06    -112.784E+03    -15.8336E-03     31.6179E-03    -15.7843E-03     16.6238E-03    -15.7824E-03     31.3201E-03    -15.7058E-03     16.6197E-03
             430     5.31582E-03     64.2618E-03    -9.00337E+06    -64.0217E+06    -4.77889E+06    -120.352E+03    -15.8726E-03     31.6612E-03    -15.7886E-03     20.3012E-03    -15.8187E-03     31.3619E-03    -15.7066E-03     20.2962E-03
             431     6.20186E-03     64.2824E-03    -8.05308E+06    -60.8760E+06    -3.40168E+06     42.5560E+03    -15.9183E-03     31.7088E-03    -15.7905E-03     24.1594E-03    -15.8666E-03     31.4223E-03    -15.7076E-03     24.1557E-03
             432     7.08775E-03     64.3067E-03    -7.61461E+06    -62.1618E+06    -1.37635E+06     273.812E+03    -15.9886E-03     31.7923E-03    -15.8037E-03     28.1755E-03    -15.9365E-03     31.4965E-03    -15.7094E-03     28.1736E-03
             433     7.97373E-03     64.3349E-03    -7.32409E+06    -63.2931E+06    -731.025E+03     67.3831E+03    -16.0551E-03     31.8656E-03    -15.8105E-03     32.3664E-03    -16.0018E-03     31.5637E-03    -15.7118E-03     32.3602E-03
             434     8.85965E-03     64.3669E-03    -6.23418E+06    -59.1851E+06    -1.03842E+06    -379.296E+03    -16.1172E-03     31.9199E-03    -15.8026E-03     36.7348E-03    -16.0655E-03     31.6389E-03    -15.7130E-03     36.7207E-03
             435     9.74569E-03     64.4032E-03    -4.68917E+06    -55.0215E+06    -1.54383E+06    -237.975E+03    -16.2087E-03     32.0009E-03    -15.7923E-03     41.1392E-03    -16.1570E-03     31.7418E-03    -15.7134E-03     41.1239E-03
             436     10.6316E-03     64.4434E-03    -5.12202E+06    -53.7769E+06    -3.49905E+06    -401.456E+03    -16.3139E-03     32.0962E-03    -15.7823E-03     45.4788E-03    -16.2673E-03     31.8507E-03    -15.7144E-03     45.4571E-03
             437     11.5177E-03     64.4876E-03    -6.51523E+06    -43.4632E+06    -2.62275E+06    -412.007E+03    -16.3914E-03     32.1663E-03    -15.7749E-03     50.1281E-03    -16.3742E-03     31.9793E-03    -15.7155E-03     50.1009E-03
             438     12.4035E-03     64.5365E-03    -6.11030E+06    -33.9107E+06    -1.07630E+06    -255.707E+03    -16.5342E-03     32.3023E-03    -15.7681E-03     56.9229E-03    -16.5429E-03     32.1720E-03    -15.7154E-03     56.8906E-03
             439     13.2896E-03     64.5933E-03    -5.47301E+06    -35.9376E+06    -9.94726E+06    -46.2346E+03    -16.6672E-03     32.3943E-03    -15.7271E-03     59.0839E-03    -16.6731E-03     32.2821E-03    -15.7168E-03     59.0459E-03
             440     14.1753E-03     64.6463E-03    -5.78466E+06    -20.9835E+06    -15.4657E+06     453.486E+03    -16.9428E-03     32.6284E-03    -15.6856E-03     64.7887E-03    -16.9996E-03     32.6350E-03    -15.7241E-03     64.7499E-03
             441     15.0612E-03     64.7133E-03    -5.93053E+06     19.1121E+06    -16.5521E+06     699.576E+03    -18.3327E-03     33.9553E-03    -15.6226E-03     105.132E-03    -18.6777E-03     34.3950E-03    -15.7244E-03     105.115E-03
             442     15.9476E-03     64.8414E-03    -5.83237E+06     84.7636E+06    -7.55469E+06     542.891E+03    -23.2289E-03     38.7892E-03    -15.5603E-03     189.480E-03    -25.6023E-03     41.4647E-03    -15.7126E-03     190.127E-03
             443     16.8329E-03     65.0700E-03    -4.64469E+06     154.746E+06     56.3499E+06     80.1207E+03    -29.8681E-03     45.6294E-03    -15.7613E-03     284.391E-03    -37.9785E-03     54.1092E-03    -15.6972E-03     289.761E-03
             444     885.981E-06     65.1865E-03    -12.9336E+06    -67.0152E+06    -12.6998E+06    -44.0238E+03    -15.7891E-03     31.5400E-03    -15.7509E-03     3.47803E-03    -15.7381E-03     31.2423E-03    -15.6985E-03     3.47696E-03
             445     1.77193E-03     65.1911E-03    -12.4977E+06    -65.8049E+06    -11.4567E+06    -50.9352E+03    -15.7717E-03     31.5433E-03    -15.7716E-03     6.49276E-03    -15.7222E-03     31.2490E-03    -15.7153E-03     6.49114E-03
             446     2.65788E-03     65.1986E-03    -11.8122E+06    -64.4827E+06    -9.65416E+06    -116.807E+03    -15.7799E-03     31.5553E-03    -15.7754E-03     9.74901E-03    -15.7316E-03     31.2642E-03    -15.7130E-03     9.74603E-03
             447     3.54390E-03     65.2092E-03    -10.9153E+06    -62.7279E+06    -7.88186E+06    -125.513E+03    -15.8030E-03     31.5822E-03    -15.7791E-03     13.1281E-03    -15.7555E-03     31.2961E-03    -15.7118E-03     13.1245E-03
             448     4.42982E-03     65.2230E-03    -10.0219E+06    -64.0893E+06    -5.79181E+06    -99.7895E+03    -15.8391E-03     31.6296E-03    -15.7905E-03     16.6288E-03    -15.7884E-03     31.3326E-03    -15.7120E-03     16.6249E-03
             449     5.31584E-03     65.2402E-03    -9.27013E+06    -63.9238E+06    -4.47509E+06    -277.945E+03    -15.8777E-03     31.6744E-03    -15.7967E-03     20.2992E-03    -15.8258E-03     31.3756E-03    -15.7129E-03     20.2922E-03
             450     6.20175E-03     65.2608E-03    -8.53088E+06    -61.3064E+06    -3.72234E+06    -97.3271E+03    -15.9213E-03     31.7177E-03    -15.7964E-03     24.1711E-03    -15.8709E-03     31.4302E-03    -15.7138E-03     24.1656E-03
             451     7.08776E-03     65.2852E-03    -7.48608E+06    -62.5022E+06    -1.82749E+06     335.257E+03    -15.9855E-03     31.7927E-03    -15.8072E-03     28.1925E-03    -15.9316E-03     31.4956E-03    -15.7148E-03     28.1914E-03
             452     7.97367E-03     65.3133E-03    -6.33531E+06    -62.4968E+06    -267.125E+03     46.1567E+03    -16.0506E-03     31.8649E-03    -15.8143E-03     32.3825E-03    -15.9942E-03     31.5650E-03    -15.7159E-03     32.3760E-03
             453     8.85969E-03     65.3454E-03    -5.77042E+06    -58.5453E+06    -381.117E+03    -777.123E+03    -16.1157E-03     31.9232E-03    -15.8075E-03     36.7458E-03    -16.0636E-03     31.6438E-03    -15.7161E-03     36.7265E-03
             454     9.74562E-03     65.3815E-03    -5.62426E+06    -55.7048E+06    -1.29700E+06    -779.258E+03    -16.2034E-03     32.0019E-03    -15.7986E-03     41.1251E-03    -16.1557E-03     31.7404E-03    -15.7161E-03     41.1028E-03
             455     10.6317E-03     65.4219E-03    -4.81585E+06    -54.0335E+06    -1.25735E+06     301.163E+03    -16.3058E-03     32.1015E-03    -15.7957E-03     45.4017E-03    -16.2605E-03     31.8510E-03    -15.7167E-03     45.3890E-03
             456     11.5175E-03     65.4660E-03    -3.82615E+06    -42.9474E+06     240.207E+03     94.5745E+03    -16.3840E-03     32.1699E-03    -15.7859E-03     50.0666E-03    -16.3583E-03     31.9775E-03    -15.7169E-03     50.0459E-03
             457     12.4036E-03     65.5150E-03    -3.72022E+06    -34.0702E+06     128.377E+03    -312.342E+03    -16.5436E-03     32.3152E-03    -15.7716E-03     56.8622E-03    -16.5418E-03     32.1789E-03    -15.7162E-03     56.8292E-03
             458     13.2894E-03     65.5717E-03    -4.38728E+06    -36.6129E+06    -9.31388E+06     218.512E+03    -16.6167E-03     32.3454E-03    -15.7287E-03     59.0066E-03    -16.6172E-03     32.2273E-03    -15.7158E-03     58.9721E-03
             459     14.1757E-03     65.6248E-03    -4.93269E+06    -20.9966E+06    -14.9097E+06     296.359E+03    -16.7728E-03     32.4521E-03    -15.6793E-03     64.7712E-03    -16.8252E-03     32.4556E-03    -15.7162E-03     64.7312E-03
             460     15.0613E-03     65.6922E-03    -6.05357E+06     18.7623E+06    -16.5035E+06     450.178E+03    -18.4526E-03     34.0675E-03    -15.6149E-03     104.760E-03    -18.7971E-03     34.5049E-03    -15.7158E-03     104.739E-03
             461     15.9471E-03     65.8193E-03    -6.59930E+06     84.4135E+06    -7.73940E+06     511.180E+03    -23.6911E-03     39.2564E-03    -15.5653E-03     190.740E-03    -26.0922E-03     41.9562E-03    -15.7168E-03     191.375E-03
             462     16.8331E-03     66.0505E-03    -3.96007E+06     155.372E+06     57.1368E+06     274.339E+03    -29.7901E-03     45.5634E-03    -15.7733E-03     284.693E-03    -37.8583E-03     54.0035E-03    -15.7072E-03     290.080E-03
             463     885.929E-06     66.1649E-03    -12.9996E+06    -66.9370E+06    -12.7107E+06    -32.9020E+03    -15.8084E-03     31.5552E-03    -15.7467E-03     3.49226E-03    -15.7579E-03     31.2579E-03    -15.6944E-03     3.49132E-03
             464     1.77192E-03     66.1694E-03    -12.5745E+06    -65.7212E+06    -11.4901E+06    -102.498E+03    -15.7754E-03     31.5539E-03    -15.7785E-03     6.49581E-03    -15.7264E-03     31.2603E-03    -15.7224E-03     6.49352E-03
             465     2.65792E-03     66.1770E-03    -11.9290E+06    -64.3652E+06    -9.74768E+06    -137.902E+03    -15.7877E-03     31.5692E-03    -15.7816E-03     9.75469E-03    -15.7400E-03     31.2790E-03    -15.7197E-03     9.75143E-03
             466     3.54384E-03     66.1876E-03    -11.2142E+06    -62.6436E+06    -8.00004E+06    -233.985E+03    -15.8085E-03     31.5943E-03    -15.7858E-03     13.1357E-03    -15.7625E-03     31.3092E-03    -15.7187E-03     13.1307E-03
             467     4.42984E-03     66.2014E-03    -10.3361E+06    -64.1937E+06    -5.97865E+06    -157.937E+03    -15.8429E-03     31.6398E-03    -15.7969E-03     16.6347E-03    -15.7934E-03     31.3430E-03    -15.7187E-03     16.6300E-03
             468     5.31575E-03     66.2186E-03    -9.64889E+06    -63.7703E+06    -4.73426E+06     12.4099E+03    -15.8803E-03     31.6824E-03    -15.8021E-03     20.3133E-03    -15.8301E-03     31.3852E-03    -15.7193E-03     20.3101E-03
             469     6.20175E-03     66.2393E-03    -9.19584E+06    -61.5097E+06    -4.56628E+06    -81.2957E+03    -15.9169E-03     31.7160E-03    -15.7990E-03     24.1919E-03    -15.8684E-03     31.4297E-03    -15.7194E-03     24.1866E-03
             470     7.08768E-03     66.2635E-03    -8.21284E+06    -62.3664E+06    -3.34997E+06    -463.290E+03    -15.9731E-03     31.7775E-03    -15.8044E-03     28.2282E-03    -15.9208E-03     31.4844E-03    -15.7189E-03     28.2168E-03
             471     7.97369E-03     66.2917E-03    -6.94911E+06    -62.3763E+06    -832.241E+03    -406.768E+03    -16.0506E-03     31.8658E-03    -15.8153E-03     32.3974E-03    -15.9966E-03     31.5682E-03    -15.7189E-03     32.3851E-03
             472     8.85961E-03     66.3238E-03    -6.63766E+06    -58.1828E+06     212.158E+03     40.3414E+03    -16.1266E-03     31.9414E-03    -15.8148E-03     36.7283E-03    -16.0802E-03     31.6643E-03    -15.7198E-03     36.7196E-03
             473     9.74559E-03     66.3601E-03    -6.87650E+06    -55.4476E+06    -1.79715E+06    -403.259E+03    -16.2006E-03     32.0024E-03    -15.8018E-03     41.1231E-03    -16.1589E-03     31.7446E-03    -15.7204E-03     41.1056E-03
             474     10.6315E-03     66.4002E-03    -6.06645E+06    -54.5348E+06    -4.30040E+06    -1.20450E+06    -16.2936E-03     32.0802E-03    -15.7866E-03     45.4836E-03    -16.2495E-03     31.8334E-03    -15.7202E-03     45.4516E-03
             475     11.5175E-03     66.4446E-03    -4.58779E+06    -42.7856E+06    -2.23349E+06    -738.931E+03    -16.3749E-03     32.1516E-03    -15.7768E-03     50.1418E-03    -16.3496E-03     31.9647E-03    -15.7193E-03     50.1105E-03
             476     12.4034E-03     66.4934E-03    -3.98692E+06    -34.8070E+06    -830.796E+03     200.595E+03    -16.5453E-03     32.3153E-03    -15.7701E-03     56.9046E-03    -16.5424E-03     32.1771E-03    -15.7180E-03     56.8782E-03
             477     13.2895E-03     66.5504E-03    -4.04960E+06    -36.6109E+06    -9.45567E+06     380.468E+03    -16.6524E-03     32.3826E-03    -15.7302E-03     59.0103E-03    -16.6511E-03     32.2643E-03    -15.7185E-03     58.9778E-03
             478     14.1752E-03     66.6030E-03    -4.80730E+06    -21.3368E+06    -14.8511E+06     369.976E+03    -16.6526E-03     32.3326E-03    -15.6800E-03     64.6407E-03    -16.7035E-03     32.3337E-03    -15.7163E-03     64.6020E-03
             479     15.0617E-03     66.6707E-03    -5.26773E+06     18.5240E+06    -15.9340E+06     427.876E+03    -18.3854E-03     33.9966E-03    -15.6112E-03     104.865E-03    -18.7287E-03     34.4332E-03    -15.7101E-03     104.843E-03
             480     15.9479E-03     66.7981E-03    -5.28027E+06     85.5119E+06    -6.67874E+06     508.440E+03    -23.4333E-03     38.9853E-03    -15.5521E-03     190.959E-03    -25.8316E-03     41.6879E-03    -15.7018E-03     191.608E-03
             481     16.8339E-03     67.0297E-03    -4.21670E+06     155.396E+06     56.8421E+06     447.646E+03    -29.8173E-03     45.5688E-03    -15.7515E-03     284.560E-03    -37.8692E-03     53.9925E-03    -15.6865E-03     289.908E-03
             482     885.984E-06     67.1433E-03    -13.1190E+06    -66.8527E+06    -12.8820E+06    -47.9159E+03    -15.7922E-03     31.5587E-03    -15.7665E-03     3.46500E-03    -15.7422E-03     31.2623E-03    -15.7149E-03     3.46388E-03
             483     1.77192E-03     67.1479E-03    -12.7078E+06    -65.5974E+06    -11.5945E+06    -102.017E+03    -15.7903E-03     31.5733E-03    -15.7830E-03     6.49783E-03    -15.7419E-03     31.2806E-03    -15.7274E-03     6.49555E-03
             484     2.65784E-03     67.1554E-03    -12.0631E+06    -64.2918E+06    -9.82805E+06    -141.432E+03    -15.7981E-03     31.5875E-03    -15.7894E-03     9.75425E-03    -15.7511E-03     31.2979E-03    -15.7278E-03     9.75095E-03
             485     3.54384E-03     67.1660E-03    -11.3604E+06    -62.5390E+06    -8.10356E+06    -110.169E+03    -15.8092E-03     31.6024E-03    -15.7932E-03     13.1410E-03    -15.7639E-03     31.3182E-03    -15.7265E-03     13.1376E-03
             486     4.42977E-03     67.1798E-03    -10.6843E+06    -64.2528E+06    -6.43879E+06    -155.106E+03    -15.8418E-03     31.6434E-03    -15.8016E-03     16.6412E-03    -15.7932E-03     31.3475E-03    -15.7251E-03     16.6365E-03
             487     5.31577E-03     67.1970E-03    -9.67484E+06    -63.9374E+06    -5.51791E+06    -82.3884E+03    -15.8761E-03     31.6794E-03    -15.8033E-03     20.3291E-03    -15.8246E-03     31.3826E-03    -15.7241E-03     20.3247E-03
             488     6.20171E-03     67.2176E-03    -8.60345E+06    -61.1845E+06    -4.40787E+06    -128.899E+03    -15.9158E-03     31.7178E-03    -15.8020E-03     24.2006E-03    -15.8650E-03     31.4320E-03    -15.7228E-03     24.1947E-03
             489     7.08771E-03     67.2420E-03    -8.30148E+06    -61.8778E+06    -2.97443E+06    -428.389E+03    -15.9788E-03     31.7878E-03    -15.8090E-03     28.2336E-03    -15.9282E-03     31.4967E-03    -15.7221E-03     28.2226E-03
             490     7.97364E-03     67.2701E-03    -8.20747E+06    -62.7244E+06    -1.56437E+06    -487.511E+03    -16.0539E-03     31.8716E-03    -15.8176E-03     32.4120E-03    -16.0047E-03     31.5751E-03    -15.7226E-03     32.3986E-03
             491     8.85959E-03     67.3023E-03    -6.86243E+06    -58.5668E+06    -539.558E+03    -224.279E+03    -16.1190E-03     31.9343E-03    -15.8153E-03     36.7545E-03    -16.0720E-03     31.6566E-03    -15.7231E-03     36.7424E-03
             492     9.74553E-03     67.3384E-03    -5.19296E+06    -54.2684E+06    -1.33322E+06    -498.266E+03    -16.1919E-03     31.9938E-03    -15.8019E-03     41.1477E-03    -16.1441E-03     31.7388E-03    -15.7224E-03     41.1290E-03
             493     10.6316E-03     67.3787E-03    -5.12845E+06    -53.7100E+06    -3.53205E+06    -1.37457E+06    -16.2970E-03     32.0860E-03    -15.7891E-03     45.5025E-03    -16.2504E-03     31.8409E-03    -15.7214E-03     45.4682E-03
             494     11.5175E-03     67.4229E-03    -5.85426E+06    -44.2920E+06    -2.69138E+06    -1.01853E+06    -16.3714E-03     32.1510E-03    -15.7796E-03     50.1362E-03    -16.3496E-03     31.9590E-03    -15.7204E-03     50.1012E-03
             495     12.4036E-03     67.4719E-03    -5.52898E+06    -35.2251E+06    -1.23068E+06    -174.509E+03    -16.5393E-03     32.3113E-03    -15.7719E-03     56.9397E-03    -16.5430E-03     32.1738E-03    -15.7190E-03     56.9084E-03
             496     13.2894E-03     67.5287E-03    -5.03394E+06    -36.7625E+06    -9.76341E+06     73.6449E+03    -16.6261E-03     32.3566E-03    -15.7305E-03     59.0752E-03    -16.6291E-03     32.2395E-03    -15.7187E-03     59.0388E-03
             497     14.1755E-03     67.5818E-03    -5.17053E+06    -21.4665E+06    -14.9165E+06     365.034E+03    -16.6913E-03     32.3724E-03    -15.6811E-03     64.4763E-03    -16.7439E-03     32.3738E-03    -15.7171E-03     64.4374E-03
             498     15.0616E-03     67.6481E-03    -5.44196E+06     18.8269E+06    -15.9476E+06     166.733E+03    -18.3053E-03     33.9157E-03    -15.6104E-03     105.041E-03    -18.6504E-03     34.3546E-03    -15.7095E-03     105.017E-03
             499     15.9471E-03     67.7780E-03    -5.74116E+06     84.8113E+06    -6.84168E+06     394.210E+03    -23.2750E-03     38.8219E-03    -15.5469E-03     190.621E-03    -25.6645E-03     41.5119E-03    -15.6957E-03     191.273E-03
             500     16.8347E-03     68.0056E-03    -4.43298E+06     155.728E+06     57.2433E+06     661.049E+03    -29.9398E-03     45.6883E-03    -15.7486E-03     284.334E-03    -38.0145E-03     54.1342E-03    -15.6817E-03     289.678E-03
             501     885.932E-06     68.1217E-03    -13.4904E+06    -66.7101E+06    -13.2593E+06    -98.4232E+03    -15.7806E-03     31.5726E-03    -15.7920E-03     3.47829E-03    -15.7320E-03     31.2780E-03    -15.7420E-03     3.47652E-03
             502     1.77189E-03     68.1263E-03    -13.0796E+06    -65.5146E+06    -12.0063E+06    -118.264E+03    -15.7947E-03     31.5840E-03    -15.7893E-03     6.50547E-03    -15.7477E-03     31.2929E-03    -15.7354E-03     6.50298E-03
             503     2.65787E-03     68.1338E-03    -12.4178E+06    -64.1987E+06    -10.1958E+06    -138.493E+03    -15.8016E-03     31.5966E-03    -15.7950E-03     9.76157E-03    -15.7560E-03     31.3086E-03    -15.7349E-03     9.75830E-03
             504     3.54379E-03     68.1444E-03    -11.5360E+06    -62.5427E+06    -8.53533E+06    -168.780E+03    -15.8111E-03     31.6085E-03    -15.7974E-03     13.1542E-03    -15.7660E-03     31.3252E-03    -15.7327E-03     13.1500E-03
             505     4.42979E-03     68.1583E-03    -10.4755E+06    -64.0520E+06    -6.50914E+06    -240.517E+03    -15.8413E-03     31.6470E-03    -15.8057E-03     16.6529E-03    -15.7920E-03     31.3519E-03    -15.7301E-03     16.6471E-03
             506     5.31571E-03     68.1754E-03    -9.50039E+06    -63.8558E+06    -5.26333E+06    -492.733E+03    -15.8788E-03     31.6872E-03    -15.8084E-03     20.3318E-03    -15.8270E-03     31.3902E-03    -15.7283E-03     20.3220E-03
             507     6.20172E-03     68.1961E-03    -8.54644E+06    -61.1212E+06    -4.05737E+06    -493.948E+03    -15.9236E-03     31.7315E-03    -15.8079E-03     24.1995E-03    -15.8731E-03     31.4454E-03    -15.7272E-03     24.1889E-03
             508     7.08765E-03     68.2204E-03    -7.43267E+06    -61.8869E+06    -1.79027E+06    -168.201E+03    -15.9897E-03     31.8082E-03    -15.8185E-03     28.2194E-03    -15.9365E-03     31.5141E-03    -15.7269E-03     28.2118E-03
             509     7.97360E-03     68.2486E-03    -6.33342E+06    -62.2775E+06    -411.930E+03    -433.874E+03    -16.0513E-03     31.8756E-03    -15.8243E-03     32.4121E-03    -15.9950E-03     31.5770E-03    -15.7269E-03     32.3994E-03
             510     8.85957E-03     68.2806E-03    -5.61916E+06    -58.5441E+06    -174.051E+03    -1.01823E+06    -16.1114E-03     31.9294E-03    -15.8180E-03     36.7556E-03    -16.0588E-03     31.6496E-03    -15.7259E-03     36.7332E-03
             511     9.74561E-03     68.3169E-03    -5.05977E+06    -53.8496E+06    -540.326E+03    -1.05784E+06    -16.2077E-03     32.0154E-03    -15.8077E-03     41.1196E-03    -16.1611E-03     31.7612E-03    -15.7250E-03     41.0937E-03
             512     10.6314E-03     68.3571E-03    -4.67186E+06    -53.4703E+06    -1.16530E+06    -642.729E+03    -16.3095E-03     32.1132E-03    -15.8037E-03     45.4189E-03    -16.2645E-03     31.8652E-03    -15.7252E-03     45.3940E-03
             513     11.5175E-03     68.4015E-03    -4.61591E+06    -44.9490E+06    -736.351E+03    -394.663E+03    -16.3759E-03     32.1687E-03    -15.7928E-03     50.0669E-03    -16.3499E-03     31.9688E-03    -15.7246E-03     50.0399E-03
             514     12.4034E-03     68.4502E-03    -4.66230E+06    -35.5026E+06    -796.294E+03    -349.470E+03    -16.5278E-03     32.3045E-03    -15.7767E-03     56.9168E-03    -16.5274E-03     32.1638E-03    -15.7225E-03     56.8833E-03
             515     13.2895E-03     68.5075E-03    -4.85877E+06    -37.1278E+06    -9.47092E+06    -25.0664E+03    -16.5861E-03     32.3198E-03    -15.7337E-03     58.9374E-03    -16.5879E-03     32.2000E-03    -15.7202E-03     58.8998E-03
             516     14.1755E-03     68.5597E-03    -5.14767E+06    -21.5309E+06    -14.8103E+06     147.193E+03    -16.7566E-03     32.4406E-03    -15.6840E-03     64.4463E-03    -16.8095E-03     32.4417E-03    -15.7193E-03     64.4043E-03
             517     15.0611E-03     68.6275E-03    -5.82676E+06     19.0729E+06    -15.9987E+06     257.762E+03    -18.3592E-03     33.9760E-03    -15.6168E-03     104.670E-03    -18.7050E-03     34.4152E-03    -15.7160E-03     104.647E-03
             518     15.9487E-03     68.7546E-03    -6.86946E+06     84.3537E+06    -7.85732E+06     149.147E+03    -23.4013E-03     38.9571E-03    -15.5559E-03     190.481E-03    -25.7946E-03     41.6483E-03    -15.7075E-03     191.121E-03
             519     16.8326E-03     68.9868E-03    -5.16389E+06     155.361E+06     56.5528E+06     178.078E+03    -29.8987E-03     45.6581E-03    -15.7594E-03     284.610E-03    -37.9801E-03     54.1088E-03    -15.6945E-03     289.975E-03
             520     885.953E-06     69.1001E-03    -13.6276E+06    -66.5177E+06    -13.3971E+06    -118.860E+03    -15.8103E-03     31.5883E-03    -15.7780E-03     3.49764E-03    -15.7625E-03     31.2951E-03    -15.7287E-03     3.49559E-03
             521     1.77188E-03     69.1047E-03    -13.2116E+06    -65.3714E+06    -12.1768E+06    -190.410E+03    -15.7935E-03     31.5887E-03    -15.7952E-03     6.51863E-03    -15.7472E-03     31.2987E-03    -15.7421E-03     6.51521E-03
             522     2.65782E-03     69.1122E-03    -12.4760E+06    -64.1146E+06    -10.4751E+06    -234.972E+03    -15.8038E-03     31.6018E-03    -15.7981E-03     9.76759E-03    -15.7581E-03     31.3147E-03    -15.7394E-03     9.76308E-03
             523     3.54380E-03     69.1229E-03    -11.6209E+06    -62.3073E+06    -8.67066E+06    -385.695E+03    -15.8145E-03     31.6151E-03    -15.8006E-03     13.1532E-03    -15.7700E-03     31.3333E-03    -15.7368E-03     13.1462E-03
             524     4.42974E-03     69.1366E-03    -10.6742E+06    -63.8987E+06    -6.55162E+06    -524.757E+03    -15.8451E-03     31.6548E-03    -15.8097E-03     16.6606E-03    -15.7969E-03     31.3608E-03    -15.7343E-03     16.6511E-03
             525     5.31572E-03     69.1538E-03    -9.83763E+06    -63.5825E+06    -5.03063E+06    -503.922E+03    -15.8873E-03     31.7016E-03    -15.8144E-03     20.3362E-03    -15.8378E-03     31.4061E-03    -15.7331E-03     20.3263E-03
             526     6.20164E-03     69.1744E-03    -9.35980E+06    -61.2155E+06    -4.52033E+06    -515.357E+03    -15.9278E-03     31.7401E-03    -15.8123E-03     24.2138E-03    -15.8806E-03     31.4554E-03    -15.7325E-03     24.2028E-03
             527     7.08760E-03     69.1989E-03    -8.61860E+06    -61.7683E+06    -3.46281E+06    -751.669E+03    -15.9799E-03     31.7964E-03    -15.8165E-03     28.2531E-03    -15.9304E-03     31.5070E-03    -15.7317E-03     28.2379E-03
             528     7.97358E-03     69.2269E-03    -7.39211E+06    -61.6858E+06    -1.36147E+06    -1.03379E+06    -16.0486E-03     31.8729E-03    -15.8242E-03     32.4249E-03    -15.9971E-03     31.5801E-03    -15.7309E-03     32.4045E-03
             529     8.85956E-03     69.2592E-03    -6.28331E+06    -58.2028E+06    -94.3401E+03    -1.12687E+06    -16.1297E-03     31.9534E-03    -15.8237E-03     36.7357E-03    -16.0811E-03     31.6761E-03    -15.7306E-03     36.7119E-03
             530     9.74544E-03     69.2953E-03    -5.71842E+06    -53.9565E+06    -1.11093E+06    -1.11102E+06    -16.2180E-03     32.0299E-03    -15.8119E-03     41.1283E-03    -16.1737E-03     31.7770E-03    -15.7309E-03     41.1017E-03
             531     10.6314E-03     69.3357E-03    -5.34463E+06    -54.0277E+06    -1.99190E+06    -741.576E+03    -16.3117E-03     32.1192E-03    -15.8075E-03     45.4147E-03    -16.2681E-03     31.8706E-03    -15.7314E-03     45.3885E-03
             532     11.5174E-03     69.3797E-03    -4.78688E+06    -44.9808E+06    -1.21972E+06    -389.502E+03    -16.3840E-03     32.1808E-03    -15.7968E-03     50.0781E-03    -16.3581E-03     31.9817E-03    -15.7307E-03     50.0511E-03
             533     12.4034E-03     69.4290E-03    -4.36284E+06    -35.6659E+06    -1.21945E+06    -187.151E+03    -16.5335E-03     32.3140E-03    -15.7805E-03     56.8988E-03    -16.5307E-03     32.1727E-03    -15.7286E-03     56.8674E-03
             534     13.2894E-03     69.4855E-03    -4.33327E+06    -37.4530E+06    -9.46846E+06        -957.398    -16.6135E-03     32.3537E-03    -15.7402E-03     58.8653E-03    -16.6122E-03     32.2315E-03    -15.7269E-03     58.8280E-03
             535     14.1752E-03     69.5387E-03    -4.94327E+06    -21.7169E+06    -14.9220E+06     194.740E+03    -16.7408E-03     32.4308E-03    -15.6900E-03     64.4630E-03    -16.7920E-03     32.4306E-03    -15.7259E-03     64.4217E-03
             536     15.0616E-03     69.6054E-03    -5.59412E+06     18.5570E+06    -16.0456E+06     591.138E+03    -18.5117E-03     34.1385E-03    -15.6269E-03     104.704E-03    -18.8562E-03     34.5756E-03    -15.7259E-03     104.684E-03
             537     15.9458E-03     69.7338E-03    -5.81356E+06     84.9207E+06    -7.26976E+06     740.044E+03    -23.4368E-03     39.0071E-03    -15.5703E-03     190.706E-03    -25.8310E-03     41.7032E-03    -15.7213E-03     191.358E-03
             538     16.8347E-03     69.9641E-03    -4.51411E+06     155.857E+06     56.6270E+06     100.995E+03    -29.7190E-03     45.4850E-03    -15.7660E-03     284.893E-03    -37.8030E-03     53.9421E-03    -15.7023E-03     290.267E-03
             539     885.914E-06     70.0785E-03    -13.8779E+06    -66.2808E+06    -13.6967E+06    -189.086E+03    -15.8035E-03     31.5971E-03    -15.7936E-03     3.45271E-03    -15.7569E-03     31.3058E-03    -15.7458E-03     3.44977E-03
             540     1.77189E-03     70.0831E-03    -13.4326E+06    -65.1010E+06    -12.4373E+06    -275.947E+03    -15.7966E-03     31.5959E-03    -15.7993E-03     6.51323E-03    -15.7514E-03     31.3080E-03    -15.7476E-03     6.50870E-03
             541     2.65784E-03     70.0906E-03    -12.6728E+06    -63.8208E+06    -10.6607E+06    -510.196E+03    -15.8029E-03     31.6044E-03    -15.8015E-03     9.76791E-03    -15.7584E-03     31.3192E-03    -15.7439E-03     9.75985E-03
             542     3.54377E-03     70.1012E-03    -11.7158E+06    -62.1099E+06    -8.73845E+06    -562.558E+03    -15.8174E-03     31.6212E-03    -15.8039E-03     13.1560E-03    -15.7735E-03     31.3407E-03    -15.7405E-03     13.1467E-03
             543     4.42974E-03     70.1151E-03    -10.9128E+06    -63.7239E+06    -6.56455E+06    -539.730E+03    -15.8528E-03     31.6667E-03    -15.8139E-03     16.6674E-03    -15.8060E-03     31.3739E-03    -15.7385E-03     16.6578E-03
             544     5.31567E-03     70.1322E-03    -10.1088E+06    -63.6113E+06    -5.49383E+06    -502.039E+03    -15.8900E-03     31.7071E-03    -15.8171E-03     20.3495E-03    -15.8412E-03     31.4125E-03    -15.7376E-03     20.3397E-03
             545     6.20164E-03     70.1530E-03    -9.13688E+06    -60.9787E+06    -4.69937E+06    -524.697E+03    -15.9276E-03     31.7424E-03    -15.8148E-03     24.2245E-03    -15.8794E-03     31.4589E-03    -15.7366E-03     24.2134E-03
             546     7.08761E-03     70.1772E-03    -8.29422E+06     -61.014E+06    -3.05054E+06    -1.02963E+06    -15.9888E-03     31.8098E-03    -15.8210E-03     28.2524E-03    -15.9393E-03     31.5231E-03    -15.7357E-03     28.2336E-03
             547     7.97356E-03     70.2055E-03    -7.54286E+06    -61.4165E+06    -1.33005E+06    -1.43954E+06    -16.0654E-03     31.8946E-03    -15.8293E-03     32.4219E-03    -16.0150E-03     31.6034E-03    -15.7359E-03     32.3962E-03
             548     8.85944E-03     70.2375E-03    -6.80602E+06    -58.2108E+06    -674.941E+03    -1.34320E+06    -16.1358E-03     31.9631E-03    -15.8274E-03     36.7620E-03    -16.0889E-03     31.6874E-03    -15.7365E-03     36.7354E-03
             549     9.74544E-03     70.2739E-03    -6.14606E+06    -53.8819E+06    -1.94270E+06    -1.20175E+06    -16.2140E-03     32.0277E-03    -15.8138E-03     41.1595E-03    -16.1707E-03     31.7770E-03    -15.7364E-03     41.1316E-03
             550     10.6314E-03     70.3140E-03    -5.49894E+06    -54.4771E+06    -2.43196E+06    -1.04728E+06    -16.3180E-03     32.1292E-03    -15.8113E-03     45.4295E-03    -16.2738E-03     31.8792E-03    -15.7365E-03     45.3994E-03
             551     11.5173E-03     70.3584E-03    -5.08693E+06    -45.3396E+06    -1.30851E+06    -576.275E+03    -16.3935E-03     32.1961E-03    -15.8026E-03     50.0830E-03    -16.3684E-03     31.9958E-03    -15.7360E-03     50.0536E-03
             552     12.4033E-03     70.4071E-03    -4.71044E+06    -35.7344E+06    -1.46375E+06    -326.162E+03    -16.5422E-03     32.3278E-03    -15.7855E-03     56.9301E-03    -16.5407E-03     32.1869E-03    -15.7342E-03     56.8969E-03
             553     13.2892E-03     70.4644E-03    -4.65185E+06    -37.7558E+06    -9.99889E+06    -143.602E+03    -16.6259E-03     32.3702E-03    -15.7443E-03     58.9443E-03    -16.6250E-03     32.2478E-03    -15.7328E-03     58.9051E-03
             554     14.1753E-03     70.5166E-03     -4.9271E+06    -22.0451E+06    -15.3286E+06     211.840E+03    -16.7566E-03     32.4512E-03    -15.6946E-03     64.5423E-03    -16.8067E-03     32.4500E-03    -15.7321E-03     64.5012E-03
             555     15.0609E-03     70.5845E-03    -5.33165E+06     18.1962E+06    -16.4210E+06     362.259E+03    -18.4449E-03     34.0738E-03    -15.6289E-03     104.993E-03    -18.7881E-03     34.5103E-03    -15.7297E-03     104.970E-03
             556     15.9485E-03     70.7124E-03    -5.57829E+06     84.8563E+06    -7.43042E+06     653.579E+03    -23.4855E-03     39.0575E-03    -15.5719E-03     190.669E-03    -25.8735E-03     41.7484E-03    -15.7240E-03     191.317E-03
             557     16.8324E-03     70.9423E-03    -3.82321E+06     156.391E+06     56.9265E+06     557.499E+03    -29.7073E-03     45.4773E-03    -15.7700E-03     284.748E-03    -37.7974E-03     53.9440E-03    -15.7066E-03     290.138E-03
             558     885.953E-06     71.0569E-03    -14.3768E+06    -65.8583E+06    -14.1496E+06    -273.692E+03    -15.7667E-03     31.6008E-03    -15.8341E-03     3.47786E-03    -15.7225E-03     31.3130E-03    -15.7885E-03     3.47382E-03
             559     1.77184E-03     71.0615E-03    -13.8603E+06    -64.7341E+06    -12.8445E+06    -455.766E+03    -15.8018E-03     31.6039E-03    -15.8021E-03     6.51272E-03    -15.7587E-03     31.3190E-03    -15.7524E-03     6.50587E-03
             560     2.65780E-03     71.0690E-03    -13.1092E+06    -63.2988E+06    -10.9709E+06    -683.224E+03    -15.8011E-03     31.6057E-03    -15.8045E-03     9.76944E-03    -15.7592E-03     31.3243E-03    -15.7486E-03     9.75914E-03
             561     3.54377E-03     71.0797E-03    -12.2372E+06    -61.9791E+06    -9.15270E+06    -826.178E+03    -15.8203E-03     31.6269E-03    -15.8066E-03     13.1618E-03    -15.7787E-03     31.3483E-03    -15.7447E-03     13.1491E-03
             562     4.42971E-03     71.0935E-03    -11.0773E+06    -63.6899E+06    -7.12205E+06    -697.209E+03    -15.8565E-03     31.6721E-03    -15.8155E-03     16.6739E-03    -15.8098E-03     31.3805E-03    -15.7427E-03     16.6622E-03
             563     5.31566E-03     71.1107E-03    -9.99119E+06    -63.4477E+06    -5.69669E+06    -704.311E+03    -15.8926E-03     31.7123E-03    -15.8197E-03     20.3534E-03    -15.8432E-03     31.4187E-03    -15.7417E-03     20.3410E-03
             564     6.20163E-03     71.1313E-03    -9.11896E+06    -60.7745E+06    -4.66507E+06    -830.965E+03    -15.9361E-03     31.7549E-03    -15.8188E-03     24.2238E-03    -15.8881E-03     31.4723E-03    -15.7408E-03     24.2088E-03
             565     7.08754E-03     71.1558E-03    -8.44165E+06    -60.2995E+06    -3.13495E+06    -970.351E+03    -15.9980E-03     31.8226E-03    -15.8246E-03     28.2621E-03    -15.9502E-03     31.5399E-03    -15.7406E-03     28.2441E-03
             566     7.97346E-03     71.1839E-03    -7.89786E+06    -60.8212E+06    -1.78539E+06    -1.46509E+06    -16.0633E-03     31.8948E-03    -15.8316E-03     32.4526E-03    -16.0149E-03     31.6077E-03    -15.7409E-03     32.4266E-03
             567     8.85946E-03     71.2161E-03    -6.96718E+06    -58.2173E+06    -1.12867E+06    -1.76454E+06    -16.1310E-03     31.9605E-03    -15.8295E-03     36.7891E-03    -16.0843E-03     31.6857E-03    -15.7406E-03     36.7571E-03
             568     9.74540E-03     71.2522E-03    -5.95544E+06    -54.0064E+06    -2.10803E+06    -1.53603E+06    -16.2182E-03     32.0347E-03    -15.8165E-03     41.1834E-03    -16.1736E-03     31.7833E-03    -15.7401E-03     41.1513E-03
             569     10.6313E-03     71.2927E-03    -5.73227E+06    -54.8949E+06    -2.82951E+06    -1.00849E+06    -16.3196E-03     32.1333E-03    -15.8137E-03     45.4577E-03    -16.2755E-03     31.8821E-03    -15.7399E-03     45.4281E-03
             570     11.5173E-03     71.3366E-03    -5.53880E+06    -45.6427E+06    -1.68896E+06    -701.228E+03    -16.3923E-03     32.1973E-03    -15.8050E-03     50.1252E-03    -16.3686E-03     31.9968E-03    -15.7392E-03     50.0942E-03
             571     12.4032E-03     71.3859E-03    -5.10347E+06    -35.8250E+06    -1.81082E+06    -586.547E+03    -16.5342E-03     32.3214E-03    -15.7872E-03     56.9773E-03    -16.5340E-03     32.1812E-03    -15.7369E-03     56.9407E-03
             572     13.2894E-03     71.4424E-03     -4.8278E+06    -38.0426E+06    -10.3654E+06    -421.496E+03    -16.6230E-03     32.3682E-03    -15.7452E-03     59.0024E-03    -16.6221E-03     32.2452E-03    -15.7349E-03     58.9596E-03
             573     14.1750E-03     71.4956E-03    -5.15867E+06    -22.5160E+06    -15.8776E+06    -52.8966E+03    -16.7757E-03     32.4709E-03    -15.6952E-03     64.6118E-03    -16.8257E-03     32.4687E-03    -15.7345E-03     64.5672E-03
             574     15.0615E-03     71.5624E-03    -5.64804E+06     18.6829E+06    -16.6625E+06     65.0069E+03    -18.5017E-03     34.1337E-03    -15.6320E-03     104.904E-03    -18.8476E-03     34.5742E-03    -15.7343E-03     104.878E-03
             575     15.9462E-03     71.6909E-03    -6.09062E+06     84.7092E+06    -8.44889E+06     98.8709E+03    -23.3406E-03     38.9112E-03    -15.5706E-03     190.499E-03    -25.7272E-03     41.6014E-03    -15.7268E-03     191.143E-03
             576     16.8340E-03     71.9215E-03    -4.53709E+06     155.873E+06     55.7034E+06     591.207E+03    -29.5956E-03     45.3568E-03    -15.7612E-03     284.968E-03    -37.6918E-03     53.8287E-03    -15.7021E-03     290.354E-03
             577     885.920E-06     72.0354E-03    -14.4877E+06    -65.2061E+06    -14.2213E+06    -352.775E+03    -15.7755E-03     31.5968E-03    -15.8214E-03     3.52373E-03    -15.7327E-03     31.3126E-03    -15.7769E-03     3.51866E-03
             578     1.77188E-03     72.0399E-03    -13.9926E+06    -64.2202E+06    -12.9614E+06    -627.587E+03    -15.8043E-03     31.6054E-03    -15.8011E-03     6.51383E-03    -15.7624E-03     31.3235E-03    -15.7525E-03     6.50476E-03
             579     2.65781E-03     72.0475E-03    -13.3034E+06    -62.8568E+06    -11.2305E+06    -756.772E+03    -15.8116E-03     31.6170E-03    -15.8054E-03     9.78105E-03    -15.7708E-03     31.3385E-03    -15.7512E-03     9.76979E-03
             580     3.54374E-03     72.0581E-03    -12.5092E+06     -61.515E+06    -9.50609E+06    -978.542E+03    -15.8268E-03     31.6359E-03    -15.8090E-03     13.1686E-03    -15.7867E-03     31.3605E-03    -15.7492E-03     13.1540E-03
             581     4.42969E-03     72.0720E-03    -11.5413E+06    -63.5830E+06    -7.72306E+06    -1.19985E+06    -15.8579E-03     31.6757E-03    -15.8178E-03     16.6764E-03    -15.8127E-03     31.3863E-03    -15.7475E-03     16.6583E-03
             582     5.31565E-03     72.0891E-03    -10.3363E+06    -63.2694E+06    -6.34139E+06    -1.12573E+06    -15.8980E-03     31.7194E-03    -15.8214E-03     20.3593E-03    -15.8496E-03     31.4281E-03    -15.7464E-03     20.3413E-03
             583     6.20155E-03     72.1098E-03    -9.34674E+06    -60.6148E+06    -5.30824E+06    -1.04581E+06    -15.9390E-03     31.7595E-03    -15.8205E-03     24.2395E-03    -15.8915E-03     31.4790E-03    -15.7456E-03     24.2218E-03
             584     7.08754E-03     72.1341E-03    -8.63595E+06    -60.1345E+06    -3.83133E+06    -949.746E+03    -15.9894E-03     31.8145E-03    -15.8250E-03     28.2880E-03    -15.9418E-03     31.5338E-03    -15.7445E-03     28.2703E-03
             585     7.97351E-03     72.1624E-03    -8.01089E+06    -59.7208E+06    -1.78611E+06    -1.34177E+06    -16.0578E-03     31.8907E-03    -15.8329E-03     32.4687E-03    -16.0116E-03     31.6092E-03    -15.7436E-03     32.4443E-03
             586     8.85940E-03     72.1944E-03    -7.42544E+06    -57.7387E+06    -1.24310E+06    -2.13187E+06    -16.1316E-03     31.9629E-03    -15.8313E-03     36.8066E-03    -16.0877E-03     31.6913E-03    -15.7430E-03     36.7698E-03
             587     9.74535E-03     72.2308E-03    -7.05345E+06    -54.7992E+06    -2.94530E+06    -1.71429E+06    -16.2111E-03     32.0283E-03    -15.8172E-03     41.2116E-03    -16.1696E-03     31.7758E-03    -15.7422E-03     41.1772E-03
             588     10.6314E-03     72.2709E-03    -6.39513E+06    -55.0290E+06    -3.13996E+06    -1.19327E+06    -16.3147E-03     32.1296E-03    -15.8150E-03     45.4818E-03    -16.2732E-03     31.8792E-03    -15.7416E-03     45.4498E-03
             589     11.5172E-03     72.3154E-03    -5.48201E+06    -45.7750E+06    -1.77681E+06    -1.16214E+06    -16.3853E-03     32.1911E-03    -15.8058E-03     50.1286E-03    -16.3609E-03     31.9900E-03    -15.7404E-03     50.0916E-03
             590     12.4034E-03     72.3640E-03    -4.74885E+06    -36.0519E+06    -1.82625E+06    -845.469E+03    -16.5399E-03     32.3277E-03    -15.7878E-03     56.9832E-03    -16.5376E-03     32.1858E-03    -15.7378E-03     56.9433E-03
             591     13.2891E-03     72.4213E-03    -4.80725E+06    -38.2555E+06    -10.5899E+06    -582.468E+03    -16.6359E-03     32.3816E-03    -15.7457E-03     59.0041E-03    -16.6343E-03     32.2578E-03    -15.7362E-03     58.9592E-03
             592     14.1753E-03     72.4737E-03    -5.13861E+06    -22.8655E+06    -16.1557E+06    -419.718E+03    -16.8206E-03     32.5178E-03    -15.6973E-03     64.6226E-03    -16.8697E-03     32.5145E-03    -15.7374E-03     64.5730E-03
             593     15.0608E-03     72.5415E-03    -5.67128E+06     18.3152E+06    -17.0607E+06     159.931E+03    -18.5402E-03     34.1756E-03    -15.6354E-03     105.113E-03    -18.8853E-03     34.6151E-03    -15.7391E-03     105.087E-03
             594     15.9474E-03     72.6698E-03    -6.65425E+06     84.4501E+06    -8.72378E+06     543.320E+03    -23.1137E-03     38.6843E-03    -15.5706E-03     190.253E-03    -25.4979E-03     41.3699E-03    -15.7270E-03     190.915E-03
             595     16.8337E-03     72.8982E-03    -5.20277E+06     156.047E+06     55.5991E+06     46.5360E+03    -29.5150E-03     45.2692E-03    -15.7542E-03     285.048E-03    -37.6341E-03     53.7625E-03    -15.6949E-03     290.423E-03
             596     885.945E-06     73.0138E-03    -14.2867E+06    -64.4101E+06    -14.1446E+06    -463.857E+03    -15.8006E-03     31.6009E-03    -15.8003E-03     3.50338E-03    -15.7580E-03     31.3202E-03    -15.7569E-03     3.49688E-03
             597     1.77186E-03     73.0184E-03    -13.8997E+06    -63.6067E+06    -12.9210E+06    -708.823E+03    -15.8042E-03     31.6068E-03    -15.8025E-03     6.50177E-03    -15.7628E-03     31.3277E-03    -15.7548E-03     6.49165E-03
             598     2.65780E-03     73.0259E-03    -13.2604E+06    -62.4316E+06    -11.4074E+06    -876.464E+03    -15.8197E-03     31.6263E-03    -15.8066E-03     9.77998E-03    -15.7791E-03     31.3501E-03    -15.7539E-03     9.76719E-03
             599     3.54373E-03     73.0366E-03    -12.4973E+06    -60.9306E+06    -9.71476E+06    -1.06458E+06    -15.8331E-03     31.6442E-03    -15.8111E-03     13.1706E-03    -15.7934E-03     31.3721E-03    -15.7532E-03     13.1548E-03
             600     4.42968E-03     73.0504E-03    -11.7477E+06    -63.0489E+06    -7.77680E+06    -1.34625E+06    -15.8644E-03     31.6862E-03    -15.8218E-03     16.6831E-03    -15.8210E-03     31.3998E-03    -15.7522E-03     16.6631E-03
             601     5.31558E-03     73.0676E-03    -10.9381E+06    -63.0522E+06    -7.20527E+06    -1.62735E+06    -15.8972E-03     31.7196E-03    -15.8224E-03     20.3768E-03    -15.8509E-03     31.4315E-03    -15.7512E-03     20.3524E-03
             602     6.20158E-03     73.0882E-03    -9.90957E+06    -60.6236E+06    -6.18094E+06    -1.48402E+06    -15.9326E-03     31.7534E-03    -15.8208E-03     24.2549E-03    -15.8866E-03     31.4749E-03    -15.7494E-03     24.2315E-03
             603     7.08750E-03     73.1126E-03    -8.73541E+06    -60.0649E+06    -3.88403E+06    -1.33725E+06    -15.9890E-03     31.8168E-03    -15.8278E-03     28.2908E-03    -15.9419E-03     31.5368E-03    -15.7475E-03     28.2681E-03
             604     7.97344E-03     73.1408E-03    -7.33573E+06    -58.6318E+06    -1.47185E+06    -1.74572E+06    -16.0574E-03     31.8919E-03    -15.8345E-03     32.4830E-03    -16.0099E-03     31.6144E-03    -15.7462E-03     32.4534E-03
             605     8.85941E-03     73.1730E-03    -6.60090E+06    -57.5513E+06    -36.0602E+03    -1.72200E+06    -16.1319E-03     31.9699E-03    -15.8380E-03     36.7853E-03    -16.0859E-03     31.6963E-03    -15.7452E-03     36.7538E-03
             606     9.74540E-03     73.2091E-03    -6.41153E+06    -55.2273E+06    -2.00969E+06    -1.54511E+06    -16.2117E-03     32.0351E-03    -15.8234E-03     41.1927E-03    -16.1677E-03     31.7781E-03    -15.7441E-03     41.1605E-03
             607     10.6312E-03     73.2496E-03    -6.00113E+06    -54.6834E+06    -3.27975E+06    -1.76776E+06    -16.3068E-03     32.1212E-03    -15.8144E-03     45.4955E-03    -16.2637E-03     31.8722E-03    -15.7428E-03     45.4561E-03
             608     11.5173E-03     73.2936E-03    -5.29893E+06    -45.9232E+06    -1.92544E+06    -1.77829E+06    -16.3890E-03     32.1948E-03    -15.8058E-03     50.1273E-03    -16.3633E-03     31.9929E-03    -15.7412E-03     50.0824E-03
             609     12.4031E-03     73.3427E-03    -4.67208E+06    -36.7572E+06    -2.26509E+06    -1.20357E+06    -16.5440E-03     32.3314E-03    -15.7874E-03     57.0031E-03    -16.5397E-03     32.1866E-03    -15.7387E-03     56.9585E-03
             610     13.2894E-03     73.3995E-03    -4.52790E+06    -38.4373E+06    -10.5972E+06    -541.996E+03    -16.6538E-03     32.4007E-03    -15.7469E-03     59.0527E-03    -16.6506E-03     32.2757E-03    -15.7376E-03     59.0082E-03
             611     14.1749E-03     73.4524E-03    -5.14705E+06    -22.9730E+06    -16.2913E+06    -465.921E+03    -16.8428E-03     32.5418E-03    -15.6990E-03     64.8071E-03    -16.8920E-03     32.5384E-03    -15.7397E-03     64.7568E-03
             612     15.0611E-03     73.5200E-03    -5.84463E+06     17.1982E+06    -17.5483E+06    -127.702E+03    -18.4156E-03     34.0496E-03    -15.6340E-03     105.065E-03    -18.7571E-03     34.4824E-03    -15.7382E-03     105.037E-03
             613     15.9470E-03     73.6479E-03    -5.29394E+06     84.4191E+06    -8.72489E+06     729.994E+03    -23.2258E-03     38.7945E-03    -15.5687E-03     189.693E-03    -25.5954E-03     41.4703E-03    -15.7270E-03     190.346E-03
             614     16.8336E-03     73.8765E-03    -3.68240E+06     156.736E+06     55.6297E+06     498.690E+03    -29.5774E-03     45.3349E-03    -15.7575E-03     284.797E-03    -37.6956E-03     53.8351E-03    -15.7013E-03     290.193E-03
             615     885.899E-06     73.9923E-03    -14.4827E+06    -63.5931E+06    -14.1006E+06    -370.129E+03    -15.7907E-03     31.6040E-03    -15.8132E-03     3.49915E-03    -15.7504E-03     31.3276E-03    -15.7705E-03     3.49387E-03
             616     1.77186E-03     73.9968E-03    -14.1181E+06    -62.8445E+06    -13.0948E+06    -768.524E+03    -15.8133E-03     31.6188E-03    -15.8055E-03     6.51614E-03    -15.7738E-03     31.3441E-03    -15.7594E-03     6.50525E-03
             617     2.65778E-03     74.0044E-03    -13.3515E+06    -61.8529E+06    -11.4688E+06    -1.10766E+06    -15.8201E-03     31.6312E-03    -15.8111E-03     9.77843E-03    -15.7807E-03     31.3581E-03    -15.7594E-03     9.76265E-03
             618     3.54373E-03     74.0150E-03    -12.4276E+06    -60.4454E+06    -9.73132E+06    -1.24994E+06    -15.8349E-03     31.6497E-03    -15.8148E-03     13.1690E-03    -15.7957E-03     31.3800E-03    -15.7578E-03     13.1508E-03
             619     4.42964E-03     74.0289E-03    -11.4673E+06    -62.4214E+06    -7.60373E+06    -1.42435E+06    -15.8676E-03     31.6930E-03    -15.8255E-03     16.6852E-03    -15.8239E-03     31.4091E-03    -15.7564E-03     16.6641E-03
             620     5.31561E-03     74.0460E-03    -10.5969E+06    -62.3477E+06    -6.32408E+06    -1.79374E+06    -15.9001E-03     31.7294E-03    -15.8293E-03     20.3724E-03    -15.8544E-03     31.4431E-03    -15.7552E-03     20.3458E-03
             621     6.20151E-03     74.0667E-03    -9.85254E+06    -60.7636E+06    -5.95031E+06    -1.91411E+06    -15.9356E-03     31.7616E-03    -15.8259E-03     24.2491E-03    -15.8895E-03     31.4820E-03    -15.7533E-03     24.2201E-03
             622     7.08749E-03     74.0911E-03    -8.87199E+06    -59.4984E+06    -4.68620E+06    -2.03861E+06    -15.9873E-03     31.8140E-03    -15.8267E-03     28.3092E-03    -15.9406E-03     31.5381E-03    -15.7510E-03     28.2775E-03
             623     7.97344E-03     74.1193E-03    -8.13281E+06    -58.2283E+06    -2.46555E+06    -2.12892E+06    -16.0493E-03     31.8822E-03    -15.8328E-03     32.5019E-03    -16.0049E-03     31.6093E-03    -15.7489E-03     32.4673E-03
             624     8.85939E-03     74.1514E-03    -7.40263E+06    -58.1152E+06    -770.010E+03    -1.58875E+06    -16.1257E-03     31.9640E-03    -15.8383E-03     36.7959E-03    -16.0818E-03     31.6898E-03    -15.7472E-03     36.7661E-03
             625     9.74526E-03     74.1877E-03    -6.70835E+06    -54.6330E+06    -2.31954E+06    -1.52744E+06    -16.2041E-03     32.0269E-03    -15.8228E-03     41.2019E-03    -16.1620E-03     31.7737E-03    -15.7454E-03     41.1698E-03
             626     10.6314E-03     74.2279E-03    -6.21347E+06    -54.0594E+06    -3.69475E+06    -2.12409E+06    -16.2968E-03     32.1092E-03    -15.8124E-03     45.5236E-03    -16.2550E-03     31.8641E-03    -15.7434E-03     45.4796E-03
             627     11.5172E-03     74.2722E-03    -5.79648E+06    -46.1599E+06    -2.54528E+06    -2.15711E+06    -16.3852E-03     32.1891E-03    -15.8039E-03     50.1619E-03    -16.3607E-03     31.9876E-03    -15.7413E-03     50.1121E-03
             628     12.4034E-03     74.3210E-03    -5.19722E+06    -37.3530E+06    -2.85308E+06    -1.76926E+06    -16.5489E-03     32.3351E-03    -15.7862E-03     57.0261E-03    -16.5454E-03     32.1889E-03    -15.7388E-03     56.9742E-03
             629     13.2891E-03     74.3781E-03    -4.52632E+06    -39.2030E+06    -11.3749E+06    -1.15051E+06    -16.6590E-03     32.4035E-03    -15.7445E-03     59.1379E-03    -16.6536E-03     32.2759E-03    -15.7380E-03     59.0855E-03
             630     14.1753E-03     74.4309E-03    -4.68772E+06    -23.3057E+06    -16.3057E+06    -175.127E+03    -16.7712E-03     32.4680E-03    -15.6968E-03     64.8478E-03    -16.8173E-03     32.4620E-03    -15.7377E-03     64.8015E-03
             631     15.0610E-03     74.4986E-03    -5.65604E+06     16.8944E+06    -17.5637E+06     82.0089E+03    -18.4070E-03     34.0367E-03    -15.6297E-03     105.051E-03    -18.7462E-03     34.4667E-03    -15.7338E-03     105.025E-03
             632     15.9473E-03     74.6262E-03    -6.17119E+06      83.435E+06    -9.38089E+06    -222.058E+03    -23.3529E-03     38.9189E-03    -15.5661E-03     190.052E-03    -25.7328E-03     41.6003E-03    -15.7250E-03     190.687E-03
             633     16.8330E-03     74.8555E-03    -4.28014E+06     156.976E+06     55.7883E+06     155.351E+03    -29.5693E-03     45.3287E-03    -15.7594E-03     284.812E-03    -37.6758E-03     53.8154E-03    -15.7018E-03     290.199E-03
             634     885.979E-06     74.9707E-03    -14.3372E+06    -63.0077E+06    -14.0518E+06    -194.146E+03    -15.7882E-03     31.6075E-03    -15.8193E-03     3.53226E-03    -15.7480E-03     31.3338E-03    -15.7774E-03     3.52924E-03
             635     1.77184E-03     74.9753E-03    -14.0766E+06    -61.8671E+06    -12.7162E+06    -645.658E+03    -15.8196E-03     31.6289E-03    -15.8093E-03     6.51732E-03    -15.7819E-03     31.3585E-03    -15.7628E-03     6.50802E-03
             636     2.65777E-03     74.9828E-03    -13.5700E+06    -61.0833E+06    -11.1963E+06    -1.15451E+06    -15.8228E-03     31.6392E-03    -15.8163E-03     9.78449E-03    -15.7860E-03     31.3698E-03    -15.7641E-03     9.76810E-03
             637     3.54368E-03     74.9935E-03    -12.9176E+06    -60.0310E+06    -9.70391E+06    -1.34672E+06    -15.8362E-03     31.6559E-03    -15.8198E-03     13.1794E-03    -15.8000E-03     31.3889E-03    -15.7625E-03     13.1599E-03
             638     4.42965E-03     75.0073E-03    -11.9302E+06    -61.5094E+06    -7.63414E+06    -1.77174E+06    -15.8689E-03     31.6983E-03    -15.8294E-03     16.6851E-03    -15.8288E-03     31.4196E-03    -15.7611E-03     16.6595E-03
             639     5.31554E-03     75.0245E-03    -10.5725E+06    -61.6722E+06    -6.17434E+06    -2.20102E+06    -15.9039E-03     31.7377E-03    -15.8338E-03     20.3659E-03    -15.8592E-03     31.4544E-03    -15.7599E-03     20.3341E-03
             640     6.20151E-03     75.0452E-03    -9.19593E+06    -60.3510E+06    -5.55113E+06    -2.43093E+06    -15.9401E-03     31.7710E-03    -15.8310E-03     24.2451E-03    -15.8918E-03     31.4920E-03    -15.7579E-03     24.2094E-03
             641     7.08744E-03     75.0695E-03    -8.27245E+06    -59.1137E+06    -4.79143E+06    -2.47319E+06    -15.9844E-03     31.8131E-03    -15.8286E-03     28.3123E-03    -15.9351E-03     31.5384E-03    -15.7549E-03     28.2750E-03
             642     7.97341E-03     75.0978E-03    -7.45722E+06    -58.2239E+06    -2.57393E+06    -2.19806E+06    -16.0454E-03     31.8794E-03    -15.8340E-03     32.5039E-03    -15.9974E-03     31.6058E-03    -15.7517E-03     32.4685E-03
             643     8.85936E-03     75.1299E-03    -6.61248E+06    -58.6461E+06    -580.196E+03    -1.85929E+06    -16.1206E-03     31.9611E-03    -15.8405E-03     36.7954E-03    -16.0722E-03     31.6828E-03    -15.7488E-03     36.7622E-03
             644     9.74542E-03     75.1661E-03    -5.90863E+06    -54.1294E+06     -1.6233E+06    -1.60847E+06    -16.2006E-03     32.0257E-03    -15.8251E-03     41.1918E-03    -16.1562E-03     31.7729E-03    -15.7462E-03     41.1587E-03
             645     10.6312E-03     75.2064E-03    -5.69286E+06    -53.0773E+06    -2.69982E+06    -2.07852E+06    -16.2930E-03     32.1085E-03    -15.8155E-03     45.5038E-03    -16.2515E-03     31.8662E-03    -15.7438E-03     45.4604E-03
             646     11.5174E-03     75.2506E-03    -5.27607E+06    -46.1932E+06    -2.11564E+06    -2.52870E+06    -16.3737E-03     32.1787E-03    -15.8050E-03     50.1694E-03    -16.3472E-03     31.9756E-03    -15.7410E-03     50.1149E-03
             647     12.4032E-03     75.2996E-03    -4.73399E+06    -37.8191E+06    -3.17538E+06    -2.16730E+06    -16.5372E-03     32.3205E-03    -15.7833E-03     57.0581E-03    -16.5303E-03     32.1717E-03    -15.7375E-03     57.0011E-03
             648     13.2893E-03     75.3566E-03    -5.12156E+06    -39.9824E+06    -12.2240E+06    -1.49011E+06    -16.6627E-03     32.4032E-03    -15.7405E-03     59.2547E-03    -16.6580E-03     32.2738E-03    -15.7362E-03     59.1980E-03
             649     14.1750E-03     75.4095E-03    -5.39288E+06    -24.3598E+06    -16.9547E+06    -749.904E+03    -16.7412E-03     32.4350E-03    -15.6938E-03     64.7114E-03    -16.7882E-03     32.4255E-03    -15.7354E-03     64.6579E-03
             650     15.0614E-03     75.4768E-03    -5.36324E+06     16.5767E+06    -17.2792E+06     92.3642E+03    -18.3900E-03     34.0175E-03    -15.6275E-03     105.029E-03    -18.7278E-03     34.4453E-03    -15.7302E-03     105.003E-03
             651     15.9472E-03     75.6051E-03    -5.45218E+06     83.8101E+06    -9.54027E+06     62.2373E+03    -23.1374E-03     38.6916E-03    -15.5543E-03     189.980E-03    -25.5118E-03     41.3719E-03    -15.7156E-03     190.628E-03
             652     16.8342E-03     75.8338E-03    -4.56213E+06     156.892E+06     54.9916E+06    -161.489E+03    -29.6804E-03     45.4247E-03    -15.7443E-03     284.739E-03    -37.7829E-03     53.9085E-03    -15.6902E-03     290.093E-03
             653     885.874E-06     75.9492E-03    -14.1498E+06    -62.4913E+06    -13.7912E+06    -321.900E+03    -15.8235E-03     31.6292E-03    -15.8057E-03     3.54626E-03    -15.7836E-03     31.3575E-03    -15.7635E-03     3.54159E-03
             654     1.77185E-03     75.9538E-03    -13.3222E+06    -60.9571E+06    -11.9665E+06    -605.074E+03    -15.8150E-03     31.6331E-03    -15.8181E-03     6.51139E-03    -15.7759E-03     31.3651E-03    -15.7702E-03     6.50261E-03
             655     2.65776E-03     75.9613E-03    -12.5353E+06    -60.3563E+06    -9.58676E+06    -924.534E+03    -15.8303E-03     31.6564E-03    -15.8262E-03     9.77493E-03    -15.7917E-03     31.3869E-03    -15.7684E-03     9.76151E-03
             656     3.54371E-03     75.9719E-03    -11.7928E+06    -59.5440E+06    -8.00148E+06    -1.15245E+06    -15.8468E-03     31.6777E-03    -15.8309E-03     13.1686E-03    -15.8081E-03     31.4090E-03    -15.7675E-03     13.1517E-03
             657     4.42959E-03     75.9858E-03    -11.2761E+06    -60.2774E+06    -7.17090E+06    -1.69354E+06    -15.8709E-03     31.7049E-03    -15.8339E-03     16.6862E-03    -15.8300E-03     31.4308E-03    -15.7660E-03     16.6617E-03
             658     5.31555E-03     76.0030E-03    -10.8876E+06    -60.7336E+06    -6.85377E+06    -2.48252E+06    -15.9016E-03     31.7353E-03    -15.8337E-03     20.3763E-03    -15.8589E-03     31.4582E-03    -15.7641E-03     20.3409E-03
             659     6.20147E-03     76.0236E-03    -10.3446E+06    -59.7082E+06    -6.28572E+06    -2.91407E+06    -15.9373E-03     31.7691E-03    -15.8318E-03     24.2550E-03    -15.8946E-03     31.4960E-03    -15.7617E-03     24.2131E-03
             660     7.08743E-03     76.0480E-03    -9.36868E+06    -58.8113E+06    -5.34517E+06    -3.02181E+06    -15.9808E-03     31.8113E-03    -15.8306E-03     28.3147E-03    -15.9365E-03     31.5406E-03    -15.7584E-03     28.2702E-03
             661     7.97339E-03     76.0762E-03    -8.20747E+06    -58.4152E+06    -3.67987E+06    -2.79680E+06    -16.0385E-03     31.8713E-03    -15.8328E-03     32.5185E-03    -15.9924E-03     31.5994E-03    -15.7546E-03     32.4754E-03
             662     8.85937E-03     76.1084E-03    -6.92420E+06    -58.7428E+06    -1.09281E+06    -2.41368E+06    -16.1186E-03     31.9595E-03    -15.8409E-03     36.7908E-03    -16.0710E-03     31.6820E-03    -15.7512E-03     36.7503E-03
             663     9.74523E-03     76.1445E-03    -5.78368E+06    -54.3925E+06    -1.62876E+06    -2.01393E+06    -16.1997E-03     32.0270E-03    -15.8273E-03     41.1841E-03    -16.1543E-03     31.7728E-03    -15.7482E-03     41.1458E-03
             664     10.6314E-03     76.1850E-03    -4.87772E+06    -51.7796E+06    -1.75778E+06    -2.17260E+06    -16.2962E-03     32.1153E-03    -15.8190E-03     45.4819E-03    -16.2539E-03     31.8769E-03    -15.7457E-03     45.4373E-03
             665     11.5172E-03     76.2290E-03    -4.06974E+06    -45.6015E+06    -642.635E+03    -3.10121E+06    -16.3653E-03     32.1765E-03    -15.8113E-03     50.1129E-03    -16.3357E-03     31.9725E-03    -15.7425E-03     50.0509E-03
             666     12.4034E-03     76.2781E-03    -3.53316E+06    -39.2569E+06    -2.30720E+06    -2.29091E+06    -16.5262E-03     32.3147E-03    -15.7885E-03     57.0080E-03    -16.5125E-03     32.1557E-03    -15.7379E-03     56.9494E-03
             667     13.2893E-03     76.3349E-03    -3.84175E+06    -40.5922E+06    -11.0141E+06    -828.798E+03    -16.6123E-03     32.3559E-03    -15.7436E-03     59.2380E-03    -16.6019E-03     32.2198E-03    -15.7343E-03     59.1900E-03
             668     14.1753E-03     76.3883E-03    -4.83372E+06    -24.0989E+06    -16.4971E+06    -1.10701E+06    -16.7800E-03     32.4723E-03    -15.6924E-03     64.7388E-03    -16.8253E-03     32.4628E-03    -15.7329E-03     64.6806E-03
             669     15.0610E-03     76.4547E-03    -4.97020E+06     15.1579E+06    -18.0707E+06    -821.465E+03    -18.2248E-03     33.8438E-03    -15.6190E-03     105.035E-03    -18.5558E-03     34.2633E-03    -15.7241E-03     104.999E-03
             670     15.9474E-03     76.5841E-03    -4.53876E+06     82.5915E+06    -9.39293E+06     526.799E+03    -23.2851E-03     38.8330E-03    -15.5479E-03     190.144E-03    -25.6527E-03     41.5049E-03    -15.7080E-03     190.789E-03
             671     16.8340E-03     76.8104E-03    -3.40222E+06     158.038E+06     56.1154E+06      671.96E+03    -29.9118E-03     45.6623E-03    -15.7505E-03     284.146E-03    -37.9881E-03     54.1248E-03    -15.6941E-03     289.512E-03
             672     885.925E-06     76.9277E-03    -14.5309E+06    -61.5904E+06    -14.2227E+06    -505.774E+03    -15.8522E-03     31.6464E-03    -15.7942E-03     3.51829E-03    -15.8149E-03     31.3803E-03    -15.7549E-03     3.51125E-03
             673     1.77181E-03     76.9322E-03    -13.9514E+06    -60.3360E+06    -12.7220E+06    -824.652E+03    -15.8149E-03     31.6390E-03    -15.8240E-03     6.52165E-03    -15.7788E-03     31.3760E-03    -15.7799E-03     6.51004E-03
             674     2.65775E-03     76.9398E-03    -12.8950E+06    -59.6627E+06    -10.1600E+06    -1.01794E+06    -15.8314E-03     31.6615E-03    -15.8301E-03     9.77571E-03    -15.7948E-03     31.3968E-03    -15.7757E-03     9.76108E-03
             675     3.54363E-03     76.9504E-03    -11.4609E+06    -58.8768E+06    -7.96708E+06    -1.39920E+06    -15.8467E-03     31.6821E-03    -15.8354E-03     13.1689E-03    -15.8074E-03     31.4162E-03    -15.7733E-03     13.1488E-03
             676     4.42961E-03     76.9643E-03    -9.90896E+06    -59.1502E+06    -6.22744E+06    -1.83587E+06    -15.8719E-03     31.7111E-03    -15.8393E-03     16.6874E-03    -15.8271E-03     31.4393E-03    -15.7703E-03     16.6610E-03
             677     5.31552E-03     76.9814E-03    -9.03561E+06    -59.9074E+06    -4.77724E+06    -2.07256E+06    -15.9099E-03     31.7537E-03    -15.8437E-03     20.3604E-03    -15.8622E-03     31.4750E-03    -15.7676E-03     20.3303E-03
             678     6.20147E-03     77.0021E-03    -8.74364E+06    -58.4818E+06    -4.23774E+06    -2.71978E+06    -15.9452E-03     31.7868E-03    -15.8416E-03     24.2334E-03    -15.8993E-03     31.5145E-03    -15.7653E-03     24.1940E-03
             679     7.08740E-03     77.0264E-03    -8.34497E+06    -58.2792E+06    -4.06827E+06    -3.39290E+06    -15.9889E-03     31.8275E-03    -15.8386E-03     28.2899E-03    -15.9422E-03     31.5561E-03    -15.7623E-03     28.2406E-03
             680     7.97336E-03     77.0547E-03    -7.84315E+06    -58.7054E+06    -3.34508E+06    -3.09833E+06    -16.0455E-03     31.8840E-03    -15.8385E-03     32.4975E-03    -15.9977E-03     31.6096E-03    -15.7587E-03     32.4504E-03
             681     8.85931E-03     77.0868E-03    -7.15752E+06    -58.2814E+06    -1.88268E+06    -3.09888E+06    -16.1173E-03     31.9579E-03    -15.8406E-03     36.7902E-03    -16.0703E-03     31.6841E-03    -15.7551E-03     36.7409E-03
             682     9.74535E-03     77.1231E-03    -5.99822E+06    -54.9977E+06    -2.77054E+06    -2.89794E+06    -16.1983E-03     32.0246E-03    -15.8263E-03     41.1736E-03    -16.1515E-03     31.7693E-03    -15.7517E-03     41.1238E-03
             683     10.6312E-03     77.1633E-03    -5.07175E+06    -50.8270E+06    -3.17186E+06    -2.72488E+06    -16.2916E-03     32.1054E-03    -15.8137E-03     45.5181E-03    -16.2496E-03     31.8741E-03    -15.7485E-03     45.4663E-03
             684     11.5173E-03     77.2077E-03    -4.76982E+06    -44.3966E+06    -1.18962E+06    -3.33328E+06    -16.3683E-03     32.1789E-03    -15.8106E-03     50.0715E-03    -16.3433E-03     31.9828E-03    -15.7453E-03     50.0065E-03
             685     12.4031E-03     77.2562E-03    -4.44113E+06    -41.5955E+06    -3.59213E+06    -2.68535E+06    -16.5204E-03     32.3098E-03    -15.7894E-03     57.0267E-03    -16.5060E-03     32.1423E-03    -15.7406E-03     56.9630E-03
             686     13.2892E-03     77.3138E-03    -3.95674E+06    -41.2666E+06    -12.1860E+06    -1.22098E+06    -16.5609E-03     32.3003E-03    -15.7395E-03     59.1771E-03    -16.5483E-03     32.1625E-03    -15.7348E-03     59.1243E-03
             687     14.1754E-03     77.3660E-03    -3.92256E+06    -23.3458E+06    -15.8908E+06    -916.839E+03    -16.6269E-03     32.3138E-03    -15.6869E-03     64.8807E-03    -16.6692E-03     32.3053E-03    -15.7268E-03     64.8255E-03
             688     15.0612E-03     77.4345E-03    -5.18934E+06     14.4530E+06    -17.9715E+06    -1.07370E+06    -18.3001E-03     33.9135E-03    -15.6134E-03     104.614E-03    -18.6320E-03     34.3304E-03    -15.7167E-03     104.573E-03
             689     15.9488E-03     77.5594E-03    -6.84627E+06     81.4170E+06    -10.2204E+06    -225.077E+03    -23.5631E-03     39.1141E-03    -15.5510E-03     190.459E-03    -25.9510E-03     41.7964E-03    -15.7102E-03     191.085E-03
             690     16.8321E-03     77.7947E-03    -4.99299E+06     157.605E+06     55.2877E+06     597.517E+03    -29.6931E-03     45.4442E-03    -15.7511E-03     284.394E-03    -37.7313E-03     53.8639E-03    -15.6959E-03     289.772E-03
             691     885.873E-06     77.9061E-03    -14.9451E+06    -60.5793E+06    -14.6706E+06    -516.254E+03    -15.8623E-03     31.6524E-03    -15.7901E-03     3.49438E-03    -15.8278E-03     31.3926E-03    -15.7540E-03     3.48721E-03
             692     1.77182E-03     77.9108E-03    -14.6642E+06    -59.5856E+06    -13.6242E+06    -864.879E+03    -15.8246E-03     31.6514E-03    -15.8268E-03     6.52550E-03    -15.7918E-03     31.3946E-03    -15.7873E-03     6.51337E-03
             693     2.65771E-03     77.9183E-03    -14.0136E+06    -58.7646E+06    -12.0984E+06    -1.34641E+06    -15.8261E-03     31.6542E-03    -15.8281E-03     9.78716E-03    -15.7936E-03     31.3984E-03    -15.7830E-03     9.76829E-03
             694     3.54367E-03     77.9290E-03    -12.8654E+06    -57.6060E+06    -9.66661E+06    -2.13697E+06    -15.8397E-03     31.6720E-03    -15.8323E-03     13.1788E-03    -15.8068E-03     31.4169E-03    -15.7784E-03     13.1491E-03
             695     4.42956E-03     77.9427E-03    -11.4622E+06    -58.4777E+06    -6.91886E+06    -2.56102E+06    -15.8714E-03     31.7132E-03    -15.8418E-03     16.6883E-03    -15.8344E-03     31.4481E-03    -15.7750E-03     16.6525E-03
             696     5.31550E-03     77.9600E-03    -9.75683E+06    -59.4647E+06    -5.11299E+06    -2.52231E+06    -15.9103E-03     31.7577E-03    -15.8474E-03     20.3555E-03    -15.8663E-03     31.4828E-03    -15.7726E-03     20.3195E-03
             697     6.20141E-03     77.9806E-03    -8.18017E+06    -57.0527E+06    -3.97299E+06    -2.84166E+06    -15.9488E-03     31.7936E-03    -15.8448E-03     24.2247E-03    -15.9026E-03     31.5273E-03    -15.7701E-03     24.1837E-03
             698     7.08736E-03     78.0050E-03    -7.57278E+06    -57.7827E+06    -3.15666E+06    -3.08002E+06    -16.0026E-03     31.8490E-03    -15.8464E-03     28.2635E-03    -15.9541E-03     31.5776E-03    -15.7674E-03     28.2183E-03
             699     7.97330E-03     78.0331E-03    -7.23045E+06    -58.6068E+06    -2.83246E+06    -3.14293E+06    -16.0583E-03     31.9042E-03    -15.8459E-03     32.4713E-03    -16.0083E-03     31.6287E-03    -15.7646E-03     32.4236E-03
             700     8.85927E-03     78.0654E-03    -6.14866E+06    -56.9122E+06    -1.82385E+06    -3.84930E+06    -16.1218E-03     31.9652E-03    -15.8434E-03     36.7818E-03    -16.0719E-03     31.6967E-03    -15.7611E-03     36.7228E-03
             701     9.74517E-03     78.1014E-03    -4.87303E+06    -55.7788E+06    -2.71929E+06    -3.94050E+06    -16.2055E-03     32.0371E-03    -15.8316E-03     41.1412E-03    -16.1520E-03     31.7762E-03    -15.7572E-03     41.0780E-03
             702     10.6313E-03     78.1419E-03    -4.11229E+06    -50.6617E+06    -3.02300E+06    -3.08181E+06    -16.2974E-03     32.1155E-03    -15.8181E-03     45.4969E-03    -16.2510E-03     31.8834E-03    -15.7538E-03     45.4405E-03
             703     11.5172E-03     78.1860E-03    -4.29722E+06    -43.8769E+06    -128.540E+03    -2.59160E+06    -16.3937E-03     32.2141E-03    -15.8204E-03     49.9645E-03    -16.3686E-03     32.0184E-03    -15.7512E-03     49.9089E-03
             704     12.4032E-03     78.2349E-03    -5.08141E+06    -42.4208E+06    -3.47538E+06    -2.51591E+06    -16.5097E-03     32.3083E-03    -15.7986E-03     56.8038E-03    -16.4976E-03     32.1376E-03    -15.7471E-03     56.7421E-03
             705     13.2894E-03     78.2917E-03    -4.86021E+06    -41.5078E+06    -13.1557E+06    -2.73849E+06    -16.5593E-03     32.3017E-03    -15.7424E-03     59.0887E-03    -16.5495E-03     32.1654E-03    -15.7410E-03     59.0162E-03
             706     14.1750E-03     78.3449E-03    -4.13486E+06    -24.2925E+06    -15.2717E+06    -2.06215E+06    -16.5647E-03     32.2611E-03    -15.6964E-03     64.3057E-03    -16.6073E-03     32.2470E-03    -15.7315E-03     64.2358E-03
             707     15.0624E-03     78.4114E-03    -3.93182E+06     12.9568E+06    -17.2880E+06    -30.8970E+03    -18.4354E-03     34.0587E-03    -15.6234E-03     104.696E-03    -18.7629E-03     34.4684E-03    -15.7229E-03     104.667E-03
             708     15.9452E-03     78.5411E-03    -4.01018E+06     81.4762E+06    -9.85721E+06     1.04599E+06    -23.2175E-03     38.7657E-03    -15.5482E-03     190.680E-03    -25.5957E-03     41.4475E-03    -15.7098E-03     191.347E-03
             709     16.8357E-03     78.7686E-03    -4.17583E+06     158.503E+06     56.0248E+06     504.136E+03    -29.9486E-03     45.6983E-03    -15.7497E-03     284.312E-03    -38.0220E-03     54.1571E-03    -15.6933E-03     289.633E-03
             710     885.930E-06     78.8848E-03    -15.0050E+06    -59.5970E+06    -14.8074E+06    -476.070E+03    -15.8626E-03     31.6620E-03    -15.7994E-03     3.48971E-03    -15.8297E-03     31.4075E-03    -15.7652E-03     3.48305E-03
             711     1.77178E-03     78.8892E-03    -14.5278E+06    -58.5851E+06    -13.7601E+06    -956.732E+03    -15.8300E-03     31.6610E-03    -15.8310E-03     6.51208E-03    -15.7978E-03     31.4092E-03    -15.7938E-03     6.49875E-03
             712     2.65771E-03     78.8968E-03    -13.7795E+06    -57.5144E+06    -11.9168E+06    -1.59729E+06    -15.8308E-03     31.6640E-03    -15.8331E-03     9.77962E-03    -15.7992E-03     31.4138E-03    -15.7893E-03     9.75751E-03
             713     3.54361E-03     78.9074E-03    -13.0921E+06    -56.0889E+06    -9.90302E+06    -2.31453E+06    -15.8426E-03     31.6780E-03    -15.8354E-03     13.1726E-03    -15.8127E-03     31.4313E-03    -15.7846E-03     13.1406E-03
             714     4.42955E-03     78.9213E-03    -12.5341E+06    -57.8619E+06    -7.99059E+06    -2.69376E+06    -15.8699E-03     31.7129E-03    -15.8430E-03     16.6867E-03    -15.8376E-03     31.4539E-03    -15.7809E-03     16.6493E-03
             715     5.31546E-03     78.9384E-03    -11.7509E+06    -58.3591E+06    -7.06210E+06    -3.31227E+06    -15.9055E-03     31.7500E-03    -15.8444E-03     20.3673E-03    -15.8703E-03     31.4863E-03    -15.7781E-03     20.3211E-03
             716     6.20141E-03     78.9591E-03    -10.4537E+06    -56.2710E+06    -6.03080E+06    -3.77865E+06    -15.9497E-03     31.7921E-03    -15.8423E-03     24.2353E-03    -15.9130E-03     31.5360E-03    -15.7758E-03     24.1822E-03
             717     7.08733E-03     78.9834E-03    -8.60624E+06    -57.4887E+06    -3.70194E+06    -3.62917E+06    -16.0141E-03     31.8655E-03    -15.8514E-03     28.2500E-03    -15.9704E-03     31.5979E-03    -15.7741E-03     28.1976E-03
             718     7.97325E-03     79.0117E-03    -6.73151E+06    -57.7563E+06    -2.24697E+06    -3.86028E+06    -16.0770E-03     31.9318E-03    -15.8547E-03     32.4370E-03    -16.0267E-03     31.6590E-03    -15.7725E-03     32.3800E-03
             719     8.85920E-03     79.0437E-03    -5.97884E+06    -55.8678E+06    -1.40643E+06    -4.12043E+06    -16.1422E-03     31.9950E-03    -15.8529E-03     36.7430E-03    -16.0935E-03     31.7309E-03    -15.7702E-03     36.6805E-03
             720     9.74521E-03     79.0800E-03    -5.80139E+06    -55.4087E+06    -2.18512E+06    -4.54051E+06    -16.2385E-03     32.0848E-03    -15.8463E-03     41.0542E-03    -16.1910E-03     31.8263E-03    -15.7684E-03     40.9831E-03
             721     10.6311E-03     79.1201E-03    -4.74527E+06    -51.7437E+06    -3.02515E+06    -4.12162E+06    -16.3391E-03     32.1736E-03    -15.8345E-03     45.3895E-03    -16.2944E-03     31.9371E-03    -15.7677E-03     45.3195E-03
             722     11.5170E-03     79.1648E-03    -3.57105E+06    -44.9583E+06     673.442E+03    -2.17376E+06    -16.4421E-03     32.2835E-03    -15.8414E-03     49.8120E-03    -16.4131E-03     32.0803E-03    -15.7677E-03     49.7616E-03
             723     12.4029E-03     79.2131E-03    -2.94042E+06    -41.0108E+06    -1.17027E+06    -2.18127E+06    -16.6287E-03     32.4551E-03    -15.8264E-03     56.4075E-03    -16.6116E-03     32.2854E-03    -15.7685E-03     56.3496E-03
             724     13.2888E-03     79.2702E-03    -3.10505E+06    -41.2478E+06    -12.0692E+06    -3.31646E+06    -16.5901E-03     32.3607E-03    -15.7706E-03     58.5864E-03    -16.5736E-03     32.2217E-03    -15.7666E-03     58.5060E-03
             725     14.1752E-03     79.3232E-03    -4.10178E+06    -25.6778E+06    -16.0705E+06    -2.41169E+06    -16.8157E-03     32.5433E-03    -15.7276E-03     63.9070E-03    -16.8559E-03     32.5244E-03    -15.7648E-03     63.8313E-03
             726     15.0599E-03     79.3899E-03    -4.04996E+06     10.6997E+06    -19.1160E+06    -1.77605E+06    -18.3164E-03     33.9712E-03    -15.6548E-03     103.936E-03    -18.6384E-03     34.3722E-03    -15.7600E-03     103.886E-03
             727     15.9498E-03     79.5192E-03    -2.96388E+06     79.7599E+06    -9.66866E+06     479.233E+03    -23.5822E-03     39.1807E-03    -15.5985E-03     188.633E-03    -25.9476E-03     41.8468E-03    -15.7582E-03     189.265E-03
             728     16.8329E-03     79.7467E-03    -3.09266E+06     160.408E+06     57.1458E+06     2.72175E+06    -30.1195E-03     45.9436E-03    -15.8241E-03     282.215E-03    -38.1896E-03     54.4066E-03    -15.7665E-03     287.578E-03
             729     885.849E-06     79.8632E-03    -15.0670E+06     -58.466E+06    -14.9832E+06    -627.692E+03    -15.8458E-03     31.6691E-03    -15.8234E-03     3.49849E-03    -15.8145E-03     31.4206E-03    -15.7917E-03     3.48988E-03
             730     1.77179E-03     79.8678E-03    -14.5952E+06    -57.3679E+06    -13.6137E+06    -1.20963E+06    -15.8356E-03     31.6717E-03    -15.8361E-03     6.50587E-03    -15.8057E-03     31.4259E-03    -15.7999E-03     6.48928E-03
             731     2.65768E-03     79.8753E-03    -13.8838E+06    -56.2331E+06    -11.8232E+06    -1.75227E+06    -15.8365E-03     31.6751E-03    -15.8387E-03     9.77383E-03    -15.8074E-03     31.4314E-03    -15.7961E-03     9.74971E-03
             732     3.54360E-03     79.8860E-03    -13.1293E+06    -54.8360E+06    -10.2862E+06    -2.20849E+06    -15.8440E-03     31.6823E-03    -15.8383E-03     13.1741E-03    -15.8155E-03     31.4424E-03    -15.7912E-03     13.1435E-03
             733     4.42952E-03     79.8997E-03    -12.2037E+06    -56.9381E+06    -8.30863E+06    -2.67509E+06    -15.8756E-03     31.7212E-03    -15.8456E-03     16.6834E-03    -15.8426E-03     31.4668E-03    -15.7869E-03     16.6462E-03
             734     5.31544E-03     79.9170E-03    -11.4282E+06    -56.8106E+06    -6.69262E+06    -3.24048E+06    -15.9161E-03     31.7660E-03    -15.8499E-03     20.3593E-03    -15.8820E-03     31.5091E-03    -15.7844E-03     20.3140E-03
             735     6.20135E-03     79.9375E-03    -11.0738E+06    -55.1802E+06    -6.13726E+06    -4.06175E+06    -15.9611E-03     31.8096E-03    -15.8485E-03     24.2276E-03    -15.9289E-03     31.5600E-03    -15.7831E-03     24.1708E-03
             736     7.08725E-03     79.9620E-03    -10.2945E+06    -56.6955E+06    -5.25280E+06    -4.84933E+06    -16.0233E-03     31.8768E-03    -15.8535E-03     28.2590E-03    -15.9869E-03     31.6178E-03    -15.7826E-03     28.1909E-03
             737     7.97317E-03     79.9901E-03    -9.09543E+06    -57.1971E+06    -3.59081E+06    -4.88037E+06    -16.0976E-03     31.9584E-03    -15.8609E-03     32.4323E-03    -16.0579E-03     31.6938E-03    -15.7827E-03     32.3622E-03
             738     8.85906E-03     80.0223E-03    -7.97556E+06    -55.9268E+06    -2.47497E+06    -4.19418E+06    -16.1809E-03     32.0445E-03    -15.8636E-03     36.7154E-03    -16.1406E-03     31.7846E-03    -15.7834E-03     36.6518E-03
             739     9.74491E-03     80.0584E-03    -7.11364E+06    -53.3813E+06    -3.31234E+06    -4.78373E+06    -16.2831E-03     32.1392E-03    -15.8561E-03     41.0543E-03    -16.2436E-03     31.8945E-03    -15.7849E-03     40.9800E-03
             740     10.6308E-03     80.0989E-03    -6.81141E+06    -53.0555E+06    -6.28362E+06    -5.04369E+06    -16.3812E-03     32.2235E-03    -15.8423E-03     45.4049E-03    -16.3402E-03     31.9882E-03    -15.7869E-03     45.3229E-03
             741     11.5167E-03     80.1430E-03    -5.66811E+06    -46.7167E+06    -4.49242E+06    -3.68156E+06    -16.4837E-03     32.3259E-03    -15.8422E-03     49.9628E-03    -16.4552E-03     32.1244E-03    -15.7887E-03     49.8930E-03
             742     12.4025E-03     80.1921E-03    -3.63793E+06    -39.2474E+06    -3.80712E+06    -3.42054E+06    -16.7413E-03     32.5776E-03    -15.8363E-03     56.6727E-03    -16.7265E-03     32.4216E-03    -15.7932E-03     56.5988E-03
             743     13.2881E-03     80.2487E-03    -3.24265E+06    -41.6001E+06    -13.8908E+06    -3.20231E+06    -16.7409E-03     32.5346E-03    -15.7937E-03     58.5489E-03    -16.7221E-03     32.3969E-03    -15.7981E-03     58.4697E-03
             744     14.1740E-03     80.3012E-03    -4.07201E+06    -27.3307E+06    -19.0869E+06    -1.95432E+06    -16.8191E-03     32.5672E-03    -15.7482E-03     64.6899E-03    -16.8519E-03     32.5439E-03    -15.7981E-03     64.6208E-03
             745     15.0602E-03     80.3701E-03    -6.73981E+06     13.4100E+06    -20.9445E+06    -2.27406E+06    -19.0216E-03     34.7186E-03    -15.6970E-03     104.135E-03    -19.3638E-03     35.1451E-03    -15.8114E-03     104.074E-03
             746     15.9434E-03     80.4941E-03    -11.8815E+06     76.4797E+06    -17.2846E+06    -1.39710E+06    -24.6603E-03     40.3339E-03    -15.6736E-03     189.606E-03    -27.0784E-03     43.0314E-03    -15.8537E-03     190.199E-03
             747     16.8274E-03     80.7319E-03    -6.24397E+06     156.135E+06     49.3028E+06     2.19539E+06    -28.2247E-03     44.0869E-03    -15.8622E-03     282.515E-03    -36.1651E-03     52.4166E-03    -15.8331E-03     288.000E-03
             748     885.930E-06     80.8418E-03    -14.7740E+06    -57.0779E+06    -14.4291E+06    -752.283E+03    -15.8395E-03     31.6762E-03    -15.8367E-03     3.51993E-03    -15.8096E-03     31.4334E-03    -15.8047E-03     3.50969E-03
             749     1.77176E-03     80.8463E-03    -14.2846E+06    -56.0516E+06    -13.2871E+06    -1.33187E+06    -15.8417E-03     31.6818E-03    -15.8400E-03     6.50247E-03    -15.8127E-03     31.4416E-03    -15.8045E-03     6.48430E-03
             750     2.65766E-03     80.8539E-03    -13.6507E+06    -55.0099E+06    -11.8546E+06    -1.84171E+06    -15.8409E-03     31.6825E-03    -15.8416E-03     9.77272E-03    -15.8124E-03     31.4446E-03    -15.8013E-03     9.74744E-03
             751     3.54358E-03     80.8644E-03    -12.8592E+06    -53.6645E+06    -10.2582E+06    -2.36966E+06    -15.8542E-03     31.6963E-03    -15.8421E-03     13.1702E-03    -15.8262E-03     31.4619E-03    -15.7969E-03     13.1375E-03
             752     4.42949E-03     80.8784E-03    -12.0240E+06    -55.8315E+06    -8.20466E+06    -2.84809E+06    -15.8884E-03     31.7397E-03    -15.8513E-03     16.6746E-03    -15.8562E-03     31.4904E-03    -15.7939E-03     16.6352E-03
             753     5.31539E-03     80.8954E-03    -11.2576E+06    -55.8262E+06    -7.04551E+06    -3.09625E+06    -15.9257E-03     31.7800E-03    -15.8543E-03     20.3619E-03    -15.8917E-03     31.5283E-03    -15.7923E-03     20.3185E-03
             754     6.20129E-03     80.9162E-03    -10.7178E+06    -53.4899E+06    -6.23934E+06    -3.62988E+06    -15.9698E-03     31.8229E-03    -15.8531E-03     24.2353E-03    -15.9381E-03     31.5814E-03    -15.7912E-03     24.1841E-03
             755     7.08721E-03     80.9404E-03    -10.7451E+06    -55.1111E+06    -5.45087E+06    -4.65791E+06    -16.0353E-03     31.8947E-03    -15.8594E-03     28.2712E-03    -16.0032E-03     31.6447E-03    -15.7912E-03     28.2056E-03
             756     7.97308E-03     80.9688E-03    -10.8203E+06    -57.0922E+06    -5.25474E+06    -4.96746E+06    -16.1105E-03     31.9750E-03    -15.8645E-03     32.4703E-03    -16.0772E-03     31.7159E-03    -15.7923E-03     32.3990E-03
             757     8.85894E-03     81.0008E-03    -9.87646E+06    -55.4309E+06    -5.38315E+06    -5.23036E+06    -16.1902E-03     32.0515E-03    -15.8614E-03     36.8293E-03    -16.1559E-03     31.8011E-03    -15.7936E-03     36.7524E-03
             758     9.74483E-03     81.0372E-03    -8.33632E+06    -51.8097E+06    -6.09859E+06    -5.67675E+06    -16.2757E-03     32.1270E-03    -15.8513E-03     41.2523E-03    -16.2405E-03     31.8959E-03    -15.7946E-03     41.1665E-03
             759     10.6307E-03     81.0773E-03    -7.11776E+06    -53.4078E+06    -7.45567E+06    -5.59582E+06    -16.3797E-03     32.2253E-03    -15.8456E-03     45.6183E-03    -16.3380E-03     31.9904E-03    -15.7951E-03     45.5294E-03
             760     11.5166E-03     81.1218E-03    -6.14728E+06    -47.3442E+06    -6.74803E+06    -5.43182E+06    -16.4675E-03     32.3063E-03    -15.8388E-03     50.3342E-03    -16.4371E-03     32.1055E-03    -15.7950E-03     50.2421E-03
             761     12.4025E-03     81.1706E-03    -5.35778E+06    -39.0421E+06    -5.72243E+06    -4.86303E+06    -16.6373E-03     32.4671E-03    -15.8298E-03     57.2271E-03    -16.6282E-03     32.3170E-03    -15.7941E-03     57.1351E-03
             762     13.2884E-03     81.2278E-03    -5.06685E+06    -42.7521E+06    -15.3809E+06    -3.52959E+06    -16.8161E-03     32.6056E-03    -15.7894E-03     59.1570E-03    -16.8027E-03     32.4670E-03    -15.7970E-03     59.0736E-03
             763     14.1740E-03     81.2796E-03    -5.82103E+06    -28.8975E+06    -20.8727E+06    -2.25903E+06    -16.9310E-03     32.6792E-03    -15.7482E-03     65.0616E-03    -16.9677E-03     32.6531E-03    -15.8022E-03     64.9883E-03
             764     15.0606E-03     81.3480E-03    -7.25359E+06     12.7259E+06    -21.0405E+06     717.985E+03    -19.1818E-03     34.8867E-03    -15.7050E-03     106.567E-03    -19.5283E-03     35.3137E-03    -15.8181E-03     106.544E-03
             765     15.9442E-03     81.4793E-03    -9.58955E+06     75.6980E+06    -20.1153E+06     1.67775E+06    -22.2636E-03     37.8521E-03    -15.5885E-03     193.307E-03    -24.6075E-03     40.4890E-03    -15.7849E-03     194.036E-03
             766     16.8329E-03     81.7052E-03    -5.50040E+06     155.068E+06     46.6544E+06    -1.09489E+06    -28.1046E-03     43.7922E-03    -15.6876E-03     287.777E-03    -36.2004E-03     52.2840E-03    -15.6712E-03     293.183E-03
             767     885.847E-06     81.8203E-03    -14.5169E+06    -55.5086E+06    -14.3995E+06    -766.970E+03    -15.8410E-03     31.6843E-03    -15.8432E-03     3.51995E-03    -15.8122E-03     31.4489E-03    -15.8137E-03     3.50952E-03
             768     1.77177E-03     81.8249E-03    -14.1570E+06    -54.6412E+06    -13.3707E+06    -1.44950E+06    -15.8421E-03     31.6845E-03    -15.8424E-03     6.49108E-03    -15.8143E-03     31.4513E-03    -15.8095E-03     6.47139E-03
             769     2.65768E-03     81.8324E-03    -13.4341E+06    -53.6756E+06    -11.7318E+06    -2.06481E+06    -15.8526E-03     31.6979E-03    -15.8453E-03     9.76176E-03    -15.8250E-03     31.4662E-03    -15.8067E-03     9.73360E-03
             770     3.54355E-03     81.8431E-03    -12.6654E+06    -52.5091E+06    -10.0985E+06    -2.52285E+06    -15.8661E-03     31.7144E-03    -15.8483E-03     13.1607E-03    -15.8390E-03     31.4852E-03    -15.8042E-03     13.1261E-03
             771     4.42945E-03     81.8568E-03    -11.8758E+06    -54.6565E+06    -8.39825E+06    -2.96825E+06    -15.8949E-03     31.7513E-03    -15.8563E-03     16.6786E-03    -15.8634E-03     31.5079E-03    -15.8019E-03     16.6376E-03
             772     5.31534E-03     81.8741E-03    -10.9049E+06    -55.0482E+06    -7.46477E+06    -3.36290E+06    -15.9310E-03     31.7891E-03    -15.8581E-03     20.3741E-03    -15.8957E-03     31.5414E-03    -15.7998E-03     20.3272E-03
             773     6.20127E-03     81.8947E-03    -10.0381E+06    -52.3188E+06    -6.43724E+06    -3.55930E+06    -15.9726E-03     31.8288E-03    -15.8563E-03     24.2582E-03    -15.9389E-03     31.5924E-03    -15.7980E-03     24.2079E-03
             774     7.08713E-03     81.9191E-03    -9.60727E+06    -53.7212E+06    -4.71470E+06    -3.80026E+06    -16.0337E-03     31.8989E-03    -15.8652E-03     28.2969E-03    -15.9990E-03     31.6531E-03    -15.7969E-03     28.2423E-03
             775     7.97302E-03     81.9472E-03    -9.05585E+06    -55.7339E+06    -4.33448E+06    -4.88943E+06    -16.0942E-03     31.9624E-03    -15.8681E-03     32.5382E-03    -16.0554E-03     31.7061E-03    -15.7958E-03     32.4680E-03
             776     8.85895E-03     81.9795E-03    -7.91517E+06    -53.6880E+06    -4.57251E+06    -6.36734E+06    -16.1471E-03     32.0067E-03    -15.8596E-03     36.9556E-03    -16.1067E-03     31.7609E-03    -15.7932E-03     36.8641E-03
             777     9.74488E-03     82.0156E-03    -6.77264E+06    -51.4268E+06    -5.31607E+06    -6.74363E+06    -16.2217E-03     32.0684E-03    -15.8467E-03     41.4226E-03    -16.1802E-03     31.8358E-03    -15.7889E-03     41.3233E-03
             778     10.6308E-03     82.0561E-03    -6.11071E+06    -53.2468E+06    -5.92927E+06    -6.31642E+06    -16.3220E-03     32.1631E-03    -15.8411E-03     45.8206E-03    -16.2777E-03     31.9252E-03    -15.7846E-03     45.7226E-03
             779     11.5168E-03     82.1002E-03    -5.71080E+06    -46.9565E+06    -5.23293E+06    -6.15266E+06    -16.3750E-03     32.2043E-03    -15.8293E-03     50.5717E-03    -16.3451E-03     32.0025E-03    -15.7791E-03     50.4705E-03
             780     12.4028E-03     82.1493E-03    -5.39073E+06    -40.0050E+06    -5.49005E+06    -5.44153E+06    -16.4900E-03     32.2987E-03    -15.8087E-03     57.4691E-03    -16.4798E-03     32.1432E-03    -15.7703E-03     57.3701E-03
             781     13.2890E-03     82.2060E-03    -5.47058E+06    -44.2467E+06    -14.9013E+06    -3.90552E+06    -16.7561E-03     32.5208E-03    -15.7647E-03     59.5997E-03    -16.7431E-03     32.3745E-03    -15.7671E-03     59.5118E-03
             782     14.1746E-03     82.2591E-03    -6.01396E+06    -30.1377E+06    -20.6900E+06    -2.16892E+06    -17.1904E-03     32.9188E-03    -15.7284E-03     65.4648E-03    -17.2288E-03     32.8888E-03    -15.7794E-03     65.3910E-03
             783     15.0592E-03     82.3265E-03    -6.16407E+06     6.37562E+06    -22.0260E+06     836.290E+03    -17.6074E-03     33.2545E-03    -15.6471E-03     107.135E-03    -17.9229E-03     33.6347E-03    -15.7575E-03     107.127E-03
             784     15.9486E-03     82.4575E-03    -1.00866E+06     77.7843E+06    -12.6567E+06     1.63240E+06    -20.0635E-03     35.5253E-03    -15.4618E-03     188.140E-03    -22.2619E-03     38.0328E-03    -15.6365E-03     188.866E-03
             785     16.8466E-03     82.6726E-03    -1.22821E+06     160.306E+06     54.4049E+06    -1.40854E+06    -30.2164E-03     45.8025E-03    -15.5861E-03     285.813E-03    -38.4778E-03     54.4712E-03    -15.5448E-03     291.020E-03
             786     885.892E-06     82.7990E-03    -14.7852E+06    -53.8759E+06    -14.7315E+06    -919.873E+03    -15.8484E-03     31.6937E-03    -15.8452E-03     3.50703E-03    -15.8228E-03     31.4673E-03    -15.8193E-03     3.49464E-03
             787     1.77177E-03     82.8034E-03    -14.3670E+06    -52.9240E+06    -13.5086E+06    -1.64743E+06    -15.8467E-03     31.6943E-03    -15.8476E-03     6.48849E-03    -15.8223E-03     31.4702E-03    -15.8176E-03     6.46624E-03
             788     2.65761E-03     82.8110E-03    -13.6212E+06    -52.1943E+06    -11.8885E+06    -2.39789E+06    -15.8574E-03     31.7080E-03    -15.8507E-03     9.76142E-03    -15.8327E-03     31.4842E-03    -15.8147E-03     9.72897E-03
             789     3.54352E-03     82.8216E-03    -12.6485E+06    -51.4521E+06    -10.3824E+06    -2.80297E+06    -15.8675E-03     31.7201E-03    -15.8526E-03     13.1678E-03    -15.8414E-03     31.4966E-03    -15.8116E-03     13.1295E-03
             790     4.42942E-03     82.8355E-03    -11.7278E+06    -53.4082E+06    -8.58995E+06    -3.18334E+06    -15.8968E-03     31.7566E-03    -15.8597E-03     16.6905E-03    -15.8661E-03     31.5195E-03    -15.8082E-03     16.6467E-03
             791     5.31532E-03     82.8525E-03    -10.8505E+06    -53.8412E+06    -7.51768E+06    -3.81681E+06    -15.9294E-03     31.7909E-03    -15.8615E-03     20.3904E-03    -15.8955E-03     31.5492E-03    -15.8053E-03     20.3377E-03
             792     6.20120E-03     82.8733E-03    -9.87528E+06    -51.8469E+06    -7.14966E+06    -4.00177E+06    -15.9557E-03     31.8109E-03    -15.8552E-03     24.2952E-03    -15.9208E-03     31.5777E-03    -15.8015E-03     24.2392E-03
             793     7.08716E-03     82.8976E-03    -8.70915E+06    -52.8030E+06    -5.17831E+06    -4.01553E+06    -15.9982E-03     31.8578E-03    -15.8596E-03     28.3582E-03    -15.9596E-03     31.6159E-03    -15.7963E-03     28.3009E-03
             794     7.97309E-03     82.9259E-03    -7.59695E+06    -52.9993E+06    -2.87603E+06    -5.26904E+06    -16.0432E-03     31.9069E-03    -15.8636E-03     32.5985E-03    -16.0031E-03     31.6600E-03    -15.7901E-03     32.5234E-03
             795     8.85904E-03     82.9579E-03    -7.00762E+06    -51.7224E+06    -3.10446E+06    -6.84609E+06    -16.0809E-03     31.9326E-03    -15.8517E-03     37.0119E-03    -16.0409E-03     31.6931E-03    -15.7820E-03     36.9144E-03
             796     9.74508E-03     82.9942E-03    -7.10428E+06    -51.5057E+06    -5.11276E+06    -6.85203E+06    -16.1485E-03     31.9804E-03    -15.8319E-03     41.4924E-03    -16.1088E-03     31.7475E-03    -15.7725E-03     41.3918E-03
             797     10.6311E-03     83.0344E-03    -7.15348E+06    -52.6056E+06    -5.64948E+06    -6.68199E+06    -16.2227E-03     32.0438E-03    -15.8210E-03     45.8661E-03    -16.1849E-03     31.8101E-03    -15.7626E-03     45.7635E-03
             798     11.5171E-03     83.0788E-03    -6.30919E+06    -46.2215E+06    -4.55251E+06    -7.08763E+06    -16.2732E-03     32.0780E-03    -15.8048E-03     50.5758E-03    -16.2482E-03     31.8797E-03    -15.7514E-03     50.4627E-03
             799     12.4033E-03     83.1274E-03    -5.12483E+06    -41.6372E+06    -5.68936E+06     -6.1219E+06    -16.4295E-03     32.2078E-03    -15.7782E-03     57.4403E-03    -16.4153E-03     32.0440E-03    -15.7389E-03     57.3326E-03
             800     13.2893E-03     83.1846E-03    -4.81745E+06    -45.8876E+06    -14.8727E+06    -4.13194E+06    -16.6467E-03     32.3774E-03    -15.7307E-03     59.9494E-03    -16.6282E-03     32.2221E-03    -15.7316E-03     59.8587E-03
             801     14.1751E-03     83.2379E-03    -4.79229E+06    -31.4236E+06    -20.0483E+06    -2.81999E+06    -16.8124E-03     32.4945E-03    -15.6821E-03     66.0034E-03    -16.8434E-03     32.4551E-03    -15.7298E-03     65.9228E-03
             802     15.0616E-03     83.3059E-03    -3.98762E+06     5.43178E+06    -20.8260E+06    -1.98594E+06    -17.3283E-03     32.9193E-03    -15.5910E-03     103.647E-03    -17.6175E-03     33.2740E-03    -15.6972E-03     103.603E-03
             803     15.9522E-03     83.4271E-03    -3.26612E+06     76.3163E+06    -11.9334E+06    -1.74835E+06    -23.4086E-03     38.9183E-03    -15.5098E-03     184.614E-03    -25.6801E-03     41.4835E-03    -15.6754E-03     185.150E-03
             804     16.8254E-03     83.6566E-03    -4.14170E+06     159.756E+06     54.6229E+06    -313.141E+03    -30.6099E-03     46.3535E-03    -15.7436E-03     284.263E-03    -38.8526E-03     54.9904E-03    -15.6961E-03     289.621E-03
             805     885.846E-06     83.7775E-03    -14.5010E+06    -51.9106E+06    -14.2640E+06    -1.16810E+06    -15.8590E-03     31.7117E-03    -15.8527E-03     3.45190E-03    -15.8355E-03     31.4941E-03    -15.8277E-03     3.43632E-03
             806     1.77172E-03     83.7821E-03    -13.9191E+06     -51.086E+06    -13.1321E+06    -1.88209E+06    -15.8450E-03     31.6994E-03    -15.8544E-03     6.50503E-03    -15.8215E-03     31.4833E-03    -15.8258E-03     6.47976E-03
             807     2.65764E-03     83.7895E-03    -13.2751E+06    -50.4670E+06    -11.7035E+06    -2.63921E+06    -15.8546E-03     31.7081E-03    -15.8535E-03     9.77938E-03    -15.8310E-03     31.4921E-03    -15.8196E-03     9.74381E-03
             808     3.54350E-03     83.8002E-03    -12.5037E+06    -50.2822E+06    -10.3098E+06    -3.23288E+06    -15.8692E-03     31.7239E-03    -15.8547E-03     13.1816E-03    -15.8442E-03     31.5059E-03    -15.8152E-03     13.1378E-03
             809     4.42941E-03     83.8140E-03    -11.5950E+06    -52.3066E+06    -8.75504E+06    -3.49312E+06    -15.8919E-03     31.7518E-03    -15.8599E-03     16.7073E-03    -15.8619E-03     31.5203E-03    -15.8110E-03     16.6595E-03
             810     5.31529E-03     83.8312E-03    -10.8685E+06    -52.2283E+06    -7.81641E+06    -4.03571E+06    -15.9096E-03     31.7678E-03    -15.8583E-03     20.4167E-03    -15.8777E-03     31.5347E-03    -15.8059E-03     20.3612E-03
             811     6.20125E-03     83.8518E-03    -9.86731E+06    -50.8357E+06    -7.42067E+06    -4.94384E+06    -15.9231E-03     31.7724E-03    -15.8493E-03     24.3253E-03    -15.8893E-03     31.5446E-03    -15.7984E-03     24.2572E-03
             812     7.08719E-03     83.8762E-03    -8.17337E+06    -52.0257E+06    -5.70972E+06    -5.37688E+06    -15.9512E-03     31.7985E-03    -15.8473E-03     28.4002E-03    -15.9103E-03     31.5604E-03    -15.7886E-03     28.3254E-03
             813     7.97319E-03     83.9043E-03    -6.60176E+06    -50.5992E+06    -2.38725E+06    -5.88988E+06    -15.9894E-03     31.8379E-03    -15.8484E-03     32.6209E-03    -15.9485E-03     31.6008E-03    -15.7774E-03     32.5379E-03
             814     8.85923E-03     83.9364E-03    -6.10636E+06    -50.4173E+06    -890.514E+03    -6.36273E+06    -16.0414E-03     31.8848E-03    -15.8434E-03     36.9608E-03    -16.0020E-03     31.6473E-03    -15.7659E-03     36.8695E-03
             815     9.74528E-03     83.9725E-03    -6.46472E+06    -51.7216E+06    -3.76213E+06    -6.02840E+06    -16.0938E-03     31.9130E-03    -15.8192E-03     41.4155E-03    -16.0526E-03     31.6761E-03    -15.7536E-03     41.3256E-03
             816     10.6313E-03     84.0129E-03    -6.69558E+06    -50.5043E+06    -5.33322E+06    -6.77399E+06    -16.1528E-03     31.9493E-03    -15.7965E-03     45.7759E-03    -16.1161E-03     31.7250E-03    -15.7403E-03     45.6723E-03
             817     11.5175E-03     84.0568E-03    -6.23118E+06    -45.1628E+06    -4.05141E+06    -8.10344E+06    -16.2350E-03     32.0162E-03    -15.7812E-03     50.4474E-03    -16.2119E-03     31.8223E-03    -15.7269E-03     50.3212E-03
             818     12.4035E-03     84.1060E-03    -5.74929E+06    -44.0044E+06    -6.67713E+06    -6.86729E+06    -16.4069E-03     32.1599E-03    -15.7530E-03     57.2618E-03    -16.3908E-03     31.9865E-03    -15.7143E-03     57.1446E-03
             819     13.2898E-03     84.1626E-03    -5.38375E+06    -47.1073E+06    -16.0453E+06    -5.03751E+06    -16.5198E-03     32.2196E-03    -15.6998E-03     59.8756E-03    -16.5007E-03     32.0607E-03    -15.7039E-03     59.7736E-03
             820     14.1760E-03     84.2167E-03    -4.99397E+06    -31.9783E+06    -19.8136E+06    -4.38470E+06    -16.5332E-03     32.1802E-03    -15.6471E-03     65.0403E-03    -16.5619E-03     32.1352E-03    -15.6925E-03     64.9410E-03
             821     15.0628E-03     84.2826E-03    -5.14170E+06     5.12249E+06    -20.4356E+06    -3.41538E+06    -18.7511E-03     34.3462E-03    -15.5952E-03     102.274E-03    -19.0533E-03     34.7076E-03    -15.6973E-03     102.195E-03
             822     15.9433E-03     84.4072E-03    -6.62347E+06     73.3608E+06    -16.8903E+06    -1.65492E+06    -24.8606E-03     40.4210E-03    -15.5604E-03     190.044E-03    -27.2584E-03     43.1047E-03    -15.7416E-03     190.599E-03
             823     16.8333E-03     84.6437E-03    -5.48376E+06     157.908E+06     50.7475E+06     307.377E+03    -29.6680E-03     45.4514E-03    -15.7834E-03     287.111E-03    -37.8181E-03     53.9957E-03    -15.7507E-03     292.574E-03
             824     885.847E-06     84.7562E-03    -13.6940E+06    -49.5546E+06    -13.4664E+06    -1.25153E+06    -15.8471E-03     31.7092E-03    -15.8621E-03     3.44709E-03    -15.8241E-03     31.5010E-03    -15.8377E-03     3.43043E-03
             825     1.77175E-03     84.7606E-03    -13.2085E+06    -49.0678E+06    -12.5887E+06    -2.19026E+06    -15.8478E-03     31.7011E-03    -15.8533E-03     6.51688E-03    -15.8245E-03     31.4932E-03    -15.8259E-03     6.48763E-03
             826     2.65761E-03     84.7682E-03    -12.4190E+06    -48.6163E+06    -11.1089E+06    -2.98170E+06    -15.8549E-03     31.7080E-03    -15.8532E-03     9.78081E-03    -15.8305E-03     31.4992E-03    -15.8202E-03     9.74083E-03
             827     3.54351E-03     84.7787E-03    -11.6363E+06    -48.9189E+06    -9.52340E+06    -3.48525E+06    -15.8643E-03     31.7194E-03    -15.8551E-03     13.1832E-03    -15.8381E-03     31.5059E-03    -15.8149E-03     13.1361E-03
             828     4.42940E-03     84.7926E-03    -10.8647E+06    -51.2212E+06    -8.24527E+06    -3.86254E+06    -15.8747E-03     31.7319E-03    -15.8572E-03     16.7153E-03    -15.8433E-03     31.5040E-03    -15.8084E-03     16.6627E-03
             829     5.31536E-03     84.8097E-03    -9.78246E+06    -50.4456E+06    -7.41635E+06    -4.52042E+06    -15.8815E-03     31.7313E-03    -15.8499E-03     20.4300E-03    -15.8473E-03     31.5049E-03    -15.7996E-03     20.3682E-03
             830     6.20129E-03     84.8304E-03    -8.81914E+06    -48.7521E+06    -6.40528E+06    -5.68752E+06    -15.8925E-03     31.7326E-03    -15.8401E-03     24.3286E-03    -15.8579E-03     31.5122E-03    -15.7886E-03     24.2510E-03
             831     7.08730E-03     84.8546E-03    -7.90977E+06    -50.8318E+06    -5.39240E+06    -6.73617E+06    -15.9169E-03     31.7511E-03    -15.8342E-03     28.3989E-03    -15.8769E-03     31.5182E-03    -15.7760E-03     28.3066E-03
             832     7.97334E-03     84.8828E-03    -6.92299E+06    -49.8541E+06    -3.14785E+06    -6.55955E+06    -15.9573E-03     31.7865E-03    -15.8293E-03     32.6181E-03    -15.9179E-03     31.5548E-03    -15.7627E-03     32.5265E-03
             833     8.85936E-03     84.9148E-03    -6.16927E+06    -49.8330E+06     76.5083E+03    -5.97901E+06    -16.0203E-03     31.8521E-03    -15.8318E-03     36.9059E-03    -15.9835E-03     31.6162E-03    -15.7502E-03     36.8196E-03
             834     9.74538E-03     84.9509E-03    -5.21544E+06    -51.2797E+06    -1.80429E+06    -6.08447E+06    -16.0749E-03     31.8855E-03    -15.8106E-03     41.2925E-03    -16.0309E-03     31.6461E-03    -15.7377E-03     41.2019E-03
             835     10.6316E-03     84.9910E-03    -4.16134E+06    -47.8229E+06    -3.87424E+06    -7.07186E+06    -16.1634E-03     31.9445E-03    -15.7811E-03     45.6908E-03    -16.1200E-03     31.7278E-03    -15.7251E-03     45.5833E-03
             836     11.5175E-03     85.0354E-03    -4.21291E+06    -44.2836E+06    -1.74336E+06    -7.77276E+06    -16.2628E-03     32.0386E-03    -15.7758E-03     50.2337E-03    -16.2342E-03     31.8429E-03    -15.7142E-03     50.1117E-03
             837     12.4038E-03     85.0840E-03    -4.72543E+06    -45.8871E+06    -5.60400E+06    -6.86551E+06    -16.4487E-03     32.1990E-03    -15.7503E-03     56.9969E-03    -16.4263E-03     32.0131E-03    -15.7049E-03     56.8797E-03
             838     13.2897E-03     85.1411E-03    -4.89905E+06    -47.3342E+06    -15.7980E+06    -6.02473E+06    -16.5028E-03     32.1960E-03    -15.6932E-03     59.5155E-03    -16.4810E-03     32.0346E-03    -15.6965E-03     59.4010E-03
             839     14.1758E-03     85.1946E-03    -5.12404E+06    -32.6611E+06    -19.5179E+06    -5.21447E+06    -16.6933E-03     32.3408E-03    -15.6475E-03     64.7626E-03    -16.7218E-03     32.2918E-03    -15.6903E-03     64.6519E-03
             840     15.0610E-03     85.2614E-03    -5.81748E+06     1.97231E+06    -21.8776E+06    -3.39284E+06    -18.6166E-03     34.2051E-03    -15.5885E-03     104.540E-03    -18.9264E-03     34.5646E-03    -15.6923E-03     104.465E-03
             841     15.9490E-03     85.3899E-03    -6.20481E+06     71.9045E+06    -17.5993E+06    -1.12721E+06    -23.2697E-03     38.7707E-03    -15.5010E-03     191.505E-03    -25.6451E-03     41.4304E-03    -15.6843E-03     192.149E-03
             842     16.8356E-03     85.6156E-03    -4.53733E+06     158.302E+06     50.9421E+06    -109.265E+03    -29.8167E-03     45.5107E-03    -15.6940E-03     284.804E-03    -37.8487E-03     53.9409E-03    -15.6623E-03     290.101E-03
             843     885.900E-06     85.7347E-03    -13.0487E+06    -47.0806E+06    -12.8803E+06    -1.24340E+06    -15.8235E-03     31.6863E-03    -15.8628E-03     3.42741E-03    -15.8017E-03     31.4887E-03    -15.8400E-03     3.41087E-03
             844     1.77173E-03     85.7393E-03    -12.7769E+06    -46.5867E+06    -12.0293E+06    -2.40644E+06    -15.8507E-03     31.6956E-03    -15.8448E-03     6.51890E-03    -15.8297E-03     31.4987E-03    -15.8189E-03     6.48687E-03
             845     2.65762E-03     85.7467E-03    -12.1103E+06    -46.5821E+06    -10.7779E+06    -3.44746E+06    -15.8470E-03     31.6942E-03    -15.8472E-03     9.79478E-03    -15.8246E-03     31.4946E-03    -15.8160E-03     9.74879E-03
             846     3.54352E-03     85.7574E-03    -11.1391E+06    -47.6472E+06    -9.03833E+06    -3.88870E+06    -15.8448E-03     31.6935E-03    -15.8488E-03     13.1943E-03    -15.8186E-03     31.4849E-03    -15.8087E-03     13.1421E-03
             847     4.42946E-03     85.7711E-03    -9.84884E+06    -49.4622E+06    -7.19172E+06    -4.52939E+06    -15.8514E-03     31.7005E-03    -15.8491E-03     16.7198E-03    -15.8190E-03     31.4784E-03    -15.7991E-03     16.6587E-03
             848     5.31539E-03     85.7882E-03    -8.42397E+06    -48.5379E+06    -6.51060E+06    -5.57255E+06    -15.8559E-03     31.6934E-03    -15.8375E-03     20.4349E-03    -15.8190E-03     31.4732E-03    -15.7874E-03     20.3596E-03
             849     6.20140E-03     85.8088E-03    -7.17041E+06    -46.7234E+06    -5.18377E+06    -6.29663E+06    -15.8683E-03     31.6947E-03    -15.8264E-03     24.3239E-03    -15.8302E-03     31.4803E-03    -15.7742E-03     24.2384E-03
             850     7.08741E-03     85.8330E-03    -6.73535E+06    -49.2601E+06    -3.34203E+06    -6.81188E+06    -15.9067E-03     31.7321E-03    -15.8254E-03     28.3629E-03    -15.8661E-03     31.5023E-03    -15.7609E-03     28.2696E-03
             851     7.97342E-03     85.8611E-03    -6.63737E+06    -49.9047E+06    -2.78205E+06    -6.75202E+06    -15.9464E-03     31.7625E-03    -15.8162E-03     32.5963E-03    -15.9061E-03     31.5296E-03    -15.7481E-03     32.5022E-03
             852     8.85949E-03     85.8932E-03    -5.64206E+06    -49.1564E+06    -383.465E+03    -6.56761E+06    -16.0023E-03     31.8153E-03    -15.8130E-03     36.8964E-03    -15.9631E-03     31.5828E-03    -15.7355E-03     36.8025E-03
             853     9.74559E-03     85.9292E-03    -4.17684E+06    -49.9644E+06    -469.262E+03    -7.10081E+06    -16.0968E-03     31.8973E-03    -15.8005E-03     41.2329E-03    -16.0515E-03     31.6611E-03    -15.7243E-03     41.1291E-03
             854     10.6315E-03     85.9694E-03    -3.48485E+06    -46.3414E+06    -3.32229E+06    -7.53106E+06    -16.2010E-03     31.9719E-03    -15.7709E-03     45.7127E-03    -16.1572E-03     31.7609E-03    -15.7153E-03     45.5992E-03
             855     11.5177E-03     86.0138E-03    -3.33465E+06    -44.0568E+06    -776.776E+03    -7.12424E+06    -16.3019E-03     32.0747E-03    -15.7728E-03     50.2086E-03    -16.2707E-03     31.8775E-03    -15.7080E-03     50.0949E-03
             856     12.4035E-03     86.0623E-03    -3.25658E+06     -46.332E+06    -4.24500E+06    -6.74191E+06    -16.5046E-03     32.2575E-03    -15.7529E-03     57.0587E-03    -16.4764E-03     32.0655E-03    -15.7022E-03     56.9428E-03
             857     13.2896E-03     86.1195E-03    -3.50079E+06    -47.2965E+06    -15.4177E+06    -6.37702E+06    -16.5080E-03     32.2001E-03    -15.6921E-03     59.5172E-03    -16.4796E-03     32.0360E-03    -15.6955E-03     59.3982E-03
             858     14.1759E-03     86.1726E-03    -4.27144E+06    -33.8518E+06    -19.2999E+06    -5.34434E+06    -16.5075E-03     32.1492E-03    -15.6417E-03     65.3218E-03    -16.5311E-03     32.0935E-03    -15.6829E-03     65.2102E-03
             859     15.0624E-03     86.2406E-03    -4.57052E+06    -209.536E+03    -21.8578E+06    -4.09382E+06    -17.9994E-03     33.5590E-03    -15.5596E-03     104.426E-03    -18.2984E-03     33.9044E-03    -15.6620E-03     104.350E-03
             860     15.9491E-03     86.3649E-03    -5.63880E+06     70.1245E+06    -18.3496E+06    -1.56777E+06    -23.5572E-03     39.0225E-03    -15.4653E-03     189.540E-03    -25.8911E-03     41.6386E-03    -15.6506E-03     190.142E-03
             861     16.8338E-03     86.5982E-03    -4.99298E+06     157.603E+06     49.5196E+06    -45.8462E+03    -30.2361E-03     45.9187E-03    -15.6826E-03     283.671E-03    -38.2595E-03     54.3403E-03    -15.6563E-03     288.985E-03
             862     885.861E-06     86.7134E-03    -12.0178E+06    -44.5773E+06    -11.8352E+06    -1.33156E+06    -15.8076E-03     31.6598E-03    -15.8521E-03     3.47803E-03    -15.7859E-03     31.4717E-03    -15.8293E-03     3.46034E-03
             863     1.77178E-03     86.7179E-03    -11.5529E+06    -43.6993E+06    -10.6892E+06    -2.54392E+06    -15.8374E-03     31.6696E-03    -15.8322E-03     6.53177E-03    -15.8163E-03     31.4834E-03    -15.8055E-03     6.49797E-03
             864     2.65766E-03     86.7254E-03    -10.9613E+06    -44.4276E+06    -9.06429E+06    -3.60614E+06    -15.8310E-03     31.6682E-03    -15.8372E-03     9.79567E-03    -15.8084E-03     31.4752E-03    -15.8022E-03     9.74765E-03
             865     3.54358E-03     86.7359E-03    -10.1733E+06    -45.9487E+06    -7.70633E+06    -4.39622E+06    -15.8246E-03     31.6613E-03    -15.8367E-03     13.1937E-03    -15.7980E-03     31.4578E-03    -15.7939E-03     13.1349E-03
             866     4.42952E-03     86.7497E-03    -8.94462E+06    -47.0164E+06    -6.63700E+06    -5.54974E+06    -15.8248E-03     31.6553E-03    -15.8304E-03     16.7296E-03    -15.7923E-03     31.4433E-03    -15.7825E-03     16.6553E-03
             867     5.31551E-03     86.7667E-03    -7.70664E+06    -46.4765E+06    -5.94107E+06    -6.58034E+06    -15.8319E-03     31.6501E-03    -15.8182E-03     20.4386E-03    -15.7953E-03     31.4384E-03    -15.7694E-03     20.3504E-03
             868     6.20150E-03     86.7872E-03    -6.92228E+06    -45.4750E+06    -5.12964E+06    -6.90300E+06    -15.8492E-03     31.6552E-03    -15.8060E-03     24.3297E-03    -15.8117E-03     31.4466E-03    -15.7557E-03     24.2364E-03
             869     7.08753E-03     86.8115E-03    -6.40510E+06    -48.4023E+06    -3.04927E+06    -6.50385E+06    -15.8917E-03     31.6985E-03    -15.8068E-03     28.3678E-03    -15.8511E-03     31.4721E-03    -15.7426E-03     28.2785E-03
             870     7.97355E-03     86.8395E-03    -6.06198E+06    -48.9856E+06    -2.38460E+06    -6.59568E+06    -15.9337E-03     31.7317E-03    -15.7981E-03     32.6056E-03    -15.8924E-03     31.5020E-03    -15.7302E-03     32.5136E-03
             871     8.85963E-03     86.8715E-03    -5.38928E+06    -47.6814E+06    -1.79908E+06    -7.55081E+06    -15.9903E-03     31.7763E-03    -15.7860E-03     36.9608E-03    -15.9500E-03     31.5527E-03    -15.7180E-03     36.8543E-03
             872     9.74565E-03     86.9076E-03    -4.55732E+06    -49.0715E+06    -1.47981E+06    -7.81366E+06    -16.0962E-03     31.8743E-03    -15.7781E-03     41.3316E-03    -16.0526E-03     31.6446E-03    -15.7077E-03     41.2186E-03
             873     10.6317E-03     86.9477E-03    -4.41564E+06    -45.7641E+06    -4.08065E+06    -7.45743E+06    -16.1976E-03     31.9499E-03    -15.7523E-03     45.8546E-03    -16.1582E-03     31.7442E-03    -15.6999E-03     45.7421E-03
             874     11.5177E-03     86.9922E-03    -4.23313E+06    -43.8194E+06    -2.08136E+06    -7.40735E+06    -16.2894E-03     32.0418E-03    -15.7524E-03     50.4184E-03    -16.2611E-03     31.8490E-03    -15.6931E-03     50.3012E-03
             875     12.4039E-03     87.0407E-03    -3.49464E+06    -46.0536E+06    -4.59679E+06    -7.26706E+06    -16.4860E-03     32.2219E-03    -15.7359E-03     57.3139E-03    -16.4588E-03     32.0322E-03    -15.6870E-03     57.1914E-03
             876     13.2899E-03     87.0978E-03    -3.24023E+06    -47.3479E+06    -16.1026E+06    -6.91608E+06    -16.5342E-03     32.2082E-03    -15.6740E-03     59.6107E-03    -16.5035E-03     32.0446E-03    -15.6812E-03     59.4847E-03
             877     14.1760E-03     87.1506E-03    -3.27794E+06    -34.9445E+06    -19.3758E+06    -6.10829E+06    -16.4524E-03     32.0797E-03    -15.6274E-03     64.8600E-03    -16.4689E-03     32.0167E-03    -15.6688E-03     64.7390E-03
             878     15.0629E-03     87.2178E-03    -3.66709E+06    -2.39812E+06    -21.9400E+06    -4.15902E+06    -18.5057E-03     34.0665E-03    -15.5608E-03     104.151E-03    -18.7996E-03     34.4025E-03    -15.6617E-03     104.069E-03
             879     15.9475E-03     87.3451E-03    -5.52641E+06     67.6636E+06    -20.8221E+06    -1.48063E+06    -23.9153E-03     39.3940E-03    -15.4787E-03     190.084E-03    -26.2514E-03     42.0110E-03    -15.6729E-03     190.687E-03
             880     16.8335E-03     87.5765E-03    -4.44958E+06     157.019E+06     47.5401E+06     54.0376E+03    -29.6812E-03     45.3671E-03    -15.6859E-03     284.327E-03    -37.7168E-03     53.8065E-03    -15.6694E-03     289.696E-03
             881     885.938E-06     87.6919E-03    -10.9198E+06    -41.7734E+06    -10.7468E+06    -1.55699E+06    -15.8041E-03     31.6203E-03    -15.8162E-03     3.51876E-03    -15.7825E-03     31.4431E-03    -15.7935E-03     3.49816E-03
             882     1.77179E-03     87.6965E-03    -10.3585E+06    -40.8215E+06    -9.48777E+06    -2.72600E+06    -15.8109E-03     31.6223E-03    -15.8114E-03     6.52529E-03    -15.7898E-03     31.4470E-03    -15.7846E-03     6.48915E-03
             883     2.65772E-03     87.7039E-03    -9.62755E+06    -42.2184E+06    -7.47612E+06    -3.67738E+06    -15.8042E-03     31.6211E-03    -15.8169E-03     9.79190E-03    -15.7805E-03     31.4349E-03    -15.7791E-03     9.74296E-03
             884     3.54365E-03     87.7144E-03    -8.66889E+06    -43.4722E+06    -6.24201E+06    -4.77222E+06    -15.8009E-03     31.6150E-03    -15.8142E-03     13.1920E-03    -15.7724E-03     31.4196E-03    -15.7698E-03     13.1283E-03
             885     4.42963E-03     87.7281E-03    -7.80590E+06    -44.0421E+06    -5.94898E+06    -6.28752E+06    -15.7988E-03     31.6022E-03    -15.8034E-03     16.7346E-03    -15.7658E-03     31.4025E-03    -15.7580E-03     16.6508E-03
             886     5.31563E-03     87.7451E-03    -7.10263E+06    -44.6717E+06    -5.81921E+06    -7.21488E+06    -15.8070E-03     31.5977E-03    -15.7907E-03     20.4455E-03    -15.7701E-03     31.3939E-03    -15.7447E-03     20.3490E-03
             887     6.20165E-03     87.7656E-03    -6.61732E+06    -44.5810E+06    -5.64489E+06    -7.16689E+06    -15.8228E-03     31.5995E-03    -15.7767E-03     24.3516E-03    -15.7843E-03     31.3957E-03    -15.7307E-03     24.2549E-03
             888     7.08770E-03     87.7898E-03    -6.12115E+06    -48.1447E+06    -4.23961E+06    -6.76768E+06    -15.8598E-03     31.6341E-03    -15.7743E-03     28.4158E-03    -15.8164E-03     31.4104E-03    -15.7169E-03     28.3231E-03
             889     7.97378E-03     87.8178E-03    -5.29955E+06    -47.3951E+06    -2.50593E+06    -6.81828E+06    -15.9070E-03     31.6746E-03    -15.7676E-03     32.6705E-03    -15.8640E-03     31.4518E-03    -15.7037E-03     32.5756E-03
             890     8.85984E-03     87.8498E-03    -4.92176E+06    -45.6703E+06    -1.56003E+06    -7.66559E+06    -15.9645E-03     31.7214E-03    -15.7569E-03     37.0632E-03    -15.9251E-03     31.5069E-03    -15.6913E-03     36.9553E-03
             891     9.74598E-03     87.8859E-03    -4.94743E+06    -48.8547E+06    -1.86460E+06    -7.90242E+06    -16.0575E-03     31.8066E-03    -15.7491E-03     41.4821E-03    -16.0155E-03     31.5791E-03    -15.6804E-03     41.3681E-03
             892     10.6320E-03     87.9261E-03    -4.66887E+06    -45.3497E+06    -3.92207E+06    -7.49262E+06    -16.1639E-03     31.8887E-03    -15.7247E-03     46.0041E-03    -16.1266E-03     31.6851E-03    -15.6718E-03     45.8912E-03
             893     11.5182E-03     87.9705E-03    -4.32574E+06    -42.7609E+06    -1.59936E+06    -7.72734E+06    -16.2634E-03     31.9885E-03    -15.7251E-03     50.5579E-03    -16.2378E-03     31.8004E-03    -15.6648E-03     50.4366E-03
             894     12.4042E-03     88.0190E-03    -3.63425E+06    -45.3948E+06    -4.29748E+06    -8.36988E+06    -16.4781E-03     32.1872E-03    -15.7091E-03     57.3956E-03    -16.4531E-03     32.0006E-03    -15.6595E-03     57.2589E-03
             895     13.2903E-03     88.0761E-03    -2.74071E+06    -47.6241E+06    -16.0291E+06    -8.07338E+06    -16.6218E-03     32.2726E-03    -15.6508E-03     59.6335E-03    -16.5884E-03     32.1068E-03    -15.6579E-03     59.4924E-03
             896     14.1762E-03     88.1289E-03    -3.21571E+06    -36.2747E+06    -19.4499E+06    -6.52475E+06    -16.8487E-03     32.4705E-03    -15.6218E-03     64.7416E-03    -16.8636E-03     32.4016E-03    -15.6618E-03     64.6136E-03
             897     15.0617E-03     88.1957E-03    -4.32956E+06    -5.16345E+06    -22.2730E+06    -4.40619E+06    -18.7458E-03     34.3202E-03    -15.5744E-03     105.186E-03    -19.0434E-03     34.6487E-03    -15.6720E-03     105.100E-03
             898     15.9477E-03     88.3255E-03    -4.24624E+06     64.9804E+06    -23.0884E+06    -1.39777E+06    -23.3738E-03     38.8434E-03    -15.4696E-03     190.379E-03    -25.6890E-03     41.4412E-03    -15.6731E-03     191.010E-03
             899     16.8350E-03     88.5524E-03    -3.50133E+06     156.501E+06     45.5544E+06     378.509E+03    -29.5340E-03     45.1903E-03    -15.6563E-03     284.547E-03    -37.6058E-03     53.6732E-03    -15.6504E-03     289.920E-03
             900     885.889E-06     88.6705E-03    -10.4010E+06    -38.4445E+06    -10.2756E+06    -1.80641E+06    -15.7829E-03     31.5609E-03    -15.7780E-03     3.52810E-03    -15.7642E-03     31.3989E-03    -15.7585E-03     3.50427E-03
             901     1.77186E-03     88.6750E-03    -10.0028E+06    -38.0808E+06    -9.33367E+06    -2.94363E+06    -15.7675E-03     31.5457E-03    -15.7781E-03     6.52995E-03    -15.7489E-03     31.3834E-03    -15.7551E-03     6.49100E-03
             902     2.65781E-03     88.6825E-03    -9.14602E+06    -39.6135E+06    -7.74810E+06    -4.09828E+06    -15.7653E-03     31.5431E-03    -15.7778E-03     9.79903E-03    -15.7425E-03     31.3697E-03    -15.7459E-03     9.74467E-03
             903     3.54379E-03     88.6929E-03    -8.02888E+06    -40.6399E+06    -6.37123E+06    -5.39389E+06    -15.7636E-03     31.5378E-03    -15.7742E-03     13.2004E-03    -15.7359E-03     31.3558E-03    -15.7355E-03     13.1288E-03
             904     4.42978E-03     88.7066E-03    -7.16463E+06    -41.0054E+06    -5.76742E+06    -6.65519E+06    -15.7643E-03     31.5289E-03    -15.7646E-03     16.7488E-03    -15.7328E-03     31.3432E-03    -15.7236E-03     16.6603E-03
             905     5.31580E-03     88.7235E-03    -6.74142E+06    -42.8908E+06    -5.94482E+06    -7.53041E+06    -15.7712E-03     31.5237E-03    -15.7526E-03     20.4703E-03    -15.7349E-03     31.3285E-03    -15.7103E-03     20.3698E-03
             906     6.20187E-03     88.7440E-03    -6.33235E+06    -43.8401E+06    -6.11858E+06    -7.53974E+06    -15.7835E-03     31.5215E-03    -15.7380E-03     24.3873E-03    -15.7440E-03     31.3216E-03    -15.6959E-03     24.2858E-03
             907     7.08796E-03     88.7681E-03    -5.48018E+06    -47.2288E+06    -4.41163E+06    -7.53769E+06    -15.8194E-03     31.5549E-03    -15.7355E-03     28.4694E-03    -15.7738E-03     31.3350E-03    -15.6811E-03     28.3669E-03
             908     7.97406E-03     88.7961E-03    -4.36664E+06    -46.3616E+06    -2.25640E+06    -7.61654E+06    -15.8584E-03     31.5873E-03    -15.7289E-03     32.7526E-03    -15.8126E-03     31.3679E-03    -15.6666E-03     32.6476E-03
             909     8.86021E-03     88.8281E-03    -3.51566E+06    -44.2109E+06     18.2381E+03    -7.48836E+06    -15.9141E-03     31.6360E-03    -15.7219E-03     37.1562E-03    -15.8720E-03     31.4244E-03    -15.6526E-03     37.0507E-03
             910     9.74631E-03     88.8641E-03    -3.29337E+06    -48.3978E+06    -358.591E+03    -7.49929E+06    -16.0139E-03     31.7274E-03    -15.7135E-03     41.6027E-03    -15.9665E-03     31.4975E-03    -15.6404E-03     41.4940E-03
             911     10.6325E-03     88.9043E-03    -3.64564E+06    -44.9194E+06    -3.68524E+06    -7.35660E+06    -16.1250E-03     31.8079E-03    -15.6829E-03     46.1727E-03    -16.0834E-03     31.6046E-03    -15.6309E-03     46.0618E-03
             912     11.5185E-03     88.9487E-03    -3.54554E+06    -40.9114E+06    -1.06436E+06    -7.99855E+06    -16.2566E-03     31.9405E-03    -15.6839E-03     50.7475E-03    -16.2305E-03     31.7597E-03    -15.6247E-03     50.6228E-03
             913     12.4047E-03     88.9973E-03    -3.19529E+06    -44.0481E+06    -3.84778E+06    -9.05315E+06    -16.5328E-03     32.2056E-03    -15.6728E-03     57.6115E-03    -16.5082E-03     32.0245E-03    -15.6235E-03     57.4659E-03
             914     13.2906E-03     89.0544E-03    -3.77128E+06    -48.4500E+06    -16.6026E+06    -8.71877E+06    -16.7095E-03     32.3310E-03    -15.6215E-03     59.8449E-03    -16.6793E-03     32.1635E-03    -15.6288E-03     59.6954E-03
             915     14.1765E-03     89.1074E-03    -3.66637E+06    -37.7174E+06    -19.6479E+06    -7.45656E+06    -17.0149E-03     32.6183E-03    -15.6034E-03     65.3808E-03    -17.0308E-03     32.5443E-03    -15.6416E-03     65.2402E-03
             916     15.0621E-03     89.1750E-03    -3.24412E+06    -8.09660E+06    -22.1319E+06    -4.99132E+06    -18.6537E-03     34.2134E-03    -15.5597E-03     105.731E-03    -18.9410E-03     34.5246E-03    -15.6539E-03     105.640E-03
             917     15.9486E-03     89.3029E-03    -4.78787E+06     61.3835E+06    -24.2206E+06    -1.53517E+06    -23.3305E-03     38.7796E-03    -15.4491E-03     190.062E-03    -25.6387E-03     41.3589E-03    -15.6522E-03     190.688E-03
             918     16.8345E-03     89.5310E-03    -4.53632E+06     156.017E+06     45.0781E+06     302.662E+03    -29.6616E-03     45.3013E-03    -15.6397E-03     284.444E-03    -37.7471E-03     53.7939E-03    -15.6340E-03     289.818E-03
             919     885.972E-06     89.6490E-03    -8.61082E+06    -34.9161E+06    -8.37361E+06    -1.74581E+06    -15.7590E-03     31.4766E-03    -15.7176E-03     3.53196E-03    -15.7392E-03     31.3268E-03    -15.6963E-03     3.50892E-03
             920     1.77194E-03     89.6535E-03    -8.43532E+06    -35.1063E+06    -8.22027E+06    -3.11751E+06    -15.7251E-03     31.4585E-03    -15.7334E-03     6.53245E-03    -15.7045E-03     31.3072E-03    -15.7113E-03     6.49126E-03
             921     2.65792E-03     89.6609E-03    -8.00380E+06    -36.3103E+06    -7.52755E+06    -4.69163E+06    -15.7187E-03     31.4468E-03    -15.7281E-03     9.80372E-03    -15.6953E-03     31.2880E-03    -15.7015E-03     9.74172E-03
             922     3.54394E-03     89.6713E-03    -7.18535E+06    -37.6401E+06    -6.53010E+06    -6.21492E+06    -15.7144E-03     31.4369E-03    -15.7225E-03     13.2172E-03    -15.6865E-03     31.2689E-03    -15.6902E-03     13.1350E-03
             923     4.42998E-03     89.6849E-03    -6.31253E+06    -38.3788E+06    -5.60714E+06    -7.19733E+06    -15.7136E-03     31.4276E-03    -15.7140E-03     16.7724E-03    -15.6819E-03     31.2535E-03    -15.6773E-03     16.6769E-03
             924     5.31606E-03     89.7018E-03    -5.82158E+06    -41.1500E+06    -4.77238E+06    -7.60030E+06    -15.7255E-03     31.4333E-03    -15.7078E-03     20.4915E-03    -15.6888E-03     31.2437E-03    -15.6636E-03     20.3901E-03
             925     6.20215E-03     89.7222E-03    -5.66584E+06    -42.7280E+06    -4.81743E+06    -7.79429E+06    -15.7376E-03     31.4328E-03    -15.6953E-03     24.4191E-03    -15.6982E-03     31.2356E-03    -15.6492E-03     24.3144E-03
             926     7.08828E-03     89.7464E-03    -5.20453E+06    -45.4067E+06    -4.05261E+06    -8.43206E+06    -15.7568E-03     31.4436E-03    -15.6867E-03     28.5375E-03    -15.7130E-03     31.2318E-03    -15.6336E-03     28.4235E-03
             927     7.97444E-03     89.7743E-03    -4.24293E+06    -45.7898E+06    -2.85338E+06    -8.63180E+06    -15.7864E-03     31.4616E-03    -15.6752E-03     32.8576E-03    -15.7399E-03     31.2457E-03    -15.6169E-03     32.7396E-03
             928     8.86064E-03     89.8063E-03    -3.20299E+06    -43.7895E+06    -805.253E+03    -8.01813E+06    -15.8397E-03     31.5040E-03    -15.6643E-03     37.3069E-03    -15.7954E-03     31.2951E-03    -15.6001E-03     37.1948E-03
             929     9.74688E-03     89.8423E-03    -2.54662E+06    -47.9962E+06     160.976E+03    -7.31196E+06    -15.9526E-03     31.6127E-03    -15.6601E-03     41.7713E-03    -15.9026E-03     31.3828E-03    -15.5860E-03     41.6653E-03
             930     10.6330E-03     89.8824E-03    -2.37508E+06    -44.3849E+06    -3.16196E+06    -7.01774E+06    -16.0832E-03     31.7113E-03    -15.6281E-03     46.3852E-03    -16.0367E-03     31.5079E-03    -15.5761E-03     46.2789E-03
             931     11.5193E-03     89.9270E-03    -2.28445E+06    -38.0838E+06     62.5339E+03    -8.23992E+06    -16.2433E-03     31.8734E-03    -15.6301E-03     51.0274E-03    -16.2166E-03     31.7032E-03    -15.5713E-03     50.8997E-03
             932     12.4053E-03     89.9756E-03    -1.54789E+06    -42.7792E+06    -1.44716E+06    -9.61036E+06    -16.5510E-03     32.1813E-03    -15.6303E-03     57.9378E-03    -16.5235E-03     32.0007E-03    -15.5733E-03     57.7851E-03
             933     13.2912E-03     90.0330E-03    -1.06128E+06    -49.5260E+06    -15.2687E+06    -8.82589E+06    -16.7924E-03     32.3734E-03    -15.5810E-03     60.2723E-03    -16.7492E-03     32.1949E-03    -15.5840E-03     60.1213E-03
             934     14.1770E-03     90.0857E-03    -2.54336E+06    -38.2418E+06    -18.8937E+06    -7.69458E+06    -17.0006E-03     32.5657E-03    -15.5651E-03     65.8206E-03    -17.0114E-03     32.4865E-03    -15.6004E-03     65.6771E-03
             935     15.0630E-03     90.1539E-03    -4.74932E+06    -11.7310E+06    -21.6954E+06    -5.34287E+06    -18.8657E-03     34.4018E-03    -15.5361E-03     105.580E-03    -19.1551E-03     34.6956E-03    -15.6207E-03     105.481E-03
             936     15.9486E-03     90.2809E-03    -5.43251E+06     57.6002E+06    -24.6019E+06    -1.51519E+06    -23.5033E-03     38.9378E-03    -15.4346E-03     189.588E-03    -25.8112E-03     41.5023E-03    -15.6332E-03     190.210E-03
             937     16.8345E-03     90.5105E-03    -4.21809E+06     155.784E+06     44.7481E+06     272.690E+03    -29.5110E-03     45.1307E-03    -15.6198E-03     284.903E-03    -37.5974E-03     53.6255E-03    -15.6158E-03     290.280E-03
             938     886.010E-06     90.6274E-03    -7.32854E+06    -31.4842E+06    -7.37864E+06    -1.68613E+06    -15.6945E-03     31.3583E-03    -15.6638E-03     3.48407E-03    -15.6747E-03     31.2224E-03    -15.6444E-03     3.46182E-03
             939     1.77202E-03     90.6319E-03    -7.16904E+06    -31.6516E+06    -7.06108E+06    -3.28910E+06    -15.6676E-03     31.3420E-03    -15.6744E-03     6.53093E-03    -15.6474E-03     31.2044E-03    -15.6534E-03     6.48755E-03
             940     2.65808E-03     90.6392E-03    -6.87003E+06    -32.5093E+06    -6.61022E+06    -5.07794E+06    -15.6573E-03     31.3247E-03    -15.6675E-03     9.81818E-03    -15.6351E-03     31.1819E-03    -15.6434E-03     9.75123E-03
             941     3.54414E-03     90.6496E-03    -6.53227E+06    -34.3109E+06    -5.99716E+06    -6.76126E+06    -15.6507E-03     31.3113E-03    -15.6606E-03     13.2372E-03    -15.6252E-03     31.1582E-03    -15.6314E-03     13.1480E-03
             942     4.43025E-03     90.6632E-03    -6.17294E+06    -36.1324E+06    -5.27336E+06    -7.65409E+06    -15.6484E-03     31.3012E-03    -15.6528E-03     16.7992E-03    -15.6197E-03     31.1377E-03    -15.6179E-03     16.6979E-03
             943     5.31637E-03     90.6801E-03    -5.59256E+06    -39.5707E+06    -4.19117E+06    -7.92043E+06    -15.6585E-03     31.3064E-03    -15.6480E-03     20.5302E-03    -15.6238E-03     31.1236E-03    -15.6034E-03     20.4248E-03
             944     6.20252E-03     90.7004E-03    -4.90552E+06    -41.3222E+06    -4.06879E+06    -8.01507E+06    -15.6614E-03     31.2956E-03    -15.6342E-03     24.4764E-03    -15.6213E-03     31.1032E-03    -15.5875E-03     24.3690E-03
             945     7.08871E-03     90.7245E-03    -4.69418E+06    -43.0133E+06    -4.14356E+06    -8.67708E+06    -15.6654E-03     31.2829E-03    -15.6175E-03     28.6362E-03    -15.6223E-03     31.0825E-03    -15.5691E-03     28.5193E-03
             946     7.97498E-03     90.7523E-03    -4.58576E+06    -44.9693E+06    -3.81956E+06    -9.30566E+06    -15.6920E-03     31.2939E-03    -15.6019E-03     33.0018E-03    -15.6470E-03     31.0840E-03    -15.5491E-03     32.8753E-03
             947     8.86126E-03     90.7843E-03    -4.21164E+06    -44.0493E+06    -2.34552E+06    -8.59743E+06    -15.7494E-03     31.3374E-03    -15.5880E-03     37.5054E-03    -15.7074E-03     31.1309E-03    -15.5298E-03     37.3860E-03
             948     9.74755E-03     90.8203E-03    -3.40225E+06    -47.6968E+06    -203.696E+03    -7.88165E+06    -15.8663E-03     31.4533E-03    -15.5870E-03     42.0064E-03    -15.8204E-03     31.2266E-03    -15.5139E-03     41.8933E-03
             949     10.6338E-03     90.8605E-03    -2.29349E+06    -43.8566E+06    -3.09344E+06    -7.65813E+06    -16.0275E-03     31.5827E-03    -15.5552E-03     46.6879E-03    -15.9814E-03     31.3817E-03    -15.5038E-03     46.5736E-03
             950     11.5200E-03     90.9050E-03    -1.88251E+06    -35.5545E+06    -6.71012E+03    -8.03247E+06    -16.2014E-03     31.7558E-03    -15.5544E-03     51.4236E-03    -16.1761E-03     31.5976E-03    -15.5001E-03     51.2989E-03
             951     12.4061E-03     90.9540E-03    -2.30261E+06    -40.3144E+06      31.228E+03    -9.88821E+06    -16.5076E-03     32.0734E-03    -15.5658E-03     58.3375E-03    -16.4896E-03     31.9039E-03    -15.5038E-03     58.1815E-03
             952     13.2922E-03     91.0111E-03    -2.94101E+06    -51.6817E+06    -15.7566E+06    -9.53119E+06    -16.8726E-03     32.3928E-03    -15.5202E-03     60.7997E-03    -16.8351E-03     32.2071E-03    -15.5198E-03     60.6396E-03
             953     14.1778E-03     91.0648E-03    -4.11155E+06    -39.5164E+06    -17.1886E+06    -6.44724E+06    -17.2020E-03     32.7282E-03    -15.5262E-03     65.9360E-03    -17.2218E-03     32.6429E-03    -15.5489E-03     65.8079E-03
             954     15.0635E-03     91.1318E-03    -5.75569E+06    -14.0756E+06    -18.6211E+06    -4.49607E+06    -18.8482E-03     34.3607E-03    -15.5124E-03     106.154E-03    -19.1435E-03     34.6395E-03    -15.5768E-03     106.067E-03
             955     15.9481E-03     91.2617E-03    -5.46790E+06     53.1051E+06    -26.1001E+06    -2.41254E+06    -23.7544E-03     39.1509E-03    -15.3964E-03     190.137E-03    -26.0622E-03     41.7034E-03    -15.5960E-03     190.740E-03
             956     16.8362E-03     91.4851E-03    -3.47402E+06     155.403E+06     44.0750E+06    -264.863E+03    -29.6394E-03     45.2320E-03    -15.5926E-03     284.015E-03    -37.6845E-03     53.6888E-03    -15.5926E-03     289.369E-03
             957     886.063E-06     91.6057E-03    -7.41489E+06    -27.8065E+06    -7.45233E+06    -1.93789E+06    -15.5751E-03     31.1951E-03    -15.6200E-03     3.51388E-03    -15.5610E-03     31.0778E-03    -15.6062E-03     3.48839E-03
             958     1.77218E-03     91.6101E-03    -6.97668E+06    -27.8783E+06    -6.69504E+06    -3.59497E+06    -15.5886E-03     31.1834E-03    -15.5949E-03     6.54235E-03    -15.5734E-03     31.0640E-03    -15.5778E-03     6.49505E-03
             959     2.65827E-03     91.6175E-03    -6.51164E+06    -28.6405E+06     -5.6105E+06    -5.29658E+06    -15.5779E-03     31.1692E-03    -15.5913E-03     9.83256E-03    -15.5609E-03     31.0437E-03    -15.5684E-03     9.76284E-03
             960     3.54441E-03     91.6278E-03    -6.20326E+06    -30.9067E+06    -4.61467E+06    -6.76783E+06    -15.5713E-03     31.1586E-03    -15.5873E-03     13.2532E-03    -15.5511E-03     31.0200E-03    -15.5565E-03     13.1640E-03
             961     4.43056E-03     91.6413E-03    -6.01379E+06    -33.9204E+06    -4.52780E+06    -7.67570E+06    -15.5626E-03     31.1403E-03    -15.5777E-03     16.8298E-03    -15.5375E-03     30.9865E-03    -15.5424E-03     16.7283E-03
             962     5.31677E-03     91.6582E-03    -5.72420E+06    -37.5392E+06    -5.03220E+06    -8.36792E+06    -15.5533E-03     31.1161E-03    -15.5627E-03     20.5985E-03    -15.5210E-03     30.9448E-03    -15.5252E-03     20.4875E-03
             963     6.20302E-03     91.6784E-03    -5.09022E+06    -39.9762E+06    -5.15937E+06    -8.77103E+06    -15.5458E-03     31.0902E-03    -15.5444E-03     24.5688E-03    -15.5070E-03     30.9064E-03    -15.5048E-03     24.4518E-03
             964     7.08935E-03     91.7024E-03    -4.30988E+06    -40.9786E+06    -4.19798E+06    -8.92119E+06    -15.5498E-03     31.0766E-03    -15.5269E-03     28.7547E-03    -15.5076E-03     30.8858E-03    -15.4822E-03     28.6348E-03
             965     7.97568E-03     91.7302E-03    -4.36878E+06    -43.9229E+06    -2.84740E+06    -8.94476E+06    -15.5837E-03     31.0988E-03    -15.5151E-03     33.1421E-03    -15.5404E-03     30.8923E-03    -15.4593E-03     33.0205E-03
             966     8.86209E-03     91.7621E-03    -4.57995E+06    -43.9884E+06    -2.22914E+06    -8.74588E+06    -15.6387E-03     31.1359E-03    -15.4972E-03     37.7154E-03    -15.5987E-03     30.9299E-03    -15.4379E-03     37.5944E-03
             967     9.74845E-03     91.7982E-03    -3.61096E+06    -46.3791E+06    -775.143E+03    -9.15299E+06    -15.7602E-03     31.2491E-03    -15.4889E-03     42.3211E-03    -15.7163E-03     31.0300E-03    -15.4203E-03     42.1920E-03
             968     10.6348E-03     91.8383E-03    -2.13779E+06    -44.0534E+06    -2.87523E+06    -8.99488E+06    -15.9398E-03     31.4017E-03    -15.4618E-03     47.0857E-03    -15.8928E-03     31.1990E-03    -15.4092E-03     46.9545E-03
             969     11.5211E-03     91.8832E-03    -902.416E+03    -34.1522E+06     808.912E+03    -8.42004E+06    -16.1565E-03     31.6182E-03    -15.4617E-03     51.9009E-03    -16.1294E-03     31.4643E-03    -15.4068E-03     51.7716E-03
             970     12.4073E-03     91.9320E-03    -1.18111E+06    -38.3181E+06     2.72381E+06    -8.31769E+06    -16.5233E-03     32.0094E-03    -15.4861E-03     58.6852E-03    -16.5064E-03     31.8444E-03    -15.4152E-03     58.5496E-03
             971     13.2932E-03     91.9897E-03    -4.01237E+06    -53.1577E+06    -15.5807E+06    -7.80404E+06    -16.9348E-03     32.3787E-03    -15.4439E-03     61.3894E-03    -16.9008E-03     32.1869E-03    -15.4389E-03     61.2517E-03
             972     14.1787E-03     92.0435E-03    -5.55567E+06    -41.2797E+06    -18.1000E+06    -6.96554E+06    -17.2318E-03     32.6839E-03    -15.4522E-03     66.7149E-03    -17.2551E-03     32.5935E-03    -15.4748E-03     66.5804E-03
             973     15.0638E-03     92.1111E-03    -4.60792E+06    -15.8307E+06    -17.1905E+06    -4.80090E+06    -18.7772E-03     34.2258E-03    -15.4486E-03     106.372E-03    -19.0660E-03     34.4919E-03    -15.5050E-03     106.282E-03
             974     15.9526E-03     92.2381E-03    -5.23163E+06     50.5017E+06    -26.5516E+06    -2.81744E+06    -24.1838E-03     39.5195E-03    -15.3357E-03     191.137E-03    -26.5052E-03     42.0787E-03    -15.5341E-03     191.720E-03
             975     16.8334E-03     92.4695E-03    -4.76680E+06     153.910E+06     43.3771E+06    -1.33568E+06    -30.0147E-03     45.5706E-03    -15.5559E-03     283.167E-03    -37.9947E-03     53.9543E-03    -15.5553E-03     288.493E-03
             976     886.189E-06     92.5839E-03    -6.61266E+06    -23.8305E+06    -6.58766E+06    -2.04178E+06    -15.4935E-03     30.9980E-03    -15.5045E-03     3.55479E-03    -15.4824E-03     30.8982E-03    -15.4933E-03     3.52798E-03
             977     1.77232E-03     92.5882E-03    -6.51736E+06    -23.8824E+06    -5.81951E+06    -3.78717E+06    -15.4934E-03     30.9915E-03    -15.4981E-03     6.54616E-03    -15.4830E-03     30.8900E-03    -15.4831E-03     6.49642E-03
             978     2.65853E-03     92.5955E-03    -6.19078E+06    -25.1360E+06    -4.54501E+06    -5.23336E+06    -15.4773E-03     30.9745E-03    -15.4972E-03     9.85136E-03    -15.4654E-03     30.8645E-03    -15.4745E-03     9.78250E-03
             979     3.54473E-03     92.6059E-03    -6.02322E+06    -27.7251E+06    -3.73789E+06    -6.39002E+06    -15.4622E-03     30.9537E-03    -15.4915E-03     13.2862E-03    -15.4470E-03     30.8295E-03    -15.4612E-03     13.2020E-03
             980     4.43099E-03     92.6193E-03    -5.78763E+06    -31.2224E+06    -4.14914E+06    -7.61825E+06    -15.4398E-03     30.9165E-03    -15.4767E-03     16.8806E-03    -15.4179E-03     30.7753E-03    -15.4438E-03     16.7800E-03
             981     5.31731E-03     92.6360E-03    -5.51723E+06    -35.1671E+06    -4.99493E+06    -8.56738E+06    -15.4178E-03     30.8737E-03    -15.4559E-03     20.6737E-03    -15.3879E-03     30.7139E-03    -15.4219E-03     20.5602E-03
             982     6.20370E-03     92.6562E-03    -5.41691E+06    -38.1674E+06    -5.20099E+06    -9.25048E+06    -15.4052E-03     30.8393E-03    -15.4341E-03     24.6689E-03    -15.3705E-03     30.6650E-03    -15.3969E-03     24.5459E-03
             983     7.09011E-03     92.6801E-03    -5.35658E+06    -39.8592E+06    -4.30618E+06    -9.32252E+06    -15.4097E-03     30.8244E-03    -15.4147E-03     28.8923E-03    -15.3741E-03     30.6408E-03    -15.3707E-03     28.7674E-03
             984     7.97662E-03     92.7079E-03    -4.81116E+06    -43.2397E+06    -2.29935E+06    -8.80239E+06    -15.4461E-03     30.8495E-03    -15.4033E-03     33.3216E-03    -15.4067E-03     30.6461E-03    -15.3451E-03     33.2021E-03
             985     8.86305E-03     92.7397E-03    -3.97391E+06    -42.5980E+06    -1.02662E+06    -9.03155E+06    -15.5063E-03     30.8902E-03    -15.3839E-03     37.9557E-03    -15.4669E-03     30.6884E-03    -15.3215E-03     37.8313E-03
             986     9.74966E-03     92.7758E-03    -3.31454E+06    -44.3605E+06    -21.6924E+03    -10.0211E+06    -15.6399E-03     31.0114E-03    -15.3715E-03     42.6602E-03    -15.5984E-03     30.8007E-03    -15.3025E-03     42.5202E-03
             987     10.6360E-03     92.8162E-03    -2.55186E+06    -44.1345E+06    -1.39855E+06    -10.2881E+06    -15.8546E-03     31.2076E-03    -15.3530E-03     47.4522E-03    -15.8115E-03     31.0028E-03    -15.2923E-03     47.3047E-03
             988     11.5225E-03     92.8608E-03    -1.75630E+06    -34.3918E+06     2.08269E+06    -9.16717E+06    -16.1136E-03     31.4700E-03    -15.3563E-03     52.3727E-03    -16.0921E-03     31.3141E-03    -15.2935E-03     52.2342E-03
             989     12.4084E-03     92.9106E-03    -1.40062E+06    -38.9653E+06     4.37361E+06    -7.15950E+06    -16.5688E-03     31.9585E-03    -15.3897E-03     59.1664E-03    -16.5546E-03     31.7883E-03    -15.3093E-03     59.0458E-03
             990     13.2945E-03     92.9676E-03    -1.51609E+06    -53.2206E+06    -11.7579E+06    -6.05014E+06    -16.9266E-03     32.2873E-03    -15.3608E-03     61.9036E-03    -16.8857E-03     32.0863E-03    -15.3402E-03     61.7887E-03
             991     14.1803E-03     93.0228E-03    -3.34477E+06    -40.4374E+06    -15.0563E+06    -6.49019E+06    -17.1388E-03     32.5052E-03    -15.3663E-03     66.9255E-03    -17.1563E-03     32.4108E-03    -15.3781E-03     66.7977E-03
             992     15.0671E-03     93.0886E-03    -5.64404E+06    -18.2987E+06    -16.1171E+06    -5.68430E+06    -19.2398E-03     34.6180E-03    -15.3782E-03     106.379E-03    -19.5383E-03     34.8782E-03    -15.4241E-03     106.274E-03
             993     15.9488E-03     93.2184E-03    -5.81965E+06     47.5786E+06    -27.4008E+06    -3.43506E+06    -24.0488E-03     39.3174E-03    -15.2686E-03     191.665E-03    -26.3749E-03     41.8712E-03    -15.4662E-03     192.264E-03
             994     16.8394E-03     93.4475E-03    -4.18593E+06     152.800E+06     42.5567E+06    -1.33259E+06    -30.2121E-03     45.6995E-03    -15.4874E-03     283.364E-03    -38.1769E-03     54.0685E-03    -15.4901E-03     288.634E-03
             995     886.241E-06     93.5618E-03    -6.48432E+06    -19.9488E+06    -6.16974E+06    -1.93427E+06    -15.4126E-03     30.7605E-03    -15.3479E-03     3.55892E-03    -15.4071E-03     30.6793E-03    -15.3404E-03     3.53352E-03
             996     1.77254E-03     93.5662E-03    -6.45460E+06    -19.9663E+06    -5.35016E+06    -3.41458E+06    -15.3616E-03     30.7398E-03    -15.3782E-03     6.56254E-03    -15.3572E-03     30.6572E-03    -15.3667E-03     6.51766E-03
             997     2.65882E-03     93.5734E-03    -6.37355E+06    -21.9288E+06    -4.43298E+06    -4.90124E+06    -15.3396E-03     30.7123E-03    -15.3726E-03     9.88888E-03    -15.3334E-03     30.6184E-03    -15.3538E-03     9.82438E-03
             998     3.54517E-03     93.5837E-03    -5.94422E+06    -24.7044E+06    -3.78803E+06    -6.08906E+06    -15.3112E-03     30.6726E-03    -15.3614E-03     13.3487E-03    -15.2999E-03     30.5634E-03    -15.3359E-03     13.2684E-03
             999     4.43156E-03     93.5970E-03    -5.81264E+06    -28.2150E+06    -3.37330E+06    -7.27830E+06    -15.2841E-03     30.6302E-03    -15.3461E-03     16.9516E-03    -15.2678E-03     30.5029E-03    -15.3136E-03     16.8555E-03
            1000     5.31802E-03     93.6137E-03    -5.98508E+06    -32.7461E+06    -3.76270E+06    -8.31801E+06    -15.2591E-03     30.5846E-03    -15.3255E-03     20.7578E-03    -15.2368E-03     30.4357E-03    -15.2882E-03     20.6477E-03
            1001     6.20452E-03     93.6338E-03    -6.33739E+06    -36.2481E+06    -4.54231E+06    -8.84776E+06    -15.2410E-03     30.5402E-03    -15.2992E-03     24.7830E-03    -15.2146E-03     30.3758E-03    -15.2602E-03     24.6654E-03
            1002     7.09113E-03     93.6576E-03    -6.67224E+06    -38.6916E+06    -4.42758E+06    -9.08814E+06    -15.2394E-03     30.5140E-03    -15.2746E-03     29.0553E-03    -15.2119E-03     30.3383E-03    -15.2310E-03     28.9337E-03
            1003     7.97769E-03     93.6853E-03    -6.33264E+06    -42.1644E+06    -3.06234E+06    -9.49539E+06    -15.2734E-03     30.5308E-03    -15.2574E-03     33.5521E-03    -15.2420E-03     30.3361E-03    -15.2024E-03     33.4240E-03
            1004     8.86443E-03     93.7171E-03    -5.52692E+06    -41.3020E+06    -1.11579E+06    -9.50130E+06    -15.3540E-03     30.5936E-03    -15.2395E-03     38.2539E-03    -15.3240E-03     30.4005E-03    -15.1772E-03     38.1238E-03
            1005     9.75095E-03     93.7533E-03    -5.41415E+06    -42.3425E+06     310.811E+03    -9.73391E+06    -15.5092E-03     30.7389E-03    -15.2297E-03     43.0306E-03    -15.4815E-03     30.5407E-03    -15.1589E-03     42.8947E-03
            1006     10.6376E-03     93.7936E-03    -6.09967E+06    -43.3774E+06    -1.76643E+06    -10.1901E+06    -15.7552E-03     30.9697E-03    -15.2145E-03     47.9441E-03    -15.7303E-03     30.7742E-03    -15.1516E-03     47.7982E-03
            1007     11.5238E-03     93.8388E-03    -6.59681E+06    -35.5451E+06    -221.466E+03    -9.35759E+06    -16.0402E-03     31.2575E-03    -15.2173E-03     53.0086E-03    -16.0377E-03     31.1060E-03    -15.1573E-03     52.8680E-03
            1008     12.4103E-03     93.8882E-03    -5.55193E+06    -40.0996E+06     1.50003E+06    -8.05923E+06    -16.5684E-03     31.8219E-03    -15.2536E-03     59.9906E-03    -16.5691E-03     31.6563E-03    -15.1799E-03     59.8587E-03
            1009     13.2959E-03     93.9465E-03    -4.51936E+06    -53.5074E+06    -12.3312E+06    -6.94992E+06    -17.0219E-03     32.2665E-03    -15.2446E-03     62.3720E-03    -16.9951E-03     32.0694E-03    -15.2221E-03     62.2454E-03
            1010     14.1818E-03     94.0002E-03    -4.00945E+06    -40.1416E+06    -12.6453E+06    -5.63792E+06    -17.4296E-03     32.7094E-03    -15.2799E-03     67.2600E-03    -17.4552E-03     32.6150E-03    -15.2791E-03     67.1422E-03
            1011     15.0659E-03     94.0686E-03    -4.50366E+06    -19.1273E+06    -13.2873E+06    -5.22701E+06    -19.3523E-03     34.6619E-03    -15.3096E-03     107.039E-03    -19.6514E-03     34.9156E-03    -15.3418E-03     106.941E-03
            1012     15.9541E-03     94.1976E-03    -5.67545E+06     44.5885E+06    -27.7173E+06    -4.19664E+06    -24.2910E-03     39.4948E-03    -15.2038E-03     191.112E-03    -26.5965E-03     42.0188E-03    -15.3988E-03     191.694E-03
            1013     16.8372E-03     94.4240E-03    -4.46239E+06     150.622E+06     41.4744E+06    -1.73948E+06    -30.6801E-03     46.1225E-03    -15.4424E-03     283.134E-03    -38.6694E-03     54.5104E-03    -15.4469E-03     288.378E-03
            1014     886.391E-06     94.5395E-03    -7.33848E+06    -16.3590E+06     -7.0268E+06    -1.78158E+06    -15.2443E-03     30.4420E-03    -15.1977E-03     3.54546E-03    -15.2470E-03     30.3812E-03    -15.1985E-03     3.52205E-03
            1015     1.77279E-03     94.5438E-03    -7.26638E+06    -16.8369E+06    -6.25713E+06    -2.81793E+06    -15.1860E-03     30.4019E-03    -15.2158E-03     6.60639E-03    -15.1889E-03     30.3373E-03    -15.2121E-03     6.56926E-03
            1016     2.65925E-03     94.5510E-03    -7.22029E+06    -18.4294E+06    -4.98862E+06    -4.29435E+06    -15.1582E-03     30.3640E-03    -15.2058E-03     9.94368E-03    -15.1605E-03     30.2897E-03    -15.1936E-03     9.88710E-03
            1017     3.54575E-03     94.5612E-03    -7.14543E+06    -21.9448E+06    -3.78349E+06    -5.71973E+06    -15.1259E-03     30.3212E-03    -15.1953E-03     13.4140E-03    -15.1246E-03     30.2276E-03    -15.1720E-03     13.3386E-03
            1018     4.43231E-03     94.5745E-03    -6.94977E+06    -25.5176E+06    -2.88008E+06     -6.5879E+06    -15.0937E-03     30.2733E-03    -15.1796E-03     17.0323E-03    -15.0877E-03     30.1604E-03    -15.1469E-03     16.9453E-03
            1019     5.31890E-03     94.5910E-03    -7.07140E+06    -30.3892E+06    -2.66033E+06    -7.40727E+06    -15.0704E-03     30.2306E-03    -15.1602E-03     20.8564E-03    -15.0585E-03     30.0934E-03    -15.1192E-03     20.7582E-03
            1020     6.20560E-03     94.6110E-03     -7.4171E+06    -34.5454E+06    -3.75750E+06    -7.99520E+06    -15.0487E-03     30.1801E-03    -15.1314E-03     24.9179E-03    -15.0313E-03     30.0246E-03    -15.0893E-03     24.8116E-03
            1021     7.09229E-03     94.6347E-03    -7.67302E+06    -36.9678E+06    -4.45956E+06    -8.53467E+06    -15.0390E-03     30.1391E-03    -15.1002E-03     29.2419E-03    -15.0188E-03     29.9734E-03    -15.0577E-03     29.1277E-03
            1022     7.97917E-03     94.6623E-03    -8.14747E+06    -40.4157E+06    -3.46046E+06    -9.12146E+06    -15.0796E-03     30.1598E-03    -15.0803E-03     33.8143E-03    -15.0590E-03     29.9769E-03    -15.0271E-03     33.6914E-03
            1023     8.86586E-03     94.6942E-03    -8.64238E+06    -40.6198E+06    -2.23947E+06    -9.30846E+06    -15.1697E-03     30.2312E-03    -15.0615E-03     38.6098E-03    -15.1545E-03     30.0476E-03    -15.0013E-03     38.4826E-03
            1024     9.75277E-03     94.7303E-03    -8.84079E+06    -41.2902E+06    -874.555E+03    -8.82174E+06    -15.3431E-03     30.3951E-03    -15.0520E-03     43.5176E-03    -15.3322E-03     30.2087E-03    -14.9837E-03     43.3940E-03
            1025     10.6393E-03     94.7710E-03    -9.42526E+06    -42.0251E+06    -2.12417E+06    -8.83853E+06    -15.6187E-03     30.6614E-03    -15.0427E-03     48.5597E-03    -15.6116E-03     30.4778E-03    -14.9787E-03     48.4318E-03
            1026     11.5261E-03     94.8161E-03    -9.27158E+06    -35.2857E+06    -1.30573E+06    -9.46585E+06    -15.9860E-03     31.0341E-03    -15.0482E-03     53.7487E-03    -15.9955E-03     30.8892E-03    -14.9901E-03     53.6072E-03
            1027     12.4120E-03     94.8663E-03    -7.91403E+06    -40.1674E+06    -452.157E+03    -9.70307E+06    -16.5887E-03     31.6786E-03    -15.0899E-03     60.8756E-03    -16.5983E-03     31.5188E-03    -15.0225E-03     60.7229E-03
            1028     13.2982E-03     94.9247E-03    -6.39537E+06    -55.0303E+06    -14.6742E+06    -8.28140E+06    -17.2379E-03     32.3351E-03    -15.0973E-03     63.1744E-03    -17.2150E-03     32.1368E-03    -15.0816E-03     63.0304E-03
            1029     14.1830E-03     94.9793E-03    -6.16305E+06    -41.2175E+06    -14.9967E+06    -6.55674E+06    -17.7413E-03     32.8973E-03    -15.1560E-03     68.2507E-03    -17.7740E-03     32.8052E-03    -15.1622E-03     68.1203E-03
            1030     15.0692E-03     95.0477E-03    -4.96170E+06    -18.8152E+06    -12.6049E+06    -6.06392E+06    -19.6539E-03     34.8745E-03    -15.2206E-03     107.310E-03    -19.9561E-03     35.1289E-03    -15.2492E-03     107.199E-03
            1031     15.9526E-03     95.1753E-03    -3.93297E+06     42.6605E+06    -27.2932E+06    -4.33415E+06    -25.1148E-03     40.2632E-03    -15.1484E-03     191.289E-03    -27.4229E-03     42.7879E-03    -15.3410E-03     191.836E-03
            1032     16.8377E-03     95.4068E-03    -3.63132E+06     147.633E+06     40.6617E+06    -1.70752E+06    -31.0584E-03     46.4750E-03    -15.4166E-03     283.345E-03    -39.0376E-03     54.8475E-03    -15.4221E-03     288.595E-03
            1033     886.552E-06     95.5168E-03    -9.35520E+06    -13.1119E+06    -8.97605E+06    -1.56367E+06    -15.0021E-03     30.0088E-03    -15.0067E-03     3.55796E-03    -15.0167E-03     29.9700E-03    -15.0190E-03     3.53741E-03
            1034     1.77317E-03     95.5212E-03    -9.02150E+06    -14.3698E+06    -7.92070E+06    -2.55071E+06    -14.9737E-03     29.9757E-03    -15.0021E-03     6.64436E-03    -14.9865E-03     29.9285E-03    -15.0077E-03     6.61074E-03
            1035     2.65981E-03     95.5282E-03     -8.8435E+06    -15.5462E+06    -5.76913E+06    -3.31522E+06    -14.9386E-03     29.9341E-03    -14.9955E-03     9.98607E-03    -14.9521E-03     29.8777E-03    -14.9890E-03     9.94223E-03
            1036     3.54647E-03     95.5384E-03    -9.09828E+06    -19.2640E+06    -3.57562E+06    -4.39309E+06    -14.9028E-03     29.8924E-03    -14.9895E-03     13.4719E-03    -14.9154E-03     29.8147E-03    -14.9663E-03     13.4138E-03
            1037     4.43320E-03     95.5515E-03    -9.55073E+06    -23.4365E+06    -3.11189E+06    -5.31557E+06    -14.8636E-03     29.8358E-03    -14.9722E-03     17.1209E-03    -14.8733E-03     29.7374E-03    -14.9399E-03     17.0505E-03
            1038     5.32003E-03     95.5680E-03    -9.92262E+06    -28.1532E+06    -3.44678E+06    -6.08061E+06    -14.8332E-03     29.7815E-03    -14.9483E-03     20.9808E-03    -14.8377E-03     29.6607E-03    -14.9103E-03     20.9000E-03
            1039     6.20685E-03     95.5879E-03    -10.0930E+06    -32.5183E+06    -4.20805E+06    -7.11362E+06    -14.8130E-03     29.7323E-03    -14.9193E-03     25.0844E-03    -14.8112E-03     29.5914E-03    -14.8785E-03     24.9896E-03
            1040     7.09386E-03     95.6115E-03    -10.3165E+06    -35.4124E+06    -4.88548E+06    -7.68663E+06    -14.8103E-03     29.6981E-03    -14.8877E-03     29.4654E-03    -14.8049E-03     29.5445E-03    -14.8458E-03     29.3624E-03
            1041     7.98076E-03     95.6391E-03    -10.5056E+06    -38.6583E+06    -3.99033E+06    -8.10723E+06    -14.8516E-03     29.7175E-03    -14.8659E-03     34.1249E-03    -14.8445E-03     29.5474E-03    -14.8146E-03     34.0154E-03
            1042     8.86787E-03     95.6709E-03    -10.7462E+06    -39.9420E+06    -2.80785E+06    -8.19804E+06    -14.9500E-03     29.7975E-03    -14.8475E-03     39.0228E-03    -14.9452E-03     29.6209E-03    -14.7881E-03     38.9104E-03
            1043     9.75470E-03     95.7071E-03    -11.0811E+06    -40.9614E+06    -1.75085E+06    -7.87460E+06    -15.1461E-03     29.9838E-03    -14.8376E-03     44.0779E-03    -15.1453E-03     29.8033E-03    -14.7709E-03     43.9670E-03
            1044     10.6417E-03     95.7479E-03    -10.6109E+06    -40.2470E+06    -1.84603E+06    -8.21462E+06    -15.4998E-03     30.3343E-03    -14.8345E-03     49.2558E-03    -15.5013E-03     30.1606E-03    -14.7700E-03     49.1365E-03
            1045     11.5280E-03     95.7934E-03    -10.0529E+06    -33.3643E+06    -509.159E+03    -9.47060E+06    -15.9577E-03     30.8089E-03    -14.8512E-03     54.5695E-03    -15.9749E-03     30.6734E-03    -14.7908E-03     54.4284E-03
            1046     12.4146E-03     95.8440E-03    -9.30547E+06    -38.9012E+06    -557.863E+03    -10.7228E+06    -16.6274E-03     31.5310E-03    -14.9036E-03     61.8669E-03    -16.6456E-03     31.3797E-03    -14.8365E-03     61.7014E-03
            1047     13.3000E-03     95.9030E-03    -8.30110E+06    -57.2560E+06    -15.9498E+06    -10.1366E+06    -17.3969E-03     32.3249E-03    -14.9280E-03     64.3687E-03    -17.3788E-03     32.1203E-03    -14.9127E-03     64.2009E-03
            1048     14.1855E-03     95.9584E-03    -7.04732E+06    -42.1608E+06    -15.5189E+06    -7.86293E+06    -18.0940E-03     33.1057E-03    -15.0117E-03     69.0934E-03    -18.1302E-03     33.0122E-03    -15.0179E-03     68.9451E-03
            1049     15.0696E-03     96.0266E-03    -6.69799E+06    -18.6406E+06    -12.1160E+06    -7.15596E+06    -20.3634E-03     35.4819E-03    -15.1185E-03     108.149E-03    -20.6799E-03     35.7436E-03    -15.1424E-03     108.018E-03
            1050     15.9546E-03     96.1567E-03    -6.60588E+06     39.2988E+06    -28.1422E+06    -6.26560E+06    -25.5782E-03     40.6598E-03    -15.0816E-03     192.422E-03    -27.9202E-03     43.1995E-03    -15.2697E-03     192.945E-03
            1051     16.8392E-03     96.3854E-03    -4.34414E+06     144.605E+06     40.1419E+06    -2.60305E+06    -31.3118E-03     46.6810E-03    -15.3692E-03     283.293E-03    -39.2712E-03     55.0219E-03    -15.3719E-03     288.482E-03
            1052     886.817E-06     96.4938E-03    -11.9403E+06    -10.4930E+06    -11.2692E+06    -987.747E+03    -14.7140E-03     29.4801E-03    -14.7661E-03     3.54486E-03    -14.7421E-03     29.4615E-03    -14.7899E-03     3.53179E-03
            1053     1.77360E-03     96.4980E-03    -12.1142E+06    -12.2851E+06    -9.70349E+06    -1.84781E+06    -14.7123E-03     29.4563E-03    -14.7440E-03     6.66421E-03    -14.7411E-03     29.4266E-03    -14.7572E-03     6.63973E-03
            1054     2.66044E-03     96.5051E-03    -12.0014E+06    -14.2224E+06    -7.36933E+06    -2.06687E+06    -14.6728E-03     29.4135E-03    -14.7407E-03     10.0314E-03    -14.7016E-03     29.3705E-03    -14.7395E-03     10.0037E-03
            1055     3.54737E-03     96.5151E-03    -11.9289E+06    -17.1441E+06    -4.64994E+06    -2.39735E+06    -14.6288E-03     29.3633E-03    -14.7345E-03     13.5379E-03    -14.6571E-03     29.3018E-03    -14.7156E-03     13.5056E-03
            1056     4.43433E-03     96.5282E-03    -12.2278E+06    -21.8265E+06    -3.16798E+06    -3.10676E+06    -14.5910E-03     29.3122E-03    -14.7212E-03     17.2150E-03    -14.6163E-03     29.2257E-03    -14.6876E-03     17.1733E-03
            1057     5.32133E-03     96.5445E-03    -12.8309E+06    -25.8264E+06    -3.87451E+06    -4.19297E+06    -14.5523E-03     29.2455E-03    -14.6932E-03     21.1186E-03    -14.5739E-03     29.1411E-03    -14.6565E-03     21.0623E-03
            1058     6.20850E-03     96.5643E-03    -13.6487E+06    -30.2907E+06    -4.94443E+06    -5.48603E+06    -14.5348E-03     29.1973E-03    -14.6624E-03     25.2736E-03    -14.5529E-03     29.0737E-03    -14.6235E-03     25.2002E-03
            1059     7.09558E-03     96.5878E-03    -14.2850E+06    -33.9139E+06    -5.58260E+06    -6.43157E+06    -14.5395E-03     29.1720E-03    -14.6325E-03     29.7218E-03    -14.5550E-03     29.0325E-03    -14.5905E-03     29.6354E-03
            1060     7.98288E-03     96.6153E-03    -14.5149E+06    -36.8944E+06    -5.42689E+06    -7.21348E+06    -14.5767E-03     29.1832E-03    -14.6065E-03     34.4802E-03    -14.5900E-03     29.0297E-03    -14.5591E-03     34.3827E-03
            1061     8.87000E-03     96.6471E-03    -14.3772E+06    -39.5875E+06    -4.24390E+06    -7.31046E+06    -14.6947E-03     29.2844E-03    -14.5898E-03     39.4964E-03    -14.7063E-03     29.1168E-03    -14.5327E-03     39.3960E-03
            1062     9.75733E-03     96.6834E-03    -13.2881E+06    -39.4698E+06    -2.55920E+06    -7.80659E+06    -14.9476E-03     29.5296E-03    -14.5821E-03     44.7253E-03    -14.9585E-03     29.3607E-03    -14.5183E-03     44.6159E-03
            1063     10.6441E-03     96.7245E-03    -11.7709E+06    -38.8081E+06    -2.14396E+06    -8.73775E+06    -15.3770E-03     29.9640E-03    -14.5869E-03     50.1269E-03    -15.3858E-03     29.7994E-03    -14.5243E-03     50.0014E-03
            1064     11.5310E-03     96.7706E-03    -10.6251E+06    -31.2457E+06     564.147E+03    -9.22335E+06    -15.9246E-03     30.5449E-03    -14.6202E-03     55.5760E-03    -15.9492E-03     30.4191E-03    -14.5567E-03     55.4385E-03
            1065     12.4170E-03     96.8215E-03    -9.88076E+06    -36.0607E+06     920.839E+03    -11.0346E+06    -16.6903E-03     31.3799E-03    -14.6897E-03     62.9784E-03    -16.7177E-03     31.2416E-03    -14.6184E-03     62.8090E-03
            1066     13.3031E-03     96.8814E-03    -9.22274E+06    -58.7813E+06    -16.4395E+06    -11.5305E+06    -17.5835E-03     32.3152E-03    -14.7317E-03     65.6141E-03    -17.5674E-03     32.1053E-03    -14.7153E-03     65.4283E-03
            1067     14.1876E-03     96.9375E-03    -8.37776E+06    -43.8778E+06    -16.6983E+06    -9.79343E+06    -18.6033E-03     33.4473E-03    -14.8440E-03     70.4478E-03    -18.6439E-03     33.3509E-03    -14.8518E-03     70.2729E-03
            1068     15.0723E-03     97.0070E-03    -6.53673E+06    -17.7754E+06    -10.6353E+06    -9.08436E+06    -20.8433E-03     35.8380E-03    -14.9947E-03     109.113E-03    -21.1669E-03     36.1061E-03    -15.0126E-03     108.955E-03
            1069     15.9558E-03     97.1365E-03    -5.96406E+06     36.4046E+06    -26.1122E+06    -7.31123E+06    -26.0925E-03     41.0898E-03    -14.9974E-03     192.921E-03    -28.4293E-03     43.6105E-03    -15.1721E-03     193.413E-03
            1070     16.8398E-03     97.3663E-03    -4.98165E+06     140.020E+06     40.1606E+06    -3.28360E+06    -31.9126E-03     47.2254E-03    -15.3128E-03     282.946E-03    -39.8406E-03     55.5164E-03    -15.3078E-03     288.085E-03
            1071     887.027E-06     97.4701E-03    -16.2364E+06    -9.88745E+06    -14.6701E+06     504.683E+03    -14.3997E-03     28.8472E-03    -14.4475E-03     3.57354E-03    -14.4452E-03     28.8427E-03    -14.4829E-03     3.57977E-03
            1072     1.77413E-03     97.4743E-03    -16.6496E+06    -11.0441E+06    -12.3645E+06     192.554E+03    -14.3899E-03     28.8234E-03    -14.4335E-03     6.71366E-03    -14.4392E-03     28.8103E-03    -14.4552E-03     6.71559E-03
            1073     2.66126E-03     97.4813E-03    -16.7539E+06    -13.8046E+06    -9.63131E+06    -195.571E+03    -14.3598E-03     28.7949E-03    -14.4350E-03     10.0878E-03    -14.4097E-03     28.7642E-03    -14.4389E-03     10.0844E-03
            1074     3.54841E-03     97.4913E-03    -16.5689E+06    -16.3980E+06    -7.04421E+06    -205.198E+03    -14.3091E-03     28.7381E-03    -14.4290E-03     13.6070E-03    -14.3582E-03     28.6905E-03    -14.4164E-03     13.6032E-03
            1075     4.43565E-03     97.5042E-03    -16.4011E+06    -20.4455E+06    -4.85696E+06    -725.708E+03    -14.2612E-03     28.6777E-03    -14.4166E-03     17.3111E-03    -14.3068E-03     28.6066E-03    -14.3874E-03     17.3002E-03
            1076     5.32299E-03     97.5205E-03    -16.6244E+06    -24.0299E+06    -4.26216E+06    -1.60061E+06    -14.2266E-03     28.6191E-03    -14.3926E-03     21.2567E-03    -14.2692E-03     28.5298E-03    -14.3549E-03     21.2342E-03
            1077     6.21030E-03     97.5401E-03    -17.5683E+06    -28.1713E+06    -5.43436E+06    -2.73470E+06    -14.2098E-03     28.5702E-03    -14.3604E-03     25.4734E-03    -14.2497E-03     28.4635E-03    -14.3212E-03     25.4358E-03
            1078     7.09780E-03     97.5636E-03    -18.6630E+06    -31.6434E+06    -6.63485E+06    -4.41462E+06    -14.2151E-03     28.5428E-03    -14.3277E-03     29.9998E-03    -14.2541E-03     28.4224E-03    -14.2879E-03     29.9398E-03
            1079     7.98520E-03     97.5910E-03    -19.1766E+06    -34.9793E+06    -6.70002E+06    -5.94629E+06    -14.2696E-03     28.5718E-03    -14.3021E-03     34.8552E-03    -14.3070E-03     28.4363E-03    -14.2571E-03     34.7745E-03
            1080     8.87281E-03     97.6228E-03    -18.1458E+06    -37.9674E+06    -5.57745E+06    -7.55334E+06    -14.4277E-03     28.7148E-03    -14.2871E-03     40.0306E-03    -14.4584E-03     28.5624E-03    -14.2336E-03     39.9276E-03
            1081     9.76005E-03     97.6593E-03    -15.9819E+06    -37.4150E+06    -3.48894E+06    -8.95699E+06    -14.7383E-03     29.0233E-03    -14.2851E-03     45.4744E-03    -14.7641E-03     28.8697E-03    -14.2251E-03     45.3508E-03
            1082     10.6474E-03     97.7008E-03    -13.9954E+06    -37.5750E+06    -2.25602E+06    -9.55048E+06    -15.2308E-03     29.5344E-03    -14.3036E-03     51.0672E-03    -15.2520E-03     29.3791E-03    -14.2402E-03     50.9319E-03
            1083     11.5340E-03     97.7472E-03    -11.8581E+06    -29.5577E+06     878.933E+03    -10.2158E+06    -15.8929E-03     30.2435E-03    -14.3506E-03     56.7190E-03    -15.9264E-03     30.1274E-03    -14.2862E-03     56.5692E-03
            1084     12.4205E-03     97.7991E-03    -9.54742E+06    -32.6720E+06     2.51748E+06    -11.5803E+06    -16.8317E-03     31.2745E-03    -14.4428E-03     64.1893E-03    -16.8649E-03     31.1505E-03    -14.3690E-03     64.0130E-03
            1085     13.3056E-03     97.8594E-03    -8.54907E+06    -59.1357E+06    -15.4772E+06    -12.4188E+06    -17.8949E-03     32.4105E-03    -14.5156E-03     66.9305E-03    -17.8770E-03     32.1972E-03    -14.4948E-03     66.7326E-03
            1086     14.1907E-03     97.9170E-03    -7.79511E+06    -44.8346E+06    -17.3737E+06    -11.7021E+06    -18.9704E-03     33.6227E-03    -14.6523E-03     72.0780E-03    -19.0072E-03     33.5231E-03    -14.6628E-03     71.8776E-03
            1087     15.0738E-03     97.9877E-03    -6.17289E+06    -16.9420E+06    -9.64077E+06    -11.5695E+06    -21.5761E-03     36.4254E-03    -14.8492E-03     110.057E-03    -21.9063E-03     36.7014E-03    -14.8639E-03     109.860E-03
            1088     15.9581E-03     98.1166E-03    -4.74838E+06     31.7796E+06    -24.4264E+06    -8.44123E+06    -27.0381E-03     41.9536E-03    -14.9155E-03     192.838E-03    -29.3613E-03     44.4436E-03    -15.0768E-03     193.285E-03
            1089     16.8412E-03     98.3489E-03    -3.68022E+06     135.012E+06     41.0557E+06    -2.87627E+06    -32.3473E-03     47.6190E-03    -15.2717E-03     281.854E-03    -40.2081E-03     55.8269E-03    -15.2569E-03     286.945E-03
            1090     887.401E-06     98.4458E-03    -21.8429E+06    -12.5428E+06    -20.2268E+06     2.39349E+06    -14.0524E-03     28.0954E-03    -14.0430E-03     3.56738E-03    -14.1140E-03     28.0938E-03    -14.0942E-03     3.59804E-03
            1091     1.77480E-03     98.4500E-03    -21.9310E+06    -11.6234E+06    -16.6804E+06     2.95577E+06    -14.0203E-03     28.0826E-03    -14.0624E-03     6.74643E-03    -14.0889E-03     28.0805E-03    -14.0971E-03     6.78410E-03
            1092     2.66218E-03     98.4570E-03    -21.8333E+06    -13.7520E+06    -12.3924E+06     2.57950E+06    -13.9921E-03     28.0659E-03    -14.0737E-03     10.1434E-03    -14.0635E-03     28.0468E-03    -14.0841E-03     10.1760E-03
            1093     3.54966E-03     98.4668E-03    -21.3687E+06    -16.7545E+06    -9.02860E+06     2.28532E+06    -13.9467E-03     28.0210E-03    -14.0743E-03     13.6915E-03    -14.0163E-03     27.9815E-03    -14.0642E-03     13.7199E-03
            1094     4.43721E-03     98.4797E-03    -21.0709E+06    -19.6094E+06    -6.69104E+06     1.96981E+06    -13.8934E-03     27.9557E-03    -14.0624E-03     17.4233E-03    -13.9609E-03     27.8982E-03    -14.0368E-03     17.4475E-03
            1095     5.32481E-03     98.4958E-03    -21.1305E+06    -23.1408E+06    -5.62565E+06     1.24162E+06    -13.8549E-03     27.8956E-03    -14.0407E-03     21.4050E-03    -13.9193E-03     27.8191E-03    -14.0046E-03     21.4194E-03
            1096     6.21255E-03     98.5154E-03    -21.0557E+06    -26.0402E+06    -5.82560E+06    -85.1485E+03    -13.8395E-03     27.8494E-03    -14.0099E-03     25.6768E-03    -13.8993E-03     27.7588E-03    -13.9707E-03     25.6737E-03
            1097     7.10023E-03     98.5387E-03    -20.9767E+06    -28.9533E+06    -6.27380E+06    -2.11259E+06    -13.8629E-03     27.8417E-03    -13.9789E-03     30.2753E-03    -13.9177E-03     27.7376E-03    -13.9379E-03     30.2454E-03
            1098     7.98810E-03     98.5661E-03    -20.6025E+06    -31.9640E+06    -5.84815E+06    -4.68751E+06    -13.9553E-03     27.9121E-03    -13.9568E-03     35.2382E-03    -14.0052E-03     27.7924E-03    -13.9099E-03     35.1741E-03
            1099     8.87571E-03     98.5979E-03    -19.6209E+06    -34.1889E+06    -4.78074E+06    -7.92605E+06    -14.1626E-03     28.1093E-03    -13.9467E-03     40.5913E-03    -14.2071E-03     27.9766E-03    -13.8925E-03     40.4840E-03
            1100     9.76347E-03     98.6347E-03    -18.1930E+06    -35.7692E+06    -3.55748E+06    -9.82755E+06    -14.5224E-03     28.4760E-03    -13.9536E-03     46.2318E-03    -14.5613E-03     28.3336E-03    -13.8931E-03     46.0975E-03
            1101     10.6506E-03     98.6765E-03    -16.2749E+06    -35.8457E+06    -2.37267E+06    -10.6592E+06    -15.0971E-03     29.0814E-03    -13.9843E-03     52.0581E-03    -15.1318E-03     28.9380E-03    -13.9206E-03     51.9091E-03
            1102     11.5377E-03     98.7237E-03    -13.6089E+06    -27.0299E+06     940.861E+03    -12.2717E+06    -15.8782E-03     29.9259E-03    -14.0477E-03     57.9612E-03    -15.9240E-03     29.8248E-03    -13.9841E-03     57.7854E-03
            1103     12.4236E-03     98.7764E-03    -10.4119E+06    -30.5247E+06     2.90834E+06    -13.6160E+06    -17.0035E-03     31.1692E-03    -14.1657E-03     65.6427E-03    -17.0450E-03     31.0569E-03    -14.0918E-03     65.4401E-03
            1104     13.3093E-03     98.8380E-03    -7.83761E+06    -58.3956E+06    -13.0462E+06    -13.9009E+06    -18.2893E-03     32.5718E-03    -14.2825E-03     68.4930E-03    -18.2735E-03     32.3588E-03    -14.2517E-03     68.2752E-03
            1105     14.1931E-03     98.8964E-03    -6.35700E+06    -44.4293E+06    -15.7107E+06    -13.9902E+06    -19.4753E-03     33.9300E-03    -14.4547E-03     73.4890E-03    -19.5097E-03     33.8297E-03    -14.4596E-03     73.2572E-03
            1106     15.0778E-03     98.9684E-03    -5.30608E+06    -17.8720E+06    -7.86585E+06    -12.7383E+06    -22.4141E-03     37.1160E-03    -14.7018E-03     111.594E-03    -22.7501E-03     37.3925E-03    -14.7076E-03     111.374E-03
            1107     15.9580E-03     99.1000E-03    -6.38499E+06     26.2791E+06    -23.3237E+06    -9.10344E+06    -27.9372E-03     42.7658E-03    -14.8286E-03     193.401E-03    -30.2693E-03     45.2362E-03    -14.9741E-03     193.819E-03
            1108     16.8408E-03     99.3282E-03    -5.22876E+06     129.681E+06     40.2530E+06    -3.89147E+06    -32.9295E-03     48.1485E-03    -15.2190E-03     281.682E-03    -40.7741E-03     56.3181E-03    -15.1982E-03     286.678E-03
            1109     887.739E-06     99.4207E-03    -26.1827E+06    -18.5436E+06    -24.8946E+06     3.91610E+06    -13.6332E-03     27.2673E-03    -13.6341E-03     3.57899E-03    -13.7011E-03     27.2488E-03    -13.6937E-03     3.62934E-03
            1110     1.77547E-03     99.4249E-03    -26.3695E+06    -14.7322E+06    -21.4450E+06     5.72544E+06    -13.6021E-03     27.2446E-03    -13.6425E-03     6.78044E-03    -13.6815E-03     27.2403E-03    -13.6902E-03     6.85393E-03
            1111     2.66330E-03     99.4318E-03    -26.3342E+06    -14.6263E+06    -16.2709E+06     5.88979E+06    -13.5633E-03     27.2174E-03    -13.6541E-03     10.2041E-03    -13.6503E-03     27.2062E-03    -13.6761E-03     10.2795E-03
            1112     3.55112E-03     99.4416E-03    -26.0191E+06    -17.4590E+06    -11.4230E+06     5.30099E+06    -13.5323E-03     27.1949E-03    -13.6626E-03     13.7870E-03    -13.6207E-03     27.1620E-03    -13.6567E-03     13.8546E-03
            1113     4.43899E-03     99.4544E-03    -25.2798E+06    -19.8365E+06    -8.11137E+06     4.86694E+06    -13.4964E-03     27.1545E-03    -13.6580E-03     17.5494E-03    -13.5826E-03     27.1039E-03    -13.6332E-03     17.6112E-03
            1114     5.32697E-03     99.4704E-03    -24.4136E+06    -22.2147E+06    -6.37581E+06     3.85994E+06    -13.4620E-03     27.1030E-03    -13.6409E-03     21.5606E-03    -13.5431E-03     27.0370E-03    -13.6052E-03     21.6090E-03
            1115     6.21496E-03     99.4898E-03    -23.5464E+06    -23.8459E+06    -5.82594E+06     1.81677E+06    -13.4498E-03     27.0639E-03    -13.6141E-03     25.8723E-03    -13.5251E-03     26.9879E-03    -13.5745E-03     25.8940E-03
            1116     7.10311E-03     99.5132E-03    -22.4403E+06    -26.1062E+06    -5.72921E+06    -658.463E+03    -13.4938E-03     27.0806E-03    -13.5869E-03     30.5429E-03    -13.5608E-03     26.9919E-03    -13.5451E-03     30.5321E-03
            1117     7.99111E-03     99.5405E-03    -20.9679E+06    -27.4259E+06    -4.69336E+06    -4.15487E+06    -13.6281E-03     27.1975E-03    -13.5694E-03     35.6409E-03    -13.6880E-03     27.0992E-03    -13.5227E-03     35.5842E-03
            1118     8.87924E-03     99.5725E-03    -19.5015E+06    -30.0277E+06    -3.15858E+06    -7.56019E+06    -13.8933E-03     27.4635E-03    -13.5702E-03     41.1536E-03    -13.9453E-03     27.3489E-03    -13.5142E-03     41.0515E-03
            1119     9.76690E-03     99.6095E-03    -18.1809E+06    -33.2900E+06    -2.29261E+06    -9.98994E+06    -14.3223E-03     27.9126E-03    -13.5903E-03     46.9917E-03    -14.3664E-03     27.7805E-03    -13.5271E-03     46.8558E-03
            1120     10.6546E-03     99.6518E-03    -16.0265E+06    -33.1465E+06    -1.56088E+06    -12.1022E+06    -14.9736E-03     28.6072E-03    -13.6336E-03     53.1399E-03    -15.0119E-03     28.4755E-03    -13.5701E-03     52.9729E-03
            1121     11.5413E-03     99.6999E-03    -13.6875E+06    -24.0240E+06     1.55701E+06    -13.7718E+06    -15.8686E-03     29.5841E-03    -13.7155E-03     59.3620E-03    -15.9200E-03     29.4971E-03    -13.6530E-03     59.1673E-03
            1122     12.4278E-03     99.7535E-03    -11.9606E+06    -28.3488E+06     2.76180E+06    -15.2950E+06    -17.1538E-03     31.0123E-03    -13.8586E-03     67.3856E-03    -17.2063E-03     30.9137E-03    -13.7863E-03     67.1614E-03
            1123     13.3125E-03     99.8166E-03    -10.0187E+06    -56.9238E+06    -12.8805E+06    -16.6224E+06    -18.6988E-03     32.7130E-03    -14.0143E-03     70.4718E-03    -18.6974E-03     32.5114E-03    -13.9816E-03     70.2181E-03
            1124     14.1967E-03     99.8763E-03    -7.47935E+06    -43.4780E+06    -15.3151E+06    -16.9946E+06    -20.3070E-03     34.5453E-03    -14.2383E-03     75.4521E-03    -20.3528E-03     34.4547E-03    -14.2410E-03     75.1780E-03
            1125     15.0782E-03     99.9498E-03    -5.56917E+06    -20.7136E+06    -6.62913E+06    -14.3970E+06    -23.1615E-03     37.7100E-03    -14.5486E-03     113.333E-03    -23.5031E-03     37.9776E-03    -14.5436E-03     113.087E-03
            1126     15.9622E-03     100.083E-03    -3.90696E+06     20.6509E+06    -22.7673E+06    -8.44552E+06    -28.4060E-03     43.1172E-03    -14.7112E-03     193.747E-03    -30.7005E-03     45.5371E-03    -14.8493E-03     194.153E-03
            1127     16.8439E-03     100.311E-03    -3.15505E+06     124.800E+06     38.8904E+06    -3.39731E+06    -33.8651E-03     48.9989E-03    -15.1338E-03     280.984E-03    -41.6385E-03     57.0914E-03    -15.1158E-03     285.858E-03
            1128     888.145E-06     100.395E-03    -29.0948E+06    -27.3736E+06    -27.9452E+06     5.04673E+06    -13.1840E-03     26.3563E-03    -13.1722E-03     3.68590E-03    -13.2492E-03     26.3023E-03    -13.2301E-03     3.75086E-03
            1129     1.77633E-03     100.399E-03    -29.2311E+06    -20.8683E+06    -24.8846E+06     8.43672E+06    -13.1433E-03     26.3237E-03    -13.1804E-03     6.81585E-03    -13.2231E-03     26.2979E-03    -13.2322E-03     6.92440E-03
            1130     2.66450E-03     100.406E-03    -29.4887E+06    -16.9046E+06    -19.8499E+06     9.39476E+06    -13.0959E-03     26.2816E-03    -13.1857E-03     10.2556E-03    -13.1901E-03     26.2686E-03    -13.2176E-03     10.3763E-03
            1131     3.55276E-03     100.416E-03    -29.1105E+06    -18.4839E+06    -14.0750E+06     8.63884E+06    -13.0749E-03     26.2727E-03    -13.1977E-03     13.8751E-03    -13.1734E-03     26.2430E-03    -13.1991E-03     13.9859E-03
            1132     4.44103E-03     100.428E-03    -28.1388E+06    -20.4105E+06    -9.47799E+06     7.60238E+06    -13.0636E-03     26.2665E-03    -13.2029E-03     17.6745E-03    -13.1612E-03     26.2192E-03    -13.1799E-03     17.7717E-03
            1133     5.32933E-03     100.444E-03    -26.7007E+06    -21.0116E+06    -6.68814E+06     5.94470E+06    -13.0559E-03     26.2510E-03    -13.1951E-03     21.7206E-03    -13.1496E-03     26.1947E-03    -13.1593E-03     21.7961E-03
            1134     6.21773E-03     100.464E-03    -25.1140E+06    -21.2895E+06    -5.61096E+06     3.36266E+06    -13.0615E-03     26.2378E-03    -13.1763E-03     26.0681E-03    -13.1486E-03     26.1764E-03    -13.1371E-03     26.1100E-03
            1135     7.10610E-03     100.487E-03    -23.5023E+06    -22.6837E+06    -5.47028E+06     60.5730E+03    -13.1248E-03     26.2805E-03    -13.1557E-03     30.8146E-03    -13.2023E-03     26.2099E-03    -13.1161E-03     30.8134E-03
            1136     7.99459E-03     100.514E-03    -21.9741E+06    -22.3124E+06    -4.21570E+06    -3.77565E+06    -13.2883E-03     26.4341E-03    -13.1458E-03     36.0448E-03    -13.3611E-03     26.3619E-03    -13.1027E-03     35.9934E-03
            1137     8.88275E-03     100.546E-03    -20.3412E+06    -26.0222E+06    -2.48941E+06    -7.47280E+06    -13.6064E-03     26.7663E-03    -13.1599E-03     41.7184E-03    -13.6692E-03     26.6717E-03    -13.1051E-03     41.6179E-03
            1138     9.77097E-03     100.584E-03    -17.9741E+06    -29.3574E+06    -1.08977E+06    -10.6207E+06    -14.1047E-03     27.2995E-03    -13.1948E-03     47.8065E-03    -14.1549E-03     27.1849E-03    -13.1316E-03     47.6631E-03
            1139     10.6584E-03     100.627E-03    -15.8962E+06    -29.9020E+06    -725.752E+03    -13.1344E+06    -14.8213E-03     28.0747E-03    -13.2533E-03     54.2824E-03    -14.8646E-03     27.9575E-03    -13.1906E-03     54.1027E-03
            1140     11.5458E-03     100.676E-03    -14.4737E+06    -21.7888E+06     1.18499E+06    -14.2719E+06    -15.8255E-03     29.1766E-03    -13.3511E-03     60.9297E-03    -15.8833E-03     29.1022E-03    -13.2926E-03     60.7291E-03
            1141     12.4316E-03     100.731E-03    -13.0111E+06    -24.7310E+06     2.86911E+06    -15.9328E+06    -17.2834E-03     30.8036E-03    -13.5202E-03     69.3171E-03    -17.3468E-03     30.7246E-03    -13.4511E-03     69.0849E-03
            1142     13.3171E-03     100.795E-03    -11.5421E+06    -53.8424E+06    -13.0957E+06    -18.7941E+06    -19.0926E-03     32.8036E-03    -13.7109E-03     72.8492E-03    -19.1039E-03     32.6208E-03    -13.6816E-03     72.5668E-03
            1143     14.1999E-03     100.857E-03    -10.0291E+06    -42.2884E+06    -16.2370E+06    -20.1713E+06    -21.1097E-03     35.0959E-03    -13.9862E-03     78.2055E-03    -21.1724E-03     35.0201E-03    -13.9916E-03     77.8871E-03
            1144     15.0826E-03     100.932E-03    -7.04191E+06    -25.8429E+06    -8.70741E+06    -17.0688E+06    -24.2429E-03     38.6058E-03    -14.3629E-03     115.010E-03    -24.5864E-03     38.8578E-03    -14.3587E-03     114.720E-03
            1145     15.9621E-03     101.065E-03    -6.14105E+06     12.8820E+06    -28.4796E+06    -10.4049E+06    -29.4489E-03     44.0280E-03    -14.5791E-03     193.442E-03    -31.7013E-03     46.3869E-03    -14.7313E-03     193.778E-03
            1146     16.8443E-03     101.294E-03    -5.29034E+06     120.064E+06     34.6686E+06    -4.29102E+06    -34.6760E-03     49.7382E-03    -15.0622E-03     279.780E-03    -42.3656E-03     57.7347E-03    -15.0553E-03     284.514E-03
            1147     888.631E-06     101.368E-03    -33.1239E+06    -37.6729E+06    -32.3949E+06     5.30175E+06    -12.7056E-03     25.3517E-03    -12.6461E-03     3.72895E-03    -12.7696E-03     25.2585E-03    -12.7054E-03     3.79725E-03
            1148     1.77718E-03     101.372E-03    -31.8580E+06    -30.0911E+06    -28.3000E+06     9.90140E+06    -12.6430E-03     25.3206E-03    -12.6777E-03     6.84916E-03    -12.7176E-03     25.2574E-03    -12.7293E-03     6.97669E-03
            1149     2.66588E-03     101.379E-03    -31.0820E+06    -21.3022E+06    -22.2975E+06     12.6007E+06    -12.6029E-03     25.2827E-03    -12.6797E-03     10.3133E-03    -12.6952E-03     25.2536E-03    -12.7153E-03     10.4755E-03
            1150     3.55452E-03     101.389E-03    -30.5479E+06    -19.5066E+06    -15.8965E+06     11.8188E+06    -12.5892E-03     25.2822E-03    -12.6930E-03     13.9619E-03    -12.6908E-03     25.2521E-03    -12.6999E-03     14.1139E-03
            1151     4.44325E-03     101.401E-03    -28.9423E+06    -20.6968E+06    -10.3663E+06     9.78149E+06    -12.6063E-03     25.3128E-03    -12.7066E-03     17.8085E-03    -12.7061E-03     25.2665E-03    -12.6864E-03     17.9340E-03
            1152     5.33195E-03     101.417E-03    -26.6675E+06    -19.5339E+06    -6.51459E+06     7.46391E+06    -12.6345E-03     25.3438E-03    -12.7093E-03     21.8801E-03    -12.7303E-03     25.2945E-03    -12.6749E-03     21.9754E-03
            1153     6.22066E-03     101.436E-03    -24.3805E+06    -18.4033E+06    -4.57621E+06     4.37249E+06    -12.6789E-03     25.3825E-03    -12.7036E-03     26.2604E-03    -12.7680E-03     25.3329E-03    -12.6644E-03     26.3156E-03
            1154     7.10945E-03     101.460E-03    -22.3814E+06    -18.6180E+06    -3.94213E+06     706.848E+03    -12.7758E-03     25.4722E-03    -12.6964E-03     31.0826E-03    -12.8557E-03     25.4180E-03    -12.6567E-03     31.0900E-03
            1155     7.99806E-03     101.487E-03    -21.1850E+06    -18.0512E+06    -3.08930E+06    -2.71342E+06    -12.9586E-03     25.6564E-03    -12.6979E-03     36.4290E-03    -13.0351E-03     25.6026E-03    -12.6564E-03     36.3916E-03
            1156     8.88678E-03     101.520E-03    -20.8292E+06    -20.8635E+06    -1.90468E+06    -6.52985E+06    -13.2987E-03     26.0210E-03    -12.7223E-03     42.2895E-03    -13.3721E-03     25.9519E-03    -12.6714E-03     42.2017E-03
            1157     9.77489E-03     101.557E-03    -19.9798E+06    -23.9227E+06     -915.86E+03    -11.3868E+06    -13.8351E-03     26.6051E-03    -12.7700E-03     48.6550E-03    -13.9031E-03     26.5200E-03    -12.7110E-03     48.5023E-03
            1158     10.6630E-03     101.601E-03    -17.6260E+06    -27.2149E+06    -545.901E+03    -14.1561E+06    -14.6319E-03     27.4791E-03    -12.8472E-03     55.4589E-03    -14.6876E-03     27.3772E-03    -12.7849E-03     55.2668E-03
            1159     11.5500E-03     101.651E-03    -15.1965E+06    -20.0158E+06     1.48873E+06    -14.7935E+06    -15.7563E-03     28.7204E-03    -12.9641E-03     62.5905E-03    -15.8203E-03     28.6551E-03    -12.9056E-03     62.3840E-03
            1160     12.4366E-03     101.707E-03    -12.8711E+06    -19.9584E+06     4.31903E+06    -16.9286E+06    -17.3914E-03     30.5495E-03    -13.1581E-03     71.4434E-03    -17.4631E-03     30.4922E-03    -13.0889E-03     71.1987E-03
            1161     13.3210E-03     101.774E-03    -10.9839E+06    -49.5487E+06    -10.6503E+06    -20.2517E+06    -19.4515E-03     32.8396E-03    -13.3881E-03     75.4915E-03    -19.4706E-03     32.6747E-03    -13.3536E-03     75.1899E-03
            1162     14.2045E-03     101.838E-03    -10.0275E+06    -40.6135E+06    -14.5762E+06    -21.7143E+06    -21.8284E-03     35.5397E-03    -13.7112E-03     81.2814E-03    -21.8991E-03     35.4729E-03    -13.7107E-03     80.9403E-03
            1163     15.0845E-03     101.916E-03    -9.05450E+06    -30.4085E+06    -10.8583E+06    -20.3715E+06    -25.6356E-03     39.7874E-03    -14.1518E-03     117.137E-03    -25.9865E-03     40.0298E-03    -14.1489E-03     116.790E-03
            1164     15.9655E-03     102.050E-03    -6.34103E+06     3.20036E+06    -32.2849E+06    -13.3318E+06    -30.9980E-03     45.4498E-03    -14.4518E-03     193.809E-03    -33.1869E-03     47.7212E-03    -14.6087E-03     194.044E-03
            1165     16.8442E-03     102.278E-03    -3.80686E+06     114.028E+06     33.2226E+06    -4.69645E+06    -35.4197E-03     50.4207E-03    -15.0010E-03     279.784E-03    -43.0103E-03     58.3062E-03    -14.9947E-03     284.393E-03
            1166     889.017E-06     102.340E-03    -40.6202E+06    -46.8073E+06    -40.2678E+06     3.90894E+06    -12.1494E-03     24.2664E-03    -12.1170E-03     3.75351E-03    -12.2262E-03     24.1499E-03    -12.1916E-03     3.80386E-03
            1167     1.77821E-03     102.344E-03    -36.7868E+06    -40.2537E+06    -34.6403E+06     8.04522E+06    -12.1080E-03     24.2461E-03    -12.1381E-03     6.91088E-03    -12.1834E-03     24.1484E-03    -12.1996E-03     7.01451E-03
            1168     2.66728E-03     102.351E-03    -32.2997E+06    -28.9383E+06    -26.2518E+06     12.7233E+06    -12.0847E-03     24.2268E-03    -12.1421E-03     10.3697E-03    -12.1662E-03     24.1671E-03    -12.1846E-03     10.5336E-03
            1169     3.55647E-03     102.361E-03    -29.3037E+06    -21.1042E+06    -17.1726E+06     14.0176E+06    -12.0876E-03     24.2462E-03    -12.1587E-03     14.0426E-03    -12.1787E-03     24.2082E-03    -12.1714E-03     14.2231E-03
            1170     4.44557E-03     102.373E-03    -27.2757E+06    -19.8067E+06    -10.3216E+06     11.2179E+06    -12.1414E-03     24.3229E-03    -12.1815E-03     17.9431E-03    -12.2343E-03     24.2785E-03    -12.1648E-03     18.0872E-03
            1171     5.33470E-03     102.389E-03    -24.3423E+06    -17.9227E+06    -5.68272E+06     7.87213E+06    -12.2087E-03     24.4060E-03    -12.1973E-03     22.0297E-03    -12.2964E-03     24.3601E-03    -12.1644E-03     22.1305E-03
            1172     6.22382E-03     102.409E-03    -21.5825E+06    -15.7097E+06    -2.85284E+06      5.0678E+06    -12.2959E-03     24.5034E-03    -12.2075E-03     26.4332E-03    -12.3773E-03     24.4607E-03    -12.1677E-03     26.4975E-03
            1173     7.11283E-03     102.432E-03    -20.0390E+06    -14.5855E+06    -1.74296E+06     1.74887E+06    -12.4322E-03     24.6493E-03    -12.2171E-03     31.3148E-03    -12.5094E-03     24.6086E-03    -12.1756E-03     31.3359E-03
            1174     8.00191E-03     102.460E-03    -18.5135E+06    -14.1774E+06    -911.281E+03    -1.91393E+06    -12.6457E-03     24.8799E-03    -12.2342E-03     36.7650E-03    -12.7175E-03     24.8383E-03    -12.1914E-03     36.7382E-03
            1175     8.89066E-03     102.492E-03    -16.2019E+06    -15.3244E+06     1.01666E+06    -5.84140E+06    -12.9986E-03     25.2701E-03    -12.2715E-03     42.8081E-03    -13.0609E-03     25.2175E-03    -12.2207E-03     42.7295E-03
            1176     9.77944E-03     102.530E-03    -14.9081E+06    -17.5367E+06     2.87472E+06    -10.2380E+06    -13.5697E-03     25.9043E-03    -12.3346E-03     49.4184E-03    -13.6268E-03     25.8379E-03    -12.2731E-03     49.2811E-03
            1177     10.6673E-03     102.575E-03    -14.2525E+06    -23.1512E+06     2.58508E+06    -14.7987E+06    -14.4350E-03     26.8636E-03    -12.4286E-03     56.5863E-03    -14.4839E-03     26.7722E-03    -12.3614E-03     56.3866E-03
            1178     11.5550E-03     102.626E-03    -11.4058E+06    -18.7849E+06     3.67994E+06    -16.5850E+06    -15.6457E-03     28.2066E-03    -12.5609E-03     64.2920E-03    -15.6953E-03     28.1383E-03    -12.4987E-03     64.0632E-03
            1179     12.4410E-03     102.684E-03    -9.20097E+06    -15.8060E+06     7.00314E+06    -17.0233E+06    -17.4219E-03     30.1954E-03    -12.7735E-03     73.8280E-03    -17.4848E-03     30.1492E-03    -12.7022E-03     73.5828E-03
            1180     13.3263E-03     102.752E-03    -9.49417E+06    -43.9121E+06    -6.95164E+06    -20.2147E+06    -19.7601E-03     32.7994E-03    -13.0393E-03     78.5570E-03    -19.7858E-03     32.6557E-03    -12.9966E-03     78.2557E-03
            1181     14.2084E-03     102.819E-03    -9.10036E+06    -38.1580E+06    -11.9512E+06    -23.2538E+06    -22.6055E-03     36.0152E-03    -13.4097E-03     85.0121E-03    -22.6822E-03     35.9589E-03    -13.4009E-03     84.6479E-03
            1182     15.0897E-03     102.901E-03    -6.86895E+06    -32.4653E+06    -10.2975E+06    -22.5350E+06    -26.9925E-03     40.9068E-03    -13.9143E-03     120.439E-03    -27.3370E-03     41.1417E-03    -13.9088E-03     120.050E-03
            1183     15.9659E-03     103.036E-03    -6.99776E+06    -7.35133E+06    -33.5195E+06    -15.8581E+06    -32.3243E-03     46.6261E-03    -14.3018E-03     194.060E-03    -34.4242E-03     48.7723E-03    -14.4486E-03     194.194E-03
            1184     16.8472E-03     103.261E-03    -5.83840E+06     104.883E+06     31.6497E+06    -6.49060E+06    -36.2108E-03     51.1227E-03    -14.9119E-03     278.691E-03    -43.6414E-03     58.8131E-03    -14.8972E-03     283.074E-03
            1185     889.617E-06     103.311E-03    -52.6678E+06    -51.3752E+06    -53.0084E+06     689.915E+03    -11.5553E-03     23.1416E-03    -11.5863E-03     3.73090E-03    -11.6672E-03     23.0381E-03    -11.7005E-03     3.73974E-03
            1186     1.77908E-03     103.315E-03    -47.1131E+06    -46.9580E+06    -46.3426E+06     2.30979E+06    -11.5614E-03     23.1414E-03    -11.5800E-03     6.94762E-03    -11.6617E-03     23.0421E-03    -11.6753E-03     6.97727E-03
            1187     2.66876E-03     103.322E-03    -38.0518E+06    -37.4604E+06    -35.8023E+06     6.07540E+06    -11.5610E-03     23.1528E-03    -11.5918E-03     10.3991E-03    -11.6451E-03     23.0726E-03    -11.6613E-03     10.4772E-03
            1188     3.55836E-03     103.331E-03    -28.3565E+06    -25.9709E+06    -22.4398E+06     10.5068E+06    -11.5833E-03     23.1984E-03    -11.6151E-03     14.0482E-03    -11.6550E-03     23.1423E-03    -11.6485E-03     14.1834E-03
            1189     4.44801E-03     103.344E-03    -22.6669E+06    -19.4354E+06    -11.0863E+06     11.6986E+06    -11.6557E-03     23.3044E-03    -11.6486E-03     17.9511E-03    -11.7249E-03     23.2562E-03    -11.6430E-03     18.1016E-03
            1190     5.33750E-03     103.360E-03    -21.3379E+06    -15.9135E+06    -4.57078E+06     9.11395E+06    -11.7670E-03     23.4472E-03    -11.6802E-03     22.0857E-03    -11.8442E-03     23.4054E-03    -11.6490E-03     22.2026E-03
            1191     6.22698E-03     103.380E-03    -19.8415E+06    -12.9795E+06    -1.09012E+06     5.42160E+06    -11.9092E-03     23.6168E-03    -11.7076E-03     26.5295E-03    -11.9884E-03     23.5827E-03    -11.6655E-03     26.5985E-03
            1192     7.11641E-03     103.403E-03    -16.7435E+06    -10.8720E+06     1.02454E+06     1.84598E+06    -12.0896E-03     23.8245E-03    -11.7349E-03     31.4448E-03    -12.1596E-03     23.7935E-03    -11.6897E-03     31.4674E-03
            1193     8.00563E-03     103.431E-03    -14.2299E+06    -10.0720E+06     2.33602E+06    -1.67443E+06    -12.3404E-03     24.1095E-03    -11.7691E-03     36.9830E-03    -12.4013E-03     24.0774E-03    -11.7222E-03     36.9596E-03
            1194     8.89487E-03     103.464E-03    -12.6717E+06    -9.49190E+06     4.14899E+06    -6.12433E+06    -12.7057E-03     24.5257E-03    -11.8200E-03     43.1828E-03    -12.7631E-03     24.4924E-03    -11.7671E-03     43.1010E-03
            1195     9.78359E-03     103.503E-03    -10.7518E+06    -13.0994E+06     5.78186E+06    -9.60045E+06    -13.2786E-03     25.1746E-03    -11.8960E-03     50.0466E-03    -13.3252E-03     25.1198E-03    -11.8325E-03     49.9182E-03
            1196     10.6722E-03     103.548E-03    -10.1975E+06    -16.3876E+06     6.35327E+06    -13.1543E+06    -14.1525E-03     26.1538E-03    -12.0013E-03     57.6429E-03    -14.1958E-03     26.0842E-03    -11.9310E-03     57.4654E-03
            1197     11.5595E-03     103.600E-03    -10.9031E+06    -15.9866E+06     5.42203E+06    -17.5128E+06    -15.4242E-03     27.5688E-03    -12.1446E-03     65.9824E-03    -15.4771E-03     27.5105E-03    -12.0785E-03     65.7429E-03
            1198     12.4466E-03     103.660E-03    -9.12680E+06    -14.9227E+06     7.42169E+06    -17.8568E+06    -17.3024E-03     29.6689E-03    -12.3665E-03     76.3125E-03    -17.3658E-03     29.6254E-03    -12.2945E-03     76.0580E-03
            1199     13.3311E-03     103.730E-03    -7.35357E+06    -37.0605E+06    -2.61922E+06    -19.3344E+06    -19.9615E-03     32.6235E-03    -12.6620E-03     82.0285E-03    -19.9924E-03     32.5045E-03    -12.6107E-03     81.7390E-03
            1200     14.2140E-03     103.801E-03    -8.30498E+06    -34.0540E+06    -8.38533E+06    -23.1378E+06    -23.3421E-03     36.4194E-03    -13.0772E-03     89.3217E-03    -23.4289E-03     36.3803E-03    -13.0577E-03     88.9560E-03
            1201     15.0924E-03     103.886E-03    -9.31234E+06    -32.9076E+06    -9.75489E+06    -24.5218E+06    -28.0584E-03     41.6968E-03    -13.6384E-03     124.384E-03    -28.4170E-03     41.9340E-03    -13.6260E-03     123.958E-03
            1202     15.9715E-03     104.024E-03    -5.56800E+06    -18.4227E+06    -32.1437E+06    -18.8553E+06    -33.6479E-03     47.7588E-03    -14.1109E-03     194.950E-03    -35.6385E-03     49.7575E-03    -14.2368E-03     194.967E-03
            1203     16.8473E-03     104.246E-03    -2.06033E+06     93.6179E+06     32.9435E+06    -7.08346E+06    -37.5635E-03     52.3568E-03    -14.7933E-03     277.505E-03    -44.7616E-03     59.7844E-03    -14.7613E-03     281.601E-03
            1204     889.906E-06     104.280E-03    -66.6560E+06    -49.3627E+06    -66.8286E+06    -2.91784E+06    -11.0120E-03     22.0758E-03    -11.0638E-03     3.71878E-03    -11.1767E-03     22.0227E-03    -11.2297E-03     3.68106E-03
            1205     1.78004E-03     104.285E-03    -62.0567E+06    -46.8435E+06    -61.4233E+06    -4.45934E+06    -11.0422E-03     22.0906E-03    -11.0484E-03     6.93010E-03    -11.1955E-03     22.0355E-03    -11.1976E-03     6.87241E-03
            1206     2.66998E-03     104.292E-03    -53.9218E+06    -40.9928E+06    -52.1295E+06    -4.51672E+06    -11.0634E-03     22.1311E-03    -11.0677E-03     10.3721E-03    -11.1980E-03     22.0799E-03    -11.1907E-03     10.3136E-03
            1207     3.56006E-03     104.301E-03    -41.7918E+06    -32.6246E+06    -38.8319E+06    -966.768E+03    -11.0989E-03     22.1964E-03    -11.0975E-03     13.9568E-03    -11.2043E-03     22.1503E-03    -11.1838E-03     13.9440E-03
            1208     4.45011E-03     104.314E-03    -28.3469E+06    -23.8054E+06    -23.4480E+06     4.78212E+06    -11.1587E-03     22.2947E-03    -11.1360E-03     17.7297E-03    -11.2320E-03     22.2509E-03    -11.1776E-03     17.7910E-03
            1209     5.34022E-03     104.331E-03    -18.5619E+06    -15.7315E+06    -8.79723E+06     7.83570E+06    -11.2844E-03     22.4687E-03    -11.1843E-03     21.8486E-03    -11.3418E-03     22.4299E-03    -11.1786E-03     21.9491E-03
            1210     6.23004E-03     104.350E-03    -14.7689E+06    -9.79793E+06     831.101E+03     6.10040E+06    -11.4923E-03     22.7272E-03    -11.2349E-03     26.3842E-03    -11.5535E-03     22.6987E-03    -11.1951E-03     26.4620E-03
            1211     7.11971E-03     104.374E-03    -13.7573E+06    -6.80761E+06     4.20822E+06     1.95086E+06    -11.7427E-03     23.0224E-03    -11.2797E-03     31.3645E-03    -11.8083E-03     23.0028E-03    -11.2288E-03     31.3885E-03
            1212     8.00938E-03     104.402E-03    -11.6155E+06    -5.79285E+06     5.46693E+06    -2.23011E+06    -12.0302E-03     23.3583E-03    -11.3281E-03     36.9645E-03    -12.0887E-03     23.3392E-03    -11.2755E-03     36.9341E-03
            1213     8.89868E-03     104.435E-03    -9.80481E+06    -4.78546E+06     6.81921E+06    -5.22815E+06    -12.3970E-03     23.7860E-03    -11.3890E-03     43.2858E-03    -12.4506E-03     23.7680E-03    -11.3337E-03     43.2159E-03
            1214     9.78795E-03     104.474E-03    -10.2537E+06    -8.86637E+06     7.19568E+06    -8.50735E+06    -12.9340E-03     24.4060E-03    -11.4721E-03     50.4067E-03    -12.9858E-03     24.3691E-03    -11.4084E-03     50.2931E-03
            1215     10.6765E-03     104.520E-03    -9.57756E+06    -10.4849E+06     8.26051E+06    -12.2948E+06    -13.7610E-03     25.3420E-03    -11.5810E-03     58.4434E-03    -13.8116E-03     25.2975E-03    -11.5106E-03     58.2782E-03
            1216     11.5649E-03     104.573E-03    -9.13673E+06    -11.3609E+06     8.83578E+06    -14.9568E+06    -15.1057E-03     26.8401E-03    -11.7345E-03     67.4131E-03    -15.1601E-03     26.7962E-03    -11.6605E-03     67.2080E-03
            1217     12.4513E-03     104.635E-03    -9.70095E+06    -12.0441E+06     8.97110E+06    -18.8335E+06    -17.0998E-03     29.0592E-03    -11.9594E-03     78.5239E-03    -17.1708E-03     29.0271E-03    -11.8830E-03     78.2585E-03
            1218     13.3372E-03     104.708E-03    -6.18649E+06    -32.1413E+06     1.12032E+06    -22.2096E+06    -19.9848E-03     32.2587E-03    -12.2740E-03     85.6636E-03    -20.0211E-03     32.1558E-03    -12.2128E-03     85.3385E-03
            1219     14.2187E-03     104.783E-03    -2.62610E+06    -31.4505E+06    -1.69629E+06    -22.3262E+06    -23.8950E-03     36.6260E-03    -12.7310E-03     93.9622E-03    -23.9679E-03     36.5831E-03    -12.6901E-03     93.6054E-03
            1220     15.0989E-03     104.872E-03    -3.64766E+06    -31.0622E+06    -3.28843E+06    -21.8939E+06    -29.1010E-03     42.4464E-03    -13.3455E-03     128.104E-03    -29.4399E-03     42.6719E-03    -13.3116E-03     127.700E-03
            1221     15.9739E-03     105.012E-03    -10.4788E+06    -25.7454E+06    -28.9811E+06    -20.0012E+06    -34.9173E-03     48.8182E-03    -13.9009E-03     195.383E-03    -36.8060E-03     50.6624E-03    -13.9933E-03     195.299E-03
            1222     16.8529E-03     105.233E-03    -11.3037E+06     79.3473E+06     28.2853E+06    -12.1399E+06    -39.0488E-03     53.6932E-03    -14.6444E-03     275.528E-03    -46.0046E-03     60.8085E-03    -14.6017E-03     279.211E-03
            1223     890.449E-06     105.250E-03    -66.1275E+06    -41.9808E+06    -65.6937E+06    -4.73617E+06    -10.6432E-03     21.2745E-03    -10.6313E-03     3.64386E-03    -10.8176E-03     21.2560E-03    -10.8030E-03     3.58265E-03
            1224     1.78066E-03     105.254E-03    -64.3921E+06    -40.7003E+06    -62.6332E+06    -8.31930E+06    -10.6628E-03     21.3134E-03    -10.6506E-03     6.78470E-03    -10.8349E-03     21.2941E-03    -10.8114E-03     6.67716E-03
            1225     2.67109E-03     105.261E-03    -61.2846E+06    -37.6058E+06    -57.5424E+06    -11.0103E+06    -10.6950E-03     21.3683E-03    -10.6733E-03     10.1720E-03    -10.8635E-03     21.3526E-03    -10.8176E-03     10.0296E-03
            1226     3.56136E-03     105.270E-03    -55.9027E+06    -34.6461E+06     -50.759E+06    -11.3984E+06    -10.7338E-03     21.4346E-03    -10.7008E-03     13.6830E-03    -10.8896E-03     21.4162E-03    -10.8233E-03     13.5355E-03
            1227     4.45170E-03     105.283E-03    -45.7120E+06    -28.9869E+06    -41.5837E+06    -8.68728E+06    -10.7703E-03     21.4960E-03    -10.7257E-03     17.3464E-03    -10.8967E-03     21.4778E-03    -10.8253E-03     17.2338E-03
            1228     5.34206E-03     105.300E-03    -30.9601E+06    -19.6166E+06    -27.5281E+06    -3.82771E+06    -10.8458E-03     21.6057E-03    -10.7599E-03     21.3233E-03    -10.9325E-03     21.5927E-03    -10.8242E-03     21.2732E-03
            1229     6.23255E-03     105.320E-03    -16.9475E+06    -10.4453E+06    -9.75941E+06     829.506E+03    -11.0234E-03     21.8437E-03    -10.8203E-03     25.7473E-03    -11.0792E-03     21.8306E-03    -10.8294E-03     25.7571E-03
            1230     7.12271E-03     105.344E-03    -9.52749E+06    -3.78807E+06     4.09850E+06     1.87657E+06    -11.3209E-03     22.2131E-03    -10.8922E-03     30.7720E-03    -11.3695E-03     22.2026E-03    -10.8524E-03     30.7951E-03
            1231     8.01245E-03     105.372E-03    -8.41205E+06    -853.026E+03     8.84054E+06    -1.34019E+06    -11.6793E-03     22.6343E-03    -10.9550E-03     36.4806E-03    -11.7338E-03     22.6303E-03    -10.8974E-03     36.4618E-03
            1232     8.90225E-03     105.405E-03    -7.84896E+06    -1.98918E+06     9.17443E+06    -4.66702E+06    -12.0637E-03     23.0833E-03    -11.0196E-03     42.8936E-03    -12.1148E-03     23.0728E-03    -10.9594E-03     42.8313E-03
            1233     9.79163E-03     105.445E-03    -5.29260E+06    -3.63334E+06     11.0295E+06    -7.54673E+06    -12.5679E-03     23.6721E-03    -11.1042E-03     50.2086E-03    -12.6076E-03     23.6482E-03    -11.0361E-03     50.1080E-03
            1234     10.6809E-03     105.491E-03    -4.18145E+06    -5.36779E+06     12.7294E+06    -11.4617E+06    -13.3799E-03     24.5943E-03    -11.2144E-03     58.6465E-03    -13.4165E-03     24.5601E-03    -11.1369E-03     58.4932E-03
            1235     11.5691E-03     105.546E-03    -3.16443E+06    -8.71320E+06     13.4532E+06    -13.6510E+06    -14.7170E-03     26.0845E-03    -11.3675E-03     68.2761E-03    -14.7505E-03     26.0368E-03    -11.2830E-03     68.0897E-03
            1236     12.4568E-03     105.609E-03    -2.64052E+06    -4.68587E+06     15.5414E+06    -16.2417E+06    -16.8240E-03     28.4157E-03    -11.5916E-03     80.2484E-03    -16.8775E-03     28.3981E-03    -11.5033E-03     80.0186E-03
            1237     13.3417E-03     105.685E-03    -5.07434E+06    -25.2028E+06     6.37901E+06    -23.3009E+06    -19.8519E-03     31.7646E-03    -11.9128E-03     88.8603E-03    -19.8975E-03     31.6844E-03    -11.8370E-03     88.5235E-03
            1238     14.2250E-03     105.765E-03    -3.63132E+06    -32.0884E+06    -1.26719E+06    -26.0645E+06    -24.1029E-03     36.4765E-03    -12.3735E-03     98.6940E-03    -24.1780E-03     36.4287E-03    -12.3281E-03     98.2896E-03
            1239     15.1024E-03     105.858E-03     1.43721E+06    -31.7818E+06     538.825E+03    -22.1927E+06    -30.3923E-03     43.4366E-03    -13.0443E-03     132.298E-03    -30.7054E-03     43.6408E-03    -12.9976E-03     131.875E-03
            1240     15.9794E-03     106.002E-03     7.79411E+06    -30.8568E+06    -14.2793E+06    -15.6177E+06    -36.6703E-03     50.4000E-03    -13.7297E-03     195.045E-03    -38.3354E-03     52.0247E-03    -13.7676E-03     194.915E-03
            1241     16.8526E-03     106.221E-03     7.92747E+06     69.3513E+06     40.3009E+06    -5.42680E+06    -40.6377E-03     55.1982E-03    -14.5605E-03     272.778E-03    -47.1917E-03     61.9096E-03    -14.4710E-03     276.155E-03
            1242     890.513E-06     106.218E-03    -48.9597E+06    -32.7094E+06    -48.2783E+06    -4.81342E+06    -10.4767E-03     20.9012E-03    -10.4245E-03     3.45787E-03    -10.6040E-03     20.8789E-03    -10.5475E-03     3.39562E-03
            1243     1.78122E-03     106.222E-03    -48.8771E+06    -32.1264E+06    -46.8362E+06    -8.48172E+06    -10.4937E-03     20.9587E-03    -10.4650E-03     6.46701E-03    -10.6236E-03     20.9369E-03    -10.5817E-03     6.35729E-03
            1244     2.67165E-03     106.229E-03    -48.8044E+06    -30.9248E+06    -44.9120E+06    -11.6461E+06    -10.5420E-03     21.0315E-03    -10.4895E-03     9.71518E-03    -10.6761E-03     21.0128E-03    -10.5984E-03     9.56448E-03
            1245     3.56220E-03     106.239E-03    -48.1409E+06    -30.4547E+06    -42.4998E+06    -14.0884E+06    -10.5964E-03     21.1143E-03    -10.5179E-03     13.0747E-03    -10.7315E-03     21.0936E-03    -10.6164E-03     12.8923E-03
            1246     4.45265E-03     106.252E-03    -46.2911E+06    -27.7539E+06    -39.6098E+06    -16.0734E+06    -10.6463E-03     21.1888E-03    -10.5425E-03     16.6071E-03    -10.7803E-03     21.1748E-03    -10.6332E-03     16.3990E-03
            1247     5.34314E-03     106.268E-03    -41.2608E+06    -21.9868E+06    -35.3825E+06    -15.9503E+06    -10.6794E-03     21.2395E-03    -10.5601E-03     20.4148E-03    -10.8029E-03     21.2411E-03    -10.6453E-03     20.2080E-03
            1248     6.23356E-03     106.288E-03    -31.0057E+06    -15.0330E+06    -25.9005E+06    -12.2130E+06    -10.7259E-03     21.3141E-03    -10.5882E-03     24.6102E-03    -10.8220E-03     21.3218E-03    -10.6509E-03     24.4516E-03
            1249     7.12423E-03     106.313E-03    -17.3011E+06    -6.02934E+06    -10.8993E+06    -6.44417E+06    -10.8849E-03     21.5208E-03    -10.6359E-03     29.4339E-03    -10.9475E-03     21.5321E-03    -10.6565E-03     29.3495E-03
            1250     8.01473E-03     106.341E-03    -6.99799E+06     983.279E+03     4.15778E+06    -2.66351E+06    -11.2134E-03     21.9185E-03    -10.7051E-03     35.0801E-03    -11.2566E-03     21.9284E-03    -10.6756E-03     35.0443E-03
            1251     8.90459E-03     106.375E-03    -3.49843E+06     1.99050E+06     12.2793E+06    -4.09821E+06    -11.6611E-03     22.4420E-03    -10.7810E-03     41.6096E-03    -11.7005E-03     22.4405E-03    -10.7174E-03     41.5549E-03
            1252     9.79444E-03     106.415E-03    -3.02151E+06     679.315E+03     14.0724E+06    -7.76857E+06    -12.1914E-03     23.0473E-03    -10.8559E-03     49.1008E-03    -12.2300E-03     23.0368E-03    -10.7822E-03     48.9979E-03
            1253     10.6838E-03     106.462E-03    -2.31267E+06    -1.35543E+06     15.5085E+06    -9.82764E+06    -12.9664E-03     23.9222E-03    -10.9558E-03     57.8904E-03    -13.0025E-03     23.9003E-03    -10.8729E-03     57.7593E-03
            1254     11.5728E-03     106.518E-03    -1.83625E+06    -3.97089E+06     17.1468E+06    -13.6676E+06    -14.2616E-03     25.3623E-03    -11.1008E-03     68.2014E-03    -14.2986E-03     25.3290E-03    -11.0066E-03     68.0167E-03
            1255     12.4603E-03     106.583E-03    -659.492E+03    -2.71446E+06     19.1641E+06    -14.8446E+06    -16.3600E-03     27.6728E-03    -11.3128E-03     81.1488E-03    -16.4078E-03     27.6531E-03    -11.2121E-03     80.9402E-03
            1256     13.3466E-03     106.662E-03    -1.80856E+06    -12.8550E+06     14.9265E+06    -17.8769E+06    -19.5267E-03     31.1560E-03    -11.6293E-03     91.2815E-03    -19.5814E-03     31.1155E-03    -11.5334E-03     91.0180E-03
            1257     14.2287E-03     106.745E-03    -6.39500E+06    -27.8879E+06     438.738E+03    -26.7879E+06    -24.1861E-03     36.2638E-03    -12.0777E-03     102.750E-03    -24.2782E-03     36.2332E-03    -12.0258E-03     102.338E-03
            1258     15.1092E-03     106.846E-03    -6.76217E+06    -36.0758E+06     1.35493E+06    -27.7653E+06    -31.1993E-03     43.9906E-03    -12.7914E-03     137.318E-03    -31.5317E-03     44.1675E-03    -12.7225E-03     136.814E-03
            1259     15.9801E-03     106.995E-03    -4.46693E+06    -39.5493E+06    -12.5481E+06    -21.5528E+06    -38.5953E-03     52.1649E-03    -13.5696E-03     195.981E-03    -40.1508E-03     53.6008E-03    -13.5685E-03     195.658E-03
            1260     16.8565E-03     107.208E-03     -895.79E+03     55.4993E+06     34.3061E+06    -4.88186E+06    -42.3564E-03     56.8247E-03    -14.4683E-03     270.012E-03    -48.5770E-03     63.1396E-03    -14.3759E-03     272.903E-03
            1261     890.695E-06     107.186E-03    -30.8029E+06    -24.0561E+06    -30.1365E+06    -3.92922E+06    -10.5170E-03     21.0074E-03    -10.4904E-03     3.19877E-03    -10.5923E-03     20.9756E-03    -10.5615E-03     3.14786E-03
            1262     1.78114E-03     107.190E-03    -31.3198E+06    -24.1929E+06    -29.8572E+06    -7.16980E+06    -10.5569E-03     21.0736E-03    -10.5167E-03     5.99773E-03    -10.6352E-03     21.0414E-03    -10.5855E-03     5.90481E-03
            1263     2.67177E-03     107.197E-03    -31.5481E+06    -23.5777E+06    -28.6115E+06    -10.3648E+06    -10.6341E-03     21.1809E-03    -10.5468E-03     9.00097E-03    -10.7163E-03     21.1503E-03    -10.6099E-03     8.86662E-03
            1264     3.56219E-03     107.207E-03    -31.1197E+06    -23.9766E+06    -26.3755E+06    -13.4347E+06    -10.7249E-03     21.3134E-03    -10.5885E-03     12.0876E-03    -10.8076E-03     21.2771E-03    -10.6405E-03     11.9134E-03
            1265     4.45261E-03     107.220E-03    -30.5550E+06    -21.9757E+06    -23.9129E+06    -15.9812E+06    -10.8049E-03     21.4344E-03    -10.6294E-03     15.3621E-03    -10.8915E-03     21.4038E-03    -10.6728E-03     15.1548E-03
            1266     5.34289E-03     107.237E-03    -30.6342E+06    -18.9127E+06    -22.3123E+06    -18.1334E+06    -10.8559E-03     21.5182E-03    -10.6623E-03     18.9095E-03    -10.9497E-03     21.5009E-03    -10.7020E-03     18.6742E-03
            1267     6.23333E-03     107.257E-03    -29.9573E+06    -15.6223E+06    -21.1399E+06    -19.1613E+06    -10.8637E-03     21.5470E-03    -10.6833E-03     22.8413E-03    -10.9608E-03     21.5436E-03    -10.7229E-03     22.5925E-03
            1268     7.12367E-03     107.281E-03    -25.5208E+06    -10.1168E+06    -17.4627E+06    -17.3447E+06    -10.8397E-03     21.5353E-03    -10.6956E-03     27.3145E-03    -10.9281E-03     21.5478E-03    -10.7312E-03     27.0891E-03
            1269     8.01427E-03     107.310E-03    -15.5449E+06    -2.71258E+06    -8.07830E+06    -12.2932E+06    -10.8885E-03     21.6039E-03    -10.7154E-03     32.5784E-03    -10.9515E-03     21.6255E-03    -10.7293E-03     32.4181E-03
            1270     8.90505E-03     107.344E-03    -5.00180E+06     3.15691E+06     5.21431E+06    -7.60853E+06    -11.1739E-03     21.9342E-03    -10.7602E-03     38.9405E-03    -11.2123E-03     21.9508E-03    -10.7315E-03     38.8405E-03
            1271     9.79509E-03     107.385E-03    -175.950E+03     4.07494E+06     15.1477E+06    -6.97774E+06    -11.7256E-03     22.5522E-03    -10.8265E-03     46.5629E-03    -11.7561E-03     22.5526E-03    -10.7564E-03     46.4706E-03
            1272     10.6848E-03     107.432E-03     1.09042E+06     1.64721E+06     18.8779E+06    -9.31167E+06    -12.5413E-03     23.4482E-03    -10.9069E-03     55.7135E-03    -12.5687E-03     23.4305E-03    -10.8165E-03     55.5900E-03
            1273     11.5740E-03     107.489E-03     679.377E+03     776.407E+03     21.4998E+06    -10.6666E+06    -13.7915E-03     24.8210E-03    -11.0295E-03     66.5497E-03    -13.8269E-03     24.7992E-03    -10.9241E-03     66.4058E-03
            1274     12.4623E-03     107.556E-03    -1.10346E+06    -518.940E+03     22.9358E+06    -13.6645E+06    -15.7797E-03     26.9980E-03    -11.2183E-03     80.3221E-03    -15.8336E-03     26.9797E-03    -11.1013E-03     80.1323E-03
            1275     13.3486E-03     107.637E-03    -1.81188E+06    -8.60424E+06     20.1041E+06    -13.8843E+06    -18.9292E-03     30.4354E-03    -11.5062E-03     92.2033E-03    -18.9900E-03     30.4011E-03    -11.3906E-03     91.9966E-03
            1276     14.2326E-03     107.726E-03    -5.80318E+06    -12.3295E+06     11.6427E+06    -19.1309E+06    -24.2594E-03     36.2126E-03    -11.9532E-03     105.802E-03    -24.3786E-03     36.2340E-03    -11.8687E-03     105.491E-03
            1277     15.1094E-03     107.831E-03    -11.4923E+06    -35.4576E+06     2.49689E+06    -28.2829E+06    -31.1582E-03     43.8043E-03    -12.6460E-03     140.100E-03    -31.4835E-03     43.9559E-03    -12.5655E-03     139.589E-03
            1278     15.9875E-03     107.988E-03    -26.1610E+06    -43.4402E+06    -17.1414E+06    -25.4413E+06    -39.3226E-03     52.7605E-03    -13.4379E-03     198.376E-03    -40.7591E-03     54.0000E-03    -13.4227E-03     197.909E-03
            1279     16.8537E-03     108.202E-03    -28.8120E+06     42.3075E+06     14.6973E+06    -14.7571E+06    -43.0232E-03     57.3440E-03    -14.3207E-03     267.422E-03    -48.7769E-03     63.1028E-03    -14.2668E-03     269.703E-03
            1280     890.259E-06     108.154E-03    -14.8028E+06    -17.0924E+06    -14.3523E+06    -3.03897E+06    -10.8828E-03     21.7424E-03    -10.8596E-03     2.85608E-03    -10.9111E-03     21.6995E-03    -10.8851E-03     2.81655E-03
            1281     1.78073E-03     108.159E-03    -14.9896E+06    -17.2026E+06    -13.5849E+06    -5.89206E+06    -10.9492E-03     21.8401E-03    -10.8909E-03     5.34999E-03    -10.9796E-03     21.7956E-03    -10.9122E-03     5.27340E-03
            1282     2.67087E-03     108.166E-03    -15.6251E+06    -16.8477E+06    -12.9246E+06    -8.76126E+06    -11.0469E-03     21.9766E-03    -10.9297E-03     8.01772E-03    -11.0820E-03     21.9339E-03    -10.9472E-03     7.90382E-03
            1283     3.56105E-03     108.176E-03    -16.6650E+06    -17.1339E+06    -12.3565E+06    -11.8374E+06    -11.1573E-03     22.1343E-03    -10.9770E-03     10.7671E-03    -11.1981E-03     22.0909E-03    -10.9898E-03     10.6132E-03
            1284     4.45105E-03     108.189E-03    -17.2372E+06    -16.1735E+06    -11.8180E+06    -14.6151E+06    -11.2602E-03     22.2848E-03    -11.0246E-03     13.6848E-03    -11.3062E-03     22.2464E-03    -11.0352E-03     13.4947E-03
            1285     5.34113E-03     108.206E-03    -17.0991E+06    -13.8871E+06    -9.51675E+06    -16.3454E+06    -11.3555E-03     22.4326E-03    -11.0772E-03     16.8245E-03    -11.4076E-03     22.4023E-03    -11.0798E-03     16.6117E-03
            1286     6.23093E-03     108.226E-03    -17.2539E+06    -11.6924E+06    -6.45470E+06    -17.9397E+06    -11.4068E-03     22.5362E-03    -11.1294E-03     20.3064E-03    -11.4676E-03     22.5129E-03    -11.1197E-03     20.0727E-03
            1287     7.12093E-03     108.250E-03    -17.8727E+06    -9.29684E+06    -4.76413E+06    -19.1468E+06    -11.3616E-03     22.5240E-03    -11.1624E-03     24.3200E-03    -11.4316E-03     22.5114E-03    -11.1468E-03     24.0705E-03
            1288     8.01096E-03     108.278E-03    -17.4604E+06    -5.13773E+06    -4.76107E+06    -19.0053E+06    -11.2302E-03     22.3926E-03    -11.1623E-03     29.0323E-03    -11.3044E-03     22.4003E-03    -11.1534E-03     28.7846E-03
            1289     8.90129E-03     108.313E-03    -13.1140E+06    -1.19636E+06    -553.506E+03    -15.1560E+06    -11.1365E-03     22.2939E-03    -11.1574E-03     34.7563E-03    -11.2009E-03     22.3091E-03    -11.1394E-03     34.5583E-03
            1290     9.79210E-03     108.354E-03    -6.16075E+06     3.88138E+06     8.11870E+06    -10.1948E+06    -11.3191E-03     22.4829E-03    -11.1638E-03     41.9488E-03    -11.3690E-03     22.5011E-03    -11.1199E-03     41.8149E-03
            1291     10.6823E-03     108.402E-03    -2.29999E+06     4.62286E+06     16.1076E+06    -8.97568E+06    -12.0169E-03     23.2175E-03    -11.2006E-03     51.2658E-03    -12.0607E-03     23.2229E-03    -11.1235E-03     51.1472E-03
            1292     11.5716E-03     108.459E-03    -354.816E+03     1.69247E+06     23.1722E+06    -9.51595E+06    -13.2858E-03     24.5794E-03    -11.2936E-03     62.6280E-03    -13.3280E-03     24.5592E-03    -11.1797E-03     62.5007E-03
            1293     12.4601E-03     108.528E-03     132.115E+03     3.97689E+06     27.5098E+06    -9.58547E+06    -15.1916E-03     26.6338E-03    -11.4422E-03     76.9432E-03    -15.2474E-03     26.6244E-03    -11.3106E-03     76.8098E-03
            1294     13.3473E-03     108.612E-03    -1.99978E+06    -8.77391E+06     23.4432E+06    -10.9727E+06    -18.2772E-03     29.9628E-03    -11.6857E-03     90.5097E-03    -18.3343E-03     29.9139E-03    -11.5528E-03     90.3466E-03
            1295     14.2311E-03     108.704E-03    -4.59995E+06    -3.51996E+06     18.4324E+06    -10.5393E+06    -23.3788E-03     35.4564E-03    -12.0776E-03     107.274E-03    -23.4963E-03     35.4920E-03    -11.9737E-03     107.084E-03
            1296     15.1104E-03     108.820E-03    -11.2070E+06    -19.3654E+06     8.19450E+06    -18.7905E+06    -30.5708E-03     43.2723E-03    -12.7015E-03     141.398E-03    -30.8792E-03     43.4488E-03    -12.6162E-03     141.018E-03
            1297     15.9837E-03     108.972E-03    -6.41319E+06    -52.0547E+06    -11.2493E+06    -21.7421E+06    -37.2401E-03     50.6497E-03    -13.4097E-03     199.984E-03    -38.2821E-03     51.5169E-03    -13.3811E-03     199.540E-03
            1298     16.8612E-03     109.204E-03     1.77453E+06     25.8341E+06     21.1398E+06    -13.8347E+06    -42.5446E-03     56.7334E-03    -14.1888E-03     268.303E-03    -47.3914E-03     61.6173E-03    -14.1231E-03     269.971E-03
            1299     889.831E-06     109.124E-03    -373.523E+03    -11.4780E+06     -55.457E+03    -2.69219E+06    -11.6697E-03     23.2962E-03    -11.6265E-03     2.46598E-03    -11.6548E-03     23.2396E-03    -11.6096E-03     2.43085E-03
            1300     1.77930E-03     109.128E-03    -618.525E+03    -11.4132E+06     496.126E+03    -4.74445E+06    -11.7539E-03     23.4266E-03    -11.6728E-03     4.56963E-03    -11.7412E-03     23.3698E-03    -11.6528E-03     4.50766E-03
            1301     2.66896E-03     109.136E-03    -1.33283E+06    -11.4021E+06     945.777E+03    -6.82046E+06    -11.8609E-03     23.5825E-03    -11.7216E-03     6.83478E-03    -11.8526E-03     23.5262E-03    -11.6984E-03     6.74562E-03
            1302     3.55838E-03     109.146E-03    -2.38441E+06    -10.8192E+06     1.16261E+06    -9.29204E+06    -11.9977E-03     23.7743E-03    -11.7766E-03     9.14869E-03    -11.9959E-03     23.7222E-03    -11.7516E-03     9.02721E-03
            1303     4.44777E-03     109.160E-03    -3.97719E+06    -10.5144E+06     1.40525E+06    -12.1418E+06    -12.1463E-03     23.9867E-03    -11.8404E-03     11.5776E-03    -12.1534E-03     23.9383E-03    -11.8124E-03     11.4189E-03
            1304     5.33688E-03     109.176E-03    -5.65787E+06    -9.60866E+06     1.44777E+06    -14.1703E+06    -12.2679E-03     24.1729E-03    -11.9051E-03     14.2227E-03    -12.2850E-03     24.1315E-03    -11.8757E-03     14.0373E-03
            1305     6.22610E-03     109.196E-03    -6.94023E+06    -7.65955E+06     3.13604E+06    -15.1517E+06    -12.3563E-03     24.3288E-03    -11.9725E-03     17.1557E-03    -12.3853E-03     24.2968E-03    -11.9357E-03     16.9572E-03
            1306     7.11509E-03     109.220E-03    -7.97364E+06    -5.74357E+06     5.97424E+06    -16.1714E+06    -12.3906E-03     24.4279E-03    -12.0373E-03     20.5073E-03    -12.4320E-03     24.4032E-03    -11.9876E-03     20.2952E-03
            1307     8.00424E-03     109.249E-03    -9.51246E+06    -3.69138E+06     8.41202E+06    -16.5282E+06    -12.3233E-03     24.4093E-03    -12.0860E-03     24.4801E-03    -12.3793E-03     24.3938E-03    -12.0247E-03     24.2631E-03
            1308     8.89346E-03     109.282E-03    -11.6511E+06    -3.36520E+06     8.20604E+06    -16.1932E+06    -12.1274E-03     24.2289E-03    -12.1014E-03     29.3177E-03    -12.1946E-03     24.2187E-03    -12.0386E-03     29.1050E-03
            1309     9.78301E-03     109.323E-03    -11.7950E+06     299.929E+03     8.26021E+06    -13.5954E+06    -11.9270E-03     24.0115E-03    -12.0845E-03     35.4578E-03    -12.0004E-03     24.0200E-03    -12.0265E-03     35.2788E-03
            1310     10.6733E-03     109.371E-03    -8.62867E+06     4.91902E+06     15.9088E+06    -10.3411E+06    -12.0802E-03     24.1696E-03    -12.0894E-03     43.7699E-03    -12.1558E-03     24.1858E-03    -12.0045E-03     43.6332E-03
            1311     11.5634E-03     109.429E-03    -5.47220E+06     3.14715E+06     24.4714E+06    -9.92687E+06    -12.8809E-03     25.0122E-03    -12.1312E-03     54.7492E-03    -12.9514E-03     25.0034E-03    -12.0055E-03     54.6174E-03
            1312     12.4519E-03     109.499E-03    -3.70012E+06     1.86746E+06     28.5007E+06    -7.60831E+06    -14.4252E-03     26.6330E-03    -12.2078E-03     69.4250E-03    -14.4938E-03     26.6125E-03    -12.0627E-03     69.3207E-03
            1313     13.3392E-03     109.585E-03    -4.21080E+06    -4.82916E+06     27.1844E+06    -6.05699E+06    -17.2449E-03     29.6132E-03    -12.3683E-03     85.1838E-03    -17.3138E-03     29.5714E-03    -12.2193E-03     85.0915E-03
            1314     14.2237E-03     109.683E-03    -6.65817E+06    -5.37900E+06     23.7165E+06    -6.51887E+06    -21.5338E-03     34.1985E-03    -12.6646E-03     103.814E-03    -21.6407E-03     34.1940E-03    -12.5286E-03     103.693E-03
            1315     15.1063E-03     109.802E-03    -7.01403E+06    -2.33321E+06     25.7674E+06    -8.71282E+06    -28.2502E-03     41.4219E-03    -13.1717E-03     139.598E-03    -28.5138E-03     41.5781E-03    -13.0293E-03     139.376E-03
            1316     15.9822E-03     109.967E-03    -8.71138E+06    -49.8995E+06    -1.61689E+06    -21.4114E+06    -34.3372E-03     48.0681E-03    -13.7310E-03     191.379E-03    -35.0879E-03     48.6153E-03    -13.6541E-03     190.940E-03
            1317     16.8656E-03     110.175E-03    -8.50973E+06     598.572E+03     13.4141E+06    -26.3210E+06    -39.4034E-03     53.7248E-03    -14.3214E-03     262.591E-03    -43.2762E-03     57.5313E-03    -14.2429E-03     263.439E-03
            1318     888.553E-06     110.096E-03     10.0783E+06    -6.83387E+06     10.4546E+06    -2.02826E+06    -12.9052E-03     25.7953E-03    -12.8901E-03     2.04736E-03    -12.8600E-03     25.7315E-03    -12.8426E-03     2.02071E-03
            1319     1.77729E-03     110.100E-03     9.42172E+06    -6.96992E+06     10.0552E+06    -3.77247E+06    -13.0350E-03     25.9615E-03    -12.9265E-03     3.68764E-03    -12.9925E-03     25.8984E-03    -12.8798E-03     3.63801E-03
            1320     2.66567E-03     110.108E-03     9.24668E+06    -7.06018E+06     10.7966E+06    -5.53708E+06    -13.1787E-03     26.1709E-03    -12.9922E-03     5.44257E-03    -13.1381E-03     26.1066E-03    -12.9414E-03     5.36967E-03
            1321     3.55404E-03     110.118E-03     8.55443E+06    -6.45598E+06     12.1476E+06    -6.87267E+06    -13.3505E-03     26.4213E-03    -13.0707E-03     7.22074E-03    -13.3163E-03     26.3591E-03    -13.0130E-03     7.13009E-03
            1322     4.44210E-03     110.132E-03     6.79644E+06    -5.48499E+06     12.6784E+06    -8.48668E+06    -13.5335E-03     26.6890E-03    -13.1554E-03     9.08973E-03    -13.5105E-03     26.6336E-03    -13.0939E-03     8.97769E-03
            1323     5.33014E-03     110.149E-03     4.64122E+06    -5.32857E+06     12.1292E+06    -10.6800E+06    -13.7114E-03     26.9534E-03    -13.2420E-03     11.1307E-03    -13.6987E-03     26.9029E-03    -13.1804E-03     10.9898E-03
            1324     6.21790E-03     110.169E-03     2.85305E+06    -4.79399E+06     12.1993E+06    -12.0009E+06    -13.8820E-03     27.2149E-03    -13.3329E-03     13.4023E-03    -13.8795E-03     27.1698E-03    -13.2691E-03     13.2437E-03
            1325     7.10564E-03     110.193E-03      910.48E+03    -2.95806E+06     14.6968E+06    -12.2331E+06    -14.0476E-03     27.4827E-03    -13.4351E-03     15.9676E-03    -14.0613E-03     27.4462E-03    -13.3587E-03     15.8054E-03
            1326     7.99314E-03     110.221E-03    -1.05269E+06    -2.27638E+06     17.4412E+06    -12.0729E+06    -14.1736E-03     27.7124E-03    -13.5388E-03     18.9582E-03    -14.2025E-03     27.6786E-03    -13.4468E-03     18.7974E-03
            1327     8.88071E-03     110.255E-03    -2.33331E+06    -1.73042E+06     19.6014E+06    -11.8574E+06    -14.2451E-03     27.8779E-03    -13.6328E-03     22.5719E-03    -14.2848E-03     27.8459E-03    -13.5289E-03     22.4133E-03
            1328     9.76830E-03     110.294E-03    -2.75015E+06    -872.337E+03     22.4985E+06    -12.1497E+06    -14.2322E-03     27.9497E-03    -13.7175E-03     27.2001E-03    -14.2800E-03     27.9188E-03    -13.5997E-03     27.0373E-03
            1329     10.6558E-03     110.342E-03    -2.58825E+06     2.32613E+06     26.6603E+06    -10.2695E+06    -14.0519E-03     27.8361E-03    -13.7842E-03     33.5658E-03    -14.1100E-03     27.8153E-03    -13.6505E-03     33.4274E-03
            1330     11.5439E-03     110.400E-03    -3.39127E+06     3.61305E+06     30.3795E+06    -7.32933E+06    -13.9638E-03     27.7946E-03    -13.8308E-03     42.4151E-03    -14.0334E-03     27.7763E-03    -13.6793E-03     42.3151E-03
            1331     12.4329E-03     110.471E-03    -3.99316E+06    -1.00249E+06     30.9743E+06    -5.95395E+06    -14.3620E-03     28.2264E-03    -13.8644E-03     55.2075E-03    -14.4293E-03     28.1858E-03    -13.7023E-03     55.1255E-03
            1332     13.3209E-03     110.557E-03    -1.76094E+06    -4.54441E+06     33.0169E+06    -3.96285E+06    -15.8949E-03     29.8295E-03    -13.9345E-03     71.3726E-03    -15.9520E-03     29.7683E-03    -13.7603E-03     71.3140E-03
            1333     14.2073E-03     110.659E-03     2.14746E+06    -3.82420E+06     37.0961E+06    -3.82168E+06    -19.3278E-03     33.4385E-03    -14.1108E-03     90.8587E-03    -19.3884E-03     33.3859E-03    -13.9228E-03     90.7884E-03
            1334     15.0889E-03     110.782E-03     884.296E+03    -124.125E+03     36.4926E+06    -3.90778E+06    -24.9489E-03     39.3767E-03    -14.4279E-03     126.151E-03    -25.1074E-03     39.4322E-03    -14.2465E-03     126.030E-03
            1335     15.9716E-03     110.950E-03    -393.098E+03    -23.2957E+06     25.3598E+06    -14.0021E+06    -32.9412E-03     47.8629E-03    -14.9217E-03     173.068E-03    -33.4331E-03     48.1974E-03    -14.7605E-03     172.718E-03
            1336     16.8393E-03     111.160E-03    -3.44496E+06    -3.57231E+06     19.5266E+06    -27.0945E+06    -27.6546E-03     42.8172E-03    -15.1626E-03     239.248E-03    -29.9176E-03     45.0035E-03    -15.0548E-03     239.656E-03
            1337     887.232E-06     111.070E-03     17.9176E+06    -3.52473E+06     18.1995E+06    -1.14160E+06    -14.7707E-03     29.4792E-03    -14.7086E-03     1.49607E-03    -14.7024E-03     29.4094E-03    -14.6385E-03     1.48085E-03
            1338     1.77404E-03     111.075E-03     17.4601E+06    -3.22303E+06     18.2221E+06    -2.81266E+06    -14.9200E-03     29.7003E-03    -14.7803E-03     2.54353E-03    -14.8547E-03     29.6323E-03    -14.7098E-03     2.50617E-03
            1339     2.66093E-03     111.083E-03     16.5567E+06    -3.63761E+06     18.6447E+06    -4.24752E+06    -15.1105E-03     29.9786E-03    -14.8681E-03     3.65854E-03    -15.0498E-03     29.9093E-03    -14.7936E-03     3.60214E-03
            1340     3.54747E-03     111.093E-03     15.8314E+06    -4.19904E+06     19.5209E+06    -4.87047E+06    -15.3023E-03     30.2709E-03    -14.9686E-03     4.80791E-03    -15.2457E-03     30.1986E-03    -14.8878E-03     4.74291E-03
            1341     4.43398E-03     111.107E-03     15.4382E+06    -1.79228E+06     21.1296E+06    -5.76177E+06    -15.5321E-03     30.6086E-03    -15.0765E-03     6.03261E-03    -15.4834E-03     30.5467E-03    -14.9907E-03     5.95548E-03
            1342     5.32010E-03     111.124E-03     14.6207E+06    -1.76245E+06     22.8800E+06    -7.12408E+06    -15.8344E-03     31.0381E-03    -15.2037E-03     7.34645E-03    -15.7925E-03     30.9751E-03    -15.1080E-03     7.25102E-03
            1343     6.20602E-03     111.145E-03     12.4704E+06    -2.63915E+06     23.5503E+06    -7.83034E+06    -16.1846E-03     31.5316E-03    -15.3470E-03     8.79283E-03    -16.1535E-03     31.4665E-03    -15.2435E-03     8.68750E-03
            1344     7.09154E-03     111.169E-03     10.3535E+06    -1.42316E+06     24.2243E+06    -8.00720E+06    -16.5864E-03     32.0927E-03    -15.5063E-03     10.3955E-03    -16.5688E-03     32.0359E-03    -15.3981E-03     10.2870E-03
            1345     7.97675E-03     111.198E-03     8.99029E+06    -1.01338E+06     27.2339E+06    -7.97639E+06    -17.0878E-03     32.7877E-03    -15.6999E-03     12.1790E-03    -17.0824E-03     32.7308E-03    -15.5753E-03     12.0698E-03
            1346     8.86137E-03     111.231E-03     7.79101E+06    -690.416E+03     31.1103E+06    -7.86524E+06    -17.6384E-03     33.5612E-03    -15.9229E-03     14.3000E-03    -17.6455E-03     33.5024E-03    -15.7776E-03     14.1909E-03
            1347     9.74537E-03     111.271E-03     6.00232E+06     724.804E+03     34.0962E+06    -7.78734E+06    -18.1072E-03     34.2672E-03    -16.1600E-03     17.1065E-03    -18.1304E-03     34.2141E-03    -15.9992E-03     16.9971E-03
            1348     10.6291E-03     111.318E-03     3.98749E+06    -243.112E+03     35.5085E+06    -6.74252E+06    -18.3368E-03     34.7334E-03    -16.3966E-03     20.9760E-03    -18.3715E-03     34.6767E-03    -16.2245E-03     20.8791E-03
            1349     11.5131E-03     111.375E-03     3.95794E+06     1.30549E+06     37.1760E+06    -4.14984E+06    -18.1750E-03     34.7838E-03    -16.6088E-03     26.4527E-03    -18.2151E-03     34.7328E-03    -16.4305E-03     26.3890E-03
            1350     12.3968E-03     111.445E-03     4.62150E+06    -418.056E+03     37.8997E+06    -3.10069E+06    -17.5672E-03     34.3428E-03    -16.7756E-03     34.6430E-03    -17.6030E-03     34.2813E-03    -16.5922E-03     34.5936E-03
            1351     13.2825E-03     111.529E-03     7.02499E+06    -4.84183E+06     42.3117E+06    -5.00220E+06    -16.8871E-03     33.7912E-03    -16.9042E-03     46.9435E-03    -16.9112E-03     33.6984E-03    -16.6958E-03     46.8709E-03
            1352     14.1682E-03     111.634E-03     10.5958E+06    -5.14031E+06     44.0737E+06    -3.37586E+06    -17.4788E-03     34.4642E-03    -16.9854E-03     64.8922E-03    -17.4911E-03     34.3672E-03    -16.7729E-03     64.8379E-03
            1353     15.0531E-03     111.759E-03     16.4546E+06    -837.006E+03       47.81E+06    -620.333E+03    -22.3468E-03     39.5087E-03    -17.1619E-03     99.3922E-03    -22.3799E-03     39.4584E-03    -16.9454E-03     99.3440E-03
            1354     15.9296E-03     111.928E-03     22.6070E+06    -1.39971E+06     55.1839E+06    -9.20279E+06    -27.8356E-03     45.3414E-03    -17.5058E-03     147.422E-03    -28.0317E-03     45.4544E-03    -17.2606E-03     147.186E-03
            1355     16.8089E-03     112.149E-03     15.7470E+06     478.452E+03     33.9477E+06    -13.5383E+06    -8.42759E-03     25.5933E-03    -17.1657E-03     183.562E-03    -9.09356E-03     26.2254E-03    -17.0195E-03     183.670E-03
            1356     884.705E-06     112.048E-03     25.1162E+06    -1.23598E+06     25.3388E+06    -912.870E+03    -17.3975E-03     34.8622E-03    -17.4647E-03     386.862E-06    -17.3070E-03     34.7828E-03    -17.3726E-03     374.912E-06
            1357     1.76962E-03     112.054E-03     24.6717E+06    -821.637E+03     25.8473E+06    -1.45988E+06    -17.5477E-03     35.0131E-03    -17.4653E-03     881.380E-06    -17.4611E-03     34.9353E-03    -17.3707E-03     861.726E-06
            1358     2.65397E-03     112.062E-03     23.6178E+06    -1.31584E+06     26.7351E+06    -2.10593E+06    -17.7479E-03     35.2917E-03    -17.5438E-03     1.26239E-03    -17.6671E-03     35.2117E-03    -17.4425E-03     1.23397E-03
            1359     3.53834E-03     112.073E-03     22.7425E+06    -2.35993E+06     27.2431E+06    -3.09721E+06    -18.0076E-03     35.6582E-03    -17.6506E-03     1.67777E-03    -17.9304E-03     35.5735E-03    -17.5439E-03     1.63608E-03
            1360     4.42230E-03     112.087E-03     21.8400E+06     48.0965E+03     27.8400E+06    -3.59383E+06    -18.3456E-03     36.1259E-03    -17.7803E-03     2.10856E-03    -18.2773E-03     36.0538E-03    -17.6729E-03     2.05993E-03
            1361     5.30602E-03     112.104E-03     20.1171E+06    -10.2521E+03     30.1566E+06    -3.47713E+06    -18.8320E-03     36.7905E-03    -17.9584E-03     2.54840E-03    -18.7758E-03     36.7172E-03    -17.8368E-03     2.50067E-03
            1362     6.18909E-03     112.125E-03     18.5059E+06    -1.38574E+06     32.3679E+06    -3.49705E+06    -19.4966E-03     37.6801E-03    -18.1835E-03     2.96996E-03    -19.4497E-03     37.5990E-03    -18.0465E-03     2.92123E-03
            1363     7.07153E-03     112.150E-03     17.0047E+06     89.2044E+03     33.8027E+06    -3.98561E+06    -20.3257E-03     38.7790E-03    -18.4533E-03     3.38337E-03    -20.2908E-03     38.7055E-03    -18.3091E-03     3.32743E-03
            1364     7.95305E-03     112.180E-03     15.3779E+06    -761.956E+03     36.4511E+06    -3.81483E+06    -21.3354E-03     40.1260E-03    -18.7907E-03     3.79706E-03    -21.3114E-03     40.0467E-03    -18.6296E-03     3.74215E-03
            1365     8.83344E-03     112.215E-03     14.0671E+06     489.191E+03     39.8319E+06    -3.66983E+06    -22.4807E-03     41.6695E-03    -19.1888E-03     4.30598E-03    -22.4704E-03     41.5934E-03    -19.0108E-03     4.25149E-03
            1366     9.71274E-03     112.255E-03     12.9401E+06     294.321E+03     42.0554E+06    -2.83550E+06    -23.7408E-03     43.3844E-03    -19.6436E-03     4.98931E-03    -23.7396E-03     43.3058E-03    -19.4525E-03     4.94388E-03
            1367     10.5908E-03     112.303E-03     12.4060E+06     195.864E+03     43.8302E+06    -2.44245E+06    -24.9599E-03     45.1107E-03    -20.1507E-03     5.88932E-03    -24.9645E-03     45.0297E-03    -19.9499E-03     5.84710E-03
            1368     11.4670E-03     112.360E-03     12.3105E+06    -1.52297E+06     43.7168E+06    -1.89893E+06    -25.6537E-03     46.3341E-03    -20.6804E-03     7.36501E-03    -25.6568E-03     46.2447E-03    -20.4775E-03     7.32821E-03
            1369     12.3436E-03     112.428E-03     13.7415E+06     955.602E+03     46.8698E+06    -1.49127E+06    -25.2111E-03     46.4046E-03    -21.1936E-03     10.2478E-03    -25.2161E-03     46.3208E-03    -20.9805E-03     10.2156E-03
            1370     13.2196E-03     112.509E-03     12.9915E+06    -2.44107E+06     51.6395E+06    -2.57067E+06    -23.3808E-03     45.0145E-03    -21.6337E-03     15.8181E-03    -23.3925E-03     44.9076E-03    -21.3908E-03     15.7727E-03
            1371     14.0993E-03     112.609E-03     11.4212E+06    -6.65198E+06     46.8224E+06    -4.42651E+06    -22.2371E-03     44.1795E-03    -21.9424E-03     25.6702E-03    -22.2453E-03     44.0598E-03    -21.7152E-03     25.6011E-03
            1372     14.9814E-03     112.732E-03     15.2121E+06    -3.89775E+06     54.5598E+06    -5.09319E+06    -24.4594E-03     46.8114E-03    -22.3521E-03     48.9000E-03    -24.4754E-03     46.6978E-03    -22.0957E-03     48.8117E-03
            1373     15.8594E-03     112.910E-03     14.8248E+06     5.37141E+06     64.3891E+06    -5.54441E+06    -17.2750E-03     39.9004E-03    -22.6255E-03     77.4891E-03    -17.3608E-03     39.8663E-03    -22.3328E-03     77.3798E-03
            1374     16.7496E-03     113.104E-03     7.62453E+06     6.30036E+06     37.2752E+06    -2.59326E+06     5.12793E-03     16.8208E-03    -21.9488E-03     78.4071E-03     5.02859E-03     16.8545E-03    -21.7826E-03     78.3766E-03
            1375     16.8338E-03     56.2635E-03    -3.91298E+06     151.223E+06     55.4185E+06     319.964E+03    -29.7701E-03     45.5208E-03    -15.7506E-03     284.298E-03    -37.8168E-03     53.9297E-03    -15.6872E-03     289.637E-03
            1376     15.9475E-03     56.0341E-03    -5.39574E+06     85.5450E+06    -7.43184E+06     1.02605E+06    -23.4114E-03     38.9589E-03    -15.5475E-03     189.538E-03    -25.7798E-03     41.6334E-03    -15.7009E-03     190.185E-03
            1377     15.0616E-03     55.9071E-03    -5.37177E+06     21.2647E+06    -16.1432E+06     765.952E+03    -18.5346E-03     34.1314E-03    -15.5968E-03     104.294E-03    -18.8778E-03     34.5778E-03    -15.7006E-03     104.276E-03
            1378     14.1759E-03     55.8400E-03    -4.40096E+06    -19.3001E+06    -14.6866E+06     727.648E+03    -16.8250E-03     32.4807E-03    -15.6557E-03     64.5068E-03    -16.8772E-03     32.4913E-03    -15.6947E-03     64.4722E-03
            1379     13.2898E-03     55.7871E-03    -3.99264E+06    -34.8739E+06    -9.65667E+06     647.417E+03    -16.6917E-03     32.3879E-03    -15.6962E-03     58.8114E-03    -16.6921E-03     32.2783E-03    -15.6881E-03     58.7824E-03
            1380     12.4041E-03     55.7305E-03    -3.97400E+06    -32.6825E+06    -145.123E+03     70.4464E+03    -16.5906E-03     32.3248E-03    -15.7342E-03     56.6966E-03    -16.5916E-03     32.1960E-03    -15.6817E-03     56.6685E-03
            1381     11.5180E-03     55.6817E-03    -4.87165E+06    -42.2635E+06    -564.613E+03     661.059E+03    -16.3887E-03     32.1314E-03    -15.7428E-03     49.8897E-03    -16.3679E-03     31.9450E-03    -15.6772E-03     49.8764E-03
            1382     10.6321E-03     55.6377E-03    -6.26865E+06    -53.5955E+06    -2.43897E+06     1.02574E+06    -16.2990E-03     32.0467E-03    -15.7476E-03     45.2351E-03    -16.2599E-03     31.8021E-03    -15.6730E-03     45.2319E-03
            1383     9.74603E-03     55.5976E-03    -6.93210E+06    -55.3085E+06    -1.58276E+06     90.5556E+03    -16.1973E-03     31.9478E-03    -15.7505E-03     40.9225E-03    -16.1564E-03     31.6905E-03    -15.6681E-03     40.9115E-03
            1384     8.86017E-03     55.5615E-03    -6.41269E+06    -58.6100E+06    -308.332E+03    -107.614E+03    -16.1017E-03     31.8579E-03    -15.7562E-03     36.5480E-03    -16.0528E-03     31.5790E-03    -15.6634E-03     36.5374E-03
            1385     7.97411E-03     55.5295E-03    -6.28980E+06    -61.3146E+06    -874.182E+03     40.7019E+03    -16.0179E-03     31.7710E-03    -15.7530E-03     32.2233E-03    -15.9621E-03     31.4777E-03    -15.6594E-03     32.2169E-03
            1386     7.08815E-03     55.5015E-03    -7.39342E+06    -61.9762E+06    -2.48720E+06    -30.8086E+03    -15.9453E-03     31.6890E-03    -15.7437E-03     28.0302E-03    -15.8908E-03     31.3954E-03    -15.6556E-03     28.0244E-03
            1387     6.20217E-03     55.4773E-03    -8.55964E+06    -62.4924E+06    -3.74533E+06    -128.970E+03    -15.8820E-03     31.6179E-03    -15.7358E-03     23.9883E-03    -15.8301E-03     31.3245E-03    -15.6515E-03     23.9824E-03
            1388     5.31615E-03     55.4568E-03    -9.18006E+06    -64.3745E+06    -4.21354E+06     42.6461E+03    -15.8314E-03     31.5643E-03    -15.7328E-03     20.1396E-03    -15.7787E-03     31.2626E-03    -15.6473E-03     20.1368E-03
            1389     4.43017E-03     55.4397E-03    -9.70986E+06    -64.1218E+06    -5.39677E+06     232.154E+03    -15.7759E-03     31.5002E-03    -15.7243E-03     16.4885E-03    -15.7242E-03     31.2020E-03    -15.6442E-03     16.4889E-03
            1390     3.54410E-03     55.4260E-03    -10.4365E+06    -62.5786E+06    -7.51255E+06     123.720E+03    -15.7351E-03     31.4470E-03    -15.7119E-03     13.0033E-03    -15.6860E-03     31.1604E-03    -15.6435E-03     13.0029E-03
            1391     2.65809E-03     55.4155E-03    -11.1862E+06    -64.5627E+06    -9.07103E+06     39.2617E+03    -15.7230E-03     31.4306E-03    -15.7075E-03     9.66033E-03    -15.6724E-03     31.1373E-03    -15.6430E-03     9.65938E-03
            1392     1.77208E-03     55.4080E-03    -11.7900E+06    -65.8862E+06    -10.6730E+06     12.1581E+03    -15.7064E-03     31.4077E-03    -15.7012E-03     6.42730E-03    -15.6544E-03     31.1109E-03    -15.6420E-03     6.42650E-03
            1393     885.999E-06     55.4035E-03    -12.1038E+06    -66.9884E+06    -11.8545E+06    -23.0980E+03    -15.6976E-03     31.3962E-03    -15.6986E-03     3.43579E-03    -15.6438E-03     31.0962E-03    -15.6432E-03     3.43498E-03
            1394     16.8334E-03     55.2846E-03    -4.69423E+06     150.577E+06     55.6202E+06    -173.437E+03    -29.9496E-03     45.7033E-03    -15.7537E-03     283.954E-03    -38.0022E-03     54.1125E-03    -15.6871E-03     289.280E-03
            1395     15.9477E-03     55.0555E-03    -5.38365E+06     85.2475E+06    -6.35995E+06     540.290E+03    -23.3717E-03     38.9187E-03    -15.5470E-03     189.071E-03    -25.7289E-03     41.5779E-03    -15.6946E-03     189.708E-03
            1396     15.0617E-03     54.9285E-03    -4.57326E+06     21.5370E+06    -15.0017E+06     975.819E+03    -18.4326E-03     34.0298E-03    -15.5972E-03     104.314E-03    -18.7730E-03     34.4740E-03    -15.6968E-03     104.299E-03
            1397     14.1756E-03     54.8614E-03    -4.06054E+06    -19.2761E+06    -13.8821E+06     553.651E+03    -16.9162E-03     32.5715E-03    -15.6554E-03     64.3014E-03    -16.9680E-03     32.5808E-03    -15.6909E-03     64.2642E-03
            1398     13.2900E-03     54.8087E-03    -2.89603E+06    -34.4221E+06    -8.58579E+06     230.137E+03    -16.6847E-03     32.3771E-03    -15.6924E-03     58.7009E-03    -16.6817E-03     32.2665E-03    -15.6812E-03     58.6666E-03
            1399     12.4039E-03     54.7520E-03    -3.24691E+06    -33.2833E+06     1.61515E+06     1.06268E+06    -16.5648E-03     32.3013E-03    -15.7365E-03     56.5695E-03    -16.5638E-03     32.1659E-03    -15.6754E-03     56.5542E-03
            1400     11.5181E-03     54.7034E-03    -4.95723E+06    -42.8893E+06     1.18595E+06     1.80749E+06    -16.3992E-03     32.1452E-03    -15.7460E-03     49.7461E-03    -16.3805E-03     31.9533E-03    -15.6707E-03     49.7475E-03
            1401     10.6321E-03     54.6593E-03    -5.34814E+06    -52.2199E+06    -1.09440E+06     1.06194E+06    -16.3078E-03     32.0507E-03    -15.7429E-03     45.1789E-03    -16.2680E-03     31.8097E-03    -15.6649E-03     45.1761E-03
            1402     9.74627E-03     54.6192E-03    -5.26284E+06    -54.3334E+06    -637.399E+03    -82.9579E+03    -16.1972E-03     31.9395E-03    -15.7423E-03     40.8859E-03    -16.1507E-03     31.6833E-03    -15.6591E-03     40.8726E-03
            1403     8.86017E-03     54.5831E-03    -6.31369E+06    -59.0307E+06    -607.824E+03    -447.708E+03    -16.0973E-03     31.8430E-03    -15.7457E-03     36.5259E-03    -16.0468E-03     31.5623E-03    -15.6540E-03     36.5110E-03
            1404     7.97426E-03     54.5512E-03    -7.33027E+06    -61.5892E+06    -1.23201E+06         655.492    -16.0181E-03     31.7608E-03    -15.7427E-03     32.1920E-03    -15.9665E-03     31.4681E-03    -15.6489E-03     32.1851E-03
            1405     7.08826E-03     54.5231E-03    -7.70615E+06    -61.7988E+06    -2.46256E+06     195.683E+03    -15.9368E-03     31.6692E-03    -15.7324E-03     27.9990E-03    -15.8840E-03     31.3768E-03    -15.6439E-03     27.9961E-03
            1406     6.20222E-03     54.4990E-03    -8.23353E+06    -62.3926E+06    -3.64999E+06     57.6865E+03    -15.8688E-03     31.5926E-03    -15.7239E-03     23.9669E-03    -15.8154E-03     31.2992E-03    -15.6397E-03     23.9634E-03
            1407     5.31623E-03     54.4785E-03    -9.13571E+06    -64.5187E+06    -4.42717E+06    -96.5330E+03    -15.8201E-03     31.5404E-03    -15.7203E-03     20.1183E-03    -15.7666E-03     31.2383E-03    -15.6357E-03     20.1137E-03
            1408     4.43020E-03     54.4615E-03    -9.91052E+06    -64.2276E+06    -5.54183E+06    -35.5179E+03    -15.7713E-03     31.4828E-03    -15.7115E-03     16.4626E-03    -15.7202E-03     31.1846E-03    -15.6317E-03     16.4595E-03
            1409     3.54418E-03     54.4478E-03    -10.5189E+06    -62.4103E+06    -7.35999E+06     72.2791E+03    -15.7296E-03     31.4275E-03    -15.6979E-03     12.9885E-03    -15.6813E-03     31.1417E-03    -15.6289E-03     12.9875E-03
            1410     2.65814E-03     54.4373E-03    -11.1677E+06    -64.5175E+06    -8.94386E+06    -23.9092E+03    -15.7063E-03     31.3987E-03    -15.6923E-03     9.63676E-03    -15.6558E-03     31.1054E-03    -15.6273E-03     9.63500E-03
            1411     1.77208E-03     54.4298E-03    -11.7068E+06    -65.8917E+06    -10.6215E+06    -63.8541E+03    -15.6839E-03     31.3721E-03    -15.6881E-03     6.40701E-03    -15.6316E-03     31.0751E-03    -15.6287E-03     6.40523E-03
            1412     886.049E-06     54.4253E-03    -12.0612E+06    -67.0118E+06    -11.8609E+06    -54.4579E+03    -15.6920E-03     31.3747E-03    -15.6827E-03     3.44013E-03    -15.6379E-03     31.0745E-03    -15.6273E-03     3.43892E-03
            1413     16.8341E-03     54.3043E-03    -4.49019E+06     150.290E+06     55.4355E+06     84.8969E+03    -29.9992E-03     45.7412E-03    -15.7421E-03     283.804E-03    -38.0421E-03     54.1410E-03    -15.6763E-03     289.099E-03
            1414     15.9484E-03     54.0782E-03    -6.49017E+06     84.8976E+06    -7.15320E+06     198.875E+03    -23.3078E-03     38.8414E-03    -15.5336E-03     189.032E-03    -25.6631E-03     41.4958E-03    -15.6830E-03     189.672E-03
            1415     15.0615E-03     53.9497E-03    -5.86620E+06     21.6044E+06    -15.5017E+06     447.303E+03    -18.5039E-03     34.0872E-03    -15.5834E-03     104.345E-03    -18.8520E-03     34.5362E-03    -15.6837E-03     104.323E-03
            1416     14.1761E-03     53.8826E-03    -4.80262E+06    -18.3194E+06    -13.7396E+06    -22.4601E+03    -16.8055E-03     32.4483E-03    -15.6428E-03     63.9799E-03    -16.8620E-03     32.4626E-03    -15.6780E-03     63.9357E-03
            1417     13.2901E-03     53.8304E-03    -4.55251E+06    -34.9588E+06    -9.22948E+06    -174.246E+03    -16.6429E-03     32.3256E-03    -15.6827E-03     58.6649E-03    -16.6463E-03     32.2155E-03    -15.6716E-03     58.6255E-03
            1418     12.4043E-03     53.7734E-03    -4.03101E+06    -35.1158E+06     883.058E+03     1.14496E+06    -16.5616E-03     32.2892E-03    -15.7276E-03     56.5814E-03    -16.5608E-03     32.1469E-03    -15.6664E-03     56.5672E-03
            1419     11.5182E-03     53.7250E-03    -3.02345E+06    -42.1534E+06     2.49601E+06     1.66836E+06    -16.3953E-03     32.1348E-03    -15.7395E-03     49.7221E-03    -16.3699E-03     31.9418E-03    -15.6616E-03     49.7218E-03
            1420     10.6323E-03     53.6809E-03    -2.70178E+06    -50.8177E+06    -3.24812E+03     655.150E+03    -16.3078E-03     32.0412E-03    -15.7334E-03     45.1811E-03    -16.2584E-03     31.8018E-03    -15.6558E-03     45.1731E-03
            1421     9.74620E-03     53.6408E-03    -3.50422E+06    -54.3016E+06     758.829E+03     582.427E+03    -16.2021E-03     31.9393E-03    -15.7372E-03     40.8341E-03    -16.1488E-03     31.6786E-03    -15.6496E-03     40.8294E-03
            1422     8.86033E-03     53.6048E-03    -5.06462E+06    -58.8273E+06     916.188E+03     837.655E+03    -16.1048E-03     31.8454E-03    -15.7406E-03     36.4613E-03    -16.0506E-03     31.5617E-03    -15.6434E-03     36.4630E-03
            1423     7.97430E-03     53.5728E-03    -6.60893E+06    -61.4965E+06    -919.332E+03     214.352E+03    -16.0139E-03     31.7453E-03    -15.7314E-03     32.1567E-03    -15.9593E-03     31.4516E-03    -15.6372E-03     32.1525E-03
            1424     7.08831E-03     53.5449E-03    -7.59619E+06    -61.8951E+06    -2.34406E+06     51.0471E+03    -15.9310E-03     31.6516E-03    -15.7206E-03     27.9617E-03    -15.8778E-03     31.3584E-03    -15.6315E-03     27.9570E-03
            1425     6.20233E-03     53.5207E-03    -8.27048E+06    -62.1554E+06    -3.60613E+06     99.7389E+03    -15.8577E-03     31.5685E-03    -15.7108E-03     23.9345E-03    -15.8050E-03     31.2762E-03    -15.6267E-03     23.9316E-03
            1426     5.31628E-03     53.5003E-03    -8.91536E+06    -64.4366E+06    -4.16001E+06    -34.9363E+03    -15.8092E-03     31.5171E-03    -15.7078E-03     20.0863E-03    -15.7552E-03     31.2147E-03    -15.6222E-03     20.0825E-03
            1427     4.43027E-03     53.4833E-03    -9.79659E+06    -64.3071E+06    -5.30120E+06    -140.596E+03    -15.7677E-03     31.4657E-03    -15.6980E-03     16.4267E-03    -15.7163E-03     31.1666E-03    -15.6170E-03     16.4223E-03
            1428     3.54423E-03     53.4696E-03    -10.5864E+06    -62.4693E+06    -7.19000E+06    -161.617E+03    -15.7196E-03     31.4018E-03    -15.6822E-03     12.9615E-03    -15.6719E-03     31.1155E-03    -15.6122E-03     12.9575E-03
            1429     2.65818E-03     53.4591E-03    -11.2036E+06    -64.4563E+06    -8.94032E+06    -99.4477E+03    -15.6863E-03     31.3612E-03    -15.6750E-03     9.61423E-03    -15.6360E-03     31.0683E-03    -15.6100E-03     9.61150E-03
            1430     1.77213E-03     53.4517E-03    -11.8450E+06    -65.9748E+06    -10.7376E+06    -111.349E+03    -15.6708E-03     31.3403E-03    -15.6696E-03     6.39513E-03    -15.6188E-03     31.0433E-03    -15.6104E-03     6.39274E-03
            1431     886.041E-06     53.4471E-03    -12.2023E+06    -67.0893E+06    -11.9827E+06    -46.6601E+03    -15.6686E-03     31.3346E-03    -15.6660E-03     3.45619E-03    -15.6149E-03     31.0344E-03    -15.6109E-03     3.45507E-03
            1432     16.8346E-03     53.3276E-03    -4.37657E+06     150.425E+06     56.1815E+06     515.529E+03    -29.9811E-03     45.7247E-03    -15.7436E-03     283.606E-03    -37.9722E-03     54.0713E-03    -15.6745E-03     288.893E-03
            1433     15.9470E-03     53.0986E-03    -6.25396E+06     85.2218E+06    -6.53814E+06     449.661E+03    -23.5797E-03     39.1073E-03    -15.5277E-03     189.314E-03    -25.9411E-03     41.7681E-03    -15.6749E-03     189.948E-03
            1434     15.0629E-03     52.9712E-03    -6.03378E+06     21.4594E+06    -15.9082E+06    -209.450E+03    -18.5526E-03     34.1173E-03    -15.5647E-03     103.937E-03    -18.9006E-03     34.5661E-03    -15.6666E-03     103.905E-03
            1435     14.1761E-03     52.9045E-03    -5.18449E+06    -18.0608E+06    -14.1106E+06    -77.0944E+03    -16.5901E-03     32.2177E-03    -15.6277E-03     64.2273E-03    -16.6475E-03     32.2335E-03    -15.6645E-03     64.1834E-03
            1436     13.2902E-03     52.8518E-03    -4.92569E+06    -35.4796E+06    -10.0282E+06     315.960E+03    -16.6179E-03     32.2917E-03    -15.6738E-03     58.7941E-03    -16.6213E-03     32.1808E-03    -15.6654E-03     58.7610E-03
            1437     12.4041E-03     52.7952E-03    -4.97143E+06    -35.8602E+06    -1.47070E+06     73.8606E+03    -16.5780E-03     32.2901E-03    -15.7121E-03     56.6339E-03    -16.5773E-03     32.1487E-03    -15.6602E-03     56.6059E-03
            1438     11.5182E-03     52.7465E-03    -4.45605E+06    -42.0141E+06     513.161E+03     128.934E+03    -16.3964E-03     32.1205E-03    -15.7240E-03     49.7611E-03    -16.3754E-03     31.9330E-03    -15.6541E-03     49.7410E-03
            1439     10.6323E-03     52.7025E-03    -4.27973E+06    -50.5423E+06    -655.208E+03     819.032E+03    -16.3106E-03     32.0338E-03    -15.7233E-03     45.1301E-03    -16.2685E-03     31.7990E-03    -15.6470E-03     45.1242E-03
            1440     9.74644E-03     52.6624E-03    -4.97776E+06    -54.7491E+06     85.5901E+03     1.20174E+06    -16.2030E-03     31.9292E-03    -15.7262E-03     40.7898E-03    -16.1554E-03     31.6694E-03    -15.6392E-03     40.7931E-03
            1441     8.86040E-03     52.6265E-03    -5.46748E+06    -58.4006E+06     1.10942E+06     1.22908E+06    -16.1008E-03     31.8306E-03    -15.7298E-03     36.4124E-03    -16.0495E-03     31.5493E-03    -15.6316E-03     36.4191E-03
            1442     7.97444E-03     52.5946E-03    -6.08122E+06    -60.5539E+06    -259.124E+03     805.773E+03    -16.0090E-03     31.7287E-03    -15.7197E-03     32.1098E-03    -15.9541E-03     31.4380E-03    -15.6244E-03     32.1133E-03
            1443     7.08844E-03     52.5666E-03    -7.11206E+06    -62.0111E+06    -1.81975E+06     291.585E+03    -15.9277E-03     31.6365E-03    -15.7088E-03     27.9122E-03    -15.8726E-03     31.3413E-03    -15.6176E-03     27.9106E-03
            1444     6.20240E-03     52.5425E-03    -8.02075E+06    -61.8483E+06    -3.18873E+06     133.482E+03    -15.8538E-03     31.5506E-03    -15.6968E-03     23.8899E-03    -15.8009E-03     31.2589E-03    -15.6114E-03     23.8874E-03
            1445     5.31638E-03     52.5220E-03    -8.82286E+06    -64.3308E+06    -3.82233E+06    -110.247E+03    -15.8010E-03     31.4933E-03    -15.6923E-03     20.0493E-03    -15.7472E-03     31.1908E-03    -15.6053E-03     20.0445E-03
            1446     4.43035E-03     52.5051E-03    -9.53573E+06    -64.2501E+06    -4.89101E+06    -209.198E+03    -15.7518E-03     31.4336E-03    -15.6817E-03     16.3948E-03    -15.6998E-03     31.1338E-03    -15.5992E-03     16.3895E-03
            1447     3.54430E-03     52.4914E-03    -10.3781E+06    -62.5767E+06    -7.08381E+06    -220.518E+03    -15.7011E-03     31.3658E-03    -15.6647E-03     12.9245E-03    -15.6523E-03     31.0786E-03    -15.5944E-03     12.9196E-03
            1448     2.65823E-03     52.4809E-03    -11.2468E+06    -64.5764E+06    -8.91340E+06    -156.531E+03    -15.6704E-03     31.3277E-03    -15.6573E-03     9.59530E-03    -15.6202E-03     31.0342E-03    -15.5920E-03     9.59184E-03
            1449     1.77214E-03     52.4735E-03    -11.9170E+06    -66.0188E+06    -10.7354E+06    -84.4143E+03    -15.6619E-03     31.3100E-03    -15.6481E-03     6.38949E-03    -15.6103E-03     31.0128E-03    -15.5887E-03     6.38745E-03
            1450     886.102E-06     52.4690E-03    -12.3944E+06    -67.2625E+06    -12.0781E+06    -75.0186E+03    -15.6509E-03     31.2840E-03    -15.6331E-03     3.40740E-03    -15.5978E-03     30.9834E-03    -15.5780E-03     3.40593E-03
            1451     16.8333E-03     52.3502E-03    -4.86358E+06     150.375E+06     57.1134E+06     401.227E+03    -30.2548E-03     46.0095E-03    -15.7548E-03     283.188E-03    -38.2272E-03     54.3330E-03    -15.6802E-03     288.479E-03
            1452     15.9490E-03     52.1185E-03    -6.04488E+06     85.2923E+06    -5.23516E+06     85.3517E+03    -23.7629E-03     39.2887E-03    -15.5259E-03     189.206E-03    -26.1245E-03     41.9468E-03    -15.6670E-03     189.817E-03
            1453     15.0621E-03     51.9934E-03    -4.74456E+06     21.5474E+06    -15.2759E+06    -201.886E+03    -18.3158E-03     33.8752E-03    -15.5594E-03     103.702E-03    -18.6539E-03     34.3172E-03    -15.6601E-03     103.672E-03
            1454     14.1762E-03     51.9261E-03    -4.43158E+06    -18.6718E+06    -13.9865E+06     168.214E+03    -16.6674E-03     32.2933E-03    -15.6259E-03     64.5528E-03    -16.7207E-03     32.3052E-03    -15.6624E-03     64.5117E-03
            1455     13.2902E-03     51.8734E-03    -3.90012E+06    -35.5869E+06    -8.84888E+06     520.201E+03    -16.6497E-03     32.3228E-03    -15.6731E-03     58.8048E-03    -16.6495E-03     32.2082E-03    -15.6601E-03     58.7743E-03
            1456     12.4043E-03     51.8166E-03    -3.82054E+06    -34.9293E+06    -116.445E+03     94.3761E+03    -16.5885E-03     32.2973E-03    -15.7088E-03     56.5124E-03    -16.5853E-03     32.1569E-03    -15.6532E-03     56.4846E-03
            1457     11.5184E-03     51.7681E-03    -4.65771E+06    -42.7730E+06     677.953E+03    -159.004E+03    -16.4165E-03     32.1339E-03    -15.7174E-03     49.6811E-03    -16.3957E-03     31.9427E-03    -15.6452E-03     49.6572E-03
            1458     10.6325E-03     51.7241E-03    -5.24358E+06    -51.4259E+06    -620.140E+03     699.628E+03    -16.3145E-03     32.0296E-03    -15.7152E-03     45.0475E-03    -16.2759E-03     31.7917E-03    -15.6361E-03     45.0400E-03
            1459     9.74643E-03     51.6841E-03    -5.23811E+06    -54.5165E+06     326.817E+03     1.10440E+06    -16.1995E-03     31.9147E-03    -15.7151E-03     40.7305E-03    -16.1540E-03     31.6560E-03    -15.6269E-03     40.7325E-03
            1460     8.86052E-03     51.6482E-03    -5.64681E+06    -58.3521E+06     1.26204E+06     1.02302E+06    -16.0966E-03     31.8138E-03    -15.7172E-03     36.3476E-03    -16.0465E-03     31.5328E-03    -15.6181E-03     36.3516E-03
            1461     7.97454E-03     51.6163E-03    -6.38864E+06    -59.8706E+06     12.8462E+03     1.01538E+06    -16.0019E-03     31.7077E-03    -15.7058E-03     32.0501E-03    -15.9499E-03     31.4205E-03    -15.6097E-03     32.0562E-03
            1462     7.08852E-03     51.5884E-03    -7.19401E+06    -61.4553E+06    -1.41055E+06     569.729E+03    -15.9225E-03     31.6164E-03    -15.6939E-03     27.8586E-03    -15.8692E-03     31.3235E-03    -15.6014E-03     27.8606E-03
            1463     6.20253E-03     51.5642E-03    -7.88141E+06    -61.5877E+06    -2.62706E+06     50.0002E+03    -15.8489E-03     31.5299E-03    -15.6809E-03     23.8412E-03    -15.7965E-03     31.2384E-03    -15.5933E-03     23.8376E-03
            1464     5.31649E-03     51.5438E-03    -8.50194E+06    -64.1120E+06    -3.53364E+06    -156.089E+03    -15.7858E-03     31.4594E-03    -15.6736E-03     20.0107E-03    -15.7310E-03     31.1571E-03    -15.5859E-03     20.0054E-03
            1465     4.43044E-03     51.5269E-03    -9.42892E+06    -64.3243E+06    -4.95090E+06    -262.610E+03    -15.7275E-03     31.3897E-03    -15.6622E-03     16.3712E-03    -15.6747E-03     31.0895E-03    -15.5801E-03     16.3653E-03
            1466     3.54436E-03     51.5133E-03    -10.3315E+06    -62.7130E+06    -6.98954E+06    -156.393E+03    -15.6833E-03     31.3300E-03    -15.6467E-03     12.8935E-03    -15.6342E-03     31.0418E-03    -15.5757E-03     12.8895E-03
            1467     2.65827E-03     51.5028E-03    -11.1953E+06    -64.6576E+06    -8.89737E+06    -91.1517E+03    -15.6589E-03     31.2962E-03    -15.6373E-03     9.56655E-03    -15.6084E-03     31.0022E-03    -15.5718E-03     9.56395E-03
            1468     1.77220E-03     51.4954E-03    -11.9412E+06    -66.1098E+06    -10.7787E+06    -70.5590E+03    -15.6412E-03     31.2674E-03    -15.6262E-03     6.37947E-03    -15.5894E-03     30.9699E-03    -15.5669E-03     6.37762E-03
            1469     886.113E-06     51.4909E-03    -12.3706E+06    -67.3816E+06    -12.1758E+06    -20.7262E+03    -15.6373E-03     31.2400E-03    -15.6027E-03     3.38246E-03    -15.5838E-03     30.9389E-03    -15.5479E-03     3.38170E-03
            1470     16.8341E-03     51.3685E-03    -4.20330E+06     150.485E+06     56.8574E+06     14.7745E+03    -30.3633E-03     46.1139E-03    -15.7506E-03     283.207E-03    -38.3655E-03     54.4705E-03    -15.6785E-03     288.484E-03
            1471     15.9481E-03     51.1409E-03    -5.21053E+06     85.2931E+06    -5.32452E+06     127.903E+03    -23.5129E-03     39.0378E-03    -15.5248E-03     188.557E-03    -25.8566E-03     41.6812E-03    -15.6676E-03     189.171E-03
            1472     15.0622E-03     51.0147E-03    -5.07344E+06     21.4343E+06    -15.1319E+06     66.8451E+03    -18.2939E-03     33.8613E-03    -15.5674E-03     103.930E-03    -18.6319E-03     34.3013E-03    -15.6668E-03     103.904E-03
            1473     14.1761E-03     50.9478E-03    -4.77219E+06    -19.0445E+06    -14.0947E+06     319.600E+03    -16.8856E-03     32.5132E-03    -15.6275E-03     64.4965E-03    -16.9407E-03     32.5246E-03    -15.6635E-03     64.4565E-03
            1474     13.2904E-03     50.8948E-03    -4.39618E+06    -35.6208E+06    -8.78759E+06     390.263E+03    -16.7000E-03     32.3664E-03    -15.6664E-03     58.7739E-03    -16.7023E-03     32.2521E-03    -15.6523E-03     58.7417E-03
            1475     12.4044E-03     50.8383E-03    -4.43322E+06    -34.0554E+06    -382.025E+03     131.128E+03    -16.5871E-03     32.2839E-03    -15.6968E-03     56.4985E-03    -16.5878E-03     32.1490E-03    -15.6429E-03     56.4713E-03
            1476     11.5185E-03     50.7896E-03    -4.56587E+06    -43.3768E+06     230.136E+03     125.693E+03    -16.4268E-03     32.1311E-03    -15.7042E-03     49.6426E-03    -16.4040E-03     31.9374E-03    -15.6336E-03     49.6224E-03
            1477     10.6326E-03     50.7458E-03    -4.87730E+06    -52.1910E+06    -663.020E+03     574.931E+03    -16.3206E-03     32.0230E-03    -15.7024E-03     44.9883E-03    -16.2790E-03     31.7807E-03    -15.6229E-03     44.9793E-03
            1478     9.74668E-03     50.7057E-03    -5.35781E+06    -54.2632E+06     394.604E+03     790.857E+03    -16.1996E-03     31.9002E-03    -15.7006E-03     40.6797E-03    -16.1551E-03     31.6429E-03    -15.6122E-03     40.6777E-03
            1479     8.86069E-03     50.6699E-03    -5.73826E+06    -58.4270E+06     1.45342E+06     856.995E+03    -16.0933E-03     31.7956E-03    -15.7022E-03     36.2846E-03    -16.0438E-03     31.5140E-03    -15.6019E-03     36.2865E-03
            1480     7.97467E-03     50.6380E-03    -6.14752E+06    -59.5867E+06     403.240E+03     883.963E+03    -15.9973E-03     31.6866E-03    -15.6894E-03     31.9917E-03    -15.9450E-03     31.3999E-03    -15.5920E-03     31.9962E-03
            1481     7.08870E-03     50.6101E-03    -6.55163E+06    -60.5808E+06    -470.132E+03     462.150E+03    -15.9152E-03     31.5925E-03    -15.6772E-03     27.8003E-03    -15.8614E-03     31.3016E-03    -15.5822E-03     27.8009E-03
            1482     6.20265E-03     50.5861E-03    -7.18496E+06    -61.3550E+06    -2.07014E+06     16.4089E+03    -15.8335E-03     31.4957E-03    -15.6622E-03     23.7882E-03    -15.7787E-03     31.2036E-03    -15.5731E-03     23.7842E-03
            1483     5.31660E-03     50.5657E-03    -8.15348E+06    -64.0527E+06    -3.43566E+06    -43.1343E+03    -15.7671E-03     31.4201E-03    -15.6530E-03     19.9646E-03    -15.7108E-03     31.1175E-03    -15.5655E-03     19.9608E-03
            1484     4.43052E-03     50.5488E-03    -9.21008E+06    -64.3272E+06    -4.89676E+06    -34.6642E+03    -15.7090E-03     31.3505E-03    -15.6415E-03     16.3266E-03    -15.6552E-03     31.0499E-03    -15.5594E-03     16.3235E-03
            1485     3.54443E-03     50.5351E-03    -10.3219E+06    -62.8816E+06    -7.10562E+06    -41.8032E+03    -15.6641E-03     31.2894E-03    -15.6253E-03     12.8606E-03    -15.6145E-03     31.0005E-03    -15.5547E-03     12.8581E-03
            1486     2.65835E-03     50.5247E-03    -11.2317E+06    -64.6499E+06    -9.06011E+06     27.1676E+03    -15.6392E-03     31.2542E-03    -15.6150E-03     9.53818E-03    -15.5886E-03     30.9605E-03    -15.5502E-03     9.53710E-03
            1487     1.77224E-03     50.5173E-03    -11.9653E+06    -66.1643E+06    -10.9514E+06     21.7578E+03    -15.6106E-03     31.2171E-03    -15.6065E-03     6.36364E-03    -15.5587E-03     30.9196E-03    -15.5479E-03     6.36299E-03
            1488     886.095E-06     50.5129E-03    -12.4444E+06    -67.3919E+06    -12.1950E+06     37.1430E+03    -15.6075E-03     31.2075E-03    -15.6000E-03     3.37380E-03    -15.5543E-03     30.9065E-03    -15.5452E-03     3.37379E-03
            1489     16.8339E-03     50.3885E-03    -3.96182E+06     150.301E+06     56.1649E+06    -150.032E+03    -30.1216E-03     45.8633E-03    -15.7417E-03     283.363E-03    -38.1490E-03     54.2473E-03    -15.6731E-03     288.636E-03
            1490     15.9484E-03     50.1630E-03    -5.88839E+06     84.8828E+06    -6.71828E+06    -314.894E+03    -23.2824E-03     38.8077E-03    -15.5253E-03     187.812E-03    -25.6119E-03     41.4371E-03    -15.6735E-03     188.431E-03
            1491     15.0617E-03     50.0361E-03    -5.65254E+06     21.4942E+06    -15.3777E+06     203.773E+03    -18.5343E-03     34.1041E-03    -15.5698E-03     104.002E-03    -18.8771E-03     34.5477E-03    -15.6697E-03     103.976E-03
            1492     14.1763E-03     49.9690E-03    -4.95994E+06    -19.2413E+06    -14.2417E+06     247.418E+03    -16.9526E-03     32.5735E-03    -15.6209E-03     64.1618E-03    -17.0081E-03     32.5843E-03    -15.6570E-03     64.1205E-03
            1493     13.2905E-03     49.9165E-03    -4.36042E+06    -35.4975E+06    -8.92506E+06     248.471E+03    -16.7120E-03     32.3674E-03    -15.6555E-03     58.6493E-03    -16.7140E-03     32.2538E-03    -15.6423E-03     58.6152E-03
            1494     12.4046E-03     49.8598E-03    -4.20290E+06    -33.7330E+06    -132.915E+03     140.490E+03    -16.5951E-03     32.2807E-03    -15.6856E-03     56.4530E-03    -16.5954E-03     32.1467E-03    -15.6313E-03     56.4260E-03
            1495     11.5186E-03     49.8112E-03    -4.78461E+06    -43.6833E+06     201.828E+03     167.262E+03    -16.4240E-03     32.1161E-03    -15.6921E-03     49.5724E-03    -16.4017E-03     31.9212E-03    -15.6208E-03     49.5528E-03
            1496     10.6327E-03     49.7673E-03    -5.23825E+06    -52.7025E+06    -945.840E+03     528.256E+03    -16.3225E-03     32.0107E-03    -15.6882E-03     44.9371E-03    -16.2816E-03     31.7668E-03    -15.6089E-03     44.9275E-03
            1497     9.74676E-03     49.7274E-03    -5.62445E+06    -54.1372E+06     85.2744E+03     785.380E+03    -16.2042E-03     31.8877E-03    -15.6835E-03     40.6340E-03    -16.1607E-03     31.6318E-03    -15.5964E-03     40.6320E-03
            1498     8.86080E-03     49.6916E-03    -6.46069E+06    -58.4351E+06     1.35680E+06     760.848E+03    -16.0938E-03     31.7787E-03    -15.6849E-03     36.2265E-03    -16.0477E-03     31.4983E-03    -15.5840E-03     36.2273E-03
            1499     7.97486E-03     49.6598E-03    -7.00634E+06    -58.9796E+06    -333.321E+03     341.237E+03    -15.9879E-03     31.6540E-03    -15.6661E-03     31.9452E-03    -15.9398E-03     31.3726E-03    -15.5721E-03     31.9427E-03
            1500     7.08881E-03     49.6319E-03    -7.06977E+06    -60.1370E+06    -1.57283E+06    -137.199E+03    -15.8950E-03     31.5458E-03    -15.6508E-03     27.7661E-03    -15.8427E-03     31.2595E-03    -15.5612E-03     27.7591E-03
            1501     6.20280E-03     49.6079E-03    -7.37704E+06    -61.5269E+06    -2.41337E+06     56.4883E+03    -15.8159E-03     31.4554E-03    -15.6395E-03     23.7326E-03    -15.7613E-03     31.1632E-03    -15.5516E-03     23.7292E-03
            1502     5.31671E-03     49.5875E-03    -8.19171E+06    -63.9736E+06    -3.58884E+06     239.275E+03    -15.7499E-03     31.3797E-03    -15.6298E-03     19.9079E-03    -15.6937E-03     31.0778E-03    -15.5431E-03     19.9077E-03
            1503     4.43064E-03     49.5707E-03    -9.24806E+06    -64.3502E+06    -5.10366E+06     225.545E+03    -15.6900E-03     31.3073E-03    -15.6173E-03     16.2793E-03    -15.6360E-03     31.0069E-03    -15.5361E-03     16.2796E-03
            1504     3.54453E-03     49.5571E-03    -10.2300E+06    -62.7876E+06    -7.25459E+06     217.416E+03    -15.6373E-03     31.2383E-03    -15.6010E-03     12.8344E-03    -15.5872E-03     30.9500E-03    -15.5314E-03     12.8353E-03
            1505     2.65839E-03     49.5466E-03    -11.1334E+06    -64.6646E+06    -9.02936E+06     118.348E+03    -15.6080E-03     31.2020E-03    -15.5940E-03     9.51505E-03    -15.5569E-03     30.9080E-03    -15.5293E-03     9.51516E-03
            1506     1.77226E-03     49.5393E-03    -11.7968E+06    -66.0546E+06    -10.7446E+06     119.673E+03    -15.5930E-03     31.1805E-03    -15.5875E-03     6.34092E-03    -15.5407E-03     30.8830E-03    -15.5283E-03     6.34153E-03
            1507     886.137E-06     49.5348E-03    -12.2076E+06    -67.3275E+06    -11.9756E+06     33.1452E+03    -15.5834E-03     31.1688E-03    -15.5854E-03     3.36165E-03    -15.5294E-03     30.8674E-03    -15.5300E-03     3.36159E-03
            1508     16.8344E-03     49.4097E-03    -3.94598E+06     150.352E+06     56.3090E+06     50.1989E+03    -29.9650E-03     45.7041E-03    -15.7391E-03     283.064E-03    -37.9806E-03     54.0762E-03    -15.6698E-03     288.336E-03
            1509     15.9475E-03     49.1847E-03    -6.20762E+06     84.9462E+06    -6.78245E+06    -196.221E+03    -23.3556E-03     38.8782E-03    -15.5226E-03     187.633E-03    -25.6824E-03     41.5042E-03    -15.6706E-03     188.255E-03
            1510     15.0625E-03     49.0571E-03    -6.20938E+06     21.3412E+06    -16.0169E+06    -23.1241E+03    -18.6654E-03     34.2231E-03    -15.5578E-03     103.808E-03    -19.0105E-03     34.6685E-03    -15.6598E-03     103.778E-03
            1511     14.1765E-03     48.9906E-03    -5.13032E+06    -19.2080E+06    -14.4800E+06     64.4508E+03    -16.8768E-03     32.4841E-03    -15.6073E-03     63.9922E-03    -16.9322E-03     32.4951E-03    -15.6444E-03     63.9489E-03
            1512     13.2907E-03     48.9379E-03    -4.65523E+06    -35.4310E+06    -9.11384E+06     81.3227E+03    -16.7122E-03     32.3558E-03    -15.6436E-03     58.6164E-03    -16.7155E-03     32.2432E-03    -15.6311E-03     58.5802E-03
            1513     12.4048E-03     48.8814E-03    -4.73747E+06    -33.7608E+06    -386.501E+03     190.112E+03    -16.6005E-03     32.2733E-03    -15.6727E-03     56.4214E-03    -16.6031E-03     32.1402E-03    -15.6188E-03     56.3951E-03
            1514     11.5188E-03     48.8328E-03    -5.05878E+06    -43.7267E+06     55.5641E+03     287.733E+03    -16.4252E-03     32.1032E-03    -15.6780E-03     49.5368E-03    -16.4040E-03     31.9086E-03    -15.6069E-03     49.5188E-03
            1515     10.6329E-03     48.7890E-03    -5.30259E+06    -53.0535E+06    -883.821E+03     319.250E+03    -16.3309E-03     32.0045E-03    -15.6736E-03     44.8711E-03    -16.2899E-03     31.7588E-03    -15.5934E-03     44.8589E-03
            1516     9.74698E-03     48.7491E-03    -5.46072E+06    -54.3078E+06     346.137E+03     632.674E+03    -16.2101E-03     31.8772E-03    -15.6671E-03     40.5536E-03    -16.1659E-03     31.6198E-03    -15.5787E-03     40.5496E-03
            1517     8.86103E-03     48.7133E-03    -5.49829E+06    -57.9594E+06     1.99259E+06     504.860E+03    -16.0959E-03     31.7620E-03    -15.6661E-03     36.1490E-03    -16.0466E-03     31.4816E-03    -15.5641E-03     36.1464E-03
            1518     7.97501E-03     48.6815E-03    -5.84132E+06    -58.4026E+06    -2.70508E+03     41.5427E+03    -15.9782E-03     31.6221E-03    -15.6439E-03     31.8728E-03    -15.9256E-03     31.3414E-03    -15.5507E-03     31.8664E-03
            1519     7.08900E-03     48.6537E-03    -6.82760E+06    -60.0453E+06    -2.09865E+06    -100.910E+03    -15.8792E-03     31.5048E-03    -15.6256E-03     27.7057E-03    -15.8251E-03     31.2193E-03    -15.5391E-03     27.6992E-03
            1520     6.20291E-03     48.6298E-03    -7.84671E+06    -61.9729E+06    -3.14161E+06     7.04741E+03    -15.7999E-03     31.4139E-03    -15.6141E-03     23.6770E-03    -15.7459E-03     31.1212E-03    -15.5285E-03     23.6729E-03
            1521     5.31686E-03     48.6095E-03    -8.57874E+06    -64.0599E+06    -4.02877E+06     385.575E+03    -15.7311E-03     31.3351E-03    -15.6040E-03     19.8545E-03    -15.6760E-03     31.0339E-03    -15.5189E-03     19.8562E-03
            1522     4.43073E-03     48.5926E-03    -9.47467E+06    -64.1945E+06    -5.34783E+06     473.018E+03    -15.6674E-03     31.2583E-03    -15.5909E-03     16.2346E-03    -15.6145E-03     30.9594E-03    -15.5108E-03     16.2382E-03
            1523     3.54460E-03     48.5791E-03    -10.3896E+06    -62.5837E+06    -7.21703E+06     289.034E+03    -15.6130E-03     31.1881E-03    -15.5751E-03     12.7844E-03    -15.5640E-03     30.9010E-03    -15.5054E-03     12.7862E-03
            1524     2.65846E-03     48.5687E-03    -11.0959E+06    -64.5071E+06    -8.81781E+06     162.329E+03    -15.5829E-03     31.1508E-03    -15.5679E-03     9.46553E-03    -15.5322E-03     30.8573E-03    -15.5024E-03     9.46621E-03
            1525     1.77230E-03     48.5613E-03    -11.7452E+06    -65.9919E+06    -10.5466E+06     62.4399E+03    -15.5644E-03     31.1258E-03    -15.5614E-03     6.30468E-03    -15.5122E-03     30.8282E-03    -15.5014E-03     6.30456E-03
            1526     886.165E-06     48.5568E-03    -12.0206E+06    -67.1828E+06    -11.8019E+06     13.1695E+03    -15.5598E-03     31.1166E-03    -15.5568E-03     3.36869E-03    -15.5053E-03     30.8155E-03    -15.5010E-03     3.36837E-03
            1527     16.8340E-03     48.4323E-03    -4.06524E+06     150.065E+06     56.1166E+06     51.2628E+03    -30.0505E-03     45.7861E-03    -15.7356E-03     282.752E-03    -38.0309E-03     54.1221E-03    -15.6667E-03     288.010E-03
            1528     15.9485E-03     48.2051E-03    -5.52265E+06     85.6416E+06    -5.88828E+06     486.866E+03    -23.5349E-03     39.0489E-03    -15.5140E-03     187.657E-03    -25.8570E-03     41.6725E-03    -15.6596E-03     188.276E-03
            1529     15.0624E-03     48.0787E-03    -5.96501E+06     21.5602E+06    -15.8163E+06     127.356E+03    -18.5510E-03     34.0961E-03    -15.5451E-03     103.564E-03    -18.8933E-03     34.5396E-03    -15.6468E-03     103.536E-03
            1530     14.1765E-03     48.0121E-03    -5.54874E+06    -19.5329E+06    -14.9351E+06    -132.117E+03    -16.8259E-03     32.4229E-03    -15.5970E-03     64.1212E-03    -16.8819E-03     32.4331E-03    -15.6353E-03     64.0757E-03
            1531     13.2908E-03     47.9595E-03    -4.94799E+06    -35.4210E+06    -9.32076E+06     116.714E+03    -16.7466E-03     32.3804E-03    -15.6338E-03     58.6103E-03    -16.7511E-03     32.2686E-03    -15.6218E-03     58.5745E-03
            1532     12.4049E-03     47.9030E-03    -5.01962E+06    -33.9943E+06    -684.102E+03     235.272E+03    -16.6237E-03     32.2837E-03    -15.6599E-03     56.3638E-03    -16.6268E-03     32.1502E-03    -15.6068E-03     56.3380E-03
            1533     11.5190E-03     47.8544E-03    -5.49580E+06    -43.6260E+06    -302.166E+03     301.741E+03    -16.4450E-03     32.1068E-03    -15.6618E-03     49.4788E-03    -16.4255E-03     31.9138E-03    -15.5921E-03     49.4610E-03
            1534     10.6331E-03     47.8106E-03    -6.18266E+06    -53.2506E+06    -1.25505E+06     410.386E+03    -16.3408E-03     31.9964E-03    -15.6556E-03     44.7919E-03    -16.3033E-03     31.7515E-03    -15.5757E-03     44.7809E-03
            1535     9.74715E-03     47.7708E-03    -6.55787E+06    -53.9696E+06    -1.05062E+06     26.2647E+03    -16.2021E-03     31.8435E-03    -15.6414E-03     40.4984E-03    -16.1618E-03     31.5913E-03    -15.5589E-03     40.4867E-03
            1536     8.86118E-03     47.7350E-03    -6.45724E+06    -57.6900E+06     135.754E+03    -401.027E+03    -16.0795E-03     31.7164E-03    -15.6368E-03     36.1058E-03    -16.0327E-03     31.4414E-03    -15.5432E-03     36.0916E-03
            1537     7.97521E-03     47.7034E-03    -6.66855E+06    -58.6930E+06    -1.05024E+06     38.7751E+03    -15.9674E-03     31.5854E-03    -15.6180E-03     31.8034E-03    -15.9169E-03     31.3059E-03    -15.5285E-03     31.7971E-03
            1538     7.08914E-03     47.6756E-03    -7.28478E+06    -59.8480E+06    -2.80510E+06     310.249E+03    -15.8672E-03     31.4657E-03    -15.5985E-03     27.6388E-03    -15.8146E-03     31.1829E-03    -15.5152E-03     27.6375E-03
            1539     6.20310E-03     47.6517E-03    -8.15356E+06    -62.2192E+06    -3.62206E+06     284.930E+03    -15.7842E-03     31.3710E-03    -15.5868E-03     23.6064E-03    -15.7307E-03     31.0782E-03    -15.5029E-03     23.6060E-03
            1540     5.31696E-03     47.6314E-03    -9.14871E+06    -64.2345E+06    -4.28717E+06     388.887E+03    -15.7143E-03     31.2905E-03    -15.5762E-03     19.7792E-03    -15.6614E-03     30.9896E-03    -15.4913E-03     19.7810E-03
            1541     4.43087E-03     47.6146E-03    -9.83383E+06    -63.9106E+06    -5.19366E+06     369.687E+03    -15.6472E-03     31.2090E-03    -15.5618E-03     16.1581E-03    -15.5967E-03     30.9117E-03    -15.4808E-03     16.1603E-03
            1542     3.54473E-03     47.6011E-03    -10.4605E+06    -62.3043E+06    -6.97069E+06     188.347E+03    -15.5884E-03     31.1319E-03    -15.5435E-03     12.7244E-03    -15.5406E-03     30.8460E-03    -15.4729E-03     12.7249E-03
            1543     2.65857E-03     47.5907E-03    -11.1843E+06    -64.3905E+06    -8.67426E+06     40.6099E+03    -15.5573E-03     31.0904E-03    -15.5331E-03     9.42893E-03    -15.5074E-03     30.7974E-03    -15.4669E-03     9.42805E-03
            1544     1.77240E-03     47.5834E-03    -11.7735E+06    -65.9086E+06    -10.5389E+06    -5.90204E+03    -15.5272E-03     31.0510E-03    -15.5239E-03     6.26453E-03    -15.4752E-03     30.7539E-03    -15.4639E-03     6.26353E-03
            1545     886.151E-06     47.5790E-03    -12.2698E+06    -67.2087E+06    -11.9501E+06    -27.8267E+03    -15.5305E-03     31.0399E-03    -15.5095E-03     3.36781E-03    -15.4770E-03     30.7392E-03    -15.4540E-03     3.36696E-03
            1546     16.8341E-03     47.4530E-03    -4.46005E+06     149.669E+06     55.9190E+06     74.9373E+03    -30.2421E-03     45.9758E-03    -15.7336E-03     282.828E-03    -38.2145E-03     54.3015E-03    -15.6646E-03     288.076E-03
            1547     15.9484E-03     47.2261E-03    -5.64780E+06      85.435E+06    -5.68980E+06     295.563E+03    -23.6286E-03     39.1344E-03    -15.5058E-03     187.439E-03    -25.9462E-03     41.7517E-03    -15.6500E-03     188.048E-03
            1548     15.0627E-03     47.1005E-03    -4.99321E+06     22.1565E+06    -14.9037E+06     337.763E+03    -18.4508E-03     33.9877E-03    -15.5369E-03     103.298E-03    -18.7881E-03     34.4292E-03    -15.6364E-03     103.273E-03
            1549     14.1766E-03     47.0335E-03    -4.94891E+06    -19.5489E+06    -14.4714E+06     142.624E+03    -16.8346E-03     32.4243E-03    -15.5897E-03     64.1295E-03    -16.8881E-03     32.4329E-03    -15.6266E-03     64.0876E-03
            1550     13.2909E-03     46.9809E-03    -4.83550E+06    -35.7239E+06    -9.22544E+06     109.614E+03    -16.7739E-03     32.3980E-03    -15.6240E-03     58.4826E-03    -16.7775E-03     32.2843E-03    -15.6113E-03     58.4466E-03
            1551     12.4051E-03     46.9245E-03    -4.83440E+06    -33.9663E+06    -579.564E+03     256.288E+03    -16.6586E-03     32.3051E-03    -15.6465E-03     56.2496E-03    -16.6609E-03     32.1713E-03    -15.5931E-03     56.2240E-03
            1552     11.5192E-03     46.8760E-03    -5.13523E+06    -43.8227E+06    -549.354E+03     401.221E+03    -16.4625E-03     32.1060E-03    -15.6435E-03     49.4011E-03    -16.4405E-03     31.9118E-03    -15.5753E-03     49.3846E-03
            1553     10.6333E-03     46.8323E-03    -5.23465E+06    -53.0908E+06    -1.46372E+06     422.761E+03    -16.3450E-03     31.9790E-03    -15.6340E-03     44.7214E-03    -16.3026E-03     31.7338E-03    -15.5568E-03     44.7106E-03
            1554     9.74739E-03     46.7925E-03    -5.57816E+06    -53.1722E+06    -1.07298E+06    -16.8267E+03    -16.1986E-03     31.8168E-03    -15.6183E-03     40.4127E-03    -16.1544E-03     31.5672E-03    -15.5384E-03     40.4005E-03
            1555     8.86139E-03     46.7568E-03    -6.83954E+06    -57.8198E+06    -754.190E+03    -243.699E+03    -16.0719E-03     31.6831E-03    -15.6112E-03     36.0247E-03    -16.0255E-03     31.4093E-03    -15.5212E-03     36.0126E-03
            1556     7.97536E-03     46.7252E-03    -7.94885E+06    -59.2002E+06    -1.82842E+06    -150.405E+03    -15.9624E-03     31.5550E-03    -15.5926E-03     31.7119E-03    -15.9165E-03     31.2760E-03    -15.5044E-03     31.7032E-03
            1557     7.08935E-03     46.6975E-03    -8.32990E+06    -59.9458E+06    -3.14461E+06     141.702E+03    -15.8603E-03     31.4315E-03    -15.5712E-03     27.5417E-03    -15.8123E-03     31.1502E-03    -15.4880E-03     27.5383E-03
            1558     6.20325E-03     46.6736E-03    -8.68387E+06    -62.2186E+06    -3.44642E+06     336.878E+03    -15.7731E-03     31.3310E-03    -15.5580E-03     23.5125E-03    -15.7225E-03     31.0388E-03    -15.4724E-03     23.5128E-03
            1559     5.31718E-03     46.6534E-03    -9.14345E+06    -64.0893E+06    -3.58731E+06     193.296E+03    -15.6962E-03     31.2421E-03    -15.5459E-03     19.6906E-03    -15.6446E-03     30.9409E-03    -15.4576E-03     19.6898E-03
            1560     4.43104E-03     46.6367E-03    -9.79687E+06    -63.7577E+06    -4.93551E+06     33.6834E+03    -15.6200E-03     31.1466E-03    -15.5266E-03     16.0892E-03    -15.5699E-03     30.8497E-03    -15.4446E-03     16.0871E-03
            1561     3.54486E-03     46.6232E-03    -10.5012E+06    -62.1387E+06    -6.96480E+06    -23.2720E+03    -15.5574E-03     31.0626E-03    -15.5052E-03     12.6769E-03    -15.5100E-03     30.7776E-03    -15.4347E-03     12.6747E-03
            1562     2.65865E-03     46.6128E-03    -11.2009E+06    -64.3558E+06    -8.78997E+06    -49.6979E+03    -15.5198E-03     31.0128E-03    -15.4930E-03     9.38801E-03    -15.4699E-03     30.7202E-03    -15.4274E-03     9.38597E-03
            1563     1.77244E-03     46.6056E-03    -11.9168E+06    -65.9272E+06    -10.7506E+06    -9.28597E+03    -15.4928E-03     30.9740E-03    -15.4813E-03     6.23702E-03    -15.4412E-03     30.6773E-03    -15.4221E-03     6.23599E-03
            1564     886.269E-06     46.6011E-03    -12.3443E+06    -67.2328E+06    -12.1977E+06     55.9896E+03    -15.4910E-03     30.9514E-03    -15.4603E-03     3.39460E-03    -15.4375E-03     30.6510E-03    -15.4059E-03     3.39482E-03
            1565     16.8341E-03     46.4735E-03    -4.48825E+06     149.601E+06     56.0135E+06    -55.1280E+03    -30.3486E-03     46.0780E-03    -15.7294E-03     282.645E-03    -38.3162E-03     54.3983E-03    -15.6597E-03     287.866E-03
            1566     15.9487E-03     46.2473E-03    -5.81584E+06     85.2883E+06    -5.85213E+06     41.3009E+03    -23.5303E-03     39.0290E-03    -15.4987E-03     186.965E-03    -25.8386E-03     41.6364E-03    -15.6432E-03     187.569E-03
            1567     15.0627E-03     46.1221E-03    -5.33239E+06     22.0848E+06    -15.1793E+06     217.455E+03    -18.4976E-03     34.0265E-03    -15.5289E-03     103.192E-03    -18.8353E-03     34.4677E-03    -15.6291E-03     103.166E-03
            1568     14.1769E-03     46.0550E-03    -4.62348E+06    -19.2341E+06    -14.1457E+06     429.298E+03    -16.8884E-03     32.4677E-03    -15.5794E-03     64.2245E-03    -16.9413E-03     32.4770E-03    -15.6155E-03     64.1861E-03
            1569     13.2911E-03     46.0024E-03    -4.18359E+06    -35.7542E+06    -8.89808E+06     309.771E+03    -16.7851E-03     32.3962E-03    -15.6110E-03     58.4456E-03    -16.7857E-03     32.2808E-03    -15.5976E-03     58.4122E-03
            1570     12.4053E-03     45.9460E-03    -4.22011E+06    -33.9451E+06    -394.789E+03     215.144E+03    -16.6815E-03     32.3121E-03    -15.6306E-03     56.1613E-03    -16.6810E-03     32.1772E-03    -15.5772E-03     56.1352E-03
            1571     11.5194E-03     45.8976E-03    -4.21722E+06    -43.9379E+06    -251.427E+03     162.294E+03    -16.4810E-03     32.1062E-03    -15.6253E-03     49.3035E-03    -16.4546E-03     31.9096E-03    -15.5567E-03     49.2839E-03
            1572     10.6335E-03     45.8540E-03    -4.04474E+06    -52.8209E+06    -1.17281E+06     23.2083E+03    -16.3499E-03     31.9623E-03    -15.6124E-03     44.6209E-03    -16.3023E-03     31.7163E-03    -15.5358E-03     44.6049E-03
            1573     9.74754E-03     45.8143E-03    -4.29545E+06    -53.3729E+06     353.921E+03     413.398E+03    -16.2083E-03     31.8089E-03    -15.6005E-03     40.2816E-03    -16.1596E-03     31.5544E-03    -15.5152E-03     40.2750E-03
            1574     8.86160E-03     45.7787E-03    -5.08660E+06    -57.4459E+06     1.36128E+06     570.807E+03    -16.0852E-03     31.6773E-03    -15.5921E-03     35.8794E-03    -16.0336E-03     31.3998E-03    -15.4947E-03     35.8778E-03
            1575     7.97561E-03     45.7471E-03    -6.13587E+06    -59.0772E+06     212.271E+03     72.9405E+03    -15.9680E-03     31.5378E-03    -15.5698E-03     31.5749E-03    -15.9162E-03     31.2538E-03    -15.4742E-03     31.5691E-03
            1576     7.08957E-03     45.7195E-03    -7.25426E+06    -60.4389E+06    -1.22517E+06     123.976E+03    -15.8569E-03     31.4031E-03    -15.5462E-03     27.4016E-03    -15.8056E-03     31.1150E-03    -15.4542E-03     27.3980E-03
            1577     6.20352E-03     45.6956E-03    -8.06091E+06    -61.7993E+06    -2.67571E+06     61.7462E+03    -15.7514E-03     31.2751E-03    -15.5236E-03     23.4143E-03    -15.6994E-03     30.9828E-03    -15.4357E-03     23.4110E-03
            1578     5.31737E-03     45.6755E-03    -8.68930E+06    -64.1077E+06    -3.37597E+06    -148.060E+03    -15.6662E-03     31.1741E-03    -15.5080E-03     19.6167E-03    -15.6125E-03     30.8719E-03    -15.4193E-03     19.6116E-03
            1579     4.43120E-03     45.6588E-03    -9.48047E+06    -63.6692E+06    -4.83038E+06    -55.9781E+03    -15.5900E-03     31.0768E-03    -15.4868E-03     16.0223E-03    -15.5386E-03     30.7797E-03    -15.4048E-03     16.0190E-03
            1580     3.54501E-03     45.6453E-03    -10.4393E+06    -62.1663E+06    -7.24430E+06    -67.7146E+03    -15.5211E-03     30.9836E-03    -15.4625E-03     12.6180E-03    -15.4730E-03     30.6987E-03    -15.3934E-03     12.6152E-03
            1581     2.65879E-03     45.6351E-03    -11.3553E+06    -64.4094E+06    -9.21090E+06     12.8742E+03    -15.4746E-03     30.9245E-03    -15.4499E-03     9.34588E-03    -15.4248E-03     30.6324E-03    -15.3861E-03     9.34466E-03
            1582     1.77253E-03     45.6278E-03    -12.0577E+06    -65.9579E+06    -10.9866E+06     47.6539E+03    -15.4499E-03     30.8901E-03    -15.4402E-03     6.22141E-03    -15.3986E-03     30.5938E-03    -15.3820E-03     6.22111E-03
            1583     886.232E-06     45.6234E-03    -12.4926E+06    -67.1361E+06    -12.1756E+06     80.1863E+03    -15.4477E-03     30.8716E-03    -15.4239E-03     3.36801E-03    -15.3951E-03     30.5719E-03    -15.3693E-03     3.36855E-03
            1584     16.8348E-03     45.4945E-03    -4.45958E+06     149.714E+06     56.0928E+06    -115.697E+03    -30.3571E-03     46.0868E-03    -15.7297E-03     282.665E-03    -38.3240E-03     54.4067E-03    -15.6598E-03     287.880E-03
            1585     15.9485E-03     45.2686E-03    -6.13259E+06     84.7464E+06    -6.33651E+06    -198.267E+03    -23.5426E-03     39.0397E-03    -15.4971E-03     186.867E-03    -25.8459E-03     41.6404E-03    -15.6428E-03     187.465E-03
            1586     15.0628E-03     45.1434E-03    -5.64391E+06     21.7326E+06    -15.4450E+06     104.526E+03    -18.6007E-03     34.1250E-03    -15.5242E-03     103.054E-03    -18.9385E-03     34.5646E-03    -15.6248E-03     103.025E-03
            1587     14.1770E-03     45.0765E-03    -4.88619E+06    -19.1903E+06    -14.3038E+06     367.787E+03    -16.9625E-03     32.5310E-03    -15.5685E-03     64.1681E-03    -17.0166E-03     32.5412E-03    -15.6051E-03     64.1286E-03
            1588     13.2913E-03     45.0239E-03    -4.35070E+06    -35.5136E+06    -8.99982E+06     321.355E+03    -16.8136E-03     32.4094E-03    -15.5958E-03     58.4153E-03    -16.8151E-03     32.2955E-03    -15.5830E-03     58.3821E-03
            1589     12.4054E-03     44.9676E-03    -4.20166E+06    -33.8844E+06    -321.357E+03     167.723E+03    -16.7055E-03     32.3186E-03    -15.6131E-03     56.0490E-03    -16.7049E-03     32.1837E-03    -15.5595E-03     56.0223E-03
            1590     11.5197E-03     44.9192E-03    -4.53876E+06    -43.6493E+06     15.3839E+03    -103.825E+03    -16.4999E-03     32.1054E-03    -15.6055E-03     49.1727E-03    -16.4759E-03     31.9103E-03    -15.5356E-03     49.1497E-03
            1591     10.6338E-03     44.8757E-03    -5.01517E+06    -52.9981E+06    -1.16270E+06    -108.344E+03    -16.3624E-03     31.9518E-03    -15.5894E-03     44.4887E-03    -16.3194E-03     31.7062E-03    -15.5111E-03     44.4711E-03
            1592     9.74788E-03     44.8360E-03    -5.27491E+06    -53.9690E+06     211.072E+03     214.063E+03    -16.2164E-03     31.7899E-03    -15.5735E-03     40.1594E-03    -16.1714E-03     31.5340E-03    -15.4866E-03     40.1502E-03
            1593     8.86192E-03     44.8005E-03    -5.30087E+06    -57.0737E+06     1.94373E+06     351.913E+03    -16.0874E-03     31.6497E-03    -15.5623E-03     35.7534E-03    -16.0382E-03     31.3735E-03    -15.4622E-03     35.7490E-03
            1594     7.97592E-03     44.7690E-03    -5.77749E+06    -58.9321E+06     650.926E+03     456.487E+03    -15.9576E-03     31.4929E-03    -15.5353E-03     31.4580E-03    -15.9047E-03     31.2084E-03    -15.4382E-03     31.4571E-03
            1595     7.08988E-03     44.7414E-03    -6.64733E+06    -60.4446E+06    -904.687E+03     367.237E+03    -15.8337E-03     31.3424E-03    -15.5087E-03     27.3053E-03    -15.7798E-03     31.0529E-03    -15.4159E-03     27.3048E-03
            1596     6.20376E-03     44.7177E-03    -7.56750E+06    -61.3809E+06    -2.66598E+06     117.589E+03    -15.7217E-03     31.2043E-03    -15.4826E-03     23.3275E-03    -15.6679E-03     30.9134E-03    -15.3959E-03     23.3250E-03
            1597     5.31758E-03     44.6976E-03    -8.59591E+06    -64.1013E+06    -4.01311E+06    -78.6946E+03    -15.6339E-03     31.0974E-03    -15.4635E-03     19.5369E-03    -15.5789E-03     30.7960E-03    -15.3781E-03     19.5327E-03
            1598     4.43141E-03     44.6810E-03    -9.58571E+06    -63.8532E+06    -5.32620E+06    -42.4954E+03    -15.5545E-03     30.9966E-03    -15.4421E-03     15.9464E-03    -15.5026E-03     30.6994E-03    -15.3622E-03     15.9433E-03
            1599     3.54517E-03     44.6676E-03    -10.5072E+06    -62.1725E+06    -7.54375E+06     163.754E+03    -15.4786E-03     30.8962E-03    -15.4176E-03     12.5505E-03    -15.4303E-03     30.6118E-03    -15.3500E-03     12.5507E-03
            1600     2.65888E-03     44.6573E-03    -11.3816E+06    -64.3954E+06    -9.27993E+06     123.031E+03    -15.4319E-03     30.8376E-03    -15.4057E-03     9.29593E-03    -15.3821E-03     30.5457E-03    -15.3423E-03     9.29614E-03
            1601     1.77258E-03     44.6501E-03    -12.0810E+06    -65.8889E+06    -10.9743E+06     76.9484E+03    -15.4098E-03     30.8045E-03    -15.3947E-03     6.18841E-03    -15.3588E-03     30.5085E-03    -15.3365E-03     6.18849E-03
            1602     886.333E-06     44.6457E-03    -12.4884E+06    -67.0911E+06    -12.2387E+06     17.9516E+03    -15.4088E-03     30.7772E-03    -15.3684E-03     3.31146E-03    -15.3561E-03     30.4778E-03    -15.3142E-03     3.31122E-03
            1603     16.8335E-03     44.5149E-03    -4.30395E+06     150.017E+06     55.9812E+06    -51.8093E+03    -30.2967E-03     46.0288E-03    -15.7321E-03     282.319E-03    -38.2537E-03     54.3407E-03    -15.6634E-03     287.533E-03
            1604     15.9485E-03     44.2897E-03    -6.16459E+06     84.4603E+06    -6.76891E+06    -268.202E+03    -23.6179E-03     39.1142E-03    -15.4964E-03     186.319E-03    -25.9112E-03     41.7051E-03    -15.6437E-03     186.911E-03
            1605     15.0629E-03     44.1647E-03    -5.84329E+06     21.2760E+06    -15.7177E+06     103.917E+03    -18.6774E-03     34.1960E-03    -15.5186E-03     102.884E-03    -19.0135E-03     34.6326E-03    -15.6196E-03     102.854E-03
            1606     14.1772E-03     44.0980E-03    -5.09839E+06    -19.1472E+06    -14.4133E+06     304.489E+03    -17.0526E-03     32.6096E-03    -15.5571E-03     64.0603E-03    -17.1077E-03     32.6205E-03    -15.5940E-03     64.0197E-03
            1607     13.2915E-03     44.0453E-03    -4.69992E+06    -35.4253E+06    -9.15523E+06     220.842E+03    -16.8630E-03     32.4415E-03    -15.5786E-03     58.3023E-03    -16.8660E-03     32.3286E-03    -15.5662E-03     58.2677E-03
            1608     12.4058E-03     43.9891E-03    -4.78478E+06    -33.7103E+06    -455.697E+03     177.483E+03    -16.7196E-03     32.3119E-03    -15.5924E-03     55.9332E-03    -16.7219E-03     32.1789E-03    -15.5388E-03     55.9067E-03
            1609     11.5199E-03     43.9408E-03    -5.40197E+06    -43.4385E+06    -232.515E+03     134.439E+03    -16.5183E-03     32.0995E-03    -15.5812E-03     49.0405E-03    -16.4985E-03     31.9070E-03    -15.5116E-03     49.0206E-03
            1610     10.6341E-03     43.8974E-03    -6.22850E+06    -53.2392E+06    -1.76950E+06     200.506E+03    -16.3773E-03     31.9377E-03    -15.5604E-03     44.3579E-03    -16.3390E-03     31.6935E-03    -15.4830E-03     44.3443E-03
            1611     9.74817E-03     43.8578E-03    -6.87451E+06    -53.6267E+06    -1.45985E+06    -176.204E+03    -16.2162E-03     31.7513E-03    -15.5350E-03     40.0715E-03    -16.1773E-03     31.5018E-03    -15.4546E-03     40.0574E-03
            1612     8.86222E-03     43.8223E-03    -7.25225E+06    -57.4834E+06    -113.857E+03    -299.948E+03    -16.0706E-03     31.5910E-03    -15.5204E-03     35.6659E-03    -16.0275E-03     31.3184E-03    -15.4271E-03     35.6532E-03
            1613     7.97622E-03     43.7910E-03    -7.47480E+06    -59.1624E+06    -1.18820E+06     189.152E+03    -15.9300E-03     31.4216E-03    -15.4916E-03     31.3630E-03    -15.8826E-03     31.1411E-03    -15.4009E-03     31.3587E-03
            1614     7.09012E-03     43.7635E-03    -7.64037E+06    -59.9863E+06    -2.38980E+06     147.169E+03    -15.8056E-03     31.2684E-03    -15.4628E-03     27.2145E-03    -15.7552E-03     30.9848E-03    -15.3766E-03     27.2112E-03
            1615     6.20400E-03     43.7399E-03    -7.93825E+06    -61.5116E+06    -3.06745E+06     133.128E+03    -15.6989E-03     31.1384E-03    -15.4395E-03     23.2164E-03    -15.6462E-03     30.8480E-03    -15.3541E-03     23.2141E-03
            1616     5.31785E-03     43.7198E-03    -8.68060E+06    -63.8543E+06    -4.30901E+06     278.070E+03    -15.5973E-03     31.0150E-03    -15.4177E-03     19.4360E-03    -15.5427E-03     30.7154E-03    -15.3341E-03     19.4364E-03
            1617     4.43159E-03     43.7033E-03    -9.83686E+06    -64.0374E+06    -5.84401E+06     212.597E+03    -15.5085E-03     30.9039E-03    -15.3954E-03     15.8759E-03    -15.4568E-03     30.6069E-03    -15.3175E-03     15.8761E-03
            1618     3.54532E-03     43.6899E-03    -10.7824E+06    -62.1365E+06    -7.62818E+06     217.403E+03    -15.4394E-03     30.8112E-03    -15.3718E-03     12.4809E-03    -15.3924E-03     30.5275E-03    -15.3042E-03     12.4818E-03
            1619     2.65903E-03     43.6798E-03    -11.4896E+06    -64.2101E+06    -9.22921E+06     173.333E+03    -15.3928E-03     30.7502E-03    -15.3574E-03     9.24180E-03    -15.3439E-03     30.4593E-03    -15.2937E-03     9.24267E-03
            1620     1.77272E-03     43.6725E-03    -12.1459E+06    -65.8128E+06    -11.0382E+06     71.9909E+03    -15.3600E-03     30.7037E-03    -15.3437E-03     6.16251E-03    -15.3093E-03     30.4084E-03    -15.2859E-03     6.16253E-03
            1621     886.346E-06     43.6682E-03    -12.5223E+06    -67.0153E+06    -12.3703E+06     55.5583E+03    -15.3496E-03     30.6745E-03    -15.3249E-03     3.30820E-03    -15.2971E-03     30.3758E-03    -15.2714E-03     3.30844E-03
            1622     16.8347E-03     43.5356E-03    -3.84376E+06     149.971E+06     55.5031E+06     159.132E+03    -30.3358E-03     46.0539E-03    -15.7181E-03     281.936E-03    -38.2786E-03     54.3545E-03    -15.6525E-03     287.129E-03
            1623     15.9488E-03     43.3109E-03    -5.64586E+06     84.6798E+06    -6.99660E+06     273.311E+03    -23.4715E-03     38.9550E-03    -15.4835E-03     185.752E-03    -25.7462E-03     41.5305E-03    -15.6331E-03     186.353E-03
            1624     15.0629E-03     43.1860E-03    -6.03876E+06     21.2302E+06    -15.8261E+06     187.168E+03    -18.6814E-03     34.1911E-03    -15.5096E-03     102.851E-03    -19.0179E-03     34.6273E-03    -15.6108E-03     102.823E-03
            1625     14.1773E-03     43.1191E-03    -5.49688E+06    -19.1665E+06    -14.7496E+06     73.3003E+03    -17.1590E-03     32.7018E-03    -15.5428E-03     63.8727E-03    -17.2156E-03     32.7136E-03    -15.5808E-03     63.8286E-03
            1626     13.2918E-03     43.0668E-03    -4.89883E+06    -35.4298E+06    -9.30922E+06     174.928E+03    -16.9150E-03     32.4734E-03    -15.5584E-03     58.1232E-03    -16.9187E-03     32.3609E-03    -15.5464E-03     58.0879E-03
            1627     12.4060E-03     43.0106E-03    -4.89511E+06    -33.6939E+06    -549.768E+03     261.816E+03    -16.7383E-03     32.3064E-03    -15.5681E-03     55.8078E-03    -16.7409E-03     32.1736E-03    -15.5149E-03     55.7824E-03
            1628     11.5202E-03     42.9624E-03    -5.24764E+06    -43.4638E+06    -207.178E+03     388.029E+03    -16.5316E-03     32.0855E-03    -15.5538E-03     48.8840E-03    -16.5109E-03     31.8925E-03    -15.4842E-03     48.8675E-03
            1629     10.6344E-03     42.9191E-03    -5.46510E+06    -53.1030E+06    -1.49890E+06     303.851E+03    -16.3891E-03     31.9188E-03    -15.5297E-03     44.2086E-03    -16.3476E-03     31.6737E-03    -15.4523E-03     44.1964E-03
            1630     9.74852E-03     42.8796E-03    -5.80484E+06    -52.9675E+06    -1.15266E+06        -907.621    -16.2166E-03     31.7166E-03    -15.5000E-03     39.9307E-03    -16.1737E-03     31.4684E-03    -15.4205E-03     39.9188E-03
            1631     8.86255E-03     42.8442E-03    -6.64435E+06    -57.7137E+06    -175.333E+03    -320.009E+03    -16.0614E-03     31.5440E-03    -15.4826E-03     35.5243E-03    -16.0148E-03     31.2695E-03    -15.3901E-03     35.5113E-03
            1632     7.97651E-03     42.8129E-03    -7.22917E+06    -59.4560E+06    -1.31936E+06    -387.392E+03    -15.9193E-03     31.3704E-03    -15.4511E-03     31.2181E-03    -15.8700E-03     31.0882E-03    -15.3610E-03     31.2064E-03
            1633     7.09044E-03     42.7856E-03    -7.52064E+06    -59.9167E+06    -2.68059E+06    -179.520E+03    -15.7870E-03     31.2048E-03    -15.4178E-03     27.0716E-03    -15.7356E-03     30.9218E-03    -15.3335E-03     27.0642E-03
            1634     6.20431E-03     42.7620E-03    -8.21831E+06    -61.9167E+06    -3.66018E+06     136.695E+03    -15.6645E-03     31.0563E-03    -15.3918E-03     23.0888E-03    -15.6116E-03     30.7651E-03    -15.3084E-03     23.0865E-03
            1635     5.31807E-03     42.7421E-03    -9.10113E+06    -63.8512E+06    -4.42522E+06     472.159E+03    -15.5590E-03     30.9291E-03    -15.3701E-03     19.3183E-03    -15.5063E-03     30.6302E-03    -15.2864E-03     19.3212E-03
            1636     4.43181E-03     42.7256E-03    -9.90577E+06    -63.7635E+06    -5.53433E+06     417.820E+03    -15.4660E-03     30.8131E-03    -15.3471E-03     15.7671E-03    -15.4155E-03     30.5171E-03    -15.2679E-03     15.7700E-03
            1637     3.54550E-03     42.7124E-03    -10.7546E+06    -62.0373E+06    -7.50501E+06     177.599E+03    -15.3918E-03     30.7130E-03    -15.3212E-03     12.3999E-03    -15.3450E-03     30.4296E-03    -15.2532E-03     12.4004E-03
            1638     2.65916E-03     42.7022E-03    -11.5184E+06    -64.0739E+06    -9.25385E+06     112.038E+03    -15.3473E-03     30.6515E-03    -15.3042E-03     9.17894E-03    -15.2988E-03     30.3614E-03    -15.2408E-03     9.17903E-03
            1639     1.77277E-03     42.6950E-03    -12.1142E+06    -65.6998E+06    -10.9977E+06     87.9853E+03    -15.3066E-03     30.5958E-03    -15.2891E-03     6.11112E-03    -15.2561E-03     30.3008E-03    -15.2313E-03     6.11137E-03
            1640     886.389E-06     42.6906E-03    -12.5732E+06    -66.9259E+06    -12.2603E+06     62.7254E+03    -15.2811E-03     30.5644E-03    -15.2833E-03     3.25966E-03    -15.2291E-03     30.2660E-03    -15.2293E-03     3.26000E-03
            1641     16.8345E-03     42.5559E-03    -4.17072E+06     149.524E+06     55.3482E+06     148.911E+03    -30.3090E-03     46.0188E-03    -15.7098E-03     281.836E-03    -38.2222E-03     54.2874E-03    -15.6438E-03     287.002E-03
            1642     15.9490E-03     42.3327E-03    -5.86248E+06     84.7315E+06    -6.90064E+06     755.208E+03    -23.5259E-03     39.0009E-03    -15.4750E-03     185.984E-03    -25.7996E-03     41.5745E-03    -15.6238E-03     186.592E-03
            1643     15.0631E-03     42.2070E-03    -5.95468E+06     21.8919E+06    -15.6754E+06     432.378E+03    -18.8631E-03     34.3562E-03    -15.4930E-03     102.598E-03    -19.2007E-03     34.7958E-03    -15.5945E-03     102.571E-03
            1644     14.1777E-03     42.1403E-03    -5.41218E+06    -19.0603E+06    -14.7478E+06    -34.5146E+03    -17.1297E-03     32.6497E-03    -15.5200E-03     63.4973E-03    -17.1852E-03     32.6611E-03    -15.5582E-03     63.4522E-03
            1645     13.2920E-03     42.0882E-03    -4.92401E+06    -35.6253E+06    -9.45269E+06     25.5235E+03    -16.9271E-03     32.4609E-03    -15.5338E-03     57.8851E-03    -16.9301E-03     32.3474E-03    -15.5223E-03     57.8480E-03
            1646     12.4064E-03     42.0321E-03    -4.75947E+06    -33.8024E+06    -648.099E+03     216.152E+03    -16.7618E-03     32.3019E-03    -15.5400E-03     55.6576E-03    -16.7634E-03     32.1684E-03    -15.4874E-03     55.6317E-03
            1647     11.5205E-03     41.9841E-03    -4.92181E+06    -43.4888E+06    -267.508E+03     273.230E+03    -16.5391E-03     32.0612E-03    -15.5221E-03     48.7423E-03    -16.5166E-03     31.8676E-03    -15.4533E-03     48.7244E-03
            1648     10.6348E-03     41.9408E-03    -5.15248E+06    -52.8318E+06    -1.29388E+06     178.681E+03    -16.3921E-03     31.8878E-03    -15.4957E-03     44.0492E-03    -16.3496E-03     31.6432E-03    -15.4181E-03     44.0354E-03
            1649     9.74886E-03     41.9015E-03    -5.52541E+06    -52.8178E+06    -1.17469E+06     127.230E+03    -16.2142E-03     31.6759E-03    -15.4617E-03     39.7676E-03    -16.1700E-03     31.4280E-03    -15.3830E-03     39.7575E-03
            1650     8.86290E-03     41.8661E-03    -6.04335E+06    -57.2956E+06    -75.5505E+03    -53.6739E+03    -16.0595E-03     31.4999E-03    -15.4404E-03     35.3602E-03    -16.0107E-03     31.2264E-03    -15.3489E-03     35.3508E-03
            1651     7.97690E-03     41.8351E-03    -6.92611E+06    -59.5163E+06    -1.44111E+06    -385.553E+03    -15.9087E-03     31.3136E-03    -15.4049E-03     31.0548E-03    -15.8576E-03     31.0309E-03    -15.3158E-03     31.0432E-03
            1652     7.09080E-03     41.8077E-03    -7.92285E+06    -60.4724E+06    -3.52655E+06    -95.0838E+03    -15.7567E-03     31.1233E-03    -15.3666E-03     26.9246E-03    -15.7053E-03     30.8393E-03    -15.2850E-03     26.9183E-03
            1653     6.20459E-03     41.7844E-03    -8.73038E+06    -62.1267E+06    -4.00567E+06     325.742E+03    -15.6304E-03     30.9704E-03    -15.3400E-03     22.9466E-03    -15.5793E-03     30.6794E-03    -15.2573E-03     22.9468E-03
            1654     5.31836E-03     41.7645E-03    -9.34216E+06    -63.8410E+06    -4.11020E+06     264.396E+03    -15.5273E-03     30.8445E-03    -15.3172E-03     19.1759E-03    -15.4762E-03     30.5455E-03    -15.2316E-03     19.1762E-03
            1655     4.43209E-03     41.7481E-03    -9.91409E+06    -63.5224E+06    -5.27522E+06     235.959E+03    -15.4239E-03     30.7131E-03    -15.2892E-03     15.6313E-03    -15.3742E-03     30.4180E-03    -15.2091E-03     15.6319E-03
            1656     3.54572E-03     41.7349E-03    -10.6230E+06    -61.8353E+06    -7.42729E+06     189.034E+03    -15.3339E-03     30.5938E-03    -15.2600E-03     12.2969E-03    -15.2868E-03     30.3111E-03    -15.1920E-03     12.2975E-03
            1657     2.65932E-03     41.7248E-03    -11.4004E+06    -64.0212E+06    -9.19123E+06     79.5543E+03    -15.2850E-03     30.5278E-03    -15.2428E-03     9.09015E-03    -15.2360E-03     30.2377E-03    -15.1794E-03     9.08983E-03
            1658     1.77292E-03     41.7176E-03    -12.0589E+06    -65.6291E+06    -10.8911E+06     72.0533E+03    -15.2486E-03     30.4756E-03    -15.2270E-03     6.05173E-03    -15.1980E-03     30.1808E-03    -15.1688E-03     6.05177E-03
            1659     886.476E-06     41.7133E-03    -12.4395E+06    -66.8261E+06    -12.1907E+06     24.3268E+03    -15.2262E-03     30.4376E-03    -15.2114E-03     3.23643E-03    -15.1738E-03     30.1394E-03    -15.1574E-03     3.23627E-03
            1660     16.8349E-03     41.5791E-03    -5.03512E+06     148.839E+06     55.1220E+06     197.037E+03    -30.5065E-03     46.2201E-03    -15.7135E-03     281.264E-03    -38.3808E-03     54.4450E-03    -15.6464E-03     286.420E-03
            1661     15.9482E-03     41.3523E-03    -6.45202E+06     84.7236E+06    -6.78644E+06     518.154E+03    -23.8735E-03     39.3351E-03    -15.4616E-03     185.492E-03    -26.1402E-03     41.8993E-03    -15.6091E-03     186.077E-03
            1662     15.0641E-03     41.2283E-03    -5.60238E+06     22.5706E+06    -15.3999E+06     373.404E+03    -18.8547E-03     34.3206E-03    -15.4659E-03     102.064E-03    -19.1899E-03     34.7607E-03    -15.5676E-03     102.036E-03
            1663     14.1780E-03     41.1618E-03    -5.13168E+06    -18.8804E+06    -14.6446E+06     114.991E+03    -17.0913E-03     32.5829E-03    -15.4916E-03     63.4302E-03    -17.1453E-03     32.5942E-03    -15.5300E-03     63.3873E-03
            1664     13.2925E-03     41.1096E-03    -4.66464E+06    -35.6539E+06    -9.49379E+06     3.51550E+03    -16.9093E-03     32.4142E-03    -15.5050E-03     57.7623E-03    -16.9107E-03     32.3000E-03    -15.4940E-03     57.7250E-03
            1665     12.4067E-03     41.0537E-03    -4.57932E+06    -34.0384E+06    -828.392E+03     24.8586E+03    -16.7781E-03     32.2868E-03    -15.5087E-03     55.5085E-03    -16.7780E-03     32.1520E-03    -15.4568E-03     55.4801E-03
            1666     11.5210E-03     41.0057E-03    -4.77941E+06    -43.4620E+06    -402.218E+03     163.408E+03    -16.5509E-03     32.0379E-03    -15.4870E-03     48.5840E-03    -16.5273E-03     31.8443E-03    -15.4191E-03     48.5647E-03
            1667     10.6351E-03     40.9626E-03    -5.05666E+06    -52.6463E+06    -1.14295E+06     115.440E+03    -16.3980E-03     31.8560E-03    -15.4580E-03     43.8853E-03    -16.3555E-03     31.6120E-03    -15.3800E-03     43.8708E-03
            1668     9.74929E-03     40.9233E-03    -5.14135E+06    -52.7448E+06    -809.617E+03    -83.4587E+03    -16.2223E-03     31.6427E-03    -15.4204E-03     39.5698E-03    -16.1767E-03     31.3940E-03    -15.3405E-03     39.5570E-03
            1669     8.86332E-03     40.8882E-03    -5.25716E+06    -57.1189E+06    -206.118E+03    -131.430E+03    -16.0509E-03     31.4425E-03    -15.3916E-03     35.1781E-03    -15.9981E-03     31.1689E-03    -15.3022E-03     35.1677E-03
            1670     7.97729E-03     40.8571E-03    -6.03051E+06    -59.8323E+06    -848.506E+03     331.591E+03    -15.8917E-03     31.2483E-03    -15.3566E-03     30.8626E-03    -15.8366E-03     30.9618E-03    -15.2653E-03     30.8603E-03
            1671     7.09114E-03     40.8301E-03    -7.47168E+06    -60.6834E+06    -2.26338E+06     595.115E+03    -15.7415E-03     31.0592E-03    -15.3177E-03     26.7196E-03    -15.6894E-03     30.7717E-03    -15.2302E-03     26.7223E-03
            1672     6.20498E-03     40.8066E-03    -8.43935E+06    -61.8037E+06    -3.30001E+06     162.952E+03    -15.6024E-03     30.8852E-03    -15.2827E-03     22.7627E-03    -15.5514E-03     30.5943E-03    -15.1974E-03     22.7608E-03
            1673     5.31873E-03     40.7870E-03    -8.99633E+06     -63.871E+06    -3.93821E+06     4.69894E+03    -15.4797E-03     30.7336E-03    -15.2539E-03     19.0270E-03    -15.4271E-03     30.4337E-03    -15.1680E-03     19.0240E-03
            1674     4.43237E-03     40.7706E-03    -9.86216E+06    -63.5115E+06    -5.36495E+06     124.158E+03    -15.3730E-03     30.5950E-03    -15.2220E-03     15.5106E-03    -15.3229E-03     30.3000E-03    -15.1424E-03     15.5097E-03
            1675     3.54599E-03     40.7576E-03    -10.7258E+06    -61.7227E+06    -7.43635E+06     140.393E+03    -15.2777E-03     30.4674E-03    -15.1897E-03     12.1960E-03    -15.2314E-03     30.1854E-03    -15.1218E-03     12.1959E-03
            1676     2.65952E-03     40.7475E-03    -11.4692E+06    -63.9109E+06    -9.17323E+06     94.1699E+03    -15.2128E-03     30.3833E-03    -15.1705E-03     9.01665E-03    -15.1643E-03     30.0938E-03    -15.1070E-03     9.01654E-03
            1677     1.77301E-03     40.7404E-03    -12.1204E+06    -65.6159E+06    -10.9651E+06     16.0433E+03    -15.1718E-03     30.3273E-03    -15.1555E-03     5.98435E-03    -15.1214E-03     30.0327E-03    -15.0976E-03     5.98369E-03
            1678     886.494E-06     40.7361E-03    -12.4467E+06    -66.7257E+06    -12.2394E+06         484.018    -15.1537E-03     30.2971E-03    -15.1434E-03     3.22526E-03    -15.1014E-03     29.9995E-03    -15.0898E-03     3.22480E-03
            1679     16.8335E-03     40.5973E-03    -4.67381E+06     149.382E+06     56.2411E+06     426.219E+03    -30.8049E-03     46.5090E-03    -15.7041E-03     280.295E-03    -38.6459E-03     54.7006E-03    -15.6327E-03     285.405E-03
            1680     15.9510E-03     40.3741E-03    -6.63013E+06     84.2979E+06    -6.49436E+06     228.588E+03    -23.8640E-03     39.3015E-03    -15.4374E-03     185.041E-03    -26.1184E-03     41.8504E-03    -15.5825E-03     185.620E-03
            1681     15.0636E-03     40.2495E-03    -5.49754E+06     22.0773E+06    -15.6440E+06     181.621E+03    -18.7642E-03     34.2032E-03    -15.4389E-03     102.029E-03    -19.0961E-03     34.6392E-03    -15.5412E-03     101.999E-03
            1682     14.1786E-03     40.1831E-03    -4.55705E+06    -18.5278E+06    -14.2607E+06     308.829E+03    -17.1028E-03     32.5694E-03    -15.4666E-03     63.2921E-03    -17.1546E-03     32.5806E-03    -15.5045E-03     63.2517E-03
            1683     13.2927E-03     40.1312E-03    -4.27608E+06    -35.5917E+06    -9.34822E+06     93.7497E+03    -16.9401E-03     32.4163E-03    -15.4763E-03     57.7354E-03    -16.9397E-03     32.3016E-03    -15.4652E-03     57.6992E-03
            1684     12.4072E-03     40.0751E-03    -4.33950E+06    -34.1607E+06    -901.014E+03     72.8606E+03    -16.8082E-03     32.2833E-03    -15.4751E-03     55.3360E-03    -16.8064E-03     32.1475E-03    -15.4238E-03     55.3083E-03
            1685     11.5214E-03     40.0275E-03    -4.72383E+06    -43.5586E+06    -695.273E+03     145.863E+03    -16.5660E-03     32.0140E-03    -15.4480E-03     48.4138E-03    -16.5415E-03     31.8201E-03    -15.3815E-03     48.3944E-03
            1686     10.6356E-03     39.9843E-03    -5.06456E+06    -52.4612E+06    -1.64710E+06     131.023E+03    -16.4172E-03     31.8299E-03    -15.4127E-03     43.7100E-03    -16.3741E-03     31.5874E-03    -15.3376E-03     43.6957E-03
            1687     9.74976E-03     39.9453E-03    -5.66949E+06    -52.4155E+06    -1.25626E+06    -123.328E+03    -16.2232E-03     31.5940E-03    -15.3708E-03     39.3660E-03    -16.1800E-03     31.3483E-03    -15.2929E-03     39.3528E-03
            1688     8.86381E-03     39.9102E-03    -6.63964E+06    -57.5537E+06    -972.919E+03    -10.6175E+03    -16.0402E-03     31.3778E-03    -15.3376E-03     34.9729E-03    -15.9925E-03     31.1051E-03    -15.2494E-03     34.9641E-03
            1689     7.97772E-03     39.8794E-03    -7.35252E+06    -60.3861E+06    -1.22614E+06     481.577E+03    -15.8794E-03     31.1786E-03    -15.2991E-03     30.6456E-03    -15.8295E-03     30.8917E-03    -15.2070E-03     30.6453E-03
            1690     7.09165E-03     39.8523E-03    -7.29993E+06    -60.2878E+06    -1.47531E+06     496.753E+03    -15.7182E-03     30.9749E-03    -15.2567E-03     26.5000E-03    -15.6669E-03     30.6879E-03    -15.1660E-03     26.5014E-03
            1691     6.20543E-03     39.8292E-03    -7.74898E+06    -61.3924E+06    -3.03850E+06     305.324E+03    -15.5542E-03     30.7683E-03    -15.2141E-03     22.5770E-03    -15.5006E-03     30.4781E-03    -15.1290E-03     22.5771E-03
            1692     5.31908E-03     39.8095E-03    -8.97518E+06    -63.8988E+06    -4.28981E+06     169.350E+03    -15.4221E-03     30.6033E-03    -15.1812E-03     18.8763E-03    -15.3688E-03     30.3038E-03    -15.0970E-03     18.8754E-03
            1693     4.43270E-03     39.7933E-03    -9.98826E+06    -63.5270E+06    -5.38472E+06     119.834E+03    -15.3136E-03     30.4620E-03    -15.1483E-03     15.3725E-03    -15.2641E-03     30.1671E-03    -15.0687E-03     15.3716E-03
            1694     3.54623E-03     39.7803E-03    -10.8203E+06    -61.6214E+06    -7.39578E+06     79.0747E+03    -15.2122E-03     30.3252E-03    -15.1129E-03     12.0692E-03    -15.1665E-03     30.0437E-03    -15.0448E-03     12.0684E-03
            1695     2.65973E-03     39.7704E-03    -11.5720E+06    -63.8252E+06    -9.18843E+06     22.7515E+03    -15.1420E-03     30.2320E-03    -15.0901E-03     8.93475E-03    -15.0941E-03     29.9432E-03    -15.0267E-03     8.93372E-03
            1696     1.77320E-03     39.7633E-03    -12.2097E+06    -65.5592E+06    -11.0307E+06    -1.38383E+03    -15.0966E-03     30.1672E-03    -15.0706E-03     5.91107E-03    -15.0466E-03     29.8731E-03    -15.0129E-03     5.91019E-03
            1697     886.612E-06     39.7591E-03    -12.6468E+06    -66.7836E+06    -12.3929E+06    -9.16568E+03    -15.0601E-03     30.1217E-03    -15.0616E-03     3.18039E-03    -15.0085E-03     29.8243E-03    -15.0084E-03     3.17981E-03
            1698     16.8371E-03     39.6186E-03    -4.20541E+06     149.385E+06     56.3140E+06     434.828E+03    -30.8725E-03     46.5583E-03    -15.6857E-03     279.842E-03    -38.6541E-03     54.6919E-03    -15.6147E-03     284.901E-03
            1699     15.9483E-03     39.3949E-03    -5.23442E+06     84.9778E+06    -5.72053E+06     275.515E+03    -23.7990E-03     39.2176E-03    -15.4186E-03     184.928E-03    -26.0442E-03     41.7624E-03    -15.5628E-03     185.506E-03
            1700     15.0649E-03     39.2704E-03    -5.13811E+06     21.9610E+06    -15.3108E+06     87.6776E+03    -18.8367E-03     34.2553E-03    -15.4187E-03     101.584E-03    -19.1640E-03     34.6868E-03    -15.5196E-03     101.552E-03
            1701     14.1787E-03     39.2049E-03    -4.64624E+06    -18.7143E+06    -14.3530E+06     126.810E+03    -17.0896E-03     32.5308E-03    -15.4412E-03     63.2355E-03    -17.1409E-03     32.5407E-03    -15.4790E-03     63.1929E-03
            1702     13.2932E-03     39.1523E-03    -3.84074E+06    -35.4892E+06    -9.11655E+06     245.791E+03    -17.0154E-03     32.4627E-03    -15.4473E-03     57.6391E-03    -17.0133E-03     32.3474E-03    -15.4358E-03     57.6048E-03
            1703     12.4076E-03     39.0969E-03    -3.89669E+06    -34.0945E+06    -751.014E+03     218.415E+03    -16.8564E-03     32.2955E-03    -15.4390E-03     55.1183E-03    -16.8526E-03     32.1589E-03    -15.3877E-03     55.0925E-03
            1704     11.5219E-03     39.0490E-03    -4.10408E+06    -43.5892E+06    -403.790E+03     125.106E+03    -16.6092E-03     32.0151E-03    -15.4060E-03     48.2010E-03    -16.5818E-03     31.8197E-03    -15.3388E-03     48.1814E-03
            1705     10.6361E-03     39.0062E-03    -4.15317E+06    -52.3132E+06    -1.32055E+06     64.4529E+03    -16.4312E-03     31.7953E-03    -15.3642E-03     43.4702E-03    -16.3841E-03     31.5517E-03    -15.2889E-03     43.4552E-03
            1706     9.75025E-03     38.9672E-03     -4.7325E+06    -52.8109E+06    -96.5043E+03     592.613E+03    -16.2327E-03     31.5541E-03    -15.3215E-03     39.1060E-03    -16.1859E-03     31.3033E-03    -15.2385E-03     39.1021E-03
            1707     8.86429E-03     38.9324E-03    -6.35995E+06    -57.6619E+06     628.014E+03     1.07276E+06    -16.0497E-03     31.3340E-03    -15.2843E-03     34.6852E-03    -16.0028E-03     31.0580E-03    -15.1883E-03     34.6904E-03
            1708     7.97832E-03     38.9016E-03    -7.64029E+06    -59.6494E+06    -1.69686E+06     136.560E+03    -15.8533E-03     31.0819E-03    -15.2286E-03     30.4137E-03    -15.8051E-03     30.7998E-03    -15.1395E-03     30.4090E-03
            1709     7.09214E-03     38.8748E-03    -8.12078E+06    -60.6174E+06    -3.19052E+06    -235.608E+03    -15.6637E-03     30.8420E-03    -15.1783E-03     26.3043E-03    -15.6135E-03     30.5570E-03    -15.0946E-03     26.2963E-03
            1710     6.20585E-03     38.8517E-03    -8.46957E+06    -61.4649E+06    -3.51188E+06     391.323E+03    -15.5064E-03     30.6442E-03    -15.1378E-03     22.3773E-03    -15.4557E-03     30.3554E-03    -15.0540E-03     22.3785E-03
            1711     5.31951E-03     38.8323E-03    -8.99625E+06    -63.5335E+06    -3.95414E+06     358.537E+03    -15.3725E-03     30.4747E-03    -15.1022E-03     18.6784E-03    -15.3203E-03     30.1765E-03    -15.0168E-03     18.6800E-03
            1712     4.43307E-03     38.8161E-03    -9.86906E+06    -63.4737E+06    -5.19216E+06     85.3102E+03    -15.2439E-03     30.3083E-03    -15.0645E-03     15.1978E-03    -15.1941E-03     30.0133E-03    -14.9841E-03     15.1965E-03
            1713     3.54656E-03     38.8033E-03    -10.7435E+06    -61.5171E+06    -7.29154E+06     27.9431E+03    -15.1335E-03     30.1593E-03    -15.0258E-03     11.9189E-03    -15.0877E-03     29.8781E-03    -14.9575E-03     11.9175E-03
            1714     2.65996E-03     38.7934E-03    -11.5767E+06    -63.8081E+06    -9.19115E+06    -2.42418E+03    -15.0587E-03     30.0591E-03    -15.0003E-03     8.82636E-03    -15.0109E-03     29.7703E-03    -14.9370E-03     8.82503E-03
            1715     1.77333E-03     38.7864E-03    -12.3047E+06    -65.5462E+06    -11.0846E+06    -7.88679E+03    -15.0103E-03     29.9881E-03    -14.9778E-03     5.85440E-03    -14.9607E-03     29.6943E-03    -14.9203E-03     5.85345E-03
            1716     886.688E-06     38.7822E-03    -12.7700E+06    -66.8015E+06    -12.4844E+06         293.694    -14.9809E-03     29.9321E-03    -14.9512E-03     3.12714E-03    -14.9297E-03     29.6349E-03    -14.8983E-03     3.12670E-03
            1717     16.8335E-03     38.6402E-03    -4.37441E+06     148.904E+06     56.2687E+06     124.296E+03    -31.0486E-03     46.7395E-03    -15.6909E-03     279.469E-03    -38.8026E-03     54.8435E-03    -15.6192E-03     284.516E-03
            1718     15.9514E-03     38.4145E-03     -5.5436E+06     85.0618E+06    -5.67116E+06     111.974E+03    -24.1266E-03     39.5344E-03    -15.4078E-03     184.243E-03    -26.3615E-03     42.0680E-03    -15.5515E-03     184.794E-03
            1719     15.0645E-03     38.2925E-03    -4.70955E+06     22.3526E+06    -15.1371E+06     137.899E+03    -18.7638E-03     34.1610E-03    -15.3973E-03     101.268E-03    -19.0851E-03     34.5889E-03    -15.4985E-03     101.236E-03
            1720     14.1791E-03     38.2258E-03    -4.50428E+06    -18.9474E+06    -14.4501E+06     144.789E+03    -17.2235E-03     32.6393E-03    -15.4158E-03     63.2899E-03    -17.2735E-03     32.6479E-03    -15.4540E-03     63.2471E-03
            1721     13.2936E-03     38.1739E-03    -4.16286E+06    -35.5014E+06    -9.31540E+06     196.280E+03    -17.0876E-03     32.5008E-03    -15.4131E-03     57.4397E-03    -17.0865E-03     32.3859E-03    -15.4022E-03     57.4047E-03
            1722     12.4081E-03     38.1182E-03    -3.97735E+06    -34.0338E+06    -781.958E+03     214.764E+03    -16.9140E-03     32.3117E-03    -15.3977E-03     54.8645E-03    -16.9104E-03     32.1754E-03    -15.3465E-03     54.8386E-03
            1723     11.5225E-03     38.0708E-03    -4.30099E+06    -43.3777E+06    -313.627E+03     127.130E+03    -16.6521E-03     32.0098E-03    -15.3577E-03     47.9523E-03    -16.6261E-03     31.8154E-03    -15.2901E-03     47.9327E-03
            1724     10.6367E-03     38.0280E-03    -4.92925E+06    -52.3817E+06    -1.13125E+06     100.355E+03    -16.4571E-03     31.7671E-03    -15.3099E-03     43.2096E-03    -16.4141E-03     31.5238E-03    -15.2325E-03     43.1951E-03
            1725     9.75089E-03     37.9892E-03    -5.20276E+06    -53.9352E+06    -152.957E+03     683.270E+03    -16.2475E-03     31.5069E-03    -15.2594E-03     38.8203E-03    -16.2013E-03     31.2512E-03    -15.1744E-03     38.8176E-03
            1726     8.86501E-03     37.9545E-03    -4.66087E+06    -57.2070E+06     1.30343E+06     1.03484E+06    -16.0321E-03     31.2461E-03    -15.2140E-03     34.4107E-03    -15.9783E-03     30.9689E-03    -15.1178E-03     34.4156E-03
            1727     7.97889E-03     37.9240E-03    -5.11725E+06    -58.6472E+06    -236.297E+03     852.649E+03    -15.8175E-03     30.9733E-03    -15.1558E-03     30.1446E-03    -15.7603E-03     30.6903E-03    -15.0645E-03     30.1493E-03
            1728     7.09268E-03     37.8973E-03    -7.06590E+06    -60.7288E+06    -2.27770E+06     497.280E+03    -15.6320E-03     30.7336E-03    -15.1016E-03     26.0382E-03    -15.5776E-03     30.4452E-03    -15.0147E-03     26.0398E-03
            1729     6.20640E-03     37.8744E-03    -8.43045E+06    -61.5250E+06    -3.24209E+06     86.5435E+03    -15.4656E-03     30.5185E-03    -15.0529E-03     22.1265E-03    -15.4150E-03     30.2289E-03    -14.9677E-03     22.1238E-03
            1730     5.32001E-03     37.8551E-03    -8.99377E+06    -63.3973E+06    -3.79015E+06     133.773E+03    -15.3084E-03     30.3189E-03    -15.0105E-03     18.4505E-03    -15.2567E-03     30.0211E-03    -14.9245E-03     18.4492E-03
            1731     4.43352E-03     37.8392E-03    -9.75694E+06    -63.2670E+06    -5.16206E+06     171.577E+03    -15.1611E-03     30.1288E-03    -14.9677E-03     15.0111E-03    -15.1111E-03     29.8346E-03    -14.8877E-03     15.0110E-03
            1732     3.54689E-03     37.8263E-03    -10.7748E+06    -61.5011E+06    -7.41112E+06     63.7501E+03    -15.0437E-03     29.9697E-03    -14.9260E-03     11.7744E-03    -14.9980E-03     29.6889E-03    -14.8583E-03     11.7735E-03
            1733     2.66026E-03     37.8166E-03    -11.6563E+06    -63.7429E+06    -9.29317E+06      38.272E+03    -14.9618E-03     29.8602E-03    -14.8984E-03     8.70020E-03    -14.9143E-03     29.5720E-03    -14.8355E-03     8.69942E-03
            1734     1.77352E-03     37.8096E-03    -12.3769E+06    -65.5657E+06    -11.1804E+06     2.13334E+03    -14.9029E-03     29.7795E-03    -14.8766E-03     5.77810E-03    -14.8536E-03     29.4859E-03    -14.8195E-03     5.77729E-03
            1735     886.772E-06     37.8054E-03    -12.8047E+06    -66.7935E+06    -12.5795E+06     6.86193E+03    -14.8883E-03     29.7330E-03    -14.8448E-03     3.05018E-03    -14.8371E-03     29.4361E-03    -14.7922E-03     3.04984E-03
            1736     16.8353E-03     37.6560E-03    -3.87936E+06     149.122E+06     56.4732E+06    -105.846E+03    -31.0992E-03     46.7891E-03    -15.6899E-03     279.139E-03    -38.8633E-03     54.9050E-03    -15.6181E-03     284.150E-03
            1737     15.9498E-03     37.4368E-03    -5.67098E+06     84.5723E+06    -6.04539E+06     64.7237E+03    -24.1605E-03     39.5598E-03    -15.3993E-03     182.907E-03    -26.3707E-03     42.0677E-03    -15.5439E-03     183.452E-03
            1738     15.0649E-03     37.3131E-03    -5.48640E+06     22.1050E+06    -15.8878E+06     285.175E+03    -18.9396E-03     34.3161E-03    -15.3765E-03     101.107E-03    -19.2617E-03     34.7434E-03    -15.4801E-03     101.076E-03
            1739     14.1796E-03     37.2474E-03    -4.55441E+06    -18.5987E+06    -14.5152E+06     285.416E+03    -17.3501E-03     32.7356E-03    -15.3855E-03     63.0341E-03    -17.4005E-03     32.7459E-03    -15.4246E-03     62.9927E-03
            1740     13.2942E-03     37.1951E-03    -4.35082E+06    -35.6333E+06    -9.61434E+06     195.063E+03    -17.1670E-03     32.5403E-03    -15.3733E-03     57.2419E-03    -17.1659E-03     32.4252E-03    -15.3634E-03     57.2068E-03
            1741     12.4087E-03     37.1398E-03    -4.52265E+06    -34.0464E+06    -1.18132E+06     277.821E+03    -16.9722E-03     32.3218E-03    -15.3496E-03     54.6006E-03    -16.9705E-03     32.1866E-03    -15.2995E-03     54.5757E-03
            1742     11.5230E-03     37.0924E-03    -5.14544E+06    -43.3245E+06    -960.742E+03     418.178E+03    -16.6941E-03     31.9945E-03    -15.3004E-03     47.6706E-03    -16.6712E-03     31.8023E-03    -15.2349E-03     47.6548E-03
            1743     10.6374E-03     37.0499E-03    -5.96500E+06    -52.5822E+06    -2.03892E+06     657.946E+03    -16.4866E-03     31.7302E-03    -15.2436E-03     42.9200E-03    -16.4470E-03     31.4887E-03    -15.1689E-03     42.9128E-03
            1744     9.75165E-03     37.0113E-03    -6.63231E+06    -53.7462E+06    -2.15001E+06     187.929E+03    -16.2341E-03     31.4143E-03    -15.1803E-03     38.5749E-03    -16.1922E-03     31.1644E-03    -15.1035E-03     38.5659E-03
            1745     8.86563E-03     36.9768E-03    -7.08485E+06    -57.6487E+06    -1.54200E+06     124.357E+03    -15.9988E-03     31.1260E-03    -15.1272E-03     34.1700E-03    -15.9522E-03     30.8541E-03    -15.0410E-03     34.1633E-03
            1746     7.97954E-03     36.9464E-03    -7.29276E+06    -58.8824E+06    -1.37078E+06     1.08055E+06    -15.7965E-03     30.8664E-03    -15.0699E-03     29.8554E-03    -15.7481E-03     30.5870E-03    -14.9808E-03     29.8631E-03
            1747     7.09336E-03     36.9200E-03    -7.24147E+06    -59.6929E+06    -1.67064E+06      942.06E+03    -15.6024E-03     30.6136E-03    -15.0112E-03     25.7376E-03    -15.5513E-03     30.3296E-03    -14.9224E-03     25.7449E-03
            1748     6.20704E-03     36.8972E-03    -7.81837E+06    -61.2564E+06    -2.94716E+06     275.276E+03    -15.4026E-03     30.3564E-03    -14.9538E-03     21.8555E-03    -15.3497E-03     30.0668E-03    -14.8683E-03     21.8553E-03
            1749     5.32056E-03     36.8781E-03    -8.98738E+06    -63.5026E+06    -4.14087E+06     140.921E+03    -15.2241E-03     30.1293E-03    -14.9051E-03     18.2142E-03    -15.1717E-03     29.8315E-03    -14.8207E-03     18.2131E-03
            1750     4.43398E-03     36.8623E-03    -10.0003E+06    -63.1900E+06    -5.46710E+06     202.065E+03    -15.0696E-03     29.9287E-03    -14.8592E-03     14.8091E-03    -15.0205E-03     29.6357E-03    -14.7804E-03     14.8094E-03
            1751     3.54731E-03     36.8496E-03    -10.8747E+06    -61.3639E+06    -7.59556E+06     180.869E+03    -14.9416E-03     29.7563E-03    -14.8147E-03     11.6158E-03    -14.8962E-03     29.4765E-03    -14.7479E-03     11.6164E-03
            1752     2.66053E-03     36.8399E-03    -11.7314E+06    -63.6432E+06    -9.44965E+06     53.7296E+03    -14.8554E-03     29.6403E-03    -14.7849E-03     8.57151E-03    -14.8082E-03     29.3529E-03    -14.7228E-03     8.57095E-03
            1753     1.77373E-03     36.8331E-03    -12.3743E+06    -65.5488E+06    -11.2323E+06     2.38580E+03    -14.7909E-03     29.5526E-03    -14.7617E-03     5.69458E-03    -14.7415E-03     29.2592E-03    -14.7049E-03     5.69379E-03
            1754     886.860E-06     36.8289E-03    -12.7591E+06    -66.8261E+06    -12.5054E+06    -10.4398E+03    -14.7583E-03     29.5028E-03    -14.7445E-03     3.00163E-03    -14.7069E-03     29.2055E-03    -14.6916E-03     3.00108E-03
            1755     16.8352E-03     36.6774E-03    -3.85931E+06     148.538E+06     55.2208E+06    -59.6757E+03    -31.1485E-03     46.8130E-03    -15.6645E-03     278.818E-03    -38.8851E-03     54.9031E-03    -15.5982E-03     283.781E-03
            1756     15.9504E-03     36.4563E-03    -5.49686E+06     84.5304E+06    -7.11777E+06     111.612E+03    -23.9982E-03     39.3718E-03    -15.3735E-03     181.720E-03    -26.1788E-03     41.8535E-03    -15.5237E-03     182.263E-03
            1757     15.0656E-03     36.3345E-03    -5.89720E+06     22.6224E+06    -16.0835E+06     300.603E+03    -19.1130E-03     34.4625E-03    -15.3495E-03     100.417E-03    -19.4363E-03     34.8918E-03    -15.4542E-03     100.384E-03
            1758     14.1800E-03     36.2684E-03    -5.42800E+06    -18.6340E+06    -15.3559E+06     92.4898E+03    -17.4107E-03     32.7570E-03    -15.3463E-03     62.9095E-03    -17.4639E-03     32.7693E-03    -15.3882E-03     62.8654E-03
            1759     13.2948E-03     36.2165E-03    -4.77961E+06    -35.6232E+06    -10.0170E+06     205.514E+03    -17.2515E-03     32.5793E-03    -15.3278E-03     56.9822E-03    -17.2517E-03     32.4651E-03    -15.3193E-03     56.9471E-03
            1760     12.4093E-03     36.1613E-03    -4.52873E+06    -34.0391E+06    -932.861E+03     271.528E+03    -17.0372E-03     32.3347E-03    -15.2975E-03     54.2819E-03    -17.0356E-03     32.1990E-03    -15.2463E-03     54.2568E-03
            1761     11.5239E-03     36.1142E-03    -4.51552E+06    -43.7421E+06    -849.709E+03     551.568E+03    -16.7398E-03     31.9783E-03    -15.2385E-03     47.3534E-03    -16.7132E-03     31.7828E-03    -15.1728E-03     47.3395E-03
            1762     10.6382E-03     36.0717E-03    -4.39542E+06    -52.4913E+06    -1.97185E+06     755.985E+03    -16.4979E-03     31.6697E-03    -15.1718E-03     42.6202E-03    -16.4505E-03     31.4260E-03    -15.0991E-03     42.6144E-03
            1763     9.75230E-03     36.0335E-03    -4.99425E+06    -53.2809E+06    -786.318E+03     881.935E+03    -16.2460E-03     31.3529E-03    -15.1069E-03     38.2226E-03    -16.1986E-03     31.1009E-03    -15.0263E-03     38.2227E-03
            1764     8.86637E-03     35.9992E-03    -6.84841E+06    -58.0132E+06    -328.728E+03     979.315E+03    -16.0116E-03     31.0585E-03    -15.0469E-03     33.7820E-03    -15.9650E-03     30.7826E-03    -14.9545E-03     33.7863E-03
            1765     7.98033E-03     35.9690E-03    -8.02041E+06    -58.6651E+06    -2.07123E+06     316.133E+03    -15.7743E-03     30.7449E-03    -14.9707E-03     29.5184E-03    -15.7287E-03     30.4687E-03    -14.8844E-03     29.5162E-03
            1766     7.09410E-03     35.9427E-03    -7.98332E+06    -59.3670E+06    -2.73313E+06     78.6160E+03    -15.5409E-03     30.4432E-03    -14.9023E-03     25.4323E-03    -15.4923E-03     30.1635E-03    -14.8183E-03     25.4286E-03
            1767     6.20771E-03     35.9203E-03    -8.15297E+06    -61.1504E+06    -3.20560E+06     447.130E+03    -15.3253E-03     30.1682E-03    -14.8429E-03     21.5634E-03    -15.2738E-03     29.8800E-03    -14.7585E-03     21.5655E-03
            1768     5.32117E-03     35.9013E-03    -8.91091E+06    -63.3298E+06    -4.10352E+06     435.609E+03    -15.1369E-03     29.9268E-03    -14.7899E-03     17.9477E-03    -15.0843E-03     29.6297E-03    -14.7057E-03     17.9504E-03
            1769     4.43452E-03     35.8857E-03    -9.96061E+06    -63.1612E+06    -5.57854E+06     294.951E+03    -14.9702E-03     29.7089E-03    -14.7387E-03     14.5782E-03    -14.9207E-03     29.4161E-03    -14.6606E-03     14.5798E-03
            1770     3.54773E-03     35.8731E-03    -10.9080E+06    -61.1457E+06    -7.70924E+06     213.601E+03    -14.8300E-03     29.5202E-03    -14.6902E-03     11.4283E-03    -14.7850E-03     29.2418E-03    -14.6243E-03     11.4293E-03
            1771     2.66088E-03     35.8636E-03    -11.6488E+06    -63.4728E+06    -9.44861E+06     55.8914E+03    -14.7348E-03     29.3929E-03    -14.6581E-03     8.42334E-03    -14.6874E-03     29.1063E-03    -14.5965E-03     8.42283E-03
            1772     1.77395E-03     35.8568E-03    -12.2725E+06    -65.5597E+06    -11.1526E+06    -46.0481E+03    -14.6647E-03     29.2989E-03    -14.6342E-03     5.58946E-03    -14.6148E-03     29.0051E-03    -14.5771E-03     5.58807E-03
            1773     886.999E-06     35.8527E-03    -12.6147E+06    -66.8612E+06    -12.3989E+06    -3.43801E+03    -14.6126E-03     29.2475E-03    -14.6349E-03     2.97959E-03    -14.5607E-03     28.9496E-03    -14.5816E-03     2.97914E-03
            1774     16.8361E-03     35.6975E-03    -4.33956E+06     148.422E+06     55.3353E+06    -78.5952E+03    -31.3589E-03     47.0081E-03    -15.6492E-03     278.031E-03    -39.0497E-03     55.0499E-03    -15.5814E-03     282.953E-03
            1775     15.9511E-03     35.4768E-03    -5.71962E+06     84.2430E+06    -7.05210E+06     339.881E+03    -24.0491E-03     39.3963E-03    -15.3472E-03     181.440E-03    -26.2123E-03     41.8587E-03    -15.4963E-03     181.977E-03
            1776     15.0657E-03     35.3556E-03    -5.35340E+06     22.9295E+06    -16.0557E+06     322.453E+03    -19.1296E-03     34.4466E-03    -15.3170E-03     100.119E-03    -19.4479E-03     34.8739E-03    -15.4228E-03     100.087E-03
            1777     14.1807E-03     35.2895E-03    -4.75653E+06    -18.6800E+06    -15.3483E+06     404.952E+03    -17.5473E-03     32.8540E-03    -15.3067E-03     62.7380E-03    -17.5966E-03     32.8647E-03    -15.3495E-03     62.6977E-03
            1778     13.2954E-03     35.2377E-03    -4.67448E+06    -35.5118E+06    -10.6719E+06     366.778E+03    -17.3324E-03     32.6079E-03    -15.2755E-03     56.7708E-03    -17.3309E-03     32.4947E-03    -15.2706E-03     56.7379E-03
            1779     12.4102E-03     35.1827E-03    -4.97364E+06    -34.0932E+06    -1.83814E+06     295.669E+03    -17.1089E-03     32.3445E-03    -15.2356E-03     53.9901E-03    -17.1078E-03     32.2101E-03    -15.1882E-03     53.9655E-03
            1780     11.5246E-03     35.1358E-03    -5.54469E+06    -44.0861E+06    -2.11203E+06     486.498E+03    -16.7823E-03     31.9489E-03    -15.1665E-03     47.0412E-03    -16.7583E-03     31.7547E-03    -15.1051E-03     47.0265E-03
            1781     10.6389E-03     35.0938E-03    -6.07362E+06    -52.3305E+06    -2.53903E+06     551.435E+03    -16.5429E-03     31.6359E-03    -15.0930E-03     42.2458E-03    -16.5031E-03     31.3962E-03    -15.0210E-03     42.2375E-03
            1782     9.75322E-03     35.0556E-03    -6.10725E+06    -53.9220E+06    -580.455E+03     957.461E+03    -16.2754E-03     31.2959E-03    -15.0206E-03     37.7931E-03    -16.2327E-03     31.0419E-03    -14.9364E-03     37.7943E-03
            1783     8.86733E-03     35.0216E-03    -5.54030E+06    -57.4180E+06     778.656E+03     1.14436E+06    -16.0044E-03     30.9534E-03    -14.9489E-03     33.3824E-03    -15.9537E-03     30.6769E-03    -14.8537E-03     33.3890E-03
            1784     7.98122E-03     34.9917E-03    -5.89204E+06    -57.7009E+06    -1.26551E+06     573.573E+03    -15.7271E-03     30.5885E-03    -14.8614E-03     29.1508E-03    -15.6735E-03     30.3128E-03    -14.7755E-03     29.1521E-03
            1785     7.09491E-03     34.9657E-03    -7.37503E+06    -59.5772E+06    -3.12051E+06     184.820E+03    -15.4739E-03     30.2585E-03    -14.7846E-03     25.0894E-03    -15.4214E-03     29.9774E-03    -14.7031E-03     25.0871E-03
            1786     6.20846E-03     34.9435E-03    -8.44856E+06    -61.3813E+06    -3.55695E+06     289.212E+03    -15.2468E-03     29.9671E-03    -14.7203E-03     21.2349E-03    -15.1959E-03     29.6786E-03    -14.6368E-03     21.2350E-03
            1787     5.32186E-03     34.9247E-03    -9.11462E+06    -63.1515E+06    -4.20134E+06     496.089E+03    -15.0420E-03     29.7033E-03    -14.6613E-03     17.6546E-03    -14.9905E-03     29.4075E-03    -14.5775E-03     17.6581E-03
            1788     4.43511E-03     34.9093E-03    -9.95337E+06    -62.9436E+06    -5.49062E+06     435.023E+03    -14.8601E-03     29.4651E-03    -14.6050E-03     14.3257E-03    -14.8110E-03     29.1732E-03    -14.5268E-03     14.3291E-03
            1789     3.54824E-03     34.8969E-03    -10.8033E+06    -60.8614E+06    -7.64182E+06     207.326E+03    -14.7044E-03     29.2562E-03    -14.5519E-03     11.2275E-03    -14.6593E-03     28.9789E-03    -14.4861E-03     11.2285E-03
            1790     2.66125E-03     34.8874E-03    -11.5155E+06    -63.2888E+06    -9.35962E+06    -10.7089E+03    -14.5984E-03     29.1159E-03    -14.5175E-03     8.28002E-03    -14.5508E-03     28.8298E-03    -14.4558E-03     8.27868E-03
            1791     1.77421E-03     34.8808E-03    -12.0892E+06    -65.6265E+06    -11.0165E+06    -54.9854E+03    -14.5262E-03     29.0187E-03    -14.4924E-03     5.48373E-03    -14.4756E-03     28.7241E-03    -14.4348E-03     5.48224E-03
            1792     887.086E-06     34.8767E-03    -12.4597E+06    -66.9175E+06    -12.2768E+06    -8.24371E+03    -14.4651E-03     28.9623E-03    -14.4972E-03     2.93097E-03    -14.4124E-03     28.6638E-03    -14.4435E-03     2.93046E-03
            1793     16.8356E-03     34.7161E-03    -4.54422E+06     148.364E+06     55.1005E+06    -249.789E+03    -31.4886E-03     47.1352E-03    -15.6466E-03     277.520E-03    -39.1487E-03     55.1460E-03    -15.5796E-03     282.406E-03
            1794     15.9512E-03     34.4979E-03    -5.85320E+06     84.0743E+06    -7.14002E+06     120.695E+03    -24.3135E-03     39.6452E-03    -15.3318E-03     180.753E-03    -26.4581E-03     42.0882E-03    -15.4809E-03     181.272E-03
            1795     15.0663E-03     34.3760E-03    -5.32566E+06     22.7928E+06    -16.0946E+06     460.760E+03    -19.3228E-03     34.6080E-03    -15.2851E-03     99.7097E-03    -19.6381E-03     35.0319E-03    -15.3909E-03     99.6768E-03
            1796     14.1812E-03     34.3108E-03    -4.38673E+06    -18.5223E+06    -14.8764E+06     375.614E+03    -17.6755E-03     32.9392E-03    -15.2637E-03     62.3531E-03    -17.7232E-03     32.9487E-03    -15.3048E-03     62.3121E-03
            1797     13.2961E-03     34.2588E-03    -3.26059E+06    -35.5167E+06    -9.97677E+06     315.289E+03    -17.4336E-03     32.6547E-03    -15.2212E-03     56.4236E-03    -17.4256E-03     32.5381E-03    -15.2148E-03     56.3899E-03
            1798     12.4108E-03     34.2042E-03    -3.46726E+06    -34.9986E+06     48.0738E+03     1.24449E+06    -17.1856E-03     32.3633E-03    -15.1777E-03     53.4892E-03    -17.1781E-03     32.2192E-03    -15.1217E-03     53.4768E-03
            1799     11.5254E-03     34.1577E-03    -5.30443E+06    -43.5494E+06    -195.266E+03     1.67612E+06    -16.8548E-03     31.9516E-03    -15.0968E-03     46.5400E-03    -16.8329E-03     31.7569E-03    -15.0269E-03     46.5407E-03
            1800     10.6400E-03     34.1156E-03    -6.76005E+06    -51.7603E+06    -2.35967E+06     824.678E+03    -16.5852E-03     31.5886E-03    -15.0035E-03     41.7937E-03    -16.5498E-03     31.3524E-03    -14.9304E-03     41.7890E-03
            1801     9.75426E-03     34.0779E-03    -7.08845E+06    -54.0285E+06    -2.02008E+06     66.3265E+03    -16.2713E-03     31.1846E-03    -14.9133E-03     37.4001E-03    -16.2313E-03     30.9334E-03    -14.8348E-03     37.3899E-03
            1802     8.86828E-03     34.0442E-03    -7.09473E+06    -57.5024E+06    -1.89410E+06     127.116E+03    -15.9619E-03     30.7894E-03    -14.8275E-03     33.0254E-03    -15.9149E-03     30.5185E-03    -14.7433E-03     33.0190E-03
            1803     7.98215E-03     34.0146E-03    -7.23192E+06    -57.6494E+06    -2.48461E+06     863.778E+03    -15.6754E-03     30.4138E-03    -14.7385E-03     28.7608E-03    -15.6267E-03     30.1420E-03    -14.6568E-03     28.7660E-03
            1804     7.09581E-03     33.9888E-03    -7.64503E+06    -58.9354E+06    -3.35925E+06     794.254E+03    -15.4076E-03     30.0632E-03    -14.6556E-03     24.7040E-03    -15.3570E-03     29.7860E-03    -14.5759E-03     24.7097E-03
            1805     6.20931E-03     33.9669E-03    -8.45724E+06    -61.5650E+06    -3.83941E+06     388.903E+03    -15.1595E-03     29.7436E-03    -14.5840E-03     20.8795E-03    -15.1080E-03     29.4546E-03    -14.5017E-03     20.8810E-03
            1806     5.32261E-03     33.9484E-03    -9.33872E+06    -63.0745E+06    -4.30282E+06     421.847E+03    -14.9349E-03     29.4539E-03    -14.5190E-03     17.3376E-03    -14.8845E-03     29.1590E-03    -14.4355E-03     17.3403E-03
            1807     4.43577E-03     33.9331E-03    -10.0652E+06    -62.6603E+06    -5.34359E+06     311.592E+03    -14.7352E-03     29.1928E-03    -14.4576E-03     14.0562E-03    -14.6873E-03     28.9023E-03    -14.3789E-03     14.0581E-03
            1808     3.54877E-03     33.9209E-03    -10.7242E+06    -60.5443E+06    -7.46033E+06     101.779E+03    -14.5627E-03     28.9629E-03    -14.4002E-03     11.0069E-03    -14.5179E-03     28.6868E-03    -14.3341E-03     11.0066E-03
            1809     2.66166E-03     33.9116E-03    -11.3705E+06    -63.1878E+06    -9.34602E+06    -54.3380E+03    -14.4464E-03     28.8097E-03    -14.3634E-03     8.12380E-03    -14.3982E-03     28.5240E-03    -14.3020E-03     8.12193E-03
            1810     1.77447E-03     33.9050E-03    -11.9762E+06    -65.7161E+06    -10.9379E+06    -65.4287E+03    -14.3765E-03     28.7138E-03    -14.3373E-03     5.38119E-03    -14.3253E-03     28.4185E-03    -14.2793E-03     5.37958E-03
            1811     887.289E-06     33.9011E-03    -12.3022E+06    -66.9417E+06    -12.1120E+06    -2.25259E+03    -14.3267E-03     28.6496E-03    -14.3229E-03     2.88019E-03    -14.2735E-03     28.3505E-03    -14.2686E-03     2.87976E-03
            1812     16.8355E-03     33.7356E-03    -4.31358E+06     148.208E+06     54.6718E+06     102.881E+03    -31.6658E-03     47.3067E-03    -15.6409E-03     276.757E-03    -39.2915E-03     55.2847E-03    -15.5762E-03     281.612E-03
            1813     15.9514E-03     33.5174E-03    -6.58226E+06     83.7736E+06    -8.16562E+06    -22.9132E+03    -24.6128E-03     39.9194E-03    -15.3066E-03     179.333E-03    -26.7288E-03     42.3331E-03    -15.4594E-03     179.828E-03
            1814     15.0670E-03     33.3971E-03    -6.32019E+06     22.6567E+06    -16.5528E+06     292.456E+03    -19.5165E-03     34.7593E-03    -15.2428E-03     98.9991E-03    -19.8329E-03     35.1817E-03    -15.3492E-03     98.9622E-03
            1815     14.1819E-03     33.3315E-03    -5.58254E+06    -17.8435E+06    -15.1079E+06    -75.9631E+03    -17.7919E-03     32.9993E-03    -15.2074E-03     61.9263E-03    -17.8455E-03     33.0135E-03    -15.2490E-03     61.8791E-03
            1816     13.2971E-03     33.2801E-03    -5.14104E+06    -36.1975E+06    -11.0871E+06    -59.5126E+03    -17.5166E-03     32.6685E-03    -15.1518E-03     55.9821E-03    -17.5150E-03     32.5522E-03    -15.1473E-03     55.9436E-03
            1817     12.4119E-03     33.2256E-03    -4.64075E+06    -36.7385E+06    -1.00884E+06     1.27774E+06    -17.2563E-03     32.3540E-03    -15.0977E-03     53.0800E-03    -17.2503E-03     32.2041E-03    -15.0428E-03     53.0681E-03
            1818     11.5266E-03     33.1793E-03    -3.71329E+06    -42.7619E+06     741.924E+03     2.00070E+06    -16.9074E-03     31.9150E-03    -15.0077E-03     46.1064E-03    -16.8798E-03     31.7203E-03    -14.9366E-03     46.1114E-03
            1819     10.6410E-03     33.1378E-03    -3.30134E+06    -50.3514E+06    -1.51107E+06     1.16034E+06    -16.6017E-03     31.5016E-03    -14.9000E-03     41.3859E-03    -16.5521E-03     31.2659E-03    -14.8297E-03     41.3858E-03
            1820     9.75528E-03     33.1002E-03    -4.19493E+06    -53.8778E+06    -690.949E+03     643.595E+03    -16.2748E-03     31.0799E-03    -14.8051E-03     36.9232E-03    -16.2223E-03     30.8233E-03    -14.7244E-03     36.9206E-03
            1821     8.86935E-03     33.0670E-03    -6.16729E+06    -57.8902E+06    -1.14795E+06     910.438E+03    -15.9432E-03     30.6529E-03    -14.7097E-03     32.5317E-03    -15.8920E-03     30.3776E-03    -14.6226E-03     32.5355E-03
            1822     7.98319E-03     33.0376E-03    -7.60376E+06    -57.6202E+06    -2.99862E+06     687.186E+03    -15.6262E-03     30.2317E-03    -14.6054E-03     28.3139E-03    -15.5786E-03     29.9612E-03    -14.5258E-03     28.3169E-03
            1823     7.09683E-03     33.0122E-03    -7.97142E+06    -58.6154E+06    -3.33236E+06     618.568E+03    -15.3336E-03     29.8488E-03    -14.5152E-03     24.2744E-03    -15.2851E-03     29.5735E-03    -14.4353E-03     24.2780E-03
            1824     6.21022E-03     32.9905E-03    -8.42113E+06    -61.2341E+06    -3.59323E+06     598.658E+03    -15.0616E-03     29.4970E-03    -14.4355E-03     20.4858E-03    -15.0106E-03     29.2093E-03    -14.3525E-03     20.4900E-03
            1825     5.32346E-03     32.9723E-03    -9.13738E+06    -62.9370E+06    -3.85599E+06     272.537E+03    -14.8140E-03     29.1783E-03    -14.3643E-03     16.9855E-03    -14.7634E-03     28.8830E-03    -14.2791E-03     16.9863E-03
            1826     4.43648E-03     32.9573E-03    -9.87897E+06    -62.3652E+06    -5.15472E+06     93.4630E+03    -14.5930E-03     28.8891E-03    -14.2960E-03     13.7660E-03    -14.5449E-03     28.5994E-03    -14.2171E-03     13.7651E-03
            1827     3.54937E-03     32.9453E-03    -10.6254E+06    -60.4098E+06    -7.45948E+06    -53.6307E+03    -14.4132E-03     28.6468E-03    -14.2336E-03     10.7692E-03    -14.3681E-03     28.3712E-03    -14.1679E-03     10.7670E-03
            1828     2.66212E-03     32.9361E-03    -11.2908E+06    -63.1683E+06    -9.30246E+06    -55.8076E+03    -14.2867E-03     28.4798E-03    -14.1931E-03     7.94159E-03    -14.2382E-03     28.1940E-03    -14.1317E-03     7.93974E-03
            1829     1.77478E-03     32.9296E-03    -11.8907E+06    -65.7891E+06    -10.8776E+06    -57.1281E+03    -14.2031E-03     28.3689E-03    -14.1659E-03     5.26188E-03    -14.1514E-03     28.0730E-03    -14.1076E-03     5.26040E-03
            1830     887.370E-06     32.9257E-03    -12.2802E+06    -66.9776E+06    -12.0105E+06    -40.5644E+03    -14.1727E-03     28.3076E-03    -14.1348E-03     2.81944E-03    -14.1195E-03     28.0081E-03    -14.0799E-03     2.81852E-03
            1831     16.8359E-03     32.7537E-03    -4.22566E+06     148.377E+06     55.2923E+06     590.777E+03    -31.9183E-03     47.5398E-03    -15.6215E-03     275.907E-03    -39.4880E-03     55.4609E-03    -15.5540E-03     280.695E-03
            1832     15.9524E-03     32.5375E-03    -6.28079E+06     83.9815E+06    -7.46912E+06     637.915E+03    -24.7228E-03     39.9951E-03    -15.2724E-03     178.400E-03    -26.8140E-03     42.3839E-03    -15.4224E-03     178.895E-03
            1833     15.0677E-03     32.4176E-03    -6.07909E+06     22.7549E+06    -16.5559E+06     40.9126E+03    -19.7261E-03     34.9167E-03    -15.1907E-03     98.1404E-03    -20.0382E-03     35.3361E-03    -15.2976E-03     98.0977E-03
            1834     14.1831E-03     32.3525E-03    -5.44643E+06    -17.4009E+06    -15.2105E+06     93.2759E+03    -17.8432E-03     32.9848E-03    -15.1416E-03     61.5624E-03    -17.8956E-03     33.0002E-03    -15.1845E-03     61.5175E-03
            1835     13.2979E-03     32.3013E-03    -5.55275E+06    -36.9186E+06    -11.9817E+06     416.036E+03    -17.5964E-03     32.6716E-03    -15.0752E-03     55.7068E-03    -17.5941E-03     32.5533E-03    -15.0735E-03     55.6745E-03
            1836     12.4129E-03     32.2471E-03    -5.41871E+06    -37.3596E+06    -3.37811E+06     308.459E+03    -17.3386E-03     32.3410E-03    -15.0025E-03     52.7324E-03    -17.3317E-03     32.1921E-03    -14.9573E-03     52.7082E-03
            1837     11.5276E-03     32.2011E-03    -4.66833E+06    -42.9696E+06    -1.21663E+06     434.466E+03    -16.9487E-03     31.8507E-03    -14.9020E-03     45.6963E-03    -16.9224E-03     31.6589E-03    -14.8390E-03     45.6814E-03
            1838     10.6422E-03     32.1599E-03    -3.99441E+06    -49.7084E+06    -1.98152E+06     996.441E+03    -16.6299E-03     31.4180E-03    -14.7880E-03     40.8729E-03    -16.5839E-03     31.1870E-03    -14.7201E-03     40.8708E-03
            1839     9.75649E-03     32.1227E-03    -4.33456E+06    -54.4024E+06    -103.785E+03     1.61682E+06    -16.2778E-03     30.9647E-03    -14.6869E-03     36.3822E-03    -16.2259E-03     30.7046E-03    -14.6022E-03     36.3923E-03
            1840     8.87057E-03     32.0898E-03    -5.11103E+06    -57.7129E+06     658.365E+03     2.01656E+06    -15.9229E-03     30.5055E-03    -14.5826E-03     31.9868E-03    -15.8692E-03     30.2269E-03    -14.4882E-03     32.0050E-03
            1841     7.98437E-03     32.0608E-03    -6.18629E+06    -56.3696E+06    -2.08984E+06     1.27478E+06    -15.5698E-03     30.0304E-03    -14.4606E-03     27.8237E-03    -15.5181E-03     29.7627E-03    -14.3803E-03     27.8344E-03
            1842     7.09791E-03     32.0357E-03    -7.33464E+06    -58.8350E+06    -2.76431E+06     580.118E+03    -15.2522E-03     29.6141E-03    -14.3620E-03     23.8012E-03    -15.2009E-03     29.3360E-03    -14.2798E-03     23.8043E-03
            1843     6.21128E-03     32.0144E-03    -8.00583E+06    -60.7066E+06    -2.90128E+06     493.335E+03    -14.9486E-03     29.2220E-03    -14.2733E-03     20.0506E-03    -14.8974E-03     28.9352E-03    -14.1882E-03     20.0536E-03
            1844     5.32436E-03     31.9964E-03    -8.68768E+06    -62.6596E+06    -3.65459E+06     204.797E+03    -14.6753E-03     28.8684E-03    -14.1932E-03     16.6080E-03    -14.6232E-03     28.5736E-03    -14.1080E-03     16.6080E-03
            1845     4.43728E-03     31.9817E-03    -9.62057E+06    -62.1972E+06    -5.11216E+06     40.5660E+03    -14.4417E-03     28.5607E-03    -14.1190E-03     13.4467E-03    -14.3926E-03     28.2715E-03    -14.0404E-03     13.4452E-03
            1846     3.54999E-03     31.9699E-03    -10.5186E+06    -60.3329E+06    -7.51698E+06    -51.6032E+03    -14.2506E-03     28.3019E-03    -14.0513E-03     10.5113E-03    -14.2051E-03     28.0266E-03    -13.9861E-03     10.5091E-03
            1847     2.66262E-03     31.9609E-03    -11.2584E+06    -63.2408E+06    -9.24958E+06    -90.3632E+03    -14.1156E-03     28.1219E-03    -14.0064E-03     7.74659E-03    -14.0668E-03     27.8356E-03    -13.9446E-03     7.74432E-03
            1848     1.77513E-03     31.9545E-03    -11.8022E+06    -65.8088E+06    -10.7492E+06    -44.1432E+03    -14.0181E-03     27.9930E-03    -13.9749E-03     5.13660E-03    -13.9661E-03     27.6967E-03    -13.9161E-03     5.13531E-03
            1849     887.603E-06     31.9507E-03     -12.153E+06    -67.0559E+06    -11.9550E+06    -94.3329E+03    -13.9843E-03     27.9220E-03    -13.9377E-03     2.75894E-03    -13.9304E-03     27.6219E-03    -13.8826E-03     2.75734E-03
            1850     16.8373E-03     31.7745E-03    -4.75563E+06     147.869E+06     55.5144E+06     474.342E+03    -32.3690E-03     47.9695E-03    -15.6004E-03     274.963E-03    -39.8601E-03     55.8076E-03    -15.5304E-03     279.667E-03
            1851     15.9521E-03     31.5563E-03    -5.66324E+06     84.5768E+06    -6.34811E+06     583.876E+03    -24.9223E-03     40.1523E-03    -15.2300E-03     177.518E-03    -26.9951E-03     42.5236E-03    -15.3761E-03     177.993E-03
            1852     15.0691E-03     31.4380E-03    -5.01182E+06     23.3460E+06     -16.038E+06     378.700E+03    -19.7231E-03     34.8568E-03    -15.1336E-03     97.1085E-03    -20.0252E-03     35.2704E-03    -15.2404E-03     97.0692E-03
            1853     14.1838E-03     31.3739E-03    -4.93881E+06    -17.9130E+06    -15.3814E+06     428.546E+03    -17.9487E-03     33.0237E-03    -15.0749E-03     61.3639E-03    -17.9968E-03     33.0352E-03    -15.1187E-03     61.3232E-03
            1854     13.2991E-03     31.3222E-03    -4.15973E+06    -36.9605E+06    -10.9333E+06     660.933E+03    -17.7478E-03     32.7472E-03    -14.9994E-03     55.2901E-03    -17.7395E-03     32.6247E-03    -14.9945E-03     55.2608E-03
            1855     12.4141E-03     31.2687E-03    -4.03086E+06    -36.6825E+06    -2.21535E+06     307.840E+03    -17.4355E-03     32.3466E-03    -14.9111E-03     52.1357E-03    -17.4240E-03     32.1970E-03    -14.8631E-03     52.1116E-03
            1856     11.5289E-03     31.2228E-03    -4.72670E+06    -43.4420E+06    -1.02899E+06    -10.1269E+03    -17.0104E-03     31.8056E-03    -14.7953E-03     45.1245E-03    -16.9837E-03     31.6110E-03    -14.7306E-03     45.1040E-03
            1857     10.6435E-03     31.1821E-03    -5.32849E+06    -50.6395E+06    -2.39104E+06     786.960E+03    -16.6455E-03     31.3128E-03    -14.6673E-03     40.2969E-03    -16.6039E-03     31.0795E-03    -14.5981E-03     40.2922E-03
            1858     9.75781E-03     31.1453E-03    -5.59560E+06    -54.8877E+06    -950.279E+03     1.68914E+06    -16.2711E-03     30.8215E-03    -14.5503E-03     35.8423E-03    -16.2235E-03     30.5619E-03    -14.4674E-03     35.8535E-03
            1859     8.87186E-03     31.1128E-03    -5.84991E+06    -57.4341E+06     726.007E+03     1.86354E+06    -15.8896E-03     30.3255E-03    -14.4359E-03     31.4239E-03    -15.8400E-03     30.0491E-03    -14.3405E-03     31.4403E-03
            1860     7.98563E-03     31.0842E-03    -6.04577E+06    -55.1370E+06    -1.16693E+06     1.60014E+06    -15.5046E-03     29.8079E-03    -14.3033E-03     27.2723E-03    -15.4553E-03     29.5447E-03    -14.2204E-03     27.2873E-03
            1861     7.09916E-03     31.0595E-03    -6.55868E+06    -58.3232E+06    -2.39158E+06     970.792E+03    -15.1483E-03     29.3402E-03    -14.1918E-03     23.2939E-03    -15.0944E-03     29.0629E-03    -14.1097E-03     23.3022E-03
            1862     6.21237E-03     31.0385E-03    -7.51772E+06    -60.4373E+06    -2.94991E+06     543.190E+03    -14.8177E-03     28.9117E-03    -14.0939E-03     19.5973E-03    -14.7643E-03     28.6255E-03    -14.0102E-03     19.6010E-03
            1863     5.32536E-03     31.0210E-03    -8.49248E+06    -62.2370E+06    -3.76146E+06     335.999E+03    -14.5311E-03     28.5376E-03    -14.0065E-03     16.2096E-03    -14.4784E-03     28.2447E-03    -13.9227E-03     16.2114E-03
            1864     4.43812E-03     31.0065E-03    -9.37848E+06    -62.0743E+06    -5.03381E+06     48.0059E+03    -14.2831E-03     28.2095E-03    -13.9264E-03     13.1008E-03    -14.2330E-03     27.9204E-03    -13.8480E-03     13.0995E-03
            1865     3.55073E-03     30.9949E-03    -10.1479E+06    -60.2921E+06    -7.17817E+06    -20.1102E+03    -14.0708E-03     27.9248E-03    -13.8540E-03     10.2283E-03    -14.0239E-03     27.6487E-03    -13.7878E-03     10.2265E-03
            1866     2.66314E-03     30.9861E-03    -10.9003E+06    -63.2636E+06    -9.02299E+06    -12.1269E+03    -13.9227E-03     27.7276E-03    -13.8049E-03     7.54189E-03    -13.8725E-03     27.4403E-03    -13.7425E-03     7.54067E-03
            1867     1.77551E-03     30.9798E-03    -11.5755E+06    -65.8328E+06    -10.6001E+06    -27.9137E+03    -13.8224E-03     27.5918E-03    -13.7694E-03     5.00262E-03    -13.7694E-03     27.2948E-03    -13.7102E-03     5.00157E-03
            1868     887.736E-06     30.9761E-03    -12.0375E+06    -67.1248E+06    -11.8532E+06     17.3620E+03    -13.7728E-03     27.5062E-03    -13.7334E-03     2.71576E-03    -13.7184E-03     27.2054E-03    -13.6779E-03     2.71561E-03
            1869     16.8359E-03     30.7921E-03    -4.18927E+06     147.726E+06     55.6782E+06     297.397E+03    -32.8644E-03     48.4479E-03    -15.5835E-03     273.836E-03    -40.2978E-03     56.2294E-03    -15.5133E-03     278.463E-03
            1870     15.9549E-03     30.5756E-03    -5.83821E+06     83.8894E+06    -6.96584E+06     621.030E+03    -25.1321E-03     40.3178E-03    -15.1857E-03     176.263E-03    -27.1713E-03     42.6543E-03    -15.3337E-03     176.714E-03
            1871     15.0692E-03     30.4592E-03    -5.47446E+06     23.5355E+06    -16.2847E+06     862.390E+03    -19.7489E-03     34.8265E-03    -15.0776E-03     96.6503E-03    -20.0476E-03     35.2366E-03    -15.1852E-03     96.6175E-03
            1872     14.1849E-03     30.3942E-03    -5.02446E+06    -17.6682E+06    -15.3875E+06     669.792E+03    -18.2472E-03     33.2517E-03    -15.0045E-03     60.9252E-03    -18.2955E-03     33.2641E-03    -15.0486E-03     60.8867E-03
            1873     13.3003E-03     30.3435E-03    -4.81587E+06    -37.0214E+06    -11.2174E+06     505.703E+03    -17.9011E-03     32.8093E-03    -14.9083E-03     54.7147E-03    -17.8950E-03     32.6872E-03    -14.9037E-03     54.6832E-03
            1874     12.4154E-03     30.2900E-03    -4.61378E+06    -35.9615E+06    -2.77820E+06     319.993E+03    -17.5080E-03     32.3095E-03    -14.8015E-03     51.5533E-03    -17.4991E-03     32.1647E-03    -14.7566E-03     51.5295E-03
            1875     11.5303E-03     30.2448E-03    -4.58823E+06    -43.6890E+06    -1.60631E+06     256.659E+03    -17.0558E-03     31.7280E-03    -14.6722E-03     44.5753E-03    -17.0269E-03     31.5324E-03    -14.6102E-03     44.5585E-03
            1876     10.6449E-03     30.2044E-03    -4.75162E+06    -51.7870E+06    -2.16329E+06     805.784E+03    -16.6782E-03     31.2131E-03    -14.5349E-03     39.6977E-03    -16.6322E-03     30.9726E-03    -14.4637E-03     39.6935E-03
            1877     9.75925E-03     30.1681E-03    -4.86497E+06    -55.2048E+06    -427.069E+03     1.46541E+06    -16.2688E-03     30.6724E-03    -14.4036E-03     35.2067E-03    -16.2176E-03     30.4092E-03    -14.3186E-03     35.2152E-03
            1878     8.87331E-03     30.1360E-03    -5.13894E+06    -57.0648E+06     1.41474E+06     1.55652E+06    -15.8430E-03     30.1188E-03    -14.2758E-03     30.8012E-03    -15.7912E-03     29.8421E-03    -14.1786E-03     30.8138E-03
            1879     7.98707E-03     30.1079E-03    -5.64607E+06    -54.7036E+06    -1.03066E+06     1.41760E+06    -15.4144E-03     29.5441E-03    -14.1297E-03     26.6951E-03    -15.3639E-03     29.2823E-03    -14.0473E-03     26.7079E-03
            1880     7.10044E-03     30.0836E-03    -6.31884E+06    -57.6352E+06    -2.88669E+06     1.37744E+06    -15.0291E-03     29.0347E-03    -14.0056E-03     22.7695E-03    -14.9742E-03     28.7612E-03    -13.9273E-03     22.7831E-03
            1881     6.21356E-03     30.0630E-03    -7.22434E+06    -59.9205E+06    -3.02323E+06     989.570E+03    -14.6864E-03     28.5876E-03    -13.9012E-03     19.1094E-03    -14.6321E-03     28.3037E-03    -13.8189E-03     19.1190E-03
            1882     5.32641E-03     30.0458E-03    -8.16099E+06    -61.6954E+06    -3.24372E+06     422.856E+03    -14.3802E-03     28.1878E-03    -13.8076E-03     15.7674E-03    -14.3274E-03     27.8964E-03    -13.7225E-03     15.7704E-03
            1883     4.43907E-03     30.0316E-03    -9.01233E+06    -61.8383E+06    -4.77050E+06     58.4069E+03    -14.1037E-03     27.8230E-03    -13.7193E-03     12.7305E-03    -14.0525E-03     27.5341E-03    -13.6404E-03     12.7294E-03
            1884     3.55146E-03     30.0203E-03    -9.87037E+06    -60.4246E+06    -7.16549E+06     38.0702E+03    -13.8766E-03     27.5177E-03    -13.6410E-03     9.94188E-03    -13.8282E-03     27.2404E-03    -13.5749E-03     9.94095E-03
            1885     2.66375E-03     30.0117E-03    -10.6119E+06    -63.2115E+06    -8.95507E+06     161.891E+03    -13.7162E-03     27.3041E-03    -13.5879E-03     7.32273E-03    -13.6647E-03     27.0165E-03    -13.5256E-03     7.32379E-03
            1886     1.77587E-03     30.0056E-03    -11.2868E+06    -65.8003E+06    -10.5438E+06     165.965E+03    -13.6081E-03     27.1576E-03    -13.5496E-03     4.85437E-03    -13.5538E-03     26.8603E-03    -13.4905E-03     4.85584E-03
            1887     887.995E-06     30.0019E-03    -11.8276E+06    -67.0320E+06    -11.6449E+06     183.893E+03    -13.5508E-03     27.0657E-03    -13.5149E-03     2.61934E-03    -13.4957E-03     26.7648E-03    -13.4588E-03     2.62137E-03
            1888     16.8378E-03     29.8070E-03    -4.21434E+06     147.001E+06     54.7942E+06     427.480E+03    -32.9757E-03     48.5323E-03    -15.5566E-03     272.640E-03    -40.3385E-03     56.2431E-03    -15.4897E-03     277.179E-03
            1889     15.9534E-03     29.5966E-03    -5.95070E+06     83.5380E+06    -7.65770E+06     900.450E+03    -25.2290E-03     40.3750E-03    -15.1461E-03     174.484E-03    -27.2252E-03     42.6690E-03    -15.2969E-03     174.926E-03
            1890     15.0702E-03     29.4786E-03    -5.95111E+06     24.1690E+06    -16.2551E+06     825.116E+03    -20.1679E-03     35.1856E-03    -15.0176E-03     95.7709E-03    -20.4675E-03     35.5970E-03    -15.1253E-03     95.7338E-03
            1891     14.1862E-03     29.4152E-03    -5.29377E+06    -17.3433E+06    -15.5647E+06     668.834E+03    -18.4177E-03     33.3374E-03    -14.9197E-03     60.2477E-03    -18.4664E-03     33.3509E-03    -14.9647E-03     60.2089E-03
            1892     13.3016E-03     29.3642E-03    -4.51015E+06    -36.7643E+06    -11.3367E+06     570.606E+03    -18.0151E-03     32.8219E-03    -14.8068E-03     54.1659E-03    -18.0070E-03     32.7001E-03    -14.8036E-03     54.1354E-03
            1893     12.4170E-03     29.3117E-03    -4.52742E+06    -35.7283E+06    -2.94931E+06     404.845E+03    -17.5863E-03     32.2714E-03    -14.6852E-03     50.9519E-03    -17.5765E-03     32.1273E-03    -14.6415E-03     50.9295E-03
            1894     11.5317E-03     29.2667E-03    -5.25074E+06    -43.9168E+06    -2.30076E+06     546.907E+03    -17.1189E-03     31.6584E-03    -14.5395E-03     43.9566E-03    -17.0916E-03     31.4632E-03    -14.4797E-03     43.9438E-03
            1895     10.6465E-03     29.2268E-03     -5.9689E+06    -52.4508E+06    -2.80450E+06     939.125E+03    -16.7059E-03     31.0938E-03    -14.3879E-03     39.0330E-03    -16.6639E-03     30.8525E-03    -14.3172E-03     39.0307E-03
            1896     9.76089E-03     29.1910E-03    -6.25948E+06    -55.0560E+06    -2.01661E+06     939.808E+03    -16.2370E-03     30.4733E-03    -14.2364E-03     34.5851E-03    -16.1905E-03     30.2150E-03    -14.1575E-03     34.5870E-03
            1897     8.87489E-03     29.1594E-03    -6.04084E+06    -57.1087E+06    -854.179E+03     970.922E+03    -15.7685E-03     29.8612E-03    -14.0927E-03     30.2095E-03    -15.7177E-03     29.5887E-03    -14.0054E-03     30.2147E-03
            1898     7.98849E-03     29.1318E-03    -6.28530E+06    -54.9071E+06    -2.21795E+06     1.61309E+06    -15.3206E-03     29.2613E-03    -13.9408E-03     26.0867E-03    -15.2711E-03     29.0011E-03    -13.8631E-03     26.1022E-03
            1899     7.10182E-03     29.1080E-03    -7.03705E+06    -57.0329E+06    -3.14715E+06     1.69460E+06    -14.9171E-03     28.7260E-03    -13.8089E-03     22.1794E-03    -14.8662E-03     28.4568E-03    -13.7317E-03     22.1973E-03
            1900     6.21484E-03     29.0878E-03    -7.57895E+06    -58.9908E+06    -3.03689E+06     1.05514E+06    -14.5438E-03     28.2374E-03    -13.6936E-03     18.5686E-03    -14.4926E-03     27.9587E-03    -13.6122E-03     18.5791E-03
            1901     5.32760E-03     29.0709E-03    -8.04298E+06    -60.9461E+06    -3.18535E+06     299.014E+03    -14.2018E-03     27.7931E-03    -13.5913E-03     15.2963E-03    -14.1496E-03     27.5052E-03    -13.5072E-03     15.2978E-03
            1902     4.44003E-03     29.0571E-03    -8.76385E+06    -61.9127E+06    -4.59272E+06     91.0854E+03    -13.9077E-03     27.4061E-03    -13.4985E-03     12.3348E-03    -13.8554E-03     27.1163E-03    -13.4189E-03     12.3341E-03
            1903     3.55229E-03     29.0461E-03    -9.60182E+06    -60.4766E+06    -7.24880E+06     275.704E+03    -13.6691E-03     27.0828E-03    -13.4137E-03     9.62955E-03    -13.6191E-03     26.8050E-03    -13.3484E-03     9.63174E-03
            1904     2.66434E-03     29.0377E-03    -10.3981E+06    -63.1945E+06    -8.95615E+06     338.344E+03    -13.4992E-03     26.8554E-03    -13.3562E-03     7.08493E-03    -13.4467E-03     26.5676E-03    -13.2943E-03     7.08831E-03
            1905     1.77632E-03     29.0317E-03    -10.9694E+06    -65.5917E+06    -10.1915E+06     374.853E+03    -13.3815E-03     26.6961E-03    -13.3146E-03     4.70343E-03    -13.3264E-03     26.3988E-03    -13.2546E-03     4.70763E-03
            1906     888.144E-06     29.0281E-03    -11.2023E+06    -66.6574E+06    -11.1165E+06     246.438E+03    -13.3044E-03     26.5922E-03    -13.2879E-03     2.51823E-03    -13.2475E-03     26.2915E-03    -13.2305E-03     2.52108E-03
            1907     16.8377E-03     28.8278E-03    -5.06002E+06     146.235E+06     54.4867E+06     667.098E+03    -33.3473E-03     48.8806E-03    -15.5334E-03     271.292E-03    -40.6130E-03     56.4895E-03    -15.4656E-03     275.744E-03
            1908     15.9552E-03     28.6138E-03    -6.47209E+06     83.7833E+06    -7.69265E+06     779.498E+03    -25.6407E-03     40.7341E-03    -15.0934E-03     172.821E-03    -27.6052E-03     42.9953E-03    -15.2439E-03     173.236E-03
            1909     15.0720E-03     28.4996E-03    -5.69831E+06     24.6478E+06    -16.6195E+06     667.331E+03    -20.3859E-03     35.3212E-03    -14.9353E-03     94.3164E-03    -20.6786E-03     35.7293E-03    -15.0458E-03     94.2745E-03
            1910     14.1873E-03     28.4354E-03    -5.10925E+06    -17.1701E+06    -15.8670E+06     643.835E+03    -18.4509E-03     33.2736E-03    -14.8228E-03     59.7655E-03    -18.4969E-03     33.2866E-03    -14.8698E-03     59.7267E-03
            1911     13.3031E-03     28.3855E-03    -4.57798E+06    -36.5146E+06    -11.4945E+06     535.917E+03    -18.1183E-03     32.8172E-03    -14.6989E-03     53.5601E-03    -18.1099E-03     32.6963E-03    -14.6968E-03     53.5292E-03
            1912     12.4183E-03     28.3330E-03    -4.36100E+06    -35.7824E+06    -2.66640E+06     583.775E+03    -17.7088E-03     32.2714E-03    -14.5626E-03     50.2664E-03    -17.6980E-03     32.1259E-03    -14.5178E-03     50.2464E-03
            1913     11.5336E-03     28.2888E-03    -4.42945E+06    -44.3357E+06    -2.38549E+06     986.351E+03    -17.1803E-03     31.5775E-03    -14.3972E-03     43.2694E-03    -17.1478E-03     31.3788E-03    -14.3384E-03     43.2625E-03
            1914     10.6481E-03     28.2493E-03    -4.82239E+06    -52.6127E+06    -3.50825E+06     1.37424E+06    -16.7022E-03     30.9290E-03    -14.2269E-03     38.3802E-03    -16.6528E-03     30.6860E-03    -14.1611E-03     38.3839E-03
            1915     9.76251E-03     28.2141E-03    -5.60423E+06    -54.3924E+06    -2.44975E+06     1.15983E+06    -16.2119E-03     30.2746E-03    -14.0627E-03     33.8961E-03    -16.1623E-03     30.0191E-03    -13.9879E-03     33.9012E-03
            1916     8.87644E-03     28.1831E-03    -6.93818E+06    -57.4534E+06    -1.72823E+06     1.02506E+06    -15.7187E-03     29.6249E-03    -13.9061E-03     29.4970E-03    -15.6705E-03     29.3531E-03    -13.8214E-03     29.5031E-03
            1917     7.99010E-03     28.1560E-03    -7.52356E+06    -55.2739E+06    -2.39576E+06     1.28832E+06    -15.2403E-03     28.9837E-03    -13.7435E-03     25.3833E-03    -15.1961E-03     28.7236E-03    -13.6644E-03     25.3948E-03
            1918     7.10334E-03     28.1327E-03    -7.26175E+06    -56.4581E+06    -2.55927E+06     1.37445E+06    -14.7914E-03     28.3905E-03    -13.5991E-03     21.5242E-03    -14.7433E-03     28.1236E-03    -13.5195E-03     21.5381E-03
            1919     6.21626E-03     28.1129E-03    -7.39432E+06    -57.8664E+06    -3.10631E+06     825.709E+03    -14.3669E-03     27.8363E-03    -13.4694E-03     17.9997E-03    -14.3162E-03     27.5629E-03    -13.3903E-03     18.0074E-03
            1920     5.32878E-03     28.0965E-03    -7.99815E+06    -60.3257E+06    -3.57602E+06     152.089E+03    -14.0055E-03     27.3653E-03    -13.3598E-03     14.8125E-03    -13.9533E-03     27.0809E-03    -13.2786E-03     14.8122E-03
            1921     4.44109E-03     28.0831E-03    -8.76783E+06    -62.2604E+06    -4.59233E+06     129.364E+03    -13.7051E-03     26.9689E-03    -13.2639E-03     11.9213E-03    -13.6523E-03     26.6773E-03    -13.1838E-03     11.9213E-03
            1922     3.55314E-03     28.0723E-03    -9.52751E+06    -60.4855E+06    -6.85893E+06     395.895E+03    -13.4482E-03     26.6224E-03    -13.1742E-03     9.29574E-03    -13.3983E-03     26.3439E-03    -13.1070E-03     9.29954E-03
            1923     2.66501E-03     28.0641E-03    -10.0703E+06    -63.0318E+06    -8.42463E+06     420.272E+03    -13.2636E-03     26.3758E-03    -13.1123E-03     6.83721E-03    -13.2104E-03     26.0876E-03    -13.0484E-03     6.84169E-03
            1924     1.77674E-03     28.0583E-03    -10.5026E+06    -65.2975E+06    -9.54712E+06     334.057E+03    -13.1352E-03     26.2040E-03    -13.0688E-03     4.54602E-03    -13.0792E-03     25.9066E-03    -13.0067E-03     4.54972E-03
            1925     888.440E-06     28.0548E-03    -10.7216E+06    -66.2320E+06    -10.4760E+06     172.550E+03    -13.0597E-03     26.0985E-03    -13.0388E-03     2.42360E-03    -13.0019E-03     25.7983E-03    -12.9796E-03     2.42551E-03
            1926     16.8378E-03     27.8435E-03    -4.31373E+06     146.487E+06     55.3748E+06     746.425E+03    -34.0249E-03     49.5379E-03    -15.5130E-03     269.550E-03    -41.1966E-03     57.0538E-03    -15.4423E-03     273.899E-03
            1927     15.9563E-03     27.6326E-03    -5.97074E+06     83.1814E+06    -7.43337E+06     998.979E+03    -26.0758E-03     41.1080E-03    -15.0323E-03     171.148E-03    -27.9997E-03     43.3277E-03    -15.1814E-03     171.534E-03
            1928     15.0727E-03     27.5193E-03    -5.01281E+06     24.5705E+06    -16.3768E+06     876.656E+03    -20.4319E-03     35.2830E-03    -14.8511E-03     93.2327E-03    -20.7140E-03     35.6820E-03    -14.9613E-03     93.1928E-03
            1929     14.1890E-03     27.4564E-03    -4.34401E+06    -16.8039E+06    -15.5172E+06     934.764E+03    -18.5953E-03     33.3205E-03    -14.7253E-03     59.3192E-03    -18.6373E-03     33.3325E-03    -14.7722E-03     59.2840E-03
            1930     13.3044E-03     27.4062E-03    -4.15645E+06    -36.4257E+06    -11.9108E+06     796.012E+03    -18.2472E-03     32.8294E-03    -14.5822E-03     53.0524E-03    -18.2355E-03     32.7081E-03    -14.5829E-03     53.0251E-03
            1931     12.4202E-03     27.3546E-03    -4.24416E+06    -35.7583E+06    -3.24778E+06     681.627E+03    -17.8255E-03     32.2533E-03    -14.4278E-03     49.5552E-03    -17.8128E-03     32.1080E-03    -14.3860E-03     49.5367E-03
            1932     11.5351E-03     27.3108E-03     -4.5997E+06    -45.0156E+06    -3.24093E+06     1.04314E+06    -17.2376E-03     31.4821E-03    -14.2444E-03     42.5393E-03    -17.2034E-03     31.2811E-03    -14.1887E-03     42.5335E-03
            1933     10.6499E-03     27.2721E-03    -4.43795E+06    -52.4149E+06    -3.49547E+06     1.32193E+06    -16.7282E-03     30.7875E-03    -14.0593E-03     37.5967E-03    -16.6769E-03     30.5445E-03    -13.9943E-03     37.6000E-03
            1934     9.76424E-03     27.2373E-03    -4.42188E+06    -54.4792E+06    -535.577E+03     1.70782E+06    -16.2064E-03     30.0931E-03    -13.8867E-03     33.0479E-03    -16.1534E-03     29.8325E-03    -13.8039E-03     33.0602E-03
            1935     8.87832E-03     27.2069E-03    -5.04084E+06    -56.9352E+06     1.26653E+06     1.77225E+06    -15.6774E-03     29.3940E-03    -13.7166E-03     28.6553E-03    -15.6247E-03     29.1177E-03    -13.6204E-03     28.6712E-03
            1936     7.99183E-03     27.1804E-03    -5.85299E+06    -54.8489E+06    -1.02925E+06     913.732E+03    -15.1350E-03     28.6666E-03    -13.5315E-03     24.6393E-03    -15.0851E-03     28.4041E-03    -13.4486E-03     24.6461E-03
            1937     7.10500E-03     27.1577E-03    -6.24599E+06    -56.5318E+06    -2.43173E+06     757.469E+03    -14.6299E-03     28.0020E-03    -13.3721E-03     20.8619E-03    -14.5767E-03     27.7330E-03    -13.2932E-03     20.8679E-03
            1938     6.21769E-03     27.1385E-03    -6.63813E+06    -56.9836E+06    -3.06826E+06     863.303E+03    -14.1798E-03     27.4129E-03    -13.2332E-03     17.4166E-03    -14.1266E-03     27.1428E-03    -13.1562E-03     17.4249E-03
            1939     5.33009E-03     27.1225E-03    -7.56795E+06    -59.8362E+06    -3.51408E+06     447.074E+03    -13.8063E-03     26.9237E-03    -13.1174E-03     14.2977E-03    -13.7528E-03     26.6411E-03    -13.0372E-03     14.3012E-03
            1940     4.44219E-03     27.1095E-03    -8.73755E+06    -62.4246E+06    -4.20090E+06     239.156E+03    -13.4879E-03     26.5055E-03    -13.0175E-03     11.4821E-03    -13.4353E-03     26.2124E-03    -12.9353E-03     11.4835E-03
            1941     3.55405E-03     27.0990E-03    -9.57644E+06    -60.4566E+06    -6.24329E+06     237.847E+03    -13.2137E-03     26.1362E-03    -12.9225E-03     8.94918E-03    -13.1650E-03     25.8570E-03    -12.8522E-03     8.95100E-03
            1942     2.66571E-03     27.0911E-03    -10.1757E+06    -62.9873E+06    -8.06753E+06     328.980E+03    -13.0142E-03     25.8685E-03    -12.8543E-03     6.57912E-03    -12.9622E-03     25.5801E-03    -12.7886E-03     6.58247E-03
            1943     1.77722E-03     27.0854E-03    -10.7641E+06    -64.8624E+06    -9.81550E+06     343.575E+03    -12.8706E-03     25.6761E-03    -12.8055E-03     4.36028E-03    -12.8161E-03     25.3817E-03    -12.7450E-03     4.36414E-03
            1944     888.571E-06     27.0820E-03    -11.2138E+06    -65.9276E+06    -10.9647E+06     36.6009E+03    -12.8158E-03     25.5710E-03    -12.7552E-03     2.35519E-03    -12.7603E-03     25.2737E-03    -12.6982E-03     2.35536E-03
            1945     16.8388E-03     26.8588E-03    -3.87453E+06     145.854E+06     55.2605E+06     539.518E+03    -34.4372E-03     49.9109E-03    -15.4737E-03     267.543E-03    -41.5017E-03     57.3192E-03    -15.4033E-03     271.764E-03
            1946     15.9572E-03     26.6511E-03    -4.94786E+06     83.2902E+06    -6.74558E+06     993.981E+03    -26.0578E-03     41.0311E-03    -14.9732E-03     168.903E-03    -27.9267E-03     43.1977E-03    -15.1206E-03     169.272E-03
            1947     15.0743E-03     26.5392E-03    -4.91353E+06     24.7417E+06    -15.7483E+06     995.967E+03    -20.6431E-03     35.4203E-03    -14.7772E-03     92.1879E-03    -20.9200E-03     35.8132E-03    -14.8847E-03     92.1475E-03
            1948     14.1900E-03     26.4770E-03    -3.97205E+06    -16.5547E+06    -14.7756E+06     774.971E+03    -18.8600E-03     33.4897E-03    -14.6297E-03     58.7140E-03    -18.9005E-03     33.5002E-03    -14.6738E-03     58.6761E-03
            1949     13.3063E-03     26.4271E-03    -2.61665E+06    -36.2722E+06    -11.0143E+06     703.365E+03    -18.4294E-03     32.8930E-03    -14.4637E-03     52.4879E-03    -18.4107E-03     32.7683E-03    -14.4624E-03     52.4594E-03
            1950     12.4216E-03     26.3761E-03    -2.77461E+06    -36.6875E+06    -1.45260E+06     1.71365E+06    -17.9485E-03     32.2436E-03    -14.2951E-03     48.6696E-03    -17.9291E-03     32.0883E-03    -14.2452E-03     48.6645E-03
            1951     11.5371E-03     26.3330E-03    -4.43631E+06    -44.5246E+06    -1.21636E+06     2.08836E+06    -17.3261E-03     31.4184E-03    -14.0924E-03     41.6187E-03    -17.2942E-03     31.2163E-03    -14.0274E-03     41.6265E-03
            1952     10.6519E-03     26.2948E-03    -5.92830E+06    -52.0214E+06    -3.22883E+06     1.32508E+06    -16.7580E-03     30.6387E-03    -13.8807E-03     36.7323E-03    -16.7149E-03     30.3993E-03    -13.8128E-03     36.7358E-03
            1953     9.76634E-03     26.2608E-03    -5.97239E+06    -54.7280E+06    -1.69337E+06     1.01410E+06    -16.1702E-03     29.8541E-03    -13.6839E-03     32.2389E-03    -16.1227E-03     29.5960E-03    -13.6043E-03     32.2425E-03
            1954     8.88019E-03     26.2310E-03    -5.10264E+06    -56.5104E+06     323.840E+03     1.06596E+06    -15.5799E-03     29.0770E-03    -13.4971E-03     27.8935E-03    -15.5266E-03     28.8041E-03    -13.4061E-03     27.9006E-03
            1955     7.99371E-03     26.2052E-03    -5.01414E+06    -54.2831E+06    -984.220E+03     1.26948E+06    -14.9943E-03     28.2983E-03    -13.3040E-03     23.8929E-03    -14.9409E-03     28.0372E-03    -13.2229E-03     23.9045E-03
            1956     7.10662E-03     26.1831E-03    -6.00959E+06    -56.2523E+06    -2.71018E+06     909.109E+03    -14.4640E-03     27.5984E-03    -13.1344E-03     20.1836E-03    -14.4096E-03     27.3309E-03    -13.0577E-03     20.1918E-03
            1957     6.21923E-03     26.1645E-03    -6.59735E+06    -56.9901E+06    -3.11455E+06     765.949E+03    -13.9991E-03     26.9868E-03    -12.9877E-03     16.7962E-03    -13.9456E-03     26.7166E-03    -12.9110E-03     16.8034E-03
            1958     5.33144E-03     26.1489E-03    -7.11627E+06    -59.2057E+06    -3.12186E+06     881.729E+03    -13.5948E-03     26.4586E-03    -12.8638E-03     13.7549E-03    -13.5404E-03     26.1778E-03    -12.7832E-03     13.7642E-03
            1959     4.44336E-03     26.1363E-03    -8.10667E+06    -62.1096E+06    -3.45308E+06     414.983E+03    -13.2574E-03     26.0163E-03    -12.7590E-03     11.0276E-03    -13.2031E-03     25.7228E-03    -12.6744E-03     11.0314E-03
            1960     3.55500E-03     26.1262E-03    -9.16809E+06    -60.4819E+06    -5.90787E+06     244.513E+03    -12.9689E-03     25.6257E-03    -12.6568E-03     8.57960E-03    -12.9186E-03     25.3453E-03    -12.5853E-03     8.58157E-03
            1961     2.66643E-03     26.1185E-03    -10.2444E+06    -63.1058E+06    -8.16115E+06     498.410E+03    -12.7549E-03     25.3371E-03    -12.5822E-03     6.30237E-03    -12.7028E-03     25.0483E-03    -12.5167E-03     6.30795E-03
            1962     1.77771E-03     26.1131E-03    -11.1538E+06    -64.2711E+06    -10.2920E+06     544.553E+03    -12.6028E-03     25.1286E-03    -12.5257E-03     4.17319E-03    -12.5505E-03     24.8383E-03    -12.4678E-03     4.17967E-03
            1963     888.928E-06     26.1098E-03    -11.5254E+06    -65.6045E+06    -11.7277E+06     176.521E+03    -12.5242E-03     25.0060E-03    -12.4818E-03     2.28804E-03    -12.4696E-03     24.7119E-03    -12.4286E-03     2.29002E-03
            1964     16.8401E-03     25.8750E-03    -4.26472E+06     145.195E+06     55.3277E+06     369.203E+03    -34.7182E-03     50.1704E-03    -15.4522E-03     266.364E-03    -41.6909E-03     57.4830E-03    -15.3799E-03     270.487E-03
            1965     15.9581E-03     25.6695E-03    -6.14571E+06     82.8270E+06    -7.25448E+06     853.908E+03    -26.4251E-03     41.3507E-03    -14.9256E-03     167.341E-03    -28.2557E-03     43.4746E-03    -15.0731E-03     167.682E-03
            1966     15.0749E-03     25.5589E-03    -5.64726E+06     25.1976E+06    -16.1246E+06     895.838E+03    -21.0495E-03     35.7474E-03    -14.6979E-03     90.7531E-03    -21.3229E-03     36.1370E-03    -14.8069E-03     90.7073E-03
            1967     14.1919E-03     25.4973E-03    -4.92361E+06    -15.6411E+06    -14.7540E+06     377.373E+03    -19.0918E-03     33.6163E-03    -14.5245E-03     57.8580E-03    -19.1368E-03     33.6311E-03    -14.5685E-03     57.8146E-03
            1968     13.3078E-03     25.4481E-03    -4.68540E+06    -37.0718E+06    -12.2256E+06     359.173E+03    -18.6338E-03     32.9668E-03    -14.3330E-03     51.8072E-03    -18.6219E-03     32.8421E-03    -14.3336E-03     51.7741E-03
            1969     12.4239E-03     25.3974E-03    -3.96868E+06    -38.3855E+06    -2.07523E+06     1.68609E+06    -18.0887E-03     32.2329E-03    -14.1442E-03     47.7642E-03    -18.0712E-03     32.0711E-03    -14.0932E-03     47.7590E-03
            1970     11.5391E-03     25.3553E-03    -3.05448E+06    -43.7232E+06     203.322E+03     2.55870E+06    -17.3928E-03     31.3161E-03    -13.9233E-03     40.7392E-03    -17.3569E-03     31.1135E-03    -13.8544E-03     40.7534E-03
            1971     10.6540E-03     25.3177E-03    -2.74235E+06    -50.8505E+06    -1.96205E+06     1.89819E+06    -16.7713E-03     30.4606E-03    -13.6893E-03     35.8802E-03    -16.7155E-03     30.2203E-03    -13.6214E-03     35.8914E-03
            1972     9.76829E-03     25.2845E-03    -3.47506E+06    -54.3208E+06    -1.63168E+06     1.03625E+06    -16.1170E-03     29.5899E-03    -13.4728E-03     31.4035E-03    -16.0575E-03     29.3299E-03    -13.3972E-03     31.4078E-03
            1973     8.88220E-03     25.2554E-03    -4.94617E+06    -56.6705E+06    -836.781E+03     954.236E+03    -15.4681E-03     28.7393E-03    -13.2713E-03     27.0866E-03    -15.4119E-03     28.4669E-03    -13.1861E-03     27.0924E-03
            1974     7.99547E-03     25.2304E-03    -5.90255E+06    -54.3963E+06    -1.37730E+06     1.26603E+06    -14.8600E-03     27.9315E-03    -13.0715E-03     23.1020E-03    -14.8103E-03     27.6717E-03    -12.9909E-03     23.1137E-03
            1975     7.10840E-03     25.2089E-03    -6.06478E+06    -55.2985E+06    -1.71414E+06     1.13898E+06    -14.3092E-03     27.2028E-03    -12.8937E-03     19.4396E-03    -14.2578E-03     26.9386E-03    -12.8133E-03     19.4508E-03
            1976     6.22083E-03     25.1909E-03    -6.79368E+06    -57.2763E+06    -3.02951E+06     892.743E+03    -13.8000E-03     26.5336E-03    -12.7336E-03     16.1458E-03    -13.7472E-03     26.2622E-03    -12.6559E-03     16.1548E-03
            1977     5.33287E-03     25.1758E-03    -7.61418E+06    -58.7291E+06    -4.15056E+06     943.172E+03    -13.3651E-03     25.9609E-03    -12.5959E-03     13.2205E-03    -13.3124E-03     25.6848E-03    -12.5204E-03     13.2306E-03
            1978     4.44456E-03     25.1636E-03    -8.26117E+06    -61.3593E+06    -4.66413E+06     555.577E+03    -13.0136E-03     25.4969E-03    -12.4833E-03     10.5893E-03    -12.9594E-03     25.2091E-03    -12.4056E-03     10.5949E-03
            1979     3.55600E-03     25.1539E-03    -9.15976E+06    -60.8676E+06    -6.33861E+06     538.370E+03    -12.7180E-03     25.0986E-03    -12.3806E-03     8.21365E-03    -12.6665E-03     24.8169E-03    -12.3108E-03     8.21947E-03
            1980     2.66719E-03     25.1465E-03    -10.1076E+06    -62.9676E+06    -8.26642E+06     896.941E+03    -12.4899E-03     24.7911E-03    -12.3012E-03     6.02188E-03    -12.4372E-03     24.5029E-03    -12.2365E-03     6.03265E-03
            1981     1.77822E-03     25.1413E-03    -10.8631E+06    -63.6193E+06    -10.1980E+06     796.000E+03    -12.3283E-03     24.5677E-03    -12.2394E-03     3.98800E-03    -12.2756E-03     24.2802E-03    -12.1824E-03     3.99776E-03
            1982     889.101E-06     25.1381E-03    -11.1649E+06    -64.8679E+06    -11.3989E+06     516.132E+03    -12.2293E-03     24.4297E-03    -12.2005E-03     2.16329E-03    -12.1744E-03     24.1383E-03    -12.1472E-03     2.16967E-03
            1983     16.8382E-03     24.8899E-03    -4.56384E+06     144.518E+06     55.2621E+06     539.674E+03    -35.4171E-03     50.8603E-03    -15.4432E-03     264.499E-03    -42.3265E-03     58.1063E-03    -15.3698E-03     268.540E-03
            1984     15.9581E-03     24.6865E-03    -5.74717E+06     82.7834E+06    -6.65414E+06     665.137E+03    -27.1261E-03     41.9934E-03    -14.8674E-03     163.351E-03    -28.8918E-03     44.0520E-03    -15.0123E-03     163.641E-03
            1985     15.0772E-03     24.5779E-03    -5.26610E+06     25.5488E+06    -16.2351E+06     926.036E+03    -21.0045E-03     35.6069E-03    -14.6023E-03     88.8327E-03    -21.2659E-03     35.9873E-03    -14.7129E-03     88.7875E-03
            1986     14.1932E-03     24.5181E-03    -5.65688E+06    -15.1705E+06    -15.8404E+06     858.332E+03    -19.2784E-03     33.6900E-03    -14.4116E-03     57.4616E-03    -19.3250E-03     33.7086E-03    -14.4606E-03     57.4243E-03
            1987     13.3098E-03     24.4684E-03    -5.61364E+06    -37.4524E+06    -13.8087E+06     795.075E+03    -18.9024E-03     33.0981E-03    -14.1956E-03     51.1272E-03    -18.8916E-03     32.9744E-03    -14.2022E-03     51.0995E-03
            1988     12.4256E-03     24.4193E-03    -5.64456E+06    -39.4095E+06    -5.22664E+06     879.775E+03    -18.2111E-03     32.1875E-03    -13.9764E-03     46.9141E-03    -18.1951E-03     32.0268E-03    -13.9372E-03     46.8988E-03
            1989     11.5411E-03     24.3774E-03    -4.79765E+06    -43.4919E+06    -3.23187E+06     891.106E+03    -17.4543E-03     31.1860E-03    -13.7317E-03     39.9159E-03    -17.4219E-03     30.9916E-03    -13.6778E-03     39.9090E-03
            1990     10.6560E-03     24.3410E-03    -3.19162E+06    -50.4743E+06    -4.14791E+06     1.19244E+06    -16.7671E-03     30.2505E-03    -13.4834E-03     34.9739E-03    -16.7106E-03     30.0155E-03    -13.4263E-03     34.9765E-03
            1991     9.77042E-03     24.3084E-03    -2.86554E+06    -54.4067E+06    -1.60877E+06     2.08724E+06    -16.0585E-03     29.3196E-03    -13.2610E-03     30.4857E-03    -15.9956E-03     29.0580E-03    -13.1860E-03     30.5038E-03
            1992     8.88415E-03     24.2803E-03    -3.96220E+06    -56.1325E+06     532.201E+03     2.15964E+06    -15.3796E-03     28.4296E-03    -13.0499E-03     26.1782E-03    -15.3212E-03     28.1563E-03    -12.9601E-03     26.1998E-03
            1993     7.99746E-03     24.2558E-03    -4.94963E+06    -53.9397E+06    -774.266E+03     1.23628E+06    -14.7303E-03     27.5629E-03    -12.8326E-03     22.2659E-03    -14.6772E-03     27.3030E-03    -12.7511E-03     22.2773E-03
            1994     7.11021E-03     24.2351E-03    -5.77089E+06    -55.2157E+06    -1.58044E+06     1.17750E+06    -14.1245E-03     26.7675E-03    -12.6430E-03     18.6900E-03    -14.0720E-03     26.5031E-03    -12.5625E-03     18.7019E-03
            1995     6.22246E-03     24.2177E-03    -6.74247E+06    -57.1424E+06    -3.24584E+06     1.56822E+06    -13.5896E-03     26.0627E-03    -12.4731E-03     15.5012E-03    -13.5363E-03     25.7921E-03    -12.3967E-03     15.5190E-03
            1996     5.33428E-03     24.2033E-03    -7.79062E+06    -58.0746E+06    -5.53032E+06     1.20354E+06    -13.1362E-03     25.4581E-03    -12.3219E-03     12.6784E-03    -13.0833E-03     25.1874E-03    -12.2540E-03     12.6921E-03
            1997     4.44577E-03     24.1914E-03    -8.58020E+06    -60.6736E+06    -6.08775E+06     674.521E+03    -12.7650E-03     24.9681E-03    -12.2031E-03     10.1343E-03    -12.7114E-03     24.6863E-03    -12.1331E-03     10.1416E-03
            1998     3.55697E-03     24.1821E-03    -9.22922E+06    -61.3392E+06    -6.89581E+06     737.852E+03    -12.4582E-03     24.5594E-03    -12.1012E-03     7.84081E-03    -12.4056E-03     24.2762E-03    -12.0333E-03     7.84926E-03
            1999     2.66794E-03     24.1750E-03    -9.89833E+06    -62.6860E+06    -8.24046E+06     1.12788E+06    -12.2226E-03     24.2410E-03    -12.0184E-03     5.74574E-03    -12.1693E-03     23.9539E-03    -11.9543E-03     5.75953E-03
            2000     1.77874E-03     24.1700E-03    -10.4718E+06    -62.7762E+06    -9.86925E+06     1.06059E+06    -12.0510E-03     24.0030E-03    -11.9520E-03     3.80397E-03    -11.9980E-03     23.7186E-03    -11.8951E-03     3.81717E-03
            2001     889.445E-06     24.1669E-03    -10.6441E+06    -63.7491E+06    -10.7439E+06     604.893E+03    -11.9344E-03     23.8509E-03    -11.9165E-03     2.04690E-03    -11.8795E-03     23.5634E-03    -11.8624E-03     2.05444E-03
            2002     16.8395E-03     23.9009E-03    -3.52792E+06     144.381E+06     55.5072E+06     489.713E+03    -35.9000E-03     51.2638E-03    -15.3638E-03     260.540E-03    -42.6452E-03     58.3482E-03    -15.2905E-03     264.368E-03
            2003     15.9626E-03     23.7037E-03    -5.01922E+06     82.6092E+06    -6.90742E+06     841.289E+03    -26.2532E-03     41.0299E-03    -14.7767E-03     160.230E-03    -27.9417E-03     43.0139E-03    -14.9237E-03     160.536E-03
            2004     15.0778E-03     23.5991E-03    -5.36403E+06     25.5571E+06    -16.9827E+06     1.42503E+06    -21.2005E-03     35.7163E-03    -14.5158E-03     88.5796E-03    -21.4581E-03     36.0949E-03    -14.6300E-03     88.5407E-03
            2005     14.1945E-03     23.5371E-03    -4.58064E+06    -14.5706E+06    -15.6321E+06     1.24007E+06    -19.7376E-03     34.0384E-03    -14.3008E-03     56.6746E-03    -19.7787E-03     34.0568E-03    -14.3512E-03     56.6410E-03
            2006     13.3114E-03     23.4894E-03    -3.71358E+06    -37.5070E+06    -12.8131E+06     1.18181E+06    -19.0754E-03     33.1347E-03    -14.0593E-03     49.9655E-03    -19.0553E-03     33.0054E-03    -14.0636E-03     49.9430E-03
            2007     12.4277E-03     23.4405E-03    -3.56864E+06    -39.1141E+06    -4.40904E+06     1.10346E+06    -18.3316E-03     32.1483E-03    -13.8167E-03     45.7966E-03    -18.3062E-03     31.9842E-03    -13.7769E-03     45.7845E-03
            2008     11.5432E-03     23.4001E-03    -4.26587E+06    -43.0482E+06    -3.38895E+06     558.572E+03    -17.5041E-03     31.0531E-03    -13.5490E-03     38.8774E-03    -17.4690E-03     30.8599E-03    -13.4973E-03     38.8665E-03
            2009     10.6582E-03     23.3641E-03    -5.54364E+06    -51.5359E+06    -4.85262E+06     973.163E+03    -16.7515E-03     30.0375E-03    -13.2860E-03     33.9491E-03    -16.7039E-03     29.8014E-03    -13.2275E-03     33.9491E-03
            2010     9.77248E-03     23.3328E-03    -5.68414E+06    -54.8270E+06    -3.13684E+06     1.72457E+06    -15.9958E-03     29.0382E-03    -13.0424E-03     29.5230E-03    -15.9440E-03     28.7807E-03    -12.9703E-03     29.5366E-03
            2011     8.88627E-03     23.3052E-03    -4.49537E+06    -55.3158E+06    -417.564E+03     1.65635E+06    -15.2696E-03     28.0839E-03    -12.8143E-03     25.2909E-03    -15.2136E-03     27.8167E-03    -12.7296E-03     25.3062E-03
            2012     7.99944E-03     23.2818E-03    -4.39387E+06    -53.5443E+06    -1.42692E+06     1.82974E+06    -14.5641E-03     27.1502E-03    -12.5862E-03     21.4378E-03    -14.5077E-03     26.8924E-03    -12.5093E-03     21.4572E-03
            2013     7.11196E-03     23.2617E-03    -5.62991E+06    -55.1721E+06    -2.60572E+06     1.90122E+06    -13.9324E-03     26.3198E-03    -12.3874E-03     17.9615E-03    -13.8777E-03     26.0568E-03    -12.3123E-03     17.9829E-03
            2014     6.22406E-03     23.2450E-03    -6.47317E+06    -57.0038E+06    -3.12149E+06     1.80373E+06    -13.3916E-03     25.6060E-03    -12.2144E-03     14.8394E-03    -13.3374E-03     25.3355E-03    -12.1380E-03     14.8603E-03
            2015     5.33573E-03     23.2311E-03    -6.84081E+06    -57.0623E+06    -4.80618E+06     1.63333E+06    -12.9155E-03     24.9707E-03    -12.0553E-03     12.1034E-03    -12.8603E-03     24.7026E-03    -11.9866E-03     12.1227E-03
            2016     4.44701E-03     23.2198E-03    -7.65041E+06    -60.1335E+06    -5.86434E+06     1.17067E+06    -12.5172E-03     24.4454E-03    -11.9282E-03     9.65814E-03    -12.4599E-03     24.1645E-03    -11.8592E-03     9.67189E-03
            2017     3.55798E-03     23.2108E-03    -8.74988E+06    -61.4606E+06    -6.97745E+06     1.11806E+06    -12.1911E-03     24.0138E-03    -11.8227E-03     7.46649E-03    -12.1357E-03     23.7294E-03    -11.7558E-03     7.47991E-03
            2018     2.66869E-03     23.2041E-03    -9.60988E+06    -62.3760E+06    -7.99386E+06     1.21969E+06    -11.9462E-03     23.6858E-03    -11.7396E-03     5.47756E-03    -11.8923E-03     23.3995E-03    -11.6752E-03     5.49258E-03
            2019     1.77924E-03     23.1992E-03    -9.95020E+06    -61.7698E+06    -9.21177E+06     1.03186E+06    -11.7711E-03     23.4446E-03    -11.6735E-03     3.63097E-03    -11.7180E-03     23.1635E-03    -11.6155E-03     3.64382E-03
            2020     889.623E-06     23.1964E-03    -9.92104E+06    -62.4738E+06    -10.0705E+06     580.476E+03    -11.6602E-03     23.2930E-03    -11.6328E-03     1.92789E-03    -11.6044E-03     23.0098E-03    -11.5782E-03     1.93513E-03
            2021     16.8470E-03     22.9175E-03    -3.61268E+06     142.893E+06     53.8915E+06     610.942E+03    -35.7585E-03     51.0898E-03    -15.3312E-03     259.900E-03    -42.3479E-03     58.0175E-03    -15.2637E-03     263.613E-03
            2022     15.9589E-03     22.7241E-03    -5.69901E+06     81.8975E+06    -8.86039E+06     1.56034E+06    -26.5459E-03     41.2838E-03    -14.7379E-03     160.670E-03    -28.2070E-03     43.2410E-03    -14.8927E-03     160.976E-03
            2023     15.0783E-03     22.6156E-03    -6.08032E+06     27.2350E+06    -16.8854E+06     1.23508E+06    -22.3493E-03     36.7887E-03    -14.4394E-03     86.8125E-03    -22.6115E-03     37.1750E-03    -14.5545E-03     86.7615E-03
            2024     14.1972E-03     22.5578E-03    -4.75055E+06    -13.7639E+06    -15.4918E+06     857.503E+03    -20.0385E-03     34.2109E-03    -14.1723E-03     54.9483E-03    -20.0789E-03     34.2305E-03    -14.2230E-03     54.9095E-03
            2025     13.3135E-03     22.5095E-03    -4.11354E+06    -37.8572E+06    -13.1130E+06     1.04340E+06    -19.1323E-03     33.0402E-03    -13.9080E-03     49.0700E-03    -19.1120E-03     32.9090E-03    -13.9127E-03     49.0462E-03
            2026     12.4298E-03     22.4624E-03    -3.17267E+06    -38.3411E+06    -4.07858E+06     758.249E+03    -18.4126E-03     32.0610E-03    -13.6483E-03     44.6275E-03    -18.3860E-03     31.8989E-03    -13.6085E-03     44.6114E-03
            2027     11.5454E-03     22.4224E-03    -2.76563E+06    -43.6159E+06    -2.38406E+06     1.31973E+06    -17.5142E-03     30.8806E-03    -13.3664E-03     37.8132E-03    -17.4717E-03     30.6804E-03    -13.3111E-03     37.8126E-03
            2028     10.6604E-03     22.3878E-03    -3.22330E+06    -52.0238E+06    -2.52814E+06     2.19919E+06    -16.7307E-03     29.8235E-03    -13.0928E-03     32.8788E-03    -16.6738E-03     29.5779E-03    -13.0253E-03     32.8950E-03
            2029     9.77468E-03     22.3571E-03    -3.90710E+06    -53.8057E+06    -3.13500E+06     1.28143E+06    -15.9215E-03     28.7430E-03    -12.8215E-03     28.5495E-03    -15.8620E-03     28.4878E-03    -12.7535E-03     28.5577E-03
            2030     8.88833E-03     22.3307E-03    -4.51498E+06    -55.7235E+06    -2.72013E+06     1.01572E+06    -15.1298E-03     27.7047E-03    -12.5750E-03     24.4032E-03    -15.0697E-03     27.4388E-03    -12.5012E-03     24.4105E-03
            2031     8.00127E-03     22.3080E-03    -4.87174E+06    -54.0885E+06    -2.16071E+06     2.07335E+06    -14.4036E-03     26.7496E-03    -12.3460E-03     20.5840E-03    -14.3477E-03     26.4907E-03    -12.2713E-03     20.6066E-03
            2032     7.11375E-03     22.2888E-03    -4.98423E+06    -54.4909E+06    -1.96513E+06     2.40500E+06    -13.7610E-03     25.9017E-03    -12.1407E-03     17.1750E-03    -13.7049E-03     25.6402E-03    -12.0642E-03     17.2030E-03
            2033     6.22568E-03     22.2727E-03    -5.64874E+06    -56.5841E+06    -2.41390E+06     2.05724E+06    -13.1868E-03     25.1459E-03    -11.9591E-03     14.1571E-03    -13.1301E-03     24.8752E-03    -11.8809E-03     14.1814E-03
            2034     5.33716E-03     22.2595E-03    -6.56477E+06    -56.4548E+06    -4.18531E+06     1.87955E+06    -12.6795E-03     24.4730E-03    -11.7935E-03     11.5363E-03    -12.6247E-03     24.2066E-03    -11.7230E-03     11.5588E-03
            2035     4.44821E-03     22.2486E-03    -7.33698E+06    -59.5638E+06    -5.63108E+06     1.88111E+06    -12.2638E-03     23.9241E-03    -11.6603E-03     9.20689E-03    -12.2061E-03     23.6452E-03    -11.5914E-03     9.22988E-03
            2036     3.55894E-03     22.2401E-03    -8.18737E+06    -61.0125E+06    -6.31036E+06     1.66473E+06    -11.9315E-03     23.4852E-03    -11.5538E-03     7.11544E-03    -11.8749E-03     23.2013E-03    -11.4850E-03     7.13598E-03
            2037     2.66943E-03     22.2336E-03    -8.89234E+06    -61.6407E+06    -7.15378E+06     1.25917E+06    -11.6779E-03     23.1467E-03    -11.4688E-03     5.21272E-03    -11.6227E-03     22.8618E-03    -11.4023E-03     5.22830E-03
            2038     1.77971E-03     22.2291E-03    -9.38011E+06    -60.8934E+06    -8.63234E+06     858.859E+03    -11.4954E-03     22.8969E-03    -11.4015E-03     3.43714E-03    -11.4415E-03     22.6186E-03    -11.3428E-03     3.44778E-03
            2039     889.913E-06     22.2263E-03    -9.42251E+06    -61.2758E+06    -9.54007E+06     578.019E+03    -11.3997E-03     22.7492E-03    -11.3495E-03     1.82547E-03    -11.3440E-03     22.4706E-03    -11.2947E-03     1.83270E-03
            2040     16.8345E-03     21.9334E-03    -5.65490E+06     141.400E+06     53.8824E+06     358.845E+03    -36.0744E-03     51.4876E-03    -15.4133E-03     257.312E-03    -42.5632E-03     58.3022E-03    -15.3407E-03     261.045E-03
            2041     15.9612E-03     21.7380E-03    -8.20011E+06     81.5897E+06    -9.02451E+06     965.694E+03    -29.0799E-03     43.8082E-03    -14.7284E-03     156.858E-03    -30.7048E-03     45.7199E-03    -14.8799E-03     157.050E-03
            2042     15.0820E-03     21.6337E-03    -6.55505E+06     28.0831E+06    -17.9560E+06     1.18178E+06    -22.7783E-03     37.1021E-03    -14.3238E-03     83.6787E-03    -23.0304E-03     37.4828E-03    -14.4448E-03     83.6224E-03
            2043     14.1984E-03     21.5778E-03    -5.02243E+06    -14.0778E+06    -16.4985E+06     912.418E+03    -20.0273E-03     34.0611E-03    -14.0337E-03     53.7601E-03    -20.0642E-03     34.0780E-03    -14.0885E-03     53.7232E-03
            2044     13.3156E-03     21.5303E-03    -4.03844E+06    -37.5284E+06    -13.9372E+06     808.349E+03    -19.2844E-03     33.0378E-03    -13.7535E-03     48.3382E-03    -19.2618E-03     32.9081E-03    -13.7629E-03     48.3119E-03
            2045     12.4319E-03     21.4839E-03    -3.96485E+06    -38.2041E+06    -5.22297E+06     800.016E+03    -18.4486E-03     31.9236E-03    -13.4750E-03     43.5131E-03    -18.4236E-03     31.7641E-03    -13.4400E-03     43.4982E-03
            2046     11.5476E-03     21.4453E-03    -3.99581E+06    -44.3979E+06    -5.19791E+06     929.408E+03    -17.5230E-03     30.6933E-03    -13.1703E-03     36.7939E-03    -17.4809E-03     30.4945E-03    -13.1261E-03     36.7889E-03
            2047     10.6625E-03     21.4114E-03    -2.31324E+06    -52.3886E+06    -4.63377E+06     1.33941E+06    -16.6893E-03     29.5707E-03    -12.8813E-03     31.8834E-03    -16.6240E-03     29.3246E-03    -12.8252E-03     31.8889E-03
            2048     9.77676E-03     21.3820E-03    -1.54164E+06    -53.0512E+06    -1.87958E+06     2.24210E+06    -15.8363E-03     28.4464E-03    -12.6101E-03     27.5035E-03    -15.7677E-03     28.1895E-03    -12.5404E-03     27.5244E-03
            2049     8.89024E-03     21.3564E-03    -2.94495E+06    -55.6841E+06    -1.04889E+06     2.15490E+06    -15.0165E-03     27.3723E-03    -12.3559E-03     23.3927E-03    -14.9509E-03     27.1018E-03    -12.2761E-03     23.4150E-03
            2050     8.00323E-03     21.3346E-03    -3.72914E+06    -54.4137E+06    -1.12378E+06     1.72244E+06    -14.2592E-03     26.3728E-03    -12.1136E-03     19.6767E-03    -14.1986E-03     26.1090E-03    -12.0349E-03     19.6950E-03
            2051     7.11551E-03     21.3162E-03    -3.64533E+06    -54.4190E+06    -981.555E+03     2.13353E+06    -13.5697E-03     25.4681E-03    -11.8983E-03     16.3792E-03    -13.5084E-03     25.2035E-03    -11.8191E-03     16.4038E-03
            2052     6.22727E-03     21.3009E-03    -3.76796E+06    -55.8793E+06    -1.32826E+06     2.42480E+06    -12.9604E-03     24.6710E-03    -11.7106E-03     13.4918E-03    -12.8968E-03     24.3995E-03    -11.6307E-03     13.5210E-03
            2053     5.33850E-03     21.2882E-03    -4.49268E+06    -56.3198E+06    -2.26491E+06     2.50863E+06    -12.4432E-03     23.9903E-03    -11.5472E-03     10.9814E-03    -12.3810E-03     23.7188E-03    -11.4703E-03     11.0122E-03
            2054     4.44934E-03     21.2780E-03    -5.77301E+06    -58.9395E+06    -3.40052E+06     2.68152E+06    -12.0257E-03     23.4387E-03    -11.4130E-03     8.75138E-03    -11.9644E-03     23.1575E-03    -11.3361E-03     8.78477E-03
            2055     3.55987E-03     21.2699E-03    -6.99438E+06    -59.7376E+06    -5.00856E+06     2.15940E+06    -11.6873E-03     22.9855E-03    -11.2982E-03     6.75898E-03    -11.6285E-03     22.7043E-03    -11.2265E-03     6.78596E-03
            2056     2.67013E-03     21.2638E-03    -8.00610E+06    -60.6904E+06    -6.36010E+06     1.48585E+06    -11.4264E-03     22.6348E-03    -11.2084E-03     4.94937E-03    -11.3692E-03     22.3522E-03    -11.1406E-03     4.96791E-03
            2057     1.78022E-03     21.2594E-03    -8.77407E+06    -59.9337E+06    -8.03152E+06     973.283E+03    -11.2327E-03     22.3718E-03    -11.1391E-03     3.26577E-03    -11.1780E-03     22.0965E-03    -11.0796E-03     3.27792E-03
            2058     890.115E-06     21.2568E-03    -9.10975E+06    -60.2346E+06    -9.13676E+06     568.349E+03    -11.1319E-03     22.2224E-03    -11.0906E-03     1.75659E-03    -11.0767E-03     21.9479E-03    -11.0357E-03     1.76371E-03
            2059     16.8404E-03     20.9409E-03      -4.265E+06     142.236E+06     55.8735E+06     1.05839E+06    -37.2104E-03     52.5567E-03    -15.3463E-03     252.214E-03    -43.5574E-03     59.2315E-03    -15.2670E-03     255.747E-03
            2060     15.9634E-03     20.7518E-03    -6.44489E+06     81.6054E+06    -7.12475E+06     831.958E+03    -28.6539E-03     43.2689E-03    -14.6150E-03     150.699E-03    -30.1574E-03     45.0600E-03    -14.7596E-03     150.859E-03
            2061     15.0821E-03     20.6526E-03    -5.68129E+06     26.9799E+06    -17.9176E+06     1.03707E+06    -22.4314E-03     36.6353E-03    -14.2039E-03     81.2214E-03    -22.6627E-03     36.9942E-03    -14.3244E-03     81.1663E-03
            2062     14.2005E-03     20.5975E-03    -4.35455E+06    -13.8052E+06    -16.5290E+06     901.278E+03    -20.2347E-03     34.1389E-03    -13.9041E-03     52.5660E-03    -20.2666E-03     34.1542E-03    -13.9605E-03     52.5287E-03
            2063     13.3175E-03     20.5508E-03    -3.41663E+06    -37.4775E+06    -14.0695E+06     754.132E+03    -19.4091E-03     33.0117E-03    -13.6025E-03     47.1449E-03    -19.3822E-03     32.8804E-03    -13.6136E-03     47.1182E-03
            2064     12.4340E-03     20.5058E-03    -2.90420E+06    -38.5153E+06    -5.44629E+06     1.24271E+06    -18.4687E-03     31.7750E-03    -13.3062E-03     42.2912E-03    -18.4367E-03     31.6117E-03    -13.2734E-03     42.2827E-03
            2065     11.5496E-03     20.4681E-03    -2.87027E+06    -43.6358E+06    -5.05468E+06     899.075E+03    -17.5287E-03     30.5153E-03    -12.9866E-03     35.6416E-03    -17.4818E-03     30.3179E-03    -12.9444E-03     35.6366E-03
            2066     10.6646E-03     20.4355E-03    -3.76719E+06    -53.3738E+06    -5.59448E+06     812.713E+03    -16.6458E-03     29.3290E-03    -12.6832E-03     30.7444E-03    -16.5846E-03     29.0812E-03    -12.6284E-03     30.7434E-03
            2067     9.77877E-03     20.4069E-03    -3.79984E+06    -54.0310E+06    -2.30660E+06     1.99185E+06    -15.7435E-03     28.1456E-03    -12.4021E-03     26.3849E-03    -15.6840E-03     27.8875E-03    -12.3298E-03     26.4028E-03
            2068     8.89236E-03     20.3824E-03    -2.66491E+06    -54.5005E+06     296.801E+03     2.34747E+06    -14.8876E-03     27.0257E-03    -12.1381E-03     22.3669E-03    -14.8243E-03     26.7586E-03    -12.0537E-03     22.3918E-03
            2069     8.00508E-03     20.3616E-03    -2.80306E+06    -54.3077E+06    -866.863E+03     2.01109E+06    -14.0733E-03     25.9561E-03    -11.8829E-03     18.7884E-03    -14.0085E-03     25.6911E-03    -11.8044E-03     18.8105E-03
            2070     7.11722E-03     20.3441E-03    -3.61734E+06    -54.4781E+06    -1.89147E+06     2.05799E+06    -13.3437E-03     25.0036E-03    -11.6598E-03     15.6360E-03    -13.2808E-03     24.7399E-03    -11.5850E-03     15.6598E-03
            2071     6.22873E-03     20.3295E-03    -3.99400E+06    -55.7893E+06    -1.74189E+06     2.36195E+06    -12.7292E-03     24.2024E-03    -11.4732E-03     12.8689E-03    -12.6662E-03     23.9323E-03    -11.3953E-03     12.8974E-03
            2072     5.33977E-03     20.3175E-03    -4.38701E+06    -56.3789E+06    -1.99113E+06     3.04744E+06    -12.2168E-03     23.5281E-03    -11.3113E-03     10.4499E-03    -12.1544E-03     23.2557E-03    -11.2331E-03     10.4877E-03
            2073     4.45042E-03     20.3078E-03    -4.96088E+06    -58.0526E+06    -2.48922E+06     3.24806E+06    -11.7975E-03     22.9730E-03    -11.1756E-03     8.31476E-03    -11.7346E-03     22.6937E-03    -11.0966E-03     8.35553E-03
            2074     3.56074E-03     20.3001E-03    -5.87355E+06    -58.2679E+06    -4.01995E+06     2.88864E+06    -11.4524E-03     22.5104E-03    -11.0580E-03     6.41544E-03    -11.3915E-03     22.2335E-03    -10.9851E-03     6.45188E-03
            2075     2.67079E-03     20.2943E-03    -7.06190E+06    -59.2221E+06    -5.71847E+06     2.09315E+06    -11.1842E-03     22.1506E-03    -10.9664E-03     4.69861E-03    -11.1254E-03     21.8730E-03    -10.8989E-03     4.72503E-03
            2076     1.78062E-03     20.2902E-03    -7.97974E+06    -58.7064E+06    -7.25718E+06     1.25932E+06    -10.9948E-03     21.8924E-03    -10.8977E-03     3.10247E-03    -10.9390E-03     21.6210E-03    -10.8372E-03     3.11834E-03
            2077     890.347E-06     20.2877E-03    -8.52844E+06    -59.0456E+06    -8.48451E+06     738.399E+03    -10.8896E-03     21.7367E-03    -10.8471E-03     1.66372E-03    -10.8341E-03     21.4663E-03    -10.7915E-03     1.67305E-03
            2078     16.8474E-03     19.9554E-03    -3.57070E+06     141.838E+06     55.8969E+06     980.280E+03    -38.5063E-03     53.7480E-03    -15.2417E-03     253.414E-03    -44.7937E-03     60.3644E-03    -15.1627E-03     256.716E-03
            2079     15.9655E-03     19.7688E-03    -4.29686E+06     81.4758E+06    -7.02785E+06     1.77811E+06    -28.0371E-03     42.5296E-03    -14.4925E-03     149.499E-03    -29.4648E-03     44.2516E-03    -14.6395E-03     149.664E-03
            2080     15.0847E-03     19.6706E-03    -4.39180E+06     27.6063E+06    -17.2910E+06     1.04608E+06    -22.4688E-03     36.5600E-03    -14.0912E-03     79.0777E-03    -22.6843E-03     36.9082E-03    -14.2113E-03     79.0228E-03
            2081     14.2023E-03     19.6171E-03    -3.93244E+06    -13.1875E+06    -16.3446E+06     390.728E+03    -20.3996E-03     34.1732E-03    -13.7736E-03     51.2907E-03    -20.4283E-03     34.1885E-03    -13.8305E-03     51.2471E-03
            2082     13.3197E-03     19.5716E-03    -2.99662E+06    -37.9864E+06    -14.3468E+06     749.055E+03    -19.5224E-03     32.9741E-03    -13.4517E-03     46.0198E-03    -19.4910E-03     32.8389E-03    -13.4640E-03     45.9934E-03
            2083     12.4361E-03     19.5276E-03    -2.23208E+06    -38.5715E+06    -5.08253E+06     888.804E+03    -18.5163E-03     31.6559E-03    -13.1396E-03     40.9941E-03    -18.4805E-03     31.4900E-03    -13.1059E-03     40.9815E-03
            2084     11.5518E-03     19.4911E-03    -2.21012E+06    -43.7533E+06    -3.12203E+06     1.66033E+06    -17.4999E-03     30.3125E-03    -12.8127E-03     34.3896E-03    -17.4518E-03     30.1103E-03    -12.7616E-03     34.3949E-03
            2085     10.6667E-03     19.4596E-03    -2.93186E+06    -53.3101E+06    -3.09845E+06     2.13094E+06    -16.5779E-03     29.0768E-03    -12.4989E-03     29.5064E-03    -16.5159E-03     28.8242E-03    -12.4328E-03     29.5228E-03
            2086     9.78092E-03     19.4323E-03    -3.35126E+06    -54.0021E+06    -2.95428E+06     1.13915E+06    -15.6185E-03     27.8109E-03    -12.1924E-03     25.3103E-03    -15.5557E-03     27.5531E-03    -12.1240E-03     25.3176E-03
            2087     8.89418E-03     19.4088E-03    -3.17843E+06    -54.8481E+06    -1.26523E+06     1.38114E+06    -14.7042E-03     26.6239E-03    -11.9196E-03     21.4181E-03    -14.6405E-03     26.3579E-03    -11.8418E-03     21.4307E-03
            2088     8.00685E-03     19.3891E-03    -3.06843E+06    -54.3426E+06    -891.398E+03     2.49783E+06    -13.8647E-03     25.5333E-03    -11.6686E-03     17.9180E-03    -13.8010E-03     25.2684E-03    -11.5898E-03     17.9466E-03
            2089     7.11871E-03     19.3724E-03    -3.60327E+06    -53.9140E+06    -2.07925E+06     2.55435E+06    -13.1303E-03     24.5724E-03    -11.4420E-03     14.8937E-03    -13.0678E-03     24.3117E-03    -11.3690E-03     14.9240E-03
            2090     6.23008E-03     19.3586E-03    -4.45234E+06    -56.0786E+06    -2.30065E+06     2.63449E+06    -12.5222E-03     23.7761E-03    -11.2539E-03     12.2327E-03    -12.4602E-03     23.5059E-03    -11.1776E-03     12.2648E-03
            2091     5.34094E-03     19.3472E-03    -5.06518E+06    -56.3444E+06    -2.86651E+06     3.08491E+06    -12.0036E-03     23.0917E-03    -11.0881E-03     9.91642E-03    -11.9433E-03     22.8217E-03    -11.0134E-03     9.95480E-03
            2092     4.45139E-03     19.3381E-03    -5.43211E+06    -57.2503E+06    -3.52050E+06     3.32648E+06    -11.5723E-03     22.5217E-03    -10.9494E-03     7.88353E-03    -11.5115E-03     22.2486E-03    -10.8761E-03     7.92540E-03
            2093     3.56151E-03     19.3308E-03    -5.79637E+06    -57.0309E+06    -4.14908E+06     3.26858E+06    -11.2244E-03     22.0602E-03    -10.8358E-03     6.07726E-03    -11.1647E-03     21.7895E-03    -10.7654E-03     6.11866E-03
            2094     2.67136E-03     19.3253E-03    -6.27087E+06    -57.1626E+06    -5.26051E+06     2.64836E+06    -10.9630E-03     21.7090E-03    -10.7460E-03     4.44322E-03    -10.9039E-03     21.4399E-03    -10.6803E-03     4.47684E-03
            2095     1.78102E-03     19.3214E-03    -6.94767E+06    -57.2125E+06    -6.54056E+06     1.72785E+06    -10.7805E-03     21.4592E-03    -10.6787E-03     2.94159E-03    -10.7228E-03     21.1927E-03    -10.6183E-03     2.96353E-03
            2096     890.568E-06     19.3191E-03    -7.43485E+06    -57.3578E+06    -7.49472E+06     1.00361E+06    -10.6648E-03     21.2998E-03    -10.6350E-03     1.56289E-03    -10.6078E-03     21.0349E-03    -10.5786E-03     1.57565E-03
            2097     16.8384E-03     18.9636E-03    -3.96946E+06     140.568E+06     55.4651E+06     389.113E+03    -38.7447E-03     53.9722E-03    -15.2275E-03     248.295E-03    -44.8215E-03     60.3732E-03    -15.1482E-03     251.438E-03
            2098     15.9657E-03     18.7835E-03    -5.23846E+06     80.2295E+06    -8.16071E+06     1.46206E+06    -28.7907E-03     43.2163E-03    -14.4256E-03     144.924E-03    -30.1537E-03     44.8693E-03    -14.5752E-03     145.046E-03
            2099     15.0860E-03     18.6889E-03    -4.95640E+06     29.2754E+06    -15.6527E+06     1.91871E+06    -22.7043E-03     36.6937E-03    -13.9894E-03     76.8249E-03    -22.9175E-03     37.0387E-03    -14.1029E-03     76.7796E-03
            2100     14.2041E-03     18.6369E-03    -5.44262E+06    -12.2079E+06    -14.8557E+06     872.678E+03    -20.4521E-03     34.1059E-03    -13.6537E-03     50.1121E-03    -20.4892E-03     34.1234E-03    -13.7024E-03     50.0755E-03
            2101     13.3214E-03     18.5920E-03    -5.04883E+06    -38.2751E+06    -15.4533E+06     50.2550E+03    -19.6437E-03     32.9484E-03    -13.3047E-03     44.8324E-03    -19.6194E-03     32.8151E-03    -13.3191E-03     44.7975E-03
            2102     12.4382E-03     18.5497E-03    -4.09943E+06    -38.8941E+06    -5.47126E+06     452.112E+03    -18.5641E-03     31.5413E-03    -12.9772E-03     39.6604E-03    -18.5357E-03     31.3762E-03    -12.9422E-03     39.6428E-03
            2103     11.5539E-03     18.5143E-03    -3.05710E+06    -44.7134E+06    -4.48490E+06     1.00929E+06    -17.4400E-03     30.0708E-03    -12.6308E-03     33.2807E-03    -17.3922E-03     29.8665E-03    -12.5840E-03     33.2782E-03
            2104     10.6688E-03     18.4840E-03    -760.215E+03    -52.8394E+06    -3.32830E+06     1.28853E+06    -16.4681E-03     28.7757E-03    -12.3076E-03     28.4257E-03    -16.3952E-03     28.5222E-03    -12.2465E-03     28.4318E-03
            2105     9.78272E-03     18.4579E-03     88.6136E+03    -53.7350E+06    -1.13289E+06     1.87144E+06    -15.4755E-03     27.4798E-03    -12.0043E-03     24.2214E-03    -15.3982E-03     27.2154E-03    -11.9322E-03     24.2384E-03
            2106     8.89599E-03     18.4356E-03    -1.46942E+06    -55.3282E+06    -338.314E+03     2.17586E+06    -14.5239E-03     26.2516E-03    -11.7276E-03     20.4184E-03    -14.4522E-03     25.9792E-03    -11.6470E-03     20.4416E-03
            2107     8.00835E-03     18.4168E-03    -2.43299E+06    -54.6134E+06    -123.257E+03     2.22358E+06    -13.6826E-03     25.1577E-03    -11.4750E-03     17.0228E-03    -13.6164E-03     24.8893E-03    -11.3929E-03     17.0481E-03
            2108     7.12016E-03     18.4011E-03    -2.28557E+06    -53.7234E+06    -730.998E+03     2.83430E+06    -12.9580E-03     24.2048E-03    -11.2469E-03     14.1014E-03    -12.8910E-03     23.9412E-03    -11.1693E-03     14.1355E-03
            2109     6.23134E-03     18.3880E-03    -2.57433E+06    -55.9007E+06    -1.33815E+06     3.18832E+06    -12.3383E-03     23.3914E-03    -11.0531E-03     11.5496E-03    -12.2685E-03     23.1180E-03    -10.9750E-03     11.5889E-03
            2110     5.34203E-03     18.3774E-03    -3.31008E+06    -56.2241E+06    -1.96402E+06     3.45587E+06    -11.8098E-03     22.6956E-03    -10.8858E-03     9.34370E-03    -11.7422E-03     22.4224E-03    -10.8093E-03     9.38695E-03
            2111     4.45230E-03     18.3687E-03    -4.21892E+06    -56.4930E+06    -2.98454E+06     3.70398E+06    -11.3728E-03     22.1170E-03    -10.7443E-03     7.40334E-03    -11.3077E-03     21.8452E-03    -10.6712E-03     7.45015E-03
            2112     3.56223E-03     18.3619E-03    -4.95596E+06    -55.6895E+06    -4.15303E+06     3.41754E+06    -11.0218E-03     21.6490E-03    -10.6272E-03     5.69168E-03    -10.9599E-03     21.3838E-03    -10.5600E-03     5.73506E-03
            2113     2.67188E-03     18.3567E-03    -5.34294E+06    -55.2883E+06    -4.88286E+06     2.85848E+06    -10.7566E-03     21.2951E-03    -10.5384E-03     4.14521E-03    -10.6961E-03     21.0335E-03    -10.4749E-03     4.18159E-03
            2114     1.78138E-03     18.3531E-03    -5.60142E+06    -55.3283E+06    -5.53815E+06     2.14574E+06    -10.5666E-03     21.0442E-03    -10.4776E-03     2.75203E-03    -10.5063E-03     20.7837E-03    -10.4170E-03     2.77939E-03
            2115     890.682E-06     18.3509E-03    -5.73706E+06    -55.0516E+06    -5.84937E+06     1.16469E+06    -10.4762E-03     20.9096E-03    -10.4334E-03     1.46122E-03    -10.4164E-03     20.6514E-03    -10.3745E-03     1.47607E-03
            2116     16.8489E-03     17.9752E-03    -4.30117E+06     139.941E+06     56.4516E+06     654.138E+03    -39.2268E-03     54.4159E-03    -15.1891E-03     244.339E-03    -45.0986E-03     60.6058E-03    -15.1036E-03     247.300E-03
            2117     15.9681E-03     17.7983E-03    -6.16087E+06     79.5315E+06    -6.76874E+06     1.11284E+06    -28.9337E-03     43.2883E-03    -14.3546E-03     140.378E-03    -30.2203E-03     44.8551E-03    -14.4948E-03     140.467E-03
            2118     15.0878E-03     17.7070E-03    -5.78644E+06     29.3386E+06    -15.7741E+06     1.68218E+06    -22.8671E-03     36.7514E-03    -13.8843E-03     73.9878E-03    -23.0730E-03     37.0868E-03    -13.9973E-03     73.9390E-03
            2119     14.2059E-03     17.6566E-03     -4.4361E+06    -10.0469E+06    -14.3636E+06     1.15927E+06    -20.5425E-03     34.0696E-03    -13.5271E-03     48.8079E-03    -20.5758E-03     34.0931E-03    -13.5779E-03     48.7758E-03
            2120     13.3235E-03     17.6125E-03    -3.31927E+06    -37.7600E+06    -17.1169E+06    -245.167E+03    -19.6479E-03     32.8038E-03    -13.1559E-03     43.7415E-03    -19.6117E-03     32.6714E-03    -13.1819E-03     43.7037E-03
            2121     12.4401E-03     17.5718E-03    -2.62720E+06    -40.2927E+06    -7.28084E+06     156.136E+03    -18.5731E-03     31.3928E-03    -12.8197E-03     38.4333E-03    -18.5317E-03     31.2202E-03    -12.7939E-03     38.4126E-03
            2122     11.5558E-03     17.5378E-03    -2.40017E+06    -44.1507E+06    -6.55567E+06     396.402E+03    -17.4053E-03     29.8644E-03    -12.4591E-03     32.1525E-03    -17.3514E-03     29.6643E-03    -12.4243E-03     32.1427E-03
            2123     10.6705E-03     17.5086E-03    -2.88049E+06    -53.5664E+06    -6.94460E+06     395.244E+03    -16.3594E-03     28.4849E-03    -12.1255E-03     27.3609E-03    -16.2905E-03     28.2357E-03    -12.0784E-03     27.3559E-03
            2124     9.78450E-03     17.4838E-03    -2.66843E+06    -55.0009E+06    -2.37585E+06     1.83181E+06    -15.3493E-03     27.1785E-03    -11.8292E-03     23.0819E-03    -15.2820E-03     26.9134E-03    -11.7575E-03     23.0988E-03
            2125     8.89751E-03     17.4627E-03    -1.39276E+06    -54.4709E+06     110.319E+03     2.35925E+06    -14.3854E-03     25.9332E-03    -11.5479E-03     19.3411E-03    -14.3150E-03     25.6643E-03    -11.4663E-03     19.3669E-03
            2126     8.00986E-03     17.4450E-03    -788.886E+03    -54.7481E+06     653.312E+03     2.09255E+06    -13.5385E-03     24.8295E-03    -11.2910E-03     16.0486E-03    -13.4649E-03     24.5569E-03    -11.2073E-03     16.0724E-03
            2127     7.12147E-03     17.4301E-03    -1.06069E+06    -54.3978E+06    -539.519E+03     2.80059E+06    -12.8007E-03     23.8577E-03    -11.0570E-03     13.2345E-03    -12.7269E-03     23.5886E-03    -10.9793E-03     13.2683E-03
            2128     6.23253E-03     17.4179E-03    -1.45954E+06    -55.6881E+06    -1.12773E+06     3.75842E+06    -12.1692E-03     23.0277E-03    -10.8585E-03     10.7955E-03    -12.0944E-03     22.7533E-03    -10.7813E-03     10.8423E-03
            2129     5.34305E-03     17.4078E-03    -2.16178E+06    -55.9434E+06    -1.50187E+06     4.18865E+06    -11.6355E-03     22.3243E-03    -10.6888E-03     8.68625E-03    -11.5632E-03     22.0501E-03    -10.6121E-03     8.73905E-03
            2130     4.45317E-03     17.3997E-03    -2.72370E+06    -55.4272E+06    -1.94469E+06     4.18447E+06    -11.1968E-03     21.7413E-03    -10.5445E-03     6.84268E-03    -11.1274E-03     21.4711E-03    -10.4699E-03     6.89575E-03
            2131     3.56295E-03     17.3933E-03    -3.01947E+06    -54.0422E+06    -2.75457E+06     3.70243E+06    -10.8356E-03     21.2591E-03    -10.4235E-03     5.23462E-03    -10.7684E-03     20.9973E-03    -10.3545E-03     5.28173E-03
            2132     2.67246E-03     17.3885E-03    -3.17112E+06    -53.4951E+06    -3.15944E+06     2.97512E+06    -10.5545E-03     20.8883E-03    -10.3338E-03     3.80759E-03    -10.4882E-03     20.6300E-03    -10.2675E-03     3.84551E-03
            2133     1.78171E-03     17.3852E-03    -3.19097E+06    -53.1589E+06    -3.09033E+06     2.16478E+06    -10.3694E-03     20.6433E-03    -10.2740E-03     2.51479E-03    -10.3037E-03     20.3867E-03    -10.2077E-03     2.54242E-03
            2134     890.894E-06     17.3831E-03    -3.02118E+06    -52.6986E+06    -3.12950E+06     1.18452E+06    -10.2796E-03     20.5000E-03    -10.2204E-03     1.34673E-03    -10.2136E-03     20.2456E-03    -10.1552E-03     1.36185E-03
            2135     16.8404E-03     16.9830E-03    -4.25901E+06     138.869E+06     55.9997E+06     1.03964E+06    -39.7809E-03     54.9281E-03    -15.1472E-03     240.264E-03    -45.4532E-03     60.9161E-03    -15.0623E-03     243.052E-03
            2136     15.9683E-03     16.8119E-03    -5.43305E+06     79.3446E+06    -7.92085E+06     1.61247E+06    -29.0299E-03     43.3024E-03    -14.2725E-03     135.806E-03    -30.2291E-03     44.7870E-03    -14.4193E-03     135.874E-03
            2137     15.0893E-03     16.7254E-03    -4.77885E+06     30.2856E+06    -17.9826E+06     784.438E+03    -22.9441E-03     36.7196E-03    -13.7754E-03     71.5824E-03    -23.1325E-03     37.0507E-03    -13.9023E-03     71.5223E-03
            2138     14.2077E-03     16.6760E-03    -3.53783E+06    -8.64983E+06    -16.0366E+06    -59.3620E+03    -20.6074E-03     34.0144E-03    -13.4070E-03     47.7491E-03    -20.6330E-03     34.0433E-03    -13.4695E-03     47.7023E-03
            2139     13.3249E-03     16.6336E-03    -2.05578E+06    -37.4988E+06    -18.2246E+06    -35.2296E+03    -19.6554E-03     32.6846E-03    -13.0292E-03     42.8501E-03    -19.6102E-03     32.5519E-03    -13.0630E-03     42.8161E-03
            2140     12.4416E-03     16.5937E-03    -1.71030E+06    -41.4870E+06    -7.51491E+06     396.873E+03    -18.6169E-03     31.3057E-03    -12.6887E-03     37.0975E-03    -18.5680E-03     31.1252E-03    -12.6637E-03     37.0806E-03
            2141     11.5573E-03     16.5616E-03    -2.34412E+06    -44.0973E+06    -5.06572E+06     1.38038E+06    -17.4120E-03     29.7347E-03    -12.3226E-03     30.7362E-03    -17.3595E-03     29.5321E-03    -12.2806E-03     30.7396E-03
            2142     10.6722E-03     16.5335E-03    -3.24983E+06    -53.5100E+06    -6.01537E+06     1.49538E+06    -16.3290E-03     28.3031E-03    -11.9741E-03     26.0223E-03    -16.2630E-03     28.0531E-03    -11.9219E-03     26.0319E-03
            2143     9.78599E-03     16.5100E-03    -3.27842E+06    -55.5112E+06    -2.52691E+06     712.370E+03    -15.2831E-03     26.9452E-03    -11.6621E-03     21.7375E-03    -15.2176E-03     26.6784E-03    -11.5895E-03     21.7402E-03
            2144     8.89910E-03     16.4901E-03    -2.21171E+06    -54.2775E+06    -1.14555E+06     675.312E+03    -14.2978E-03     25.6617E-03    -11.3638E-03     18.0694E-03    -14.2298E-03     25.3965E-03    -11.2877E-03     18.0737E-03
            2145     8.01130E-03     16.4734E-03    -1.13839E+06    -55.4460E+06    -1.00394E+06     1.71477E+06    -13.4201E-03     24.5161E-03    -11.0960E-03     14.8840E-03    -13.3447E-03     24.2428E-03    -11.0190E-03     14.9031E-03
            2146     7.12282E-03     16.4595E-03    -943.241E+03    -55.4282E+06    -1.28731E+06     3.16567E+06    -12.6640E-03     23.5220E-03    -10.8580E-03     12.1572E-03    -12.5869E-03     23.2486E-03    -10.7827E-03     12.1959E-03
            2147     6.23371E-03     16.4480E-03    -1.23113E+06    -55.6671E+06    -1.08238E+06     4.11448E+06    -12.0188E-03     22.6725E-03    -10.6537E-03     9.82104E-03    -11.9430E-03     22.3978E-03    -10.5766E-03     9.87257E-03
            2148     5.34415E-03     16.4386E-03    -1.21480E+06    -55.3398E+06    -425.982E+03     4.42176E+06    -11.4692E-03     21.9482E-03    -10.4791E-03     7.83154E-03    -11.3945E-03     21.6741E-03    -10.3992E-03     7.88745E-03
            2149     4.45411E-03     16.4311E-03    -1.07067E+06    -53.9628E+06    -272.468E+03     4.12386E+06    -11.0082E-03     21.3366E-03    -10.3284E-03     6.13898E-03    -10.9350E-03     21.0688E-03    -10.2500E-03     6.19135E-03
            2150     3.56374E-03     16.4252E-03    -791.843E+03    -52.4176E+06    -124.359E+03     3.50076E+06    -10.6355E-03     20.8409E-03    -10.2054E-03     4.66460E-03    -10.5633E-03     20.5802E-03    -10.1289E-03     4.70917E-03
            2151     2.67300E-03     16.4207E-03    -519.486E+03    -51.5501E+06    -149.837E+03     2.87149E+06    -10.3498E-03     20.4599E-03    -10.1101E-03     3.37407E-03    -10.2775E-03     20.2032E-03    -10.0353E-03     3.41070E-03
            2152     1.78216E-03     16.4176E-03    -333.749E+03    -51.0139E+06    -174.674E+03     1.94060E+06    -10.1502E-03     20.1923E-03    -10.0421E-03     2.24077E-03    -10.0776E-03     19.9380E-03    -9.96850E-03     2.26553E-03
            2153     891.141E-06     16.4156E-03    -123.180E+03    -50.4994E+06    -122.444E+03     1.08042E+06    -10.0362E-03     20.0292E-03    -9.99297E-03     1.21839E-03    -9.96328E-03     19.7772E-03    -9.92018E-03     1.23217E-03
            2154     16.8501E-03     15.9909E-03    -3.86815E+06     137.676E+06     54.7944E+06     751.737E+03    -40.1294E-03     55.2251E-03    -15.0958E-03     234.552E-03    -45.5472E-03     60.9594E-03    -15.0158E-03     237.121E-03
            2155     15.9708E-03     15.8279E-03    -3.55441E+06     79.2926E+06    -8.28938E+06     1.21712E+06    -28.7216E-03     42.9188E-03    -14.1972E-03     130.565E-03    -29.8206E-03     44.3108E-03    -14.3484E-03     130.613E-03
            2156     15.0901E-03     15.7420E-03    -3.03598E+06     31.7502E+06    -15.8942E+06     1.57851E+06    -22.7656E-03     36.4742E-03    -13.7086E-03     69.1550E-03    -22.9400E-03     36.7967E-03    -13.8297E-03     69.1070E-03
            2157     14.2087E-03     15.6966E-03    -5.30173E+06    -7.94469E+06    -15.4119E+06     773.283E+03    -20.6993E-03     34.0327E-03    -13.3334E-03     46.6830E-03    -20.7335E-03     34.0645E-03    -13.3912E-03     46.6476E-03
            2158     13.3262E-03     15.6539E-03    -6.11078E+06    -37.2944E+06    -19.6246E+06    -225.601E+03    -19.8980E-03     32.8286E-03    -12.9307E-03     41.8567E-03    -19.8702E-03     32.7037E-03    -12.9658E-03     41.8204E-03
            2159     12.4432E-03     15.6161E-03    -4.93839E+06    -42.4922E+06    -8.90522E+06     72.7042E+03    -18.7517E-03     31.3194E-03    -12.5677E-03     35.5391E-03    -18.7144E-03     31.1397E-03    -12.5435E-03     35.5186E-03
            2160     11.5589E-03     15.5850E-03    -3.40291E+06    -45.1464E+06    -5.59158E+06     1.08004E+06    -17.5195E-03     29.7014E-03    -12.1819E-03     29.1651E-03    -17.4695E-03     29.4952E-03    -12.1394E-03     29.1652E-03
            2161     10.6738E-03     15.5587E-03    -1.48505E+06    -52.4740E+06    -5.58284E+06     1.21938E+06    -16.4099E-03     28.2197E-03    -11.8097E-03     24.3704E-03    -16.3368E-03     27.9712E-03    -11.7594E-03     24.3769E-03
            2162     9.78780E-03     15.5363E-03    -540.321E+03    -54.6837E+06    -2.49201E+06     470.314E+03    -15.3017E-03     26.7763E-03    -11.4746E-03     20.0874E-03    -15.2235E-03     26.5094E-03    -11.4070E-03     20.0873E-03
            2163     8.90078E-03     15.5177E-03    -1.01510E+06    -54.8837E+06    -1.29712E+06     389.486E+03    -14.2706E-03     25.4318E-03    -11.1613E-03     16.4305E-03    -14.1953E-03     25.1620E-03    -11.0867E-03     16.4314E-03
            2164     8.01297E-03     15.5021E-03    -1.71445E+06    -57.0490E+06    -1.55302E+06     1.56139E+06    -13.3436E-03     24.2215E-03    -10.8779E-03     13.3388E-03    -13.2679E-03     23.9417E-03    -10.8005E-03     13.3561E-03
            2165     7.12441E-03     15.4892E-03    -1.72848E+06    -56.4247E+06    -1.03527E+06     3.07974E+06    -12.5347E-03     23.1622E-03    -10.6275E-03     10.7594E-03    -12.4604E-03     22.8845E-03    -10.5484E-03     10.7971E-03
            2166     6.23526E-03     15.4785E-03    -1.24904E+06    -55.4536E+06     42.4919E+03     3.83702E+06    -11.8442E-03     22.2558E-03    -10.4116E-03     8.59847E-03    -11.7704E-03     21.9806E-03    -10.3292E-03     8.64656E-03
            2167     5.34550E-03     15.4698E-03    -808.774E+03    -54.5004E+06     842.944E+03     3.86869E+06    -11.2547E-03     21.4810E-03    -10.2264E-03     6.80646E-03    -11.1810E-03     21.2086E-03    -10.1419E-03     6.85535E-03
            2168     4.45529E-03     15.4629E-03    -256.117E+03    -52.4159E+06     1.15056E+06     3.45903E+06    -10.7676E-03     20.8359E-03    -10.0683E-03     5.31045E-03    -10.6946E-03     20.5725E-03    -9.98614E-03     5.35434E-03
            2169     3.56465E-03     15.4574E-03     191.028E+03    -51.0299E+06     1.32319E+06     2.90492E+06    -10.3902E-03     20.3297E-03    -9.93953E-03     4.01688E-03    -10.3172E-03     20.0724E-03    -9.85920E-03     4.05382E-03
            2170     2.67383E-03     15.4533E-03     512.939E+03    -49.8003E+06     1.31511E+06     2.36229E+06    -10.0975E-03     19.9339E-03    -9.83641E-03     2.88808E-03    -10.0246E-03     19.6822E-03    -9.75837E-03     2.91819E-03
            2171     1.78265E-03     15.4505E-03     795.388E+03    -49.0517E+06     971.807E+03     1.64069E+06    -9.87468E-03     19.6352E-03    -9.76055E-03     1.91480E-03    -9.80098E-03     19.3874E-03    -9.68572E-03     1.93573E-03
            2172     891.311E-06     15.4487E-03     947.615E+03    -48.6291E+06     963.281E+03     958.307E+03    -9.78003E-03     19.4624E-03    -9.68241E-03     1.02253E-03    -9.70602E-03     19.2167E-03    -9.60846E-03     1.03477E-03
            2173     16.8435E-03     14.9992E-03    -3.25851E+06     137.445E+06     55.0097E+06     166.509E+03    -40.2943E-03     55.4005E-03    -15.1062E-03     231.804E-03    -45.5505E-03     60.9739E-03    -15.0257E-03     234.242E-03
            2174     15.9704E-03     14.8410E-03    -3.56020E+06     78.3465E+06    -8.52764E+06     437.171E+03    -28.8941E-03     43.0845E-03    -14.1904E-03     126.876E-03    -29.9208E-03     44.4017E-03    -14.3415E-03     126.889E-03
            2175     15.0914E-03     14.7614E-03    -4.16219E+06     30.8466E+06    -18.2935E+06     2.31277E+06    -22.9746E-03     36.6485E-03    -13.6739E-03     67.9521E-03    -23.1426E-03     36.9644E-03    -13.8041E-03     67.9138E-03
            2176     14.2090E-03     14.7154E-03    -3.71635E+06    -5.85389E+06    -15.8445E+06     2.30383E+06    -21.3086E-03     34.5796E-03    -13.2711E-03     45.6024E-03    -21.3352E-03     34.6183E-03    -13.3364E-03     45.5860E-03
            2177     13.3275E-03     14.6746E-03    -2.67473E+06    -36.0107E+06    -19.8965E+06     369.832E+03    -20.3359E-03     33.1642E-03    -12.8283E-03     40.0826E-03    -20.2909E-03     33.0396E-03    -12.8716E-03     40.0541E-03
            2178     12.4444E-03     14.6381E-03    -2.85838E+06    -43.7248E+06    -10.0376E+06     94.5446E+03    -19.0262E-03     31.4596E-03    -12.4334E-03     33.5713E-03    -18.9739E-03     31.2711E-03    -12.4160E-03     33.5516E-03
            2179     11.5607E-03     14.6088E-03    -2.86933E+06    -45.1514E+06    -7.51714E+06     211.374E+03    -17.7664E-03     29.7790E-03    -12.0126E-03     27.1964E-03    -17.7102E-03     29.5742E-03    -11.9805E-03     27.1858E-03
            2180     10.6758E-03     14.5836E-03    -2.22945E+06    -52.3028E+06    -8.03171E+06     13.9630E+03    -16.5847E-03     28.1915E-03    -11.6068E-03     22.3204E-03    -16.5116E-03     27.9481E-03    -11.5679E-03     22.3118E-03
            2181     9.78987E-03     14.5629E-03    -1.36250E+06    -54.2959E+06    -3.05700E+06     317.023E+03    -15.3955E-03     26.6446E-03    -11.2491E-03     18.0213E-03    -15.3209E-03     26.3813E-03    -11.1837E-03     18.0196E-03
            2182     8.90299E-03     14.5454E-03    -1.03066E+06    -55.6825E+06     244.313E+03     862.887E+03    -14.2793E-03     25.1967E-03    -10.9174E-03     14.4204E-03    -14.2050E-03     24.9205E-03    -10.8340E-03     14.4276E-03
            2183     8.01523E-03     14.5312E-03    -1.32493E+06    -58.4730E+06     1.17176E+06     1.99187E+06    -13.2660E-03     23.8805E-03    -10.6145E-03     11.4809E-03    -13.1901E-03     23.5890E-03    -10.5219E-03     11.5039E-03
            2184     7.12659E-03     14.5192E-03    -1.72746E+06    -56.7951E+06     513.883E+03     2.71419E+06    -12.3576E-03     22.6948E-03    -10.3372E-03     9.16188E-03    -12.2850E-03     22.4129E-03    -10.2497E-03     9.19507E-03
            2185     6.23719E-03     14.5095E-03    -1.66682E+06    -55.3469E+06     912.946E+03     3.09494E+06    -11.5922E-03     21.6967E-03    -10.1045E-03     7.24212E-03    -11.5218E-03     21.4213E-03    -10.0173E-03     7.28077E-03
            2186     5.34722E-03     14.5015E-03    -1.29263E+06    -53.3709E+06     1.21532E+06     3.02378E+06    -10.9609E-03     20.8683E-03    -9.90745E-03     5.68323E-03    -10.8918E-03     20.6017E-03    -9.82211E-03     5.72133E-03
            2187     4.45670E-03     14.4953E-03    -953.709E+03    -51.3486E+06     912.403E+03     2.58251E+06    -10.4546E-03     20.1965E-03    -9.74188E-03     4.40843E-03    -10.3863E-03     19.9399E-03    -9.66148E-03     4.44109E-03
            2188     3.56586E-03     14.4902E-03    -591.346E+03    -49.7411E+06     628.685E+03     2.22381E+06    -10.0604E-03     19.6687E-03    -9.60828E-03     3.33443E-03    -9.99219E-03     19.4200E-03    -9.53215E-03     3.36266E-03
            2189     2.67462E-03     14.4866E-03    -245.126E+03    -48.4872E+06     458.508E+03     1.70572E+06    -9.76710E-03     19.2704E-03    -9.50333E-03     2.39112E-03    -9.69869E-03     19.0277E-03    -9.43038E-03     2.41281E-03
            2190     1.78325E-03     14.4840E-03     86.2697E+03    -47.5512E+06     424.080E+03     1.23982E+06    -9.55921E-03     18.9813E-03    -9.42206E-03     1.57222E-03    -9.49043E-03     18.7428E-03    -9.35112E-03     1.58801E-03
            2191     891.731E-06     14.4824E-03     342.366E+03    -47.1122E+06     411.299E+03     775.089E+03    -9.47289E-03     18.7724E-03    -9.29950E-03     834.461E-06    -9.40331E-03     18.5359E-03    -9.22963E-03     844.350E-06
            2192     16.8452E-03     14.0012E-03    -1.68369E+06     137.004E+06     54.5517E+06     336.453E+03    -39.4869E-03     54.6002E-03    -15.1133E-03     224.459E-03    -44.4854E-03     59.9213E-03    -15.0368E-03     226.782E-03
            2193     15.9699E-03     13.8574E-03    -4.58933E+06     75.1060E+06    -11.8205E+06     1.82938E+06    -28.7116E-03     42.9029E-03    -14.1913E-03     119.643E-03    -29.6337E-03     44.1099E-03    -14.3527E-03     119.663E-03
            2194     15.0889E-03     13.7777E-03    -5.80181E+06     30.8159E+06    -19.8766E+06     2.48669E+06    -23.9166E-03     37.5578E-03    -13.6412E-03     64.3946E-03    -24.0813E-03     37.8691E-03    -13.7769E-03     64.3541E-03
            2195     14.2105E-03     13.7339E-03    -4.34411E+06    -2.96035E+06    -14.7562E+06     665.210E+03    -21.9411E-03     35.1309E-03    -13.1898E-03     42.8347E-03    -21.9736E-03     35.1803E-03    -13.2530E-03     42.7964E-03
            2196     13.3289E-03     13.6946E-03    -2.21414E+06    -36.0710E+06    -19.2608E+06     251.534E+03    -20.7440E-03     33.4476E-03    -12.7036E-03     37.4981E-03    -20.6954E-03     33.3191E-03    -12.7444E-03     37.4684E-03
            2197     12.4467E-03     13.6601E-03    -986.889E+03    -44.1398E+06    -8.64819E+06     1.00471E+06    -19.3963E-03     31.6677E-03    -12.2714E-03     31.0169E-03    -19.3349E-03     31.4712E-03    -12.2492E-03     31.0094E-03
            2198     11.5630E-03     13.6321E-03    -1.36326E+06    -44.3965E+06    -3.62151E+06     750.446E+03    -18.0748E-03     29.8954E-03    -11.8206E-03     24.6454E-03    -18.0171E-03     29.6858E-03    -11.7723E-03     24.6421E-03
            2199     10.6784E-03     13.6088E-03    -1.88352E+06    -52.0759E+06    -4.42144E+06     94.0209E+03    -16.8020E-03     28.1759E-03    -11.3740E-03     19.7406E-03    -16.7322E-03     27.9275E-03    -11.3178E-03     19.7333E-03
            2200     9.79273E-03     13.5894E-03    -2.04972E+06    -54.6219E+06    -750.002E+03    -83.6516E+03    -15.4905E-03     26.4630E-03    -10.9726E-03     15.5727E-03    -15.4219E-03     26.1955E-03    -10.8941E-03     15.5660E-03
            2201     8.90593E-03     13.5736E-03    -2.20592E+06    -56.8568E+06     1.57988E+06     789.626E+03    -14.2479E-03     24.8514E-03    -10.6035E-03     12.1653E-03    -14.1796E-03     24.5689E-03    -10.5099E-03     12.1718E-03
            2202     8.01803E-03     13.5605E-03    -2.46212E+06    -59.3403E+06     2.30105E+06     1.88987E+06    -13.1178E-03     23.3887E-03    -10.2709E-03     9.46629E-03    -13.0478E-03     23.0927E-03    -10.1698E-03     9.48819E-03
            2203     7.12923E-03     13.5499E-03    -2.66223E+06    -56.8276E+06     1.67654E+06     2.54961E+06    -12.1184E-03     22.0889E-03    -9.97050E-03     7.39067E-03    -12.0520E-03     21.8064E-03    -9.87586E-03     7.42190E-03
            2204     6.23961E-03     13.5410E-03    -2.90546E+06    -54.8557E+06     579.579E+03     2.50004E+06    -11.2740E-03     20.9887E-03    -9.71468E-03     5.71872E-03    -11.2099E-03     20.7179E-03    -9.62803E-03     5.74984E-03
            2205     5.34929E-03     13.5340E-03    -2.84052E+06    -52.4858E+06     50.0084E+03     2.14914E+06    -10.5939E-03     20.0977E-03    -9.50373E-03     4.39988E-03    -10.5322E-03     19.8393E-03    -9.42326E-03     4.42681E-03
            2206     4.45850E-03     13.5282E-03    -2.49805E+06    -50.4594E+06    -534.316E+03     1.81158E+06    -10.0570E-03     19.3885E-03    -9.33145E-03     3.35441E-03    -9.99564E-03     19.1406E-03    -9.25734E-03     3.37722E-03
            2207     3.56721E-03     13.5238E-03    -2.10315E+06    -48.8249E+06    -929.051E+03     1.42088E+06    -9.64256E-03     18.8386E-03    -9.19609E-03     2.50558E-03    -9.58095E-03     18.5989E-03    -9.12688E-03     2.52352E-03
            2208     2.67570E-03     13.5204E-03    -1.68447E+06    -47.4876E+06    -974.634E+03     1.06450E+06    -9.34894E-03     18.4422E-03    -9.09321E-03     1.77987E-03    -9.28709E-03     18.2086E-03    -9.02678E-03     1.79334E-03
            2209     1.78393E-03     13.5181E-03    -1.35794E+06    -46.5938E+06    -1.03077E+06      715.01E+03    -9.14438E-03     18.1593E-03    -9.01488E-03     1.15890E-03    -9.08210E-03     17.9297E-03    -8.95050E-03     1.16796E-03
            2210     891.999E-06     13.5167E-03    -1.01669E+06    -46.0446E+06    -917.416E+03     459.619E+03    -9.04228E-03     17.9620E-03    -8.91975E-03     618.494E-06    -8.97912E-03     17.7348E-03    -8.85610E-03     624.328E-06
            2211     16.8484E-03     13.0155E-03    -3.72905E+06     134.149E+06     53.1372E+06     693.334E+03    -39.2876E-03     54.3725E-03    -15.0849E-03     219.137E-03    -43.9455E-03     59.3398E-03    -15.0083E-03     221.266E-03
            2212     15.9689E-03     12.8689E-03    -8.87003E+06     74.7828E+06    -10.9688E+06     3.14902E+06    -28.9417E-03     43.0967E-03    -14.1550E-03     116.053E-03    -29.8151E-03     44.2360E-03    -14.3054E-03     116.077E-03
            2213     15.0945E-03     12.7945E-03    -8.01877E+06     34.0305E+06    -18.5236E+06     1.68458E+06    -24.7382E-03     38.2950E-03    -13.5568E-03     60.5248E-03    -24.9095E-03     38.6126E-03    -13.6872E-03     60.4704E-03
            2214     14.2123E-03     12.7522E-03    -5.24552E+06    -1.98272E+06    -16.0459E+06    -109.679E+03    -22.3522E-03     35.3961E-03    -13.0440E-03     40.5182E-03    -22.3853E-03     35.4502E-03    -13.1137E-03     40.4707E-03
            2215     13.3315E-03     12.7145E-03    -4.68906E+06    -36.7919E+06    -20.9113E+06     30.8429E+03    -21.2506E-03     33.7679E-03    -12.5173E-03     34.7708E-03    -21.2089E-03     33.6397E-03    -12.5618E-03     34.7387E-03
            2216     12.4493E-03     12.6818E-03    -3.85246E+06    -44.7144E+06    -10.4757E+06     568.027E+03    -19.8253E-03     31.8596E-03    -12.0343E-03     28.1311E-03    -19.7736E-03     31.6659E-03    -12.0162E-03     28.1185E-03
            2217     11.5663E-03     12.6554E-03    -2.68839E+06    -43.8256E+06    -3.53094E+06     961.593E+03    -18.3716E-03     29.9115E-03    -11.5399E-03     21.8034E-03    -18.3207E-03     29.7058E-03    -11.4901E-03     21.8034E-03
            2218     10.6820E-03     12.6338E-03    -2.20631E+06    -50.9358E+06    -3.19961E+06     224.972E+03    -16.9622E-03     28.0134E-03    -11.0512E-03     16.8921E-03    -16.8971E-03     27.7690E-03    -10.9901E-03     16.8869E-03
            2219     9.79635E-03     12.6163E-03    -2.17792E+06    -55.2945E+06    -616.915E+03    -44.4680E+03    -15.5057E-03     26.1124E-03    -10.6067E-03     12.9151E-03    -15.4368E-03     25.8413E-03    -10.5264E-03     12.9093E-03
            2220     8.90949E-03     12.6020E-03    -2.95725E+06    -58.2799E+06     1.91777E+06     1.12737E+06    -14.1408E-03     24.3475E-03    -10.2067E-03     9.73211E-03    -14.0745E-03     24.0583E-03    -10.1083E-03     9.74319E-03
            2221     8.02152E-03     12.5905E-03    -4.22525E+06    -59.6638E+06     2.49464E+06     1.99260E+06    -12.9094E-03     22.7536E-03    -9.84420E-03     7.27615E-03    -12.8480E-03     22.4582E-03    -9.73909E-03     7.29956E-03
            2222     7.13250E-03     12.5810E-03    -4.99219E+06    -56.6975E+06     1.25389E+06     2.02936E+06    -11.8173E-03     21.3339E-03    -9.51662E-03     5.47480E-03    -11.7620E-03     21.0561E-03    -9.42090E-03     5.49947E-03
            2223     6.24261E-03     12.5734E-03    -4.90446E+06    -54.0378E+06    -499.479E+03     1.79604E+06    -10.9062E-03     20.1427E-03    -9.23650E-03     4.09624E-03    -10.8517E-03     19.8804E-03    -9.15353E-03     4.11839E-03
            2224     5.35198E-03     12.5671E-03    -4.67860E+06    -51.8008E+06    -1.68822E+06     1.35002E+06    -10.1663E-03     19.1737E-03    -9.00739E-03     3.04937E-03    -10.1122E-03     18.9239E-03    -8.93394E-03     3.06608E-03
            2225     4.46073E-03     12.5622E-03    -4.41430E+06    -49.7593E+06    -2.26977E+06     973.391E+03    -9.58729E-03     18.4124E-03    -8.82506E-03     2.24059E-03    -9.53395E-03     18.1733E-03    -8.75786E-03     2.25265E-03
            2226     3.56910E-03     12.5582E-03    -4.04879E+06    -48.1825E+06    -2.77129E+06     643.962E+03    -9.14650E-03     17.8293E-03    -8.68278E-03     1.61847E-03    -9.09287E-03     17.5982E-03    -8.62090E-03     1.62644E-03
            2227     2.67706E-03     12.5552E-03    -3.69662E+06    -46.9325E+06    -2.95638E+06     413.417E+03    -8.82648E-03     17.4045E-03    -8.57798E-03     1.13536E-03    -8.77263E-03     17.1794E-03    -8.51935E-03     1.14046E-03
            2228     1.78484E-03     12.5531E-03    -3.34982E+06    -46.0347E+06    -3.05659E+06     246.040E+03    -8.61388E-03     17.1195E-03    -8.50566E-03     696.516E-06    -8.55944E-03     16.8986E-03    -8.44933E-03     699.550E-06
            2229     892.447E-06     12.5520E-03    -3.17592E+06    -45.6094E+06    -3.10358E+06     102.858E+03    -8.50245E-03     16.9533E-03    -8.45087E-03     336.052E-06    -8.44756E-03     16.7346E-03    -8.39564E-03     337.294E-06
            2230     16.8441E-03     12.0262E-03    -6.63404E+06     132.368E+06     55.2063E+06     1.63546E+06    -40.7549E-03     55.8898E-03    -15.1349E-03     213.736E-03    -45.1625E-03     60.5841E-03    -15.0412E-03     215.648E-03
            2231     15.9724E-03     11.8797E-03    -8.77431E+06     77.5944E+06    -5.59652E+06     1.56101E+06    -30.4676E-03     44.5798E-03    -14.1123E-03     111.476E-03    -31.3073E-03     45.6806E-03    -14.2400E-03     111.432E-03
            2232     15.0923E-03     11.8107E-03    -5.77227E+06     35.9969E+06    -18.5674E+06     595.100E+03    -25.1169E-03     38.5344E-03    -13.4175E-03     56.8113E-03    -25.2695E-03     38.8483E-03    -13.5542E-03     56.7426E-03
            2233     14.2148E-03     11.7699E-03    -5.62485E+06    -2.36157E+06    -17.7897E+06     803.739E+03    -23.2259E-03     36.0769E-03    -12.8510E-03     37.7641E-03    -23.2548E-03     36.1291E-03    -12.9284E-03     37.7276E-03
            2234     13.3346E-03     11.7339E-03    -5.66002E+06    -36.1353E+06    -22.3999E+06     727.829E+03    -21.9115E-03     34.1700E-03    -12.2585E-03     31.5688E-03    -21.8715E-03     34.0467E-03    -12.3099E-03     31.5458E-03
            2235     12.4534E-03     11.7033E-03    -5.00397E+06    -45.1713E+06    -13.4222E+06     9.06067E+03    -20.2731E-03     31.9823E-03    -11.7092E-03     24.7729E-03    -20.2209E-03     31.7910E-03    -11.7035E-03     24.7536E-03
            2236     11.5705E-03     11.6788E-03    -4.34901E+06    -43.8769E+06    -6.99511E+06     191.407E+03    -18.5731E-03     29.7336E-03    -11.1605E-03     18.7238E-03    -18.5247E-03     29.5344E-03    -11.1255E-03     18.7145E-03
            2237     10.6863E-03     11.6591E-03    -3.89578E+06    -49.8194E+06    -4.26933E+06     118.035E+03    -16.9915E-03     27.6309E-03    -10.6394E-03     13.8795E-03    -16.9345E-03     27.3956E-03    -10.5828E-03     13.8734E-03
            2238     9.80078E-03     11.6435E-03    -4.40406E+06    -56.2657E+06    -694.818E+03     282.795E+03    -15.3935E-03     25.5613E-03    -10.1678E-03     10.1225E-03    -15.3339E-03     25.2884E-03    -10.0833E-03     10.1212E-03
            2239     8.91379E-03     11.6311E-03    -5.23138E+06    -59.8401E+06     1.44955E+06     1.60751E+06    -13.9124E-03     23.6496E-03    -9.73717E-03     7.31509E-03    -13.8544E-03     23.3564E-03    -9.63556E-03     7.33258E-03
            2240     8.02564E-03     11.6211E-03    -6.03918E+06    -59.1809E+06     2.33267E+06     2.17853E+06    -12.5921E-03     21.9405E-03    -9.34840E-03     5.20713E-03    -12.5401E-03     21.6503E-03    -9.24217E-03     5.23308E-03
            2241     7.13635E-03     11.6132E-03    -6.62629E+06    -55.9107E+06     151.539E+03     1.42211E+06    -11.4355E-03     20.4307E-03    -8.99522E-03     3.79022E-03    -11.3879E-03     20.1607E-03    -8.90378E-03     3.80715E-03
            2242     6.24608E-03     11.6066E-03    -6.80987E+06    -53.5320E+06    -2.07468E+06     852.910E+03    -10.4807E-03     19.1764E-03    -8.69567E-03     2.74751E-03    -10.4342E-03     18.9217E-03    -8.61855E-03     2.75754E-03
            2243     5.35505E-03     11.6014E-03    -6.66766E+06    -51.1606E+06    -3.16357E+06     566.942E+03    -9.70440E-03     18.1544E-03    -8.44998E-03     1.95059E-03    -9.65901E-03     17.9129E-03    -8.38194E-03     1.95722E-03
            2244     4.46339E-03     11.5970E-03    -6.50102E+06    -49.3085E+06    -4.11891E+06     187.083E+03    -9.07987E-03     17.3307E-03    -8.25083E-03     1.36231E-03    -9.03493E-03     17.0996E-03    -8.19050E-03     1.36425E-03
            2245     3.57122E-03     11.5937E-03    -6.30386E+06    -47.8544E+06    -4.87564E+06    -38.9227E+03    -8.60106E-03     16.6963E-03    -8.09524E-03     929.729E-06    -8.55613E-03     16.4732E-03    -8.04109E-03     928.892E-06
            2246     2.67872E-03     11.5911E-03    -6.09143E+06    -46.7297E+06    -5.35595E+06    -127.081E+03    -8.24748E-03     16.2282E-03    -7.98076E-03     618.836E-06    -8.20241E-03     16.0112E-03    -7.93094E-03     616.970E-06
            2247     1.78592E-03     11.5893E-03    -5.96721E+06    -45.9489E+06    -5.58784E+06    -112.917E+03    -8.01358E-03     15.9184E-03    -7.90482E-03     350.344E-06    -7.96869E-03     15.7054E-03    -7.85748E-03     348.746E-06
            2248     893.012E-06     11.5882E-03    -5.98436E+06    -45.6388E+06    -5.78952E+06    -98.6662E+03    -7.90882E-03     15.7494E-03    -7.84061E-03     156.537E-06    -7.86404E-03     15.5385E-03    -7.79471E-03     155.177E-06
            2249     16.8442E-03     11.0228E-03    -4.44634E+06     132.689E+06     56.3851E+06     2.11228E+06    -42.2762E-03     57.3868E-03    -15.1105E-03     205.152E-03    -46.4337E-03     61.8364E-03    -15.0146E-03     206.805E-03
            2250     15.9738E-03     10.8946E-03    -5.24320E+06     78.4480E+06    -4.63444E+06     1.01195E+06    -31.5935E-03     45.5752E-03    -13.9816E-03     103.017E-03    -32.3444E-03     46.5999E-03    -14.1109E-03     102.927E-03
            2251     15.0980E-03     10.8249E-03    -5.28525E+06     35.4646E+06    -18.4879E+06     1.46203E+06    -25.9143E-03     39.1234E-03    -13.2091E-03     52.0969E-03    -26.0529E-03     39.4230E-03    -13.3453E-03     52.0365E-03
            2252     14.2187E-03     10.7873E-03    -5.67115E+06    -2.23097E+06    -15.4869E+06     1.76777E+06    -23.8747E-03     36.4642E-03    -12.5895E-03     33.9245E-03    -23.9040E-03     36.5105E-03    -12.6555E-03     33.9003E-03
            2253     13.3393E-03     10.7526E-03    -5.53071E+06    -34.9794E+06    -19.7635E+06     1.09260E+06    -22.4995E-03     34.4328E-03    -11.9333E-03     27.9317E-03    -22.4623E-03     34.3093E-03    -11.9734E-03     27.9136E-03
            2254     12.4584E-03     10.7248E-03    -5.34386E+06    -44.6336E+06    -12.6259E+06     502.082E+03    -20.5668E-03     31.8843E-03    -11.3175E-03     21.1411E-03    -20.5170E-03     31.6939E-03    -11.3082E-03     21.1288E-03
            2255     11.5758E-03     10.7024E-03    -5.56321E+06    -43.9487E+06    -7.03792E+06    -78.3742E+03    -18.5857E-03     29.3075E-03    -10.7218E-03     15.5419E-03    -18.5426E-03     29.1092E-03    -10.6852E-03     15.5298E-03
            2256     10.6916E-03     10.6848E-03    -5.67169E+06    -49.6809E+06    -3.77459E+06     77.9849E+03    -16.7808E-03     26.9539E-03    -10.1731E-03     11.0331E-03    -16.7331E-03     26.7208E-03    -10.1118E-03     11.0270E-03
            2257     9.80577E-03     10.6715E-03    -6.33841E+06    -57.3434E+06     1.25184E+06     891.088E+03    -15.0702E-03     24.7603E-03    -9.69002E-03     7.64694E-03    -15.0214E-03     24.4818E-03    -9.59143E-03     7.65372E-03
            2258     8.91855E-03     10.6608E-03    -7.42047E+06    -60.6439E+06     1.51234E+06     1.56349E+06    -13.4823E-03     22.7190E-03    -9.23673E-03     5.36694E-03    -13.4341E-03     22.4248E-03    -9.13047E-03     5.38405E-03
            2259     8.02992E-03     10.6527E-03    -7.73473E+06    -58.4358E+06     1.18322E+06     1.45437E+06    -12.1144E-03     20.9463E-03    -8.83188E-03     3.72622E-03    -12.0703E-03     20.6638E-03    -8.73002E-03     3.74294E-03
            2260     7.14018E-03     10.6461E-03    -7.91938E+06    -54.9488E+06    -658.669E+03     949.198E+03    -10.9713E-03     19.4444E-03    -8.47313E-03     2.65611E-03    -10.9304E-03     19.1823E-03    -8.38526E-03     2.66696E-03
            2261     6.24951E-03     10.6408E-03    -8.36913E+06    -52.9310E+06    -3.33544E+06     269.480E+03    -10.0195E-03     18.1826E-03    -8.16315E-03     1.91844E-03    -9.97981E-03     17.9350E-03    -8.09094E-03     1.92094E-03
            2262     5.35807E-03     10.6364E-03    -8.56886E+06    -50.8151E+06    -4.72728E+06    -236.247E+03    -9.23460E-03     17.1398E-03    -7.90520E-03     1.33775E-03    -9.19695E-03     16.9051E-03    -7.84273E-03     1.33400E-03
            2263     4.46600E-03     10.6330E-03    -8.59558E+06    -49.0829E+06    -5.96330E+06    -407.872E+03    -8.59193E-03     16.2834E-03    -7.69147E-03     917.465E-06    -8.55512E-03     16.0591E-03    -7.63766E-03     911.692E-06
            2264     3.57338E-03     10.6302E-03    -8.67884E+06     -47.845E+06    -7.13335E+06    -514.627E+03    -8.08611E-03     15.6058E-03    -7.51967E-03     608.677E-06    -8.04980E-03     15.3895E-03    -7.47338E-03     601.670E-06
            2265     2.68037E-03     10.6282E-03    -8.75964E+06    -46.8718E+06    -7.86266E+06    -493.546E+03    -7.70433E-03     15.0930E-03    -7.38868E-03     376.262E-06    -7.66876E-03     14.8827E-03    -7.34733E-03     369.637E-06
            2266     1.78708E-03     10.6267E-03    -8.80605E+06    -46.2042E+06    -8.40993E+06    -332.414E+03    -7.43030E-03     14.7275E-03    -7.29720E-03     190.252E-06    -7.39513E-03     14.5214E-03    -7.25949E-03     185.795E-06
            2267     893.551E-06     10.6258E-03    -8.89013E+06    -45.8514E+06    -8.71603E+06    -148.250E+03    -7.30181E-03     14.5212E-03    -7.21941E-03     85.5695E-06    -7.26701E-03     14.3177E-03    -7.18362E-03     83.5597E-06
            2268     16.8504E-03     10.0318E-03    -3.19705E+06     131.617E+06     57.0727E+06     1.86706E+06    -43.1826E-03     58.1570E-03    -14.9745E-03     198.018E-03    -46.9964E-03     62.2619E-03    -14.8753E-03     199.408E-03
            2269     15.9762E-03     9.90116E-03    -5.18758E+06     78.6053E+06    -2.31223E+06     2.69273E+06    -32.1159E-03     45.9030E-03    -13.7872E-03     96.4732E-03    -32.7845E-03     46.8393E-03    -13.9052E-03     96.3850E-03
            2270     15.1018E-03     9.84160E-03    -7.34132E+06     35.6248E+06    -17.4659E+06     2.15920E+06    -26.9604E-03     39.9024E-03    -12.9420E-03     47.9816E-03    -27.1006E-03     40.1939E-03    -13.0703E-03     47.9276E-03
            2271     14.2238E-03     9.80335E-03    -6.13129E+06    -1.99215E+06    -15.6105E+06     2.04778E+06    -24.4755E-03     36.7171E-03    -12.2416E-03     31.5082E-03    -24.5041E-03     36.7623E-03    -12.3079E-03     31.4888E-03
            2272     13.3450E-03     9.77167E-03    -5.65283E+06    -33.9934E+06    -18.1423E+06     2.20611E+06    -22.8559E-03     34.3911E-03    -11.5351E-03     24.4572E-03    -22.8211E-03     34.2682E-03    -11.5684E-03     24.4547E-03
            2273     12.4643E-03     9.74622E-03    -6.28687E+06    -43.5101E+06    -10.3758E+06     1.30460E+06    -20.5900E-03     31.4683E-03    -10.8783E-03     17.8067E-03    -20.5487E-03     31.2805E-03    -10.8579E-03     17.8059E-03
            2274     11.5817E-03     9.72669E-03    -6.73201E+06    -43.2480E+06    -5.41941E+06     293.457E+03    -18.2833E-03     28.5375E-03    -10.2542E-03     12.7409E-03    -18.2488E-03     28.3415E-03    -10.2089E-03     12.7345E-03
            2275     10.6969E-03     9.71150E-03    -7.30235E+06    -50.1918E+06    -3.99595E+06     98.6945E+03    -16.2541E-03     25.9462E-03    -9.69209E-03     8.90127E-03    -16.2133E-03     25.7130E-03    -9.62871E-03     8.89603E-03
            2276     9.81072E-03     9.70018E-03    -7.79800E+06    -58.4335E+06     1.63800E+06     980.279E+03    -14.4736E-03     23.6923E-03    -9.21868E-03     5.94867E-03    -14.4310E-03     23.4098E-03    -9.11446E-03     5.95692E-03
            2277     8.92284E-03     9.69185E-03    -8.40252E+06    -60.2844E+06     2.73038E+06     1.27534E+06    -12.8629E-03     21.6419E-03    -8.77907E-03     4.14522E-03    -12.8218E-03     21.3492E-03    -8.66583E-03     4.15876E-03
            2278     8.03368E-03     9.68512E-03    -9.13924E+06    -57.6924E+06     75.1924E+03     640.369E+03    -11.5189E-03     19.8967E-03    -8.37784E-03     3.00174E-03    -11.4813E-03     19.6216E-03    -8.28055E-03     3.00802E-03
            2279     7.14345E-03     9.68009E-03    -9.48216E+06    -54.5123E+06    -1.78671E+06     207.428E+03    -10.4485E-03     18.4811E-03    -8.03259E-03     2.24345E-03    -10.4144E-03     18.2250E-03    -7.94873E-03     2.24472E-03
            2280     6.25236E-03     9.67583E-03    -9.62536E+06    -52.1655E+06    -3.95409E+06    -189.640E+03    -9.54837E-03     17.2804E-03    -7.73207E-03     1.74056E-03    -9.51522E-03     17.0394E-03    -7.66224E-03     1.73709E-03
            2281     5.36050E-03     9.67260E-03    -10.0243E+06    -50.6194E+06    -6.19239E+06    -686.591E+03    -8.79060E-03     16.2657E-03    -7.47507E-03     1.34477E-03    -8.75840E-03     16.0361E-03    -7.41810E-03     1.33516E-03
            2282     4.46801E-03     9.66987E-03    -10.4146E+06    -49.1809E+06    -7.70309E+06    -815.264E+03    -8.17815E-03     15.4388E-03    -7.26068E-03     1.03900E-03    -8.14778E-03     15.2192E-03    -7.21278E-03     1.02792E-03
            2283     3.57506E-03     9.66786E-03    -10.7152E+06    -48.0358E+06    -8.94294E+06    -729.794E+03    -7.68444E-03     14.7674E-03    -7.08301E-03     781.215E-06    -7.65541E-03     14.5558E-03    -7.04253E-03     771.388E-06
            2284     2.68167E-03     9.66620E-03    -11.0315E+06    -47.2345E+06    -9.96750E+06    -647.936E+03    -7.29244E-03     14.2331E-03    -6.94066E-03     543.706E-06    -7.26465E-03     14.0274E-03    -6.90602E-03     535.053E-06
            2285     1.78799E-03     9.66513E-03    -11.2322E+06    -46.6529E+06    -10.7302E+06    -481.891E+03    -6.99988E-03     13.8341E-03    -6.83417E-03     321.482E-06    -6.97282E-03     13.6326E-03    -6.80389E-03     315.071E-06
            2286     894.075E-06     9.66444E-03    -11.2515E+06    -46.1786E+06    -11.1697E+06    -164.946E+03    -6.83994E-03     13.5776E-03    -6.73762E-03     176.761E-06    -6.81291E-03     13.3794E-03    -6.71020E-03     174.526E-06
            2287     16.8498E-03     9.03466E-03    -4.93501E+06     129.464E+06     59.2427E+06     1.53269E+06    -45.0135E-03     59.8822E-03    -14.8687E-03     191.000E-03    -48.5198E-03     63.6596E-03    -14.7530E-03     192.111E-03
            2288     15.9815E-03     8.91120E-03    -5.63709E+06     78.4454E+06     3.60971E+06     2.95267E+06    -33.2472E-03     46.8367E-03    -13.5896E-03     90.4995E-03    -33.8590E-03     47.6971E-03    -13.6771E-03     90.3871E-03
            2289     15.1058E-03     8.85517E-03    -5.43427E+06     36.6314E+06    -13.2636E+06     3.47568E+06    -27.7290E-03     40.3820E-03    -12.6530E-03     43.3018E-03    -27.8559E-03     40.6584E-03    -12.7646E-03     43.2647E-03
            2290     14.2295E-03     8.81982E-03    -7.52996E+06    -1.84423E+06    -14.3320E+06     3.30048E+06    -25.1872E-03     37.0615E-03    -11.8744E-03     28.5009E-03    -25.2220E-03     37.1049E-03    -11.9324E-03     28.4982E-03
            2291     13.3508E-03     8.79054E-03    -8.65390E+06    -32.8592E+06    -17.6654E+06     3.02185E+06    -22.8802E-03     33.9931E-03    -11.1129E-03     21.2924E-03    -22.8606E-03     33.8776E-03    -11.1411E-03     21.3025E-03
            2292     12.4702E-03     8.76834E-03    -8.34660E+06    -41.5973E+06    -10.1259E+06     1.70304E+06    -20.1901E-03     30.6231E-03    -10.4330E-03     14.9842E-03    -20.1613E-03     30.4465E-03    -10.4112E-03     14.9902E-03
            2293     11.5869E-03     8.75190E-03    -8.41368E+06    -42.2924E+06    -4.31087E+06     306.051E+03    -17.6154E-03     27.4345E-03    -9.81911E-03     10.6866E-03    -17.5920E-03     27.2437E-03    -9.76714E-03     10.6814E-03
            2294     10.7017E-03     8.73922E-03    -8.58021E+06    -50.6734E+06    -3.19659E+06     172.500E+03    -15.4553E-03     24.7355E-03    -9.28026E-03     7.53375E-03    -15.4212E-03     24.5005E-03    -9.21032E-03     7.53006E-03
            2295     9.81457E-03     8.73019E-03    -9.11388E+06    -59.1151E+06     1.01547E+06     596.836E+03    -13.6353E-03     22.4714E-03    -8.83606E-03     5.13788E-03    -13.5973E-03     22.1883E-03    -8.73205E-03     5.14153E-03
            2296     8.92611E-03     8.72368E-03    -9.73261E+06    -59.7436E+06     2.88547E+06     655.369E+03    -12.1097E-03     20.5491E-03    -8.43943E-03     3.77977E-03    -12.0763E-03     20.2608E-03    -8.32426E-03     3.78543E-03
            2297     8.03628E-03     8.71877E-03    -10.1310E+06    -56.7199E+06     -438.47E+03     13.6189E+03    -10.8658E-03     18.9392E-03    -8.07340E-03     3.11146E-03    -10.8339E-03     18.6713E-03    -7.97866E-03     3.10969E-03
            2298     7.14548E-03     8.71477E-03    -10.4015E+06    -54.3163E+06    -3.21839E+06    -660.080E+03    -9.89010E-03     17.6524E-03    -7.76234E-03     2.65273E-03    -9.85886E-03     17.4008E-03    -7.68459E-03     2.64278E-03
            2299     6.25393E-03     8.71180E-03    -10.6901E+06    -51.9261E+06    -4.86275E+06    -776.100E+03    -9.09055E-03     16.5897E-03    -7.49915E-03     2.32519E-03    -9.06177E-03     16.3527E-03    -7.43267E-03     2.31412E-03
            2300     5.36169E-03     8.70935E-03    -11.0745E+06    -50.4765E+06    -6.92017E+06    -871.026E+03    -8.43065E-03     15.7031E-03    -7.27246E-03     2.04526E-03    -8.40287E-03     15.4769E-03    -7.21781E-03     2.03323E-03
            2301     4.46893E-03     8.70750E-03    -11.5517E+06    -49.4084E+06    -8.73240E+06    -994.601E+03    -7.89290E-03     14.9739E-03    -7.08097E-03     1.77312E-03    -7.86640E-03     14.7563E-03    -7.03624E-03     1.75970E-03
            2302     3.57570E-03     8.70597E-03    -11.9264E+06    -48.4080E+06    -9.98485E+06    -921.333E+03    -7.45740E-03     14.3799E-03    -6.92250E-03     1.47855E-03    -7.43238E-03     14.1697E-03    -6.88494E-03     1.46623E-03
            2303     2.68215E-03     8.70493E-03    -12.1906E+06    -47.6529E+06    -10.9971E+06    -745.152E+03    -7.10714E-03     13.9022E-03    -6.79511E-03     1.14922E-03    -7.08305E-03     13.6976E-03    -6.76332E-03     1.13930E-03
            2304     1.78827E-03     8.70417E-03    -12.4674E+06    -47.1693E+06    -11.7841E+06    -598.642E+03    -6.85075E-03     13.5492E-03    -6.69848E-03     787.638E-06    -6.82758E-03     13.3485E-03    -6.67093E-03     779.716E-06
            2305     894.198E-06     8.70380E-03    -12.6333E+06    -46.7971E+06    -12.2217E+06    -335.134E+03    -6.69787E-03     13.3112E-03    -6.61334E-03     445.029E-06    -6.67532E-03     13.1135E-03    -6.58827E-03     440.599E-06
            2306     16.8531E-03     8.03278E-03    -4.47595E+06     127.414E+06     58.6495E+06     917.758E+03    -46.8019E-03     61.5657E-03    -14.7638E-03     181.021E-03    -49.9603E-03     64.9914E-03    -14.6488E-03     181.821E-03
            2307     15.9845E-03     7.92029E-03    -6.15394E+06     76.6479E+06     4.79798E+06     3.19703E+06    -34.7678E-03     48.1399E-03    -13.3721E-03     83.3661E-03    -35.3220E-03     48.9312E-03    -13.4504E-03     83.2316E-03
            2308     15.1118E-03     7.86823E-03    -7.46522E+06     36.7649E+06    -11.0959E+06     5.90923E+06    -28.6137E-03     40.9600E-03    -12.3464E-03     39.1642E-03    -28.7430E-03     41.2260E-03    -12.4443E-03     39.1595E-03
            2309     14.2350E-03     7.83611E-03    -8.72037E+06     36.9045E+03    -12.3194E+06     5.79490E+06    -25.3111E-03     36.8198E-03    -11.5087E-03     25.5473E-03    -25.3545E-03     36.8683E-03    -11.5577E-03     25.5795E-03
            2310     13.3567E-03     7.80982E-03    -10.0113E+06    -30.9379E+06    -14.8795E+06     3.80298E+06    -22.4504E-03     33.1850E-03    -10.7346E-03     18.4613E-03    -22.4428E-03     33.0754E-03    -10.7496E-03     18.4842E-03
            2311     12.4751E-03     7.79181E-03    -10.8977E+06    -39.2695E+06    -7.95260E+06     1.90183E+06    -19.3162E-03     29.3856E-03    -10.0694E-03     12.7576E-03    -19.3060E-03     29.2205E-03    -10.0364E-03     12.7681E-03
            2312     11.5911E-03     7.77805E-03    -11.4354E+06    -40.7313E+06    -1.87105E+06     8.68220E+03    -16.5954E-03     26.0962E-03    -9.50077E-03     9.41627E-03    -16.5926E-03     25.9138E-03    -9.43449E-03     9.40823E-03
            2313     10.7048E-03     7.76837E-03    -11.3686E+06    -51.1461E+06    -1.87155E+06    -804.673E+03    -14.4002E-03     23.4165E-03    -9.01624E-03     7.01508E-03    -14.3813E-03     23.1811E-03    -8.93495E-03     6.99932E-03
            2314     9.81691E-03     7.76128E-03    -10.7430E+06    -59.5839E+06     311.142E+03    -333.015E+03    -12.6334E-03     21.2613E-03    -8.62791E-03     5.32611E-03    -12.6019E-03     20.9793E-03    -8.52438E-03     5.31809E-03
            2315     8.92742E-03     7.75672E-03    -10.5721E+06    -59.1726E+06     1.91194E+06    -392.508E+03    -11.2702E-03     19.5684E-03    -8.29818E-03     4.42630E-03    -11.2405E-03     19.2856E-03    -8.18749E-03     4.41860E-03
            2316     8.03697E-03     7.75304E-03    -10.6636E+06    -56.0672E+06    -1.03039E+06    -975.150E+03    -10.2078E-03     18.2089E-03    -8.00118E-03     4.10575E-03    -10.1786E-03     17.9459E-03    -7.90957E-03     4.09127E-03
            2317     7.14565E-03     7.75036E-03    -10.8860E+06    -54.1484E+06    -4.10739E+06    -1.25888E+06    -9.36960E-03     17.1237E-03    -7.75415E-03     3.85943E-03    -9.33977E-03     16.8750E-03    -7.68038E-03     3.84179E-03
            2318     6.25361E-03     7.74814E-03    -11.2086E+06    -52.1703E+06    -5.76667E+06    -1.34328E+06    -8.72907E-03     16.2828E-03    -7.55369E-03     3.60931E-03    -8.70125E-03     16.0467E-03    -7.49062E-03     3.59093E-03
            2319     5.36112E-03     7.74655E-03    -11.4689E+06    -50.6127E+06    -7.02269E+06    -1.23892E+06    -8.22805E-03     15.6149E-03    -7.38686E-03     3.30844E-03    -8.20192E-03     15.3888E-03    -7.33195E-03     3.29166E-03
            2320     4.46819E-03     7.74522E-03    -11.7183E+06    -49.6056E+06    -8.52311E+06    -1.24061E+06    -7.81593E-03     15.0629E-03    -7.24699E-03     2.95253E-03    -7.79030E-03     14.8443E-03    -7.20068E-03     2.93594E-03
            2321     3.57496E-03     7.74430E-03    -11.9310E+06    -48.8676E+06    -9.85426E+06    -1.25286E+06    -7.48427E-03     14.6197E-03    -7.13543E-03     2.52094E-03    -7.45881E-03     14.4070E-03    -7.09654E-03     2.50436E-03
            2322     2.68141E-03     7.74357E-03    -11.9818E+06    -48.2256E+06    -10.7083E+06    -1.07466E+06    -7.23952E-03     14.2920E-03    -7.05252E-03     1.99781E-03    -7.21398E-03     14.0838E-03    -7.01876E-03     1.98366E-03
            2323     1.78771E-03     7.74319E-03    -12.0142E+06    -47.8433E+06    -11.3501E+06    -747.677E+03    -7.07744E-03     14.0719E-03    -6.99444E-03     1.40511E-03    -7.05167E-03     13.8665E-03    -6.96440E-03     1.39529E-03
            2324     893.905E-06     7.74288E-03    -12.0861E+06    -47.5914E+06    -11.6886E+06    -605.609E+03    -6.98422E-03     13.9389E-03    -6.95464E-03     756.558E-06    -6.95857E-03     13.7356E-03    -6.92655E-03     748.643E-06
            2325     16.8547E-03     7.03326E-03    -3.96455E+06     124.604E+06     57.0696E+06     1.59274E+06    -48.2836E-03     62.9474E-03    -14.6638E-03     173.212E-03    -51.1000E-03     66.0275E-03    -14.5534E-03     173.764E-03
            2326     15.9881E-03     6.92508E-03    -7.88762E+06     73.3821E+06     5.86024E+06     5.13558E+06    -36.6107E-03     49.7854E-03    -13.1747E-03     75.6228E-03    -37.1051E-03     50.4961E-03    -13.2404E-03     75.4872E-03
            2327     15.1162E-03     6.88188E-03    -10.2297E+06     36.7056E+06    -7.96567E+06     7.46945E+06    -29.1923E-03     41.2571E-03    -12.0647E-03     33.6029E-03    -29.3288E-03     41.5112E-03    -12.1430E-03     33.6214E-03
            2328     14.2400E-03     6.85226E-03    -11.6958E+06     2.12484E+06    -10.3342E+06     7.51566E+06    -24.7582E-03     35.9535E-03    -11.1952E-03     22.7600E-03    -24.8194E-03     36.0109E-03    -11.2330E-03     22.8191E-03
            2329     13.3606E-03     6.83058E-03    -13.5780E+06    -27.4923E+06    -11.5859E+06     5.58561E+06    -21.3904E-03     31.8463E-03    -10.4559E-03     15.9071E-03    -21.4090E-03     31.7529E-03    -10.4543E-03     15.9563E-03
            2330     12.4784E-03     6.81625E-03    -14.6648E+06    -35.7053E+06    -4.86436E+06     1.72008E+06    -17.9778E-03     27.8295E-03    -9.85175E-03     11.3006E-03    -17.9955E-03     27.6827E-03    -9.80304E-03     11.3106E-03
            2331     11.5931E-03     6.80591E-03    -14.2906E+06    -38.6287E+06     1.22951E+06    -1.36145E+06    -15.1900E-03     24.5593E-03    -9.36934E-03     9.20992E-03    -15.2090E-03     24.3870E-03    -9.28646E-03     9.18522E-03
            2332     10.7057E-03     6.79855E-03    -13.6145E+06    -51.3315E+06     573.326E+03    -2.51241E+06    -13.1189E-03     22.1008E-03    -8.98189E-03     7.65886E-03    -13.1145E-03     21.8642E-03    -8.88485E-03     7.62164E-03
            2333     9.81652E-03     6.79377E-03    -12.9216E+06    -60.2910E+06     226.949E+03    -2.46029E+06    -11.5795E-03     20.2613E-03    -8.68180E-03     6.67878E-03    -11.5578E-03     19.9791E-03    -8.57451E-03     6.64370E-03
            2334     8.92628E-03     6.79037E-03    -11.8315E+06    -58.9287E+06     429.735E+03    -2.22606E+06    -10.4751E-03     18.9139E-03    -8.43876E-03     6.14141E-03    -10.4500E-03     18.6363E-03    -8.33401E-03     6.11025E-03
            2335     8.03514E-03     6.78803E-03    -11.3255E+06    -56.1908E+06    -1.92788E+06    -2.07179E+06    -9.66486E-03     17.8990E-03    -8.23411E-03     5.89968E-03    -9.63756E-03     17.6376E-03    -8.14585E-03     5.87116E-03
            2336     7.14334E-03     6.78610E-03    -11.3339E+06    -54.1899E+06    -4.09932E+06    -2.02614E+06    -9.05400E-03     17.1275E-03    -8.07353E-03     5.66126E-03    -9.02639E-03     16.8792E-03    -7.99901E-03     5.63380E-03
            2337     6.25112E-03     6.78466E-03    -11.2405E+06    -52.4648E+06    -5.47795E+06    -2.12713E+06    -8.61251E-03     16.5624E-03    -7.94985E-03     5.30670E-03    -8.58485E-03     16.3244E-03    -7.88487E-03     5.27827E-03
            2338     5.35854E-03     6.78344E-03    -10.9949E+06    -51.0541E+06    -6.41084E+06    -2.08482E+06    -8.28886E-03     16.1428E-03    -7.85399E-03     4.81732E-03    -8.26062E-03     15.9129E-03    -7.79607E-03     4.78969E-03
            2339     4.46576E-03     6.78265E-03    -10.7387E+06    -50.0047E+06    -7.26970E+06    -1.92440E+06    -8.04096E-03     15.8216E-03    -7.78062E-03     4.23472E-03    -8.01167E-03     15.5977E-03    -7.72889E-03     4.20935E-03
            2340     3.57273E-03     6.78196E-03    -10.5771E+06    -49.3791E+06    -8.25453E+06    -1.81253E+06    -7.86156E-03     15.5889E-03    -7.72737E-03     3.56331E-03    -7.83092E-03     15.3693E-03    -7.68170E-03     3.53955E-03
            2341     2.67961E-03     6.78156E-03    -10.4323E+06    -49.0799E+06    -9.14500E+06    -1.60696E+06    -7.74975E-03     15.4422E-03    -7.69242E-03     2.77280E-03    -7.71751E-03     15.2251E-03    -7.65185E-03     2.75181E-03
            2342     1.78641E-03     6.78117E-03    -10.1247E+06    -48.8674E+06    -9.74728E+06    -1.14264E+06    -7.68508E-03     15.3592E-03    -7.67413E-03     1.91010E-03    -7.65072E-03     15.1437E-03    -7.63733E-03     1.89520E-03
            2343     893.169E-06     6.78108E-03    -9.88531E+06    -48.6074E+06    -9.95698E+06    -682.253E+03    -7.67641E-03     15.3383E-03    -7.66184E-03     1.04470E-03    -7.64081E-03     15.1242E-03    -7.62681E-03     1.03581E-03
            2344     16.8534E-03     6.02664E-03    -3.68399E+06     121.712E+06     60.8847E+06     3.60669E+06    -51.0013E-03     65.5475E-03    -14.5461E-03     160.489E-03    -53.4777E-03     68.2677E-03    -14.4129E-03     160.746E-03
            2345     15.9920E-03     5.92867E-03    -7.64358E+06     71.1138E+06     11.2438E+06     6.11977E+06    -37.0361E-03     49.9787E-03    -12.9426E-03     63.1348E-03    -37.4512E-03     50.5876E-03    -12.9784E-03     63.0053E-03
            2346     15.1212E-03     5.89511E-03    -11.2492E+06     34.7292E+06    -6.46659E+06     9.53076E+06    -28.2888E-03     40.0886E-03    -11.7998E-03     26.9294E-03    -28.4187E-03     40.3212E-03    -11.8662E-03     26.9832E-03
            2347     14.2436E-03     5.87026E-03    -15.7236E+06     4.02909E+06    -8.49933E+06     10.7808E+06    -23.3216E-03     34.3033E-03    -10.9816E-03     20.0756E-03    -23.4058E-03     34.3709E-03    -11.0071E-03     20.1823E-03
            2348     13.3630E-03     5.85242E-03    -18.2374E+06    -20.6212E+06    -7.43370E+06     6.29629E+06    -19.4451E-03     29.7869E-03    -10.3418E-03     14.2442E-03    -19.5017E-03     29.7273E-03    -10.3226E-03     14.3067E-03
            2349     12.4788E-03     5.84273E-03    -17.5370E+06    -30.0885E+06    -1.19401E+06    -427.838E+03    -16.0422E-03     25.9022E-03    -9.86005E-03     11.3154E-03    -16.0874E-03     25.7820E-03    -9.79697E-03     11.2999E-03
            2350     11.5919E-03     5.83510E-03    -15.9165E+06    -37.0131E+06     4.34307E+06    -4.22933E+06    -13.5415E-03     23.0552E-03    -9.51364E-03     10.5927E-03    -13.5755E-03     22.8887E-03    -9.41518E-03     10.5320E-03
            2351     10.7030E-03     5.83022E-03    -14.7891E+06    -51.8864E+06     3.29011E+06    -4.70115E+06    -11.8643E-03     21.1207E-03    -9.25641E-03     9.65481E-03    -11.8689E-03     20.8791E-03    -9.14328E-03     9.59003E-03
            2352     9.81286E-03     5.82682E-03    -14.0729E+06    -60.5622E+06     835.259E+03    -4.70601E+06    -10.7289E-03     19.7916E-03    -9.06274E-03     8.98976E-03    -10.7134E-03     19.5088E-03    -8.95034E-03     8.92613E-03
            2353     8.92186E-03     5.82458E-03    -13.4001E+06    -59.8238E+06    -1.61583E+06    -4.59267E+06    -9.97433E-03     18.8858E-03    -8.91148E-03     8.49135E-03    -9.95275E-03     18.6090E-03    -8.81338E-03     8.42994E-03
            2354     8.03039E-03     5.82290E-03    -12.3466E+06    -57.0222E+06    -2.58947E+06    -3.82751E+06    -9.47205E-03     18.2752E-03    -8.80312E-03     8.03654E-03    -9.44770E-03     18.0121E-03    -8.71549E-03     7.98556E-03
            2355     7.13856E-03     5.82160E-03    -11.3137E+06    -54.4739E+06    -3.06414E+06    -3.52666E+06    -9.12644E-03     17.8525E-03    -8.72604E-03     7.54604E-03    -9.09982E-03     17.6012E-03    -8.64597E-03     7.49936E-03
            2356     6.24647E-03     5.82046E-03    -10.4546E+06    -52.8435E+06    -3.94861E+06    -3.61632E+06    -8.88640E-03     17.5570E-03    -8.67062E-03     6.89290E-03    -8.85649E-03     17.3138E-03    -8.59858E-03     6.84537E-03
            2357     5.35423E-03     5.81960E-03    -9.58233E+06    -51.7902E+06    -4.98097E+06    -3.55542E+06    -8.72575E-03     17.3592E-03    -8.63340E-03     6.10931E-03    -8.69146E-03     17.1214E-03    -8.56932E-03     6.06279E-03
            2358     4.46185E-03     5.81891E-03    -8.73527E+06    -50.9643E+06    -5.56938E+06    -3.14818E+06    -8.63882E-03     17.2513E-03    -8.61250E-03     5.22018E-03    -8.60060E-03     17.0173E-03    -8.55379E-03     5.17909E-03
            2359     3.56948E-03     5.81842E-03    -8.13294E+06    -50.2487E+06    -5.84439E+06    -2.66217E+06    -8.59809E-03     17.2007E-03    -8.60263E-03     4.28281E-03    -8.55748E-03     16.9697E-03    -8.54720E-03     4.24813E-03
            2360     2.67710E-03     5.81795E-03    -7.81841E+06    -50.2491E+06    -6.72550E+06    -2.19903E+06    -8.58537E-03     17.1820E-03    -8.59666E-03     3.26429E-03    -8.54189E-03     16.9518E-03    -8.54609E-03     3.23569E-03
            2361     1.78472E-03     5.81773E-03    -7.59321E+06    -50.2917E+06    -7.35353E+06    -1.58288E+06    -8.58480E-03     17.1808E-03    -8.59596E-03     2.21419E-03    -8.53920E-03     16.9509E-03    -8.54879E-03     2.19362E-03
            2362     892.368E-06     5.81746E-03    -7.36984E+06    -50.0962E+06    -7.35085E+06    -769.711E+03    -8.58883E-03     17.1950E-03    -8.60614E-03     1.22889E-03    -8.54227E-03     16.9660E-03    -8.55957E-03     1.21888E-03
            2363     16.8657E-03     5.01862E-03    -3.99587E+06     118.141E+06     68.7832E+06     3.87239E+06    -54.2298E-03     68.6478E-03    -14.4180E-03     146.167E-03    -56.3293E-03     70.9558E-03    -14.2396E-03     146.049E-03
            2364     15.9997E-03     4.93529E-03    -8.21699E+06     66.9988E+06     22.7281E+06     10.3102E+06    -35.4526E-03     48.2068E-03    -12.7542E-03     53.0370E-03    -35.7988E-03     48.6972E-03    -12.7258E-03     52.9897E-03
            2365     15.1239E-03     4.91033E-03    -16.1971E+06     30.9163E+06    -3.31031E+06     15.6938E+06    -25.8649E-03     37.5317E-03    -11.6667E-03     23.2489E-03    -26.0093E-03     37.7383E-03    -11.7046E-03     23.3973E-03
            2366     14.2451E-03     4.88961E-03    -21.4410E+06     10.6115E+06    -4.06984E+06     13.7392E+06    -20.6924E-03     31.6760E-03    -10.9836E-03     19.2499E-03    -20.8190E-03     31.7763E-03    -10.9883E-03     19.4017E-03
            2367     13.3616E-03     4.87744E-03    -21.5151E+06    -9.02074E+06    -846.805E+03     3.54492E+06    -16.6796E-03     27.1974E-03    -10.5177E-03     15.3074E-03    -16.7780E-03     27.1901E-03    -10.4777E-03     15.3390E-03
            2368     12.4748E-03     4.87078E-03    -18.1997E+06    -24.6428E+06     3.62236E+06    -5.24318E+06    -13.9728E-03     24.1845E-03    -10.2116E-03     13.7286E-03    -14.0360E-03     24.0852E-03    -10.1314E-03     13.6530E-03
            2369     11.5861E-03     4.86593E-03    -15.7587E+06    -37.2271E+06     7.86742E+06    -7.27808E+06    -12.2361E-03     22.2544E-03    -10.0183E-03     13.3585E-03    -12.2739E-03     22.0814E-03    -9.90212E-03     13.2596E-03
            2370     10.6962E-03     4.86223E-03    -15.2452E+06    -52.7061E+06     6.02089E+06    -7.05702E+06    -11.1205E-03     21.0030E-03    -9.88252E-03     12.3423E-03    -11.1300E-03     20.7539E-03    -9.75389E-03     12.2478E-03
            2371     9.80559E-03     4.86013E-03    -14.5159E+06    -60.9291E+06     962.648E+03    -7.15417E+06    -10.4471E-03     20.2223E-03    -9.77518E-03     11.4703E-03    -10.4334E-03     19.9380E-03    -9.66097E-03     11.3755E-03
            2372     8.91453E-03     4.85827E-03    -13.2138E+06    -61.1706E+06    -3.09289E+06    -6.90542E+06    -10.0571E-03     19.7531E-03    -9.69598E-03     10.6086E-03    -10.0305E-03     19.4713E-03    -9.60359E-03     10.5177E-03
            2373     8.02324E-03     4.85710E-03    -11.7279E+06    -58.1902E+06    -2.91939E+06    -6.50516E+06    -9.82512E-03     19.4804E-03    -9.65528E-03     9.74349E-03    -9.79548E-03     19.2110E-03    -9.56850E-03     9.65818E-03
            2374     7.13180E-03     4.85589E-03    -9.80372E+06    -55.2562E+06    -2.12191E+06    -6.18844E+06    -9.68753E-03     19.3194E-03    -9.63184E-03     8.85237E-03    -9.65358E-03     19.0605E-03    -9.54811E-03     8.77151E-03
            2375     6.24034E-03     4.85502E-03    -7.96819E+06    -53.7830E+06    -2.67233E+06    -5.78854E+06    -9.60139E-03     19.2165E-03    -9.61508E-03     7.83839E-03    -9.55953E-03     18.9631E-03    -9.53890E-03     7.76295E-03
            2376     5.34879E-03     4.85418E-03    -6.71124E+06    -53.0975E+06    -3.57807E+06    -5.23066E+06    -9.56166E-03     19.1690E-03    -9.60733E-03     6.76204E-03    -9.51315E-03     18.9185E-03    -9.53849E-03     6.69399E-03
            2377     4.45728E-03     4.85355E-03    -5.79463E+06    -52.5201E+06    -3.97878E+06    -4.52784E+06    -9.56013E-03     19.1681E-03    -9.60795E-03     5.64195E-03    -9.50727E-03     18.9197E-03    -9.54329E-03     5.58311E-03
            2378     3.56577E-03     4.85297E-03    -5.11739E+06    -51.9254E+06    -3.83005E+06    -3.58571E+06    -9.57461E-03     19.1881E-03    -9.61352E-03     4.53129E-03    -9.51941E-03     18.9414E-03    -9.54995E-03     4.48472E-03
            2379     2.67430E-03     4.85257E-03    -4.86345E+06    -51.8888E+06    -4.15212E+06    -2.60743E+06    -9.59436E-03     19.2122E-03    -9.61785E-03     3.40709E-03    -9.53745E-03     18.9658E-03    -9.55632E-03     3.37323E-03
            2380     1.78286E-03     4.85222E-03    -4.93774E+06    -51.9674E+06    -4.39270E+06    -1.87232E+06    -9.61534E-03     19.2352E-03    -9.61982E-03     2.30061E-03    -9.55833E-03     18.9888E-03    -9.55927E-03     2.27632E-03
            2381     891.424E-06     4.85206E-03    -4.90559E+06    -52.0085E+06    -4.53588E+06    -1.12798E+06    -9.60876E-03     19.2359E-03    -9.62711E-03     1.25741E-03    -9.55116E-03     18.9897E-03    -9.56726E-03     1.24279E-03
            2382     16.8608E-03     4.00472E-03    -6.41807E+06     109.636E+06     63.2739E+06     5.83149E+06    -54.5247E-03     68.9264E-03    -14.4017E-03     128.467E-03    -56.1522E-03     70.7406E-03    -14.2350E-03     128.157E-03
            2383     15.9988E-03     3.94637E-03    -13.6536E+06     58.1182E+06     28.0711E+06     15.4294E+06    -33.2401E-03     46.0617E-03    -12.8216E-03     45.0091E-03    -33.5426E-03     46.4422E-03    -12.7457E-03     45.0686E-03
            2384     15.1231E-03     3.92654E-03    -18.0310E+06     32.3998E+06     13.8959E+06     20.3468E+06    -22.7315E-03     34.6538E-03    -11.9222E-03     23.4916E-03    -22.9055E-03     34.8390E-03    -11.8736E-03     23.7161E-03
            2385     14.2404E-03     3.91334E-03    -18.9435E+06     23.7563E+06     9.43124E+06     12.2885E+06    -17.4571E-03     28.8595E-03    -11.4024E-03     21.7920E-03    -17.6079E-03     29.0003E-03    -11.3622E-03     21.9327E-03
            2386     13.3535E-03     3.90443E-03    -16.6093E+06     4.93019E+06     8.07925E+06    -1.46559E+06    -14.4245E-03     25.5368E-03    -11.1123E-03     18.9270E-03    -14.5306E-03     25.5781E-03    -11.0550E-03     18.8980E-03
            2387     12.4651E-03     3.90048E-03    -14.9495E+06    -22.0472E+06     7.19316E+06    -9.06139E+06    -12.8872E-03     23.8426E-03    -10.9554E-03     17.1625E-03    -12.9426E-03     23.7458E-03    -10.8658E-03     17.0395E-03
            2388     11.5758E-03     3.89635E-03    -15.0699E+06    -39.0683E+06     7.86309E+06    -9.46492E+06    -11.9286E-03     22.7907E-03    -10.8622E-03     15.9964E-03    -11.9600E-03     22.6072E-03    -10.7443E-03     15.8703E-03
            2389     10.6860E-03     3.89421E-03    -14.7207E+06    -52.8839E+06     5.10310E+06    -9.51725E+06    -11.2821E-03     22.0763E-03    -10.7942E-03     14.4684E-03    -11.2873E-03     21.8266E-03    -10.6707E-03     14.3428E-03
            2390     9.79562E-03     3.89211E-03    -13.4048E+06    -61.9289E+06    -903.560E+03    -10.0928E+06    -10.9855E-03     21.7184E-03    -10.7329E-03     13.1118E-03    -10.9620E-03     21.4300E-03    -10.6282E-03     12.9796E-03
            2391     8.90525E-03     3.89085E-03    -11.2300E+06    -62.4740E+06    -4.35366E+06    -9.93415E+06    -10.8362E-03     21.5229E-03    -10.6867E-03     11.7096E-03    -10.7959E-03     21.2334E-03    -10.6016E-03     11.5799E-03
            2392     8.01472E-03     3.88953E-03    -8.46336E+06    -59.4407E+06    -4.06602E+06    -9.72863E+06    -10.7414E-03     21.4038E-03    -10.6623E-03     10.4278E-03    -10.6919E-03     21.1249E-03    -10.5842E-03     10.3011E-03
            2393     7.12425E-03     3.88856E-03    -6.01543E+06    -57.0408E+06    -3.50454E+06    -9.10976E+06    -10.6892E-03     21.3362E-03    -10.6470E-03     9.16066E-03    -10.6317E-03     21.0649E-03    -10.5731E-03     9.04228E-03
            2394     6.23367E-03     3.88759E-03    -4.27006E+06    -55.9446E+06    -3.44493E+06    -7.82190E+06    -10.6612E-03     21.2973E-03    -10.6361E-03     7.89945E-03    -10.5966E-03     21.0288E-03    -10.5660E-03     7.79788E-03
            2395     5.34318E-03     3.88684E-03    -3.12038E+06    -55.1455E+06    -3.04496E+06    -6.44177E+06    -10.6475E-03     21.2780E-03    -10.6305E-03     6.66472E-03    -10.5788E-03     21.0112E-03    -10.5613E-03     6.58112E-03
            2396     4.45263E-03     3.88612E-03    -2.56751E+06    -54.6197E+06    -2.77383E+06    -5.28947E+06    -10.6374E-03     21.2645E-03    -10.6271E-03     5.47885E-03    -10.5671E-03     20.9991E-03    -10.5580E-03     5.41023E-03
            2397     3.56211E-03     3.88558E-03    -2.32686E+06    -54.3042E+06    -2.58147E+06    -4.05372E+06    -10.6312E-03     21.2563E-03    -10.6251E-03     4.33396E-03    -10.5604E-03     20.9919E-03    -10.5559E-03     4.28138E-03
            2398     2.67158E-03     3.88509E-03    -2.13815E+06    -53.9018E+06    -2.04181E+06    -2.83193E+06    -10.6277E-03     21.2530E-03    -10.6253E-03     3.23040E-03    -10.5573E-03     20.9895E-03    -10.5543E-03     3.19366E-03
            2399     1.78105E-03     3.88479E-03    -2.13691E+06    -53.7855E+06    -1.88625E+06    -1.92710E+06    -10.6286E-03     21.2519E-03    -10.6234E-03     2.16422E-03    -10.5585E-03     20.9888E-03    -10.5517E-03     2.13924E-03
            2400     890.549E-06     3.88455E-03    -2.37814E+06    -54.1173E+06    -2.41425E+06    -1.25835E+06    -10.6134E-03     21.2397E-03    -10.6263E-03     1.17205E-03    -10.5431E-03     20.9762E-03    -10.5564E-03     1.15576E-03
            2401     16.8629E-03     2.99727E-03    -5.79498E+06     99.6601E+06     57.9451E+06     11.1900E+06    -51.0747E-03     65.6823E-03    -14.6076E-03     103.962E-03    -52.1699E-03     66.9477E-03    -14.4539E-03     103.693E-03
            2402     15.9929E-03     2.95582E-03    -12.9819E+06     53.0458E+06     32.2388E+06     16.8813E+06    -28.3972E-03     41.6618E-03    -13.2645E-03     37.0222E-03    -28.6454E-03     41.9600E-03    -13.1614E-03     37.1514E-03
            2403     15.1128E-03     2.94839E-03    -12.4174E+06     38.5809E+06     30.2685E+06     15.5472E+06    -19.4821E-03     32.1331E-03    -12.6511E-03     25.6238E-03    -19.6555E-03     32.3121E-03    -12.5377E-03     25.7994E-03
            2404     14.2265E-03     2.93821E-03    -6.50358E+06     38.1881E+06     24.1590E+06     6.24587E+06    -15.8085E-03     28.0988E-03    -12.2903E-03     25.2785E-03    -15.9373E-03     28.2701E-03    -12.2155E-03     25.3467E-03
            2405     13.3394E-03     2.93265E-03    -4.76080E+06     15.0858E+06     11.5167E+06    -3.04626E+06    -14.1645E-03     26.2336E-03    -12.0691E-03     21.5057E-03    -14.2297E-03     26.3021E-03    -12.0265E-03     21.4592E-03
            2406     12.4512E-03     2.92865E-03    -8.11681E+06    -20.4842E+06     2.88155E+06    -8.12786E+06    -13.3739E-03     25.3284E-03    -11.9545E-03     18.7326E-03    -13.3905E-03     25.2350E-03    -11.8987E-03     18.6232E-03
            2407     11.5628E-03     2.92606E-03    -10.0992E+06    -39.7282E+06    -829.396E+03    -10.5853E+06    -12.7820E-03     24.6564E-03    -11.8744E-03     16.5472E-03    -12.7747E-03     24.4745E-03    -11.8063E-03     16.4075E-03
            2408     10.6737E-03     2.92405E-03    -9.49635E+06    -53.0994E+06    -5.47345E+06    -11.7693E+06    -12.4124E-03     24.2164E-03    -11.8040E-03     14.6391E-03    -12.3755E-03     23.9730E-03    -11.7406E-03     14.4851E-03
            2409     9.78468E-03     2.92240E-03    -7.81372E+06    -62.6644E+06    -10.2610E+06    -12.5692E+06    -12.2652E-03     24.0051E-03    -11.7399E-03     12.8155E-03    -12.1989E-03     23.7182E-03    -11.6890E-03     12.6518E-03
            2410     8.89545E-03     2.92106E-03    -5.44103E+06    -63.9853E+06    -10.8346E+06    -12.8913E+06    -12.1295E-03     23.8199E-03    -11.6904E-03     11.1176E-03    -12.0485E-03     23.5238E-03    -11.6439E-03     10.9501E-03
            2411     8.00626E-03     2.91998E-03    -3.12013E+06    -61.5404E+06    -9.89393E+06    -12.1359E+06    -12.0172E-03     23.6656E-03    -11.6484E-03     9.65520E-03    -11.9294E-03     23.3769E-03    -11.6041E-03     9.49771E-03
            2412     7.11684E-03     2.91897E-03    -1.55875E+06    -60.0999E+06    -8.87067E+06    -10.4835E+06    -11.9216E-03     23.5351E-03    -11.6135E-03     8.28133E-03    -11.8295E-03     23.2498E-03    -11.5685E-03     8.14538E-03
            2413     6.22747E-03     2.91812E-03    -729.128E+03    -59.1303E+06    -6.63623E+06    -8.42505E+06    -11.8346E-03     23.4246E-03    -11.5900E-03     7.00721E-03    -11.7430E-03     23.1397E-03    -11.5364E-03     6.89797E-03
            2414     5.33795E-03     2.91735E-03    -476.405E+03    -57.8995E+06    -4.50465E+06    -6.53890E+06    -11.7540E-03     23.3238E-03    -11.5698E-03     5.83336E-03    -11.6660E-03     23.0415E-03    -11.5077E-03     5.74858E-03
            2415     4.44842E-03     2.91673E-03    -617.347E+03    -57.1433E+06    -2.92658E+06    -4.94331E+06    -11.6830E-03     23.2342E-03    -11.5513E-03     4.74098E-03    -11.5990E-03     22.9536E-03    -11.4822E-03     4.67689E-03
            2416     3.55882E-03     2.91619E-03    -1.12524E+06    -56.7274E+06    -2.39719E+06    -3.60210E+06    -11.6188E-03     23.1509E-03    -11.5321E-03     3.72020E-03    -11.5388E-03     22.8724E-03    -11.4602E-03     3.67349E-03
            2417     2.66916E-03     2.91578E-03    -1.62859E+06    -55.8629E+06    -2.74197E+06    -2.56510E+06    -11.5645E-03     23.0766E-03    -11.5121E-03     2.75857E-03    -11.4877E-03     22.8036E-03    -11.4424E-03     2.72531E-03
            2418     1.77947E-03     2.91544E-03    -1.67969E+06    -55.6393E+06    -2.85350E+06    -1.74811E+06    -11.5226E-03     23.0223E-03    -11.4997E-03     1.83738E-03    -11.4462E-03     22.7506E-03    -11.4308E-03     1.81472E-03
            2419     889.715E-06     2.91529E-03    -1.38960E+06    -56.1758E+06    -2.06614E+06    -874.458E+03    -11.4901E-03     23.0044E-03    -11.5144E-03     983.326E-06    -11.4124E-03     22.7288E-03    -11.4412E-03     971.957E-06
            2420     16.8543E-03     1.99560E-03    -2.58718E+06     89.6484E+06     59.2459E+06     13.4823E+06    -44.3399E-03     59.5847E-03    -15.2448E-03     82.9553E-03    -44.9975E-03     60.3851E-03    -15.0748E-03     82.8240E-03
            2421     15.9781E-03     1.97422E-03    -4.74154E+06     54.7317E+06     43.7567E+06     16.9296E+06    -24.0155E-03     38.2420E-03    -14.2265E-03     36.2201E-03    -24.2109E-03     38.4885E-03    -14.0802E-03     36.3935E-03
            2422     15.0930E-03     1.97009E-03    -1.13968E+06     48.6841E+06     39.0390E+06     6.58993E+06    -19.0842E-03     32.8501E-03    -13.7659E-03     27.2587E-03    -19.2241E-03     33.0454E-03    -13.6397E-03     27.3274E-03
            2423     14.2090E-03     1.96244E-03     3.42110E+06     44.3658E+06     24.3203E+06     359.340E+03    -17.2145E-03     30.6187E-03    -13.4042E-03     24.4461E-03    -17.3004E-03     30.8035E-03    -13.3519E-03     24.4421E-03
            2424     13.3230E-03     1.95815E-03     2.95822E+06     19.0686E+06     4.74411E+06    -578.896E+03    -15.8107E-03     28.9405E-03    -13.1298E-03     19.5251E-03    -15.8320E-03     29.0260E-03    -13.1380E-03     19.5128E-03
            2425     12.4369E-03     1.95486E-03     1.13123E+06    -15.5380E+06    -8.72481E+06    -5.33650E+06    -14.9684E-03     27.9227E-03    -12.9543E-03     16.3247E-03    -14.9285E-03     27.8568E-03    -12.9770E-03     16.2526E-03
            2426     11.5498E-03     1.95323E-03     372.846E+03    -38.7359E+06    -17.4535E+06    -10.1212E+06    -14.4651E-03     27.2801E-03    -12.8150E-03     13.8848E-03    -14.3823E-03     27.1115E-03    -12.8466E-03     13.7520E-03
            2427     10.6626E-03     1.95145E-03     352.521E+03    -53.6306E+06    -21.0840E+06    -11.6190E+06    -14.1015E-03     26.8070E-03    -12.7055E-03     11.8885E-03    -13.9917E-03     26.5691E-03    -12.7336E-03     11.7370E-03
            2428     9.77495E-03     1.95010E-03     418.506E+03    -62.9147E+06    -23.4955E+06    -12.3895E+06    -13.7723E-03     26.3794E-03    -12.6071E-03     10.1220E-03    -13.6451E-03     26.0984E-03    -12.6340E-03     9.96097E-03
            2429     8.88718E-03     1.94905E-03     215.404E+03    -65.9241E+06    -22.8735E+06    -12.5432E+06    -13.5099E-03     26.0361E-03    -12.5261E-03     8.65822E-03    -13.3803E-03     25.7394E-03    -12.5452E-03     8.49550E-03
            2430     7.99904E-03     1.94814E-03    -344.972E+03    -64.7469E+06    -20.3608E+06    -11.1532E+06    -13.2753E-03     25.7322E-03    -12.4569E-03     7.37263E-03    -13.1537E-03     25.4385E-03    -12.4643E-03     7.22805E-03
            2431     7.11088E-03     1.94733E-03    -993.492E+03    -63.6179E+06    -17.2129E+06    -9.16611E+06    -13.0533E-03     25.4519E-03    -12.3986E-03     6.24132E-03    -12.9411E-03     25.1602E-03    -12.3910E-03     6.12253E-03
            2432     6.22239E-03     1.94666E-03    -1.53415E+06    -62.6775E+06    -13.3186E+06    -7.05472E+06    -12.8534E-03     25.2055E-03    -12.3522E-03     5.22792E-03    -12.7509E-03     24.9137E-03    -12.3257E-03     5.13650E-03
            2433     5.33382E-03     1.94605E-03    -2.01870E+06    -60.7016E+06    -10.3728E+06    -5.15101E+06    -12.6794E-03     24.9869E-03    -12.3074E-03     4.31709E-03    -12.5865E-03     24.7013E-03    -12.2684E-03     4.25032E-03
            2434     4.44507E-03     1.94554E-03    -2.52388E+06    -59.6161E+06    -7.45092E+06    -3.71277E+06    -12.5314E-03     24.8030E-03    -12.2716E-03     3.48111E-03    -12.4468E-03     24.5193E-03    -12.2187E-03     3.43298E-03
            2435     3.55621E-03     1.94515E-03    -2.92689E+06    -58.7325E+06    -5.66660E+06    -2.53147E+06    -12.4063E-03     24.6442E-03    -12.2379E-03     2.71769E-03    -12.3276E-03     24.3630E-03    -12.1768E-03     2.68486E-03
            2436     2.66726E-03     1.94481E-03    -3.24796E+06    -57.4637E+06    -5.44769E+06    -1.67801E+06    -12.3028E-03     24.5073E-03    -12.2046E-03     2.01092E-03    -12.2278E-03     24.2326E-03    -12.1438E-03     1.98915E-03
            2437     1.77821E-03     1.94460E-03    -3.46280E+06    -57.1539E+06    -4.98391E+06    -1.04634E+06    -12.2286E-03     24.4125E-03    -12.1839E-03     1.33574E-03    -12.1558E-03     24.1390E-03    -12.1209E-03     1.32217E-03
            2438     889.121E-06     1.94444E-03    -3.70438E+06    -57.6276E+06    -4.14884E+06    -376.760E+03    -12.1867E-03     24.3637E-03    -12.1770E-03     715.057E-06    -12.1154E-03     24.0872E-03    -12.1088E-03     710.150E-06
            2439     16.8297E-03     1.00272E-03     305.327E+03     83.2753E+06     61.5553E+06     10.9240E+06    -44.0586E-03     60.5534E-03    -16.4949E-03     61.8985E-03    -44.4497E-03     61.0659E-03    -16.3083E-03     61.8039E-03
            2440     15.9510E-03     991.218E-06     5.69472E+06     62.7762E+06     52.9705E+06     7.14164E+06    -26.4601E-03     41.9144E-03    -15.4543E-03     28.1393E-03    -26.6109E-03     42.1544E-03    -15.2887E-03     28.2063E-03
            2441     15.0737E-03     987.268E-06     10.4179E+06     56.1402E+06     38.5716E+06    -54.8085E+03    -22.4519E-03     37.2956E-03    -14.8436E-03     19.2103E-03    -22.5398E-03     37.5075E-03    -14.7473E-03     19.2015E-03
            2442     14.1929E-03     982.807E-06     9.55617E+06     43.4579E+06     13.8470E+06     161.235E+03    -20.0128E-03     34.3452E-03    -14.3324E-03     15.5818E-03    -20.0492E-03     34.5295E-03    -14.3400E-03     15.5793E-03
            2443     13.3106E-03     980.136E-06     9.55916E+06     20.8824E+06    -6.94116E+06    -124.783E+03    -18.0084E-03     31.9594E-03    -13.9511E-03     11.9823E-03    -17.9813E-03     32.0605E-03    -14.0299E-03     11.9780E-03
            2444     12.4258E-03     978.823E-06     10.7794E+06    -10.0508E+06    -22.3957E+06    -2.99216E+06    -16.8268E-03     30.5068E-03    -13.6800E-03     9.60157E-03    -16.7261E-03     30.4736E-03    -13.7931E-03     9.56131E-03
            2445     11.5405E-03     977.274E-06     9.90767E+06    -36.8946E+06    -32.5953E+06    -6.26421E+06    -16.0934E-03     29.5672E-03    -13.4738E-03     7.90647E-03    -15.9433E-03     29.4157E-03    -13.5976E-03     7.82449E-03
            2446     10.6549E-03     976.428E-06     7.81825E+06    -54.1918E+06    -34.8889E+06    -7.63131E+06    -15.4943E-03     28.8150E-03    -13.3207E-03     6.62478E-03    -15.3261E-03     28.5833E-03    -13.4279E-03     6.52546E-03
            2447     9.76845E-03     975.737E-06     5.31667E+06    -63.4285E+06    -34.3071E+06    -7.68603E+06    -14.9592E-03     28.1517E-03    -13.1925E-03     5.60610E-03    -14.7909E-03     27.8766E-03    -13.2798E-03     5.50632E-03
            2448     8.88151E-03     975.053E-06     2.35413E+06    -67.6577E+06    -31.4572E+06    -7.45913E+06    -14.5295E-03     27.6165E-03    -13.0870E-03     4.71858E-03    -14.3741E-03     27.3204E-03    -13.1496E-03     4.62186E-03
            2449     7.99446E-03     974.543E-06    -477.090E+03    -67.6833E+06    -27.3377E+06    -6.57021E+06    -14.1539E-03     27.1494E-03    -12.9955E-03     3.97516E-03    -14.0185E-03     26.8513E-03    -13.0334E-03     3.89001E-03
            2450     7.10687E-03     974.112E-06    -2.75246E+06    -66.3423E+06    -23.4836E+06    -5.22057E+06    -13.8221E-03     26.7349E-03    -12.9128E-03     3.35139E-03    -13.7056E-03     26.4412E-03    -12.9300E-03     3.28375E-03
            2451     6.21915E-03     973.722E-06    -4.40600E+06    -65.4111E+06    -19.4809E+06    -4.01512E+06    -13.5363E-03     26.3789E-03    -12.8426E-03     2.79397E-03    -13.4352E-03     26.0865E-03    -12.8388E-03     2.74195E-03
            2452     5.33112E-03     973.391E-06    -5.33788E+06    -62.8970E+06    -16.5023E+06    -2.81922E+06    -13.2867E-03     26.0626E-03    -12.7759E-03     2.29533E-03    -13.1983E-03     25.7798E-03    -12.7595E-03     2.25879E-03
            2453     4.44292E-03     973.106E-06    -5.73618E+06    -61.2135E+06    -13.5294E+06    -1.96659E+06    -13.0776E-03     25.7993E-03    -12.7217E-03     1.84508E-03    -12.9979E-03     25.5211E-03    -12.6923E-03     1.81958E-03
            2454     3.55455E-03     972.880E-06    -5.75271E+06    -60.0975E+06    -10.6116E+06    -1.46848E+06    -12.9086E-03     25.5879E-03    -12.6793E-03     1.43603E-03    -12.8348E-03     25.3111E-03    -12.6369E-03     1.41699E-03
            2455     2.66602E-03     972.723E-06    -5.51078E+06    -58.7248E+06     -8.0796E+06    -809.385E+03    -12.7749E-03     25.4211E-03    -12.6462E-03     1.05665E-03    -12.7056E-03     25.1471E-03    -12.5934E-03     1.04614E-03
            2456     1.77740E-03     972.581E-06    -5.46488E+06    -58.0243E+06    -6.43195E+06    -105.653E+03    -12.6812E-03     25.3024E-03    -12.6212E-03     697.430E-06    -12.6150E-03     25.0295E-03    -12.5613E-03     696.044E-06
            2457     888.731E-06     972.513E-06     -5.7722E+06    -58.0405E+06    -5.93644E+06     1.87700E+03    -12.6308E-03     25.2228E-03    -12.5921E-03     381.142E-06    -12.5664E-03     24.9498E-03    -12.5292E-03     381.277E-06


