********************************************************************************
Field Output Report, written Wed May 29 00:13:01 2024

Source 1
---------

   ODB: G:/Abaqus_calc_2019/1740/Vel_5/odb/zeides_2a_16_red_250_cal_75_vel_5_fric_0100.odb
   Step: Step-1
   Frame: Increment  14166171: Step Time =    1.825

Loc 1 : Nodal values from source 1

Output sorted by column "Nodal Label".

Field Output reported at nodes for region: DIE_2A_16_D0_36-1.Region_1
   Computation algorithm: EXTRAPOLATE_COMPUTE_AVERAGE
   Averaged at nodes
   Averaging regions: ODB_REGIONS

      Node Label     COORD.COOR1     COORD.COOR2
                          @Loc 1          @Loc 1
-------------------------------------------------
               1     19.9925E-03     113.610E-03


Field Output reported at nodes for region: DIE_2A_16_D0_36-1.Region_2
   Computation algorithm: EXTRAPOLATE_COMPUTE_AVERAGE
   Averaged at nodes
   Averaging regions: ODB_REGIONS

      Node Label     COORD.COOR1     COORD.COOR2
                          @Loc 1          @Loc 1
-------------------------------------------------
               1     19.9925E-03     113.610E-03


Field Output reported at nodes for part: WIRE-1
   Computation algorithm: EXTRAPOLATE_COMPUTE_AVERAGE
   Averaged at nodes
   Averaging regions: ODB_REGIONS

      Node Label     COORD.COOR1     COORD.COOR2           S.S11           S.S22           S.S33           S.S12         PE.PE11         PE.PE22         PE.PE33         PE.PE12         LE.LE11         LE.LE22         LE.LE33         LE.LE12
                          @Loc 1          @Loc 1          @Loc 1          @Loc 1          @Loc 1          @Loc 1          @Loc 1          @Loc 1          @Loc 1          @Loc 1          @Loc 1          @Loc 1          @Loc 1          @Loc 1
-------------------------------------------------------------------------------------------------------------------------------------------------------------------------------------------------------------------------------------------------
               1    -222.713E-09     57.5007E-03    -31.9962E+06    -120.982E+06    -32.1879E+06    -37.7689E+03    -26.5257E-03     53.1419E-03    -26.6162E-03     3.23314E-03    -26.4636E-03     52.6304E-03    -26.5553E-03     3.23108E-03
               2     17.5319E-03     58.5579E-03     539.006E+03     137.355E+06     89.7914E+06     1.53954E+06    -24.9412E-03     51.5986E-03    -26.6574E-03     67.7175E-03    -25.7567E-03     52.6434E-03    -26.4084E-03     68.2550E-03
               3     17.2644E-03     116.873E-03     24.1852E+06    -16.2743E+06     19.8437E+06     15.6439E+06     18.2844E-03     16.7023E-03    -34.9867E-03     1.08144E-03     18.3494E-03     16.5062E-03    -34.8989E-03     1.28317E-03
               4    -323.790E-09     115.223E-03     33.0572E+06     1.88253E+06     31.8509E+06    -1.72575E+06    -28.0604E-03     56.2638E-03    -28.2034E-03    -1.03942E-03    -27.9454E-03     56.1779E-03    -28.0948E-03    -1.06196E-03
               5    -19.2687E-09    -1.13104E-15    -13.3248E+06    -96.3705E+06    -13.5232E+06    -56.5276E+03    -20.9255E-03     41.8881E-03    -20.9626E-03     153.493E-06    -20.8317E-03     41.4457E-03    -20.8712E-03     153.187E-06
               6     17.3986E-03    -1.13104E-15    -657.966E+03     101.104E+06     73.7690E+06     7.38532E+06    -56.3216E-03     87.7956E-03    -31.4740E-03     72.3787E-03    -56.7107E-03     88.3208E-03    -31.2508E-03     72.1552E-03
               7     876.466E-06     57.5038E-03    -31.7312E+06    -120.884E+06    -31.1446E+06    -75.6030E+03    -26.5395E-03     53.1313E-03    -26.5918E-03     5.61095E-03    -26.4778E-03     52.6184E-03    -26.5262E-03     5.60719E-03
               8     1.75291E-03     57.5114E-03    -30.9115E+06    -119.837E+06    -28.5304E+06    -78.0212E+03    -26.5644E-03     53.1327E-03    -26.5683E-03     10.5140E-03    -26.5043E-03     52.6202E-03    -26.4924E-03     10.5075E-03
               9     2.62948E-03     57.5238E-03    -29.5362E+06    -116.674E+06    -24.8111E+06    -36.6891E+03    -26.5893E-03     53.1619E-03    -26.5727E-03     15.5722E-03    -26.5328E-03     52.6584E-03    -26.4847E-03     15.5632E-03
              10     3.50590E-03     57.5410E-03    -27.7562E+06    -112.951E+06    -20.0543E+06    -3.44520E+03    -26.6232E-03     53.2060E-03    -26.5828E-03     20.6660E-03    -26.5710E-03     52.7125E-03    -26.4790E-03     20.6539E-03
              11     4.38246E-03     57.5631E-03    -25.7998E+06    -107.768E+06    -15.1435E+06     74.0243E+03    -26.6664E-03     53.2576E-03    -26.5912E-03     25.7744E-03    -26.6204E-03     52.7814E-03    -26.4733E-03     25.7588E-03
              12     5.25893E-03     57.5900E-03    -23.6939E+06    -100.705E+06    -10.5584E+06     141.167E+03    -26.7193E-03     53.3140E-03    -26.5948E-03     30.8376E-03    -26.6816E-03     52.8654E-03    -26.4672E-03     30.8176E-03
              13     6.13551E-03     57.6217E-03    -21.5007E+06    -95.2821E+06    -6.30245E+06     205.002E+03    -26.7886E-03     53.3873E-03    -26.5988E-03     35.8099E-03    -26.7569E-03     52.9593E-03    -26.4609E-03     35.7839E-03
              14     7.01200E-03     57.6582E-03    -19.3470E+06    -88.9306E+06    -3.07229E+06     322.847E+03    -26.8664E-03     53.4627E-03    -26.5963E-03     40.7110E-03    -26.8419E-03     53.0627E-03    -26.4547E-03     40.6784E-03
              15     7.88860E-03     57.6991E-03    -17.3848E+06    -81.6054E+06    -1.28191E+06     416.275E+03    -26.9529E-03     53.5383E-03    -26.5854E-03     45.5211E-03    -26.9374E-03     53.1751E-03    -26.4483E-03     45.4798E-03
              16     8.76513E-03     57.7448E-03    -15.7159E+06    -74.9141E+06    -660.796E+03     480.987E+03    -27.0522E-03     53.6224E-03    -26.5702E-03     50.2005E-03    -27.0470E-03     53.2973E-03    -26.4420E-03     50.1480E-03
              17     9.64173E-03     57.7946E-03    -14.1098E+06    -67.6902E+06    -136.325E+03     584.805E+03    -27.1625E-03     53.7170E-03    -26.5544E-03     54.7706E-03    -27.1716E-03     53.4361E-03    -26.4365E-03     54.7050E-03
              18     10.5183E-03     57.8490E-03    -12.7951E+06    -59.7522E+06    -893.920E+03     760.957E+03    -27.2830E-03     53.8155E-03    -26.5325E-03     59.5170E-03    -27.3120E-03     53.5895E-03    -26.4317E-03     59.4363E-03
              19     11.3949E-03     57.9079E-03    -11.8690E+06    -48.2372E+06    -2.02745E+06     802.533E+03    -27.4085E-03     53.9132E-03    -26.5047E-03     64.3543E-03    -27.4713E-03     53.7685E-03    -26.4277E-03     64.2534E-03
              20     12.2714E-03     57.9716E-03    -11.2236E+06    -32.9940E+06    -1.77073E+06     822.976E+03    -27.4871E-03     53.9651E-03    -26.4780E-03     69.4425E-03    -27.6045E-03     53.9307E-03    -26.4227E-03     69.3181E-03
              21     13.1480E-03     58.0401E-03    -10.1457E+06    -12.5419E+06    -3.96243E+06     695.533E+03    -27.7249E-03     54.1564E-03    -26.4315E-03     76.4699E-03    -27.9254E-03     54.2878E-03    -26.4184E-03     76.3153E-03
              22     14.0245E-03     58.1179E-03    -9.54789E+06     29.9353E+06    -4.50336E+06     727.263E+03    -28.2154E-03     54.5841E-03    -26.3687E-03     88.3494E-03    -28.6045E-03     55.0586E-03    -26.4208E-03     88.1643E-03
              23     14.9011E-03     58.2090E-03    -10.7504E+06     82.4176E+06     7.63539E+06     99.9429E+03    -29.1323E-03     55.4967E-03    -26.3644E-03     111.511E-03    -29.9678E-03     56.5645E-03    -26.4302E-03     111.324E-03
              24     15.7760E-03     58.3332E-03    -11.0499E+06     118.748E+06     45.0717E+06    -724.292E+03    -30.8635E-03     57.3758E-03    -26.5123E-03     148.201E-03    -32.6503E-03     59.4141E-03    -26.4431E-03     148.307E-03
              25     16.6504E-03     58.4945E-03    -4.94195E+06     135.050E+06     81.0036E+06     435.502E+03    -28.4432E-03     55.0889E-03    -26.6457E-03     118.520E-03    -30.0657E-03     56.9384E-03    -26.4293E-03     118.984E-03
              26     17.5318E-03     59.5552E-03    -2.94243E+06     134.797E+06     86.7357E+06    -872.260E+03    -26.3768E-03     52.9727E-03    -26.5960E-03     66.7710E-03    -27.1949E-03     54.0075E-03    -26.3535E-03     67.2525E-03
              27     17.5323E-03     60.5599E-03    -1.93968E+06     135.793E+06     87.8477E+06    -1.97836E+06    -26.6322E-03     53.2165E-03    -26.5843E-03     68.9627E-03    -27.4668E-03     54.2715E-03    -26.3392E-03     69.4323E-03
              28     17.5321E-03     61.5596E-03    -1.28339E+06     137.670E+06     89.0093E+06    -11.6001E+03    -26.9692E-03     53.5591E-03    -26.5898E-03     72.5507E-03    -27.8284E-03     54.6443E-03    -26.3426E-03     73.0485E-03
              29     17.5314E-03     62.5605E-03    -3.72512E+06     136.398E+06     87.0136E+06     2.67341E+06    -27.6971E-03     54.2873E-03    -26.5902E-03     70.8783E-03    -28.5446E-03     55.3535E-03    -26.3475E-03     71.3887E-03
              30     17.5313E-03     63.5600E-03    -2.40638E+06     138.684E+06     88.4139E+06     2.69588E+06    -25.7134E-03     52.3442E-03    -26.6308E-03     68.0407E-03    -26.5380E-03     53.3962E-03    -26.3863E-03     68.5748E-03
              31     17.5329E-03     64.5546E-03    -1.71445E+06     139.770E+06     88.9664E+06    -499.386E+03    -24.9543E-03     51.5719E-03    -26.6176E-03     67.2611E-03    -25.7766E-03     52.6264E-03    -26.3730E-03     67.7686E-03
              32     17.5321E-03     65.5552E-03    -2.78614E+06     138.677E+06     88.1439E+06    -703.176E+03    -26.7040E-03     53.2749E-03    -26.5708E-03     67.2346E-03    -27.5332E-03     54.3309E-03    -26.3272E-03     67.7146E-03
              33     17.5322E-03     66.5581E-03    -1.25237E+06     139.762E+06     89.2447E+06     786.617E+03    -26.0226E-03     52.6126E-03    -26.5900E-03     67.4901E-03    -26.8496E-03     53.6725E-03    -26.3446E-03     67.9965E-03
              34     17.5328E-03     67.5533E-03    -316.269E+03     140.227E+06     89.8927E+06     195.202E+03    -25.6956E-03     52.2894E-03    -26.5937E-03     68.7556E-03    -26.5290E-03     53.3587E-03    -26.3471E-03     69.2678E-03
              35     17.5320E-03     68.5553E-03    -2.34169E+06     139.562E+06      88.753E+06    -211.646E+03    -27.0809E-03     53.6477E-03    -26.5668E-03     68.6153E-03    -27.9272E-03     54.7238E-03    -26.3220E-03     69.1030E-03
              36     17.5323E-03     69.5566E-03    -2.53212E+06     140.367E+06     89.2481E+06     356.233E+03    -26.4975E-03     53.0749E-03    -26.5773E-03     69.3679E-03    -27.3514E-03     54.1593E-03    -26.3310E-03     69.8714E-03
              37     17.5329E-03     70.5542E-03    -2.08997E+06     140.572E+06     89.6705E+06    -172.217E+03    -25.9592E-03     52.5337E-03    -26.5744E-03     69.5819E-03    -26.8089E-03     53.6150E-03    -26.3269E-03     70.0872E-03
              38     17.5325E-03     71.5545E-03    -2.56267E+06     139.774E+06     88.8314E+06    -579.993E+03    -26.3186E-03     52.8893E-03    -26.5707E-03     68.5733E-03    -27.1607E-03     53.9609E-03    -26.3255E-03     69.0626E-03
              39     17.5320E-03     72.5537E-03    -870.028E+03     139.703E+06     89.4697E+06     467.210E+03    -26.0173E-03     52.6035E-03    -26.5862E-03     68.2481E-03    -26.8488E-03     53.6683E-03    -26.3401E-03     68.7506E-03
              40     17.5329E-03     73.5516E-03    -2.50731E+06     138.800E+06     88.1780E+06    -545.112E+03    -26.3475E-03     52.9236E-03    -26.5761E-03     67.7307E-03    -27.1817E-03     53.9860E-03    -26.3329E-03     68.2157E-03
              41     17.5315E-03     74.5527E-03    -3.52451E+06     138.055E+06     87.2352E+06    -183.254E+03    -27.1256E-03     53.6932E-03    -26.5676E-03     68.3111E-03    -27.9751E-03     54.7674E-03    -26.3265E-03     68.7996E-03
              42     17.5325E-03     75.5549E-03    -4.09847E+06     138.843E+06     87.4471E+06     455.482E+03    -26.9924E-03     53.5931E-03    -26.6008E-03     69.7805E-03    -27.8618E-03     54.6873E-03    -26.3589E-03     70.2846E-03
              43     17.5300E-03     76.5549E-03    -1.66681E+06     141.726E+06     89.6376E+06     2.01374E+06    -25.5501E-03     52.1979E-03    -26.6478E-03     70.1084E-03    -26.4075E-03     53.2926E-03    -26.4027E-03     70.6491E-03
              44     17.5337E-03     77.5503E-03     540.564E+03     143.448E+06     91.1155E+06     147.713E+03    -24.8769E-03     51.4913E-03    -26.6144E-03     71.1001E-03    -25.7285E-03     52.5899E-03    -26.3676E-03     71.6278E-03
              45     17.5325E-03     78.5509E-03    -3.57091E+06     141.010E+06     88.1055E+06    -2.67267E+06    -27.4123E-03     53.9454E-03    -26.5331E-03     72.1796E-03    -28.2948E-03     55.0604E-03    -26.2918E-03     72.6394E-03
              46     17.5319E-03     79.5562E-03    -4.76324E+06     139.622E+06     86.6699E+06     591.609E+03    -27.8668E-03     54.4137E-03    -26.5470E-03     71.3844E-03    -28.7453E-03     55.5198E-03    -26.3092E-03     71.8777E-03
              47     17.5323E-03     80.5514E-03    -2.46188E+06     142.622E+06     89.0665E+06     1.72685E+06    -25.0142E-03     51.6272E-03    -26.6130E-03     68.6951E-03    -25.8558E-03     52.7081E-03    -26.3709E-03     69.2386E-03
              48     17.5328E-03     81.5472E-03    -1.12458E+06     145.195E+06     90.7613E+06     133.058E+03    -24.9155E-03     51.5203E-03    -26.6048E-03     68.0032E-03    -25.7492E-03     52.6022E-03    -26.3599E-03     68.5272E-03
              49     17.5323E-03     82.5489E-03    -3.93327E+06     143.389E+06     88.4817E+06    -1.08971E+06    -27.1433E-03     53.7042E-03    -26.5609E-03     69.1012E-03    -27.9971E-03     54.7964E-03    -26.3207E-03     69.5740E-03
              50     17.5316E-03     83.5509E-03    -3.17639E+06     144.454E+06     89.6632E+06     272.932E+03    -26.1293E-03     52.7337E-03    -26.6043E-03     67.6568E-03    -26.9762E-03     53.8221E-03    -26.3609E-03     68.1544E-03
              51     17.5324E-03     84.5459E-03    -1.99011E+06     145.575E+06     90.2142E+06     1.86373E+06    -25.3083E-03     51.9356E-03    -26.6273E-03     68.0933E-03    -26.1553E-03     53.0308E-03    -26.3844E-03     68.6305E-03
              52     17.5313E-03     85.5458E-03    -847.184E+03     146.198E+06     90.4376E+06     1.61150E+06    -26.0387E-03     52.6216E-03    -26.5829E-03     67.0982E-03    -26.8736E-03     53.7104E-03    -26.3415E-03     67.6120E-03
              53     17.5344E-03     86.5461E-03    -1.53879E+06     145.975E+06     90.2236E+06    -2.17804E+06    -25.9392E-03     52.4901E-03    -26.5509E-03     69.4479E-03    -26.7985E-03     53.6006E-03    -26.3092E-03     69.9294E-03
              54     17.5319E-03     87.5475E-03    -936.005E+03     146.763E+06     91.4497E+06    -1.94013E+06    -25.9825E-03     52.5249E-03    -26.5424E-03     72.0116E-03    -26.8559E-03     53.6510E-03    -26.2966E-03     72.4989E-03
              55     17.5347E-03     88.5472E-03    -2.38353E+06     145.036E+06     90.7230E+06     212.002E+03    -26.0285E-03     52.5690E-03    -26.5404E-03     71.5882E-03    -26.8923E-03     53.6763E-03    -26.2937E-03     72.0904E-03
              56     17.5316E-03     89.5419E-03    -2.89166E+06     143.480E+06     89.5829E+06     242.383E+03    -26.0797E-03     52.6114E-03    -26.5317E-03     66.1384E-03    -26.9022E-03     53.6735E-03    -26.2877E-03     66.6150E-03
              57     17.5350E-03     90.5400E-03    -2.72687E+06     142.729E+06     89.0301E+06    -143.089E+03    -27.2210E-03     53.7070E-03    -26.4860E-03     65.0001E-03    -28.0307E-03     54.7560E-03    -26.2438E-03     65.4510E-03
              58     17.5323E-03     91.5441E-03    -5.47900E+06     140.110E+06     87.3196E+06    -71.6237E+03    -27.9783E-03     54.4306E-03    -26.4523E-03     66.3273E-03    -28.8065E-03     55.4844E-03    -26.2109E-03     66.7825E-03
              59     17.5353E-03     92.5477E-03    -1.19713E+06     144.795E+06     92.0863E+06    -109.043E+03    -24.9056E-03     51.3961E-03    -26.4905E-03     66.9181E-03    -25.7405E-03     52.4745E-03    -26.2383E-03     67.4325E-03
              60     17.5355E-03     93.5364E-03    -1.18728E+06     144.499E+06     92.1424E+06    -1.83709E+06    -25.6385E-03     52.0528E-03    -26.4142E-03     68.2720E-03    -26.4794E-03     53.1356E-03    -26.1613E-03     68.7548E-03
              61     17.5361E-03     94.5446E-03    -3.76416E+06     141.924E+06     90.7603E+06    -371.907E+03    -27.6091E-03     53.9279E-03    -26.3188E-03     67.0959E-03    -28.4450E-03     54.9911E-03    -26.0653E-03     67.5537E-03
              62     17.5378E-03     95.5433E-03    -1.79734E+06     142.923E+06     92.4847E+06     1.03484E+06    -26.2347E-03     52.5179E-03    -26.2832E-03     70.5335E-03    -27.0872E-03     53.6033E-03    -26.0254E-03     71.0448E-03
              63     17.5392E-03     96.5414E-03    -3.18780E+06     139.990E+06     91.0130E+06    -202.093E+03    -27.3663E-03     53.5404E-03    -26.1741E-03     70.0042E-03    -28.2150E-03     54.6108E-03    -25.9174E-03     70.4745E-03
              64     17.5400E-03     97.5425E-03    -2.74399E+06     138.316E+06     91.8409E+06    -584.000E+03    -28.2572E-03     54.3209E-03    -26.0637E-03     67.5665E-03    -29.0944E-03     55.3731E-03    -25.8011E-03     68.0130E-03
              65     17.5432E-03     98.5423E-03    -1.35632E+06     138.612E+06     94.1468E+06     35.5508E+03    -29.1583E-03     55.1024E-03    -25.9441E-03     68.8446E-03    -30.0036E-03     56.1620E-03    -25.6723E-03     69.2946E-03
              66     17.5434E-03     99.5480E-03    -3.39507E+06     133.962E+06     90.6300E+06    -754.373E+03    -31.2137E-03     57.0030E-03    -25.7893E-03     70.4522E-03    -32.0714E-03     58.0615E-03    -25.5254E-03     70.8662E-03
              67     17.5464E-03     100.553E-03    -3.14797E+06     132.280E+06     90.2512E+06    -865.812E+03    -31.7324E-03     57.4190E-03    -25.6866E-03     69.9194E-03    -32.5836E-03     58.4669E-03    -25.4226E-03     70.3200E-03
              68     17.5463E-03     101.554E-03    -308.921E+03     130.636E+06     92.3404E+06    -566.447E+03    -33.6834E-03     59.2671E-03    -25.5837E-03     68.7939E-03    -34.5167E-03     60.2954E-03    -25.3110E-03     69.1586E-03
              69     17.5477E-03     102.563E-03    -4.60911E+06     124.208E+06     88.7906E+06    -643.103E+03    -37.8631E-03     63.2855E-03    -25.4224E-03     68.6772E-03    -38.7068E-03     64.2965E-03    -25.1519E-03     68.9625E-03
              70     17.5486E-03     103.576E-03    -1.72620E+06     120.266E+06     87.9282E+06    -2.03760E+06    -39.6192E-03     64.9105E-03    -25.2913E-03     69.3401E-03    -40.4465E-03     65.9039E-03    -25.0236E-03     69.5726E-03
              71     17.5512E-03     104.589E-03    -792.424E+03     118.124E+06     89.5264E+06    -4.47362E+06    -42.3058E-03     67.4732E-03    -25.1674E-03     74.8669E-03    -43.1797E-03     68.5048E-03    -24.8899E-03     75.0296E-03
              72     17.5499E-03     105.609E-03    -2.77217E+06     110.762E+06     87.8886E+06    -1.48079E+06    -47.4900E-03     72.5044E-03    -25.0145E-03     77.5617E-03    -48.3842E-03     73.5278E-03    -24.7316E-03     77.6563E-03
              73     17.5520E-03     106.631E-03    -4.56112E+06     102.678E+06     85.3384E+06    -1.71760E+06    -50.3565E-03     75.2637E-03    -24.9071E-03     76.9717E-03    -51.2409E-03     76.2489E-03    -24.6227E-03     76.9892E-03
              74     17.5516E-03     107.650E-03    -670.815E+03     97.2018E+06     87.2559E+06    -2.67480E+06    -55.6041E-03     80.3486E-03    -24.7444E-03     79.9181E-03    -56.4962E-03     81.3309E-03    -24.4481E-03     79.8128E-03
              75     17.5534E-03     108.687E-03    -5.01790E+06     86.6132E+06     83.0320E+06    -5.82220E+06    -64.1066E-03     88.6004E-03    -24.4938E-03     85.6364E-03    -65.0668E-03     89.6115E-03    -24.1969E-03     85.2746E-03
              76     17.5533E-03     109.733E-03     2.09382E+06     77.7266E+06     84.0194E+06    -1.57475E+06    -70.6329E-03     94.9412E-03    -24.3083E-03     98.3815E-03    -71.6948E-03     96.0463E-03    -24.0039E-03     97.8767E-03
              77     17.5549E-03     110.788E-03    -9.44347E+06     74.4486E+06     83.3821E+06    -499.529E+03    -74.4669E-03     98.6818E-03    -24.2149E-03     117.196E-03    -75.8216E-03     100.030E-03    -23.8923E-03     116.535E-03
              78     17.5545E-03     111.844E-03     3.26785E+06     75.8927E+06     90.8414E+06     1.91797E+06    -76.6954E-03     100.844E-03    -24.1489E-03     139.799E-03    -78.2906E-03     102.461E-03    -23.8095E-03     139.021E-03
              79     17.5580E-03     112.900E-03    -8.85164E+06     66.3396E+06     75.1408E+06    -5.82744E+06    -76.0749E-03     100.151E-03    -24.0762E-03     162.882E-03    -77.9689E-03     102.036E-03    -23.7839E-03     161.842E-03
              80     17.5569E-03     113.956E-03    -2.99992E+06     34.7932E+06     41.3615E+06    -18.2601E+06    -66.0487E-03     90.2288E-03    -24.1801E-03     190.567E-03    -67.8074E-03     91.9861E-03    -24.0194E-03     189.458E-03
              81     17.5609E-03     114.991E-03     8.47057E+06     1.98312E+06     12.4625E+06    -13.1499E+06    -27.2573E-03     52.7043E-03    -25.4470E-03     184.734E-03    -28.0674E-03     53.5327E-03    -25.3998E-03     184.249E-03
              82     17.5252E-03     115.925E-03    -11.8775E+06    -14.1488E+06     2.00419E+06     37.7905E+03     10.6954E-03     20.0843E-03    -30.7797E-03     82.3251E-03     10.5383E-03     20.1072E-03    -30.7319E-03     82.3546E-03
              83     16.4160E-03     116.658E-03    -996.717E+03     22.2114E+06     44.0918E+06     2.00243E+06     10.8198E-03     24.9091E-03    -35.7289E-03     18.8848E-03     10.6982E-03     24.9388E-03    -35.5392E-03     18.9096E-03
              84     15.5167E-03     116.469E-03    -16.6478E+06    -3.20260E+06     55.3905E+06    -8.22376E+06    -9.87418E-03     46.5495E-03    -36.6753E-03     26.3671E-03    -10.0373E-03     46.4792E-03    -36.3696E-03     26.2459E-03
              85     14.6665E-03     116.266E-03    -1.25736E+06    -9.06267E+06     57.2878E+06    -8.13974E+06    -23.4225E-03     60.1316E-03    -36.7091E-03     10.8634E-03    -23.5155E-03     59.9944E-03    -36.4077E-03     10.7338E-03
              86     13.8136E-03     116.097E-03     6.93463E+06     1.69404E+06     62.6751E+06    -7.12173E+06    -27.4495E-03     63.8383E-03    -36.3888E-03     962.622E-06    -27.5203E-03     63.7361E-03    -36.0880E-03     845.429E-06
              87     12.9588E-03     115.958E-03     13.0002E+06    -7.84101E+06     63.2820E+06    -3.15089E+06    -34.0938E-03     70.0076E-03    -35.9138E-03    -6.23984E-03    -34.1183E-03     69.8492E-03    -35.6048E-03    -6.31327E-03
              88     12.1096E-03     115.834E-03     18.3715E+06     1.85292E+06     64.1995E+06    -2.61198E+06    -38.1803E-03     73.3441E-03    -35.1639E-03    -9.27201E-03    -38.1923E-03     73.2250E-03    -34.8722E-03    -9.34083E-03
              89     11.2585E-03     115.730E-03     21.0061E+06    -4.40694E+06     61.1218E+06    -1.18450E+06    -39.4601E-03     73.7509E-03    -34.2908E-03    -9.67108E-03    -39.4436E-03     73.6026E-03    -34.0093E-03    -9.71858E-03
              90     10.4055E-03     115.639E-03     21.8457E+06     1.59418E+06     61.8647E+06    -561.619E+03    -39.2590E-03     72.6557E-03    -33.3967E-03    -8.97568E-03    -39.2467E-03     72.5366E-03    -33.1214E-03    -9.01072E-03
              91     9.54914E-03     115.563E-03     21.6388E+06    -1.36639E+06     58.2999E+06    -579.752E+03    -38.2831E-03     70.8024E-03    -32.5193E-03    -7.80701E-03    -38.2613E-03     70.6752E-03    -32.2572E-03    -7.83772E-03
              92     8.69025E-03     115.496E-03     21.4869E+06     934.202E+03     54.5341E+06    -880.768E+03    -36.8368E-03     68.5247E-03    -31.6879E-03    -6.58763E-03    -36.8129E-03     68.4155E-03    -31.4477E-03    -6.61800E-03
              93     7.82845E-03     115.440E-03     21.3331E+06     -647.87E+03     50.2474E+06    -1.06825E+06    -35.2452E-03     66.1803E-03    -30.9351E-03    -5.46511E-03    -35.2131E-03     66.0703E-03    -30.7138E-03    -5.49423E-03
              94     6.96421E-03     115.391E-03     21.6035E+06     889.833E+03     47.5008E+06    -1.49936E+06    -33.6876E-03     63.9578E-03    -30.2702E-03    -4.48820E-03    -33.6519E-03     63.8596E-03    -30.0653E-03    -4.51982E-03
              95     6.09783E-03     115.350E-03     22.2880E+06    -875.150E+03     42.6525E+06    -1.60636E+06    -32.2635E-03     61.9518E-03    -29.6883E-03    -3.70303E-03    -32.2145E-03     61.8512E-03    -29.5061E-03    -3.73358E-03
              96     5.22956E-03     115.315E-03     23.0850E+06     392.982E+03     38.9823E+06    -1.45825E+06    -31.0627E-03     60.2565E-03    -29.1938E-03    -3.05372E-03    -31.0060E-03     60.1666E-03    -29.0329E-03    -3.08038E-03
              97     4.35997E-03     115.287E-03     23.9427E+06    -306.198E+03     35.9700E+06    -1.57864E+06    -30.0352E-03     58.8232E-03    -28.7880E-03    -2.48112E-03    -29.9687E-03     58.7331E-03    -28.6424E-03    -2.50769E-03
              98     3.48907E-03     115.264E-03     25.0788E+06     64.0376E+03     33.3401E+06    -1.72445E+06    -29.2042E-03     57.6704E-03    -28.4662E-03    -2.01790E-03    -29.1287E-03     57.5845E-03    -28.3360E-03    -2.04491E-03
              99     2.61745E-03     115.247E-03     26.6377E+06    -450.196E+03     30.7140E+06    -1.71768E+06    -28.5853E-03     56.8158E-03    -28.2305E-03    -1.59781E-03    -28.4974E-03     56.7289E-03    -28.1149E-03    -1.62352E-03
             100     1.74496E-03     115.234E-03     28.3702E+06    -549.694E+03     28.6129E+06    -1.60107E+06    -28.1279E-03     56.2310E-03    -28.1031E-03    -1.26116E-03    -28.0281E-03     56.1442E-03    -28.0003E-03    -1.28426E-03
             101     872.167E-06     115.226E-03      31.157E+06    -780.996E+03     29.2801E+06    -1.70051E+06    -28.0012E-03     56.1384E-03    -28.1372E-03    -1.08879E-03    -27.8882E-03     56.0455E-03    -28.0348E-03    -1.11180E-03
             102     201.529E-09     114.220E-03     25.5706E+06    -1.85216E+06     25.1666E+06    -697.924E+03    -25.2275E-03     50.6480E-03    -25.4205E-03    -86.9043E-06    -25.1343E-03     50.5645E-03    -25.3290E-03    -96.4075E-06
             103    -410.050E-09     113.228E-03     15.1787E+06    -5.36264E+06     16.1227E+06    -684.679E+03    -20.6210E-03     41.4789E-03    -20.8579E-03     1.09995E-03    -20.5608E-03     41.4067E-03    -20.7915E-03     1.09030E-03
             104     215.735E-09     112.244E-03     2.30739E+06    -10.9908E+06     2.71149E+06    -2.38902E+06    -17.7169E-03     35.4835E-03    -17.7666E-03     1.66255E-03    -17.6933E-03     35.4215E-03    -17.7404E-03     1.63095E-03
             105    -103.364E-09     111.263E-03    -16.6025E+06    -18.8118E+06    -16.6720E+06    -2.17342E+06    -15.8934E-03     31.6253E-03    -15.7319E-03     2.21872E-03    -15.9248E-03     31.5798E-03    -15.7639E-03     2.19013E-03
             106     274.645E-09     110.286E-03    -35.7399E+06    -25.8941E+06    -35.2727E+06    -2.38576E+06    -14.7990E-03     29.5256E-03    -14.7266E-03     2.55431E-03    -14.8888E-03     29.4995E-03    -14.8136E-03     2.52313E-03
             107    -315.446E-09     109.310E-03    -55.5254E+06    -34.2173E+06    -55.7155E+06    -2.44530E+06    -14.3589E-03     28.7563E-03    -14.3974E-03     2.79335E-03    -14.5059E-03     28.7469E-03    -14.5459E-03     2.76157E-03
             108     281.849E-09     108.335E-03    -77.1719E+06    -41.7569E+06    -76.5836E+06    -2.68074E+06    -14.4996E-03     28.9845E-03    -14.4850E-03     3.00549E-03    -14.7137E-03     28.9991E-03    -14.6954E-03     2.97078E-03
             109    -219.895E-09     107.357E-03    -91.2217E+06    -47.7521E+06    -92.7508E+06    -706.783E+03    -14.9297E-03     29.8336E-03    -14.9039E-03     3.19304E-03    -15.1819E-03     29.8620E-03    -15.1662E-03     3.18387E-03
             110     181.409E-09     106.380E-03    -78.7688E+06    -42.7068E+06    -80.1945E+06     4.13094E+06    -15.6331E-03     31.3216E-03    -15.6885E-03     3.31923E-03    -15.8486E-03     31.3389E-03    -15.9133E-03     3.37257E-03
             111    -262.603E-09     105.401E-03    -45.9009E+06    -24.5649E+06    -45.9368E+06     6.48117E+06    -16.7101E-03     33.5008E-03    -16.7907E-03     3.42506E-03    -16.8372E-03     33.5114E-03    -16.9182E-03     3.50878E-03
             112     195.279E-09     104.419E-03    -21.6811E+06    -7.68025E+06    -19.6726E+06     3.56181E+06    -18.0783E-03     36.1486E-03    -18.0702E-03     3.61520E-03    -18.1470E-03     36.1704E-03    -18.1260E-03     3.66121E-03
             113    -96.4806E-09     103.434E-03    -7.85348E+06    -3.67268E+06    -6.86802E+06    -855.122E+03    -19.5126E-03     38.9442E-03    -19.4315E-03     3.71138E-03    -19.5366E-03     38.9474E-03    -19.4492E-03     3.70027E-03
             114     146.377E-09     102.447E-03    -37.3204E+03    -7.80269E+06    -384.108E+03    -1.85733E+06    -20.8295E-03     41.5828E-03    -20.7533E-03     3.67335E-03    -20.8178E-03     41.5446E-03    -20.7438E-03     3.64915E-03
             115    -71.5045E-09     101.457E-03     677.593E+03    -14.8666E+06     1.15331E+06    -2.29197E+06    -22.0099E-03     44.0021E-03    -21.9922E-03     3.64726E-03    -21.9866E-03     43.9254E-03    -21.9659E-03     3.61728E-03
             116     27.5895E-09     100.465E-03     805.203E+03    -23.4295E+06     503.221E+03    -2.52637E+06    -23.0310E-03     46.1235E-03    -23.0925E-03     3.60841E-03    -22.9937E-03     46.0048E-03    -23.0572E-03     3.57526E-03
             117    -100.935E-09     99.4713E-03    -1.63031E+06    -31.6961E+06    -1.99417E+06    -2.15316E+06    -23.9158E-03     47.8489E-03    -23.9331E-03     3.54316E-03    -23.8751E-03     47.6960E-03    -23.8947E-03     3.51461E-03
             118     134.189E-09     98.4760E-03    -6.49503E+06    -38.3893E+06    -6.47203E+06    -1.67998E+06    -24.6167E-03     49.2221E-03    -24.6054E-03     3.49227E-03    -24.5841E-03     49.0493E-03    -24.5727E-03     3.46960E-03
             119    -152.889E-09     97.4794E-03    -10.2678E+06    -45.1271E+06    -10.0839E+06    -2.27669E+06    -25.1361E-03     50.3227E-03    -25.1866E-03     3.47312E-03    -25.1073E-03     50.1269E-03    -25.1567E-03     3.44261E-03
             120     79.4616E-09     96.4819E-03    -14.5852E+06    -53.3725E+06    -14.9782E+06    -2.40363E+06    -25.5703E-03     51.1643E-03    -25.5941E-03     3.38531E-03    -25.5441E-03     50.9407E-03    -25.5704E-03     3.35309E-03
             121    -57.4415E-09     95.4838E-03    -18.4026E+06    -61.1438E+06    -18.3387E+06    -2.08768E+06    -25.8882E-03     51.7903E-03    -25.9022E-03     3.29380E-03    -25.8649E-03     51.5382E-03    -25.8785E-03     3.26556E-03
             122     6.69355E-09     94.4851E-03    -21.5683E+06    -68.5665E+06    -21.5984E+06    -2.28867E+06    -26.1175E-03     52.2757E-03    -26.1582E-03     3.30498E-03    -26.0946E-03     51.9958E-03    -26.1355E-03     3.27402E-03
             123    -32.5296E-09     93.4859E-03    -24.5446E+06    -75.6125E+06    -24.6887E+06    -1.86685E+06    -26.2935E-03     52.6035E-03    -26.3100E-03     3.44591E-03    -26.2707E-03     52.2972E-03    -26.2882E-03     3.42027E-03
             124     22.3498E-09     92.4864E-03    -28.0491E+06    -81.4427E+06    -28.1657E+06    -1.50533E+06    -26.4306E-03     52.7879E-03    -26.3573E-03     3.47610E-03    -26.4119E-03     52.4626E-03    -26.3394E-03     3.45503E-03
             125     109.371E-09     91.4873E-03    -30.9695E+06    -86.5527E+06    -30.8372E+06    -1.51242E+06    -26.5051E-03     52.9465E-03    -26.4415E-03     3.43841E-03    -26.4897E-03     52.6038E-03    -26.4252E-03     3.41722E-03
             126    -133.532E-09     90.4875E-03    -32.1174E+06    -91.5266E+06    -32.1262E+06    -1.61156E+06    -26.5134E-03     53.0666E-03    -26.5532E-03     3.36991E-03    -26.4946E-03     52.7025E-03    -26.5346E-03     3.34744E-03
             127     82.5567E-09     89.4881E-03    -33.9322E+06    -96.9188E+06    -33.8886E+06    -1.57894E+06    -26.5904E-03     53.1534E-03    -26.5630E-03     3.32852E-03    -26.5704E-03     52.7675E-03    -26.5427E-03     3.30650E-03
             128     11.8220E-09     88.4882E-03    -34.2714E+06    -101.455E+06    -34.6045E+06    -1.07613E+06    -26.6293E-03     53.2355E-03    -26.6062E-03     3.40455E-03    -26.6033E-03     52.8285E-03    -26.5824E-03     3.38905E-03
             129    -74.8643E-09     87.4885E-03    -35.3944E+06    -104.857E+06    -35.4575E+06    -717.768E+03    -26.5899E-03     53.2355E-03    -26.6456E-03     3.40354E-03    -26.5634E-03     52.8143E-03    -26.6195E-03     3.39266E-03
             130     34.1500E-09     86.4888E-03    -36.3675E+06    -107.524E+06    -36.2251E+06     -765.01E+03    -26.6453E-03     53.2326E-03    -26.5873E-03     3.36122E-03    -26.6187E-03     52.8006E-03    -26.5598E-03     3.34968E-03
             131     104.611E-09     85.4893E-03    -36.3366E+06    -110.115E+06    -36.3784E+06    -822.639E+03    -26.6505E-03     53.2445E-03    -26.5939E-03     3.33145E-03    -26.6197E-03     52.7997E-03    -26.5635E-03     3.31917E-03
             132    -149.864E-09     84.4895E-03    -36.2016E+06    -112.439E+06    -36.2968E+06    -725.620E+03    -26.6265E-03     53.2691E-03    -26.6426E-03     3.34073E-03    -26.5918E-03     52.8124E-03    -26.6086E-03     3.32973E-03
             133     160.639E-09     83.4897E-03    -36.2863E+06    -114.972E+06    -36.2328E+06    -616.740E+03    -26.6428E-03     53.2542E-03    -26.6114E-03     3.34347E-03    -26.6049E-03     52.7848E-03    -26.5733E-03     3.33392E-03
             134    -121.067E-09     82.4902E-03    -35.8360E+06    -116.904E+06    -36.0157E+06    -431.336E+03    -26.6145E-03     53.2301E-03    -26.6156E-03     3.35397E-03    -26.5719E-03     52.7501E-03    -26.5742E-03     3.34675E-03
             135     72.3518E-09     81.4906E-03    -35.8007E+06    -118.395E+06    -35.5722E+06    -557.647E+03    -26.6339E-03     53.2723E-03    -26.6384E-03     3.32573E-03    -26.5896E-03     52.7842E-03    -26.5927E-03     3.31688E-03
             136    -34.0321E-09     80.4906E-03    -35.6749E+06    -120.353E+06    -35.7634E+06    -471.503E+03    -26.6285E-03     53.2482E-03    -26.6197E-03     3.37972E-03    -26.5805E-03     52.7504E-03    -26.5723E-03     3.37207E-03
             137     4.71967E-09     79.4914E-03    -34.1723E+06    -121.611E+06    -34.2385E+06    -264.518E+03    -26.6020E-03     53.2411E-03    -26.6392E-03     3.41616E-03    -26.5468E-03     52.7326E-03    -26.5845E-03     3.41112E-03
             138    -46.7836E-09     78.4913E-03    -33.8895E+06    -122.741E+06    -33.8329E+06    -334.331E+03    -26.6204E-03     53.2304E-03    -26.6101E-03     3.35252E-03    -26.5628E-03     52.7153E-03    -26.5521E-03     3.34659E-03
             139     102.359E-09     77.4923E-03    -34.5364E+06    -123.620E+06    -34.6453E+06    -251.709E+03    -26.6005E-03     53.1877E-03    -26.5873E-03     3.31033E-03    -26.5436E-03     52.6703E-03    -26.5312E-03     3.30550E-03
             140    -141.178E-09     76.4924E-03    -33.5685E+06    -123.530E+06    -33.9196E+06     261.830E+03    -26.5876E-03     53.1901E-03    -26.6025E-03     3.32910E-03    -26.5271E-03     52.6707E-03    -26.5443E-03     3.33086E-03
             141     144.710E-09     75.4929E-03    -33.6151E+06    -123.256E+06    -33.1601E+06     253.594E+03    -26.5838E-03     53.1557E-03    -26.5718E-03     3.38118E-03    -26.5251E-03     52.6366E-03    -26.5102E-03     3.38284E-03
             142    -127.436E-09     74.4934E-03    -32.9027E+06    -123.050E+06    -33.1756E+06    -8.73114E+03    -26.5350E-03     53.0954E-03    -26.5604E-03     3.33842E-03    -26.4729E-03     52.5763E-03    -26.5002E-03     3.33674E-03
             143     57.1956E-09     73.4940E-03    -32.9192E+06    -122.979E+06    -32.8748E+06     4.79976E+03    -26.5611E-03     53.1031E-03    -26.5419E-03     3.28507E-03    -26.4997E-03     52.5839E-03    -26.4803E-03     3.28357E-03
             144     42.0643E-09     72.4945E-03    -32.7055E+06    -122.783E+06    -32.6787E+06    -69.0166E+03    -26.5923E-03     53.1626E-03    -26.5702E-03     3.35734E-03    -26.5304E-03     52.6438E-03    -26.5082E-03     3.35486E-03
             145    -107.582E-09     71.4949E-03    -32.6119E+06    -122.765E+06    -32.5716E+06    -102.815E+03    -26.5821E-03     53.1963E-03    -26.6143E-03     3.38680E-03    -26.5198E-03     52.6774E-03    -26.5518E-03     3.38383E-03
             146     111.780E-09     70.4952E-03    -32.8428E+06    -122.992E+06    -32.7340E+06     1.07459E+03    -26.6262E-03     53.2046E-03    -26.5784E-03     3.41121E-03    -26.5645E-03     52.6850E-03    -26.5161E-03     3.40956E-03
             147    -36.5076E-09     69.4958E-03    -31.9796E+06    -122.247E+06    -32.1467E+06     116.354E+03    -26.6394E-03     53.2276E-03    -26.5882E-03     3.41699E-03    -26.5754E-03     52.7097E-03    -26.5253E-03     3.41682E-03
             148     43.6362E-09     68.4960E-03    -32.0740E+06    -122.267E+06    -32.0878E+06     33.3491E+03    -26.6335E-03     53.2591E-03    -26.6256E-03     3.41983E-03    -26.5700E-03     52.7412E-03    -26.5623E-03     3.41859E-03
             149    -42.5293E-09     67.4965E-03    -31.9500E+06    -122.137E+06    -31.9709E+06     104.506E+03    -26.6491E-03     53.2697E-03    -26.6205E-03     3.46997E-03    -26.5854E-03     52.7520E-03    -26.5570E-03     3.46964E-03
             150     85.6930E-09     66.4966E-03     -32.214E+06    -122.221E+06    -32.0374E+06    -40.7671E+03    -26.6157E-03     53.2285E-03    -26.6129E-03     3.43578E-03    -26.5530E-03     52.7110E-03    -26.5491E-03     3.43358E-03
             151    -127.451E-09     65.4975E-03    -31.8447E+06    -122.037E+06    -31.9691E+06     57.2166E+03    -26.6007E-03     53.2547E-03    -26.6540E-03     3.37819E-03    -26.5366E-03     52.7374E-03    -26.5907E-03     3.37727E-03
             152     69.0260E-09     64.4974E-03    -31.4137E+06    -121.556E+06    -31.4244E+06     90.5404E+03    -26.6310E-03     53.3064E-03    -26.6753E-03     3.38621E-03    -26.5662E-03     52.7901E-03    -26.6106E-03     3.38574E-03
             153    -93.7234E-09     63.4980E-03    -32.4239E+06    -121.382E+06    -32.3977E+06     125.515E+03    -26.6194E-03     53.2475E-03    -26.6281E-03     3.37992E-03    -26.5585E-03     52.7350E-03    -26.5671E-03     3.37993E-03
             154     98.1640E-09     62.4983E-03    -32.2012E+06    -121.068E+06    -32.0466E+06    -10.6455E+03    -26.5936E-03     53.2213E-03    -26.6278E-03     3.34515E-03    -26.5325E-03     52.7095E-03    -26.5658E-03     3.34335E-03
             155    -166.087E-09     61.4989E-03    -31.8641E+06    -120.892E+06    -32.0724E+06     32.4918E+03    -26.5800E-03     53.2197E-03    -26.6397E-03     3.31984E-03    -26.5174E-03     52.7083E-03    -26.5786E-03     3.31866E-03
             156     121.761E-09     60.4991E-03    -31.9476E+06    -120.921E+06    -32.0064E+06     17.5810E+03    -26.5985E-03     53.1805E-03    -26.5821E-03     3.33012E-03    -26.5364E-03     52.6690E-03    -26.5205E-03     3.32879E-03
             157    -54.6448E-09     59.4997E-03    -32.2746E+06    -121.100E+06    -32.1103E+06     47.6795E+03    -26.5923E-03     53.1323E-03    -26.5400E-03     3.29055E-03    -26.5314E-03     52.6205E-03    -26.4782E-03     3.28964E-03
             158     75.9132E-09     58.5002E-03    -31.9164E+06    -120.787E+06    -31.8512E+06    -185.841E+03    -26.5307E-03     53.1306E-03    -26.5999E-03     3.25908E-03    -26.4689E-03     52.6195E-03    -26.5377E-03     3.25512E-03
             159     203.903E-09     56.5011E-03    -32.5121E+06    -121.210E+06    -32.2237E+06    -28.2718E+03    -26.5376E-03     53.0985E-03    -26.5609E-03     3.35463E-03    -26.4776E-03     52.5867E-03    -26.4991E-03     3.35265E-03
             160    -228.005E-09     55.5016E-03    -31.4994E+06    -121.507E+06    -31.7278E+06    -157.842E+03    -26.5387E-03     53.0652E-03    -26.5265E-03     3.45060E-03    -26.4740E-03     52.5497E-03    -26.4633E-03     3.44687E-03
             161     265.332E-09     54.5021E-03    -31.9667E+06    -121.729E+06    -31.7661E+06     126.619E+03    -26.5541E-03     53.0836E-03    -26.5295E-03     3.45520E-03    -26.4913E-03     52.5677E-03    -26.4654E-03     3.45513E-03
             162    -262.827E-09     53.5028E-03    -31.6465E+06    -121.707E+06    -31.9046E+06    -60.0292E+03    -26.5665E-03     53.1074E-03    -26.5409E-03     3.36971E-03    -26.5019E-03     52.5914E-03    -26.4781E-03     3.36728E-03
             163     296.778E-09     52.5032E-03    -31.9672E+06    -121.742E+06    -31.7708E+06     55.5244E+03    -26.6264E-03     53.1201E-03    -26.4937E-03     3.36719E-03    -26.5636E-03     52.6042E-03    -26.4297E-03     3.36629E-03
             164    -101.337E-09     51.5038E-03    -31.8619E+06    -121.718E+06    -31.8211E+06     4.43507E+03    -26.6283E-03     53.1540E-03    -26.5257E-03     3.44403E-03    -26.5649E-03     52.6381E-03    -26.4621E-03     3.44245E-03
             165     80.4986E-09     50.5042E-03    -31.5407E+06    -121.556E+06    -31.7274E+06     123.178E+03    -26.5545E-03     53.2205E-03    -26.6660E-03     3.39594E-03    -26.4899E-03     52.7049E-03    -26.6026E-03     3.39595E-03
             166    -262.490E-09     49.5047E-03    -31.3455E+06    -121.351E+06    -31.4046E+06     67.9573E+03    -26.5933E-03     53.3090E-03    -26.7157E-03     3.35451E-03    -26.5285E-03     52.7936E-03    -26.6513E-03     3.35384E-03
             167     223.982E-09     48.5047E-03    -31.2782E+06    -121.203E+06    -31.1848E+06     35.6369E+03    -26.6456E-03     53.3003E-03    -26.6547E-03     3.32580E-03    -26.5810E-03     52.7853E-03    -26.5896E-03     3.32470E-03
             168    -205.662E-09     47.5054E-03    -31.0769E+06    -120.745E+06    -31.0088E+06     44.4418E+03    -26.6113E-03     53.2081E-03    -26.5968E-03     3.32152E-03    -26.5466E-03     52.6948E-03    -26.5317E-03     3.32049E-03
             169     208.378E-09     46.5056E-03    -31.0817E+06    -120.693E+06    -31.1052E+06    -62.2052E+03    -26.5802E-03     53.1159E-03    -26.5358E-03     3.33178E-03    -26.5154E-03     52.6030E-03    -26.4712E-03     3.32934E-03
             170    -138.796E-09     45.5064E-03    -30.9138E+06    -120.822E+06    -30.8888E+06    -85.4250E+03    -26.5098E-03     52.9978E-03    -26.4880E-03     3.30255E-03    -26.4443E-03     52.4837E-03    -26.4224E-03     3.29979E-03
             171     102.652E-09     44.5070E-03    -30.8158E+06    -121.047E+06    -30.8618E+06    -121.798E+03    -26.4216E-03     52.8751E-03    -26.4535E-03     3.23597E-03    -26.3553E-03     52.3596E-03    -26.3876E-03     3.23277E-03
             172    -127.859E-09     43.5079E-03    -30.9900E+06    -121.151E+06    -31.0835E+06    -23.2015E+03    -26.3399E-03     52.7479E-03    -26.4081E-03     3.28688E-03    -26.2740E-03     52.2326E-03    -26.3429E-03     3.28500E-03
             173     27.3698E-09     42.5087E-03    -31.6104E+06    -121.073E+06    -31.6237E+06     294.515E+03    -26.2743E-03     52.6055E-03    -26.3313E-03     3.27339E-03    -26.2109E-03     52.0923E-03    -26.2680E-03     3.27567E-03
             174    -32.0103E-09     41.5099E-03    -31.7668E+06    -121.116E+06    -31.5081E+06     65.0219E+03    -26.2411E-03     52.4847E-03    -26.2436E-03     3.24336E-03    -26.1786E-03     51.9712E-03    -26.1794E-03     3.24270E-03
             175     30.2520E-09     40.5110E-03    -30.6699E+06    -120.883E+06    -30.8858E+06    -22.0109E+03    -26.1853E-03     52.3869E-03    -26.2016E-03     3.22712E-03    -26.1185E-03     51.8721E-03    -26.1363E-03     3.22538E-03
             176    -64.4068E-09     39.5124E-03    -30.5925E+06    -120.760E+06    -30.5700E+06     49.3931E+03    -26.1582E-03     52.2433E-03    -26.0851E-03     3.11507E-03    -26.0916E-03     51.7286E-03    -26.0185E-03     3.11430E-03
             177     222.365E-09     38.5140E-03    -30.6470E+06    -120.509E+06    -30.6178E+06     84.1519E+03    -26.1456E-03     52.0892E-03    -25.9436E-03     3.11317E-03    -26.0796E-03     51.5759E-03    -25.8775E-03     3.11278E-03
             178    -30.3173E-09     37.5155E-03    -30.6270E+06    -120.040E+06    -30.4673E+06     49.4163E+03    -25.9553E-03     51.9053E-03    -25.9500E-03     3.18140E-03    -25.8901E-03     51.3941E-03    -25.8839E-03     3.18048E-03
             179    -155.491E-09     36.5173E-03    -30.3711E+06    -119.850E+06    -30.6790E+06     7.71661E+03    -25.7606E-03     51.6862E-03    -25.9256E-03     3.06708E-03    -25.6941E-03     51.1758E-03    -25.8611E-03     3.06573E-03
             180     43.9963E-09     35.5196E-03    -30.6903E+06    -119.797E+06    -30.5078E+06    -135.317E+03    -25.7156E-03     51.5303E-03    -25.8148E-03     2.93643E-03    -25.6510E-03     51.0205E-03    -25.7491E-03     2.93332E-03
             181    -108.624E-09     34.5216E-03    -30.7932E+06    -119.971E+06    -31.0803E+06    -87.3846E+03    -25.6766E-03     51.3420E-03    -25.6655E-03     2.85800E-03    -25.6114E-03     50.8323E-03    -25.6023E-03     2.85560E-03
             182     185.579E-09     33.5240E-03    -30.9404E+06    -119.780E+06    -30.8101E+06     162.920E+03    -25.5685E-03     51.0878E-03    -25.5193E-03     3.05655E-03    -25.5048E-03     50.5788E-03    -25.4548E-03     3.05732E-03
             183    -179.119E-09     32.5264E-03     -30.908E+06    -119.747E+06    -31.0008E+06     131.079E+03    -25.3220E-03     50.7535E-03    -25.4315E-03     3.14992E-03    -25.2579E-03     50.2449E-03    -25.3680E-03     3.15023E-03
             184    -25.3004E-09     31.5298E-03    -30.9532E+06    -119.559E+06    -30.9536E+06     205.044E+03    -25.1552E-03     50.3703E-03    -25.2151E-03     2.95908E-03    -25.0916E-03     49.8626E-03    -25.1516E-03     2.96037E-03
             185     120.461E-09     30.5331E-03    -30.8656E+06    -119.269E+06    -30.6806E+06    -126.831E+03    -25.0546E-03     49.9809E-03    -24.9264E-03     2.89272E-03    -24.9914E-03     49.4742E-03    -24.8621E-03     2.88971E-03
             186     7.50448E-09     29.5370E-03    -30.6738E+06    -119.080E+06    -30.8988E+06     32.3886E+03    -24.8019E-03     49.5081E-03    -24.7062E-03     2.87998E-03    -24.7377E-03     49.0024E-03    -24.6435E-03     2.87906E-03
             187     26.0720E-09     28.5414E-03    -30.5906E+06    -118.395E+06    -30.3700E+06     233.301E+03    -24.5094E-03     48.9651E-03    -24.4557E-03     2.81105E-03    -24.4465E-03     48.4619E-03    -24.3915E-03     2.81275E-03
             188     33.3873E-09     27.5464E-03    -30.8805E+06    -117.538E+06    -31.0337E+06     170.612E+03    -24.1509E-03     48.3262E-03    -24.1753E-03     2.77902E-03    -24.0898E-03     47.8287E-03    -24.1152E-03     2.77994E-03
             189    -141.066E-09     26.5519E-03    -31.3521E+06    -116.557E+06    -31.3246E+06     335.517E+03    -23.7589E-03     47.6307E-03    -23.8718E-03     2.70207E-03    -23.7012E-03     47.1392E-03    -23.8140E-03     2.70518E-03
             190     47.1338E-09     25.5584E-03    -30.8749E+06    -115.743E+06    -30.9994E+06     339.245E+03    -23.4600E-03     46.9407E-03    -23.4806E-03     2.57559E-03    -23.4015E-03     46.4521E-03    -23.4230E-03     2.57883E-03
             191     5.98776E-09     24.5653E-03    -31.0074E+06    -115.052E+06    -30.9723E+06     143.302E+03    -23.1090E-03     46.1789E-03    -23.0699E-03     2.53546E-03    -23.0522E-03     45.6939E-03    -23.0130E-03     2.53619E-03
             192     7.08806E-09     23.5732E-03    -30.6443E+06    -114.760E+06    -30.5866E+06     15.4714E+03    -22.6562E-03     45.3653E-03    -22.7091E-03     2.51420E-03    -22.5986E-03     44.8807E-03    -22.6511E-03     2.51329E-03
             193    -115.523E-09     22.5817E-03    -29.8362E+06    -114.784E+06    -29.7789E+06    -173.976E+03    -22.2704E-03     44.5741E-03    -22.3037E-03     2.34454E-03    -22.2099E-03     44.0871E-03    -22.2429E-03     2.34127E-03
             194     163.390E-09     21.5914E-03    -29.9782E+06    -114.948E+06    -30.1767E+06     148.244E+03    -21.9526E-03     43.7518E-03    -21.7992E-03     2.20931E-03    -21.8919E-03     43.2647E-03    -21.7399E-03     2.21027E-03
             195     54.2640E-09     20.6013E-03    -29.4464E+06    -113.475E+06    -29.3391E+06     731.673E+03    -21.4464E-03     42.8515E-03    -21.4050E-03     2.23861E-03    -21.3865E-03     42.3697E-03    -21.3445E-03     2.24714E-03
             196    -200.359E-09     19.6129E-03    -29.5979E+06    -111.652E+06    -29.6955E+06     346.944E+03    -20.8933E-03     41.8733E-03    -20.9800E-03     1.98780E-03    -20.8362E-03     41.4014E-03    -20.9236E-03     1.99142E-03
             197     190.622E-09     18.6249E-03    -28.7420E+06    -109.917E+06    -29.0153E+06     594.877E+03    -20.4606E-03     40.8460E-03    -20.3854E-03     1.79609E-03    -20.4027E-03     40.3806E-03    -20.3294E-03     1.80297E-03
             198    -52.8820E-09     17.6384E-03    -26.7244E+06    -107.733E+06    -26.5083E+06     716.430E+03    -19.8473E-03     39.6964E-03    -19.8491E-03     1.69780E-03    -19.7861E-03     39.2353E-03    -19.7867E-03     1.70631E-03
             199    -87.3001E-09     16.6526E-03    -25.3566E+06    -105.423E+06    -25.4280E+06     677.520E+03    -19.1145E-03     38.2381E-03    -19.1236E-03     1.33526E-03    -19.0514E-03     37.7850E-03    -19.0611E-03     1.34340E-03
             200     209.966E-09     15.6690E-03    -23.4921E+06    -102.436E+06    -23.6639E+06     1.11603E+06    -18.3460E-03     36.6006E-03    -18.2546E-03     1.11348E-03    -18.2804E-03     36.1572E-03    -18.1903E-03     1.12737E-03
             201    -173.765E-09     14.6866E-03    -21.3406E+06    -97.9192E+06    -21.5716E+06     1.37494E+06    -17.4934E-03     35.0071E-03    -17.5137E-03     901.569E-06    -17.4267E-03     34.5802E-03    -17.4486E-03     918.829E-06
             202     98.4546E-09     13.7059E-03    -18.2818E+06    -92.8357E+06    -18.2760E+06     1.46329E+06    -16.6402E-03     33.2666E-03    -16.6264E-03     624.074E-06    -16.5703E-03     32.8558E-03    -16.5566E-03     642.601E-06
             203     1.21329E-09     12.7269E-03    -14.3579E+06    -88.7957E+06    -14.2096E+06     1.07961E+06    -15.6627E-03     31.1863E-03    -15.5236E-03     424.569E-06    -15.5849E-03     30.7842E-03    -15.4450E-03     438.194E-06
             204     147.435E-09     11.7502E-03    -15.0252E+06    -86.7945E+06    -14.6166E+06     363.660E+03    -14.4833E-03     28.8195E-03    -14.3362E-03     302.328E-06    -14.4111E-03     28.4289E-03    -14.2617E-03     306.688E-06
             205    -30.4849E-09     10.7757E-03    -19.9829E+06    -86.8652E+06    -19.7430E+06    -202.925E+03    -13.3007E-03     26.5053E-03    -13.2046E-03     368.597E-06    -13.2457E-03     26.1289E-03    -13.1484E-03     365.589E-06
             206     86.6296E-09     9.80360E-03    -24.1214E+06    -87.7717E+06    -23.9824E+06    -405.510E+03    -12.5259E-03     25.0066E-03    -12.4808E-03     549.167E-06    -12.4840E-03     24.6380E-03    -12.4384E-03     543.526E-06
             207    -61.7033E-09     8.83221E-03    -25.8491E+06    -89.3614E+06    -25.5310E+06    -397.990E+03    -12.5058E-03     24.9859E-03    -12.4801E-03     796.069E-06    -12.4680E-03     24.6141E-03    -12.4407E-03     790.570E-06
             208     85.2131E-09     7.86005E-03    -24.4962E+06    -91.0871E+06    -24.1588E+06    -542.748E+03    -13.2039E-03     26.3864E-03    -13.1825E-03     1.04237E-03    -13.1589E-03     26.0020E-03    -13.1357E-03     1.03506E-03
             209    -67.6219E-09     6.88572E-03    -21.4202E+06    -93.0510E+06    -21.0919E+06    -467.670E+03    -14.3836E-03     28.7362E-03    -14.3525E-03     1.26584E-03    -14.3249E-03     28.3330E-03    -14.2920E-03     1.25956E-03
             210     108.239E-09     5.90898E-03    -18.5894E+06    -94.3131E+06    -18.9337E+06    -474.841E+03    -15.7586E-03     31.5283E-03    -15.7697E-03     1.35091E-03    -15.6870E-03     31.1116E-03    -15.7007E-03     1.34457E-03
             211    -173.230E-09     4.92922E-03     -18.323E+06    -95.8041E+06    -18.5863E+06    -619.284E+03    -17.1368E-03     34.3240E-03    -17.1871E-03     1.26567E-03    -17.0623E-03     33.8990E-03    -17.1146E-03     1.25747E-03
             212     145.532E-09     3.94709E-03    -18.0848E+06    -97.2074E+06    -18.0640E+06    -125.511E+03    -18.4531E-03     36.8956E-03    -18.4426E-03     1.12319E-03    -18.3760E-03     36.4625E-03    -18.3657E-03     1.12140E-03
             213    -99.7097E-09     2.96224E-03    -16.6690E+06    -97.5619E+06    -17.0252E+06     130.372E+03    -19.4886E-03     38.9881E-03    -19.4995E-03     942.219E-06    -19.4053E-03     38.5497E-03    -19.4190E-03     943.726E-06
             214     29.6060E-09     1.97601E-03    -15.2766E+06    -97.1613E+06    -15.2232E+06     168.740E+03    -20.2568E-03     40.5450E-03    -20.2882E-03     655.439E-06    -20.1696E-03     40.1039E-03    -20.2013E-03     657.474E-06
             215    -15.5153E-09     988.360E-06    -13.9207E+06    -96.5581E+06    -13.8327E+06     45.7631E+03    -20.7705E-03     41.5523E-03    -20.7819E-03     306.714E-06    -20.6791E-03     41.1103E-03    -20.6908E-03     307.486E-06
             216     881.346E-06    -1.13104E-15    -13.4666E+06    -96.5130E+06    -13.5753E+06    -33.3305E+03    -21.0048E-03     41.9812E-03    -20.9764E-03     261.061E-06    -20.9119E-03     41.5381E-03    -20.8848E-03     260.836E-06
             217     1.76262E-03    -1.13104E-15    -13.5999E+06    -96.7152E+06    -13.5577E+06     174.752E+03    -21.2309E-03     42.2695E-03    -21.0386E-03     537.690E-06    -21.1388E-03     41.8252E-03    -20.9464E-03     539.910E-06
             218     2.64348E-03    -1.13104E-15    -13.7838E+06    -97.2132E+06    -13.8850E+06     127.394E+03    -21.5866E-03     42.7440E-03    -21.1574E-03     836.569E-06    -21.4944E-03     42.2980E-03    -21.0659E-03     838.117E-06
             219     3.52416E-03    -1.13104E-15    -13.8497E+06    -98.0672E+06    -14.8906E+06    -164.172E+03    -22.0738E-03     43.3925E-03    -21.3186E-03     1.11667E-03    -21.9792E-03     42.9438E-03    -21.2308E-03     1.11439E-03
             220     4.40418E-03    -1.13104E-15    -13.7433E+06    -99.1541E+06    -16.5178E+06    -367.137E+03    -22.7030E-03     44.2246E-03    -21.5217E-03     1.45618E-03    -22.6039E-03     43.7727E-03    -21.4406E-03     1.45121E-03
             221     5.28366E-03    -1.13104E-15    -13.4735E+06    -100.600E+06    -18.8632E+06    -721.991E+03    -23.4712E-03     45.2381E-03    -21.7669E-03     1.85981E-03    -23.3653E-03     44.7820E-03    -21.6958E-03     1.85018E-03
             222     6.16231E-03    -1.13104E-15    -12.3684E+06    -102.210E+06    -22.3499E+06    -1.79767E+06    -24.3767E-03     46.4272E-03    -22.0506E-03     2.30673E-03    -24.2579E-03     45.9665E-03    -21.9962E-03     2.28308E-03
             223     7.04020E-03    -1.13104E-15    -10.1043E+06    -102.874E+06    -27.6189E+06    -2.76760E+06    -25.4161E-03     47.7826E-03    -22.3665E-03     2.83116E-03    -25.2774E-03     47.3230E-03    -22.3408E-03     2.79478E-03
             224     7.91693E-03    -1.13104E-15    -7.04057E+06    -97.0821E+06    -35.9702E+06    -3.67175E+06    -26.5941E-03     49.2948E-03    -22.7007E-03     3.45224E-03    -26.4363E-03     48.8718E-03    -22.7296E-03     3.40390E-03
             225     8.79278E-03    -1.13104E-15    -3.61645E+06    -85.9867E+06    -43.4727E+06    -4.11335E+06    -27.9370E-03     51.0144E-03    -23.0773E-03     4.25239E-03    -27.7674E-03     50.6527E-03    -23.1648E-03     4.19802E-03
             226     9.66688E-03    -1.13104E-15     238.641E+03    -72.3555E+06    -47.9393E+06    -4.99504E+06    -29.4169E-03     52.9297E-03    -23.5128E-03     5.21229E-03    -29.2413E-03     52.6372E-03    -23.6480E-03     5.14589E-03
             227     10.5401E-03    -1.13104E-15     4.16310E+06    -54.5205E+06    -49.4326E+06    -4.51834E+06    -31.0866E-03     55.0937E-03    -24.0071E-03     6.26701E-03    -30.9151E-03     54.8869E-03    -24.1812E-03     6.20556E-03
             228     11.4113E-03    -1.13104E-15     7.15738E+06    -32.4848E+06    -45.1412E+06    -3.22735E+06    -33.1096E-03     57.6953E-03    -24.5857E-03     8.01289E-03    -32.9614E-03     57.5881E-03    -24.7747E-03     7.96716E-03
             229     12.2798E-03    -1.13104E-15     8.85688E+06    -1.75857E+06    -37.2213E+06    -2.70706E+06    -35.5091E-03     60.7555E-03    -25.2464E-03     10.5752E-03    -35.4087E-03     60.7883E-03    -25.4428E-03     10.5339E-03
             230     13.1464E-03    -1.13104E-15     8.35935E+06     34.9353E+06    -24.1523E+06    -114.925E+03    -38.6034E-03     64.6272E-03    -26.0238E-03     13.2819E-03    -38.5780E-03     64.8258E-03    -26.2074E-03     13.2689E-03
             231     14.0102E-03    -1.13104E-15     6.20042E+06     62.2082E+06    -2.91646E+06     3.86738E+06    -43.2363E-03     70.2420E-03    -27.0057E-03     19.2614E-03    -43.2927E-03     70.5495E-03    -27.1195E-03     19.2966E-03
             232     14.8629E-03    -1.13104E-15     4.89208E+06     79.0960E+06     22.7805E+06     1.53967E+06    -47.6910E-03     75.8807E-03    -28.1896E-03     30.3372E-03    -47.8173E-03     76.2371E-03    -28.1975E-03     30.3416E-03
             233     15.7112E-03    -1.13104E-15     7.72389E+06     95.5521E+06     58.1871E+06    -2.26267E+06    -50.6297E-03     80.1445E-03    -29.5148E-03     46.0328E-03    -50.8272E-03     80.5371E-03    -29.3736E-03     45.9503E-03
             234     16.5592E-03    -1.13104E-15     5.06421E+06     102.587E+06     77.0873E+06     2.99150E+06    -54.1282E-03     84.9698E-03    -30.8416E-03     63.8432E-03    -54.4408E-03     85.4365E-03    -30.6123E-03     63.6772E-03
             235     17.4710E-03     1.03976E-03    -1.33344E+06     106.263E+06     71.9143E+06     6.62644E+06    -57.8486E-03     87.7722E-03    -29.9236E-03     68.5474E-03    -58.2896E-03     88.3785E-03    -29.7162E-03     68.2617E-03
             236     17.5014E-03     2.08809E-03    -3.36546E+06     113.684E+06     72.8166E+06     6.03968E+06    -66.3035E-03     93.8603E-03    -27.5568E-03     61.2316E-03    -66.8376E-03     94.5817E-03    -27.3527E-03     60.7812E-03
             237     17.5165E-03     3.14889E-03    -3.46565E+06     119.227E+06     78.1655E+06     4.78293E+06    -70.7271E-03     97.1637E-03    -26.4366E-03     58.0644E-03    -71.3276E-03     97.9499E-03    -26.2136E-03     57.5149E-03
             238     17.5268E-03     4.18785E-03    -1.41749E+06     124.540E+06     82.7637E+06     1.63167E+06    -68.0346E-03     94.0386E-03    -26.0040E-03     55.2820E-03    -68.6579E-03     94.8586E-03    -25.7687E-03     54.7354E-03
             239     17.5259E-03     5.23192E-03    -840.246E+03     126.670E+06     84.7967E+06     1.04617E+06    -65.9656E-03     91.8439E-03    -25.8783E-03     50.4669E-03    -66.5816E-03     92.6612E-03    -25.6368E-03     49.9676E-03
             240     17.5297E-03     6.26889E-03    -2.68691E+06     124.895E+06     82.9825E+06    -1.46807E+06    -62.2502E-03     88.1500E-03    -25.8998E-03     48.4684E-03    -62.8714E-03     88.9638E-03    -25.6621E-03     48.0028E-03
             241     17.5274E-03     7.29896E-03    -1.51181E+06     126.413E+06     83.9492E+06    -2.72937E+06    -59.6221E-03     85.5686E-03    -25.9465E-03     48.0233E-03    -60.2460E-03     86.3930E-03    -25.7078E-03     47.5985E-03
             242     17.5295E-03     8.33875E-03    -774.296E+03     129.266E+06     85.1963E+06    -1.03418E+06    -56.2684E-03     82.3231E-03    -26.0547E-03     52.3593E-03    -56.9182E-03     83.1832E-03    -25.8150E-03     52.0256E-03
             243     17.5262E-03     9.36728E-03    -3.15053E+06     128.835E+06     83.4225E+06    -631.795E+03    -52.1267E-03     78.3434E-03    -26.2168E-03     57.0202E-03    -52.8158E-03     79.2369E-03    -25.9819E-03     56.7781E-03
             244     17.5265E-03     10.3890E-03    -1.74804E+06     130.436E+06     84.6677E+06     1.02119E+06    -48.3570E-03     74.7023E-03    -26.3453E-03     56.9175E-03    -49.0394E-03     75.5958E-03    -26.1086E-03     56.7785E-03
             245     17.5270E-03     11.4079E-03    -510.915E+03     131.576E+06     85.9070E+06     172.279E+03    -45.5130E-03     71.9173E-03    -26.4043E-03     56.1529E-03    -46.1821E-03     72.8025E-03    -26.1648E-03     56.0653E-03
             246     17.5268E-03     12.4259E-03     412.425E+03     132.522E+06     87.2894E+06     1.93528E+06    -44.4058E-03     70.8509E-03    -26.4451E-03     55.3006E-03    -45.0672E-03     71.7311E-03    -26.2014E-03     55.2744E-03
             247     17.5261E-03     13.4440E-03    -2.04336E+06     130.159E+06     84.1071E+06     4.88774E+06    -42.4775E-03     68.9790E-03    -26.5016E-03     54.5028E-03    -43.1388E-03     69.8512E-03    -26.2668E-03     54.5579E-03
             248     17.5265E-03     14.4572E-03    -6.04089E+06     126.882E+06     79.8052E+06     909.477E+03    -40.0881E-03     66.6325E-03    -26.5444E-03     51.7421E-03    -40.7597E-03     67.5013E-03    -26.3206E-03     51.7985E-03
             249     17.5267E-03     15.4646E-03    -4.94665E+06     128.716E+06     82.0110E+06    -1.60070E+06    -38.2196E-03     64.7627E-03    -26.5431E-03     50.9424E-03    -38.8967E-03     65.6414E-03    -26.3125E-03     51.0153E-03
             250     17.5296E-03     16.4839E-03    -2.18257E+06     132.281E+06     85.4853E+06    -1.14839E+06    -36.8199E-03     63.3355E-03    -26.5156E-03     56.9116E-03    -37.5291E-03     64.2590E-03    -26.2768E-03     57.0334E-03
             251     17.5287E-03     17.4942E-03     856.849E+03     136.290E+06     89.0824E+06    -1.26346E+06    -36.7829E-03     63.2906E-03    -26.5077E-03     60.9334E-03    -37.5216E-03     64.2578E-03    -26.2612E-03     61.0742E-03
             252     17.5289E-03     18.5042E-03     154.110E+03     135.893E+06     88.4928E+06     939.304E+03    -36.4282E-03     62.9352E-03    -26.5070E-03     60.4334E-03    -37.1655E-03     63.8988E-03    -26.2618E-03     60.6185E-03
             253     17.5300E-03     19.5131E-03    -3.10344E+06     133.103E+06     85.1858E+06     49.5652E+03    -35.4521E-03     61.9415E-03    -26.4893E-03     61.7983E-03    -36.2069E-03     62.9107E-03    -26.2519E-03     62.0062E-03
             254     17.5301E-03     20.5243E-03    -2.11814E+06     133.944E+06     86.1266E+06    -1.93534E+06    -34.5787E-03     61.0700E-03    -26.4913E-03     64.1333E-03    -35.3538E-03     62.0635E-03    -26.2519E-03     64.3489E-03
             255     17.5304E-03     21.5323E-03    -3.15538E+06     133.545E+06     85.5501E+06    -1.06517E+06    -34.0597E-03     60.5697E-03    -26.5100E-03     66.3381E-03    -34.8552E-03     61.5800E-03    -26.2713E-03     66.5953E-03
             256     17.5293E-03     22.5394E-03    -3.96467E+06     133.419E+06     85.0191E+06     1.16037E+06    -32.7894E-03     59.3277E-03    -26.5384E-03     66.1809E-03    -33.5835E-03     60.3350E-03    -26.3010E-03     66.4996E-03
             257     17.5314E-03     23.5443E-03    -1.58089E+06     136.006E+06     87.3100E+06     964.206E+03    -30.3024E-03     56.8657E-03    -26.5634E-03     66.1314E-03    -31.0894E-03     57.8769E-03    -26.3217E-03     66.4946E-03
             258     17.5313E-03     24.5448E-03    -3.66091E+06     134.822E+06     85.5113E+06     309.224E+03    -30.4394E-03     56.9859E-03    -26.5465E-03     65.9626E-03    -31.2365E-03     58.0006E-03    -26.3091E-03     66.3324E-03
             259     17.5300E-03     25.5526E-03    -2.52705E+06     136.161E+06     86.7080E+06     2.04610E+06    -29.6476E-03     56.2115E-03    -26.5639E-03     65.5429E-03    -30.4448E-03     57.2317E-03    -26.3242E-03     65.9487E-03
             260     17.5330E-03     26.5518E-03    -975.217E+03     137.139E+06     87.8233E+06    -283.022E+03    -28.6256E-03     55.1929E-03    -26.5673E-03     67.5012E-03    -29.4351E-03     56.2311E-03    -26.3256E-03     67.9085E-03
             261     17.5300E-03     27.5553E-03    -1.68124E+06     136.765E+06     87.7722E+06     345.369E+03    -28.9054E-03     55.4653E-03    -26.5599E-03     66.0731E-03    -29.7173E-03     56.5024E-03    -26.3169E-03     66.4949E-03
             262     17.5329E-03     28.5577E-03     221.385E+03     137.157E+06     88.6946E+06      670.17E+03    -27.8403E-03     54.4070E-03    -26.5667E-03     67.4998E-03    -28.6553E-03     55.4527E-03    -26.3224E-03     67.9441E-03
             263     17.5317E-03     29.5567E-03    -1.73472E+06     135.418E+06     86.9679E+06    -1.01577E+06    -28.4877E-03     55.0270E-03    -26.5393E-03     68.1848E-03    -29.3069E-03     56.0688E-03    -26.2983E-03     68.6013E-03
             264     17.5318E-03     30.5634E-03    -1.70474E+06     134.611E+06     86.9276E+06    -361.840E+03    -28.1349E-03     54.7004E-03    -26.5654E-03     67.3915E-03    -28.9557E-03     55.7410E-03    -26.3235E-03     67.8326E-03
             265     17.5316E-03     31.5591E-03    -4.42898E+06     132.108E+06     84.1192E+06    -360.094E+03    -28.2960E-03     54.8486E-03    -26.5526E-03     68.9569E-03    -29.1313E-03     55.8933E-03    -26.3171E-03     69.3991E-03
             266     17.5322E-03     32.5641E-03    -3.71736E+06     133.248E+06     85.2256E+06     769.922E+03    -29.3192E-03     55.8399E-03    -26.5207E-03     67.5835E-03    -30.1392E-03     56.8726E-03    -26.2824E-03     68.0168E-03
             267     17.5318E-03     33.5679E-03    -1.82934E+06     135.448E+06     87.1275E+06    -87.2319E+03    -26.9208E-03     53.4910E-03    -26.5702E-03     67.6174E-03    -27.7405E-03     54.5324E-03    -26.3283E-03     68.0906E-03
             268     17.5330E-03     34.5623E-03    -543.307E+03     135.772E+06     87.7903E+06    -445.639E+03    -25.4385E-03     52.0272E-03    -26.5888E-03     66.7568E-03    -26.2464E-03     53.0607E-03    -26.3459E-03     67.2511E-03
             269     17.5323E-03     35.5620E-03    -1.30421E+06     135.157E+06     87.9173E+06     162.012E+03    -26.8272E-03     53.3866E-03    -26.5594E-03     65.7285E-03    -27.6346E-03     54.4142E-03    -26.3139E-03     66.2049E-03
             270     17.5322E-03     36.5647E-03    -1.13909E+06     133.911E+06     87.5051E+06    -529.018E+03    -26.6221E-03     53.1864E-03    -26.5643E-03     66.6206E-03    -27.4318E-03     54.2137E-03    -26.3193E-03     67.0875E-03
             271     17.5332E-03     37.5635E-03     -893.35E+03     132.025E+06     86.8114E+06    -999.802E+03    -26.3383E-03     52.8950E-03    -26.5568E-03     69.6080E-03    -27.1661E-03     53.9367E-03    -26.3128E-03     70.0878E-03
             272     17.5324E-03     38.5648E-03    -3.54558E+06     128.870E+06     84.5778E+06     -994.74E+03    -28.1427E-03     54.6605E-03    -26.5179E-03     70.4411E-03    -28.9870E-03     55.7046E-03    -26.2767E-03     70.8946E-03
             273     17.5323E-03     39.5679E-03    -1.70462E+06     129.972E+06     86.6100E+06     130.514E+03    -27.7286E-03     54.2753E-03    -26.5466E-03     69.1100E-03    -28.5569E-03     55.3077E-03    -26.2996E-03     69.5758E-03
             274     17.5324E-03     40.5652E-03     5.62632E+06     127.538E+06     88.1649E+06    -1.33927E+06    -25.6060E-03     52.1935E-03    -26.5875E-03     68.5120E-03    -26.3844E-03     53.1887E-03    -26.3398E-03     68.9675E-03
             275     17.5333E-03     41.5635E-03    -19.7841E+06     114.325E+06     68.3847E+06    -9.20619E+06    -26.1783E-03     52.7602E-03    -26.5819E-03     66.5246E-03    -27.0112E-03     53.7276E-03    -26.3771E-03     66.8823E-03
             276     17.5277E-03     42.5639E-03    -43.7617E+06     106.076E+06     54.9610E+06     2.56365E+06    -29.2769E-03     55.9548E-03    -26.6779E-03     64.4184E-03    -30.2107E-03     56.9472E-03    -26.4934E-03     64.9709E-03
             277     17.5244E-03     43.5691E-03     14.7824E+06     125.347E+06     87.2111E+06     12.2989E+06    -26.6220E-03     53.4315E-03    -26.8095E-03     69.4278E-03    -27.3664E-03     54.4195E-03    -26.5766E-03     70.1200E-03
             278     17.5362E-03     44.5665E-03     25.4646E+06     143.516E+06     101.005E+06     1.21957E+06    -21.5292E-03     48.2688E-03    -26.7395E-03     74.2543E-03    -22.2575E-03     49.3039E-03    -26.4795E-03     74.7992E-03
             279     17.5318E-03     45.5583E-03     2.48475E+06     138.718E+06     91.2995E+06    -2.25297E+06    -23.9442E-03     50.5489E-03    -26.6047E-03     69.4336E-03    -24.7544E-03     51.5958E-03    -26.3530E-03     69.9216E-03
             280     17.5328E-03     46.5575E-03    -1.36441E+06     132.116E+06     85.7963E+06    -1.65442E+06    -27.8094E-03     54.3558E-03    -26.5464E-03     67.0795E-03    -28.6222E-03     55.3840E-03    -26.3071E-03     67.5422E-03
             281     17.5314E-03     47.5613E-03    -4.96806E+06     133.271E+06     85.1394E+06     87.9112E+03    -27.6027E-03     54.1537E-03    -26.5511E-03     67.3548E-03    -28.4310E-03     55.1907E-03    -26.3114E-03     67.8282E-03
             282     17.5332E-03     48.5611E-03       9.518E+03     135.415E+06     88.2267E+06     599.910E+03    -26.5300E-03     53.0986E-03    -26.5686E-03     68.6838E-03    -27.3456E-03     54.1393E-03    -26.3239E-03     69.1766E-03
             283     17.5321E-03     49.5595E-03    -2.45778E+06     134.316E+06     86.7594E+06     427.750E+03    -26.5026E-03     53.0800E-03    -26.5774E-03     66.8851E-03    -27.3111E-03     54.1052E-03    -26.3348E-03     67.3636E-03
             284     17.5317E-03     50.5602E-03    -3.79429E+06     133.638E+06     85.6915E+06     275.201E+03    -27.0979E-03     53.6845E-03    -26.5866E-03     66.8674E-03    -27.9169E-03     54.7162E-03    -26.3464E-03     67.3444E-03
             285     17.5317E-03     51.5592E-03    -4.10039E+06     133.577E+06     85.6915E+06    -330.260E+03    -27.4949E-03     54.0668E-03    -26.5719E-03     66.7843E-03    -28.3173E-03     55.1006E-03    -26.3312E-03     67.2505E-03
             286     17.5324E-03     52.5626E-03    -565.723E+03     135.892E+06     88.2046E+06    -1.37050E+06    -25.9272E-03     52.5199E-03    -26.5927E-03     66.2483E-03    -26.7382E-03     53.5556E-03    -26.3479E-03     66.7263E-03
             287     17.5326E-03     53.5582E-03    -2.01663E+06     135.025E+06     87.6001E+06    -2.04025E+06    -26.2259E-03     52.8136E-03    -26.5877E-03     68.9977E-03    -27.0557E-03     53.8616E-03    -26.3426E-03     69.4748E-03
             288     17.5314E-03     54.5624E-03    -412.009E+03     135.350E+06     89.0140E+06    -12.3211E+03    -26.5473E-03     53.1417E-03    -26.5944E-03     68.3069E-03    -27.3619E-03     54.1773E-03    -26.3450E-03     68.7942E-03
             289     17.5328E-03     55.5602E-03    -532.982E+03     136.082E+06     88.8835E+06     1.02926E+06    -25.5974E-03     52.2043E-03    -26.6069E-03     70.6177E-03    -26.4293E-03     53.2598E-03    -26.3590E-03     71.1378E-03
             290     17.5321E-03     56.5582E-03    -5.04351E+06     131.954E+06     84.4916E+06     177.901E+03    -27.7542E-03     54.3121E-03    -26.5579E-03     69.8406E-03    -28.5916E-03     55.3552E-03    -26.3195E-03     70.3120E-03
             291     17.5310E-03     57.5630E-03    -3.81184E+06     133.770E+06     86.4266E+06     995.569E+03    -26.9115E-03     53.5220E-03    -26.6106E-03     66.8804E-03    -27.7326E-03     54.5540E-03    -26.3669E-03     67.3695E-03
             292     876.440E-06     58.5033E-03    -31.6559E+06    -120.831E+06    -31.0842E+06    -64.2777E+03    -26.5559E-03     53.1415E-03    -26.5856E-03     5.62734E-03    -26.4940E-03     52.6286E-03    -26.5199E-03     5.62373E-03
             293     1.75296E-03     58.5109E-03    -30.8330E+06    -119.816E+06    -28.5437E+06    -1.83023E+03    -26.5850E-03     53.1611E-03    -26.5761E-03     10.5180E-03    -26.5245E-03     52.6486E-03    -26.5004E-03     10.5126E-03
             294     2.62935E-03     58.5233E-03    -29.5258E+06    -116.680E+06    -24.8025E+06    -35.0418E+03    -26.6010E-03     53.1848E-03    -26.5838E-03     15.5729E-03    -26.5444E-03     52.6812E-03    -26.4959E-03     15.5640E-03
             295     3.50592E-03     58.5405E-03    -27.8347E+06    -113.025E+06    -20.0973E+06     25.1212E+03    -26.6360E-03     53.2302E-03    -26.5942E-03     20.6593E-03    -26.5840E-03     52.7364E-03    -26.4905E-03     20.6476E-03
             296     4.38236E-03     58.5626E-03    -25.8045E+06    -107.919E+06    -15.1486E+06     125.725E+03    -26.6812E-03     53.2845E-03    -26.6034E-03     25.7654E-03    -26.6350E-03     52.8075E-03    -26.4852E-03     25.7505E-03
             297     5.25891E-03     58.5895E-03    -23.6831E+06    -100.747E+06    -10.7261E+06     177.493E+03    -26.7310E-03     53.3372E-03    -26.6061E-03     30.8315E-03    -26.6930E-03     52.8885E-03    -26.4793E-03     30.8119E-03
             298     6.13539E-03     58.6213E-03    -21.5592E+06    -95.3961E+06    -6.53178E+06     190.039E+03    -26.7997E-03     53.4095E-03    -26.6099E-03     35.8030E-03    -26.7678E-03     52.9814E-03    -26.4729E-03     35.7768E-03
             299     7.01196E-03     58.6576E-03    -19.4445E+06    -89.1023E+06    -3.26290E+06     247.362E+03    -26.8797E-03     53.4875E-03    -26.6078E-03     40.7044E-03    -26.8551E-03     53.0870E-03    -26.4667E-03     40.6707E-03
             300     7.88846E-03     58.6987E-03    -17.4591E+06    -81.7337E+06    -1.39215E+06     329.561E+03    -26.9698E-03     53.5673E-03    -26.5975E-03     45.5144E-03    -26.9544E-03     53.2038E-03    -26.4606E-03     45.4719E-03
             301     8.76504E-03     58.7442E-03    -15.6497E+06    -75.0101E+06    -594.019E+03     364.699E+03    -27.0737E-03     53.6573E-03    -26.5836E-03     50.1986E-03    -27.0681E-03     53.3316E-03    -26.4551E-03     50.1445E-03
             302     9.64156E-03     58.7943E-03    -14.1982E+06    -67.8782E+06    -134.649E+03     395.737E+03    -27.1861E-03     53.7548E-03    -26.5687E-03     54.7820E-03    -27.1954E-03     53.4731E-03    -26.4504E-03     54.7139E-03
             303     10.5181E-03     58.8485E-03    -12.8993E+06    -60.0681E+06    -921.180E+03     548.020E+03    -27.3139E-03     53.8618E-03    -26.5479E-03     59.5312E-03    -27.3429E-03     53.6345E-03    -26.4467E-03     59.4476E-03
             304     11.3946E-03     58.9076E-03    -11.7989E+06    -48.3433E+06    -2.09714E+06     700.157E+03    -27.4519E-03     53.9729E-03    -26.5209E-03     64.4202E-03    -27.5141E-03     53.8276E-03    -26.4442E-03     64.3179E-03
             305     12.2712E-03     58.9711E-03    -10.8075E+06    -33.0999E+06    -1.78082E+06     755.216E+03    -27.6180E-03     54.1166E-03    -26.4986E-03     69.5467E-03    -27.7334E-03     54.0813E-03    -26.4439E-03     69.4207E-03
             306     13.1475E-03     59.0400E-03    -10.7832E+06    -12.6390E+06    -5.10014E+06     765.406E+03    -27.8800E-03     54.3354E-03    -26.4554E-03     76.8833E-03    -28.0824E-03     54.4695E-03    -26.4469E-03     76.7286E-03
             307     14.0240E-03     59.1174E-03    -11.0294E+06     29.8486E+06    -6.19924E+06     920.257E+03    -28.4960E-03     54.8969E-03    -26.4009E-03     89.3890E-03    -28.8917E-03     55.3774E-03    -26.4592E-03     89.2045E-03
             308     14.8991E-03     59.2105E-03    -10.2374E+06     82.1612E+06     4.41324E+06     1.44941E+06    -29.1272E-03     55.5163E-03    -26.3891E-03     112.704E-03    -29.9622E-03     56.5938E-03    -26.4713E-03     112.537E-03
             309     15.7771E-03     59.3319E-03    -7.60898E+06     120.663E+06     45.3145E+06     1.21832E+06    -29.6359E-03     56.1413E-03    -26.5053E-03     149.649E-03    -31.3915E-03     58.1667E-03    -26.4427E-03     149.813E-03
             310     16.6580E-03     59.4953E-03    -4.19735E+06     135.907E+06     82.5095E+06    -131.115E+03    -28.1703E-03     54.7744E-03    -26.6042E-03     118.970E-03    -29.7665E-03     56.5990E-03    -26.3826E-03     119.442E-03
             311     876.499E-06     59.5028E-03    -31.8185E+06    -120.880E+06    -31.0524E+06        -145.883    -26.5958E-03     53.1558E-03    -26.5599E-03     5.62513E-03    -26.5347E-03     52.6428E-03    -26.4938E-03     5.62237E-03
             312     1.75287E-03     59.5104E-03    -30.8102E+06    -119.777E+06    -28.5124E+06     2.73779E+03    -26.6033E-03     53.1890E-03    -26.5857E-03     10.4964E-03    -26.5428E-03     52.6766E-03    -26.5099E-03     10.4910E-03
             313     2.62942E-03     59.5228E-03    -29.5096E+06    -116.714E+06    -24.8894E+06     44.3282E+03    -26.6201E-03     53.2163E-03    -26.5962E-03     15.5681E-03    -26.5634E-03     52.7126E-03    -26.5086E-03     15.5601E-03
             314     3.50580E-03     59.5400E-03    -27.8333E+06    -113.112E+06    -20.2076E+06     74.2936E+03    -26.6526E-03     53.2605E-03    -26.6079E-03     20.6581E-03    -26.6004E-03     52.7665E-03    -26.5045E-03     20.6470E-03
             315     4.38234E-03     59.5621E-03    -25.8417E+06    -108.016E+06    -15.3919E+06     95.2404E+03    -26.6925E-03     53.3089E-03    -26.6164E-03     25.7641E-03    -26.6460E-03     52.8318E-03    -26.4993E-03     25.7488E-03
             316     5.25879E-03     59.5891E-03    -23.6413E+06    -100.823E+06    -10.8388E+06     133.389E+03    -26.7407E-03     53.3597E-03    -26.6190E-03     30.8325E-03    -26.7022E-03     52.9108E-03    -26.4927E-03     30.8123E-03
             317     6.13535E-03     59.6208E-03    -21.4453E+06    -95.4759E+06    -6.45137E+06     200.741E+03    -26.8094E-03     53.4325E-03    -26.6230E-03     35.8098E-03    -26.7770E-03     53.0036E-03    -26.4857E-03     35.7837E-03
             318     7.01182E-03     59.6572E-03    -19.3819E+06    -89.2052E+06    -3.16180E+06     238.118E+03    -26.8896E-03     53.5102E-03    -26.6207E-03     40.7173E-03    -26.8647E-03     53.1090E-03    -26.4790E-03     40.6835E-03
             319     7.88840E-03     59.6982E-03    -17.4565E+06    -81.8149E+06    -1.38283E+06     237.710E+03    -26.9797E-03     53.5893E-03    -26.6096E-03     45.5402E-03    -26.9642E-03     53.2254E-03    -26.4726E-03     45.4964E-03
             320     8.76489E-03     59.7439E-03    -15.8109E+06    -75.0883E+06    -699.355E+03     265.689E+03    -27.0829E-03     53.6779E-03    -26.5951E-03     50.2450E-03    -27.0778E-03     53.3522E-03    -26.4668E-03     50.1896E-03
             321     9.64146E-03     59.7938E-03    -14.3649E+06    -68.0093E+06    -320.750E+03     345.392E+03    -27.1902E-03     53.7696E-03    -26.5793E-03     54.8607E-03    -27.1999E-03     53.4877E-03    -26.4615E-03     54.7919E-03
             322     10.5180E-03     59.8482E-03    -13.1040E+06    -60.1714E+06    -1.22849E+06     271.868E+03    -27.3178E-03     53.8749E-03    -26.5571E-03     59.6573E-03    -27.3472E-03     53.6477E-03    -26.4570E-03     59.5703E-03
             323     11.3945E-03     59.9071E-03    -11.9952E+06    -48.7208E+06    -2.47148E+06     405.200E+03    -27.4482E-03     53.9772E-03    -26.5290E-03     64.6205E-03    -27.5103E-03     53.8309E-03    -26.4533E-03     64.5145E-03
             324     12.2710E-03     59.9709E-03    -11.3098E+06    -33.1762E+06    -1.86319E+06     632.586E+03    -27.6055E-03     54.1118E-03    -26.5063E-03     69.9141E-03    -27.7233E-03     54.0771E-03    -26.4511E-03     69.7867E-03
             325     13.1476E-03     60.0397E-03    -10.6642E+06    -13.3588E+06    -4.94917E+06     1.24124E+06    -27.8522E-03     54.3135E-03    -26.4614E-03     77.4033E-03    -28.0540E-03     54.4445E-03    -26.4513E-03     77.2546E-03
             326     14.0238E-03     60.1177E-03    -10.7642E+06     29.5464E+06    -5.93685E+06     1.65690E+06    -28.1177E-03     54.5092E-03    -26.3915E-03     90.5391E-03    -28.5111E-03     54.9866E-03    -26.4484E-03     90.3686E-03
             327     14.9011E-03     60.2110E-03    -10.6765E+06     83.1919E+06     6.18989E+06     1.08465E+06    -28.7410E-03     55.1030E-03    -26.3619E-03     113.410E-03    -29.5830E-03     56.1844E-03    -26.4361E-03     113.246E-03
             328     15.7775E-03     60.3303E-03    -8.07193E+06     120.702E+06     45.7794E+06     1.47156E+06    -29.7065E-03     56.1755E-03    -26.4690E-03     147.987E-03    -31.4597E-03     58.1958E-03    -26.4034E-03     148.153E-03
             329     16.6541E-03     60.4915E-03    -4.06217E+06     136.040E+06     81.9191E+06     127.441E+03    -28.3995E-03     54.9771E-03    -26.5775E-03     118.571E-03    -29.9959E-03     56.8044E-03    -26.3593E-03     119.045E-03
             330     876.402E-06     60.5024E-03    -31.6892E+06    -120.874E+06    -31.1139E+06     26.2061E+03    -26.6026E-03     53.1922E-03    -26.5896E-03     5.63645E-03    -26.5407E-03     52.6792E-03    -26.5240E-03     5.63402E-03
             331     1.75291E-03     60.5099E-03    -30.8709E+06    -119.839E+06    -28.5409E+06      33.889E+03    -26.6143E-03     53.2167E-03    -26.6024E-03     10.4839E-03    -26.5539E-03     52.7041E-03    -26.5266E-03     10.4789E-03
             332     2.62928E-03     60.5224E-03    -29.5628E+06    -116.788E+06    -24.9954E+06     76.1771E+03    -26.6330E-03     53.2438E-03    -26.6108E-03     15.5678E-03    -26.5762E-03     52.7400E-03    -26.5236E-03     15.5603E-03
             333     3.50582E-03     60.5396E-03    -27.8560E+06    -113.151E+06    -20.3547E+06     84.7057E+03    -26.6643E-03     53.2858E-03    -26.6215E-03     20.6679E-03    -26.6119E-03     52.7918E-03    -26.5188E-03     20.6569E-03
             334     4.38223E-03     60.5617E-03    -25.8272E+06    -108.007E+06    -15.3388E+06     47.0372E+03    -26.7025E-03     53.3327E-03    -26.6302E-03     25.7738E-03    -26.6560E-03     52.8556E-03    -26.5128E-03     25.7578E-03
             335     5.25877E-03     60.5886E-03    -23.7029E+06    -100.943E+06    -10.8409E+06     79.1734E+03    -26.7470E-03     53.3789E-03    -26.6319E-03     30.8458E-03    -26.7086E-03     52.9295E-03    -26.5054E-03     30.8248E-03
             336     6.13523E-03     60.6204E-03    -21.5411E+06    -95.5856E+06    -6.53567E+06     160.349E+03    -26.8130E-03     53.4474E-03    -26.6344E-03     35.8305E-03    -26.7807E-03     53.0183E-03    -26.4973E-03     35.8040E-03
             337     7.01180E-03     60.6567E-03    -19.3483E+06    -89.2312E+06    -3.17713E+06     175.730E+03    -26.8900E-03     53.5209E-03    -26.6308E-03     40.7453E-03    -26.8649E-03     53.1195E-03    -26.4893E-03     40.7107E-03
             338     7.88828E-03     60.6979E-03    -17.3746E+06    -81.9028E+06    -1.38497E+06     210.258E+03    -26.9761E-03     53.5946E-03    -26.6185E-03     45.5811E-03    -26.9600E-03     53.2301E-03    -26.4815E-03     45.5370E-03
             339     8.76487E-03     60.7434E-03    -15.7104E+06    -75.1859E+06    -669.434E+03     278.295E+03    -27.0719E-03     53.6742E-03    -26.6023E-03     50.3004E-03    -27.0662E-03     53.3478E-03    -26.4738E-03     50.2452E-03
             340     9.64139E-03     60.7934E-03    -14.3479E+06    -68.1006E+06    -287.720E+03     301.227E+03    -27.1707E-03     53.7551E-03    -26.5845E-03     54.9311E-03    -27.1801E-03     53.4727E-03    -26.4663E-03     54.8618E-03
             341     10.5180E-03     60.8477E-03    -13.3007E+06    -60.0634E+06    -1.17125E+06     280.207E+03    -27.2837E-03     53.8433E-03    -26.5596E-03     59.7601E-03    -27.3144E-03     53.6169E-03    -26.4590E-03     59.6732E-03
             342     11.3945E-03     60.9069E-03    -12.6732E+06    -49.0869E+06    -2.66760E+06     334.171E+03    -27.3894E-03     53.9172E-03    -26.5278E-03     64.7401E-03    -27.4541E-03     53.7704E-03    -26.4516E-03     64.6335E-03
             343     12.2713E-03     60.9703E-03    -11.9661E+06    -33.4928E+06    -2.34920E+06     642.079E+03    -27.5054E-03     54.0032E-03    -26.4978E-03     70.1293E-03    -27.6255E-03     53.9687E-03    -26.4436E-03     70.0024E-03
             344     13.1477E-03     61.0397E-03    -11.2204E+06    -13.9922E+06    -5.64500E+06     685.465E+03    -27.6081E-03     54.0489E-03    -26.4408E-03     77.6045E-03    -27.8106E-03     54.1783E-03    -26.4325E-03     77.4504E-03
             345     14.0246E-03     61.1170E-03    -9.95431E+06     28.5905E+06    -5.95768E+06     1.41131E+06    -27.6490E-03     54.0008E-03    -26.3518E-03     90.3900E-03    -28.0347E-03     54.4699E-03    -26.4086E-03     90.2210E-03
             346     14.9020E-03     61.2098E-03    -8.42588E+06     84.1621E+06     8.95284E+06     2.08928E+06    -28.4241E-03     54.7336E-03    -26.3096E-03     113.613E-03    -29.2547E-03     55.8072E-03    -26.3746E-03     113.467E-03
             347     15.7785E-03     61.3317E-03    -7.62158E+06     120.809E+06     47.2535E+06     884.693E+03    -30.2797E-03     56.7023E-03    -26.4227E-03     148.466E-03    -32.0556E-03     58.7431E-03    -26.3505E-03     148.618E-03
             348     16.6556E-03     61.4902E-03    -4.28422E+06     136.042E+06     81.7100E+06    -57.0979E+03    -29.1696E-03     55.7302E-03    -26.5605E-03     120.450E-03    -30.8049E-03     57.5962E-03    -26.3430E-03     120.914E-03
             349     876.455E-06     61.5019E-03    -31.6560E+06    -120.889E+06    -31.1403E+06     28.1671E+03    -26.5965E-03     53.2226E-03    -26.6261E-03     5.64757E-03    -26.5344E-03     52.7095E-03    -26.5606E-03     5.64515E-03
             350     1.75281E-03     61.5096E-03    -30.8979E+06    -119.951E+06    -28.6338E+06     80.7543E+03    -26.6249E-03     53.2413E-03    -26.6164E-03     10.5067E-03    -26.5644E-03     52.7283E-03    -26.5408E-03     10.5023E-03
             351     2.62933E-03     61.5219E-03    -29.5806E+06    -116.820E+06    -25.0070E+06     84.7698E+03    -26.6458E-03     53.2699E-03    -26.6240E-03     15.5794E-03    -26.5891E-03     52.7659E-03    -26.5368E-03     15.5720E-03
             352     3.50571E-03     61.5392E-03    -27.8458E+06    -113.137E+06    -20.3226E+06     36.8916E+03    -26.6714E-03     53.3054E-03    -26.6340E-03     20.6763E-03    -26.6190E-03     52.8115E-03    -26.5312E-03     20.6647E-03
             353     4.38223E-03     61.5612E-03    -25.8473E+06    -108.023E+06    -15.3300E+06     43.7369E+03    -26.7074E-03     53.3488E-03    -26.6414E-03     25.7844E-03    -26.6610E-03     52.8716E-03    -26.5239E-03     25.7684E-03
             354     5.25867E-03     61.5882E-03    -23.7179E+06    -101.030E+06    -10.7864E+06     73.8271E+03    -26.7518E-03     53.3942E-03    -26.6424E-03     30.8593E-03    -26.7135E-03     52.9443E-03    -26.5154E-03     30.8383E-03
             355     6.13522E-03     61.6199E-03    -21.5150E+06    -95.6521E+06    -6.56102E+06     87.7420E+03    -26.8127E-03     53.4560E-03    -26.6432E-03     35.8491E-03    -26.7802E-03     53.0265E-03    -26.5062E-03     35.8216E-03
             356     7.01170E-03     61.6564E-03    -19.4024E+06    -89.2378E+06    -3.20904E+06     83.0963E+03    -26.8844E-03     53.5226E-03    -26.6382E-03     40.7651E-03    -26.8595E-03     53.1213E-03    -26.4967E-03     40.7294E-03
             357     7.88830E-03     61.6974E-03    -17.4437E+06    -82.0492E+06    -1.38122E+06     141.152E+03    -26.9661E-03     53.5906E-03    -26.6245E-03     45.5965E-03    -26.9502E-03     53.2255E-03    -26.4871E-03     45.5516E-03
             358     8.76480E-03     61.7430E-03    -15.7114E+06    -75.2636E+06    -663.009E+03     212.894E+03    -27.0571E-03     53.6634E-03    -26.6063E-03     50.3053E-03    -27.0514E-03     53.3366E-03    -26.4777E-03     50.2493E-03
             359     9.64144E-03     61.7929E-03    -14.2096E+06    -68.1988E+06    -198.331E+03     285.980E+03    -27.1525E-03     53.7393E-03    -26.5868E-03     54.9208E-03    -27.1613E-03     53.4561E-03    -26.4683E-03     54.8513E-03
             360     10.5180E-03     61.8473E-03    -13.0912E+06    -60.1445E+06    -1.18891E+06     413.212E+03    -27.2497E-03     53.8086E-03    -26.5589E-03     59.7142E-03    -27.2792E-03     53.5816E-03    -26.4587E-03     59.6291E-03
             361     11.3947E-03     61.9062E-03    -12.1885E+06    -49.1779E+06    -2.50008E+06     481.106E+03    -27.3445E-03     53.8692E-03    -26.5247E-03     64.6544E-03    -27.4069E-03     53.7211E-03    -26.4482E-03     64.5496E-03
             362     12.2712E-03     61.9700E-03    -11.2953E+06    -33.7073E+06    -2.62010E+06     336.702E+03    -27.4078E-03     53.8955E-03    -26.4877E-03     69.9993E-03    -27.5238E-03     53.8593E-03    -26.4355E-03     69.8689E-03
             363     13.1482E-03     62.0390E-03    -10.2117E+06    -13.6440E+06    -5.51262E+06     36.4511E+03    -27.4313E-03     53.8548E-03    -26.4235E-03     77.1158E-03    -27.6286E-03     53.9834E-03    -26.4165E-03     76.9545E-03
             364     14.0252E-03     62.1161E-03    -9.15427E+06     27.2215E+06    -8.67510E+06     250.842E+03    -27.6620E-03     53.9821E-03    -26.3201E-03     89.5400E-03    -28.0373E-03     54.4468E-03    -26.3897E-03     89.3555E-03
             365     14.9023E-03     62.2089E-03    -7.95912E+06     82.7039E+06     5.11198E+06     1.24454E+06    -28.2903E-03     54.5631E-03    -26.2729E-03     112.550E-03    -29.1015E-03     55.6249E-03    -26.3557E-03     112.394E-03
             366     15.7805E-03     62.3308E-03    -4.68442E+06     123.171E+06     50.5560E+06     1.38178E+06    -30.1468E-03     56.5560E-03    -26.4092E-03     147.441E-03    -31.9063E-03     58.5896E-03    -26.3282E-03     147.596E-03
             367     16.6566E-03     62.4915E-03    -2.98362E+06     137.424E+06     84.4463E+06     1.78930E+06    -29.6474E-03     56.2084E-03    -26.5610E-03     119.209E-03    -31.2722E-03     58.0656E-03    -26.3337E-03     119.679E-03
             368     876.377E-06     62.5016E-03    -31.8899E+06    -121.032E+06    -31.1473E+06     88.4880E+03    -26.6137E-03     53.2378E-03    -26.6241E-03     5.66457E-03    -26.5526E-03     52.7244E-03    -26.5581E-03     5.66290E-03
             369     1.75289E-03     62.5091E-03    -30.9656E+06    -119.992E+06    -28.5905E+06     103.279E+03    -26.6409E-03     53.2671E-03    -26.6263E-03     10.5069E-03    -26.5807E-03     52.7540E-03    -26.5503E-03     10.5028E-03
             370     2.62922E-03     62.5216E-03    -29.5571E+06    -116.817E+06    -24.9764E+06     43.2129E+03    -26.6540E-03     53.2890E-03    -26.6349E-03     15.5748E-03    -26.5972E-03     52.7849E-03    -26.5476E-03     15.5669E-03
             371     3.50572E-03     62.5387E-03    -27.8532E+06    -113.127E+06    -20.3149E+06     42.2195E+03    -26.6757E-03     53.3195E-03    -26.6438E-03     20.6822E-03    -26.6234E-03     52.8256E-03    -26.5409E-03     20.6706E-03
             372     4.38215E-03     62.5609E-03    -25.8878E+06    -108.087E+06    -15.4008E+06     54.6067E+03    -26.7101E-03     53.3597E-03    -26.6496E-03     25.7937E-03    -26.6637E-03     52.8824E-03    -26.5324E-03     25.7779E-03
             373     5.25867E-03     62.5878E-03    -23.7727E+06    -101.054E+06    -10.8535E+06     71.5627E+03    -26.7543E-03     53.4038E-03    -26.6496E-03     30.8660E-03    -26.7161E-03     52.9540E-03    -26.5228E-03     30.8450E-03
             374     6.13514E-03     62.6195E-03    -21.6526E+06    -95.6586E+06    -6.60462E+06     54.1692E+03    -26.8141E-03     53.4640E-03    -26.6499E-03     35.8509E-03    -26.7822E-03     53.0348E-03    -26.5128E-03     35.8229E-03
             375     7.01171E-03     62.6559E-03    -19.5769E+06    -89.2765E+06    -3.36992E+06     71.7418E+03    -26.8848E-03     53.5285E-03    -26.6437E-03     40.7611E-03    -26.8605E-03     53.1275E-03    -26.5027E-03     40.7251E-03
             376     7.88820E-03     62.6970E-03    -17.6545E+06    -82.0845E+06    -1.57340E+06     43.2487E+03    -26.9649E-03     53.5942E-03    -26.6293E-03     45.5734E-03    -26.9497E-03     53.2295E-03    -26.4926E-03     45.5271E-03
             377     8.76482E-03     62.7425E-03    -15.8892E+06    -75.3487E+06    -951.887E+03     44.5092E+03    -27.0575E-03     53.6676E-03    -26.6102E-03     50.2710E-03    -27.0521E-03     53.3411E-03    -26.4826E-03     50.2127E-03
             378     9.64133E-03     62.7925E-03    -14.2789E+06    -68.2656E+06    -493.258E+03     39.5470E+03    -27.1538E-03     53.7441E-03    -26.5903E-03     54.8613E-03    -27.1625E-03     53.4611E-03    -26.4730E-03     54.7886E-03
             379     10.5180E-03     62.8467E-03    -12.7533E+06    -60.4575E+06    -1.34072E+06     195.155E+03    -27.2585E-03     53.8215E-03    -26.5630E-03     59.6059E-03    -27.2857E-03     53.5927E-03    -26.4636E-03     59.5178E-03
             380     11.3945E-03     62.9058E-03    -11.3420E+06    -48.9444E+06    -2.26612E+06      73.723E+03    -27.3464E-03     53.8758E-03    -26.5294E-03     64.4976E-03    -27.4054E-03     53.7273E-03    -26.4533E-03     64.3874E-03
             381     12.2713E-03     62.9694E-03    -10.0957E+06    -33.6683E+06    -2.44851E+06    -97.7668E+03    -27.4055E-03     53.8972E-03    -26.4917E-03     69.6940E-03    -27.5155E-03     53.8589E-03    -26.4405E-03     69.5580E-03
             382     13.1480E-03     63.0384E-03    -9.70447E+06    -13.2318E+06    -4.93771E+06    -69.7559E+03    -27.5494E-03     53.9836E-03    -26.4342E-03     76.5819E-03    -27.7455E-03     54.1126E-03    -26.4257E-03     76.4183E-03
             383     14.0247E-03     63.1151E-03    -9.49423E+06     26.8148E+06    -8.77905E+06    -422.213E+03    -27.8721E-03     54.2131E-03    -26.3410E-03     88.9943E-03    -28.2484E-03     54.6763E-03    -26.4100E-03     88.7989E-03
             384     14.9013E-03     63.2085E-03    -9.31563E+06     80.9006E+06     2.76490E+06     468.885E+03    -28.6771E-03     54.9813E-03    -26.3042E-03     111.845E-03    -29.4880E-03     56.0383E-03    -26.3942E-03     111.671E-03
             385     15.7776E-03     63.3289E-03    -9.22523E+06     122.519E+06     45.1142E+06     1.79582E+06    -30.7082E-03     57.1620E-03    -26.4538E-03     147.295E-03    -32.4855E-03     59.2107E-03    -26.3925E-03     147.436E-03
             386     16.6541E-03     63.4932E-03    -5.64698E+06     138.437E+06     81.2835E+06     2.35080E+06    -28.9273E-03     55.5335E-03    -26.6062E-03     118.127E-03    -30.5562E-03     57.3982E-03    -26.3924E-03     118.603E-03
             387     876.476E-06     63.5011E-03    -31.9484E+06    -121.165E+06    -31.2680E+06     80.7379E+03    -26.6345E-03     53.2660E-03    -26.6315E-03     5.66424E-03    -26.5733E-03     52.7522E-03    -26.5659E-03     5.66247E-03
             388     1.75275E-03     63.5088E-03    -30.8825E+06    -119.977E+06    -28.5735E+06     45.9782E+03    -26.6445E-03     53.2828E-03    -26.6383E-03     10.4919E-03    -26.5840E-03     52.7695E-03    -26.5624E-03     10.4871E-03
             389     2.62927E-03     63.5211E-03    -29.5658E+06    -116.850E+06    -24.9886E+06     41.1857E+03    -26.6508E-03     53.2937E-03    -26.6429E-03     15.5855E-03    -26.5940E-03     52.7896E-03    -26.5555E-03     15.5775E-03
             390     3.50567E-03     63.5384E-03    -27.8872E+06    -113.180E+06    -20.3421E+06     76.7811E+03    -26.6805E-03     53.3302E-03    -26.6497E-03     20.6913E-03    -26.6282E-03     52.8361E-03    -26.5469E-03     20.6801E-03
             391     4.38216E-03     63.5604E-03    -25.9480E+06    -108.121E+06    -15.4675E+06     104.684E+03    -26.7160E-03     53.3712E-03    -26.6552E-03     25.7982E-03    -26.6697E-03     52.8939E-03    -26.5382E-03     25.7830E-03
             392     5.25861E-03     63.5874E-03    -23.9066E+06    -101.098E+06    -11.0065E+06     119.278E+03    -26.7583E-03     53.4131E-03    -26.6548E-03     30.8673E-03    -26.7205E-03     52.9634E-03    -26.5286E-03     30.8469E-03
             393     6.13515E-03     63.6191E-03    -21.8041E+06    -95.5937E+06    -6.76503E+06     87.2235E+03    -26.8226E-03     53.4777E-03    -26.6551E-03     35.8462E-03    -26.7913E-03     53.0493E-03    -26.5187E-03     35.8186E-03
             394     7.01161E-03     63.6555E-03    -19.7197E+06    -89.3368E+06    -3.56872E+06     40.9462E+03    -26.8950E-03     53.5443E-03    -26.6494E-03     40.7473E-03    -26.8710E-03     53.1436E-03    -26.5091E-03     40.7109E-03
             395     7.88820E-03     63.6965E-03    -17.7736E+06    -81.9639E+06    -1.74288E+06    -1.61266E+03    -26.9770E-03     53.6124E-03    -26.6354E-03     45.5546E-03    -26.9623E-03     53.2488E-03    -26.4995E-03     45.5077E-03
             396     8.76468E-03     63.7421E-03    -16.0806E+06    -75.3464E+06    -1.05570E+06    -125.834E+03    -27.0737E-03     53.6915E-03    -26.6177E-03     50.2420E-03    -27.0692E-03     53.3654E-03    -26.4905E-03     50.1814E-03
             397     9.64131E-03     63.7921E-03    -14.5985E+06    -68.1755E+06    -632.968E+03    -212.520E+03    -27.1723E-03     53.7711E-03    -26.5988E-03     54.8201E-03    -27.1825E-03     53.4893E-03    -26.4819E-03     54.7440E-03
             398     10.5178E-03     63.8463E-03    -13.2258E+06    -60.6109E+06    -1.48156E+06    -350.666E+03    -27.2849E-03     53.8584E-03    -26.5735E-03     59.5632E-03    -27.3141E-03     53.6298E-03    -26.4738E-03     59.4679E-03
             399     11.3945E-03     63.9053E-03    -12.0290E+06    -48.5469E+06    -2.38816E+06    -490.810E+03    -27.3885E-03     53.9302E-03    -26.5417E-03     64.4264E-03    -27.4513E-03     53.7849E-03    -26.4658E-03     64.3088E-03
             400     12.2709E-03     63.9689E-03    -11.2166E+06    -33.8948E+06    -2.42066E+06    -485.632E+03    -27.4925E-03     54.0030E-03    -26.5105E-03     69.5606E-03    -27.6077E-03     53.9652E-03    -26.4572E-03     69.4192E-03
             401     13.1476E-03     64.0378E-03    -10.4044E+06    -13.5783E+06    -5.13088E+06    -40.2120E+03    -27.7203E-03     54.1796E-03    -26.4593E-03     76.6260E-03    -27.9193E-03     54.3084E-03    -26.4502E-03     76.4617E-03
             402     14.0240E-03     64.1150E-03    -10.8387E+06     27.2914E+06    -7.48543E+06     42.1900E+03    -28.0534E-03     54.4364E-03    -26.3830E-03     88.9941E-03    -28.4392E-03     54.9023E-03    -26.4443E-03     88.8027E-03
             403     14.9010E-03     64.2075E-03    -11.7488E+06     78.1086E+06    -765.571E+03     1.33072E+06    -28.9830E-03     55.3229E-03    -26.3399E-03     112.473E-03    -29.8040E-03     56.3817E-03    -26.4400E-03     112.305E-03
             404     15.7773E-03     64.3304E-03    -12.0414E+06     121.735E+06     35.9964E+06     2.74947E+06    -30.5701E-03     57.0260E-03    -26.4559E-03     149.564E-03    -32.3577E-03     59.0986E-03    -26.4350E-03     149.726E-03
             405     16.6521E-03     64.4935E-03    -7.04778E+06     140.662E+06     77.4963E+06     1.02619E+06    -28.1747E-03     54.7704E-03    -26.5957E-03     119.248E-03    -29.8113E-03     56.6566E-03    -26.4020E-03     119.728E-03
             406     876.309E-06     64.5009E-03    -31.3191E+06    -121.259E+06    -30.8906E+06     71.5656E+03    -26.6292E-03     53.2882E-03    -26.6590E-03     5.67599E-03    -26.5653E-03     52.7724E-03    -26.5922E-03     5.67409E-03
             407     1.75284E-03     64.5083E-03    -30.7336E+06    -119.999E+06    -28.7256E+06     46.8956E+03    -26.6381E-03     53.2812E-03    -26.6431E-03     10.5029E-03    -26.5765E-03     52.7679E-03    -26.5682E-03     10.4981E-03
             408     2.62921E-03     64.5208E-03    -29.5063E+06    -116.910E+06    -25.0437E+06     91.2628E+03    -26.6574E-03     53.3031E-03    -26.6456E-03     15.5879E-03    -26.6001E-03     52.7986E-03    -26.5586E-03     15.5806E-03
             409     3.50569E-03     64.5380E-03    -27.9095E+06    -113.276E+06    -20.4212E+06     145.176E+03    -26.6848E-03     53.3379E-03    -26.6531E-03     20.6909E-03    -26.6324E-03     52.8435E-03    -26.5505E-03     20.6807E-03
             410     4.38211E-03     64.5601E-03    -26.0229E+06    -108.199E+06    -15.5464E+06     205.208E+03    -26.7228E-03     53.3818E-03    -26.6590E-03     25.7968E-03    -26.6767E-03     52.9044E-03    -26.5421E-03     25.7828E-03
             411     5.25862E-03     64.5870E-03    -23.9407E+06    -101.058E+06    -11.0376E+06     162.471E+03    -26.7688E-03     53.4282E-03    -26.6594E-03     30.8658E-03    -26.7312E-03     52.9789E-03    -26.5333E-03     30.8459E-03
             412     6.13507E-03     64.6187E-03    -21.8233E+06    -95.6100E+06    -6.81572E+06     131.226E+03    -26.8326E-03     53.4931E-03    -26.6605E-03     35.8464E-03    -26.8013E-03     53.0647E-03    -26.5243E-03     35.8194E-03
             413     7.01162E-03     64.6551E-03    -19.8069E+06    -89.2416E+06    -3.51367E+06     83.5247E+03    -26.9074E-03     53.5633E-03    -26.6559E-03     40.7469E-03    -26.8841E-03     53.1631E-03    -26.5154E-03     40.7111E-03
             414     7.88809E-03     64.6961E-03    -17.9732E+06    -81.9277E+06    -1.71652E+06    -3.73099E+03    -26.9937E-03     53.6368E-03    -26.6431E-03     45.5614E-03    -26.9801E-03     53.2735E-03    -26.5068E-03     45.5144E-03
             415     8.76466E-03     64.7417E-03    -16.4097E+06    -75.1498E+06    -956.953E+03    -80.4028E+03    -27.0914E-03     53.7182E-03    -26.6269E-03     50.2508E-03    -27.0889E-03     53.3935E-03    -26.4989E-03     50.1908E-03
             416     9.64112E-03     64.7916E-03    -15.1993E+06    -68.1540E+06    -658.985E+03    -166.958E+03    -27.1896E-03     53.7986E-03    -26.6090E-03     54.8368E-03    -27.2028E-03     53.5178E-03    -26.4914E-03     54.7612E-03
             417     10.5178E-03     64.8459E-03    -14.3702E+06    -60.1991E+06    -1.61437E+06    -364.999E+03    -27.3059E-03     53.8904E-03    -26.5845E-03     59.5952E-03    -27.3412E-03     53.6656E-03    -26.4844E-03     59.4997E-03
             418     11.3942E-03     64.9049E-03    -13.9677E+06    -48.6755E+06    -3.12503E+06    -421.894E+03    -27.4245E-03     53.9779E-03    -26.5533E-03     64.4747E-03    -27.4957E-03     53.8357E-03    -26.4781E-03     64.3579E-03
             419     12.2708E-03     64.9686E-03    -13.7655E+06    -33.8170E+06    -3.17044E+06    -309.752E+03    -27.5583E-03     54.0842E-03    -26.5259E-03     69.6958E-03    -27.6855E-03     54.0517E-03    -26.4728E-03     69.5562E-03
             420     13.1472E-03     65.0374E-03    -13.7802E+06    -14.2281E+06    -6.86296E+06    -328.231E+03    -27.7852E-03     54.2609E-03    -26.4757E-03     76.8945E-03    -27.9981E-03     54.3943E-03    -26.4694E-03     76.7259E-03
             421     14.0239E-03     65.1148E-03    -13.9342E+06     26.1650E+06    -6.17214E+06     1.25782E+06    -28.1425E-03     54.5612E-03    -26.4188E-03     89.2317E-03    -28.5461E-03     55.0262E-03    -26.4673E-03     89.0541E-03
             422     14.9000E-03     65.2073E-03    -14.2749E+06     76.4230E+06    -610.721E+03     2.12222E+06    -28.6751E-03     55.0371E-03    -26.3620E-03     113.047E-03    -29.5115E-03     56.0959E-03    -26.4552E-03     112.894E-03
             423     15.7769E-03     65.3301E-03    -10.5101E+06     122.298E+06     34.9280E+06     670.855E+03    -29.4580E-03     55.8798E-03    -26.4219E-03     149.773E-03    -31.2230E-03     57.9404E-03    -26.4093E-03     149.933E-03
             424     16.6582E-03     65.4917E-03    -4.61329E+06     142.824E+06     78.9463E+06    -395.404E+03    -28.3125E-03     54.8577E-03    -26.5452E-03     118.942E-03    -29.9271E-03     56.7340E-03    -26.3509E-03     119.410E-03
             425     876.454E-06     65.5004E-03    -31.5532E+06    -121.472E+06    -31.0803E+06     81.3455E+03    -26.6235E-03     53.2673E-03    -26.6437E-03     5.68019E-03    -26.5602E-03     52.7510E-03    -26.5772E-03     5.67842E-03
             426     1.75280E-03     65.5080E-03    -30.7634E+06    -120.014E+06    -28.6733E+06     113.088E+03    -26.6525E-03     53.2908E-03    -26.6383E-03     10.5040E-03    -26.5911E-03     52.7774E-03    -26.5631E-03     10.5001E-03
             427     2.62924E-03     65.5203E-03    -29.6037E+06    -117.051E+06    -25.2101E+06     166.044E+03    -26.6660E-03     53.3122E-03    -26.6462E-03     15.5809E-03    -26.6087E-03     52.8074E-03    -26.5596E-03     15.5746E-03
             428     3.50565E-03     65.5376E-03    -28.0052E+06    -113.383E+06    -20.5294E+06     234.216E+03    -26.6904E-03     53.3459E-03    -26.6555E-03     20.6908E-03    -26.6381E-03     52.8513E-03    -26.5532E-03     20.6817E-03
             429     4.38213E-03     65.5597E-03    -25.9948E+06    -108.238E+06    -15.5224E+06     202.188E+03    -26.7284E-03     53.3909E-03    -26.6625E-03     25.7973E-03    -26.6822E-03     52.9131E-03    -26.5454E-03     25.7834E-03
             430     5.25857E-03     65.5866E-03    -23.8940E+06    -101.094E+06    -10.9781E+06     235.886E+03    -26.7756E-03     53.4391E-03    -26.6634E-03     30.8733E-03    -26.7378E-03     52.9894E-03    -26.5371E-03     30.8544E-03
             431     6.13507E-03     65.6183E-03    -21.8624E+06    -95.6160E+06    -6.67969E+06     237.907E+03    -26.8387E-03     53.5040E-03    -26.6653E-03     35.8584E-03    -26.8078E-03     53.0755E-03    -26.5284E-03     35.8327E-03
             432     7.01154E-03     65.6547E-03    -19.8690E+06    -89.1847E+06    -3.39855E+06     198.828E+03    -26.9140E-03     53.5750E-03    -26.6609E-03     40.7706E-03    -26.8913E-03     53.1749E-03    -26.5198E-03     40.7362E-03
             433     7.88809E-03     65.6958E-03    -18.1231E+06    -81.8905E+06    -1.67073E+06     189.258E+03    -27.0010E-03     53.6492E-03    -26.6482E-03     45.5958E-03    -26.9883E-03     53.2863E-03    -26.5115E-03     45.5513E-03
             434     8.76455E-03     65.7413E-03    -16.7783E+06    -75.1476E+06    -1.12203E+06     222.996E+03    -27.0939E-03     53.7252E-03    -26.6313E-03     50.3016E-03    -27.0930E-03     53.4013E-03    -26.5036E-03     50.2455E-03
             435     9.64115E-03     65.7913E-03    -15.7010E+06    -67.9846E+06    -885.109E+03     178.169E+03    -27.1970E-03     53.8101E-03    -26.6131E-03     54.9071E-03    -27.2126E-03     53.5312E-03    -26.4962E-03     54.8360E-03
             436     10.5176E-03     65.8455E-03    -14.8829E+06    -60.0139E+06    -2.07544E+06     100.990E+03    -27.3172E-03     53.9050E-03    -26.5877E-03     59.6919E-03    -27.3547E-03     53.6825E-03    -26.4895E-03     59.6025E-03
             437     11.3942E-03     65.9046E-03    -14.3966E+06    -48.7863E+06    -3.80071E+06     172.975E+03    -27.4363E-03     53.9925E-03    -26.5562E-03     64.5953E-03    -27.5085E-03     53.8514E-03    -26.4836E-03     64.4862E-03
             438     12.2707E-03     65.9681E-03    -14.0189E+06    -33.7483E+06    -4.09912E+06     163.582E+03    -27.5635E-03     54.0904E-03    -26.5269E-03     69.8883E-03    -27.6909E-03     54.0601E-03    -26.4781E-03     69.7548E-03
             439     13.1473E-03     66.0373E-03    -14.0286E+06    -14.5347E+06    -8.33872E+06     533.456E+03    -27.8107E-03     54.2851E-03    -26.4744E-03     77.2075E-03    -28.0228E-03     54.4199E-03    -26.4746E-03     77.0498E-03
             440     14.0236E-03     66.1145E-03    -13.8019E+06     23.7705E+06    -9.37475E+06     1.32567E+06    -28.0836E-03     54.4924E-03    -26.4088E-03     89.5718E-03    -28.4798E-03     54.9512E-03    -26.4701E-03     89.3958E-03
             441     14.9006E-03     66.2073E-03    -10.8658E+06     78.1889E+06     1.78931E+06     699.539E+03    -28.4235E-03     54.7836E-03    -26.3601E-03     112.574E-03    -29.2467E-03     55.8406E-03    -26.4488E-03     112.407E-03
             442     15.7790E-03     66.3277E-03    -6.65815E+06     123.659E+06     42.9515E+06    -1.21176E+06    -29.7193E-03     56.1718E-03    -26.4525E-03     147.977E-03    -31.4706E-03     58.2139E-03    -26.4074E-03     148.104E-03
             443     16.6542E-03     66.4900E-03    -3.09113E+06     141.090E+06     82.7371E+06    -655.466E+03    -28.3967E-03     54.9743E-03    -26.5777E-03     117.907E-03    -30.0028E-03     56.8304E-03    -26.3641E-03     118.362E-03
             444     876.417E-06     66.5002E-03    -31.8359E+06    -121.649E+06    -31.1478E+06     20.2129E+03    -26.6363E-03     53.2572E-03    -26.6209E-03     5.69210E-03    -26.5740E-03     52.7406E-03    -26.5541E-03     5.68953E-03
             445     1.75282E-03     66.5076E-03    -30.8630E+06    -120.090E+06    -28.6243E+06     85.0486E+03    -26.6585E-03     53.2949E-03    -26.6364E-03     10.4885E-03    -26.5976E-03     52.7811E-03    -26.5607E-03     10.4842E-03
             446     2.62922E-03     66.5200E-03    -29.4384E+06    -117.260E+06    -24.8122E+06     188.199E+03    -26.6697E-03     53.3183E-03    -26.6486E-03     15.5791E-03    -26.6119E-03     52.8117E-03    -26.5599E-03     15.5731E-03
             447     3.50566E-03     66.5372E-03    -27.7378E+06    -113.537E+06    -20.1755E+06     311.447E+03    -26.6947E-03     53.3529E-03    -26.6582E-03     20.6944E-03    -26.6414E-03     52.8565E-03    -26.5542E-03     20.6863E-03
             448     4.38209E-03     66.5593E-03    -25.9248E+06    -108.183E+06    -15.4739E+06     294.885E+03    -26.7289E-03     53.3926E-03    -26.6637E-03     25.8142E-03    -26.6825E-03     52.9150E-03    -26.5466E-03     25.8015E-03
             449     5.25858E-03     66.5862E-03    -23.9431E+06    -101.323E+06    -11.0260E+06     329.014E+03    -26.7727E-03     53.4370E-03    -26.6643E-03     30.8948E-03    -26.7347E-03     52.9863E-03    -26.5378E-03     30.8771E-03
             450     6.13505E-03     66.6180E-03    -21.8881E+06    -95.5978E+06    -6.74898E+06     409.854E+03    -26.8360E-03     53.5011E-03    -26.6651E-03     35.8931E-03    -26.8051E-03     53.0727E-03    -26.5285E-03     35.8697E-03
             451     7.01156E-03     66.6544E-03    -19.9255E+06    -89.1513E+06    -3.50622E+06     327.197E+03    -26.9100E-03     53.5700E-03    -26.6600E-03     40.8183E-03    -26.8874E-03     53.1704E-03    -26.5194E-03     40.7856E-03
             452     7.88806E-03     66.6954E-03    -18.1275E+06    -82.0832E+06    -1.85736E+06     432.382E+03    -26.9905E-03     53.6368E-03    -26.6462E-03     45.6559E-03    -26.9773E-03     53.2731E-03    -26.5102E-03     45.6147E-03
             453     8.76462E-03     66.7410E-03    -16.5565E+06    -75.1328E+06    -1.28666E+06     501.187E+03    -27.0853E-03     53.7130E-03    -26.6277E-03     50.3745E-03    -27.0831E-03     53.3890E-03    -26.5012E-03     50.3222E-03
             454     9.64112E-03     66.7909E-03    -15.1711E+06    -67.9137E+06    -1.00571E+06     418.498E+03    -27.1889E-03     53.7971E-03    -26.6082E-03     55.0092E-03    -27.2017E-03     53.5179E-03    -26.4928E-03     54.9414E-03
             455     10.5177E-03     66.8453E-03    -14.0244E+06    -59.9949E+06    -2.13699E+06     388.808E+03    -27.3079E-03     53.8896E-03    -26.5817E-03     59.8173E-03    -27.3409E-03     53.6661E-03    -26.4851E-03     59.7317E-03
             456     11.3942E-03     66.9042E-03    -12.9538E+06    -48.8502E+06    -3.56653E+06     325.240E+03    -27.4307E-03     53.9806E-03    -26.5499E-03     64.7615E-03    -27.4959E-03     53.8368E-03    -26.4781E-03     64.6545E-03
             457     12.2708E-03     66.9679E-03    -11.9328E+06    -33.6269E+06    -3.74457E+06     257.563E+03    -27.5509E-03     54.0696E-03    -26.5187E-03     70.0748E-03    -27.6687E-03     54.0365E-03    -26.4713E-03     69.9428E-03
             458     13.1474E-03     67.0367E-03    -10.7790E+06    -15.6261E+06    -7.31882E+06     638.408E+03    -27.7429E-03     54.2088E-03    -26.4659E-03     77.5048E-03    -27.9387E-03     54.3321E-03    -26.4642E-03     77.3493E-03
             459     14.0240E-03     67.1147E-03    -9.52155E+06     23.7746E+06    -9.63779E+06     640.866E+03    -27.9584E-03     54.3422E-03    -26.3838E-03     89.6889E-03    -28.3315E-03     54.7938E-03    -26.4527E-03     89.5064E-03
             460     14.9007E-03     67.2060E-03    -8.85181E+06     80.4931E+06     4.34242E+06    -563.911E+03    -28.6048E-03     54.9555E-03    -26.3508E-03     112.498E-03    -29.4255E-03     56.0180E-03    -26.4329E-03     112.313E-03
             461     15.7764E-03     67.3276E-03    -8.25144E+06     123.398E+06     45.2197E+06     -970.01E+03    -30.1460E-03     56.6117E-03    -26.4658E-03     149.296E-03    -31.9228E-03     58.6662E-03    -26.4066E-03     149.423E-03
             462     16.6536E-03     67.4907E-03    -4.05091E+06     139.991E+06     81.5981E+06    -215.429E+03    -28.4113E-03     54.9918E-03    -26.5805E-03     119.836E-03    -30.0364E-03     56.8629E-03    -26.3696E-03     120.304E-03
             463     876.390E-06     67.4997E-03    -31.7395E+06    -121.678E+06    -31.1931E+06     60.1695E+03    -26.6408E-03     53.2680E-03    -26.6271E-03     5.71365E-03    -26.5779E-03     52.7511E-03    -26.5607E-03     5.71161E-03
             464     1.75282E-03     67.5073E-03    -30.9503E+06    -120.210E+06    -28.7215E+06     57.4245E+03    -26.6451E-03     53.2829E-03    -26.6378E-03     10.4945E-03    -26.5844E-03     52.7688E-03    -26.5622E-03     10.4899E-03
             465     2.62923E-03     67.5196E-03    -29.6592E+06    -117.507E+06    -25.0406E+06     168.712E+03    -26.6658E-03     53.3116E-03    -26.6458E-03     15.5863E-03    -26.6084E-03     52.8044E-03    -26.5576E-03     15.5801E-03
             466     3.50566E-03     67.5369E-03    -27.9616E+06    -113.774E+06    -20.5165E+06     329.114E+03    -26.6885E-03     53.3427E-03    -26.6542E-03     20.7100E-03    -26.6354E-03     52.8460E-03    -26.5513E-03     20.7022E-03
             467     4.38213E-03     67.5589E-03    -25.9636E+06    -108.227E+06    -15.6392E+06     424.257E+03    -26.7210E-03     53.3802E-03    -26.6592E-03     25.8373E-03    -26.6744E-03     52.9026E-03    -26.5428E-03     25.8263E-03
             468     5.25859E-03     67.5859E-03    -23.9153E+06    -101.458E+06    -11.0946E+06     417.660E+03    -26.7635E-03     53.4229E-03    -26.6594E-03     30.9233E-03    -26.7251E-03     52.9716E-03    -26.5331E-03     30.9068E-03
             469     6.13510E-03     67.6176E-03    -21.7089E+06    -95.6401E+06    -6.88252E+06     365.115E+03    -26.8223E-03     53.4807E-03    -26.6584E-03     35.9363E-03    -26.7902E-03     53.0520E-03    -26.5226E-03     35.9125E-03
             470     7.01160E-03     67.6540E-03    -19.5213E+06    -89.2004E+06    -3.44727E+06     423.079E+03    -26.8936E-03     53.5461E-03    -26.6525E-03     40.8678E-03    -26.8690E-03     53.1455E-03    -26.5121E-03     40.8366E-03
             471     7.88815E-03     67.6950E-03    -17.5438E+06    -82.2722E+06    -1.64445E+06     432.198E+03    -26.9735E-03     53.6115E-03    -26.6380E-03     45.7077E-03    -26.9574E-03     53.2458E-03    -26.5015E-03     45.6666E-03
             472     8.76469E-03     67.7405E-03    -15.6790E+06    -75.1225E+06    -965.799E+03     417.074E+03    -27.0678E-03     53.6857E-03    -26.6179E-03     50.4484E-03    -27.0616E-03     53.3600E-03    -26.4911E-03     50.3952E-03
             473     9.64127E-03     67.7905E-03    -14.1018E+06    -67.8881E+06    -375.221E+03     376.487E+03    -27.1694E-03     53.7678E-03    -26.5983E-03     55.0807E-03    -27.1779E-03     53.4862E-03    -26.4813E-03     55.0125E-03
             474     10.5178E-03     67.8448E-03    -12.7913E+06    -60.0333E+06    -1.23064E+06     333.881E+03    -27.2813E-03     53.8529E-03    -26.5716E-03     59.8957E-03    -27.3095E-03     53.6261E-03    -26.4721E-03     59.8096E-03
             475     11.3944E-03     67.9039E-03    -11.8215E+06    -48.6646E+06    -2.37446E+06     165.785E+03    -27.3969E-03     53.9360E-03    -26.5391E-03     64.8607E-03    -27.4584E-03     53.7897E-03    -26.4633E-03     64.7519E-03
             476     12.2711E-03     67.9674E-03    -10.9612E+06    -33.5638E+06    -2.51547E+06    -82.8557E+03    -27.5312E-03     54.0383E-03    -26.5071E-03     70.1964E-03    -27.6461E-03     54.0024E-03    -26.4551E-03     70.0601E-03
             477     13.1476E-03     68.0366E-03    -9.75215E+06    -15.5300E+06    -5.41254E+06    -683.669E+03    -27.6380E-03     54.0924E-03    -26.4544E-03     77.4783E-03    -27.8313E-03     54.2117E-03    -26.4448E-03     77.3064E-03
             478     14.0245E-03     68.1138E-03    -8.31964E+06     23.5999E+06    -8.61833E+06    -703.403E+03    -27.8272E-03     54.1890E-03    -26.3617E-03     89.6171E-03    -28.1938E-03     54.6347E-03    -26.4270E-03     89.4188E-03
             479     14.9014E-03     68.2061E-03    -7.69689E+06     80.4518E+06     4.42348E+06     654.004E+03    -28.4811E-03     54.7981E-03    -26.3170E-03     112.875E-03    -29.2971E-03     55.8595E-03    -26.4003E-03     112.708E-03
             480     15.7792E-03     68.3274E-03    -6.96030E+06     124.206E+06     46.6720E+06     840.291E+03    -29.8180E-03     56.2436E-03    -26.4256E-03     149.410E-03    -31.5854E-03     58.2918E-03    -26.3622E-03     149.569E-03
             481     16.6579E-03     68.4891E-03    -4.21847E+06     140.111E+06     82.0916E+06     15.6356E+03    -28.8724E-03     55.4166E-03    -26.5442E-03     119.529E-03    -30.4933E-03     57.2818E-03    -26.3308E-03     119.999E-03
             482     876.411E-06     68.4994E-03    -31.7559E+06    -121.716E+06    -31.2023E+06     66.1262E+03    -26.6313E-03     53.2589E-03    -26.6275E-03     5.70796E-03    -26.5685E-03     52.7419E-03    -26.5610E-03     5.70599E-03
             483     1.75281E-03     68.5069E-03    -31.0219E+06    -120.354E+06    -28.8886E+06     137.215E+03    -26.6369E-03     53.2688E-03    -26.6319E-03     10.5166E-03    -26.5760E-03     52.7544E-03    -26.5568E-03     10.5130E-03
             484     2.62926E-03     68.5193E-03    -29.8061E+06    -117.720E+06    -25.3151E+06     202.010E+03    -26.6535E-03     53.2914E-03    -26.6379E-03     15.5939E-03    -26.5961E-03     52.7837E-03    -26.5506E-03     15.5881E-03
             485     3.50570E-03     68.5365E-03    -28.0584E+06    -113.946E+06    -20.7536E+06     227.296E+03    -26.6760E-03     53.3210E-03    -26.6450E-03     20.7230E-03    -26.6229E-03     52.8239E-03    -26.5428E-03     20.7139E-03
             486     4.38216E-03     68.5586E-03    -26.0165E+06    -108.453E+06    -15.9972E+06     336.978E+03    -26.7065E-03     53.3547E-03    -26.6483E-03     25.8576E-03    -26.6593E-03     52.8766E-03    -26.5333E-03     25.8456E-03
             487     5.25866E-03     68.5855E-03    -23.7829E+06    -101.432E+06    -11.2030E+06     358.203E+03    -26.7471E-03     53.3950E-03    -26.6479E-03     30.9496E-03    -26.7079E-03     52.9438E-03    -26.5224E-03     30.9324E-03
             488     6.13516E-03     68.6172E-03    -21.6012E+06    -95.6236E+06    -6.83174E+06     252.554E+03    -26.8034E-03     53.4500E-03    -26.6466E-03     35.9651E-03    -26.7709E-03     53.0211E-03    -26.5108E-03     35.9399E-03
             489     7.01171E-03     68.6536E-03    -19.3877E+06    -89.3542E+06    -3.40091E+06     219.658E+03    -26.8716E-03     53.5113E-03    -26.6397E-03     40.8985E-03    -26.8461E-03     53.1096E-03    -26.4990E-03     40.8647E-03
             490     7.88826E-03     68.6946E-03    -17.2018E+06    -82.2366E+06    -1.26141E+06     214.273E+03    -26.9566E-03     53.5819E-03    -26.6253E-03     45.7330E-03    -26.9393E-03     53.2153E-03    -26.4875E-03     45.6892E-03
             491     8.76484E-03     68.7401E-03    -15.3315E+06    -75.1408E+06    -430.962E+03     113.286E+03    -27.0495E-03     53.6551E-03    -26.6056E-03     50.4653E-03    -27.0423E-03     53.3280E-03    -26.4766E-03     50.4082E-03
             492     9.64143E-03     68.7901E-03    -13.6470E+06    -67.9095E+06     252.684E+03     125.864E+03    -27.1504E-03     53.7362E-03    -26.5858E-03     55.0904E-03    -27.1574E-03     53.4530E-03    -26.4663E-03     55.0190E-03
             493     10.5180E-03     68.8444E-03    -12.3632E+06    -60.1325E+06    -523.186E+03     191.138E+03    -27.2599E-03     53.8190E-03    -26.5591E-03     59.8740E-03    -27.2867E-03     53.5900E-03    -26.4566E-03     59.7861E-03
             494     11.3947E-03     68.9034E-03    -11.4320E+06    -48.3658E+06    -1.56599E+06     139.339E+03    -27.3690E-03     53.8949E-03    -26.5259E-03     64.8304E-03    -27.4302E-03     53.7484E-03    -26.4470E-03     64.7213E-03
             495     12.2713E-03     68.9671E-03    -10.8172E+06    -33.3054E+06    -1.81762E+06    -158.628E+03    -27.4988E-03     53.9916E-03    -26.4929E-03     70.1746E-03    -27.6143E-03     53.9558E-03    -26.4380E-03     70.0374E-03
             496     13.1479E-03     69.0361E-03    -11.0405E+06    -14.2077E+06    -4.86726E+06    -789.472E+03    -27.6187E-03     54.0588E-03    -26.4400E-03     77.2187E-03    -27.8211E-03     54.1856E-03    -26.4277E-03     77.0454E-03
             497     14.0246E-03     69.1131E-03    -11.6807E+06     23.2379E+06    -9.93696E+06    -1.51118E+06    -27.8392E-03     54.1852E-03    -26.3460E-03     89.2248E-03    -28.2199E-03     54.6357E-03    -26.4124E-03     89.0154E-03
             498     14.9018E-03     69.2052E-03    -10.1370E+06     78.2553E+06     478.167E+03    -1.01373E+06    -28.4238E-03     54.7158E-03    -26.2920E-03     111.785E-03    -29.2395E-03     55.7719E-03    -26.3884E-03     111.596E-03
             499     15.7788E-03     69.3260E-03    -6.83836E+06     124.223E+06     44.4190E+06     1.26756E+06    -30.0364E-03     56.4487E-03    -26.4122E-03     147.747E-03    -31.7913E-03     58.4914E-03    -26.3603E-03     147.900E-03
             500     16.6541E-03     69.4888E-03    -3.94702E+06     140.824E+06     82.3545E+06     1.50539E+06    -28.8678E-03     55.4200E-03    -26.5522E-03     119.185E-03    -30.4861E-03     57.2855E-03    -26.3389E-03     119.666E-03
             501     876.414E-06     69.4989E-03    -31.9211E+06    -121.910E+06    -31.4159E+06     159.801E+03    -26.6317E-03     53.2343E-03    -26.6026E-03     5.70381E-03    -26.5691E-03     52.7169E-03    -26.5366E-03     5.70306E-03
             502     1.75287E-03     69.5065E-03    -31.2237E+06    -120.523E+06    -28.9977E+06     187.743E+03    -26.6265E-03     53.2469E-03    -26.6204E-03     10.5113E-03    -26.5662E-03     52.7321E-03    -26.5454E-03     10.5084E-03
             503     2.62927E-03     69.5188E-03    -29.8387E+06    -117.779E+06    -25.3324E+06     152.383E+03    -26.6361E-03     53.2621E-03    -26.6260E-03     15.5972E-03    -26.5788E-03     52.7542E-03    -26.5386E-03     15.5907E-03
             504     3.50575E-03     69.5361E-03    -28.1675E+06    -114.064E+06    -20.8135E+06     176.816E+03    -26.6584E-03     53.2900E-03    -26.6316E-03     20.7325E-03    -26.6055E-03     52.7926E-03    -26.5295E-03     20.7228E-03
             505     4.38223E-03     69.5581E-03    -26.1058E+06    -108.502E+06    -16.0244E+06     99.3129E+03    -26.6892E-03     53.3234E-03    -26.6342E-03     25.8675E-03    -26.6424E-03     52.8452E-03    -26.5191E-03     25.8524E-03
             506     5.25873E-03     69.5850E-03    -23.7554E+06    -101.474E+06    -11.2689E+06     52.7890E+03    -26.7291E-03     53.3619E-03    -26.6329E-03     30.9598E-03    -26.6895E-03     52.9105E-03    -26.5076E-03     30.9387E-03
             507     6.13528E-03     69.6167E-03    -21.3384E+06    -95.6070E+06    -6.53664E+06     100.742E+03    -26.7886E-03     53.4211E-03    -26.6326E-03     35.9653E-03    -26.7552E-03     52.9916E-03    -26.4957E-03     35.9382E-03
             508     7.01182E-03     69.6531E-03    -19.1241E+06    -89.3212E+06    -2.99199E+06     34.3086E+03    -26.8603E-03     53.4867E-03    -26.6263E-03     40.8883E-03    -26.8342E-03     53.0842E-03    -26.4841E-03     40.8522E-03
             509     7.88840E-03     69.6941E-03    -17.1000E+06    -82.2219E+06    -996.085E+03    -55.0159E+03    -26.9450E-03     53.5569E-03    -26.6120E-03     45.7199E-03    -26.9276E-03     53.1898E-03    -26.4729E-03     45.6726E-03
             510     8.76496E-03     69.7397E-03    -15.2562E+06    -75.0520E+06    -195.223E+03    -93.1001E+03    -27.0413E-03     53.6339E-03    -26.5925E-03     50.4360E-03    -27.0342E-03     53.3068E-03    -26.4626E-03     50.3762E-03
             511     9.64155E-03     69.7896E-03    -13.7558E+06    -68.0011E+06     211.629E+03    -151.290E+03    -27.1374E-03     53.7097E-03    -26.5723E-03     55.0602E-03    -27.1447E-03     53.4262E-03    -26.4527E-03     54.9854E-03
             512     10.5182E-03     69.8439E-03    -12.3635E+06    -60.2828E+06    -652.847E+03    -24.9178E+03    -27.2550E-03     53.8005E-03    -26.5455E-03     59.8328E-03    -27.2814E-03     53.5710E-03    -26.4435E-03     59.7422E-03
             513     11.3947E-03     69.9029E-03    -11.3502E+06    -48.3197E+06    -1.64906E+06     104.418E+03    -27.3635E-03     53.8765E-03    -26.5129E-03     64.7829E-03    -27.4243E-03     53.7302E-03    -26.4346E-03     64.6733E-03
             514     12.2714E-03     69.9666E-03    -10.7737E+06    -33.0109E+06    -1.62283E+06     133.400E+03    -27.4676E-03     53.9483E-03    -26.4807E-03     70.1341E-03    -27.5835E-03     53.9134E-03    -26.4253E-03     70.0010E-03
             515     13.1480E-03     70.0357E-03    -10.2706E+06    -13.5245E+06    -4.55879E+06    -91.0895E+03    -27.6357E-03     54.0629E-03    -26.4271E-03     77.1281E-03    -27.8353E-03     54.1912E-03    -26.4154E-03     76.9640E-03
             516     14.0247E-03     70.1126E-03    -10.0708E+06     24.4283E+06    -9.79136E+06    -831.010E+03    -27.9660E-03     54.3012E-03    -26.3352E-03     89.3004E-03    -28.3411E-03     54.7556E-03    -26.4050E-03     89.0989E-03
             517     14.9010E-03     70.2048E-03    -11.7226E+06     76.5193E+06    -1.97217E+06    -525.473E+03    -28.7113E-03     55.0000E-03    -26.2887E-03     112.151E-03    -29.5303E-03     56.0548E-03    -26.3925E-03     111.964E-03
             518     15.7775E-03     70.3253E-03    -11.9824E+06     122.545E+06     36.8688E+06     65.2848E+03    -30.2054E-03     56.6037E-03    -26.3983E-03     149.016E-03    -31.9872E-03     58.6710E-03    -26.3743E-03     149.151E-03
             519     16.6558E-03     70.4891E-03    -6.34865E+06     141.754E+06     77.5703E+06    -120.405E+03    -28.5703E-03     55.1067E-03    -26.5364E-03     120.335E-03    -30.2073E-03     56.9994E-03    -26.3449E-03     120.800E-03
             520     876.443E-06     70.4986E-03    -32.3192E+06    -122.251E+06    -31.7148E+06     83.9338E+03    -26.6164E-03     53.2077E-03    -26.5913E-03     5.69412E-03    -26.5548E-03     52.6895E-03    -26.5257E-03     5.69241E-03
             521     1.75283E-03     70.5061E-03    -31.2611E+06    -120.552E+06    -29.0702E+06     131.970E+03    -26.6069E-03     53.2131E-03    -26.6062E-03     10.5044E-03    -26.5467E-03     52.6983E-03    -26.5314E-03     10.5008E-03
             522     2.62935E-03     70.5184E-03    -29.9571E+06    -117.861E+06    -25.3243E+06     144.343E+03    -26.6173E-03     53.2279E-03    -26.6106E-03     15.5952E-03    -26.5605E-03     52.7198E-03    -26.5229E-03     15.5887E-03
             523     3.50580E-03     70.5356E-03    -28.1527E+06    -114.033E+06    -20.6676E+06     75.9382E+03    -26.6420E-03     53.2581E-03    -26.6161E-03     20.7297E-03    -26.5893E-03     52.7606E-03    -26.5133E-03     20.7187E-03
             524     4.38230E-03     70.5577E-03    -26.0592E+06    -108.332E+06    -15.7607E+06    -79.6504E+03    -26.6751E-03     53.2944E-03    -26.6192E-03     25.8611E-03    -26.6287E-03     52.8166E-03    -26.5032E-03     25.8437E-03
             525     5.25882E-03     70.5846E-03    -23.9028E+06    -101.467E+06    -11.1653E+06    -192.458E+03    -26.7189E-03     53.3373E-03    -26.6184E-03     30.9463E-03    -26.6803E-03     52.8860E-03    -26.4924E-03     30.9221E-03
             526     6.13536E-03     70.6163E-03    -21.6020E+06    -95.6243E+06    -6.75551E+06    -232.888E+03    -26.7803E-03     53.3981E-03    -26.6178E-03     35.9478E-03    -26.7479E-03     52.9691E-03    -26.4816E-03     35.9164E-03
             527     7.01191E-03     70.6526E-03    -19.1616E+06    -89.2378E+06    -3.04526E+06    -234.038E+03    -26.8563E-03     53.4693E-03    -26.6130E-03     40.8647E-03    -26.8304E-03     53.0674E-03    -26.4710E-03     40.8251E-03
             528     7.88847E-03     70.6936E-03    -16.9546E+06    -82.1591E+06    -1.04793E+06    -277.508E+03    -26.9412E-03     53.5406E-03    -26.5995E-03     45.6939E-03    -26.9231E-03     53.1737E-03    -26.4610E-03     45.6438E-03
             529     8.76507E-03     70.7392E-03    -15.2085E+06    -75.1296E+06    -342.172E+03    -211.765E+03    -27.0392E-03     53.6201E-03    -26.5808E-03     50.4084E-03    -27.0316E-03     53.2927E-03    -26.4515E-03     50.3471E-03
             530     9.64167E-03     70.7891E-03    -13.8180E+06    -67.8838E+06     186.686E+03    -179.273E+03    -27.1375E-03     53.6996E-03    -26.5621E-03     55.0059E-03    -27.1453E-03     53.4168E-03    -26.4427E-03     54.9307E-03
             531     10.5183E-03     70.8434E-03    -12.6606E+06     -60.338E+06    -775.545E+03    -344.732E+03    -27.2468E-03     53.7829E-03    -26.5361E-03     59.8001E-03    -27.2744E-03     53.5536E-03    -26.4341E-03     59.7054E-03
             532     11.3949E-03     70.9025E-03    -11.5342E+06    -48.7608E+06    -1.86739E+06    -63.5428E+03    -27.3571E-03     53.8608E-03    -26.5037E-03     64.7408E-03    -27.4178E-03     53.7129E-03    -26.4256E-03     64.6291E-03
             533     12.2715E-03     70.9660E-03    -10.6720E+06    -33.0132E+06    -1.54011E+06     273.240E+03    -27.4559E-03     53.9279E-03    -26.4720E-03     70.0831E-03    -27.5712E-03     53.8926E-03    -26.4164E-03     69.9520E-03
             534     13.1482E-03     71.0353E-03    -10.3075E+06    -12.8714E+06     -4.1823E+06    -67.3143E+03    -27.6198E-03     54.0388E-03    -26.4190E-03     77.0848E-03    -27.8207E-03     54.1696E-03    -26.4063E-03     76.9212E-03
             535     14.0250E-03     71.1121E-03    -11.2646E+06     24.2387E+06    -6.99453E+06     391.717E+03    -27.8843E-03     54.2244E-03    -26.3401E-03     89.2602E-03    -28.2691E-03     54.6755E-03    -26.3939E-03     89.0749E-03
             536     14.9021E-03     71.2045E-03    -11.0132E+06     76.3980E+06     146.152E+03     744.083E+03    -28.6330E-03     54.9161E-03    -26.2831E-03     112.415E-03    -29.4513E-03     55.9661E-03    -26.3772E-03     112.245E-03
             537     15.7791E-03     71.3252E-03    -7.04970E+06     123.313E+06     41.5684E+06    -160.733E+03    -30.2337E-03     56.6308E-03    -26.3971E-03     148.915E-03    -32.0027E-03     58.6920E-03    -26.3578E-03     149.049E-03
             538     16.6556E-03     71.4878E-03    -3.47135E+06     141.518E+06     82.3365E+06    -632.504E+03    -28.7787E-03     55.3268E-03    -26.5481E-03     119.466E-03    -30.4082E-03     57.2075E-03    -26.3366E-03     119.920E-03
             539     876.417E-06     71.4981E-03    -32.3093E+06    -122.266E+06    -31.8083E+06    -91.3041E+03    -26.5780E-03     53.1798E-03    -26.6018E-03     5.66857E-03    -26.5163E-03     52.6618E-03    -26.5367E-03     5.66461E-03
             540     1.75294E-03     71.5057E-03    -31.4262E+06    -120.730E+06    -29.3011E+06     48.7200E+03    -26.5835E-03     53.1735E-03    -26.5899E-03     10.4907E-03    -26.5236E-03     52.6583E-03    -26.5158E-03     10.4860E-03
             541     2.62935E-03     71.5179E-03    -29.9859E+06    -117.840E+06    -25.3110E+06     62.3718E+03    -26.6051E-03     53.1990E-03    -26.5940E-03     15.5883E-03    -26.5484E-03     52.6910E-03    -26.5062E-03     15.5807E-03
             542     3.50587E-03     71.5351E-03    -28.1332E+06    -113.858E+06    -20.5666E+06    -97.2849E+03    -26.6325E-03     53.2337E-03    -26.6012E-03     20.7130E-03    -26.5801E-03     52.7369E-03    -26.4982E-03     20.6998E-03
             543     4.38236E-03     71.5572E-03    -26.0745E+06    -108.248E+06    -15.7769E+06    -155.582E+03    -26.6678E-03     53.2732E-03    -26.6054E-03     25.8377E-03    -26.6216E-03     52.7959E-03    -26.4895E-03     25.8194E-03
             544     5.25889E-03     71.5841E-03    -23.9089E+06    -101.235E+06    -11.1735E+06    -272.016E+03    -26.7151E-03     53.3210E-03    -26.6058E-03     30.9196E-03    -26.6769E-03     52.8708E-03    -26.4802E-03     30.8943E-03
             545     6.13542E-03     71.6157E-03    -21.6978E+06    -95.5118E+06    -6.95575E+06    -461.064E+03    -26.7786E-03     53.3846E-03    -26.6060E-03     35.9219E-03    -26.7466E-03     52.9567E-03    -26.4708E-03     35.8875E-03
             546     7.01198E-03     71.6521E-03    -19.5120E+06    -89.1179E+06    -3.49978E+06    -592.748E+03    -26.8536E-03     53.4552E-03    -26.6016E-03     40.8423E-03    -26.8290E-03     53.0550E-03    -26.4616E-03     40.7980E-03
             547     7.88856E-03     71.6931E-03    -17.4454E+06    -82.2277E+06    -1.35159E+06    -521.094E+03    -26.9434E-03     53.5340E-03    -26.5905E-03     45.6580E-03    -26.9272E-03     53.1679E-03    -26.4528E-03     45.6047E-03
             548     8.76513E-03     71.7387E-03    -15.5952E+06    -75.2176E+06    -508.660E+03    -386.086E+03    -27.0416E-03     53.6154E-03    -26.5738E-03     50.3669E-03    -27.0355E-03     53.2883E-03    -26.4447E-03     50.3033E-03
             549     9.64170E-03     71.7887E-03    -13.9621E+06    -67.8543E+06     69.3711E+03    -317.969E+03    -27.1449E-03     53.7010E-03    -26.5561E-03     54.9539E-03    -27.1533E-03     53.4188E-03    -26.4371E-03     54.8768E-03
             550     10.5183E-03     71.8429E-03    -12.8490E+06    -60.1986E+06    -770.079E+03    -254.818E+03    -27.2481E-03     53.7798E-03    -26.5317E-03     59.7158E-03    -27.2768E-03     53.5515E-03    -26.4296E-03     59.6222E-03
             551     11.3949E-03     71.9019E-03    -12.1079E+06    -49.0801E+06    -2.28446E+06    -350.383E+03    -27.3574E-03     53.8565E-03    -26.4991E-03     64.6603E-03    -27.4199E-03     53.7084E-03    -26.4218E-03     64.5449E-03
             552     12.2716E-03     71.9656E-03    -11.1196E+06    -33.4688E+06    -1.98038E+06    -29.5553E+03    -27.4443E-03     53.9119E-03    -26.4676E-03     69.9481E-03    -27.5604E-03     53.8755E-03    -26.4129E-03     69.8131E-03
             553     13.1482E-03     72.0347E-03    -10.9916E+06    -13.0317E+06    -4.02042E+06     854.874E+03    -27.5951E-03     54.0121E-03    -26.4170E-03     77.0347E-03    -27.7993E-03     54.1426E-03    -26.4022E-03     76.8831E-03
             554     14.0249E-03     72.1117E-03    -10.6657E+06     24.0783E+06    -5.68365E+06     997.250E+03    -27.8974E-03     54.2397E-03    -26.3423E-03     88.9608E-03    -28.2808E-03     54.6873E-03    -26.3902E-03     88.7827E-03
             555     14.9017E-03     72.2034E-03    -9.60305E+06     77.5438E+06     4.39202E+06    -199.929E+03    -28.6571E-03     54.9566E-03    -26.2994E-03     111.926E-03    -29.4751E-03     56.0030E-03    -26.3760E-03     111.743E-03
             556     15.7784E-03     72.3250E-03    -8.47234E+06     123.514E+06     44.2139E+06    -1.12026E+06    -30.4048E-03     56.8233E-03    -26.4185E-03     148.433E-03    -32.1879E-03     58.8865E-03    -26.3642E-03     148.552E-03
             557     16.6551E-03     72.4879E-03    -4.24541E+06     140.750E+06     82.2262E+06    -344.522E+03    -28.7931E-03     55.3565E-03    -26.5634E-03     118.959E-03    -30.4276E-03     57.2371E-03    -26.3502E-03     119.413E-03
             558     876.455E-06     72.4976E-03    -32.4273E+06    -122.264E+06    -31.7559E+06    -8.49453E+03    -26.5781E-03     53.1514E-03    -26.5734E-03     5.64054E-03    -26.5170E-03     52.6335E-03    -26.5078E-03     5.63767E-03
             559     1.75289E-03     72.5051E-03    -31.6197E+06    -120.826E+06    -29.3181E+06     32.2839E+03    -26.5720E-03     53.1490E-03    -26.5769E-03     10.4733E-03    -26.5129E-03     52.6336E-03    -26.5025E-03     10.4684E-03
             560     2.62944E-03     72.5175E-03    -30.3029E+06    -117.679E+06    -25.7988E+06    -76.0447E+03    -26.5959E-03     53.1757E-03    -26.5798E-03     15.5730E-03    -26.5404E-03     52.6696E-03    -26.4942E-03     15.5637E-03
             561     3.50589E-03     72.5346E-03    -28.4892E+06    -113.621E+06    -20.9906E+06    -265.724E+03    -26.6289E-03     53.2179E-03    -26.5890E-03     20.6881E-03    -26.5780E-03     52.7234E-03    -26.4879E-03     20.6727E-03
             562     4.38240E-03     72.5567E-03    -26.2360E+06    -108.124E+06    -15.9178E+06    -420.416E+03    -26.6666E-03     53.2630E-03    -26.5964E-03     25.8111E-03    -26.6211E-03     52.7867E-03    -26.4812E-03     25.7892E-03
             563     5.25892E-03     72.5836E-03    -23.7901E+06    -101.016E+06    -11.2376E+06    -508.721E+03    -26.7158E-03     53.3139E-03    -26.5981E-03     30.8899E-03    -26.6772E-03     52.8648E-03    -26.4733E-03     30.8615E-03
             564     6.13547E-03     72.6153E-03    -21.4395E+06    -95.2498E+06    -6.74865E+06    -612.860E+03    -26.7828E-03     53.3836E-03    -26.6007E-03     35.8802E-03    -26.7502E-03     52.9563E-03    -26.4653E-03     35.8438E-03
             565     7.01201E-03     72.6516E-03    -19.3791E+06    -89.0838E+06    -3.36856E+06    -598.038E+03    -26.8610E-03     53.4590E-03    -26.5979E-03     40.7918E-03    -26.8360E-03     53.0586E-03    -26.4575E-03     40.7474E-03
             566     7.88858E-03     72.6927E-03    -17.5632E+06    -82.1726E+06    -1.42801E+06    -614.028E+03    -26.9515E-03     53.5391E-03    -26.5877E-03     45.6070E-03    -26.9359E-03     53.1736E-03    -26.4502E-03     45.5524E-03
             567     8.76513E-03     72.7382E-03    -15.8006E+06    -75.2546E+06    -819.977E+03    -676.681E+03    -27.0481E-03     53.6193E-03    -26.5712E-03     50.3101E-03    -27.0425E-03     53.2929E-03    -26.4433E-03     50.2427E-03
             568     9.64174E-03     72.7882E-03    -14.2622E+06    -67.9927E+06    -448.845E+03    -518.936E+03    -27.1493E-03     53.7029E-03    -26.5536E-03     54.9113E-03    -27.1583E-03     53.4211E-03    -26.4365E-03     54.8316E-03
             569     10.5183E-03     72.8424E-03    -12.9843E+06    -60.3643E+06    -1.25957E+06    -246.248E+03    -27.2705E-03     53.8009E-03    -26.5304E-03     59.6495E-03    -27.2990E-03     53.5727E-03    -26.4304E-03     59.5558E-03
             570     11.3949E-03     72.9014E-03    -12.2261E+06    -48.8596E+06    -2.52054E+06    -109.600E+03    -27.3645E-03     53.8643E-03    -26.4998E-03     64.5973E-03    -27.4275E-03     53.7177E-03    -26.4238E-03     64.4849E-03
             571     12.2715E-03     72.9652E-03    -12.0788E+06    -34.1170E+06    -3.09831E+06    -21.4579E+03    -27.4302E-03     53.8964E-03    -26.4663E-03     69.8497E-03    -27.5485E-03     53.8597E-03    -26.4148E-03     69.7148E-03
             572     13.1483E-03     73.0339E-03    -10.9053E+06    -14.3438E+06    -4.73013E+06     612.952E+03    -27.5819E-03     53.9981E-03    -26.4162E-03     77.0008E-03    -27.7825E-03     54.1227E-03    -26.4032E-03     76.8463E-03
             573     14.0250E-03     73.1114E-03    -9.62823E+06     25.1586E+06    -4.81964E+06     483.013E+03    -27.9827E-03     54.3291E-03    -26.3463E-03     89.0876E-03    -28.3644E-03     54.7799E-03    -26.3930E-03     88.9020E-03
             574     14.9014E-03     73.2031E-03    -9.31689E+06     78.3084E+06     3.59912E+06    -13.4985E+03    -28.7818E-03     55.0837E-03    -26.3019E-03     112.245E-03    -29.6006E-03     56.1370E-03    -26.3840E-03     112.064E-03
             575     15.7782E-03     73.3248E-03     -8.0587E+06     123.637E+06     43.7154E+06     66.1476E+03    -30.2488E-03     56.6678E-03    -26.4190E-03     149.460E-03    -32.0254E-03     58.7279E-03    -26.3680E-03     149.600E-03
             576     16.6547E-03     73.4880E-03    -4.75584E+06     140.899E+06     82.3024E+06    -281.565E+03    -28.7754E-03     55.3345E-03    -26.5590E-03     119.478E-03    -30.4065E-03     57.2102E-03    -26.3449E-03     119.937E-03
             577     876.463E-06     73.4971E-03    -32.6087E+06    -122.427E+06    -31.9716E+06     63.6862E+03    -26.5688E-03     53.1200E-03    -26.5512E-03     5.60366E-03    -26.5080E-03     52.6018E-03    -26.4863E-03     5.60173E-03
             578     1.75297E-03     73.5046E-03    -31.6462E+06    -120.742E+06    -29.2929E+06     24.0789E+03    -26.5840E-03     53.1513E-03    -26.5673E-03     10.4627E-03    -26.5251E-03     52.6364E-03    -26.4928E-03     10.4576E-03
             579     2.62940E-03     73.5169E-03    -30.1775E+06    -117.426E+06    -25.5882E+06    -169.161E+03    -26.5979E-03     53.1749E-03    -26.5770E-03     15.5467E-03    -26.5424E-03     52.6696E-03    -26.4909E-03     15.5361E-03
             580     3.50592E-03     73.5342E-03    -28.4351E+06    -113.296E+06    -21.1358E+06    -375.573E+03    -26.6258E-03     53.2112E-03    -26.5853E-03     20.6613E-03    -26.5749E-03     52.7184E-03    -26.4855E-03     20.6444E-03
             581     4.38241E-03     73.5562E-03    -26.4816E+06    -107.753E+06    -16.2484E+06    -655.727E+03    -26.6701E-03     53.2629E-03    -26.5928E-03     25.7854E-03    -26.6260E-03     52.7894E-03    -26.4794E-03     25.7605E-03
             582     5.25894E-03     73.5831E-03    -24.2969E+06    -100.836E+06    -11.6012E+06    -835.627E+03    -26.7209E-03     53.3173E-03    -26.5964E-03     30.8585E-03    -26.6846E-03     52.8704E-03    -26.4730E-03     30.8259E-03
             583     6.13545E-03     73.6148E-03    -22.0523E+06    -95.1594E+06    -7.28471E+06    -775.189E+03    -26.7894E-03     53.3892E-03    -26.5998E-03     35.8453E-03    -26.7592E-03     52.9640E-03    -26.4663E-03     35.8068E-03
             584     7.01200E-03     73.6512E-03    -19.8061E+06    -89.0750E+06    -3.92219E+06    -711.794E+03    -26.8703E-03     53.4683E-03    -26.5979E-03     40.7550E-03    -26.8466E-03     53.0694E-03    -26.4597E-03     40.7090E-03
             585     7.88853E-03     73.6922E-03    -17.6420E+06    -81.9353E+06    -2.02713E+06    -783.217E+03    -26.9592E-03     53.5467E-03    -26.5875E-03     45.5771E-03    -26.9435E-03     53.1833E-03    -26.4532E-03     45.5203E-03
             586     8.76512E-03     73.7377E-03    -15.8962E+06    -75.2176E+06    -1.32039E+06    -829.819E+03    -27.0589E-03     53.6314E-03    -26.5725E-03     50.2682E-03    -27.0532E-03     53.3061E-03    -26.4470E-03     50.1988E-03
             587     9.64164E-03     73.7877E-03    -14.4498E+06    -68.2579E+06    -1.01041E+06    -688.356E+03    -27.1581E-03     53.7139E-03    -26.5558E-03     54.8625E-03    -27.1668E-03     53.4319E-03    -26.4409E-03     54.7804E-03
             588     10.5183E-03     73.8420E-03    -13.1330E+06    -60.4873E+06    -1.80528E+06    -540.280E+03    -27.2833E-03     53.8164E-03    -26.5331E-03     59.6287E-03    -27.3117E-03     53.5886E-03    -26.4354E-03     59.5311E-03
             589     11.3948E-03     73.9010E-03    -11.7922E+06    -49.1583E+06    -3.02270E+06    -289.121E+03    -27.3748E-03     53.8774E-03    -26.5026E-03     64.5013E-03    -27.4345E-03     53.7295E-03    -26.4294E-03     64.3864E-03
             590     12.2716E-03     73.9645E-03    -10.4579E+06    -34.3003E+06    -2.98301E+06     88.5746E+03    -27.4628E-03     53.9340E-03    -26.4712E-03     69.7520E-03    -27.5729E-03     53.8939E-03    -26.4213E-03     69.6183E-03
             591     13.1481E-03     74.0335E-03    -10.2864E+06    -15.1088E+06    -5.86679E+06     264.841E+03    -27.6272E-03     54.0464E-03    -26.4192E-03     76.8432E-03    -27.8222E-03     54.1683E-03    -26.4117E-03     76.6835E-03
             592     14.0248E-03     74.1106E-03    -10.5537E+06     25.5536E+06    -6.54788E+06     273.061E+03    -27.8882E-03     54.2334E-03    -26.3452E-03     89.0684E-03    -28.2718E-03     54.6892E-03    -26.3997E-03     88.8811E-03
             593     14.9017E-03     74.2032E-03    -9.78699E+06     78.6956E+06     970.126E+03    -99.6176E+03    -28.5952E-03     54.8823E-03    -26.2871E-03     112.243E-03    -29.4131E-03     55.9420E-03    -26.3822E-03     112.062E-03
             594     15.7787E-03     74.3238E-03    -7.11084E+06     123.673E+06     41.0912E+06     122.567E+03    -30.0078E-03     56.3991E-03    -26.3913E-03     149.139E-03    -31.7677E-03     58.4536E-03    -26.3548E-03     149.280E-03
             595     16.6571E-03     74.4876E-03    -4.28033E+06     141.341E+06     81.7126E+06     257.823E+03    -29.0048E-03     55.5468E-03    -26.5420E-03     119.584E-03    -30.6302E-03     57.4217E-03    -26.3321E-03     120.050E-03
             596     876.512E-06     74.4966E-03    -32.7670E+06    -122.576E+06    -32.3150E+06     35.1123E+03    -26.5599E-03     53.1203E-03    -26.5603E-03     5.62258E-03    -26.4993E-03     52.6020E-03    -26.4966E-03     5.62028E-03
             597     1.75292E-03     74.5041E-03    -31.9956E+06    -120.492E+06    -29.8692E+06    -101.115E+03    -26.5894E-03     53.1559E-03    -26.5665E-03     10.4410E-03    -26.5318E-03     52.6436E-03    -26.4948E-03     10.4343E-03
             598     2.62941E-03     74.5165E-03    -30.5520E+06    -117.126E+06    -26.1268E+06    -320.650E+03    -26.6036E-03     53.1817E-03    -26.5782E-03     15.5302E-03    -26.5496E-03     52.6793E-03    -26.4947E-03     15.5176E-03
             599     3.50588E-03     74.5336E-03    -28.8260E+06    -113.032E+06    -21.5183E+06    -420.350E+03    -26.6321E-03     53.2205E-03    -26.5884E-03     20.6467E-03    -26.5830E-03     52.7302E-03    -26.4903E-03     20.6293E-03
             600     4.38240E-03     74.5557E-03    -26.8956E+06    -107.201E+06    -16.7293E+06    -656.877E+03    -26.6743E-03     53.2699E-03    -26.5956E-03     25.7605E-03    -26.6323E-03     52.8004E-03    -26.4848E-03     25.7356E-03
             601     5.25888E-03     74.5826E-03    -24.8699E+06    -100.550E+06    -12.2290E+06    -930.589E+03    -26.7277E-03     53.3272E-03    -26.5995E-03     30.8327E-03    -26.6937E-03     52.8835E-03    -26.4788E-03     30.7988E-03
             602     6.13542E-03     74.6143E-03    -22.6270E+06    -95.0883E+06    -8.15930E+06    -1.04456E+06    -26.7963E-03     53.3987E-03    -26.6025E-03     35.8274E-03    -26.7678E-03     52.9760E-03    -26.4726E-03     35.7853E-03
             603     7.01194E-03     74.6507E-03    -20.2087E+06    -88.8339E+06    -4.75896E+06    -1.17601E+06    -26.8774E-03     53.4780E-03    -26.6006E-03     40.7413E-03    -26.8548E-03     53.0821E-03    -26.4663E-03     40.6893E-03
             604     7.88850E-03     74.6917E-03    -17.9908E+06    -81.8946E+06    -2.67401E+06    -1.16482E+06    -26.9694E-03     53.5611E-03    -26.5917E-03     45.5568E-03    -26.9546E-03     53.1994E-03    -26.4602E-03     45.4950E-03
             605     8.76502E-03     74.7373E-03    -16.0783E+06    -75.1536E+06    -1.74795E+06    -1.03684E+06    -27.0726E-03     53.6508E-03    -26.5782E-03     50.2452E-03    -27.0673E-03     53.3267E-03    -26.4546E-03     50.1730E-03
             606     9.64162E-03     74.7872E-03    -14.4290E+06    -68.3842E+06    -1.30411E+06    -986.268E+03    -27.1816E-03     53.7448E-03    -26.5632E-03     54.8243E-03    -27.1896E-03     53.4626E-03    -26.4496E-03     54.7382E-03
             607     10.5181E-03     74.8415E-03    -13.0309E+06    -60.5833E+06    -2.00492E+06    -885.067E+03    -27.2946E-03     53.8362E-03    -26.5416E-03     59.5885E-03    -27.3221E-03     53.6081E-03    -26.4448E-03     59.4864E-03
             608     11.3948E-03     74.9006E-03    -12.0955E+06    -49.4769E+06    -3.29561E+06    -723.446E+03    -27.4116E-03     53.9246E-03    -26.5129E-03     64.3896E-03    -27.4721E-03     53.7760E-03    -26.4401E-03     64.2688E-03
             609     12.2712E-03     74.9639E-03    -11.3747E+06    -34.6855E+06    -2.93504E+06    -500.717E+03    -27.5247E-03     54.0120E-03    -26.4873E-03     69.6362E-03    -27.6392E-03     53.9715E-03    -26.4352E-03     69.4942E-03
             610     13.1480E-03     75.0332E-03    -9.91956E+06    -15.3484E+06    -5.23348E+06    -46.3900E+03    -27.7144E-03     54.1551E-03    -26.4407E-03     76.7153E-03    -27.9088E-03     54.2749E-03    -26.4302E-03     76.5505E-03
             611     14.0245E-03     75.1100E-03    -9.16369E+06     24.9389E+06    -6.01519E+06     707.580E+03    -27.9327E-03     54.3015E-03    -26.3688E-03     88.6153E-03    -28.3095E-03     54.7517E-03    -26.4217E-03     88.4324E-03
             612     14.9016E-03     75.2022E-03    -9.30097E+06     79.8503E+06     4.57912E+06     365.496E+03    -28.5215E-03     54.8462E-03    -26.3247E-03     111.433E-03    -29.3416E-03     55.9035E-03    -26.4041E-03     111.259E-03
             613     15.7786E-03     75.3234E-03    -8.15240E+06     123.703E+06     42.7114E+06    -402.294E+03    -30.0766E-03     56.5021E-03    -26.4255E-03     147.949E-03    -31.8406E-03     58.5524E-03    -26.3795E-03     148.080E-03
             614     16.6546E-03     75.4862E-03    -5.62337E+06     140.454E+06     80.0270E+06     20.3745E+03    -29.0587E-03     55.6260E-03    -26.5673E-03     119.596E-03    -30.6937E-03     57.5075E-03    -26.3627E-03     120.058E-03
             615     876.418E-06     75.4961E-03    -33.0964E+06    -122.629E+06    -32.3331E+06     95.2037E+03    -26.5810E-03     53.1560E-03    -26.5750E-03     5.63532E-03    -26.5219E-03     52.6380E-03    -26.5108E-03     5.63377E-03
             616     1.75292E-03     75.5036E-03    -32.1612E+06    -120.049E+06    -30.3770E+06    -219.607E+03    -26.5845E-03     53.1619E-03    -26.5775E-03     10.4338E-03    -26.5276E-03     52.6528E-03    -26.5086E-03     10.4256E-03
             617     2.62939E-03     75.5159E-03    -31.0364E+06    -116.873E+06    -26.8403E+06    -411.486E+03    -26.6111E-03     53.1954E-03    -26.5843E-03     15.5203E-03    -26.5589E-03     52.6960E-03    -26.5041E-03     15.5066E-03
             618     3.50586E-03     75.5332E-03    -29.3361E+06    -112.796E+06    -21.9628E+06    -514.505E+03    -26.6444E-03     53.2410E-03    -26.5966E-03     20.6324E-03    -26.5976E-03     52.7533E-03    -26.5003E-03     20.6137E-03
             619     4.38232E-03     75.5552E-03    -27.2514E+06    -106.629E+06    -17.2303E+06    -768.989E+03    -26.6808E-03     53.2839E-03    -26.6031E-03     25.7552E-03    -26.6407E-03     52.8185E-03    -26.4951E-03     25.7287E-03
             620     5.25885E-03     75.5821E-03    -24.9343E+06    -100.076E+06    -12.6680E+06    -1.10691E+06    -26.7356E-03     53.3424E-03    -26.6068E-03     30.8252E-03    -26.7020E-03     52.9018E-03    -26.4889E-03     30.7890E-03
             621     6.13534E-03     75.6138E-03    -22.5561E+06    -94.6797E+06    -8.44662E+06    -1.43536E+06    -26.8068E-03     53.4171E-03    -26.6103E-03     35.8148E-03    -26.7782E-03     52.9968E-03    -26.4825E-03     35.7676E-03
             622     7.01189E-03     75.6502E-03    -20.2983E+06    -88.5372E+06    -5.07157E+06    -1.60523E+06    -26.8886E-03     53.4975E-03    -26.6089E-03     40.7285E-03    -26.8665E-03     53.1038E-03    -26.4765E-03     40.6709E-03
             623     7.88839E-03     75.6913E-03    -18.1823E+06    -81.9103E+06    -2.99151E+06    -1.56578E+06    -26.9816E-03     53.5825E-03    -26.6008E-03     45.5376E-03    -26.9673E-03     53.2215E-03    -26.4707E-03     45.4706E-03
             624     8.76496E-03     75.7368E-03    -16.2458E+06    -75.1189E+06    -2.07157E+06    -1.47731E+06    -27.0891E-03     53.6767E-03    -26.5877E-03     50.2355E-03    -27.0842E-03     53.3535E-03    -26.4655E-03     50.1575E-03
             625     9.64145E-03     75.7868E-03    -14.5602E+06    -68.3652E+06    -1.46731E+06    -1.38352E+06    -27.2086E-03     53.7831E-03    -26.5745E-03     54.8112E-03    -27.2171E-03     53.5015E-03    -26.4616E-03     54.7199E-03
             626     10.5180E-03     75.8411E-03    -13.2980E+06    -60.8379E+06    -2.25300E+06    -1.14359E+06    -27.3252E-03     53.8797E-03    -26.5546E-03     59.5464E-03    -27.3533E-03     53.6512E-03    -26.4583E-03     59.4408E-03
             627     11.3945E-03     75.9001E-03    -12.3743E+06    -49.6903E+06    -3.40429E+06    -769.650E+03    -27.4644E-03     53.9932E-03    -26.5288E-03     64.4026E-03    -27.5258E-03     53.8442E-03    -26.4558E-03     64.2810E-03
             628     12.2711E-03     75.9637E-03    -11.7093E+06    -34.8507E+06    -3.61340E+06    -621.267E+03    -27.6062E-03     54.1104E-03    -26.5041E-03     69.6011E-03    -27.7215E-03     54.0708E-03    -26.4547E-03     69.4569E-03
             629     13.1475E-03     76.0326E-03    -11.8538E+06    -15.7449E+06    -6.81550E+06    -664.236E+03    -27.8025E-03     54.2627E-03    -26.4602E-03     76.7462E-03    -28.0038E-03     54.3858E-03    -26.4543E-03     76.5730E-03
             630     14.0240E-03     76.1100E-03    -11.0149E+06     24.0699E+06    -7.09666E+06    -194.612E+03    -28.1976E-03     54.5989E-03    -26.4013E-03     88.5563E-03    -28.5831E-03     55.0513E-03    -26.4557E-03     88.3590E-03
             631     14.9002E-03     76.2014E-03    -8.62403E+06     80.6791E+06     5.89096E+06    -233.730E+03    -28.8922E-03     55.2729E-03    -26.3808E-03     111.046E-03    -29.7135E-03     56.3330E-03    -26.4558E-03     110.858E-03
             632     15.7771E-03     76.3229E-03    -5.83860E+06     122.805E+06     47.4347E+06    -34.3853E+03    -30.3852E-03     56.9014E-03    -26.5162E-03     147.478E-03    -32.1418E-03     58.9357E-03    -26.4486E-03     147.607E-03
             633     16.6547E-03     76.4861E-03    -2.94256E+06     139.686E+06     84.1973E+06     1.35380E+06    -28.4944E-03     55.1399E-03    -26.6456E-03     119.513E-03    -30.1168E-03     57.0036E-03    -26.4229E-03     119.997E-03
             634     876.448E-06     76.4957E-03    -33.4472E+06    -122.407E+06    -33.2308E+06    -33.0674E+03    -26.5848E-03     53.1797E-03    -26.5949E-03     5.62051E-03    -26.5264E-03     52.6646E-03    -26.5351E-03     5.61729E-03
             635     1.75288E-03     76.5031E-03    -32.7465E+06    -119.665E+06    -30.8855E+06    -339.055E+03    -26.5976E-03     53.1875E-03    -26.5899E-03     10.4432E-03    -26.5435E-03     52.6819E-03    -26.5233E-03     10.4335E-03
             636     2.62934E-03     76.5155E-03    -31.3929E+06    -116.566E+06    -26.8957E+06    -451.576E+03    -26.6225E-03     53.2214E-03    -26.5989E-03     15.5162E-03    -26.5724E-03     52.7241E-03    -26.5189E-03     15.5019E-03
             637     3.50579E-03     76.5326E-03    -29.5606E+06    -112.314E+06    -22.3660E+06    -768.539E+03    -26.6511E-03     53.2591E-03    -26.6080E-03     20.6281E-03    -26.6055E-03     52.7747E-03    -26.5141E-03     20.6061E-03
             638     4.38230E-03     76.5548E-03    -27.3418E+06    -106.087E+06    -17.7242E+06    -1.09476E+06    -26.6921E-03     53.3051E-03    -26.6130E-03     25.7525E-03    -26.6526E-03     52.8433E-03    -26.5082E-03     25.7219E-03
             639     5.25876E-03     76.5816E-03    -25.0478E+06    -99.3684E+06    -12.9819E+06    -1.48996E+06    -26.7442E-03     53.3612E-03    -26.6170E-03     30.8251E-03    -26.7118E-03     52.9248E-03    -26.5015E-03     30.7839E-03
             640     6.13529E-03     76.6134E-03    -22.7210E+06    -94.1462E+06    -8.66621E+06    -1.82570E+06    -26.8174E-03     53.4385E-03    -26.6211E-03     35.8164E-03    -26.7900E-03     53.0213E-03    -26.4949E-03     35.7641E-03
             641     7.01176E-03     76.6498E-03    -20.5107E+06    -88.3195E+06    -5.38181E+06    -1.87692E+06    -26.8998E-03     53.5195E-03    -26.6197E-03     40.7322E-03    -26.8787E-03     53.1276E-03    -26.4888E-03     40.6710E-03
             642     7.88832E-03     76.6909E-03    -18.4510E+06    -81.6224E+06    -3.42325E+06    -1.98770E+06    -26.9935E-03     53.6045E-03    -26.6110E-03     45.5485E-03    -26.9802E-03     53.2459E-03    -26.4830E-03     45.4759E-03
             643     8.76480E-03     76.7364E-03    -16.4969E+06    -75.1148E+06    -2.59900E+06    -2.00366E+06    -27.1043E-03     53.7022E-03    -26.5979E-03     50.2592E-03    -27.0999E-03     53.3802E-03    -26.4781E-03     50.1744E-03
             644     9.64136E-03     76.7864E-03    -14.7779E+06    -68.3775E+06    -2.01458E+06    -1.83142E+06    -27.2171E-03     53.8017E-03    -26.5845E-03     54.8536E-03    -27.2260E-03     53.5211E-03    -26.4740E-03     54.7566E-03
             645     10.5178E-03     76.8407E-03    -13.2272E+06    -61.1831E+06    -2.90158E+06    -1.54857E+06    -27.3469E-03     53.9110E-03    -26.5642E-03     59.6139E-03    -27.3731E-03     53.6816E-03    -26.4708E-03     59.5031E-03
             646     11.3944E-03     76.8997E-03    -11.8707E+06    -50.0379E+06    -4.05288E+06    -1.19401E+06    -27.4957E-03     54.0341E-03    -26.5384E-03     64.5755E-03    -27.5532E-03     53.8836E-03    -26.4689E-03     64.4484E-03
             647     12.2708E-03     76.9634E-03    -10.7740E+06    -35.0889E+06    -3.67792E+06    -756.019E+03    -27.6593E-03     54.1764E-03    -26.5171E-03     69.8025E-03    -27.7696E-03     54.1345E-03    -26.4690E-03     69.6565E-03
             648     13.1473E-03     77.0324E-03    -9.75397E+06    -15.9270E+06    -6.80287E+06    -323.621E+03    -27.8311E-03     54.3035E-03    -26.4724E-03     77.0279E-03    -28.0217E-03     54.4227E-03    -26.4692E-03     76.8591E-03
             649     14.0237E-03     77.1097E-03    -9.29823E+06     24.5104E+06    -9.94658E+06    -1.13756E+06    -28.2542E-03     54.6523E-03    -26.3981E-03     89.4866E-03    -28.6273E-03     55.1082E-03    -26.4699E-03     89.2781E-03
             650     14.8999E-03     77.2022E-03    -9.92079E+06     79.5550E+06     2.43092E+06    -507.671E+03    -29.1595E-03     55.5454E-03    -26.3859E-03     112.283E-03    -29.9840E-03     56.6101E-03    -26.4747E-03     112.089E-03
             651     15.7758E-03     77.3223E-03    -11.5611E+06     121.286E+06     42.1467E+06     1.20927E+06    -30.2188E-03     56.7348E-03    -26.5159E-03     149.285E-03    -31.9986E-03     58.7818E-03    -26.4643E-03     149.439E-03
             652     16.6513E-03     77.4861E-03    -6.05961E+06     140.317E+06     80.3841E+06     743.296E+03    -27.7948E-03     54.4109E-03    -26.6161E-03     121.297E-03    -29.4291E-03     56.2888E-03    -26.4089E-03     121.791E-03
             653     876.419E-06     77.4951E-03    -34.1929E+06    -121.921E+06    -33.8320E+06    -353.317E+03    -26.6078E-03     53.2002E-03    -26.5924E-03     5.61958E-03    -26.5530E-03     52.6896E-03    -26.5352E-03     5.61224E-03
             654     1.75287E-03     77.5028E-03    -33.2189E+06    -119.184E+06    -31.0895E+06    -556.266E+03    -26.6171E-03     53.2211E-03    -26.6040E-03     10.4497E-03    -26.5657E-03     52.7189E-03    -26.5385E-03     10.4371E-03
             655     2.62928E-03     77.5150E-03    -31.5887E+06    -116.163E+06    -27.0554E+06    -779.445E+03    -26.6321E-03     53.2460E-03    -26.6139E-03     15.5238E-03    -26.5834E-03     52.7512E-03    -26.5349E-03     15.5052E-03
             656     3.50576E-03     77.5323E-03    -29.5562E+06    -111.524E+06    -22.5934E+06    -1.12562E+06    -26.6635E-03     53.2842E-03    -26.6207E-03     20.6398E-03    -26.6187E-03     52.8040E-03    -26.5291E-03     20.6131E-03
             657     4.38219E-03     77.5543E-03    -27.3819E+06    -105.468E+06    -17.9931E+06    -1.54824E+06    -26.7023E-03     53.3275E-03    -26.6252E-03     25.7580E-03    -26.6634E-03     52.8692E-03    -26.5225E-03     25.7215E-03
             658     5.25871E-03     77.5813E-03    -25.0939E+06    -98.6317E+06    -13.3414E+06    -1.83874E+06    -26.7527E-03     53.3806E-03    -26.6279E-03     30.8374E-03    -26.7210E-03     52.9484E-03    -26.5152E-03     30.7917E-03
             659     6.13517E-03     77.6129E-03    -22.9253E+06    -93.6113E+06    -8.99647E+06    -2.08119E+06    -26.8223E-03     53.4540E-03    -26.6317E-03     35.8310E-03    -26.7962E-03     53.0403E-03    -26.5077E-03     35.7755E-03
             660     7.01172E-03     77.6494E-03    -20.6835E+06    -87.9726E+06    -5.75675E+06    -2.28694E+06    -26.9025E-03     53.5318E-03    -26.6293E-03     40.7555E-03    -26.8821E-03     53.1424E-03    -26.5006E-03     40.6891E-03
             661     7.88819E-03     77.6904E-03    -18.4562E+06    -81.1399E+06    -3.82163E+06    -2.44693E+06    -26.9974E-03     53.6165E-03    -26.6191E-03     45.5985E-03    -26.9843E-03     53.2609E-03    -26.4938E-03     45.5201E-03
             662     8.76474E-03     77.7360E-03    -16.5110E+06    -74.9729E+06    -3.01573E+06    -2.54920E+06    -27.0993E-03     53.7044E-03    -26.6051E-03     50.3303E-03    -27.0946E-03     53.3837E-03    -26.4876E-03     50.2385E-03
             663     9.64121E-03     77.7860E-03    -14.7453E+06    -68.5033E+06    -2.49227E+06    -2.39804E+06    -27.1990E-03     53.7886E-03    -26.5896E-03     54.9546E-03    -27.2066E-03     53.5080E-03    -26.4814E-03     54.8504E-03
             664     10.5178E-03     77.8403E-03    -13.2429E+06    -61.3373E+06    -3.16553E+06    -2.18023E+06    -27.3284E-03     53.8963E-03    -26.5679E-03     59.7669E-03    -27.3541E-03     53.6665E-03    -26.4756E-03     59.6482E-03
             665     11.3943E-03     77.8994E-03    -12.1035E+06    -50.5859E+06    -4.33371E+06    -1.76961E+06    -27.4515E-03     53.9912E-03    -26.5397E-03     64.7961E-03    -27.5089E-03     53.8386E-03    -26.4705E-03     64.6620E-03
             666     12.2709E-03     77.9632E-03    -11.2800E+06    -35.5930E+06    -3.87588E+06    -1.16952E+06    -27.5782E-03     54.0921E-03    -26.5139E-03     70.2019E-03    -27.6897E-03     54.0484E-03    -26.4653E-03     70.0514E-03
             667     13.1473E-03     78.0322E-03    -10.5096E+06    -15.9775E+06    -6.38159E+06    -1.13053E+06    -27.7190E-03     54.1840E-03    -26.4650E-03     77.4175E-03    -27.9139E-03     54.3034E-03    -26.4585E-03     77.2392E-03
             668     14.0241E-03     78.1093E-03    -10.8225E+06     24.4198E+06    -7.46235E+06    -406.448E+03    -27.9135E-03     54.3013E-03    -26.3878E-03     90.1835E-03    -28.2963E-03     54.7540E-03    -26.4448E-03     89.9878E-03
             669     14.9010E-03     78.2024E-03    -11.7300E+06     77.0854E+06     486.358E+03     1.61772E+06    -28.4196E-03     54.7439E-03    -26.3243E-03     113.615E-03    -29.2423E-03     55.7972E-03    -26.4166E-03     113.462E-03
             670     15.7777E-03     78.3230E-03    -9.16975E+06     122.400E+06     40.7468E+06     2.31285E+06    -29.3763E-03     55.7768E-03    -26.4005E-03     150.329E-03    -31.1438E-03     57.8280E-03    -26.3609E-03     150.521E-03
             671     16.6591E-03     78.4832E-03    -4.99890E+06     142.583E+06     81.5962E+06    -372.727E+03    -28.6870E-03     55.2034E-03    -26.5163E-03     122.125E-03    -30.3332E-03     57.1013E-03    -26.3078E-03     122.603E-03
             672     876.442E-06     78.4949E-03    -33.6308E+06    -121.142E+06    -33.0952E+06    -465.067E+03    -26.6217E-03     53.2342E-03    -26.6125E-03     5.63147E-03    -26.5663E-03     52.7256E-03    -26.5536E-03     5.62267E-03
             673     1.75280E-03     78.5022E-03    -32.8526E+06    -118.555E+06    -30.8953E+06    -736.750E+03    -26.6276E-03     53.2458E-03    -26.6182E-03     10.4511E-03    -26.5756E-03     52.7459E-03    -26.5531E-03     10.4362E-03
             674     2.62928E-03     78.5147E-03    -31.6000E+06    -115.455E+06    -27.4352E+06    -1.08229E+06    -26.6452E-03     53.2696E-03    -26.6244E-03     15.5394E-03    -26.5970E-03     52.7789E-03    -26.5484E-03     15.5170E-03
             675     3.50568E-03     78.5318E-03    -29.8589E+06    -110.660E+06    -23.1415E+06    -1.51086E+06    -26.6722E-03     53.3025E-03    -26.6303E-03     20.6574E-03    -26.6294E-03     52.8279E-03    -26.5422E-03     20.6258E-03
             676     4.38218E-03     78.5540E-03    -27.7652E+06    -104.564E+06    -18.5377E+06    -1.98352E+06    -26.7082E-03     53.3423E-03    -26.6341E-03     25.7843E-03    -26.6717E-03     52.8898E-03    -26.5349E-03     25.7422E-03
             677     5.25861E-03     78.5808E-03    -25.4675E+06    -98.0365E+06    -13.9544E+06    -2.32477E+06    -26.7570E-03     53.3929E-03    -26.6360E-03     30.8682E-03    -26.7271E-03     52.9651E-03    -26.5266E-03     30.8162E-03
             678     6.13514E-03     78.6126E-03    -22.9679E+06    -93.0270E+06    -9.39006E+06    -2.46802E+06    -26.8225E-03     53.4617E-03    -26.6392E-03     35.8644E-03    -26.7969E-03     53.0516E-03    -26.5180E-03     35.8039E-03
             679     7.01160E-03     78.6489E-03    -20.6058E+06    -87.2803E+06    -5.91145E+06    -2.78880E+06    -26.8972E-03     53.5333E-03    -26.6361E-03     40.7923E-03    -26.8773E-03     53.1475E-03    -26.5092E-03     40.7195E-03
             680     7.88818E-03     78.6901E-03    -18.4124E+06    -80.7062E+06    -4.09165E+06    -3.03967E+06    -26.9803E-03     53.6038E-03    -26.6235E-03     45.6551E-03    -26.9672E-03     53.2507E-03    -26.5002E-03     45.5691E-03
             681     8.76467E-03     78.7356E-03    -16.5065E+06    -74.7316E+06    -3.22050E+06    -2.99782E+06    -27.0705E-03     53.6777E-03    -26.6071E-03     50.3865E-03    -27.0658E-03     53.3584E-03    -26.4909E-03     50.2891E-03
             682     9.64131E-03     78.7856E-03    -14.9864E+06    -68.4749E+06    -2.67921E+06    -2.90918E+06    -27.1660E-03     53.7551E-03    -26.5891E-03     55.0237E-03    -27.1746E-03     53.4752E-03    -26.4815E-03     54.9131E-03
             683     10.5178E-03     78.8399E-03    -13.6991E+06    -61.4674E+06    -3.55908E+06    -2.66373E+06    -27.2720E-03     53.8351E-03    -26.5632E-03     59.8596E-03    -27.2991E-03     53.6057E-03    -26.4720E-03     59.7349E-03
             684     11.3945E-03     78.8990E-03    -12.6159E+06    -51.1023E+06    -4.95847E+06    -2.24401E+06    -27.3592E-03     53.8881E-03    -26.5289E-03     64.8684E-03    -27.4173E-03     53.7344E-03    -26.4613E-03     64.7286E-03
             685     12.2711E-03     78.9626E-03    -11.4872E+06    -36.0690E+06    -4.53363E+06    -1.75208E+06    -27.4238E-03     53.9180E-03    -26.4942E-03     70.2738E-03    -27.5344E-03     53.8729E-03    -26.4479E-03     70.1167E-03
             686     13.1480E-03     79.0319E-03    -11.0618E+06    -15.9978E+06    -7.57575E+06    -1.14719E+06    -27.5609E-03     53.9941E-03    -26.4332E-03     77.4029E-03    -27.7565E-03     54.1155E-03    -26.4318E-03     77.2255E-03
             687     14.0246E-03     79.1086E-03    -10.9165E+06     22.4694E+06    -9.68646E+06     47.1446E+03    -27.6728E-03     54.0155E-03    -26.3427E-03     89.7435E-03    -28.0498E-03     54.4617E-03    -26.4079E-03     89.5557E-03
             688     14.9022E-03     79.2013E-03    -9.13984E+06     75.2566E+06    -2.49805E+06     1.30439E+06    -27.7500E-03     53.9998E-03    -26.2498E-03     111.897E-03    -28.5377E-03     55.0294E-03    -26.3582E-03     111.750E-03
             689     15.7819E-03     79.3205E-03    -5.37424E+06     124.327E+06     40.0625E+06     550.706E+03    -29.6619E-03     55.9916E-03    -26.3298E-03     147.408E-03    -31.4024E-03     58.0383E-03    -26.3019E-03     147.558E-03
             690     16.6566E-03     79.4827E-03    -3.91455E+06     143.649E+06     81.8398E+06    -13.7621E+03    -29.6847E-03     56.1859E-03    -26.5012E-03     120.142E-03    -31.3298E-03     58.0897E-03    -26.2946E-03     120.592E-03
             691     876.355E-06     79.4943E-03    -34.0330E+06    -120.240E+06    -33.7584E+06    -433.423E+03    -26.6151E-03     53.2437E-03    -26.6286E-03     5.67274E-03    -26.5620E-03     52.7411E-03    -26.5737E-03     5.66435E-03
             692     1.75286E-03     79.5020E-03    -33.4072E+06    -117.741E+06    -31.6372E+06    -804.831E+03    -26.6376E-03     53.2606E-03    -26.6230E-03     10.4610E-03    -26.5885E-03     52.7667E-03    -26.5620E-03     10.4452E-03
             693     2.62920E-03     79.5142E-03    -32.0906E+06    -114.435E+06    -28.0194E+06    -1.31057E+06    -26.6518E-03     53.2824E-03    -26.6306E-03     15.5495E-03    -26.6067E-03     52.7984E-03    -26.5582E-03     15.5241E-03
             694     3.50569E-03     79.5315E-03    -30.2945E+06    -109.636E+06    -23.7464E+06    -1.87647E+06    -26.6733E-03     53.3088E-03    -26.6355E-03     20.6776E-03    -26.6332E-03     52.8409E-03    -26.5514E-03     20.6413E-03
             695     4.38210E-03     79.5535E-03    -28.2539E+06    -103.542E+06    -19.1244E+06    -2.36956E+06    -26.7094E-03     53.3478E-03    -26.6385E-03     25.8091E-03    -26.6760E-03     52.9021E-03    -26.5430E-03     25.7620E-03
             696     5.25861E-03     79.5805E-03    -26.0377E+06    -97.1899E+06    -14.5291E+06    -2.82754E+06    -26.7545E-03     53.3943E-03    -26.6398E-03     30.8951E-03    -26.7279E-03     52.9724E-03    -26.5337E-03     30.8366E-03
             697     6.13507E-03     79.6121E-03    -23.6281E+06    -92.3751E+06    -10.2149E+06    -3.21039E+06    -26.8148E-03     53.4556E-03    -26.6409E-03     35.9010E-03    -26.7922E-03     53.0509E-03    -26.5238E-03     35.8310E-03
             698     7.01163E-03     79.6486E-03    -21.0163E+06    -86.4171E+06    -6.47382E+06    -3.48093E+06    -26.8854E-03     53.5222E-03    -26.6367E-03     40.8317E-03    -26.8680E-03     53.1421E-03    -26.5133E-03     40.7500E-03
             699     7.88811E-03     79.6895E-03    -18.7427E+06    -80.3481E+06    -4.52275E+06    -3.59391E+06    -26.9590E-03     53.5822E-03    -26.6233E-03     45.6730E-03    -26.9474E-03     53.2320E-03    -26.5022E-03     45.5800E-03
             700     8.76475E-03     79.7352E-03    -16.8778E+06    -74.5310E+06    -3.87168E+06    -3.47906E+06    -27.0436E-03     53.6472E-03    -26.6036E-03     50.3960E-03    -27.0401E-03     53.3304E-03    -26.4904E-03     50.2925E-03
             701     9.64125E-03     79.7851E-03    -15.1975E+06    -68.2791E+06    -3.30619E+06    -3.35221E+06    -27.1305E-03     53.7133E-03    -26.5828E-03     55.0168E-03    -27.1395E-03     53.4356E-03    -26.4783E-03     54.9006E-03
             702     10.5180E-03     79.8395E-03    -13.7530E+06    -61.5583E+06    -4.26196E+06    -3.19347E+06    -27.2215E-03     53.7749E-03    -26.5534E-03     59.8290E-03    -27.2477E-03     53.5461E-03    -26.4655E-03     59.6976E-03
             703     11.3946E-03     79.8984E-03    -12.5356E+06    -51.4564E+06    -5.67824E+06    -2.80332E+06    -27.3110E-03     53.8270E-03    -26.5160E-03     64.7667E-03    -27.3671E-03     53.6725E-03    -26.4516E-03     64.6198E-03
             704     12.2713E-03     79.9622E-03    -11.6660E+06    -36.5512E+06    -5.50221E+06    -2.28256E+06    -27.3704E-03     53.8484E-03    -26.4780E-03     70.0282E-03    -27.4795E-03     53.8023E-03    -26.4356E-03     69.8646E-03
             705     13.1480E-03     80.0310E-03    -11.0222E+06    -16.9962E+06    -8.19832E+06    -1.22716E+06    -27.5404E-03     53.9585E-03    -26.4181E-03     77.0396E-03    -27.7331E-03     54.0755E-03    -26.4185E-03     76.8614E-03
             706     14.0251E-03     80.1083E-03    -10.4079E+06     21.2913E+06    -9.16881E+06    -272.614E+03    -27.8026E-03     54.1414E-03    -26.3389E-03     88.7441E-03    -28.1750E-03     54.5791E-03    -26.4005E-03     88.5510E-03
             707     14.9018E-03     80.1996E-03    -10.2123E+06     75.3176E+06     455.185E+03    -567.364E+03    -28.5585E-03     54.8494E-03    -26.2909E-03     109.966E-03    -29.3546E-03     55.8753E-03    -26.3830E-03     109.779E-03
             708     15.7777E-03     80.3184E-03    -8.40141E+06     122.816E+06     40.1151E+06    -502.589E+03    -30.8692E-03     57.2893E-03    -26.4201E-03     147.052E-03    -32.6385E-03     59.3485E-03    -26.3854E-03     147.154E-03
             709     16.6536E-03     80.4865E-03    -4.46317E+06     143.342E+06     80.7054E+06     879.020E+03    -28.7760E-03     55.3613E-03    -26.5854E-03     119.577E-03    -30.4210E-03     57.2654E-03    -26.3832E-03     120.036E-03
             710     876.477E-06     80.4941E-03    -35.2793E+06    -119.178E+06    -34.8226E+06    -637.529E+03    -26.6290E-03     53.2512E-03    -26.6222E-03     5.65106E-03    -26.5822E-03     52.7573E-03    -26.5724E-03     5.64006E-03
             711     1.75276E-03     80.5015E-03    -34.1867E+06    -116.686E+06    -32.2245E+06    -1.07971E+06    -26.6346E-03     53.2621E-03    -26.6275E-03     10.4629E-03    -26.5901E-03     52.7755E-03    -26.5698E-03     10.4435E-03
             712     2.62924E-03     80.5139E-03    -32.6516E+06    -113.200E+06    -28.5222E+06    -1.66551E+06    -26.6504E-03     53.2832E-03    -26.6328E-03     15.5588E-03    -26.6091E-03     52.8069E-03    -26.5639E-03     15.5289E-03
             713     3.50563E-03     80.5310E-03    -30.7654E+06    -108.385E+06    -24.1697E+06    -2.29772E+06    -26.6740E-03     53.3113E-03    -26.6374E-03     20.6901E-03    -26.6375E-03     52.8509E-03    -26.5564E-03     20.6484E-03
             714     4.38212E-03     80.5532E-03    -28.5964E+06    -102.460E+06    -19.5825E+06    -2.82011E+06    -26.7054E-03     53.3449E-03    -26.6395E-03     25.8240E-03    -26.6747E-03     52.9057E-03    -26.5473E-03     25.7711E-03
             715     5.25856E-03     80.5800E-03    -26.2967E+06    -96.0663E+06    -14.9655E+06    -3.30402E+06    -26.7484E-03     53.3880E-03    -26.6395E-03     30.9098E-03    -26.7241E-03     52.9727E-03    -26.5369E-03     30.8452E-03
             716     6.13510E-03     80.6118E-03    -23.9045E+06    -91.2889E+06    -10.6491E+06    -3.88544E+06    -26.8074E-03     53.4470E-03    -26.6396E-03     35.9137E-03    -26.7872E-03     53.0487E-03    -26.5258E-03     35.8349E-03
             717     7.01158E-03     80.6481E-03    -21.5954E+06    -85.7262E+06    -7.28308E+06    -4.22794E+06    -26.8733E-03     53.5067E-03    -26.6334E-03     40.8403E-03    -26.8585E-03     53.1321E-03    -26.5142E-03     40.7489E-03
             718     7.88818E-03     80.6893E-03    -19.3169E+06    -79.9018E+06    -5.17094E+06    -4.24263E+06    -26.9498E-03     53.5699E-03    -26.6202E-03     45.6588E-03    -26.9408E-03     53.2237E-03    -26.5021E-03     45.5573E-03
             719     8.76469E-03     80.7346E-03    -17.1525E+06    -74.2915E+06    -4.51772E+06    -4.21241E+06    -27.0292E-03     53.6287E-03    -26.5995E-03     50.3768E-03    -27.0264E-03     53.3144E-03    -26.4895E-03     50.2638E-03
             720     9.64137E-03     80.7848E-03    -15.2162E+06      -68.05E+06    -3.90284E+06    -4.09737E+06    -27.1133E-03     53.6907E-03    -26.5773E-03     54.9740E-03    -27.1219E-03     53.4150E-03    -26.4761E-03     54.8481E-03
             721     10.5179E-03     80.8388E-03    -13.6648E+06    -61.6598E+06    -4.68699E+06    -3.79115E+06    -27.2108E-03     53.7590E-03    -26.5482E-03     59.7339E-03    -27.2358E-03     53.5302E-03    -26.4624E-03     59.5948E-03
             722     11.3946E-03     80.8981E-03    -12.4892E+06    -51.6307E+06    -6.02435E+06    -3.45747E+06    -27.3108E-03     53.8222E-03    -26.5114E-03     64.6609E-03    -27.3659E-03     53.6672E-03    -26.4485E-03     64.5056E-03
             723     12.2713E-03     80.9614E-03    -11.4364E+06    -37.3153E+06    -6.11065E+06    -2.77131E+06    -27.4270E-03     53.9021E-03    -26.4750E-03     69.8678E-03    -27.5329E-03     53.8526E-03    -26.4349E-03     69.6976E-03
             724     13.1480E-03     81.0306E-03    -10.4264E+06    -18.2407E+06    -8.93925E+06    -1.85865E+06    -27.6368E-03     54.0566E-03    -26.4197E-03     77.0021E-03    -27.8235E-03     54.1674E-03    -26.4229E-03     76.8154E-03
             725     14.0243E-03     81.1076E-03    -9.58922E+06     20.3880E+06    -9.38048E+06    -871.141E+03    -28.0197E-03     54.3710E-03    -26.3512E-03     88.8122E-03    -28.3849E-03     54.8017E-03    -26.4138E-03     88.6099E-03
             726     14.9010E-03     81.1994E-03    -9.75832E+06     75.3833E+06     889.592E+03     578.244E+03    -29.2429E-03     55.5707E-03    -26.3278E-03     111.656E-03    -30.0524E-03     56.6105E-03    -26.4185E-03     111.473E-03
             727     15.7762E-03     81.3204E-03    -10.1175E+06     121.568E+06     39.6388E+06     398.094E+03    -30.7498E-03     57.2130E-03    -26.4632E-03     150.175E-03    -32.5494E-03     59.2933E-03    -26.4266E-03     150.303E-03
             728     16.6530E-03     81.4850E-03    -5.56573E+06     142.813E+06     80.5232E+06    -240.085E+03    -28.0929E-03     54.6896E-03    -26.5968E-03     120.661E-03    -29.7466E-03     56.5971E-03    -26.3932E-03     121.130E-03
             729     876.282E-06     81.4936E-03    -35.4317E+06    -117.735E+06    -34.7391E+06    -819.557E+03    -26.6262E-03     53.2605E-03    -26.6344E-03     5.64179E-03    -26.5823E-03     52.7739E-03    -26.5860E-03     5.62840E-03
             730     1.75284E-03     81.5012E-03    -34.4683E+06    -115.374E+06    -32.4346E+06    -1.40748E+06    -26.6305E-03     53.2606E-03    -26.6302E-03     10.4816E-03    -26.5889E-03     52.7812E-03    -26.5751E-03     10.4581E-03
             731     2.62919E-03     81.5135E-03    -32.9575E+06    -111.724E+06    -28.8737E+06    -2.08538E+06    -26.6506E-03     53.2835E-03    -26.6329E-03     15.5582E-03    -26.6125E-03     52.8156E-03    -26.5675E-03     15.5228E-03
             732     3.50566E-03     81.5307E-03    -31.0573E+06    -106.953E+06    -24.5129E+06    -2.75376E+06    -26.6711E-03     53.3083E-03    -26.6372E-03     20.6895E-03    -26.6376E-03     52.8560E-03    -26.5596E-03     20.6419E-03
             733     4.38207E-03     81.5527E-03    -28.8915E+06    -101.142E+06    -19.9813E+06    -3.41030E+06    -26.7014E-03     53.3398E-03    -26.6384E-03     25.8243E-03    -26.6735E-03     52.9082E-03    -26.5498E-03     25.7638E-03
             734     5.25860E-03     81.5797E-03    -26.4652E+06    -94.8604E+06    -15.3853E+06    -3.94324E+06    -26.7442E-03     53.3819E-03    -26.6377E-03     30.9060E-03    -26.7219E-03     52.9735E-03    -26.5387E-03     30.8331E-03
             735     6.13506E-03     81.6113E-03    -24.0741E+06    -89.9545E+06    -10.9512E+06    -4.43546E+06    -26.8033E-03     53.4410E-03    -26.6377E-03     35.9007E-03    -26.7855E-03     53.0502E-03    -26.5271E-03     35.8147E-03
             736     7.01162E-03     81.6478E-03    -21.7501E+06    -84.9645E+06    -7.63115E+06    -4.80115E+06    -26.8689E-03     53.5006E-03    -26.6317E-03     40.8144E-03    -26.8555E-03     53.1305E-03    -26.5151E-03     40.7156E-03
             737     7.88813E-03     81.6887E-03    -19.5149E+06    -79.2292E+06    -5.71139E+06    -5.02847E+06    -26.9434E-03     53.5606E-03    -26.6172E-03     45.6389E-03    -26.9357E-03     53.2189E-03    -26.5026E-03     45.5272E-03
             738     8.76475E-03     81.7343E-03    -17.3742E+06    -73.8120E+06    -5.01524E+06    -5.16487E+06    -27.0298E-03     53.6267E-03    -26.5969E-03     50.3356E-03    -27.0282E-03     53.3159E-03    -26.4898E-03     50.2102E-03
             739     9.64130E-03     81.7841E-03    -15.4719E+06    -67.9619E+06    -4.55521E+06    -4.97934E+06    -27.1187E-03     53.6938E-03    -26.5751E-03     54.9308E-03    -27.1278E-03     53.4199E-03    -26.4769E-03     54.7935E-03
             740     10.5180E-03     81.8386E-03    -13.8304E+06    -61.7763E+06    -5.30790E+06    -4.58276E+06    -27.2290E-03     53.7763E-03    -26.5474E-03     59.6675E-03    -27.2538E-03     53.5481E-03    -26.4643E-03     59.5180E-03
             741     11.3946E-03     81.8972E-03    -12.5282E+06    -51.8448E+06    -6.59448E+06    -4.10054E+06    -27.3313E-03     53.8436E-03    -26.5123E-03     64.5796E-03    -27.3855E-03     53.6883E-03    -26.4519E-03     64.4159E-03
             742     12.2713E-03     81.9612E-03    -11.4371E+06    -37.8571E+06    -6.63798E+06    -3.63439E+06    -27.4694E-03     53.9479E-03    -26.4785E-03     69.8773E-03    -27.5739E-03     53.8967E-03    -26.4403E-03     69.6957E-03
             743     13.1478E-03     82.0298E-03    -10.4021E+06    -19.4734E+06    -9.65884E+06    -2.84606E+06    -27.6588E-03     54.0836E-03    -26.4249E-03     77.0549E-03    -27.8426E-03     54.1894E-03    -26.4298E-03     76.8551E-03
             744     14.0248E-03     82.1076E-03    -10.3300E+06     18.6428E+06    -10.1352E+06    -1.02844E+06    -27.9940E-03     54.3509E-03    -26.3569E-03     89.1277E-03    -28.3600E-03     54.7759E-03    -26.4197E-03     88.9227E-03
             745     14.9013E-03     82.1990E-03    -9.62425E+06     73.6090E+06    -2.41705E+06       609.7E+03    -28.6738E-03     54.9737E-03    -26.2999E-03     112.619E-03    -29.4799E-03     56.0140E-03    -26.4048E-03     112.446E-03
             746     15.7788E-03     82.3215E-03    -6.57614E+06     123.115E+06     39.6805E+06     1.45534E+06    -29.7784E-03     56.1775E-03    -26.3991E-03     149.901E-03    -31.5437E-03     58.2414E-03    -26.3697E-03     150.068E-03
             747     16.6577E-03     82.4823E-03    -4.25956E+06     144.114E+06     82.5572E+06     410.975E+03    -28.7963E-03     55.3388E-03    -26.5425E-03     120.266E-03    -30.4316E-03     57.2312E-03    -26.3325E-03     120.741E-03
             748     876.497E-06     82.4933E-03    -35.5990E+06    -116.078E+06    -35.1651E+06    -828.667E+03    -26.6288E-03     53.2482E-03    -26.6195E-03     5.65428E-03    -26.5875E-03     52.7708E-03    -26.5754E-03     5.64077E-03
             749     1.75275E-03     82.5008E-03    -34.7512E+06    -113.657E+06    -32.8116E+06    -1.63780E+06    -26.6403E-03     53.2670E-03    -26.6267E-03     10.4785E-03    -26.6021E-03     52.7972E-03    -26.5756E-03     10.4519E-03
             750     2.62921E-03     82.5132E-03    -33.3200E+06    -109.923E+06    -29.3073E+06    -2.52822E+06    -26.6470E-03     53.2789E-03    -26.6319E-03     15.5602E-03    -26.6127E-03     52.8211E-03    -26.5707E-03     15.5190E-03
             751     3.50561E-03     82.5303E-03    -31.3892E+06    -105.371E+06    -25.0220E+06    -3.30694E+06    -26.6700E-03     53.3055E-03    -26.6355E-03     20.6880E-03    -26.6398E-03     52.8623E-03    -26.5623E-03     20.6332E-03
             752     4.38210E-03     82.5524E-03    -29.2265E+06    -99.5727E+06    -20.4081E+06    -3.94436E+06    -26.7012E-03     53.3384E-03    -26.6372E-03     25.8142E-03    -26.6766E-03     52.9158E-03    -26.5525E-03     25.7467E-03
             753     5.25854E-03     82.5792E-03    -27.0426E+06    -93.4912E+06    -15.9473E+06    -4.57091E+06    -26.7429E-03     53.3794E-03    -26.6365E-03     30.8921E-03    -26.7247E-03     52.9795E-03    -26.5415E-03     30.8110E-03
             754     6.13507E-03     82.6110E-03    -24.6612E+06    -88.6755E+06    -11.6403E+06    -5.05603E+06    -26.7982E-03     53.4341E-03    -26.6358E-03     35.8826E-03    -26.7842E-03     53.0514E-03    -26.5297E-03     35.7886E-03
             755     7.01156E-03     82.6472E-03    -22.2050E+06    -83.8468E+06    -8.24096E+06    -5.52979E+06    -26.8652E-03     53.4951E-03    -26.6299E-03     40.7924E-03    -26.8548E-03     53.1322E-03    -26.5173E-03     40.6841E-03
             756     7.88815E-03     82.6884E-03    -19.8458E+06    -78.3661E+06    -6.44023E+06    -5.85705E+06    -26.9430E-03     53.5579E-03    -26.6148E-03     45.6131E-03    -26.9372E-03     53.2220E-03    -26.5046E-03     45.4907E-03
             757     8.76470E-03     82.7337E-03    -17.7567E+06    -73.0472E+06    -5.69331E+06    -6.05963E+06    -27.0386E-03     53.6341E-03    -26.5955E-03     50.3081E-03    -27.0390E-03     53.3286E-03    -26.4923E-03     50.1710E-03
             758     9.64129E-03     82.7838E-03    -15.8290E+06    -67.8804E+06    -5.40979E+06    -6.00760E+06    -27.1373E-03     53.7123E-03    -26.5750E-03     54.8883E-03    -27.1471E-03     53.4406E-03    -26.4807E-03     54.7376E-03
             759     10.5179E-03     82.8378E-03    -14.0310E+06    -61.8513E+06    -6.14509E+06    -5.59992E+06    -27.2561E-03     53.8052E-03    -26.5491E-03     59.6438E-03    -27.2807E-03     53.5782E-03    -26.4698E-03     59.4810E-03
             760     11.3945E-03     82.8970E-03    -12.6375E+06    -52.3265E+06    -7.48832E+06    -4.91408E+06    -27.3657E-03     53.8819E-03    -26.5162E-03     64.5137E-03    -27.4186E-03     53.7258E-03    -26.4594E-03     64.3392E-03
             761     12.2711E-03     82.9602E-03    -11.8278E+06    -38.1964E+06    -7.45336E+06    -4.15698E+06    -27.4657E-03     53.9495E-03    -26.4837E-03     69.8847E-03    -27.5706E-03     53.8983E-03    -26.4484E-03     69.6962E-03
             762     13.1479E-03     83.0299E-03    -11.6863E+06    -20.4368E+06    -11.0318E+06    -3.36833E+06    -27.6494E-03     54.0781E-03    -26.4287E-03     77.0014E-03    -27.8364E-03     54.1831E-03    -26.4372E-03     76.7947E-03
             763     14.0242E-03     83.1063E-03    -10.4533E+06     16.0857E+06    -11.9372E+06    -1.98743E+06    -27.8201E-03     54.1734E-03    -26.3533E-03     89.0773E-03    -28.1811E-03     54.5890E-03    -26.4212E-03     88.8614E-03
             764     14.9013E-03     83.1993E-03    -8.66241E+06     72.4634E+06    -2.72847E+06    -474.869E+03    -28.4330E-03     54.7218E-03    -26.2888E-03     111.990E-03    -29.2292E-03     55.7524E-03    -26.3950E-03     111.807E-03
             765     15.7791E-03     83.3184E-03    -6.59472E+06     123.035E+06     37.6659E+06     954.139E+03    -30.3474E-03     56.7421E-03    -26.3947E-03     147.363E-03    -32.1002E-03     58.7991E-03    -26.3752E-03     147.504E-03
             766     16.6554E-03     83.4828E-03    -4.09017E+06     144.229E+06     80.8581E+06     1.00473E+06    -28.9145E-03     55.4815E-03    -26.5670E-03     117.715E-03    -30.5375E-03     57.3675E-03    -26.3659E-03     118.180E-03
             767     876.325E-06     83.4930E-03    -35.8749E+06    -114.107E+06    -35.4200E+06    -1.03338E+06    -26.6349E-03     53.2534E-03    -26.6185E-03     5.63235E-03    -26.5976E-03     52.7866E-03    -26.5781E-03     5.61620E-03
             768     1.75280E-03     83.5005E-03    -34.9048E+06    -111.657E+06    -33.0980E+06    -1.91705E+06    -26.6314E-03     53.2581E-03    -26.6266E-03     10.4645E-03    -26.5965E-03     52.7988E-03    -26.5796E-03     10.4344E-03
             769     2.62919E-03     83.5128E-03    -33.5469E+06    -107.829E+06    -29.6286E+06    -2.86227E+06    -26.6471E-03     53.2766E-03    -26.6295E-03     15.5635E-03    -26.6165E-03     52.8301E-03    -26.5727E-03     15.5180E-03
             770     3.50564E-03     83.5300E-03    -31.8317E+06    -103.469E+06    -25.4497E+06    -3.81026E+06    -26.6727E-03     53.3068E-03    -26.6340E-03     20.6818E-03    -26.6469E-03     52.8744E-03    -26.5651E-03     20.6204E-03
             771     4.38205E-03     83.5520E-03    -29.7585E+06    -98.0244E+06    -21.0075E+06    -4.47318E+06    -26.7025E-03     53.3387E-03    -26.6363E-03     25.8055E-03    -26.6819E-03     52.9255E-03    -26.5560E-03     25.7311E-03
             772     5.25856E-03     83.5790E-03    -27.4670E+06    -91.8115E+06    -16.4449E+06    -5.07011E+06    -26.7407E-03     53.3765E-03    -26.6358E-03     30.8827E-03    -26.7263E-03     52.9864E-03    -26.5451E-03     30.7952E-03
             773     6.13502E-03     83.6105E-03    -25.0698E+06    -87.2012E+06    -12.2955E+06    -5.82011E+06    -26.7952E-03     53.4295E-03    -26.6343E-03     35.8737E-03    -26.7844E-03     53.0557E-03    -26.5329E-03     35.7698E-03
             774     7.01158E-03     83.6470E-03    -22.5763E+06    -82.4973E+06    -8.89954E+06    -6.36168E+06    -26.8651E-03     53.4933E-03    -26.6283E-03     40.7811E-03    -26.8576E-03     53.1386E-03    -26.5204E-03     40.6620E-03
             775     7.88809E-03     83.6878E-03    -20.2420E+06    -77.3204E+06    -7.02493E+06    -6.74955E+06    -26.9508E-03     53.5653E-03    -26.6145E-03     45.5982E-03    -26.9476E-03     53.2361E-03    -26.5082E-03     45.4642E-03
             776     8.76466E-03     83.7334E-03    -18.0809E+06    -72.1176E+06    -6.36090E+06    -7.01413E+06    -27.0456E-03     53.6411E-03    -26.5955E-03     50.3021E-03    -27.0480E-03     53.3418E-03    -26.4965E-03     50.1527E-03
             777     9.64124E-03     83.7831E-03    -16.1195E+06    -67.4638E+06    -6.02978E+06    -7.08640E+06    -27.1560E-03     53.7329E-03    -26.5769E-03     54.8901E-03    -27.1670E-03     53.4646E-03    -26.4858E-03     54.7253E-03
             778     10.5178E-03     83.8376E-03    -14.4071E+06    -61.9747E+06    -7.01760E+06    -6.77589E+06    -27.2737E-03     53.8254E-03    -26.5518E-03     59.6687E-03    -27.2987E-03     53.5996E-03    -26.4761E-03     59.4907E-03
             779     11.3944E-03     83.8963E-03    -12.8835E+06    -52.9848E+06    -8.26544E+06    -5.94106E+06    -27.3920E-03     53.9130E-03    -26.5210E-03     64.5519E-03    -27.4440E-03     53.7552E-03    -26.4669E-03     64.3640E-03
             780     12.2709E-03     83.9600E-03    -11.5963E+06    -39.1145E+06    -8.17020E+06    -4.74820E+06    -27.4867E-03     53.9763E-03    -26.4896E-03     69.8847E-03    -27.5882E-03     53.9214E-03    -26.4569E-03     69.6884E-03
             781     13.1476E-03     84.0289E-03    -10.3933E+06    -20.9713E+06    -10.9969E+06    -3.75002E+06    -27.6297E-03     54.0649E-03    -26.4353E-03     77.0544E-03    -27.8093E-03     54.1651E-03    -26.4448E-03     76.8433E-03
             782     14.0245E-03     84.1065E-03    -10.6278E+06     14.2921E+06    -13.0132E+06    -2.83690E+06    -27.8661E-03     54.2250E-03    -26.3589E-03     88.6936E-03    -28.2242E-03     54.6338E-03    -26.4292E-03     88.4665E-03
             783     14.9019E-03     84.1971E-03    -10.6448E+06     70.8727E+06    -3.71520E+06    -1.36441E+06    -28.8503E-03     55.1611E-03    -26.3108E-03     111.830E-03    -29.6551E-03     56.1905E-03    -26.4167E-03     111.629E-03
             784     15.7769E-03     84.3206E-03    -8.40268E+06     122.043E+06     36.5766E+06    -269.691E+03    -30.7953E-03     57.2299E-03    -26.4346E-03     149.191E-03    -32.5726E-03     59.3046E-03    -26.4165E-03     149.309E-03
             785     16.6509E-03     84.4828E-03    -4.49951E+06     144.024E+06     79.4971E+06     899.941E+03    -28.5944E-03     55.1917E-03    -26.5973E-03     119.469E-03    -30.2357E-03     57.0978E-03    -26.4022E-03     119.941E-03
             786     876.398E-06     84.4927E-03    -35.9534E+06    -111.738E+06    -35.5280E+06    -1.24879E+06    -26.6230E-03     53.2585E-03    -26.6354E-03     5.63884E-03    -26.5894E-03     52.8037E-03    -26.5989E-03     5.61990E-03
             787     1.75278E-03     84.5001E-03    -35.0772E+06    -109.419E+06    -33.2996E+06    -2.23138E+06    -26.6288E-03     53.2567E-03    -26.6279E-03     10.4628E-03    -26.5977E-03     52.8092E-03    -26.5849E-03     10.4285E-03
             788     2.62919E-03     84.5125E-03    -33.6013E+06    -105.478E+06    -29.7827E+06    -3.26827E+06    -26.6478E-03     53.2774E-03    -26.6297E-03     15.5514E-03    -26.6206E-03     52.8430E-03    -26.5769E-03     15.5007E-03
             789     3.50560E-03     84.5296E-03    -31.7697E+06    -101.419E+06    -25.3610E+06    -4.16187E+06    -26.6726E-03     53.3082E-03    -26.6355E-03     20.6712E-03    -26.6496E-03     52.8858E-03    -26.5692E-03     20.6053E-03
             790     4.38206E-03     84.5517E-03    -29.7461E+06    -96.1841E+06    -21.0821E+06    -4.98290E+06    -26.7005E-03     53.3374E-03    -26.6369E-03     25.7959E-03    -26.6825E-03     52.9335E-03    -26.5597E-03     25.7149E-03
             791     5.25850E-03     84.5785E-03    -27.4124E+06    -90.0146E+06    -16.8717E+06    -5.77519E+06    -26.7364E-03     53.3704E-03    -26.6339E-03     30.8825E-03    -26.7238E-03     52.9898E-03    -26.5480E-03     30.7859E-03
             792     6.13504E-03     84.6102E-03    -25.0812E+06    -85.4543E+06    -12.5728E+06    -6.39654E+06    -26.7941E-03     53.4269E-03    -26.6328E-03     35.8737E-03    -26.7855E-03     53.0624E-03    -26.5354E-03     35.7624E-03
             793     7.01152E-03     84.6464E-03    -22.8415E+06    -80.8392E+06    -9.27970E+06    -7.18438E+06    -26.8656E-03     53.4923E-03    -26.6267E-03     40.7923E-03    -26.8613E-03     53.1469E-03    -26.5228E-03     40.6626E-03
             794     7.88808E-03     84.6875E-03    -20.3877E+06    -76.0339E+06    -7.46120E+06    -7.78606E+06    -26.9493E-03     53.5623E-03    -26.6130E-03     45.6255E-03    -26.9480E-03     53.2404E-03    -26.5105E-03     45.4782E-03
             795     8.76462E-03     84.7328E-03    -18.2191E+06    -71.2181E+06    -6.88603E+06    -7.96290E+06    -27.0454E-03     53.6393E-03    -26.5939E-03     50.3486E-03    -27.0490E-03     53.3454E-03    -26.4986E-03     50.1870E-03
             796     9.64118E-03     84.7829E-03    -16.5561E+06    -66.7789E+06    -6.56979E+06    -7.94567E+06    -27.1523E-03     53.7279E-03    -26.5756E-03     54.9717E-03    -27.1657E-03     53.4645E-03    -26.4876E-03     54.7959E-03
             797     10.5178E-03     84.8369E-03    -15.1404E+06    -61.8053E+06    -7.78096E+06    -7.81000E+06    -27.2792E-03     53.8297E-03    -26.5505E-03     59.7564E-03    -27.3070E-03     53.6069E-03    -26.4778E-03     59.5650E-03
             798     11.3943E-03     84.8961E-03    -13.6038E+06    -53.4557E+06    -9.26080E+06    -7.38949E+06    -27.4133E-03     53.9337E-03    -26.5204E-03     64.6655E-03    -27.4669E-03     53.7761E-03    -26.4694E-03     64.4590E-03
             799     12.2710E-03     84.9594E-03    -11.7998E+06    -40.4748E+06    -9.23507E+06    -6.22391E+06    -27.5287E-03     54.0196E-03    -26.4909E-03     69.9309E-03    -27.6278E-03     53.9599E-03    -26.4613E-03     69.7154E-03
             800     13.1476E-03     85.0287E-03    -11.3322E+06    -22.7863E+06    -11.0888E+06    -4.07274E+06    -27.6754E-03     54.1213E-03    -26.4459E-03     76.9995E-03    -27.8569E-03     54.2138E-03    -26.4519E-03     76.7840E-03
             801     14.0243E-03     85.1055E-03    -11.6279E+06     13.5054E+06    -12.6378E+06    -2.13368E+06    -28.2284E-03     54.6111E-03    -26.3827E-03     88.7077E-03    -28.5931E-03     55.0191E-03    -26.4486E-03     88.4858E-03
             802     14.8998E-03     85.1976E-03    -11.7266E+06     69.7428E+06    -5.32616E+06    -2.03466E+06    -28.9744E-03     55.3132E-03    -26.3388E-03     111.969E-03    -29.7854E-03     56.3456E-03    -26.4495E-03     111.757E-03
             803     15.7777E-03     85.3198E-03    -10.3750E+06     120.366E+06     34.7988E+06    -1.70779E+06    -29.7628E-03     56.2005E-03    -26.4377E-03     149.045E-03    -31.5179E-03     58.2451E-03    -26.4232E-03     149.168E-03
             804     16.6592E-03     85.4830E-03    -4.79880E+06     143.728E+06     79.1894E+06     376.956E+03    -28.1504E-03     54.7145E-03    -26.5641E-03     118.726E-03    -29.7590E-03     56.5866E-03    -26.3696E-03     119.202E-03
             805     876.385E-06     85.4923E-03    -36.0762E+06    -109.183E+06    -35.5826E+06    -1.30297E+06    -26.6441E-03     53.2542E-03    -26.6100E-03     5.62818E-03    -26.6147E-03     52.8124E-03    -26.5773E-03     5.60853E-03
             806     1.75275E-03     85.4999E-03    -35.2796E+06    -106.714E+06    -33.3817E+06    -2.49863E+06    -26.6385E-03     53.2668E-03    -26.6283E-03     10.4606E-03    -26.6122E-03     52.8332E-03    -26.5893E-03     10.4229E-03
             807     2.62916E-03     85.5121E-03    -33.9163E+06    -102.906E+06    -30.0539E+06    -3.72055E+06    -26.6440E-03     53.2752E-03    -26.6312E-03     15.5534E-03    -26.6218E-03     52.8545E-03    -26.5831E-03     15.4968E-03
             808     3.50559E-03     85.5294E-03    -32.0250E+06    -99.2657E+06    -25.7838E+06    -4.69779E+06    -26.6623E-03     53.2969E-03    -26.6347E-03     20.6721E-03    -26.6430E-03     52.8863E-03    -26.5732E-03     20.5993E-03
             809     4.38202E-03     85.5513E-03    -29.7770E+06    -93.9801E+06    -21.3650E+06    -5.57169E+06    -26.6896E-03     53.3236E-03    -26.6340E-03     25.8008E-03    -26.6745E-03     52.9312E-03    -26.5614E-03     25.7122E-03
             810     5.25853E-03     85.5782E-03    -27.5727E+06    -88.0122E+06    -17.1755E+06    -6.42506E+06    -26.7271E-03     53.3571E-03    -26.6300E-03     30.8929E-03    -26.7177E-03     52.9872E-03    -26.5483E-03     30.7880E-03
             811     6.13501E-03     85.6097E-03    -25.2013E+06    -83.7479E+06    -13.0275E+06    -7.10978E+06    -26.7818E-03     53.4090E-03    -26.6272E-03     35.9025E-03    -26.7756E-03     53.0538E-03    -26.5344E-03     35.7820E-03
             812     7.01155E-03     85.6462E-03    -22.7522E+06    -78.6546E+06    -9.51998E+06    -7.89916E+06    -26.8485E-03     53.4683E-03    -26.6198E-03     40.8438E-03    -26.8466E-03     53.1340E-03    -26.5203E-03     40.7050E-03
             813     7.88808E-03     85.6869E-03    -20.6310E+06    -74.5248E+06    -7.82686E+06    -8.73782E+06    -26.9280E-03     53.5332E-03    -26.6052E-03     45.6995E-03    -26.9295E-03     53.2196E-03    -26.5063E-03     45.5400E-03
             814     8.76467E-03     85.7326E-03    -18.6576E+06    -70.4641E+06    -7.53178E+06    -8.84599E+06    -27.0243E-03     53.6087E-03    -26.5844E-03     50.4552E-03    -27.0302E-03     53.3201E-03    -26.4928E-03     50.2824E-03
             815     9.64127E-03     85.7823E-03    -16.8103E+06    -65.8791E+06    -7.10511E+06    -8.80733E+06    -27.1310E-03     53.6957E-03    -26.5647E-03     55.0968E-03    -27.1461E-03     53.4378E-03    -26.4803E-03     54.9102E-03
             816     10.5178E-03     85.8367E-03    -15.2215E+06    -61.4182E+06    -8.36241E+06    -8.68606E+06    -27.2689E-03     53.8078E-03    -26.5388E-03     59.9234E-03    -27.2968E-03     53.5878E-03    -26.4695E-03     59.7210E-03
             817     11.3944E-03     85.8954E-03    -14.2509E+06    -53.3397E+06    -10.2518E+06    -8.37897E+06    -27.4179E-03     53.9258E-03    -26.5079E-03     64.8863E-03    -27.4734E-03     53.7711E-03    -26.4611E-03     64.6672E-03
             818     12.2709E-03     85.9592E-03    -13.6455E+06    -41.7675E+06    -11.0487E+06    -7.59284E+06    -27.5548E-03     54.0343E-03    -26.4795E-03     70.1642E-03    -27.6585E-03     53.9733E-03    -26.4544E-03     69.9314E-03
             819     13.1475E-03     86.0279E-03    -11.6212E+06    -25.5614E+06    -12.8074E+06    -5.49711E+06    -27.8207E-03     54.2609E-03    -26.4402E-03     77.3504E-03    -27.9976E-03     54.3429E-03    -26.4503E-03     77.1158E-03
             820     14.0238E-03     86.1055E-03    -9.55153E+06     11.3355E+06    -14.2157E+06    -2.70363E+06    -28.3270E-03     54.7054E-03    -26.3784E-03     89.7917E-03    -28.6763E-03     55.1023E-03    -26.4521E-03     89.5630E-03
             821     14.9005E-03     86.1982E-03    -9.55866E+06     69.6350E+06    -6.07232E+06    -702.217E+03    -28.8635E-03     55.1957E-03    -26.3322E-03     112.440E-03    -29.6618E-03     56.2249E-03    -26.4497E-03     112.250E-03
             822     15.7769E-03     86.3177E-03    -10.0173E+06     120.190E+06      34.064E+06    -239.899E+03    -29.4774E-03     55.8998E-03    -26.4225E-03     148.599E-03    -31.2120E-03     57.9267E-03    -26.4119E-03     148.745E-03
             823     16.6513E-03     86.4803E-03    -5.81791E+06     142.646E+06     78.0595E+06    -1.26098E+06    -27.9031E-03     54.4393E-03    -26.5361E-03     119.835E-03    -29.5075E-03     56.3029E-03    -26.3442E-03     120.300E-03
             824     876.368E-06     86.4921E-03    -36.0187E+06    -106.451E+06    -35.4522E+06    -1.37317E+06    -26.6417E-03     53.2464E-03    -26.6047E-03     5.64611E-03    -26.6162E-03     52.8181E-03    -26.5753E-03     5.62556E-03
             825     1.75278E-03     86.4995E-03    -35.0703E+06    -103.642E+06    -33.1610E+06    -2.69725E+06    -26.6374E-03     53.2623E-03    -26.6249E-03     10.4683E-03    -26.6148E-03     52.8435E-03    -26.5896E-03     10.4280E-03
             826     2.62915E-03     86.5119E-03    -33.6900E+06    -100.054E+06    -29.8818E+06    -4.07917E+06    -26.6376E-03     53.2655E-03    -26.6279E-03     15.5632E-03    -26.6187E-03     52.8584E-03    -26.5833E-03     15.5020E-03
             827     3.50558E-03     86.5289E-03    -31.9011E+06    -96.7011E+06    -25.8082E+06    -5.28950E+06    -26.6496E-03     53.2789E-03    -26.6293E-03     20.6894E-03    -26.6334E-03     52.8810E-03    -26.5718E-03     20.6089E-03
             828     4.38206E-03     86.5510E-03    -29.7267E+06    -91.6046E+06    -21.4024E+06    -6.33340E+06    -26.6739E-03     53.3009E-03    -26.6270E-03     25.8220E-03    -26.6619E-03     52.9203E-03    -26.5581E-03     25.7237E-03
             829     5.25853E-03     86.5777E-03    -27.2268E+06    -85.8862E+06    -16.9844E+06    -7.13579E+06    -26.7076E-03     53.3296E-03    -26.6220E-03     30.9165E-03    -26.6998E-03     52.9695E-03    -26.5429E-03     30.8025E-03
             830     6.13506E-03     86.6094E-03    -24.6585E+06    -81.5698E+06    -12.8837E+06    -8.07931E+06    -26.7536E-03     53.3697E-03    -26.6161E-03     35.9451E-03    -26.7480E-03     53.0244E-03    -26.5265E-03     35.8123E-03
             831     7.01162E-03     86.6456E-03    -22.0153E+06    -76.6559E+06    -9.40537E+06    -8.88918E+06    -26.8115E-03     53.4169E-03    -26.6053E-03     40.9063E-03    -26.8089E-03     53.0913E-03    -26.5093E-03     40.7549E-03
             832     7.88822E-03     86.6867E-03    -19.7415E+06    -72.8656E+06    -7.27922E+06    -9.25771E+06    -26.8900E-03     53.4800E-03    -26.5900E-03     45.7697E-03    -26.8903E-03     53.1726E-03    -26.4921E-03     45.6037E-03
             833     8.76483E-03     86.7319E-03    -17.8577E+06    -69.2888E+06    -7.26221E+06    -9.77579E+06    -26.9808E-03     53.5464E-03    -26.5656E-03     50.5636E-03    -26.9847E-03     53.2621E-03    -26.4756E-03     50.3791E-03
             834     9.64143E-03     86.7820E-03    -15.8794E+06    -64.9935E+06    -7.18606E+06    -9.92942E+06    -27.0888E-03     53.6303E-03    -26.5415E-03     55.2614E-03    -27.1003E-03     53.3756E-03    -26.4602E-03     55.0607E-03
             835     10.5181E-03     86.8360E-03    -14.2450E+06    -61.1533E+06    -8.32069E+06    -9.55908E+06    -27.2215E-03     53.7357E-03    -26.5143E-03     60.1385E-03    -27.2448E-03     53.5155E-03    -26.4465E-03     59.9253E-03
             836     11.3947E-03     86.8953E-03    -13.2882E+06    -53.4734E+06    -10.3333E+06    -8.68014E+06    -27.3557E-03     53.8355E-03    -26.4799E-03     65.1828E-03    -27.4058E-03     53.6786E-03    -26.4347E-03     64.9606E-03
             837     12.2714E-03     86.9585E-03    -12.7356E+06    -42.0336E+06    -11.2388E+06    -7.98976E+06    -27.5381E-03     53.9870E-03    -26.4489E-03     70.5829E-03    -27.6365E-03     53.9236E-03    -26.4257E-03     70.3454E-03
             838     13.1479E-03     87.0279E-03    -12.1023E+06    -26.7972E+06    -14.4661E+06    -7.97848E+06    -27.7750E-03     54.1790E-03    -26.4039E-03     78.0329E-03    -27.9503E-03     54.2581E-03    -26.4199E-03     77.7670E-03
             839     14.0244E-03     87.1052E-03    -10.0047E+06     7.17146E+06    -16.1932E+06    -5.82014E+06    -28.0726E-03     54.4078E-03    -26.3352E-03     90.6473E-03    -28.4144E-03     54.7865E-03    -26.4121E-03     90.3817E-03
             840     14.9012E-03     87.1979E-03    -6.66490E+06     67.1583E+06    -7.96314E+06    -1.10101E+06    -28.7925E-03     55.0645E-03    -26.2720E-03     112.984E-03    -29.5692E-03     56.0790E-03    -26.3995E-03     112.792E-03
             841     15.7782E-03     87.3178E-03    -4.09893E+06     120.390E+06     36.2915E+06     1.65065E+06    -29.8026E-03     56.1870E-03    -26.3845E-03     147.667E-03    -31.5258E-03     58.2178E-03    -26.3716E-03     147.837E-03
             842     16.6606E-03     87.4782E-03    -2.03694E+06     142.472E+06     82.3778E+06    -46.5770E+03    -28.1267E-03     54.6587E-03    -26.5321E-03     120.059E-03    -29.7398E-03     56.5315E-03    -26.3238E-03     120.540E-03
             843     876.424E-06     87.4917E-03    -35.0889E+06    -103.350E+06    -34.7877E+06    -1.53175E+06    -26.6056E-03     53.2357E-03    -26.6302E-03     5.66439E-03    -26.5808E-03     52.8206E-03    -26.6034E-03     5.64181E-03
             844     1.75275E-03     87.4993E-03    -34.2009E+06    -100.341E+06    -32.6782E+06     -3.0573E+06    -26.6205E-03     53.2357E-03    -26.6152E-03     10.4682E-03    -26.5991E-03     52.8314E-03    -26.5835E-03     10.4233E-03
             845     2.62920E-03     87.5115E-03    -32.7910E+06    -96.8731E+06    -29.1403E+06    -4.48537E+06    -26.6234E-03     53.2399E-03    -26.6165E-03     15.5698E-03    -26.6056E-03     52.8463E-03    -26.5742E-03     15.5034E-03
             846     3.50563E-03     87.5287E-03    -31.0009E+06    -93.8558E+06    -24.8492E+06    -5.75807E+06    -26.6367E-03     53.2553E-03    -26.6186E-03     20.6996E-03    -26.6215E-03     52.8689E-03    -26.5618E-03     20.6131E-03
             847     4.38208E-03     87.5505E-03    -28.9873E+06    -88.8321E+06    -20.8304E+06    -6.95141E+06    -26.6509E-03     53.2643E-03    -26.6134E-03     25.8437E-03    -26.6401E-03     52.8957E-03    -26.5467E-03     25.7375E-03
             848     5.25861E-03     87.5774E-03    -26.7146E+06    -83.5026E+06    -16.8564E+06    -8.11403E+06    -26.6716E-03     53.2759E-03    -26.6043E-03     30.9503E-03    -26.6649E-03     52.9267E-03    -26.5287E-03     30.8238E-03
             849     6.13516E-03     87.6089E-03    -24.2386E+06    -79.0919E+06    -12.7701E+06    -9.01219E+06    -26.7079E-03     53.3025E-03    -26.5947E-03     35.9959E-03    -26.7039E-03     52.9687E-03    -26.5087E-03     35.8512E-03
             850     7.01176E-03     87.6453E-03    -21.9504E+06    -74.5657E+06    -9.53909E+06    -9.88940E+06    -26.7577E-03     53.3375E-03    -26.5798E-03     40.9733E-03    -26.7575E-03     53.0224E-03    -26.4876E-03     40.8093E-03
             851     7.88841E-03     87.6860E-03    -19.3514E+06    -71.3873E+06    -7.48255E+06    -10.4522E+06    -26.8301E-03     53.3907E-03    -26.5606E-03     45.8646E-03    -26.8301E-03     53.0903E-03    -26.4664E-03     45.6835E-03
             852     8.76505E-03     87.7316E-03    -16.8063E+06    -67.4212E+06    -6.91794E+06    -10.8579E+06    -26.9143E-03     53.4477E-03    -26.5334E-03     50.6686E-03    -26.9161E-03     53.1705E-03    -26.4458E-03     50.4705E-03
             853     9.64181E-03     87.7812E-03    -14.9071E+06    -64.2386E+06    -7.01087E+06    -11.1279E+06    -27.0118E-03     53.5175E-03    -26.5058E-03     55.4170E-03    -27.0196E-03     53.2647E-03    -26.4261E-03     55.2013E-03
             854     10.5185E-03     87.8357E-03    -13.2305E+06    -60.9996E+06    -8.25176E+06    -10.6357E+06    -27.1361E-03     53.6103E-03    -26.4742E-03     60.3156E-03    -27.1545E-03     53.3891E-03    -26.4078E-03     60.0891E-03
             855     11.3953E-03     87.8943E-03    -11.5889E+06    -54.1008E+06    -10.0010E+06    -9.67167E+06    -27.2662E-03     53.7027E-03    -26.4365E-03     65.3696E-03    -27.3073E-03     53.5396E-03    -26.3913E-03     65.1352E-03
             856     12.2720E-03     87.9583E-03    -10.2649E+06    -42.0133E+06    -10.2046E+06    -8.57984E+06    -27.4335E-03     53.8354E-03    -26.4019E-03     70.8771E-03    -27.5210E-03     53.7670E-03    -26.3772E-03     70.6327E-03
             857     13.1487E-03     88.0272E-03    -10.3433E+06    -26.4132E+06    -13.4894E+06    -7.94359E+06    -27.5828E-03     53.9323E-03    -26.3495E-03     78.1720E-03    -27.7511E-03     54.0092E-03    -26.3636E-03     77.9080E-03
             858     14.0257E-03     88.1047E-03    -11.6208E+06     4.75522E+06    -18.5568E+06    -7.60736E+06    -27.8830E-03     54.1471E-03    -26.2641E-03     90.7908E-03    -28.2262E-03     54.5197E-03    -26.3469E-03     90.5040E-03
             859     14.9026E-03     88.1974E-03    -11.7538E+06     60.7705E+06    -16.4983E+06    -4.46886E+06    -28.6235E-03     54.7969E-03    -26.1735E-03     113.285E-03    -29.4002E-03     55.7955E-03    -26.3270E-03     113.053E-03
             860     15.7792E-03     88.3177E-03    -8.61589E+06     118.987E+06     25.3063E+06    -318.493E+03    -30.3482E-03     56.6278E-03    -26.2796E-03     147.892E-03    -32.1039E-03     58.7017E-03    -26.3131E-03     148.025E-03
             861     16.6507E-03     88.4758E-03    -4.24389E+06     144.649E+06     77.0956E+06     573.975E+03    -28.8089E-03     55.2924E-03    -26.4835E-03     119.949E-03    -30.4539E-03     57.2123E-03    -26.3016E-03     120.418E-03
             862     876.322E-06     88.4915E-03    -34.1552E+06    -99.6964E+06    -34.1672E+06    -1.87512E+06    -26.6086E-03     53.2120E-03    -26.6034E-03     5.67634E-03    -26.5853E-03     52.8128E-03    -26.5801E-03     5.64933E-03
             863     1.75283E-03     88.4989E-03    -33.5254E+06    -96.7287E+06    -32.2409E+06    -3.47819E+06    -26.5928E-03     53.1915E-03    -26.5987E-03     10.4730E-03    -26.5739E-03     52.8036E-03    -26.5710E-03     10.4227E-03
             864     2.62922E-03     88.5112E-03    -32.3310E+06    -93.6125E+06    -28.8625E+06    -4.86694E+06    -26.5975E-03     53.1933E-03    -26.5958E-03     15.5650E-03    -26.5826E-03     52.8150E-03    -26.5575E-03     15.4937E-03
             865     3.50569E-03     88.5282E-03    -30.6487E+06    -90.6310E+06    -24.6504E+06    -6.23916E+06    -26.6041E-03     53.1994E-03    -26.5954E-03     20.7083E-03    -26.5921E-03     52.8284E-03    -26.5428E-03     20.6156E-03
             866     4.38218E-03     88.5502E-03    -28.4695E+06    -85.7481E+06    -20.6168E+06    -7.65367E+06    -26.6092E-03     53.1963E-03    -26.5872E-03     25.8614E-03    -26.6005E-03     52.8420E-03    -26.5246E-03     25.7462E-03
             867     5.25874E-03     88.5769E-03    -26.2169E+06    -80.6379E+06    -16.6732E+06    -8.86625E+06    -26.6195E-03     53.1939E-03    -26.5744E-03     30.9807E-03    -26.6146E-03     52.8581E-03    -26.5028E-03     30.8446E-03
             868     6.13534E-03     88.6085E-03    -24.0034E+06    -76.6651E+06    -12.9029E+06    -9.89511E+06    -26.6455E-03     53.2055E-03    -26.5600E-03     36.0433E-03    -26.6436E-03     52.8836E-03    -26.4785E-03     35.8875E-03
             869     7.01202E-03     88.6446E-03    -21.5536E+06    -72.0145E+06    -9.61282E+06    -10.7993E+06    -26.6890E-03     53.2297E-03    -26.5407E-03     41.0447E-03    -26.6903E-03     52.9268E-03    -26.4531E-03     40.8692E-03
             870     7.88870E-03     88.6855E-03    -19.2511E+06    -69.2903E+06    -7.67404E+06    -11.8805E+06    -26.7546E-03     53.2724E-03    -26.5178E-03     45.9559E-03    -26.7568E-03     52.9826E-03    -26.4278E-03     45.7568E-03
             871     8.76549E-03     88.7307E-03    -16.9806E+06    -65.9408E+06    -7.25135E+06    -12.3263E+06    -26.8380E-03     53.3255E-03    -26.4875E-03     50.7717E-03    -26.8422E-03     53.0563E-03    -26.4035E-03     50.5551E-03
             872     9.64218E-03     88.7807E-03    -14.8578E+06    -63.0186E+06    -7.00475E+06    -12.3352E+06    -26.9290E-03     53.3873E-03    -26.4582E-03     55.4968E-03    -26.9383E-03     53.1404E-03    -26.3803E-03     55.2660E-03
             873     10.5191E-03     88.8347E-03    -12.9848E+06    -60.7818E+06    -8.45829E+06    -12.1926E+06    -27.0527E-03     53.4762E-03    -26.4235E-03     60.4026E-03    -27.0697E-03     53.2558E-03    -26.3588E-03     60.1566E-03
             874     11.3958E-03     88.8939E-03    -11.1853E+06    -54.4688E+06    -10.2635E+06    -11.4373E+06    -27.1981E-03     53.5819E-03    -26.3838E-03     65.4361E-03    -27.2363E-03     53.4168E-03    -26.3399E-03     65.1792E-03
             875     12.2727E-03     88.9573E-03    -9.60373E+06    -43.0033E+06    -10.5989E+06    -10.0332E+06    -27.3065E-03     53.6519E-03    -26.3455E-03     70.9180E-03    -27.3883E-03     53.5778E-03    -26.3222E-03     70.6559E-03
             876     13.1496E-03     89.0269E-03    -8.66926E+06    -27.2277E+06    -12.1737E+06    -7.74723E+06    -27.5340E-03     53.8313E-03    -26.2973E-03     78.0256E-03    -27.6947E-03     53.8999E-03    -26.3061E-03     77.7645E-03
             877     14.0264E-03     89.1034E-03    -10.3143E+06     3.19876E+06    -15.6430E+06    -4.84334E+06    -27.7661E-03     53.9865E-03    -26.2204E-03     90.3264E-03    -28.1036E-03     54.3441E-03    -26.2883E-03     90.0764E-03
             878     14.9034E-03     89.1971E-03    -13.9635E+06     58.1229E+06    -15.1332E+06    -3.91856E+06    -28.3992E-03     54.5221E-03    -26.1229E-03     113.128E-03    -29.1773E-03     55.5008E-03    -26.2626E-03     112.906E-03
             879     15.7810E-03     89.3163E-03    -12.0986E+06     117.249E+06     25.0893E+06    -4.10517E+06    -30.8598E-03     57.0914E-03    -26.2315E-03     148.875E-03    -32.6487E-03     59.1806E-03    -26.2585E-03     148.948E-03
             880     16.6616E-03     89.4807E-03    -5.62212E+06     143.327E+06     76.2481E+06    -1.69077E+06    -29.4071E-03     55.8672E-03    -26.4601E-03     118.083E-03    -31.0608E-03     57.7886E-03    -26.2786E-03     118.497E-03
             881     876.465E-06     89.4911E-03    -33.6144E+06    -95.4773E+06    -33.3756E+06    -2.32218E+06    -26.5817E-03     53.1483E-03    -26.5666E-03     5.64268E-03    -26.5630E-03     52.7683E-03    -26.5463E-03     5.60990E-03
             882     1.75280E-03     89.4986E-03    -32.8789E+06    -92.9342E+06    -31.5081E+06    -3.76554E+06    -26.5665E-03     53.1353E-03    -26.5688E-03     10.4849E-03    -26.5509E-03     52.7645E-03    -26.5439E-03     10.4309E-03
             883     2.62930E-03     89.5108E-03    -31.6385E+06    -90.0975E+06    -28.3983E+06    -5.25702E+06    -26.5582E-03     53.1226E-03    -26.5644E-03     15.5794E-03    -26.5455E-03     52.7601E-03    -26.5298E-03     15.5032E-03
             884     3.50579E-03     89.5279E-03    -29.8090E+06    -86.9547E+06    -24.3091E+06    -6.88154E+06    -26.5552E-03     53.1145E-03    -26.5593E-03     20.7255E-03    -26.5448E-03     52.7600E-03    -26.5115E-03     20.6246E-03
             885     4.38234E-03     89.5497E-03    -27.6284E+06    -82.2625E+06    -20.0453E+06    -8.52958E+06    -26.5523E-03     53.1008E-03    -26.5485E-03     25.8788E-03    -26.5453E-03     52.7618E-03    -26.4894E-03     25.7524E-03
             886     5.25894E-03     89.5764E-03    -25.2072E+06    -77.8122E+06    -16.0410E+06    -9.71066E+06    -26.5566E-03     53.0893E-03    -26.5328E-03     31.0009E-03    -26.5517E-03     52.7652E-03    -26.4636E-03     30.8541E-03
             887     6.13562E-03     89.6078E-03    -22.7292E+06    -73.7227E+06    -12.1772E+06    -10.7734E+06    -26.5766E-03     53.0909E-03    -26.5143E-03     36.0776E-03    -26.5737E-03     52.7809E-03    -26.4353E-03     35.9106E-03
             888     7.01233E-03     89.6440E-03    -20.3537E+06    -69.4448E+06    -8.95800E+06    -11.8916E+06    -26.6141E-03     53.1056E-03    -26.4916E-03     41.0898E-03    -26.6141E-03     52.8128E-03    -26.4061E-03     40.9006E-03
             889     7.88914E-03     89.6847E-03    -18.1929E+06    -66.6481E+06    -6.70927E+06    -12.6710E+06    -26.6779E-03     53.1448E-03    -26.4669E-03     46.0042E-03    -26.6800E-03     52.8652E-03    -26.3775E-03     45.7952E-03
             890     8.76589E-03     89.7301E-03    -16.5151E+06    -64.3416E+06    -6.63265E+06    -13.3757E+06    -26.7639E-03     53.1986E-03    -26.4346E-03     50.8357E-03    -26.7689E-03     52.9358E-03    -26.3505E-03     50.6059E-03
             891     9.64281E-03     89.7798E-03    -14.8605E+06    -61.6118E+06    -6.77865E+06    -13.6088E+06    -26.8663E-03     53.2693E-03    -26.4030E-03     55.5634E-03    -26.8778E-03     53.0290E-03    -26.3260E-03     55.3166E-03
             892     10.5195E-03     89.8340E-03    -13.2346E+06    -59.9126E+06    -8.25957E+06    -13.6481E+06    -26.9979E-03     53.3668E-03    -26.3689E-03     60.4736E-03    -27.0177E-03     53.1509E-03    -26.3041E-03     60.2091E-03
             893     11.3965E-03     89.8929E-03    -11.7846E+06    -54.5254E+06    -10.7243E+06    -13.2263E+06    -27.1549E-03     53.4831E-03    -26.3282E-03     65.5214E-03    -27.1951E-03     53.3190E-03    -26.2857E-03     65.2420E-03
             894     12.2732E-03     89.9567E-03    -10.4246E+06    -44.4467E+06    -11.5884E+06    -11.7720E+06    -27.2999E-03     53.5918E-03    -26.2918E-03     70.8182E-03    -27.3822E-03     53.5128E-03    -26.2702E-03     70.5339E-03
             895     13.1503E-03     90.0256E-03    -8.86048E+06    -29.9159E+06    -12.8886E+06    -9.20640E+06    -27.5725E-03     53.8228E-03    -26.2503E-03     78.0928E-03    -27.7286E-03     53.8787E-03    -26.2586E-03     77.8134E-03
             896     14.0267E-03     90.1036E-03    -6.11936E+06    -1.21956E+06    -13.0169E+06    -5.02368E+06    -27.8988E-03     54.0933E-03    -26.1945E-03     89.7410E-03    -28.2113E-03     54.4175E-03    -26.2490E-03     89.4879E-03
             897     14.9045E-03     90.1943E-03    -3.44376E+06     58.9520E+06    -9.73128E+06    -1.85609E+06    -28.6427E-03     54.7500E-03    -26.1074E-03     112.333E-03    -29.3753E-03     55.7079E-03    -26.2365E-03     112.132E-03
             898     15.7809E-03     90.3175E-03    -5.05831E+06     118.281E+06     32.1319E+06    -2.65225E+06    -30.4939E-03     56.7175E-03    -26.2236E-03     150.064E-03    -32.2512E-03     58.7832E-03    -26.2271E-03     150.166E-03
             899     16.6505E-03     90.4806E-03    -5.17757E+06     139.428E+06     80.2175E+06    -2.13122E+06    -29.4695E-03     55.9103E-03    -26.4408E-03     118.704E-03    -31.1088E-03     57.7936E-03    -26.2344E-03     119.117E-03
             900     876.408E-06     90.4908E-03    -31.9827E+06    -90.8013E+06    -31.4959E+06    -2.40281E+06    -26.5203E-03     53.0617E-03    -26.5414E-03     5.65240E-03    -26.5030E-03     52.7001E-03    -26.5208E-03     5.61858E-03
             901     1.75295E-03     90.4981E-03    -31.2305E+06    -88.9300E+06    -29.6651E+06    -4.04295E+06    -26.5227E-03     53.0497E-03    -26.5270E-03     10.4790E-03    -26.5074E-03     52.6938E-03    -26.5011E-03     10.4215E-03
             902     2.62940E-03     90.5104E-03    -29.8568E+06    -86.0363E+06    -26.8589E+06    -5.83593E+06    -26.5096E-03     53.0293E-03    -26.5197E-03     15.5850E-03    -26.4962E-03     52.6824E-03    -26.4859E-03     15.5013E-03
             903     3.50595E-03     90.5273E-03    -28.0782E+06    -82.9537E+06    -23.1412E+06    -7.65677E+06    -26.4951E-03     53.0052E-03    -26.5102E-03     20.7325E-03    -26.4835E-03     52.6666E-03    -26.4649E-03     20.6218E-03
             904     4.38255E-03     90.5492E-03    -26.1139E+06    -78.5108E+06    -19.0484E+06    -9.23813E+06    -26.4838E-03     52.9792E-03    -26.4955E-03     25.8957E-03    -26.4760E-03     52.6553E-03    -26.4390E-03     25.7603E-03
             905     5.25922E-03     90.5757E-03    -24.0398E+06    -74.6758E+06    -15.0051E+06    -10.6395E+06    -26.4853E-03     52.9633E-03    -26.4780E-03     31.0206E-03    -26.4806E-03     52.6517E-03    -26.4099E-03     30.8619E-03
             906     6.13595E-03     90.6071E-03    -21.7695E+06    -70.6978E+06    -11.3044E+06    -11.7361E+06    -26.5001E-03     52.9565E-03    -26.4563E-03     36.1131E-03    -26.4980E-03     52.6588E-03    -26.3788E-03     35.9340E-03
             907     7.01276E-03     90.6432E-03    -19.5315E+06    -66.4962E+06    -8.00210E+06    -12.7780E+06    -26.5342E-03     52.9659E-03    -26.4317E-03     41.1370E-03    -26.5357E-03     52.6851E-03    -26.3469E-03     40.9366E-03
             908     7.88957E-03     90.6839E-03    -17.4489E+06    -64.5660E+06    -5.96752E+06    -13.4647E+06    -26.5983E-03     53.0033E-03    -26.4050E-03     46.0733E-03    -26.6006E-03     52.7318E-03    -26.3160E-03     45.8545E-03
             909     8.76650E-03     90.7292E-03    -15.6653E+06    -62.0149E+06    -5.56930E+06    -13.8580E+06    -26.6895E-03     53.0616E-03    -26.3721E-03     50.9166E-03    -26.6950E-03     52.8075E-03    -26.2873E-03     50.6811E-03
             910     9.64331E-03     90.7789E-03    -14.3304E+06    -60.0901E+06    -6.07257E+06    -14.4588E+06    -26.8062E-03     53.1460E-03    -26.3398E-03     55.6772E-03    -26.8182E-03     52.9113E-03    -26.2622E-03     55.4199E-03
             911     10.5203E-03     90.8330E-03    -13.2013E+06    -58.5022E+06    -7.79795E+06    -14.5787E+06    -26.9733E-03     53.2802E-03    -26.3069E-03     60.6083E-03    -26.9954E-03     53.0704E-03    -26.2419E-03     60.3323E-03
             912     11.3971E-03     90.8920E-03    -12.3260E+06    -54.2019E+06    -10.7727E+06    -14.3594E+06    -27.1619E-03     53.4320E-03    -26.2701E-03     65.6385E-03    -27.2049E-03     53.2701E-03    -26.2275E-03     65.3449E-03
             913     12.2740E-03     90.9558E-03    -11.0546E+06    -45.0800E+06    -12.2793E+06    -13.6613E+06    -27.4092E-03     53.6493E-03    -26.2401E-03     70.9461E-03    -27.4928E-03     53.5692E-03    -26.2201E-03     70.6372E-03
             914     13.1505E-03     91.0249E-03    -9.64477E+06    -33.6804E+06    -14.3660E+06    -11.2114E+06    -27.6497E-03     53.8586E-03    -26.2089E-03     78.0965E-03    -27.8017E-03     53.8985E-03    -26.2179E-03     77.7911E-03
             915     14.0277E-03     91.1027E-03    -8.73667E+06    -4.49353E+06    -13.9261E+06    -8.19107E+06    -28.2347E-03     54.4077E-03    -26.1730E-03     89.8796E-03    -28.5556E-03     54.7220E-03    -26.2234E-03     89.5823E-03
             916     14.9030E-03     91.1944E-03    -7.49082E+06     55.0653E+06    -16.2225E+06    -4.81465E+06    -29.1102E-03     55.1968E-03    -26.0865E-03     112.313E-03    -29.8556E-03     56.1581E-03    -26.2366E-03     112.067E-03
             917     15.7800E-03     91.3161E-03    -4.02650E+06     116.605E+06     25.8776E+06    -510.956E+03    -29.8845E-03     56.0763E-03    -26.1917E-03     149.213E-03    -31.5981E-03     58.1140E-03    -26.2256E-03     149.351E-03
             918     16.6668E-03     91.4810E-03    -3.39858E+06     141.269E+06     80.1972E+06     763.111E+03    -29.1343E-03     55.5445E-03    -26.4103E-03     118.737E-03    -30.7403E-03     57.4075E-03    -26.2092E-03     119.199E-03
             919     876.526E-06     91.4902E-03    -30.4587E+06    -85.9236E+06    -30.0036E+06    -2.47276E+06    -26.4891E-03     52.9459E-03    -26.4568E-03     5.68134E-03    -26.4734E-03     52.6043E-03    -26.4381E-03     5.64664E-03
             920     1.75299E-03     91.4978E-03    -29.3497E+06    -84.2680E+06    -27.9188E+06    -4.51262E+06    -26.4598E-03     52.9285E-03    -26.4687E-03     10.4692E-03    -26.4443E-03     52.5906E-03    -26.4435E-03     10.4056E-03
             921     2.62957E-03     91.5098E-03    -27.9013E+06    -81.5514E+06    -25.1660E+06    -6.54743E+06    -26.4366E-03     52.8944E-03    -26.4578E-03     15.5864E-03    -26.4224E-03     52.5646E-03    -26.4249E-03     15.4937E-03
             922     3.50617E-03     91.5268E-03    -26.2098E+06    -78.6646E+06    -21.6229E+06    -8.38788E+06    -26.4185E-03     52.8626E-03    -26.4441E-03     20.7439E-03    -26.4060E-03     52.5405E-03    -26.4001E-03     20.6239E-03
             923     4.38285E-03     91.5484E-03    -24.2403E+06    -74.7183E+06    -17.5726E+06    -9.96957E+06    -26.4023E-03     52.8291E-03    -26.4268E-03     25.9154E-03    -26.3929E-03     52.5193E-03    -26.3711E-03     25.7708E-03
             924     5.25959E-03     91.5750E-03    -22.2778E+06    -71.2907E+06    -13.3490E+06    -11.1430E+06    -26.4003E-03     52.8083E-03    -26.4080E-03     31.0546E-03    -26.3940E-03     52.5085E-03    -26.3391E-03     30.8897E-03
             925     6.13639E-03     91.6062E-03    -20.4636E+06    -67.4567E+06    -9.89551E+06    -12.3624E+06    -26.4086E-03     52.7920E-03    -26.3833E-03     36.1710E-03    -26.4066E-03     52.5065E-03    -26.3053E-03     35.9841E-03
             926     7.01325E-03     91.6423E-03    -18.5381E+06    -63.5255E+06    -7.17931E+06    -13.4414E+06    -26.4366E-03     52.7904E-03    -26.3538E-03     41.2415E-03    -26.4385E-03     52.5218E-03    -26.2707E-03     41.0331E-03
             927     7.89020E-03     91.6829E-03    -16.7653E+06    -62.4647E+06    -5.40607E+06    -14.0519E+06    -26.5050E-03     52.8301E-03    -26.3252E-03     46.2191E-03    -26.5076E-03     52.5672E-03    -26.2373E-03     45.9933E-03
             928     8.76710E-03     91.7282E-03    -15.1799E+06    -59.9137E+06    -5.32833E+06    -14.4563E+06    -26.6015E-03     52.8908E-03    -26.2894E-03     51.1214E-03    -26.6077E-03     52.6460E-03    -26.2071E-03     50.8790E-03
             929     9.64414E-03     91.7779E-03    -13.7978E+06    -57.9067E+06    -5.61971E+06    -14.9172E+06    -26.7479E-03     53.0059E-03    -26.2580E-03     55.9258E-03    -26.7608E-03     52.7805E-03    -26.1821E-03     55.6633E-03
             930     10.5210E-03     91.8320E-03    -12.7812E+06    -57.4085E+06    -7.68774E+06    -15.1410E+06    -26.9528E-03     53.1807E-03    -26.2279E-03     60.9143E-03    -26.9744E-03     52.9753E-03    -26.1645E-03     60.6318E-03
             931     11.3979E-03     91.8912E-03    -11.8831E+06    -52.8752E+06    -10.7266E+06    -15.1340E+06    -27.2026E-03     53.3988E-03    -26.1962E-03     66.0057E-03    -27.2454E-03     53.2427E-03    -26.1559E-03     65.7025E-03
             932     12.2746E-03     91.9548E-03    -11.3259E+06    -45.2340E+06    -12.9585E+06    -14.8638E+06    -27.5034E-03     53.6779E-03    -26.1745E-03     71.4622E-03    -27.5871E-03     53.5984E-03    -26.1573E-03     71.1381E-03
             933     13.1512E-03     92.0246E-03    -10.8096E+06    -36.5829E+06    -15.5670E+06    -12.8365E+06    -27.8782E-03     54.0379E-03    -26.1597E-03     78.4516E-03    -28.0310E-03     54.0676E-03    -26.1688E-03     78.1239E-03
             934     14.0275E-03     92.1013E-03    -10.0192E+06    -8.11874E+06    -16.9652E+06    -9.19780E+06    -28.3244E-03     54.4516E-03    -26.1272E-03     90.7751E-03    -28.6427E-03     54.7547E-03    -26.1857E-03     90.4651E-03
             935     14.9043E-03     92.1959E-03    -10.7687E+06     51.8839E+06    -20.7566E+06    -5.88590E+06    -29.2968E-03     55.3398E-03    -26.0430E-03     113.353E-03    -30.0512E-03     56.3003E-03    -26.2064E-03     113.092E-03
             936     15.7806E-03     92.3139E-03    -10.7448E+06     111.098E+06     17.7128E+06    -2.35842E+06    -31.2145E-03     57.3964E-03    -26.1819E-03     148.759E-03    -32.9632E-03     59.4496E-03    -26.2388E-03     148.840E-03
             937     16.6489E-03     92.4776E-03    -5.42148E+06     139.391E+06     76.0413E+06    -135.392E+03    -28.6500E-03     55.0847E-03    -26.4347E-03     118.410E-03    -30.2818E-03     56.9716E-03    -26.2488E-03     118.861E-03
             938     876.547E-06     92.4898E-03    -27.9101E+06    -80.4814E+06    -27.8604E+06    -2.78186E+06    -26.4117E-03     52.7841E-03    -26.3723E-03     5.69220E-03    -26.3943E-03     52.4628E-03    -26.3545E-03     5.65357E-03
             939     1.75315E-03     92.4971E-03    -27.1764E+06    -78.9291E+06    -26.2578E+06    -5.17953E+06    -26.3740E-03     52.7577E-03    -26.3837E-03     10.4770E-03    -26.3578E-03     52.4409E-03    -26.3611E-03     10.4050E-03
             940     2.62978E-03     92.5092E-03    -25.8620E+06    -76.7288E+06    -23.3023E+06    -7.28761E+06    -26.3426E-03     52.7147E-03    -26.3721E-03     15.6124E-03    -26.3279E-03     52.4034E-03    -26.3399E-03     15.5102E-03
             941     3.50648E-03     92.5260E-03    -24.1703E+06    -74.1914E+06    -19.6374E+06    -9.12001E+06    -26.3191E-03     52.6756E-03    -26.3564E-03     20.7713E-03    -26.3057E-03     52.3699E-03    -26.3120E-03     20.6421E-03
             942     4.38323E-03     92.5477E-03    -22.3760E+06    -70.8079E+06    -15.9256E+06    -10.6442E+06    -26.2957E-03     52.6309E-03    -26.3352E-03     25.9670E-03    -26.2849E-03     52.3355E-03    -26.2797E-03     25.8140E-03
             943     5.26007E-03     92.5740E-03    -20.4202E+06    -68.1614E+06    -12.1344E+06    -11.6878E+06    -26.2825E-03     52.5941E-03    -26.3115E-03     31.1435E-03    -26.2732E-03     52.3055E-03    -26.2438E-03     30.9721E-03
             944     6.13697E-03     92.6053E-03    -18.4643E+06    -63.8934E+06    -8.68397E+06    -12.6846E+06    -26.2829E-03     52.5644E-03    -26.2815E-03     36.3064E-03    -26.2777E-03     52.2920E-03    -26.2055E-03     36.1159E-03
             945     7.01397E-03     92.6411E-03    -16.9049E+06    -60.7184E+06    -6.22330E+06    -13.7193E+06    -26.3085E-03     52.5567E-03    -26.2482E-03     41.4334E-03    -26.3075E-03     52.2982E-03    -26.1667E-03     41.2221E-03
             946     7.89099E-03     92.6818E-03    -15.4480E+06    -60.1406E+06    -4.74201E+06    -14.3410E+06    -26.3746E-03     52.5902E-03    -26.2156E-03     46.4893E-03    -26.3748E-03     52.3357E-03    -26.1297E-03     46.2608E-03
             947     8.76810E-03     92.7269E-03    -14.0054E+06    -57.5972E+06    -4.77780E+06    -15.0000E+06    -26.4879E-03     52.6649E-03    -26.1770E-03     51.4802E-03    -26.4922E-03     52.4288E-03    -26.0970E-03     51.2317E-03
             948     9.64512E-03     92.7767E-03    -12.6458E+06    -55.9947E+06    -5.02485E+06    -15.4319E+06    -26.6621E-03     52.8081E-03    -26.1461E-03     56.4065E-03    -26.6724E-03     52.5894E-03    -26.0717E-03     56.1385E-03
             949     10.5221E-03     92.8310E-03    -11.4762E+06    -55.8512E+06    -6.91342E+06    -15.6780E+06    -26.8980E-03     53.0169E-03    -26.1189E-03     61.4891E-03    -26.9161E-03     52.8160E-03    -26.0558E-03     61.2008E-03
             950     11.3990E-03     92.8900E-03    -10.7904E+06    -51.7052E+06    -10.1807E+06    -15.6782E+06    -27.1963E-03     53.2872E-03    -26.0910E-03     66.7580E-03    -27.2357E-03     53.1344E-03    -26.0513E-03     66.4489E-03
             951     12.2758E-03     92.9543E-03    -10.6720E+06    -44.9689E+06    -12.3826E+06    -15.0040E+06    -27.5521E-03     53.6302E-03    -26.0781E-03     72.3063E-03    -27.6336E-03     53.5502E-03    -26.0594E-03     71.9811E-03
             952     13.1524E-03     93.0236E-03    -10.3282E+06    -38.1750E+06    -15.9335E+06    -13.9641E+06    -27.9821E-03     54.0525E-03    -26.0704E-03     79.5532E-03    -28.1302E-03     54.0746E-03    -26.0797E-03     79.2115E-03
             953     14.0285E-03     93.1019E-03    -9.20453E+06    -12.3669E+06    -19.1009E+06     -11.306E+06    -28.3906E-03     54.4309E-03    -26.0403E-03     91.6265E-03    -28.6961E-03     54.7152E-03    -26.1045E-03     91.2902E-03
             954     14.9057E-03     93.1934E-03    -7.03456E+06     46.6434E+06    -22.8371E+06    -5.83940E+06    -29.5062E-03     55.4681E-03    -25.9618E-03     114.543E-03    -30.2348E-03     56.4035E-03    -26.1335E-03     114.282E-03
             955     15.7809E-03     93.3177E-03    -7.82330E+06     108.565E+06     16.7083E+06    -1.41826E+06    -31.2137E-03     57.3169E-03    -26.1032E-03     151.860E-03    -32.9600E-03     59.3723E-03    -26.1657E-03     151.968E-03
             956     16.6612E-03     93.4813E-03    -5.61208E+06     138.592E+06     75.7595E+06    -1.13132E+06    -28.8069E-03     55.1639E-03    -26.3570E-03     121.133E-03    -30.4553E-03     57.0648E-03    -26.1711E-03     121.583E-03
             957     876.674E-06     93.4890E-03    -24.3644E+06    -74.3470E+06    -24.3464E+06    -3.12332E+06    -26.2711E-03     52.5647E-03    -26.2936E-03     5.68338E-03    -26.2499E-03     52.2639E-03    -26.2722E-03     5.64043E-03
             958     1.75335E-03     93.4964E-03    -23.8953E+06    -73.1037E+06    -22.9787E+06    -5.60818E+06    -26.2477E-03     52.5181E-03    -26.2703E-03     10.4947E-03    -26.2283E-03     52.2209E-03    -26.2446E-03     10.4172E-03
             959     2.63008E-03     93.5083E-03    -22.9887E+06    -71.5854E+06    -20.6785E+06    -7.83499E+06    -26.2239E-03     52.4774E-03    -26.2535E-03     15.6524E-03    -26.2060E-03     52.1837E-03    -26.2197E-03     15.5433E-03
             960     3.50687E-03     93.5251E-03    -21.6770E+06    -69.5219E+06    -17.6402E+06    -9.72350E+06    -26.1836E-03     52.4171E-03    -26.2335E-03     20.8424E-03    -26.1673E-03     52.1283E-03    -26.1895E-03     20.7057E-03
             961     4.38377E-03     93.5466E-03    -20.0947E+06    -66.9084E+06    -14.4546E+06    -11.1590E+06    -26.1452E-03     52.3514E-03    -26.2062E-03     26.0724E-03    -26.1307E-03     52.0700E-03    -26.1524E-03     25.9132E-03
             962     5.26074E-03     93.5730E-03    -18.3145E+06    -64.6535E+06    -11.1496E+06    -12.4453E+06    -26.1168E-03     52.2917E-03    -26.1749E-03     31.3049E-03    -26.1033E-03     52.0160E-03    -26.1104E-03     31.1243E-03
             963     6.13782E-03     93.6039E-03    -16.2909E+06    -60.8558E+06    -7.82552E+06    -13.3567E+06    -26.1069E-03     52.2452E-03    -26.1384E-03     36.5382E-03    -26.0962E-03     51.9834E-03    -26.0656E-03     36.3399E-03
             964     7.01496E-03     93.6399E-03    -14.4424E+06    -57.9769E+06    -4.71798E+06    -13.8208E+06    -26.1286E-03     52.2308E-03    -26.1021E-03     41.7337E-03    -26.1212E-03     51.9799E-03    -26.0207E-03     41.5221E-03
             965     7.89218E-03     93.6803E-03    -12.9436E+06    -57.5196E+06    -3.05941E+06    -14.6088E+06    -26.1953E-03     52.2606E-03    -26.0652E-03     46.8910E-03    -26.1888E-03     52.0128E-03    -25.9783E-03     46.6602E-03
             966     8.76940E-03     93.7255E-03    -11.5396E+06    -55.0456E+06    -3.19022E+06    -15.3867E+06    -26.3220E-03     52.3443E-03    -26.0223E-03     52.0237E-03    -26.3195E-03     52.1146E-03    -25.9417E-03     51.7718E-03
             967     9.64661E-03     93.7753E-03    -10.3976E+06    -54.1770E+06    -3.41401E+06    -15.8879E+06    -26.5126E-03     52.5032E-03    -25.9906E-03     57.0771E-03    -26.5162E-03     52.2874E-03    -25.9140E-03     56.8049E-03
             968     10.5238E-03     93.8296E-03    -9.49187E+06    -54.0069E+06    -5.10903E+06    -16.1333E+06    -26.7891E-03     52.7538E-03    -25.9647E-03     62.2994E-03    -26.8020E-03     52.5561E-03    -25.8982E-03     62.0070E-03
             969     11.4007E-03     93.8890E-03    -9.04823E+06    -51.0667E+06    -8.64811E+06    -15.8190E+06    -27.1367E-03     53.0772E-03    -25.9405E-03     67.6825E-03    -27.1702E-03     52.9224E-03    -25.8966E-03     67.3732E-03
             970     12.2777E-03     93.9533E-03    -8.68044E+06    -44.4257E+06    -10.4897E+06    -15.2102E+06    -27.5427E-03     53.4776E-03    -25.9349E-03     73.3628E-03    -27.6178E-03     53.3946E-03    -25.9103E-03     73.0364E-03
             971     13.1541E-03     94.0233E-03    -8.75862E+06    -38.8323E+06    -14.7454E+06    -14.3771E+06    -27.9896E-03     53.9224E-03    -25.9329E-03     80.4788E-03    -28.1307E-03     53.9374E-03    -25.9376E-03     80.1331E-03
             972     14.0312E-03     94.1009E-03    -9.32209E+06    -14.5938E+06    -20.1326E+06    -12.6288E+06    -28.7741E-03     54.6886E-03    -25.9145E-03     92.4519E-03    -29.0786E-03     54.9666E-03    -25.9804E-03     92.0959E-03
             973     14.9063E-03     94.1944E-03    -9.92682E+06     39.2855E+06    -26.6240E+06    -8.77773E+06    -29.8177E-03     55.6769E-03    -25.8592E-03     115.335E-03    -30.5514E-03     56.5921E-03    -26.0349E-03     115.034E-03
             974     15.7835E-03     94.3168E-03    -6.07750E+06     104.149E+06     14.0657E+06    -2.57518E+06    -30.3328E-03     56.3219E-03    -25.9892E-03     149.557E-03    -32.0210E-03     58.3175E-03    -26.0611E-03     149.670E-03
             975     16.6609E-03     94.4768E-03    -2.78169E+06     139.984E+06     75.4896E+06     293.071E+03    -28.9897E-03     55.2304E-03    -26.2407E-03     117.931E-03    -30.5766E-03     57.0855E-03    -26.0622E-03     118.394E-03
             976     876.737E-06     94.4880E-03    -21.3466E+06    -67.7947E+06    -21.1263E+06    -3.40470E+06    -26.1043E-03     52.2423E-03    -26.1381E-03     5.65506E-03    -26.0821E-03     51.9652E-03    -26.1145E-03     5.60859E-03
             977     1.75364E-03     94.4953E-03    -20.7173E+06    -66.9947E+06    -19.6691E+06    -5.80437E+06    -26.0814E-03     52.1908E-03    -26.1094E-03     10.5561E-03    -26.0597E-03     51.9148E-03    -26.0806E-03     10.4763E-03
             978     2.63051E-03     94.5072E-03    -19.8089E+06    -66.0474E+06    -17.8677E+06    -8.23720E+06    -26.0448E-03     52.1319E-03    -26.0871E-03     15.7152E-03    -26.0231E-03     51.8572E-03    -26.0520E-03     15.6013E-03
             979     3.50749E-03     94.5238E-03    -18.5553E+06    -64.6252E+06    -15.5806E+06    -10.2869E+06    -25.9917E-03     52.0503E-03    -26.0587E-03     20.9602E-03    -25.9699E-03     51.7784E-03    -26.0160E-03     20.8167E-03
             980     4.38452E-03     94.5453E-03    -17.0455E+06    -62.9379E+06    -12.6959E+06    -11.8147E+06    -25.9375E-03     51.9620E-03    -26.0246E-03     26.2416E-03    -25.9159E-03     51.6934E-03    -25.9721E-03     26.0746E-03
             981     5.26172E-03     94.5714E-03    -15.4731E+06    -60.7501E+06    -9.48776E+06    -13.0496E+06    -25.8912E-03     51.8767E-03    -25.9856E-03     31.5433E-03    -25.8714E-03     51.6139E-03    -25.9225E-03     31.3558E-03
             982     6.13897E-03     94.6024E-03    -13.9665E+06    -57.9467E+06    -6.53196E+06    -14.0455E+06    -25.8643E-03     51.8056E-03    -25.9413E-03     36.8659E-03    -25.8479E-03     51.5529E-03    -25.8697E-03     36.6599E-03
             983     7.01637E-03     94.6381E-03    -12.2531E+06    -55.7327E+06    -3.60519E+06    -14.3979E+06    -25.8749E-03     51.7720E-03    -25.8971E-03     42.1682E-03    -25.8610E-03     51.5272E-03    -25.8166E-03     41.9506E-03
             984     7.89380E-03     94.6786E-03    -10.4424E+06    -54.3164E+06    -1.20484E+06    -15.0543E+06    -25.9468E-03     51.8017E-03    -25.8550E-03     47.4542E-03    -25.9346E-03     51.5632E-03    -25.7671E-03     47.2194E-03
             985     8.77128E-03     94.7236E-03    -9.03874E+06    -52.9156E+06    -1.36322E+06    -15.7768E+06    -26.0860E-03     51.8942E-03    -25.8082E-03     52.7308E-03    -26.0762E-03     51.6683E-03    -25.7251E-03     52.4759E-03
             986     9.64873E-03     94.7736E-03    -8.05363E+06    -51.9975E+06    -1.53774E+06    -16.0442E+06    -26.3058E-03     52.0796E-03    -25.7738E-03     57.9196E-03    -26.3029E-03     51.8680E-03    -25.6944E-03     57.6476E-03
             987     10.5260E-03     94.8280E-03    -7.47837E+06    -52.4393E+06    -3.13988E+06    -16.3022E+06    -26.6339E-03     52.3841E-03    -25.7502E-03     63.2934E-03    -26.6413E-03     52.1878E-03    -25.6790E-03     63.0009E-03
             988     11.4033E-03     94.8877E-03    -6.92313E+06    -50.2623E+06    -6.70477E+06    -16.0740E+06    -27.0571E-03     52.7885E-03    -25.7315E-03     68.7917E-03    -27.0836E-03     52.6315E-03    -25.6821E-03     68.4811E-03
             989     12.2800E-03     94.9521E-03    -6.62197E+06    -43.9295E+06    -8.52724E+06    -15.5808E+06    -27.5291E-03     53.2641E-03    -25.7350E-03     74.5235E-03    -27.5972E-03     53.1775E-03    -25.7043E-03     74.1941E-03
             990     13.1569E-03     95.0226E-03    -6.31394E+06    -38.8864E+06    -12.3061E+06    -14.5749E+06    -28.2040E-03     53.9564E-03    -25.7524E-03     81.5903E-03    -28.3372E-03     53.9648E-03    -25.7484E-03     81.2420E-03
             991     14.0325E-03     95.1006E-03    -6.66187E+06    -17.0034E+06    -18.9189E+06    -12.0956E+06    -29.1083E-03     54.8639E-03    -25.7556E-03     93.8784E-03    -29.4009E-03     55.1274E-03    -25.8159E-03     93.5278E-03
             992     14.9088E-03     95.1954E-03    -8.57424E+06     35.3729E+06    -24.8578E+06    -8.39853E+06    -30.2166E-03     55.9508E-03    -25.7341E-03     116.357E-03    -30.9441E-03     56.8455E-03    -25.8973E-03     116.059E-03
             993     15.7837E-03     95.3160E-03    -9.34035E+06     98.8018E+06     11.8524E+06    -5.07280E+06    -31.5179E-03     57.4205E-03    -25.9027E-03     149.685E-03    -33.2314E-03     59.4173E-03    -25.9731E-03     149.738E-03
             994     16.6592E-03     95.4770E-03    -5.34816E+06     136.406E+06     71.8369E+06    -1.34598E+06    -29.2093E-03     55.3946E-03    -26.1853E-03     119.667E-03    -30.8283E-03     57.2706E-03    -26.0162E-03     120.102E-03
             995     877.060E-06     95.4867E-03    -18.2699E+06    -60.8492E+06    -18.1242E+06    -3.49496E+06    -25.8856E-03     51.7796E-03    -25.8940E-03     5.67532E-03    -25.8625E-03     51.5284E-03    -25.8699E-03     5.62785E-03
             996     1.75400E-03     95.4939E-03    -17.7001E+06    -60.5916E+06    -17.1037E+06    -6.23628E+06    -25.8531E-03     51.7299E-03    -25.8768E-03     10.6276E-03    -25.8294E-03     51.4778E-03    -25.8488E-03     10.5425E-03
             997     2.63112E-03     95.5057E-03    -16.7045E+06    -60.1237E+06    -15.3336E+06    -8.75165E+06    -25.7908E-03     51.6422E-03    -25.8514E-03     15.8287E-03    -25.7658E-03     51.3889E-03    -25.8166E-03     15.7086E-03
             998     3.50829E-03     95.5222E-03    -15.5920E+06    -59.4131E+06    -13.3176E+06    -10.9605E+06    -25.7214E-03     51.5364E-03    -25.8150E-03     21.1266E-03    -25.6955E-03     51.2829E-03    -25.7728E-03     20.9750E-03
             999     4.38563E-03     95.5435E-03    -14.3069E+06    -58.7834E+06    -10.8741E+06    -12.5521E+06    -25.6499E-03     51.4220E-03    -25.7721E-03     26.4778E-03    -25.6233E-03     51.1674E-03    -25.7205E-03     26.3022E-03
            1000     5.26304E-03     95.5695E-03    -12.7994E+06    -56.8691E+06    -7.95259E+06    -13.7346E+06    -25.5853E-03     51.3084E-03    -25.7231E-03     31.8712E-03    -25.5598E-03     51.0586E-03    -25.6619E-03     31.6760E-03
            1001     6.14063E-03     95.6002E-03    -11.2806E+06    -54.9904E+06    -4.95139E+06    -14.4714E+06    -25.5423E-03     51.2134E-03    -25.6710E-03     37.2893E-03    -25.5187E-03     50.9688E-03    -25.5997E-03     37.0793E-03
            1002     7.01828E-03     95.6359E-03    -9.83245E+06    -53.2027E+06    -2.30390E+06    -15.0817E+06    -25.5428E-03     51.1601E-03    -25.6174E-03     42.7248E-03    -25.5219E-03     50.9221E-03    -25.5375E-03     42.5003E-03
            1003     7.89606E-03     95.6762E-03    -8.30628E+06    -51.4349E+06     95.7802E+03    -15.6941E+06    -25.6170E-03     51.1841E-03    -25.5671E-03     48.1676E-03    -25.5996E-03     50.9544E-03    -25.4800E-03     47.9268E-03
            1004     8.77381E-03     95.7214E-03    -7.01680E+06    -50.8470E+06     559.317E+03    -16.0295E+06    -25.7832E-03     51.3027E-03    -25.5194E-03     53.5846E-03    -25.7684E-03     51.0807E-03    -25.4327E-03     53.3288E-03
            1005     9.65151E-03     95.7712E-03    -6.07122E+06    -50.0869E+06     143.120E+03    -16.2344E+06    -26.0475E-03     51.5299E-03    -25.4824E-03     58.9582E-03    -26.0392E-03     51.3218E-03    -25.4002E-03     58.6863E-03
            1006     10.5291E-03     95.8260E-03    -5.42641E+06    -50.8666E+06    -959.491E+03    -16.1880E+06    -26.4509E-03     51.9153E-03    -25.4644E-03     64.4900E-03    -26.4527E-03     51.7201E-03    -25.3876E-03     64.2016E-03
            1007     11.4064E-03     95.8858E-03    -5.29018E+06    -49.0848E+06    -4.67182E+06    -16.2749E+06    -26.9685E-03     52.4230E-03    -25.4545E-03     70.1174E-03    -26.9909E-03     52.2659E-03    -25.3990E-03     69.8066E-03
            1008     12.2835E-03     95.9510E-03    -4.96375E+06    -43.2355E+06    -6.34572E+06    -15.9876E+06    -27.5950E-03     53.0700E-03    -25.4750E-03     75.9125E-03    -27.6590E-03     52.9813E-03    -25.4368E-03     75.5793E-03
            1009     13.1598E-03     96.0217E-03    -4.87575E+06    -39.4855E+06    -10.2526E+06    -14.9197E+06    -28.4028E-03     53.9190E-03    -25.5162E-03     83.2451E-03    -28.5318E-03     53.9202E-03    -25.5031E-03     82.8931E-03
            1010     14.0362E-03     96.1012E-03    -4.55127E+06    -19.5468E+06    -16.2029E+06    -12.7724E+06    -29.3067E-03     54.8542E-03    -25.5475E-03     95.4787E-03    -29.5917E-03     55.1006E-03    -25.5936E-03     95.1197E-03
            1011     14.9117E-03     96.1950E-03    -3.54468E+06     29.3814E+06    -20.0103E+06     -7.6546E+06    -30.5392E-03     56.0988E-03    -25.5596E-03     118.013E-03    -31.2441E-03     56.9535E-03    -25.6971E-03     117.723E-03
            1012     15.7873E-03     96.3187E-03    -4.16933E+06     95.7417E+06     17.1784E+06    -2.72335E+06    -32.0474E-03     57.8005E-03    -25.7532E-03     151.543E-03    -33.7628E-03     59.7913E-03    -25.8001E-03     151.628E-03
            1013     16.6631E-03     96.4770E-03    -4.19681E+06     136.050E+06     73.8681E+06    -811.030E+03    -30.0694E-03     56.1309E-03    -26.0615E-03     120.236E-03    -31.7051E-03     58.0205E-03    -25.8833E-03     120.667E-03
            1014     877.204E-06     96.4849E-03    -14.4611E+06    -53.4399E+06    -14.6726E+06    -3.82080E+06    -25.5648E-03     51.1463E-03    -25.5815E-03     5.74654E-03    -25.5384E-03     50.9216E-03    -25.5564E-03     5.69506E-03
            1015     1.75458E-03     96.4920E-03    -14.0783E+06    -53.6682E+06    -13.9040E+06    -6.72452E+06    -25.5272E-03     51.0836E-03    -25.5564E-03     10.7220E-03    -25.4999E-03     50.8562E-03    -25.5277E-03     10.6310E-03
            1016     2.63194E-03     96.5037E-03    -13.3204E+06    -53.8380E+06    -12.5585E+06    -9.48504E+06    -25.4537E-03     50.9790E-03    -25.5253E-03     15.9868E-03    -25.4248E-03     50.7481E-03    -25.4907E-03     15.8578E-03
            1017     3.50947E-03     96.5200E-03    -12.2855E+06    -54.0964E+06    -10.5313E+06    -11.5684E+06    -25.3632E-03     50.8470E-03    -25.4838E-03     21.3375E-03    -25.3324E-03     50.6111E-03    -25.4402E-03     21.1789E-03
            1018     4.38707E-03     96.5411E-03    -11.2547E+06    -54.3467E+06    -8.50099E+06    -13.1459E+06    -25.2685E-03     50.7001E-03    -25.4316E-03     26.7725E-03    -25.2362E-03     50.4596E-03    -25.3790E-03     26.5903E-03
            1019     5.26489E-03     96.5669E-03    -10.1385E+06    -52.9169E+06    -6.54064E+06    -14.4364E+06    -25.1833E-03     50.5524E-03    -25.3691E-03     32.2708E-03    -25.1520E-03     50.3162E-03    -25.3104E-03     32.0680E-03
            1020     6.14279E-03     96.5975E-03    -8.85162E+06    -52.3105E+06    -3.86939E+06    -15.0689E+06    -25.1281E-03     50.4357E-03    -25.3075E-03     37.8084E-03    -25.0974E-03     50.1990E-03    -25.2382E-03     37.5925E-03
            1021     7.02088E-03     96.6329E-03    -7.50539E+06    -50.0882E+06    -1.12243E+06    -15.5690E+06    -25.1239E-03     50.3687E-03    -25.2448E-03     43.4002E-03    -25.0970E-03     50.1406E-03    -25.1669E-03     43.1716E-03
            1022     7.89899E-03     96.6733E-03    -6.38288E+06    -49.1552E+06     1.07000E+06    -16.0410E+06    -25.2050E-03     50.3929E-03    -25.1879E-03     49.0202E-03    -25.1819E-03     50.1696E-03    -25.1020E-03     48.7775E-03
            1023     8.77715E-03     96.7184E-03     -5.6236E+06    -48.9489E+06     1.71958E+06    -16.0024E+06    -25.4059E-03     50.5439E-03    -25.1380E-03     54.6363E-03    -25.3876E-03     50.3268E-03    -25.0503E-03     54.3839E-03
            1024     9.65522E-03     96.7685E-03    -5.17987E+06    -48.0137E+06     1.40457E+06    -16.2186E+06    -25.7439E-03     50.8465E-03    -25.1027E-03     60.2095E-03    -25.7349E-03     50.6447E-03    -25.0185E-03     59.9409E-03
            1025     10.5330E-03     96.8234E-03    -4.68569E+06    -49.6914E+06     399.896E+03    -16.2809E+06    -26.2489E-03     51.3429E-03    -25.0940E-03     65.9402E-03    -26.2498E-03     51.1495E-03    -25.0131E-03     65.6537E-03
            1026     11.4106E-03     96.8839E-03    -4.49760E+06    -47.5200E+06    -2.77059E+06    -15.9507E+06    -26.9243E-03     52.0257E-03    -25.1014E-03     71.6879E-03    -26.9472E-03     51.8720E-03    -25.0398E-03     71.3838E-03
            1027     12.2875E-03     96.9493E-03    -5.12136E+06    -42.4194E+06    -4.50981E+06    -15.8583E+06    -27.6887E-03     52.8361E-03    -25.1473E-03     77.5652E-03    -27.7573E-03     52.7490E-03    -25.1010E-03     77.2355E-03
            1028     13.1641E-03     97.0212E-03    -5.59727E+06    -39.8094E+06    -8.67609E+06    -15.1625E+06    -28.6033E-03     53.8211E-03    -25.2178E-03     84.9278E-03    -28.7386E-03     53.8204E-03    -25.1953E-03     84.5736E-03
            1029     14.0399E-03     97.1007E-03    -5.54794E+06    -20.9166E+06    -14.5936E+06    -14.1204E+06    -29.6697E-03     54.9539E-03    -25.2841E-03     96.7805E-03    -29.9627E-03     55.1952E-03    -25.3187E-03     96.4029E-03
            1030     14.9154E-03     97.1962E-03    -5.98030E+06     20.7983E+06    -18.0434E+06    -9.31823E+06    -30.9938E-03     56.3418E-03    -25.3480E-03     118.751E-03    -31.7050E-03     57.1579E-03    -25.4597E-03     118.436E-03
            1031     15.7910E-03     97.3187E-03    -6.04737E+06     90.5297E+06     14.5185E+06    -1.14364E+06    -32.6418E-03     58.1969E-03    -25.5551E-03     150.896E-03    -34.3482E-03     60.1612E-03    -25.6050E-03     150.987E-03
            1032     16.6665E-03     97.4793E-03    -4.17251E+06     137.890E+06     70.4845E+06     1.01384E+06    -30.8811E-03     56.7789E-03    -25.8977E-03     118.114E-03    -32.5017E-03     58.6697E-03    -25.7392E-03     118.549E-03
            1033     877.697E-06     97.4824E-03    -10.4005E+06    -45.7410E+06    -10.2132E+06    -3.75053E+06    -25.1297E-03     50.2947E-03    -25.1650E-03     5.83099E-03    -25.1006E-03     50.0962E-03    -25.1347E-03     5.78063E-03
            1034     1.75530E-03     97.4894E-03    -10.4879E+06    -46.2222E+06    -10.2625E+06    -6.92064E+06    -25.0903E-03     50.2172E-03    -25.1269E-03     10.8389E-03    -25.0611E-03     50.0165E-03    -25.0960E-03     10.7458E-03
            1035     2.63310E-03     97.5009E-03    -10.2493E+06    -47.0893E+06    -9.77148E+06    -9.97134E+06    -25.0058E-03     50.0948E-03    -25.0890E-03     16.1668E-03    -24.9754E-03     49.8891E-03    -25.0547E-03     16.0322E-03
            1036     3.51096E-03     97.5171E-03    -9.68009E+06    -48.8321E+06    -8.75198E+06    -12.1640E+06    -24.8950E-03     49.9339E-03    -25.0390E-03     21.5965E-03    -24.8613E-03     49.7179E-03    -24.9979E-03     21.4312E-03
            1037     4.38906E-03     97.5379E-03    -8.79346E+06    -49.6054E+06    -7.24860E+06    -13.7327E+06    -24.7779E-03     49.7545E-03    -24.9765E-03     27.1356E-03    -24.7419E-03     49.5321E-03    -24.9281E-03     26.9472E-03
            1038     5.26725E-03     97.5635E-03    -7.99148E+06    -49.0719E+06    -5.75769E+06    -14.8637E+06    -24.6715E-03     49.5751E-03    -24.9036E-03     32.7522E-03    -24.6357E-03     49.3535E-03    -24.8497E-03     32.5456E-03
            1039     6.14569E-03     97.5939E-03    -7.25321E+06    -49.3618E+06    -3.80325E+06    -15.5704E+06    -24.6054E-03     49.4361E-03    -24.8307E-03     38.4407E-03    -24.5706E-03     49.2113E-03    -24.7676E-03     38.2205E-03
            1040     7.02418E-03     97.6292E-03    -6.58756E+06    -47.5349E+06    -1.52040E+06    -15.7647E+06    -24.6025E-03     49.3613E-03    -24.7588E-03     44.2173E-03    -24.5735E-03     49.1445E-03    -24.6879E-03     43.9888E-03
            1041     7.90282E-03     97.6694E-03    -6.17521E+06    -46.8388E+06     902.596E+03    -15.8402E+06    -24.7060E-03     49.4047E-03    -24.6987E-03     50.0317E-03    -24.6841E-03     49.1920E-03    -24.6173E-03     49.7946E-03
            1042     8.78141E-03     97.7146E-03    -5.69034E+06    -47.4212E+06     1.84674E+06    -15.8597E+06    -24.9624E-03     49.6129E-03    -24.6505E-03     55.8791E-03    -24.9457E-03     49.4023E-03    -24.5643E-03     55.6320E-03
            1043     9.65984E-03     97.7649E-03    -5.32885E+06    -45.9064E+06     1.93495E+06    -15.7385E+06    -25.3939E-03     50.0153E-03    -24.6214E-03     61.6891E-03    -25.3883E-03     49.8222E-03    -24.5375E-03     61.4304E-03
            1044     10.5380E-03     97.8203E-03    -5.29950E+06    -48.0464E+06     1.22928E+06    -16.1638E+06    -26.0434E-03     50.6721E-03    -24.6287E-03     67.6581E-03    -26.0498E-03     50.4855E-03    -24.5452E-03     67.3766E-03
            1045     11.4156E-03     97.8813E-03    -5.45690E+06    -47.2812E+06    -2.21257E+06    -15.4364E+06    -26.8962E-03     51.5561E-03    -24.6598E-03     73.6551E-03    -26.9244E-03     51.4034E-03    -24.5944E-03     73.3606E-03
            1046     12.2926E-03     97.9479E-03    -6.46452E+06    -41.1047E+06    -3.40361E+06    -14.4110E+06    -27.8475E-03     52.5867E-03    -24.7392E-03     79.5391E-03    -27.9264E-03     52.5066E-03    -24.6872E-03     79.2299E-03
            1047     13.1689E-03     98.0199E-03    -7.78575E+06    -38.9107E+06    -7.38396E+06    -14.7690E+06    -29.0028E-03     53.8565E-03    -24.8537E-03     86.9685E-03    -29.1538E-03     53.8632E-03    -24.8229E-03     86.6194E-03
            1048     14.0444E-03     98.1015E-03    -9.09492E+06    -21.4609E+06    -13.5783E+06    -14.1186E+06    -30.3710E-03     55.3468E-03    -24.9758E-03     98.5310E-03    -30.6867E-03     55.5935E-03    -24.9994E-03     98.1494E-03
            1049     14.9192E-03     98.1964E-03    -10.7562E+06     12.5336E+06    -17.7272E+06    -9.22691E+06    -32.0577E-03     57.1738E-03    -25.1161E-03     119.901E-03    -32.7926E-03     57.9665E-03    -25.2074E-03     119.575E-03
            1050     15.7926E-03     98.3214E-03    -10.2756E+06     83.1329E+06     6.40634E+06    -2.94415E+06    -33.4467E-03     58.7879E-03    -25.3412E-03     152.025E-03    -35.1548E-03     60.7360E-03    -25.4149E-03     152.075E-03
            1051     16.6654E-03     98.4808E-03    -5.18457E+06     138.382E+06     63.7621E+06    -295.108E+03    -31.5017E-03     57.2198E-03    -25.7180E-03     119.376E-03    -33.1187E-03     59.1247E-03    -25.5923E-03     119.783E-03
            1052     878.059E-06     98.4789E-03    -6.26589E+06    -38.1650E+06    -6.12316E+06    -3.51509E+06    -24.5943E-03     49.1937E-03    -24.5994E-03     5.89291E-03    -24.5615E-03     49.0211E-03    -24.5656E-03     5.84586E-03
            1053     1.75631E-03     98.4858E-03    -5.93530E+06    -38.4231E+06    -5.92748E+06    -6.96247E+06    -24.5273E-03     49.1008E-03    -24.5736E-03     10.9666E-03    -24.4929E-03     48.9262E-03    -24.5389E-03     10.8735E-03
            1054     2.63454E-03     98.4972E-03    -6.03427E+06    -40.3003E+06    -6.26023E+06    -9.86640E+06    -24.4245E-03     48.9511E-03    -24.5266E-03     16.3675E-03    -24.3879E-03     48.7681E-03    -24.4907E-03     16.2351E-03
            1055     3.51300E-03     98.5131E-03    -6.41847E+06    -43.2080E+06    -6.70787E+06    -12.1890E+06    -24.2991E-03     48.7634E-03    -24.4643E-03     21.8964E-03    -24.2601E-03     48.5676E-03    -24.4259E-03     21.7320E-03
            1056     4.39154E-03     98.5337E-03    -6.77031E+06    -44.8245E+06    -7.04747E+06    -13.9484E+06    -24.1604E-03     48.5477E-03    -24.3873E-03     27.5589E-03    -24.1211E-03     48.3457E-03    -24.3477E-03     27.3693E-03
            1057     5.27038E-03     98.5590E-03    -6.95166E+06    -45.4835E+06    -6.58551E+06    -14.9037E+06    -24.0375E-03     48.3410E-03    -24.3035E-03     33.3170E-03    -24.0001E-03     48.1366E-03    -24.2604E-03     33.1120E-03
            1058     6.14930E-03     98.5892E-03    -7.24221E+06    -46.3091E+06    -5.20250E+06    -15.3337E+06    -23.9668E-03     48.1888E-03    -24.2220E-03     39.1751E-03    -23.9337E-03     47.9806E-03    -24.1703E-03     38.9605E-03
            1059     7.02844E-03     98.6243E-03    -7.73369E+06    -45.7778E+06    -3.32609E+06    -15.1589E+06    -23.9787E-03     48.1246E-03    -24.1459E-03     45.1409E-03    -23.9545E-03     47.9200E-03    -24.0849E-03     44.9233E-03
            1060     7.90759E-03     98.6645E-03    -8.16465E+06    -44.4771E+06    -682.963E+03    -14.9998E+06    -24.1252E-03     48.2109E-03    -24.0857E-03     51.1904E-03    -24.1133E-03     48.0141E-03    -24.0128E-03     50.9677E-03
            1061     8.78667E-03     98.7098E-03    -8.36182E+06    -45.5214E+06     860.138E+03    -15.3995E+06    -24.4545E-03     48.5007E-03    -24.0462E-03     57.2987E-03    -24.4511E-03     48.3036E-03    -23.9638E-03     57.0613E-03
            1062     9.66557E-03     98.7605E-03    -8.09131E+06    -44.4333E+06     1.00336E+06    -15.4401E+06    -25.0006E-03     49.0296E-03    -24.0290E-03     63.4179E-03    -25.0082E-03     48.8478E-03    -23.9478E-03     63.1671E-03
            1063     10.5440E-03     98.8165E-03    -7.97670E+06    -45.9590E+06     1.35620E+06    -15.3834E+06    -25.8194E-03     49.8795E-03    -24.0602E-03     69.6731E-03    -25.8411E-03     49.7059E-03    -23.9752E-03     69.4054E-03
            1064     11.4218E-03     98.8783E-03    -8.54383E+06    -48.0956E+06    -1.83698E+06    -14.6166E+06    -26.8588E-03     50.9853E-03    -24.1266E-03     75.8912E-03    -26.9009E-03     50.8317E-03    -24.0536E-03     75.6106E-03
            1065     12.2989E-03     98.9458E-03    -8.60325E+06    -39.8462E+06    -2.18774E+06    -13.5789E+06    -28.1097E-03     52.3565E-03    -24.2468E-03     81.9634E-03    -28.2033E-03     52.2844E-03    -24.1875E-03     81.6667E-03
            1066     13.1748E-03     99.0194E-03    -8.64608E+06    -37.2469E+06    -4.78594E+06    -13.7178E+06    -29.5671E-03     53.9876E-03    -24.4205E-03     89.3640E-03    -29.7309E-03     54.0024E-03    -24.3779E-03     89.0273E-03
            1067     14.0499E-03     99.1018E-03    -10.0312E+06    -22.8455E+06    -11.4171E+06    -12.3484E+06    -31.2784E-03     55.8902E-03    -24.6118E-03     101.023E-03    -31.6063E-03     56.1346E-03    -24.6212E-03     100.658E-03
            1068     14.9233E-03     99.1991E-03    -10.7310E+06     6.53783E+06    -14.3680E+06    -8.66336E+06    -33.0673E-03     57.9018E-03    -24.8345E-03     122.201E-03    -33.8142E-03     58.6756E-03    -24.9003E-03     121.871E-03
            1069     15.7967E-03     99.3239E-03    -8.41649E+06     79.3438E+06     11.3994E+06    -5.06666E+06    -34.1362E-03     59.2573E-03    -25.1212E-03     152.831E-03    -35.8427E-03     61.1826E-03    -25.1670E-03     152.840E-03
            1070     16.6744E-03     99.4818E-03    -4.88405E+06     137.379E+06     64.8469E+06    -2.10680E+06    -32.7909E-03     58.3302E-03    -25.5393E-03     120.024E-03    -34.4083E-03     60.2300E-03    -25.4072E-03     120.387E-03
            1071     878.786E-06     99.4743E-03    -2.06645E+06    -30.4316E+06    -3.13454E+06    -3.78395E+06    -23.8881E-03     47.7958E-03    -23.9078E-03     5.97653E-03    -23.8498E-03     47.6514E-03    -23.8763E-03     5.92633E-03
            1072     1.75747E-03     99.4811E-03    -3.08910E+06    -30.8567E+06    -4.67079E+06    -6.87999E+06    -23.8076E-03     47.6676E-03    -23.8600E-03     11.1208E-03    -23.7718E-03     47.5248E-03    -23.8341E-03     11.0293E-03
            1073     2.63644E-03     99.4922E-03    -4.07371E+06    -33.8793E+06    -5.72704E+06    -9.49810E+06    -23.6900E-03     47.4943E-03    -23.8043E-03     16.6079E-03    -23.6535E-03     47.3397E-03    -23.7779E-03     16.4812E-03
            1074     3.51546E-03     99.5079E-03    -5.01830E+06    -37.4598E+06    -6.94415E+06    -11.6696E+06    -23.5524E-03     47.2851E-03    -23.7327E-03     22.2337E-03    -23.5141E-03     47.1161E-03    -23.7058E-03     22.0773E-03
            1075     4.39477E-03     99.5282E-03    -6.21185E+06    -40.2126E+06    -8.30994E+06    -13.2778E+06    -23.4032E-03     47.0499E-03    -23.6467E-03     28.0145E-03    -23.3657E-03     46.8716E-03    -23.6209E-03     27.8353E-03
            1076     5.27418E-03     99.5532E-03    -7.80274E+06    -42.3283E+06    -8.91108E+06    -13.9525E+06    -23.2772E-03     46.8332E-03    -23.5560E-03     33.9261E-03    -23.2449E-03     46.6487E-03    -23.5278E-03     33.7356E-03
            1077     6.15388E-03     99.5831E-03    -9.55301E+06    -43.8501E+06    -7.78310E+06    -13.8910E+06    -23.2180E-03     46.6909E-03    -23.4728E-03     39.9610E-03    -23.1956E-03     46.5013E-03    -23.4343E-03     39.7678E-03
            1078     7.03359E-03     99.6181E-03    -10.9311E+06    -44.0635E+06    -5.85710E+06    -13.7318E+06    -23.2644E-03     46.6639E-03    -23.3995E-03     46.1376E-03    -23.2540E-03     46.4751E-03    -23.3490E-03     45.9417E-03
            1079     7.91339E-03     99.6583E-03    -12.0084E+06    -42.7707E+06    -3.44490E+06    -13.3810E+06    -23.4630E-03     46.8065E-03    -23.3435E-03     52.4602E-03    -23.4676E-03     46.6265E-03    -23.2813E-03     52.2622E-03
            1080     8.79306E-03     99.7039E-03    -13.2762E+06    -42.9226E+06    -981.252E+03    -13.6196E+06    -23.8868E-03     47.2058E-03    -23.3190E-03     58.8656E-03    -23.9077E-03     47.0300E-03    -23.2424E-03     58.6553E-03
            1081     9.67238E-03     99.7549E-03    -14.4378E+06    -42.6414E+06    -524.150E+03    -14.4823E+06    -24.5772E-03     47.9022E-03    -23.3250E-03     65.3280E-03    -24.6153E-03     47.7392E-03    -23.2449E-03     65.0938E-03
            1082     10.5512E-03     99.8118E-03    -15.1183E+06    -44.9897E+06    -192.325E+03    -14.2517E+06    -25.5770E-03     48.9634E-03    -23.3864E-03     71.9130E-03    -25.6323E-03     48.8059E-03    -23.3002E-03     71.6640E-03
            1083     11.4291E-03     99.8747E-03    -14.5561E+06    -46.7862E+06    -1.64621E+06    -14.6508E+06    -26.8682E-03     50.3664E-03    -23.4982E-03     78.3491E-03    -26.9419E-03     50.2271E-03    -23.4175E-03     78.0711E-03
            1084     12.3061E-03     99.9435E-03    -12.4284E+06    -39.5176E+06    -1.79591E+06    -15.0229E+06    -28.3820E-03     52.0495E-03    -23.6675E-03     84.7810E-03    -28.4962E-03     51.9845E-03    -23.6011E-03     84.4673E-03
            1085     13.1818E-03     100.019E-03    -10.3918E+06    -36.3364E+06    -3.22044E+06    -13.9690E+06    -30.2128E-03     54.1182E-03    -23.9054E-03     92.3096E-03    -30.3925E-03     54.1414E-03    -23.8537E-03     91.9678E-03
            1086     14.0560E-03     100.103E-03    -8.85244E+06    -25.2469E+06    -7.59204E+06    -11.9528E+06    -32.1139E-03     56.2928E-03    -24.1789E-03     104.033E-03    -32.4462E-03     56.5261E-03    -24.1674E-03     103.668E-03
            1087     14.9293E-03     100.202E-03    -7.65545E+06     3.65047E+06    -8.41289E+06    -8.93563E+06    -34.1414E-03     58.6256E-03    -24.4842E-03     124.431E-03    -34.8915E-03     59.3859E-03    -24.5204E-03     124.085E-03
            1088     15.8024E-03     100.326E-03    -5.96121E+06     76.6724E+06     20.3211E+06    -5.85664E+06    -36.2989E-03     61.1918E-03    -24.8929E-03     152.795E-03    -38.0344E-03     63.1194E-03    -24.8938E-03     152.748E-03
            1089     16.6710E-03     100.485E-03    -3.91238E+06     132.837E+06     69.7082E+06    -2.57746E+06    -34.5223E-03     59.9371E-03    -25.4148E-03     119.100E-03    -36.1575E-03     61.8278E-03    -25.2532E-03     119.413E-03
            1090     879.408E-06     100.468E-03     44.6905E+03    -22.6949E+06    -1.03750E+06    -3.79776E+06    -23.0020E-03     46.0534E-03    -23.0515E-03     6.05413E-03    -22.9674E-03     45.9416E-03    -23.0238E-03     6.00410E-03
            1091     1.75909E-03     100.475E-03    -1.48951E+06    -23.8642E+06    -3.82811E+06    -6.46673E+06    -22.9226E-03     45.9039E-03    -22.9814E-03     11.2612E-03    -22.8901E-03     45.7925E-03    -22.9638E-03     11.1758E-03
            1092     2.63871E-03     100.486E-03    -3.20305E+06    -27.8735E+06    -6.29125E+06    -8.88049E+06    -22.8035E-03     45.7202E-03    -22.9167E-03     16.8438E-03    -22.7704E-03     45.5950E-03    -22.9031E-03     16.7261E-03
            1093     3.51862E-03     100.501E-03    -5.11559E+06    -32.2167E+06    -8.52785E+06    -10.7236E+06    -22.6586E-03     45.4981E-03    -22.8395E-03     22.5660E-03    -22.6260E-03     45.3576E-03    -22.8280E-03     22.4233E-03
            1094     4.39860E-03     100.521E-03    -7.43660E+06    -36.4749E+06    -10.2918E+06    -11.6564E+06    -22.5138E-03     45.2671E-03    -22.7533E-03     28.4566E-03    -22.4846E-03     45.1118E-03    -22.7410E-03     28.3002E-03
            1095     5.27890E-03     100.546E-03    -10.3414E+06    -40.1810E+06    -11.0147E+06    -11.4084E+06    -22.4042E-03     45.0709E-03    -22.6667E-03     34.5119E-03    -22.3841E-03     44.9033E-03    -22.6485E-03     34.3565E-03
            1096     6.15924E-03     100.576E-03    -13.2668E+06    -41.7219E+06    -10.6153E+06    -11.2072E+06    -22.3709E-03     44.9559E-03    -22.5851E-03     40.7424E-03    -22.3652E-03     44.7858E-03    -22.5584E-03     40.5866E-03
            1097     7.03976E-03     100.610E-03    -15.6443E+06    -42.2308E+06    -8.85464E+06    -11.3235E+06    -22.4676E-03     44.9875E-03    -22.5199E-03     47.1583E-03    -22.4780E-03     44.8180E-03    -22.4802E-03     46.9968E-03
            1098     7.92021E-03     100.651E-03    -17.2880E+06    -41.6834E+06    -5.80565E+06    -11.1016E+06    -22.7519E-03     45.2333E-03    -22.4814E-03     53.7512E-03    -22.7797E-03     45.0685E-03    -22.4249E-03     53.5864E-03
            1099     8.80050E-03     100.697E-03    -18.0105E+06    -40.3223E+06    -1.90621E+06    -11.3258E+06    -23.2992E-03     45.7796E-03    -22.4805E-03     60.4797E-03    -23.3446E-03     45.6235E-03    -22.4054E-03     60.3031E-03
            1100     9.68032E-03     100.748E-03    -18.6443E+06    -40.4071E+06     131.544E+03    -12.0152E+06    -24.1678E-03     46.6901E-03    -22.5223E-03     67.2667E-03    -24.2296E-03     46.5419E-03    -22.4361E-03     67.0684E-03
            1101     10.5594E-03     100.806E-03    -18.7460E+06    -43.4625E+06     452.835E+03    -13.0544E+06    -25.3685E-03     47.9898E-03    -22.6213E-03     74.2228E-03    -25.4438E-03     47.8430E-03    -22.5289E-03     73.9930E-03
            1102     11.4376E-03     100.871E-03    -17.6848E+06    -42.8564E+06    -514.271E+03    -15.1978E+06    -26.9103E-03     49.6889E-03    -22.7786E-03     81.0786E-03    -27.0065E-03     49.5716E-03    -22.6934E-03     80.7965E-03
            1103     12.3143E-03     100.941E-03    -16.2062E+06    -38.6868E+06    -1.35612E+06    -16.8281E+06    -28.7162E-03     51.7243E-03    -23.0080E-03     87.7350E-03    -28.8525E-03     51.6696E-03    -22.9352E-03     87.3989E-03
            1104     13.1900E-03     101.018E-03    -13.9248E+06    -37.1615E+06    -3.29294E+06    -15.9512E+06    -30.8643E-03     54.1787E-03    -23.3144E-03     95.5641E-03    -31.0642E-03     54.2069E-03    -23.2568E-03     95.1948E-03
            1105     14.0635E-03     101.105E-03    -11.1639E+06    -26.4213E+06    -5.35344E+06    -14.7032E+06    -33.0735E-03     56.7511E-03    -23.6776E-03     106.604E-03    -33.4287E-03     56.9885E-03    -23.6498E-03     106.196E-03
            1106     14.9364E-03     101.204E-03    -7.77796E+06    -684.504E+03    -5.91457E+06    -11.2950E+06    -35.7837E-03     59.8674E-03    -24.0837E-03     126.882E-03    -36.5528E-03     60.6237E-03    -24.1010E-03     126.483E-03
            1107     15.8057E-03     101.333E-03    -6.34279E+06     72.1222E+06     18.5887E+06    -5.65566E+06    -38.5706E-03     63.1646E-03    -24.5939E-03     155.331E-03    -40.3580E-03     65.1316E-03    -24.5964E-03     155.244E-03
            1108     16.6768E-03     101.492E-03    -3.63047E+06     129.898E+06     68.2541E+06    -1.93308E+06    -36.6702E-03     61.9103E-03    -25.2400E-03     119.431E-03    -38.3406E-03     63.8310E-03    -25.0819E-03     119.708E-03
            1109     880.460E-06     101.460E-03     583.453E+03    -15.4564E+06     447.812E+03    -3.50156E+06    -21.9786E-03     43.9608E-03    -21.9822E-03     6.13076E-03    -21.9539E-03     43.8822E-03    -21.9584E-03     6.08487E-03
            1110     1.76082E-03     101.466E-03    -351.044E+03    -17.6294E+06    -2.11902E+06    -5.82517E+06    -21.8929E-03     43.8358E-03    -21.9429E-03     11.3878E-03    -21.8662E-03     43.7513E-03    -21.9274E-03     11.3113E-03
            1111     2.64150E-03     101.477E-03    -2.61753E+06    -22.8279E+06    -6.14238E+06    -7.50437E+06    -21.7714E-03     43.6482E-03    -21.8768E-03     17.0247E-03    -21.7428E-03     43.5470E-03    -21.8706E-03     16.9258E-03
            1112     3.52219E-03     101.492E-03    -6.27707E+06    -28.4012E+06    -10.2964E+06    -8.25046E+06    -21.6332E-03     43.4298E-03    -21.7965E-03     22.8381E-03    -21.6091E-03     43.3123E-03    -21.7977E-03     22.7287E-03
            1113     4.40320E-03     101.512E-03    -10.9707E+06    -34.3831E+06    -12.9397E+06    -8.03544E+06    -21.5115E-03     43.2285E-03    -21.7171E-03     28.8344E-03    -21.4988E-03     43.0923E-03    -21.7160E-03     28.7264E-03
            1114     5.28424E-03     101.537E-03    -15.4310E+06    -38.9229E+06    -14.2729E+06    -7.50172E+06    -21.4358E-03     43.0756E-03    -21.6399E-03     35.0334E-03    -21.4376E-03     42.9258E-03    -21.6324E-03     34.9306E-03
            1115     6.16552E-03     101.566E-03    -19.0222E+06    -39.7256E+06    -14.0953E+06    -7.49849E+06    -21.4497E-03     43.0191E-03    -21.5694E-03     41.4525E-03    -21.4699E-03     42.8715E-03    -21.5547E-03     41.3472E-03
            1116     7.04677E-03     101.601E-03    -21.8884E+06     -40.609E+06    -11.1392E+06    -7.79375E+06    -21.6288E-03     43.1572E-03    -21.5284E-03     48.0908E-03    -21.6685E-03     43.0073E-03    -21.4935E-03     47.9778E-03
            1117     7.92796E-03     101.641E-03    -23.3182E+06    -39.6693E+06    -6.66949E+06    -8.71280E+06    -22.0307E-03     43.5504E-03    -21.5197E-03     54.9621E-03    -22.0891E-03     43.4045E-03    -21.4617E-03     54.8315E-03
            1118     8.80878E-03     101.688E-03    -23.2389E+06    -38.2927E+06    -2.40643E+06    -9.72592E+06    -22.7212E-03     44.2711E-03    -21.5500E-03     62.0433E-03    -22.7935E-03     44.1320E-03    -21.4728E-03     61.8910E-03
            1119     9.68907E-03     101.740E-03    -22.1346E+06    -38.2885E+06     471.998E+03    -10.4537E+06    -23.7641E-03     45.3948E-03    -21.6307E-03     69.2256E-03    -23.8455E-03     45.2603E-03    -21.5407E-03     69.0512E-03
            1120     10.5685E-03     101.800E-03    -20.2267E+06    -39.2262E+06     2.01368E+06    -12.9181E+06    -25.1837E-03     46.9586E-03    -21.7749E-03     76.5980E-03    -25.2736E-03     46.8317E-03    -21.6786E-03     76.3735E-03
            1121     11.4468E-03     101.865E-03    -18.1345E+06    -39.0864E+06     1.38536E+06    -15.5680E+06    -27.0098E-03     48.9979E-03    -21.9881E-03     83.8764E-03    -27.1162E-03     48.8972E-03    -21.8982E-03     83.5919E-03
            1122     12.3236E-03     101.938E-03    -16.6547E+06    -36.0532E+06     698.622E+03    -17.0391E+06    -29.2010E-03     51.4900E-03    -22.2890E-03     90.7226E-03    -29.3483E-03     51.4483E-03    -22.2091E-03     90.3834E-03
            1123     13.1983E-03     102.018E-03    -15.2037E+06    -37.3575E+06    -2.32517E+06    -18.0454E+06    -31.6489E-03     54.3254E-03    -22.6765E-03     98.6824E-03    -31.8612E-03     54.3580E-03    -22.6119E-03     98.2827E-03
            1124     14.0717E-03     102.107E-03    -12.6485E+06    -26.2988E+06    -4.64350E+06    -17.4434E+06    -34.5491E-03     57.6881E-03    -23.1390E-03     109.496E-03    -34.9259E-03     57.9403E-03    -23.1057E-03     109.038E-03
            1125     14.9420E-03     102.209E-03    -11.4120E+06    -7.59081E+06    -7.93645E+06    -13.8889E+06    -37.5092E-03     61.1710E-03    -23.6618E-03     129.208E-03    -38.3081E-03     61.9256E-03    -23.6739E-03     128.748E-03
            1126     15.8123E-03     102.341E-03    -9.78496E+06     65.9264E+06     13.6435E+06    -7.61221E+06    -39.6713E-03     63.9216E-03    -24.2503E-03     157.318E-03    -41.4722E-03     65.8823E-03    -24.2635E-03     157.179E-03
            1127     16.6798E-03     102.500E-03    -6.23696E+06     129.549E+06     64.2536E+06    -2.36854E+06    -39.1795E-03     64.1755E-03    -24.9959E-03     120.295E-03    -40.8563E-03     66.1038E-03    -24.8535E-03     120.513E-03
            1128     881.427E-06     102.450E-03    -1.18049E+06    -9.19806E+06    -2.07400E+06    -2.82693E+06    -20.7939E-03     41.5522E-03    -20.7583E-03     6.16320E-03    -20.7835E-03     41.5111E-03    -20.7536E-03     6.12633E-03
            1129     1.76302E-03     102.456E-03    -4.11246E+06    -13.0897E+06    -6.06517E+06    -4.07314E+06    -20.7071E-03     41.4459E-03    -20.7388E-03     11.4529E-03    -20.7000E-03     41.3952E-03    -20.7441E-03     11.3996E-03
            1130     2.64455E-03     102.467E-03    -8.41389E+06    -19.8936E+06    -10.9119E+06    -4.36394E+06    -20.6009E-03     41.2839E-03    -20.6831E-03     17.1438E-03    -20.5985E-03     41.2126E-03    -20.6966E-03     17.0863E-03
            1131     3.52641E-03     102.481E-03    -13.7598E+06    -27.2071E+06    -15.6324E+06    -3.62278E+06    -20.4969E-03     41.1139E-03    -20.6170E-03     23.0172E-03    -20.5040E-03     41.0207E-03    -20.6357E-03     22.9686E-03
            1132     4.40824E-03     102.501E-03    -19.2859E+06    -33.8565E+06    -18.6082E+06    -2.60397E+06    -20.4232E-03     40.9772E-03    -20.5540E-03     29.0935E-03    -20.4443E-03     40.8635E-03    -20.5700E-03     29.0573E-03
            1133     5.29033E-03     102.525E-03    -23.9332E+06    -37.5316E+06    -19.1912E+06    -2.75221E+06    -20.4080E-03     40.9075E-03    -20.4995E-03     35.4162E-03    -20.4468E-03     40.7836E-03    -20.5063E-03     35.3767E-03
            1134     6.17238E-03     102.555E-03    -27.0368E+06    -38.1661E+06    -16.8130E+06    -3.50337E+06    -20.5064E-03     40.9698E-03    -20.4633E-03     42.0040E-03    -20.5642E-03     40.8448E-03    -20.4529E-03     41.9526E-03
            1135     7.05446E-03     102.590E-03    -28.1639E+06    -38.4673E+06    -11.9241E+06    -4.72303E+06    -20.7888E-03     41.2464E-03    -20.4576E-03     48.8779E-03    -20.8609E-03     41.1165E-03    -20.4206E-03     48.8072E-03
            1136     7.93625E-03     102.631E-03    -28.1786E+06    -36.8488E+06    -6.75462E+06    -6.38802E+06    -21.3127E-03     41.7956E-03    -20.4828E-03     56.0614E-03    -21.3981E-03     41.6697E-03    -20.4223E-03     55.9638E-03
            1137     8.81771E-03     102.678E-03    -27.6431E+06    -35.6658E+06    -2.75839E+06    -8.29012E+06    -22.1487E-03     42.6983E-03    -20.5497E-03     63.5352E-03    -22.2450E-03     42.5778E-03    -20.4717E-03     63.4049E-03
            1138     9.69842E-03     102.731E-03    -25.6476E+06    -35.1152E+06    -7.53611E+03    -10.8070E+06    -23.3556E-03     44.0266E-03    -20.6710E-03     71.1844E-03    -23.4570E-03     43.9123E-03    -20.5829E-03     71.0092E-03
            1139     10.5782E-03     102.792E-03    -22.4340E+06    -33.6994E+06     2.58319E+06    -14.0645E+06    -25.0220E-03     45.8879E-03    -20.8659E-03     79.0574E-03    -25.1307E-03     45.7898E-03    -20.7716E-03     78.8214E-03
            1140     11.4565E-03     102.860E-03    -19.4218E+06    -36.3269E+06     2.25729E+06    -16.4902E+06    -27.1827E-03     48.3284E-03    -21.1457E-03     86.8306E-03    -27.3009E-03     48.2422E-03    -21.0536E-03     86.5363E-03
            1141     12.3330E-03     102.935E-03    -17.2962E+06    -33.5521E+06     1.48517E+06    -17.1741E+06    -29.7272E-03     51.2480E-03    -21.5209E-03     94.1393E-03    -29.8845E-03     51.2207E-03    -21.4397E-03     93.7983E-03
            1142     13.2075E-03     103.017E-03    -15.5439E+06    -33.6533E+06    -847.911E+03    -19.2447E+06    -32.6656E-03     54.6663E-03    -22.0007E-03     102.260E-03    -32.8935E-03     54.7223E-03    -21.9336E-03     101.839E-03
            1143     14.0795E-03     103.109E-03    -13.2682E+06    -27.1896E+06    -4.61263E+06    -20.0801E+06    -36.1531E-03     58.7262E-03    -22.5731E-03     113.866E-03    -36.5460E-03     58.9892E-03    -22.5375E-03     113.359E-03
            1144     14.9485E-03     103.217E-03    -10.6333E+06    -14.2123E+06    -8.40363E+06    -15.3353E+06    -39.5547E-03     62.7815E-03    -23.2268E-03     132.015E-03    -40.3674E-03     63.5307E-03    -23.2328E-03     131.505E-03
            1145     15.8162E-03     103.346E-03    -8.69543E+06     58.9087E+06     12.5995E+06    -8.62522E+06    -41.8746E-03     65.8223E-03    -23.9477E-03     157.457E-03    -43.6614E-03     67.7509E-03    -23.9575E-03     157.237E-03
            1146     16.6862E-03     103.511E-03    -4.84571E+06     126.009E+06     62.4195E+06    -3.78936E+06    -41.1549E-03     65.9615E-03    -24.8066E-03     120.569E-03    -42.8037E-03     67.8596E-03    -24.6702E-03     120.707E-03
            1147     882.653E-06     103.437E-03    -9.34492E+06    -5.81776E+06    -9.35100E+06    -757.646E+03    -19.4691E-03     38.9050E-03    -19.4359E-03     6.16407E-03    -19.4939E-03     38.9031E-03    -19.4606E-03     6.15417E-03
            1148     1.76523E-03     103.443E-03    -13.4781E+06    -11.9241E+06    -14.2619E+06    -129.992E+03    -19.3988E-03     38.8212E-03    -19.4224E-03     11.4153E-03    -19.4283E-03     38.8017E-03    -19.4569E-03     11.4133E-03
            1149     2.64809E-03     103.454E-03    -19.1002E+06    -20.1403E+06    -18.3095E+06     1.21516E+06    -19.3499E-03     38.7393E-03    -19.3894E-03     17.1124E-03    -19.3898E-03     38.6928E-03    -19.4240E-03     17.1276E-03
            1150     3.53081E-03     103.468E-03    -24.7566E+06    -28.3515E+06    -21.4305E+06     2.56204E+06    -19.3130E-03     38.6704E-03    -19.3574E-03     23.0158E-03    -19.3648E-03     38.5957E-03    -19.3875E-03     23.0481E-03
            1151     4.41379E-03     103.488E-03    -29.1937E+06    -33.9609E+06    -23.2234E+06     2.88687E+06    -19.3091E-03     38.6347E-03    -19.3257E-03     29.1636E-03    -19.3725E-03     38.5412E-03    -19.3502E-03     29.1994E-03
            1152     5.29666E-03     103.512E-03    -31.9770E+06    -35.8126E+06    -21.5999E+06     1.76143E+06    -19.3800E-03     38.6880E-03    -19.3080E-03     35.6006E-03    -19.4575E-03     38.5874E-03    -19.3177E-03     35.6208E-03
            1153     6.17964E-03     103.541E-03    -32.9720E+06    -36.0784E+06    -17.1950E+06    -341.819E+03    -19.5763E-03     38.8889E-03    -19.3126E-03     42.3711E-03    -19.6656E-03     38.7829E-03    -19.2984E-03     42.3624E-03
            1154     7.06239E-03     103.577E-03    -32.4380E+06    -35.3036E+06    -12.0486E+06    -2.94262E+06    -19.9548E-03     39.2952E-03    -19.3404E-03     49.5058E-03    -20.0518E-03     39.1866E-03    -19.3024E-03     49.4604E-03
            1155     7.94497E-03     103.618E-03    -30.4456E+06    -34.0680E+06    -6.72726E+06    -5.30675E+06    -20.5968E-03     39.9988E-03    -19.4020E-03     57.0350E-03    -20.6965E-03     39.8889E-03    -19.3421E-03     56.9541E-03
            1156     8.82694E-03     103.666E-03    -27.5367E+06    -31.8862E+06    -1.97454E+06    -7.71309E+06    -21.5753E-03     41.0839E-03    -19.5086E-03     64.9303E-03    -21.6763E-03     40.9797E-03    -19.4323E-03     64.8106E-03
            1157     9.70821E-03     103.721E-03    -24.8088E+06    -30.1405E+06     1.19274E+06    -11.2033E+06    -22.9594E-03     42.6341E-03    -19.6747E-03     73.0868E-03    -23.0640E-03     42.5402E-03    -19.5891E-03     72.9099E-03
            1158     10.5882E-03     103.783E-03    -22.5231E+06    -28.4586E+06     3.11297E+06    -14.8588E+06    -24.8431E-03     44.7622E-03    -19.9191E-03     81.6348E-03    -24.9593E-03     44.6884E-03    -19.8296E-03     81.3920E-03
            1159     11.4667E-03     103.853E-03    -20.4814E+06    -33.4491E+06     2.50740E+06    -17.2314E+06    -27.2791E-03     47.5414E-03    -20.2623E-03     90.1026E-03    -27.4068E-03     47.4705E-03    -20.1716E-03     89.8014E-03
            1160     12.3432E-03     103.931E-03    -17.7392E+06    -31.2741E+06     1.65630E+06    -18.6270E+06    -30.1935E-03     50.9014E-03    -20.7079E-03     98.1129E-03    -30.3582E-03     50.8875E-03    -20.6286E-03     97.7538E-03
            1161     13.2170E-03     104.017E-03    -14.2853E+06    -28.3517E+06     1.18057E+06    -20.8325E+06    -33.6430E-03     54.9202E-03    -21.2772E-03     106.920E-03    -33.8821E-03     55.0047E-03    -21.2094E-03     106.474E-03
            1162     14.0880E-03     104.113E-03    -11.9951E+06    -27.7823E+06    -3.53245E+06    -21.8950E+06    -37.4063E-03     59.3564E-03    -21.9501E-03     119.176E-03    -37.8055E-03     59.6250E-03    -21.9101E-03     118.636E-03
            1163     14.9567E-03     104.224E-03    -9.58917E+06    -21.3249E+06    -8.42391E+06    -17.7415E+06    -41.6152E-03     64.3354E-03    -22.7202E-03     137.607E-03    -42.4432E-03     65.0784E-03    -22.7175E-03     137.033E-03
            1164     15.8210E-03     104.358E-03    -6.71233E+06     51.0761E+06     9.89382E+06    -9.06681E+06    -44.9128E-03     68.4876E-03    -23.5748E-03     162.183E-03    -46.7447E-03     70.4484E-03    -23.5896E-03     161.876E-03
            1165     16.6821E-03     104.520E-03    -3.25806E+06     120.840E+06     59.4938E+06    -4.26125E+06    -44.0890E-03     68.6773E-03    -24.5883E-03     125.301E-03    -45.7903E-03     70.6237E-03    -24.4613E-03     125.361E-03
            1166     883.778E-06     104.422E-03    -23.9199E+06    -9.39697E+06    -21.1699E+06     4.60182E+06    -18.0725E-03     36.1449E-03    -18.0724E-03     6.04876E-03    -18.1478E-03     36.1634E-03    -18.1299E-03     6.10819E-03
            1167     1.76774E-03     104.428E-03    -28.7233E+06    -15.3013E+06    -23.7464E+06     6.61953E+06    -18.0756E-03     36.1539E-03    -18.0783E-03     11.2580E-03    -18.1627E-03     36.1534E-03    -18.1332E-03     11.3435E-03
            1168     2.65148E-03     104.438E-03    -33.2068E+06    -23.2810E+06    -25.7109E+06     8.06046E+06    -18.0956E-03     36.1798E-03    -18.0842E-03     16.9147E-03    -18.1907E-03     36.1487E-03    -18.1308E-03     17.0187E-03
            1169     3.53544E-03     104.453E-03    -36.0747E+06    -30.1271E+06    -26.5022E+06     8.25828E+06    -18.1356E-03     36.2257E-03    -18.0901E-03     22.8245E-03    -18.2340E-03     36.1658E-03    -18.1266E-03     22.9308E-03
            1170     4.41922E-03     104.472E-03    -37.1332E+06    -33.5657E+06    -25.0524E+06     6.84065E+06    -18.2200E-03     36.3205E-03    -18.1005E-03     29.0432E-03    -18.3209E-03     36.2430E-03    -18.1233E-03     29.1308E-03
            1171     5.30313E-03     104.496E-03     -36.538E+06    -33.8037E+06    -21.6004E+06     4.35901E+06    -18.3785E-03     36.4987E-03    -18.1202E-03     35.5972E-03    -18.4814E-03     36.4144E-03    -18.1262E-03     35.6521E-03
            1172     6.18682E-03     104.526E-03    -34.7513E+06    -32.6138E+06    -16.8006E+06     1.05165E+06    -18.6586E-03     36.8147E-03    -18.1562E-03     42.5486E-03    -18.7619E-03     36.7276E-03    -18.1425E-03     42.5593E-03
            1173     7.07045E-03     104.561E-03    -32.1102E+06    -31.6627E+06    -11.3940E+06    -2.37365E+06    -19.1340E-03     37.3518E-03    -18.2178E-03     49.9495E-03    -19.2348E-03     37.2592E-03    -18.1823E-03     49.9134E-03
            1174     7.95361E-03     104.603E-03    -29.2282E+06    -30.4994E+06    -6.21352E+06    -5.49636E+06    -19.8818E-03     38.1965E-03    -18.3148E-03     57.8429E-03    -19.9803E-03     38.1009E-03    -18.2592E-03     57.7620E-03
            1175     8.83630E-03     104.652E-03    -25.9613E+06    -27.7534E+06    -1.64577E+06    -8.60092E+06    -20.9722E-03     39.4301E-03    -18.4578E-03     66.2002E-03    -21.0704E-03     39.3423E-03    -18.3882E-03     66.0720E-03
            1176     9.71797E-03     104.709E-03    -22.5573E+06    -24.9474E+06     2.06631E+06    -11.6264E+06    -22.4980E-03     41.1630E-03    -18.6650E-03     74.9617E-03    -22.5985E-03     41.0889E-03    -18.5858E-03     74.7829E-03
            1177     10.5985E-03     104.773E-03    -20.2359E+06    -23.7864E+06     4.16497E+06    -14.4470E+06    -24.5574E-03     43.5126E-03    -18.9552E-03     84.2659E-03    -24.6687E-03     43.4557E-03    -18.8706E-03     84.0323E-03
            1178     11.4772E-03     104.846E-03    -18.3452E+06    -29.2553E+06     3.82754E+06    -17.4603E+06    -27.2167E-03     46.5665E-03    -19.3499E-03     93.5528E-03    -27.3404E-03     46.5103E-03    -19.2617E-03     93.2524E-03
            1179     12.3537E-03     104.927E-03    -15.3518E+06    -27.0354E+06     3.24928E+06    -20.9367E+06    -30.4603E-03     50.3144E-03    -19.8540E-03     102.535E-03    -30.6223E-03     50.3166E-03    -19.7763E-03     102.149E-03
            1180     13.2275E-03     105.017E-03    -12.4466E+06    -25.3303E+06     2.82549E+06    -22.6927E+06    -34.2417E-03     54.7351E-03    -20.4935E-03     112.277E-03    -34.4826E-03     54.8340E-03    -20.4246E-03     111.806E-03
            1181     14.0983E-03     105.117E-03    -11.1042E+06    -26.9061E+06    -882.380E+03    -22.3372E+06    -38.5815E-03     59.8406E-03    -21.2591E-03     124.788E-03    -38.9937E-03     60.1208E-03    -21.2084E-03     124.231E-03
            1182     14.9659E-03     105.232E-03    -11.1688E+06    -28.2200E+06    -9.38702E+06    -19.2255E+06    -43.3205E-03     65.4491E-03    -22.1286E-03     143.208E-03    -44.1682E-03     66.1847E-03    -22.1184E-03     142.587E-03
            1183     15.8310E-03     105.372E-03    -8.63513E+06     43.4104E+06     6.94228E+06    -13.4203E+06    -47.4955E-03     70.6024E-03    -23.1068E-03     165.429E-03    -49.3647E-03     72.5751E-03    -23.1225E-03     164.987E-03
            1184     16.6974E-03     105.535E-03    -4.20360E+06     115.685E+06     58.3085E+06    -5.89172E+06    -48.3697E-03     72.6865E-03    -24.3168E-03     127.037E-03    -50.1070E-03     74.6510E-03    -24.1870E-03     126.963E-03
            1185     885.094E-06     105.403E-03    -45.6668E+06    -22.6449E+06    -42.4790E+06     9.40768E+06    -16.7415E-03     33.5289E-03    -16.7873E-03     5.81689E-03    -16.8754E-03     33.5436E-03    -16.9007E-03     5.93838E-03
            1186     1.76991E-03     105.410E-03    -45.4338E+06    -23.1994E+06    -36.2869E+06     13.2546E+06    -16.8134E-03     33.6226E-03    -16.8092E-03     10.9481E-03    -16.9543E-03     33.6250E-03    -16.8911E-03     11.1193E-03
            1187     2.65489E-03     105.420E-03    -45.3336E+06    -27.5429E+06    -32.4206E+06     13.7955E+06    -16.9035E-03     33.7569E-03    -16.8534E-03     16.5763E-03    -17.0432E-03     33.7318E-03    -16.9098E-03     16.7545E-03
            1188     3.53963E-03     105.435E-03    -44.3764E+06    -30.7727E+06    -29.8725E+06     11.6545E+06    -17.0236E-03     33.9161E-03    -16.8925E-03     22.4992E-03    -17.1575E-03     33.8698E-03    -16.9329E-03     22.6497E-03
            1189     4.42453E-03     105.454E-03    -41.7156E+06    -31.7668E+06    -26.4892E+06     7.94010E+06    -17.1827E-03     34.1165E-03    -16.9338E-03     28.7524E-03    -17.3069E-03     34.0566E-03    -16.9597E-03     28.8547E-03
            1190     5.30915E-03     105.478E-03    -37.7227E+06    -30.8888E+06    -22.2637E+06     3.94739E+06    -17.4076E-03     34.3879E-03    -16.9804E-03     35.3980E-03    -17.5194E-03     34.3207E-03    -16.9922E-03     35.4483E-03
            1191     6.19381E-03     105.508E-03    -33.7184E+06    -29.0182E+06    -17.2041E+06     548.140E+03    -17.7581E-03     34.8004E-03    -17.0423E-03     42.5096E-03    -17.8605E-03     34.7298E-03    -17.0373E-03     42.5149E-03
            1192     7.07810E-03     105.544E-03    -30.6059E+06    -27.5903E+06    -11.7993E+06    -2.74681E+06    -18.3103E-03     35.4423E-03    -17.1320E-03     50.1637E-03    -18.4082E-03     35.3678E-03    -17.1066E-03     50.1243E-03
            1193     7.96209E-03     105.587E-03    -27.6046E+06    -26.3474E+06    -6.62527E+06    -6.08146E+06    -19.1359E-03     36.3948E-03    -17.2589E-03     58.4275E-03    -19.2307E-03     36.3172E-03    -17.2138E-03     58.3412E-03
            1194     8.84528E-03     105.637E-03    -24.4671E+06    -22.7581E+06    -1.78351E+06    -9.68367E+06    -20.2985E-03     37.7310E-03    -17.4325E-03     67.2852E-03    -20.3948E-03     37.6648E-03    -17.3730E-03     67.1459E-03
            1195     9.72770E-03     105.695E-03    -21.3710E+06    -21.0998E+06     2.05320E+06    -12.6189E+06    -21.9193E-03     39.5918E-03    -17.6725E-03     76.6977E-03    -22.0174E-03     39.5332E-03    -17.6007E-03     76.5098E-03
            1196     10.6087E-03     105.761E-03    -18.6565E+06    -20.0507E+06     4.97842E+06    -14.2604E+06    -24.1009E-03     42.0983E-03    -17.9974E-03     86.7817E-03    -24.2085E-03     42.0541E-03    -17.9164E-03     86.5551E-03
            1197     11.4879E-03     105.837E-03    -16.0774E+06    -22.4260E+06     6.18896E+06    -18.2534E+06    -26.9439E-03     45.3721E-03    -18.4282E-03     97.0553E-03    -27.0674E-03     45.3410E-03    -18.3414E-03     96.7495E-03
            1198     12.3647E-03     105.922E-03    -13.9262E+06    -22.1938E+06     5.08206E+06    -22.3056E+06    -30.4357E-03     49.4094E-03    -18.9737E-03     107.038E-03    -30.5991E-03     49.4300E-03    -18.8959E-03     106.638E-03
            1199     13.2387E-03     106.016E-03    -13.2408E+06    -23.8485E+06     3.60905E+06    -22.9251E+06    -34.6626E-03     54.3315E-03    -19.6689E-03     117.509E-03    -34.9129E-03     54.4399E-03    -19.5970E-03     117.035E-03
            1200     14.1093E-03     106.121E-03    -12.4291E+06    -25.4642E+06     753.863E+03    -22.8013E+06    -39.8454E-03     60.3662E-03    -20.5208E-03     130.710E-03    -40.2794E-03     60.6641E-03    -20.4621E-03     130.136E-03
            1201     14.9751E-03     106.243E-03    -9.29119E+06    -31.4996E+06    -9.03391E+06    -22.0157E+06    -45.7628E-03     67.2755E-03    -21.5126E-03     148.503E-03    -46.6180E-03     68.0127E-03    -21.4987E-03     147.801E-03
            1202     15.8374E-03     106.385E-03    -5.29315E+06     35.2135E+06     7.80676E+06    -15.4014E+06    -51.5658E-03     74.2540E-03    -22.6882E-03     168.837E-03    -53.4559E-03     76.2284E-03    -22.6926E-03     168.235E-03
            1203     16.6905E-03     106.555E-03    -4.12254E+06     107.546E+06     58.7169E+06    -5.75781E+06    -52.3239E-03     76.4417E-03    -24.1178E-03     128.011E-03    -54.0839E-03     78.3989E-03    -23.9742E-03     127.801E-03
            1204     885.790E-06     106.383E-03    -74.9487E+06    -38.3719E+06    -74.6938E+06     6.67773E+06    -15.6490E-03     31.3322E-03    -15.6832E-03     5.60999E-03    -15.8597E-03     31.3575E-03    -15.8924E-03     5.69620E-03
            1205     1.77188E-03     106.389E-03    -65.6502E+06    -33.1168E+06    -61.0801E+06     10.7635E+06    -15.6978E-03     31.4047E-03    -15.7069E-03     10.5495E-03    -15.8895E-03     31.4228E-03    -15.8691E-03     10.6885E-03
            1206     2.65767E-03     106.399E-03    -55.1592E+06    -31.8961E+06    -46.0959E+06     12.0655E+06    -15.8085E-03     31.5764E-03    -15.7679E-03     16.0767E-03    -15.9712E-03     31.5637E-03    -15.8722E-03     16.2325E-03
            1207     3.54355E-03     106.414E-03    -46.5785E+06    -30.3915E+06    -35.2659E+06     10.2886E+06    -15.9884E-03     31.8153E-03    -15.8269E-03     21.9994E-03    -16.1260E-03     31.7819E-03    -15.8916E-03     22.1324E-03
            1208     4.42907E-03     106.434E-03    -40.8194E+06    -28.7858E+06    -29.0219E+06     6.51191E+06    -16.2120E-03     32.0941E-03    -15.8821E-03     28.2751E-03    -16.3323E-03     32.0513E-03    -15.9263E-03     28.3593E-03
            1209     5.31473E-03     106.459E-03    -37.2203E+06    -27.3395E+06    -24.5134E+06     2.53079E+06    -16.4936E-03     32.4386E-03    -15.9451E-03     34.9620E-03    -16.6046E-03     32.3915E-03    -15.9740E-03     34.9945E-03
            1210     6.20004E-03     106.489E-03    -33.9568E+06    -25.4414E+06    -19.6252E+06    -1.09479E+06    -16.8920E-03     32.9180E-03    -16.0260E-03     42.1800E-03    -16.9970E-03     32.8690E-03    -16.0380E-03     42.1648E-03
            1211     7.08522E-03     106.526E-03    -29.7083E+06    -23.4383E+06    -13.7690E+06    -4.41743E+06    -17.4875E-03     33.6224E-03    -16.1349E-03     50.0538E-03    -17.5835E-03     33.5696E-03    -16.1267E-03     49.9941E-03
            1212     7.96978E-03     106.569E-03    -25.1922E+06    -21.8418E+06    -7.70031E+06    -7.82284E+06    -18.3489E-03     34.6305E-03    -16.2816E-03     58.6526E-03    -18.4356E-03     34.5725E-03    -16.2519E-03     58.5458E-03
            1213     8.85387E-03     106.620E-03    -21.6938E+06    -18.5206E+06    -1.66255E+06    -10.3484E+06    -19.5606E-03     36.0387E-03    -16.4780E-03     67.9791E-03    -19.6478E-03     35.9879E-03    -16.4280E-03     67.8341E-03
            1214     9.73683E-03     106.680E-03    -19.7949E+06    -17.1758E+06     2.81804E+06    -12.6082E+06    -21.2303E-03     37.9701E-03    -16.7398E-03     78.0071E-03    -21.3250E-03     37.9254E-03    -16.6721E-03     77.8232E-03
            1215     10.6185E-03     106.748E-03    -17.0993E+06    -16.2838E+06     6.07635E+06    -15.5576E+06    -23.4713E-03     40.5532E-03    -17.0820E-03     88.9195E-03    -23.5749E-03     40.5207E-03    -17.0032E-03     88.6813E-03
            1216     11.4984E-03     106.827E-03    -13.8483E+06    -14.9597E+06     9.04805E+06    -19.1017E+06    -26.4429E-03     43.9742E-03    -17.5313E-03     100.229E-03    -26.5663E-03     43.9692E-03    -17.4443E-03     99.9186E-03
            1217     12.3757E-03     106.916E-03    -12.1953E+06    -18.3142E+06     7.97666E+06    -22.0076E+06    -30.2665E-03     48.3744E-03    -18.1079E-03     111.177E-03    -30.4277E-03     48.4044E-03    -18.0238E-03     110.787E-03
            1218     13.2500E-03     107.014E-03    -11.1971E+06    -23.4505E+06     5.82659E+06    -21.8224E+06    -35.0714E-03     53.9212E-03    -18.8498E-03     122.782E-03    -35.3147E-03     54.0249E-03    -18.7704E-03     122.325E-03
            1219     14.1198E-03     107.126E-03    -9.04345E+06    -19.8355E+06     5.01669E+06    -24.2999E+06    -40.9921E-03     60.7676E-03    -19.7755E-03     137.260E-03    -41.4276E-03     61.0867E-03    -19.7086E-03     136.659E-03
            1220     14.9857E-03     107.253E-03    -6.71496E+06    -34.2714E+06    -7.51048E+06    -25.3008E+06    -48.2062E-03     69.0871E-03    -20.8810E-03     156.466E-03    -49.0676E-03     69.8257E-03    -20.8591E-03     155.676E-03
            1221     15.8434E-03     107.405E-03    -6.89753E+06     22.5990E+06     1.53468E+06    -15.9219E+06    -55.1821E-03     77.3773E-03    -22.1952E-03     178.861E-03    -57.1435E-03     79.3909E-03    -22.2103E-03     178.131E-03
            1222     16.7013E-03     107.581E-03    -4.17489E+06     98.8006E+06     54.7991E+06    -5.74630E+06    -56.8973E-03     80.7235E-03    -23.8262E-03     135.102E-03    -58.7281E-03     82.7321E-03    -23.6894E-03     134.753E-03
            1223     886.612E-06     107.360E-03    -88.5651E+06    -44.6923E+06    -89.6883E+06    -422.392E+03    -14.9031E-03     29.8062E-03    -14.9031E-03     5.39723E-03    -15.1510E-03     29.8413E-03    -15.1583E-03     5.39170E-03
            1224     1.77299E-03     107.367E-03    -80.7315E+06    -38.9273E+06    -80.1384E+06     419.407E+03    -14.8813E-03     29.7914E-03    -14.9101E-03     10.1542E-03    -15.1124E-03     29.8300E-03    -15.1373E-03     10.1595E-03
            1225     2.65976E-03     107.377E-03    -69.0617E+06    -34.7288E+06    -66.3978E+06     1.28430E+06    -14.9273E-03     29.8614E-03    -14.9341E-03     15.4487E-03    -15.1260E-03     29.8842E-03    -15.1156E-03     15.4652E-03
            1226     3.54632E-03     107.392E-03    -56.3007E+06    -30.0507E+06    -53.7551E+06     1.08834E+06    -15.0528E-03     30.0152E-03    -14.9624E-03     21.1610E-03    -15.2128E-03     30.0245E-03    -15.1060E-03     21.1750E-03
            1227     4.43301E-03     107.412E-03    -45.0929E+06    -26.5741E+06    -42.1820E+06     72.6704E+03    -15.2840E-03     30.2924E-03    -15.0084E-03     27.3480E-03    -15.4098E-03     30.2861E-03    -15.1154E-03     27.3490E-03
            1228     5.31922E-03     107.437E-03    -36.3291E+06    -24.4139E+06    -30.9248E+06    -1.59224E+06    -15.6272E-03     30.7103E-03    -15.0831E-03     34.0718E-03    -15.7287E-03     30.6858E-03    -15.1496E-03     34.0511E-03
            1229     6.20539E-03     107.468E-03    -29.9213E+06    -21.5356E+06    -21.7896E+06    -4.11388E+06    -16.0955E-03     31.2730E-03    -15.1775E-03     41.4123E-03    -16.1826E-03     31.2406E-03    -15.2118E-03     41.3585E-03
            1230     7.09109E-03     107.505E-03    -25.5402E+06    -19.4846E+06    -14.7134E+06    -7.04863E+06    -16.7213E-03     32.0180E-03    -15.2967E-03     49.4362E-03    -16.8004E-03     31.9799E-03    -15.3050E-03     49.3433E-03
            1231     7.97656E-03     107.549E-03    -22.5078E+06    -17.6339E+06    -8.31366E+06    -9.52010E+06    -17.5814E-03     33.0336E-03    -15.4522E-03     58.2611E-03    -17.6590E-03     32.9928E-03    -15.4356E-03     58.1339E-03
            1232     8.86118E-03     107.602E-03    -19.7784E+06    -15.8065E+06    -1.62787E+06    -11.2804E+06    -18.7929E-03     34.4517E-03    -15.6589E-03     67.9742E-03    -18.8728E-03     34.4101E-03    -15.6154E-03     67.8197E-03
            1233     9.74499E-03     107.663E-03    -16.1445E+06    -12.8891E+06     4.62074E+06    -13.1569E+06    -20.4553E-03     36.3810E-03    -15.9257E-03     78.5488E-03    -20.5379E-03     36.3471E-03    -15.8605E-03     78.3618E-03
            1234     10.6274E-03     107.733E-03    -13.2648E+06    -10.9915E+06     8.99361E+06    -16.3940E+06    -22.7295E-03     39.0002E-03    -16.2707E-03     90.2389E-03    -22.8218E-03     38.9803E-03    -16.1906E-03     89.9955E-03
            1235     11.5080E-03     107.815E-03    -11.9782E+06    -10.3595E+06     11.7426E+06    -18.8551E+06    -25.8032E-03     42.5266E-03    -16.7234E-03     102.552E-03    -25.9220E-03     42.5322E-03    -16.6323E-03     102.252E-03
            1236     12.3862E-03     107.908E-03    -11.6706E+06    -14.2189E+06     11.3914E+06    -20.5047E+06    -29.9034E-03     47.2185E-03    -17.3151E-03     114.788E-03    -30.0661E-03     47.2564E-03    -17.2206E-03     114.424E-03
            1237     13.2604E-03     108.012E-03    -9.81049E+06    -21.3659E+06     9.09409E+06    -23.2455E+06    -35.2175E-03     53.3014E-03    -18.0839E-03     127.961E-03    -35.4555E-03     53.4028E-03    -17.9932E-03     127.491E-03
            1238     14.1309E-03     108.130E-03    -7.32122E+06    -13.0854E+06     9.77057E+06    -25.4537E+06    -41.7672E-03     60.8260E-03    -19.0588E-03     144.030E-03    -42.2076E-03     61.1663E-03    -18.9804E-03     143.410E-03
            1239     14.9949E-03     108.266E-03    -8.87552E+06    -38.7463E+06    -5.17859E+06    -24.0986E+06    -49.4091E-03     69.6468E-03    -20.2377E-03     164.732E-03    -50.2790E-03     70.3635E-03    -20.1945E-03     163.936E-03
            1240     15.8556E-03     108.425E-03    -9.79287E+06     10.8561E+06     489.472E+03    -16.1871E+06    -57.2277E-03     78.8567E-03    -21.6290E-03     187.295E-03    -59.2224E-03     80.8550E-03    -21.6281E-03     186.475E-03
            1241     16.7073E-03     108.608E-03    -6.89163E+06     91.8335E+06     52.7187E+06    -8.16203E+06    -62.5448E-03     85.9825E-03    -23.4377E-03     141.903E-03    -64.4463E-03     88.0345E-03    -23.2973E-03     141.345E-03
            1242     886.777E-06     108.337E-03    -76.2663E+06    -40.6899E+06    -75.3560E+06    -3.92695E+06    -14.4891E-03     28.9769E-03    -14.4879E-03     5.14462E-03    -14.7021E-03     28.9935E-03    -14.6950E-03     5.09373E-03
            1243     1.77396E-03     108.343E-03    -73.7772E+06    -37.0243E+06    -71.8009E+06    -6.06986E+06    -14.4815E-03     28.9724E-03    -14.4909E-03     9.70663E-03    -14.6927E-03     28.9985E-03    -14.6892E-03     9.62792E-03
            1244     2.66080E-03     108.353E-03    -69.3693E+06    -33.0192E+06    -66.5580E+06    -7.91144E+06    -14.4863E-03     28.9785E-03    -14.4922E-03     14.6674E-03    -14.6889E-03     29.0106E-03    -14.6765E-03     14.5648E-03
            1245     3.54798E-03     108.369E-03    -62.9706E+06    -28.1048E+06    -60.6042E+06    -9.27190E+06    -14.5022E-03     28.9913E-03    -14.4890E-03     19.9739E-03    -14.6886E-03     29.0300E-03    -14.6600E-03     19.8537E-03
            1246     4.43500E-03     108.388E-03    -54.7957E+06    -24.7019E+06    -52.7393E+06    -10.1221E+06    -14.5984E-03     29.0951E-03    -14.4967E-03     25.8031E-03    -14.7602E-03     29.1277E-03    -14.6451E-03     25.6720E-03
            1247     5.32225E-03     108.414E-03    -45.1946E+06    -21.9104E+06    -43.0133E+06    -10.9026E+06    -14.8561E-03     29.3841E-03    -14.5280E-03     32.3334E-03    -14.9881E-03     29.4026E-03    -14.6458E-03     32.1922E-03
            1248     6.20902E-03     108.445E-03    -35.5777E+06    -18.8582E+06    -33.0122E+06    -11.4432E+06    -15.3098E-03     29.8996E-03    -14.5897E-03     39.6645E-03    -15.4129E-03     29.9051E-03    -14.6759E-03     39.5161E-03
            1249     7.09551E-03     108.483E-03    -27.5645E+06    -16.4533E+06    -21.4609E+06    -11.7978E+06    -15.9695E-03     30.6709E-03    -14.7014E-03     47.8150E-03    -16.0532E-03     30.6606E-03    -14.7449E-03     47.6613E-03
            1250     7.98135E-03     108.528E-03    -21.3540E+06    -15.0088E+06    -9.84503E+06    -12.3934E+06    -16.8784E-03     31.7422E-03    -14.8637E-03     56.8549E-03    -16.9512E-03     31.7144E-03    -14.8602E-03     56.6917E-03
            1251     8.86673E-03     108.582E-03    -16.8252E+06    -13.6628E+06    -714.809E+03    -12.7832E+06    -18.0675E-03     33.1365E-03    -15.0690E-03     66.8106E-03    -18.1356E-03     33.0985E-03    -15.0284E-03     66.6389E-03
            1252     9.75113E-03     108.644E-03    -14.5223E+06    -9.10153E+06     6.06643E+06    -13.9942E+06    -19.6546E-03     34.9780E-03    -15.3234E-03     77.8284E-03    -19.7338E-03     34.9557E-03    -15.2588E-03     77.6343E-03
            1253     10.6344E-03     108.717E-03    -13.1671E+06    -6.05745E+06     11.3512E+06    -15.9901E+06    -21.9137E-03     37.5699E-03    -15.6563E-03     90.2314E-03    -22.0109E-03     37.5661E-03    -15.5716E-03     89.9991E-03
            1254     11.5157E-03     108.802E-03    -12.2271E+06    -7.58785E+06     14.3796E+06    -17.4805E+06    -25.0418E-03     41.1395E-03    -16.0977E-03     103.562E-03    -25.1616E-03     41.1474E-03    -15.9971E-03     103.288E-03
            1255     12.3944E-03     108.899E-03    -11.5357E+06    -10.1355E+06     15.4629E+06    -18.8665E+06    -29.2743E-03     45.9553E-03    -16.6810E-03     117.261E-03    -29.4367E-03     45.9962E-03    -16.5723E-03     116.929E-03
            1256     13.2699E-03     109.008E-03    -11.6370E+06    -13.6483E+06     13.9265E+06    -23.4060E+06    -35.0425E-03     52.4939E-03    -17.4515E-03     132.180E-03    -35.2947E-03     52.6165E-03    -17.3452E-03     131.717E-03
            1257     14.1397E-03     109.133E-03    -11.1687E+06    -10.9925E+06     12.8474E+06    -26.6173E+06    -42.2071E-03     60.6608E-03    -18.4536E-03     149.482E-03    -42.6583E-03     60.9967E-03    -18.3573E-03     148.850E-03
            1258     15.0056E-03     109.277E-03    -7.60899E+06    -43.1689E+06    -834.842E+03    -23.5940E+06    -50.5077E-03     70.1997E-03    -19.6920E-03     170.181E-03    -51.3362E-03     70.8514E-03    -19.6225E-03     169.378E-03
            1259     15.8633E-03     109.445E-03    -3.11194E+06     2.11035E+06     5.85919E+06    -18.0476E+06    -59.6589E-03     80.8364E-03    -21.1775E-03     193.450E-03    -61.5999E-03     82.7584E-03    -21.1467E-03     192.496E-03
            1260     16.7159E-03     109.641E-03     504.006E+03     81.5386E+06     55.6173E+06    -8.20278E+06    -67.4885E-03     90.6370E-03    -23.1486E-03     151.871E-03    -69.4266E-03     92.7078E-03    -22.9894E-03     151.117E-03
            1261     887.290E-06     109.313E-03    -55.1773E+06    -33.1173E+06    -54.2712E+06    -4.01333E+06    -14.4085E-03     28.8128E-03    -14.4042E-03     4.79748E-03    -14.5576E-03     28.8061E-03    -14.5475E-03     4.74531E-03
            1262     1.77409E-03     109.319E-03    -53.9921E+06    -30.5075E+06    -51.1580E+06    -7.17080E+06    -14.4869E-03     28.9163E-03    -14.4294E-03     9.04599E-03    -14.6385E-03     28.9164E-03    -14.5627E-03     8.95274E-03
            1263     2.66126E-03     109.330E-03    -52.3642E+06    -27.1184E+06    -47.1373E+06    -10.1703E+06    -14.5320E-03     28.9967E-03    -14.4646E-03     13.6211E-03    -14.6864E-03     29.0055E-03    -14.5851E-03     13.4888E-03
            1264     3.54814E-03     109.344E-03    -50.5461E+06    -23.3299E+06    -42.9834E+06    -12.7589E+06    -14.5516E-03     29.0408E-03    -14.4891E-03     18.4678E-03    -14.7085E-03     29.0600E-03    -14.5969E-03     18.3017E-03
            1265     4.43534E-03     109.364E-03    -48.3283E+06    -20.3134E+06    -39.7157E+06    -15.1716E+06    -14.5746E-03     29.0742E-03    -14.4996E-03     23.7450E-03    -14.7297E-03     29.1008E-03    -14.5987E-03     23.5476E-03
            1266     5.32242E-03     109.390E-03    -45.3151E+06    -18.0163E+06    -36.5049E+06    -17.4153E+06    -14.6626E-03     29.1684E-03    -14.5058E-03     29.6636E-03    -14.8107E-03     29.1976E-03    -14.5965E-03     29.4372E-03
            1267     6.20973E-03     109.421E-03    -40.8783E+06     -16.253E+06    -31.7289E+06    -18.6776E+06    -14.8946E-03     29.4209E-03    -14.5263E-03     36.4391E-03    -15.0302E-03     29.4457E-03    -14.6021E-03     36.1963E-03
            1268     7.09675E-03     109.459E-03    -34.6301E+06    -14.7747E+06    -24.2119E+06    -18.6717E+06    -15.3657E-03     29.9467E-03    -14.5809E-03     44.3165E-03    -15.4834E-03     29.9592E-03    -14.6304E-03     44.0735E-03
            1269     7.98338E-03     109.506E-03    -27.3774E+06    -13.0567E+06    -15.2558E+06    -18.3438E+06    -16.1557E-03     30.8360E-03    -14.6803E-03     53.4575E-03    -16.2533E-03     30.8343E-03    -14.6979E-03     53.2179E-03
            1270     8.86906E-03     109.560E-03    -19.8287E+06    -13.0475E+06    -5.09963E+06    -17.5708E+06    -17.3186E-03     32.1606E-03    -14.8421E-03     63.7292E-03    -17.3950E-03     32.1352E-03    -14.8199E-03     63.4973E-03
            1271     9.75410E-03     109.624E-03    -13.2359E+06    -7.85508E+06     6.53764E+06    -15.5655E+06    -18.9177E-03     33.9917E-03    -15.0739E-03     75.1523E-03    -18.9901E-03     33.9702E-03    -15.0107E-03     74.9412E-03
            1272     10.6379E-03     109.699E-03    -9.94830E+06    -3.04853E+06     15.0750E+06    -14.9266E+06    -21.1104E-03     36.4916E-03    -15.3812E-03     88.1011E-03    -21.1956E-03     36.4870E-03    -15.2870E-03     87.8883E-03
            1273     11.5199E-03     109.787E-03    -9.09835E+06    -5.36560E+06     19.1877E+06    -15.2749E+06    -24.1590E-03     39.9496E-03    -15.7906E-03     102.367E-03    -24.2632E-03     39.9470E-03    -15.6737E-03     102.131E-03
            1274     12.3997E-03     109.887E-03    -8.66579E+06    -5.53407E+06     21.6915E+06    -17.0169E+06    -28.5082E-03     44.8495E-03    -16.3413E-03     117.590E-03    -28.6560E-03     44.8843E-03    -16.2123E-03     117.295E-03
            1275     13.2753E-03     110.003E-03    -8.92057E+06    -6.27472E+06     21.6693E+06    -19.6868E+06    -34.6720E-03     51.7651E-03    -17.0931E-03     134.376E-03    -34.9095E-03     51.8863E-03    -16.9627E-03     133.976E-03
            1276     14.1465E-03     110.136E-03    -10.9838E+06    -5.30108E+06     20.3501E+06    -23.9737E+06    -42.4511E-03     60.5542E-03    -18.1031E-03     152.923E-03    -42.8846E-03     60.8717E-03    -17.9778E-03     152.338E-03
            1277     15.0098E-03     110.288E-03    -9.92916E+06    -42.7427E+06     5.07382E+06    -29.2972E+06    -51.6810E-03     71.0632E-03    -19.3821E-03     174.985E-03    -52.4616E-03     71.6432E-03    -19.2804E-03     174.103E-03
            1278     15.8676E-03     110.465E-03    -5.45491E+06    -12.3164E+06     819.319E+03    -23.2459E+06    -61.8288E-03     82.7326E-03    -20.9038E-03     200.838E-03    -63.6946E-03     84.5346E-03    -20.8739E-03     199.717E-03
            1279     16.7160E-03     110.672E-03    -6.54000E+06     66.3365E+06     47.4519E+06    -8.02189E+06    -70.7015E-03     93.6699E-03    -22.9683E-03     165.729E-03    -72.7492E-03     95.7953E-03    -22.8178E-03     164.802E-03
            1280     886.732E-06     110.289E-03    -35.2436E+06    -25.3483E+06    -34.4043E+06    -3.85127E+06    -14.8309E-03     29.5942E-03    -14.7633E-03     4.32773E-03    -14.9204E-03     29.5686E-03    -14.8475E-03     4.27740E-03
            1281     1.77377E-03     110.295E-03    -34.3206E+06    -23.1815E+06    -31.4446E+06    -6.88231E+06    -14.9265E-03     29.7582E-03    -14.8317E-03     8.08462E-03    -15.0191E-03     29.7378E-03    -14.9055E-03     7.99463E-03
            1282     2.66030E-03     110.306E-03    -33.1055E+06    -20.4650E+06    -27.1154E+06    -9.65729E+06    -15.0591E-03     29.9582E-03    -14.8990E-03     12.1307E-03    -15.1560E-03     29.9434E-03    -14.9569E-03     12.0043E-03
            1283     3.54704E-03     110.321E-03    -31.3635E+06    -17.0245E+06    -22.4969E+06    -12.2940E+06    -15.1992E-03     30.1688E-03    -14.9696E-03     16.3867E-03    -15.2993E-03     30.1623E-03    -15.0119E-03     16.2256E-03
            1284     4.43342E-03     110.341E-03    -29.3190E+06    -14.2252E+06    -17.6091E+06    -15.0244E+06    -15.3263E-03     30.3667E-03    -15.0404E-03     20.9835E-03    -15.4276E-03     30.3644E-03    -15.0654E-03     20.7865E-03
            1285     5.31995E-03     110.366E-03    -27.9044E+06    -12.7941E+06    -13.2481E+06    -17.1646E+06    -15.4059E-03     30.5093E-03    -15.1035E-03     26.0959E-03    -15.5088E-03     30.5061E-03    -15.1107E-03     25.8708E-03
            1286     6.20636E-03     110.397E-03    -27.7245E+06    -12.1542E+06    -10.6462E+06    -18.8544E+06    -15.4640E-03     30.6121E-03    -15.1481E-03     31.9492E-03    -15.5711E-03     30.6085E-03    -15.1435E-03     31.7019E-03
            1287     7.09301E-03     110.436E-03    -27.8421E+06    -11.7277E+06    -9.52679E+06    -20.4053E+06    -15.5858E-03     30.7627E-03    -15.1769E-03     38.8785E-03    -15.6961E-03     30.7600E-03    -15.1671E-03     38.6111E-03
            1288     7.97968E-03     110.482E-03    -26.5844E+06    -10.2875E+06    -8.00299E+06    -21.6804E+06    -15.9133E-03     31.1203E-03    -15.2070E-03     47.2594E-03    -16.0221E-03     31.1213E-03    -15.1935E-03     46.9754E-03
            1289     8.86629E-03     110.538E-03    -23.4793E+06    -11.8472E+06    -3.84505E+06    -22.1984E+06    -16.6930E-03     31.9711E-03    -15.2781E-03     57.2947E-03    -16.7908E-03     31.9547E-03    -15.2461E-03     57.0033E-03
            1290     9.75171E-03     110.603E-03    -17.9923E+06    -9.46133E+06     3.88447E+06    -20.7390E+06    -18.0903E-03     33.5060E-03    -15.4157E-03     69.0991E-03    -18.1779E-03     33.4850E-03    -15.3565E-03     68.8237E-03
            1291     10.6359E-03     110.680E-03    -11.3577E+06    -3.71361E+06     14.4828E+06    -16.9189E+06    -20.1965E-03     35.8449E-03    -15.6484E-03     82.7030E-03    -20.2811E-03     35.8340E-03    -15.5541E-03     82.4703E-03
            1292     11.5186E-03     110.770E-03    -6.49885E+06    -4.11077E+06     23.3441E+06    -14.8142E+06    -23.2343E-03     39.2357E-03    -16.0014E-03     97.8466E-03    -23.3220E-03     39.2181E-03    -15.8693E-03     97.6263E-03
            1293     12.3988E-03     110.875E-03    -4.49379E+06    -2.41365E+06     28.1808E+06    -14.4051E+06    -27.6400E-03     44.1359E-03    -16.4960E-03     114.525E-03    -27.7609E-03     44.1508E-03    -16.3451E-03     114.279E-03
            1294     13.2756E-03     110.996E-03    -6.06458E+06    -2.94012E+06     29.2003E+06    -14.2723E+06    -33.8443E-03     51.0413E-03    -17.1970E-03     133.408E-03    -34.0481E-03     51.1289E-03    -17.0379E-03     133.101E-03
            1295     14.1461E-03     111.137E-03    -8.29303E+06     5.34106E+06     31.1767E+06    -18.3153E+06    -41.7419E-03     59.8994E-03    -18.1574E-03     154.366E-03    -42.1321E-03     60.1895E-03    -17.9973E-03     153.886E-03
            1296     15.0119E-03     111.298E-03    -9.74164E+06    -29.4228E+06     17.7742E+06    -29.7213E+06    -51.0778E-03     70.4657E-03    -19.3878E-03     179.337E-03    -51.7814E-03     70.9797E-03    -19.2422E-03     178.488E-03
            1297     15.8690E-03     111.486E-03    -8.83887E+06    -31.2872E+06     1.05745E+06    -27.7130E+06    -62.2959E-03     83.1467E-03    -20.8509E-03     210.215E-03    -64.0161E-03     84.7232E-03    -20.7874E-03     208.999E-03
            1298     16.7197E-03     111.706E-03    -1.85500E+06     44.7661E+06     45.6956E+06    -7.91632E+06    -72.5914E-03     95.4819E-03    -22.8904E-03     183.384E-03    -74.6674E-03     97.5810E-03    -22.7242E-03     182.326E-03
            1299     886.179E-06     111.266E-03    -16.3645E+06    -17.8128E+06    -15.5254E+06    -3.71312E+06    -15.9151E-03     31.7117E-03    -15.7965E-03     3.66585E-03    -15.9486E-03     31.6690E-03    -15.8246E-03     3.61700E-03
            1300     1.77190E-03     111.273E-03    -15.6105E+06    -16.4516E+06    -12.6842E+06    -6.31506E+06    -16.0284E-03     31.9310E-03    -15.9026E-03     6.75525E-03    -16.0645E-03     31.8899E-03    -15.9196E-03     6.67195E-03
            1301     2.65787E-03     111.284E-03    -14.3962E+06    -14.1405E+06    -8.72585E+06    -8.88117E+06    -16.2587E-03     32.2570E-03    -15.9983E-03     10.0803E-03    -16.2980E-03     32.2200E-03    -16.0005E-03     9.96288E-03
            1302     3.54328E-03     111.299E-03    -12.9174E+06    -10.9182E+06    -4.14172E+06    -11.4545E+06    -16.5379E-03     32.6550E-03    -16.1172E-03     13.5556E-03    -16.5814E-03     32.6257E-03    -16.1033E-03     13.4038E-03
            1303     4.42868E-03     111.319E-03    -12.1930E+06    -8.90416E+06     147.973E+03    -13.1584E+06    -16.8035E-03     33.0529E-03    -16.2494E-03     17.3048E-03    -16.8530E-03     33.0268E-03    -16.2180E-03     17.1299E-03
            1304     5.31369E-03     111.344E-03    -12.2296E+06    -8.30210E+06     3.26137E+06    -14.3082E+06    -17.0145E-03     33.3927E-03    -16.3782E-03     21.4662E-03    -17.0701E-03     33.3657E-03    -16.3321E-03     21.2753E-03
            1305     6.19875E-03     111.376E-03    -12.1068E+06    -7.67541E+06     5.87737E+06    -15.5173E+06    -17.1291E-03     33.6208E-03    -16.4917E-03     26.2410E-03    -17.1894E-03     33.5935E-03    -16.4337E-03     26.0336E-03
            1306     7.08372E-03     111.414E-03    -11.8756E+06    -7.17380E+06     8.93417E+06    -17.1989E+06    -17.1455E-03     33.7309E-03    -16.5853E-03     31.8684E-03    -17.2105E-03     33.7019E-03    -16.5130E-03     31.6386E-03
            1307     7.96892E-03     111.460E-03    -12.9210E+06    -6.77372E+06     11.0047E+06    -18.4927E+06    -17.1106E-03     33.7607E-03    -16.6501E-03     38.7003E-03    -17.1850E-03     33.7328E-03    -16.5665E-03     38.4535E-03
            1308     8.85425E-03     111.515E-03    -15.0888E+06    -8.19370E+06     10.9002E+06    -20.0045E+06    -17.2102E-03     33.8993E-03    -16.6891E-03     47.2732E-03    -17.2938E-03     33.8682E-03    -16.6008E-03     47.0070E-03
            1309     9.73998E-03     111.582E-03    -16.5346E+06    -8.52239E+06     11.0352E+06    -21.5245E+06    -17.7997E-03     34.5322E-03    -16.7326E-03     58.1260E-03    -17.8912E-03     34.5025E-03    -16.6411E-03     57.8398E-03
            1310     10.6251E-03     111.660E-03    -14.5994E+06    -6.52501E+06     15.7127E+06    -20.4376E+06    -19.2812E-03     36.1210E-03    -16.8398E-03     71.6134E-03    -19.3755E-03     36.0947E-03    -16.7306E-03     71.3387E-03
            1311     11.5081E-03     111.752E-03    -9.68562E+06    -4.66978E+06     24.6038E+06    -17.2780E+06    -21.9824E-03     39.0493E-03    -17.0669E-03     87.6588E-03    -22.0760E-03     39.0208E-03    -16.9231E-03     87.4164E-03
            1312     12.3888E-03     111.860E-03    -5.61645E+06    -4.00818E+06     31.9901E+06    -13.7229E+06    -26.2011E-03     43.6501E-03    -17.4490E-03     106.205E-03    -26.3075E-03     43.6299E-03    -17.2751E-03     105.988E-03
            1313     13.2656E-03     111.988E-03    -2.94078E+06    -2.60651E+06     36.9813E+06    -10.4241E+06    -32.1275E-03     50.1613E-03    -18.0338E-03     127.281E-03    -32.2825E-03     50.1898E-03    -17.8408E-03     127.057E-03
            1314     14.1391E-03     112.135E-03    -4.04047E+06     13.6082E+06     42.9543E+06    -11.0119E+06    -39.3058E-03     58.1580E-03    -18.8522E-03     150.377E-03    -39.6185E-03     58.3809E-03    -18.6513E-03     150.048E-03
            1315     15.0054E-03     112.305E-03    -10.4700E+06    -7.10698E+06     34.1380E+06    -21.3990E+06    -47.6843E-03     67.5872E-03    -19.9029E-03     177.664E-03    -48.2805E-03     68.0230E-03    -19.7067E-03     177.013E-03
            1316     15.8684E-03     112.501E-03    -15.8800E+06    -38.6141E+06     7.83738E+06    -29.9610E+06    -59.1767E-03     80.3290E-03    -21.1523E-03     215.019E-03    -60.6305E-03     81.5683E-03    -21.0341E-03     213.859E-03
            1317     16.7192E-03     112.740E-03    -12.9728E+06     15.3976E+06     34.4615E+06    -18.0266E+06    -71.0744E-03     94.0221E-03    -22.9477E-03     199.962E-03    -73.0949E-03     95.9550E-03    -22.7789E-03     198.723E-03
            1318     884.321E-06     112.246E-03     2.12248E+06    -11.0731E+06     3.00211E+06    -3.13969E+06    -17.8081E-03     35.5923E-03    -17.7841E-03     2.75603E-03    -17.7860E-03     35.5295E-03    -17.7561E-03     2.71416E-03
            1319     1.76881E-03     112.253E-03     1.96852E+06    -10.5780E+06     4.67802E+06    -5.23319E+06    -18.0490E-03     35.9097E-03    -17.8606E-03     5.07157E-03    -18.0311E-03     35.8471E-03    -17.8247E-03     5.00138E-03
            1320     2.65270E-03     112.264E-03     2.23714E+06    -8.21138E+06     7.48018E+06    -7.70673E+06    -18.3758E-03     36.3707E-03    -17.9949E-03     7.50298E-03    -18.3642E-03     36.3156E-03    -17.9488E-03     7.39942E-03
            1321     3.53652E-03     112.280E-03     2.23310E+06    -5.97908E+06     10.5355E+06    -9.47444E+06    -18.7533E-03     36.9151E-03    -18.1617E-03     9.98988E-03    -18.7497E-03     36.8670E-03    -18.1036E-03     9.86193E-03
            1322     4.41976E-03     112.300E-03     2.12575E+06    -5.33700E+06     13.6183E+06    -10.2531E+06    -19.1550E-03     37.5065E-03    -18.3515E-03     12.6887E-03    -19.1578E-03     37.4578E-03    -18.2788E-03     12.5489E-03
            1323     5.30279E-03     112.326E-03     2.22898E+06    -4.51932E+06     16.8606E+06    -11.0872E+06    -19.5404E-03     38.0932E-03    -18.5528E-03     15.7198E-03    -19.5492E-03     38.0443E-03    -18.4652E-03     15.5675E-03
            1324     6.18533E-03     112.358E-03     2.07526E+06    -4.15810E+06     20.0575E+06    -12.1413E+06    -19.8549E-03     38.6107E-03    -18.7558E-03     19.2083E-03    -19.8704E-03     38.5598E-03    -18.6524E-03     19.0406E-03
            1325     7.06775E-03     112.396E-03     943.510E+03    -3.56106E+06     22.5562E+06    -12.7593E+06    -20.0308E-03     38.9753E-03    -18.9445E-03     23.3417E-03    -20.0573E-03     38.9262E-03    -18.8279E-03     23.1644E-03
            1326     7.95001E-03     112.441E-03    -425.983E+03    -3.96845E+06     24.4664E+06    -13.1859E+06    -20.0430E-03     39.1506E-03    -19.1076E-03     28.3854E-03    -20.0795E-03     39.0995E-03    -18.9789E-03     28.2014E-03
            1327     8.83255E-03     112.496E-03    -1.56689E+06    -3.72685E+06     26.6350E+06    -14.3439E+06    -19.9123E-03     39.1498E-03    -19.2375E-03     34.7357E-03    -19.9590E-03     39.0993E-03    -19.0966E-03     34.5360E-03
            1328     9.71530E-03     112.561E-03    -3.29002E+06    -5.07505E+06     27.8009E+06    -16.0197E+06    -19.7991E-03     39.1321E-03    -19.3330E-03     42.9576E-03    -19.8552E-03     39.0765E-03    -19.1818E-03     42.7364E-03
            1329     10.5985E-03     112.640E-03    -6.37267E+06    -5.98065E+06     27.8246E+06    -16.9469E+06    -20.0756E-03     39.4859E-03    -19.4103E-03     53.9270E-03    -20.1469E-03     39.4315E-03    -19.2533E-03     53.6940E-03
            1330     11.4819E-03     112.733E-03    -8.43697E+06    -5.63555E+06     30.2010E+06    -16.6654E+06    -21.2923E-03     40.8166E-03    -19.5243E-03     68.3905E-03    -21.3804E-03     40.7664E-03    -19.3529E-03     68.1594E-03
            1331     12.3636E-03     112.845E-03    -6.87599E+06    -7.27407E+06     35.1427E+06    -13.9817E+06    -24.0757E-03     43.8147E-03    -19.7391E-03     86.9941E-03    -24.1692E-03     43.7560E-03    -19.5428E-03     86.7891E-03
            1332     13.2424E-03     112.976E-03    -1.69499E+06    -3.87701E+06     43.1452E+06    -11.9654E+06    -28.6952E-03     48.8077E-03    -20.1125E-03     109.811E-03    -28.8051E-03     48.7734E-03    -19.8887E-03     109.606E-03
            1333     14.1156E-03     113.130E-03     3.73508E+06     10.6862E+06     53.3622E+06    -6.23939E+06    -34.8218E-03     55.5035E-03    -20.6816E-03     134.769E-03    -35.0104E-03     55.5894E-03    -20.4357E-03     134.574E-03
            1334     14.9876E-03     113.305E-03     288.608E+03     11.2937E+06     52.9392E+06    -4.39834E+06    -41.8944E-03     63.3330E-03    -21.4386E-03     162.966E-03    -42.2857E-03     63.6129E-03    -21.1907E-03     162.662E-03
            1335     15.8525E-03     113.511E-03    -9.66370E+06    -21.7950E+06     27.9465E+06    -18.4895E+06    -50.5537E-03     72.8606E-03    -22.3070E-03     205.855E-03    -51.5115E-03     73.6275E-03    -22.1216E-03     205.095E-03
            1336     16.7145E-03     113.762E-03    -8.71759E+06    -4.78461E+06     24.8672E+06    -23.4046E+06    -60.7777E-03     84.2438E-03    -23.4661E-03     211.852E-03    -62.3506E-03     85.7006E-03    -23.3222E-03     210.760E-03
            1337     881.961E-06     113.231E-03     15.3899E+06    -6.00518E+06     16.9062E+06    -1.82249E+06    -20.8324E-03     41.6908E-03    -20.8584E-03     1.74899E-03    -20.7716E-03     41.6137E-03    -20.7875E-03     1.72379E-03
            1338     1.76346E-03     113.238E-03     15.7510E+06    -5.55156E+06     18.2634E+06    -3.97882E+06    -21.2223E-03     42.1632E-03    -20.9409E-03     2.99604E-03    -21.1627E-03     42.0857E-03    -20.8644E-03     2.94130E-03
            1339     2.64483E-03     113.250E-03     15.5050E+06    -3.56234E+06     19.7403E+06    -5.68391E+06    -21.5974E-03     42.7176E-03    -21.1202E-03     4.26645E-03    -21.5443E-03     42.6484E-03    -21.0388E-03     4.18791E-03
            1340     3.52558E-03     113.266E-03     14.7606E+06    -2.77630E+06     21.9435E+06    -6.46698E+06    -22.0498E-03     43.3823E-03    -21.3325E-03     5.65031E-03    -22.0049E-03     43.3151E-03    -21.2402E-03     5.55971E-03
            1341     4.40600E-03     113.288E-03     14.0753E+06    -2.43158E+06     24.9539E+06    -7.19766E+06    -22.5873E-03     44.1669E-03    -21.5796E-03     7.17696E-03    -22.5510E-03     44.0983E-03    -21.4717E-03     7.07480E-03
            1342     5.28574E-03     113.314E-03     13.4587E+06    -1.99649E+06     28.2257E+06    -7.69920E+06    -23.1689E-03     45.0255E-03    -21.8566E-03     8.93766E-03    -23.1416E-03     44.9556E-03    -21.7321E-03     8.82667E-03
            1343     6.16502E-03     113.346E-03     12.4177E+06    -1.62580E+06     31.0076E+06    -7.87475E+06    -23.7533E-03     45.9081E-03    -22.1548E-03     10.9705E-03    -23.7364E-03     45.8380E-03    -22.0154E-03     10.8547E-03
            1344     7.04361E-03     113.384E-03     11.4298E+06    -1.81818E+06     33.4032E+06    -7.92903E+06    -24.2789E-03     46.7447E-03    -22.4659E-03     13.3903E-03    -24.2709E-03     46.6722E-03    -22.3128E-03     13.2712E-03
            1345     7.92183E-03     113.430E-03     10.6414E+06    -1.33014E+06     36.4173E+06    -8.44355E+06    -24.7077E-03     47.4909E-03    -22.7832E-03     16.3536E-03    -24.7098E-03     47.4183E-03    -22.6147E-03     16.2250E-03
            1346     8.79950E-03     113.484E-03     9.27932E+06    -1.43147E+06     38.9385E+06     -8.7612E+06    -24.9806E-03     48.0757E-03    -23.0951E-03     20.0622E-03    -24.9943E-03     48.0016E-03    -22.9117E-03     19.9270E-03
            1347     9.67697E-03     113.549E-03     6.81692E+06    -1.65515E+06     40.6601E+06    -9.21816E+06    -25.0035E-03     48.3916E-03    -23.3881E-03     24.9388E-03    -25.0332E-03     48.3184E-03    -23.1923E-03     24.7958E-03
            1348     10.5545E-03     113.625E-03     4.58318E+06    -4.08793E+06     41.8037E+06    -9.88781E+06    -24.7566E-03     48.4084E-03    -23.6518E-03     31.6267E-03    -24.7971E-03     48.3255E-03    -23.4435E-03     31.4742E-03
            1349     11.4322E-03     113.718E-03     2.43775E+06    -3.93229E+06     43.2035E+06    -10.5793E+06    -24.4462E-03     48.3256E-03    -23.8794E-03     41.0579E-03    -24.5012E-03     48.2458E-03    -23.6612E-03     40.8965E-03
            1350     12.3110E-03     113.828E-03     1.61537E+06    -7.55797E+06     44.2440E+06    -11.8825E+06    -24.6346E-03     48.7270E-03    -24.0924E-03     54.5532E-03    -24.6922E-03     48.6312E-03    -23.8625E-03     54.3747E-03
            1351     13.1894E-03     113.961E-03     2.75408E+06    -4.24200E+06     49.3337E+06    -12.2432E+06    -25.7437E-03     50.0739E-03    -24.3302E-03     72.9388E-03    -25.8141E-03     49.9928E-03    -24.0813E-03     72.7507E-03
            1352     14.0683E-03     114.117E-03     8.01878E+06     417.229E+03     56.8739E+06    -8.47783E+06    -28.2761E-03     52.9038E-03    -24.6277E-03     96.0148E-03    -28.3600E-03     52.8524E-03    -24.3556E-03     95.8534E-03
            1353     14.9396E-03     114.300E-03     17.9438E+06     8.88275E+06     65.1965E+06     2.44047E+06    -32.5477E-03     57.5555E-03    -25.0078E-03     124.256E-03    -32.6793E-03     57.5949E-03    -24.7207E-03     124.174E-03
            1354     15.8117E-03     114.505E-03     25.1116E+06     5.95292E+06     63.2367E+06    -235.055E+03    -36.8891E-03     62.3048E-03    -25.4158E-03     164.557E-03    -37.2347E-03     62.5781E-03    -25.1446E-03     164.317E-03
            1355     16.6868E-03     114.759E-03     17.8512E+06    -4.63777E+06     33.8062E+06    -11.6131E+06    -32.9768E-03     58.5062E-03    -25.5294E-03     186.997E-03    -33.6317E-03     59.1187E-03    -25.3795E-03     186.531E-03
            1356     878.088E-06     114.223E-03     25.5556E+06    -2.37988E+06     25.5938E+06    -1.36083E+06    -25.3421E-03     50.7452E-03    -25.4031E-03     73.4059E-06    -25.2490E-03     50.6583E-03    -25.3087E-03     54.4432E-06
            1357     1.75581E-03     114.231E-03     24.8837E+06    -1.92139E+06     26.2121E+06    -2.58239E+06    -25.6295E-03     51.0775E-03    -25.4480E-03     284.934E-06    -25.5414E-03     50.9927E-03    -25.3502E-03     248.564E-06
            1358     2.63304E-03     114.243E-03     23.6487E+06    -1.03630E+06     27.4321E+06    -3.06672E+06    -26.0433E-03     51.6553E-03    -25.6120E-03     426.423E-06    -25.9646E-03     51.5750E-03    -25.5076E-03     382.289E-06
            1359     3.51003E-03     114.260E-03     22.6136E+06    -838.644E+03     30.0807E+06    -3.35488E+06    -26.5970E-03     52.4444E-03    -25.8474E-03     632.254E-06    -26.5277E-03     52.3628E-03    -25.7286E-03     582.753E-06
            1360     4.38625E-03     114.282E-03     21.5639E+06    -547.310E+03     33.1517E+06    -3.53083E+06    -27.3149E-03     53.4609E-03    -26.1459E-03     865.911E-06    -27.2559E-03     53.3778E-03    -26.0106E-03     812.292E-06
            1361     5.26179E-03     114.309E-03     20.4102E+06    -512.279E+03     35.9360E+06    -3.65748E+06    -28.1738E-03     54.6793E-03    -26.5055E-03     1.12513E-03    -28.1248E-03     54.5941E-03    -26.3547E-03     1.06779E-03
            1362     6.13631E-03     114.342E-03     19.6101E+06    -663.926E+03     39.0986E+06    -3.51087E+06    -29.1411E-03     56.0673E-03    -26.9262E-03     1.42635E-03    -29.1009E-03     55.9779E-03    -26.7582E-03     1.36849E-03
            1363     7.00989E-03     114.382E-03     19.0554E+06    -299.900E+03     43.0471E+06    -3.69173E+06    -30.2283E-03     57.6365E-03    -27.4082E-03     1.77911E-03    -30.1977E-03     57.5440E-03    -27.2201E-03     1.71610E-03
            1364     7.88217E-03     114.428E-03     18.2044E+06    -189.242E+03     46.2853E+06    -3.56168E+06    -31.3675E-03     59.3126E-03    -27.9450E-03     2.21412E-03    -31.3466E-03     59.2171E-03    -27.7397E-03     2.14951E-03
            1365     8.75321E-03     114.483E-03     17.2453E+06    -176.076E+03     49.1366E+06    -3.40323E+06    -32.4576E-03     60.9895E-03    -28.5319E-03     2.80784E-03    -32.4465E-03     60.8913E-03    -28.3110E-03     2.74159E-03
            1366     9.62297E-03     114.547E-03     16.6815E+06    -591.137E+03     52.3944E+06    -3.00727E+06    -33.3446E-03     62.5053E-03    -29.1607E-03     3.72079E-03    -33.3416E-03     62.4011E-03    -28.9221E-03     3.65580E-03
            1367     10.4914E-03     114.624E-03     15.7586E+06    -1.04075E+06     55.0611E+06    -3.75390E+06    -33.7585E-03     63.5646E-03    -29.8061E-03     5.31339E-03    -33.7648E-03     63.4554E-03    -29.5521E-03     5.23524E-03
            1368     11.3593E-03     114.713E-03     14.6721E+06    -3.36940E+06     55.8031E+06    -4.08436E+06    -33.4777E-03     63.9123E-03    -30.4347E-03     8.17920E-03    -33.4888E-03     63.7918E-03    -30.1720E-03     8.09418E-03
            1369     12.2266E-03     114.821E-03     13.1496E+06    -2.29922E+06     57.6146E+06    -6.30898E+06    -32.2620E-03     63.2827E-03    -31.0207E-03     13.1527E-03    -32.2870E-03     63.1670E-03    -30.7483E-03     13.0380E-03
            1370     13.0950E-03     114.949E-03     10.8034E+06    -6.09111E+06     58.5275E+06    -7.03484E+06    -29.6044E-03     61.1175E-03    -31.5131E-03     21.2869E-03    -29.6383E-03     60.9860E-03    -31.2273E-03     21.1651E-03
            1371     13.9637E-03     115.102E-03     7.89561E+06    -1.03740E+06     59.6396E+06    -8.42171E+06    -25.9965E-03     57.8369E-03    -31.8404E-03     34.8691E-03    -26.0560E-03     57.7359E-03    -31.5521E-03     34.7333E-03
            1372     14.8411E-03     115.280E-03     8.07591E+06    -4.68791E+06     61.2643E+06    -5.87187E+06    -25.0129E-03     57.1016E-03    -32.0887E-03     54.0275E-03    -25.0818E-03     56.9922E-03    -31.7873E-03     53.9141E-03
            1373     15.7141E-03     115.490E-03     14.7346E+06     7.73379E+06     68.4617E+06    -662.602E+03    -19.5459E-03     51.7047E-03    -32.1588E-03     79.6383E-03    -19.6639E-03     51.7025E-03    -31.8491E-03     79.5598E-03
            1374     16.5868E-03     115.727E-03     3.77776E+06     11.1639E+06     39.2240E+06    -1.13770E+06    -1.26660E-03     32.7041E-03    -31.4375E-03     88.5012E-03    -1.44031E-03     32.8043E-03    -31.2630E-03     88.4562E-03
            1375     16.6553E-03     57.4940E-03    -4.80243E+06     135.409E+06     81.6715E+06     1.27704E+06    -29.3058E-03     55.8834E-03    -26.5776E-03     116.062E-03    -30.9085E-03     57.7129E-03    -26.3586E-03     116.518E-03
            1376     15.7798E-03     57.3313E-03    -7.41750E+06     121.513E+06     46.4455E+06     292.375E+03    -30.3884E-03     56.8047E-03    -26.4164E-03     146.111E-03    -32.1423E-03     58.8290E-03    -26.3496E-03     146.239E-03
            1377     14.9023E-03     57.2111E-03    -9.85950E+06     81.9407E+06     3.61551E+06    -1.41356E+06    -28.5413E-03     54.8143E-03    -26.2730E-03     112.089E-03    -29.3613E-03     55.8798E-03    -26.3595E-03     111.893E-03
            1378     14.0252E-03     57.1173E-03    -10.2048E+06     28.3341E+06    -8.12319E+06    -81.1015E+03    -27.8484E-03     54.1592E-03    -26.3108E-03     88.8739E-03    -28.2315E-03     54.6303E-03    -26.3777E-03     88.6825E-03
            1379     13.1487E-03     57.0414E-03    -9.95967E+06    -12.3403E+06    -4.33184E+06     1.32890E+06    -27.5485E-03     53.9508E-03    -26.4024E-03     76.6317E-03    -27.7475E-03     54.0833E-03    -26.3917E-03     76.4865E-03
            1380     12.2716E-03     56.9718E-03    -10.7214E+06    -32.7481E+06    -1.64400E+06     1.01460E+06    -27.4041E-03     53.8629E-03    -26.4588E-03     69.7337E-03    -27.5195E-03     53.8288E-03    -26.4040E-03     69.6124E-03
            1381     11.3950E-03     56.9086E-03    -11.8405E+06    -48.2051E+06    -2.08228E+06     1.04143E+06    -27.3605E-03     53.8502E-03    -26.4898E-03     64.4173E-03    -27.4231E-03     53.7057E-03    -26.4131E-03     64.3197E-03
            1382     10.5184E-03     56.8494E-03    -13.0616E+06    -59.4091E+06    -898.645E+03     908.607E+03    -27.2549E-03     53.7747E-03    -26.5198E-03     59.5760E-03    -27.2857E-03     53.5508E-03    -26.4192E-03     59.4974E-03
            1383     9.64182E-03     56.7952E-03    -14.3250E+06    -67.4852E+06     72.0597E+03     742.209E+03    -27.1375E-03     53.6817E-03    -26.5442E-03     54.8085E-03    -27.1483E-03     53.4018E-03    -26.4252E-03     54.7450E-03
            1384     8.76526E-03     56.7452E-03    -15.7348E+06    -74.6151E+06    -335.075E+03     523.726E+03    -27.0352E-03     53.5963E-03    -26.5610E-03     50.2393E-03    -27.0310E-03     53.2722E-03    -26.4317E-03     50.1874E-03
            1385     7.88865E-03     56.6997E-03    -17.3806E+06    -81.5348E+06    -1.05632E+06     361.260E+03    -26.9386E-03     53.5152E-03    -26.5767E-03     45.5568E-03    -26.9235E-03     53.1521E-03    -26.4385E-03     45.5148E-03
            1386     7.01211E-03     56.6586E-03    -19.2070E+06    -88.7481E+06    -2.80434E+06     321.210E+03    -26.8547E-03     53.4426E-03    -26.5879E-03     40.7411E-03    -26.8301E-03     53.0429E-03    -26.4454E-03     40.7085E-03
            1387     6.13552E-03     56.6223E-03    -21.2759E+06    -95.1423E+06    -6.08698E+06     233.466E+03    -26.7804E-03     53.3707E-03    -26.5903E-03     35.8341E-03    -26.7481E-03     52.9427E-03    -26.4519E-03     35.8086E-03
            1388     5.25903E-03     56.5905E-03    -23.4527E+06    -100.604E+06    -10.4712E+06     147.149E+03    -26.7108E-03     53.2966E-03    -26.5857E-03     30.8527E-03    -26.6722E-03     52.8480E-03    -26.4582E-03     30.8328E-03
            1389     4.38245E-03     56.5636E-03    -25.6420E+06    -107.660E+06    -15.1235E+06     77.5529E+03    -26.6564E-03     53.2387E-03    -26.5822E-03     25.7823E-03    -26.6098E-03     52.7627E-03    -26.4646E-03     25.7669E-03
            1390     3.50598E-03     56.5415E-03    -27.7266E+06    -112.888E+06    -20.1181E+06     19.5243E+03    -26.6153E-03     53.1891E-03    -26.5738E-03     20.6725E-03    -26.5630E-03     52.6959E-03    -26.4705E-03     20.6607E-03
            1391     2.62941E-03     56.5243E-03    -29.4770E+06    -116.655E+06    -24.8497E+06    -5.76502E+03    -26.5886E-03     53.1509E-03    -26.5622E-03     15.5735E-03    -26.5318E-03     52.6473E-03    -26.4746E-03     15.5650E-03
            1392     1.75300E-03     56.5119E-03    -30.9000E+06    -119.819E+06    -28.5405E+06    -38.1201E+03    -26.5614E-03     53.1150E-03    -26.5536E-03     10.4934E-03    -26.5012E-03     52.6025E-03    -26.4778E-03     10.4875E-03
            1393     876.452E-06     56.5043E-03    -32.0257E+06    -121.031E+06    -31.2165E+06    -50.9239E+03    -26.5402E-03     53.0954E-03    -26.5552E-03     5.65581E-03    -26.4797E-03     52.5823E-03    -26.4894E-03     5.65236E-03
            1394     16.6594E-03     56.4938E-03    -4.80393E+06     135.084E+06     81.8469E+06    -196.280E+03    -29.4525E-03     55.9846E-03    -26.5322E-03     119.652E-03    -31.0773E-03     57.8346E-03    -26.3118E-03     120.103E-03
            1395     15.7799E-03     56.3343E-03    -5.55960E+06       122.5E+06     46.6902E+06     227.667E+03    -30.1289E-03     56.5090E-03    -26.3801E-03     149.182E-03    -31.8959E-03     58.5557E-03    -26.3162E-03     149.328E-03
            1396     14.9020E-03     56.2109E-03    -8.06313E+06     82.5294E+06     6.40865E+06     986.585E+03    -28.4950E-03     54.7612E-03    -26.2661E-03     113.250E-03    -29.3156E-03     55.8275E-03    -26.3421E-03     113.087E-03
            1397     14.0255E-03     56.1187E-03    -10.9652E+06     27.4626E+06    -5.79119E+06     326.488E+03    -27.7071E-03     54.0226E-03    -26.3154E-03     89.4701E-03    -28.0947E-03     54.4855E-03    -26.3683E-03     89.2864E-03
            1398     13.1482E-03     56.0415E-03    -11.8698E+06    -13.0911E+06    -5.38591E+06     521.491E+03    -27.5418E-03     53.9386E-03    -26.3968E-03     77.0699E-03    -27.7482E-03     54.0720E-03    -26.3875E-03     76.9145E-03
            1399     12.2718E-03     55.9727E-03    -11.8618E+06    -32.4146E+06    -1.65954E+06     1.21646E+06    -27.4610E-03     53.9150E-03    -26.4539E-03     69.9094E-03    -27.5829E-03     53.8844E-03    -26.3980E-03     69.7904E-03
            1400     11.3951E-03     55.9089E-03    -12.5552E+06    -48.1180E+06    -2.03322E+06     1.06763E+06    -27.3423E-03     53.8255E-03    -26.4831E-03     64.5504E-03    -27.4086E-03     53.6822E-03    -26.4053E-03     64.4535E-03
            1401     10.5185E-03     55.8500E-03    -13.1885E+06    -59.0173E+06    -406.741E+03     893.374E+03    -27.2391E-03     53.7540E-03    -26.5149E-03     59.6209E-03    -27.2718E-03     53.5315E-03    -26.4122E-03     59.5421E-03
            1402     9.64189E-03     55.7956E-03    -14.1842E+06    -67.2207E+06     317.377E+03     625.762E+03    -27.1209E-03     53.6597E-03    -26.5388E-03     54.8815E-03    -27.1316E-03     53.3805E-03    -26.4191E-03     54.8166E-03
            1403     8.76528E-03     55.7458E-03    -15.4994E+06    -74.3717E+06    -54.8911E+03     509.579E+03    -27.0297E-03     53.5861E-03    -26.5563E-03     50.2889E-03    -27.0250E-03     53.2625E-03    -26.4263E-03     50.2369E-03
            1404     7.88872E-03     55.7001E-03    -17.2106E+06    -81.3552E+06    -996.235E+03     394.585E+03    -26.9335E-03     53.5047E-03    -26.5712E-03     45.5976E-03    -26.9179E-03     53.1421E-03    -26.4333E-03     45.5561E-03
            1405     7.01211E-03     55.6592E-03    -19.2178E+06    -88.6597E+06    -2.99730E+06     279.222E+03    -26.8492E-03     53.4310E-03    -26.5817E-03     40.7763E-03    -26.8245E-03     53.0320E-03    -26.4403E-03     40.7432E-03
            1406     6.13559E-03     55.6227E-03    -21.2880E+06    -94.9773E+06    -6.25517E+06     212.534E+03    -26.7740E-03     53.3583E-03    -26.5843E-03     35.8580E-03    -26.7418E-03     52.9315E-03    -26.4470E-03     35.8322E-03
            1407     5.25900E-03     55.5911E-03    -23.4323E+06    -100.562E+06    -10.5493E+06     180.762E+03    -26.7066E-03     53.2871E-03    -26.5805E-03     30.8668E-03    -26.6679E-03     52.8388E-03    -26.4534E-03     30.8473E-03
            1408     4.38252E-03     55.5641E-03    -25.6005E+06    -107.527E+06    -15.1456E+06     164.738E+03    -26.6545E-03     53.2312E-03    -26.5768E-03     25.7922E-03    -26.6078E-03     52.7559E-03    -26.4595E-03     25.7779E-03
            1409     3.50596E-03     55.5421E-03    -27.6496E+06    -112.808E+06    -20.0970E+06     81.7637E+03    -26.6115E-03     53.1796E-03    -26.5681E-03     20.6840E-03    -26.5590E-03     52.6867E-03    -26.4649E-03     20.6730E-03
            1410     2.62951E-03     55.5248E-03    -29.4243E+06    -116.630E+06    -24.8607E+06     40.0042E+03    -26.5842E-03     53.1403E-03    -26.5561E-03     15.5928E-03    -26.5271E-03     52.6369E-03    -26.4686E-03     15.5848E-03
            1411     1.75297E-03     55.5125E-03    -30.7562E+06    -119.769E+06    -28.5897E+06     16.4523E+03    -26.5634E-03     53.1079E-03    -26.5445E-03     10.5038E-03    -26.5025E-03     52.5956E-03    -26.4692E-03     10.4986E-03
            1412     876.528E-06     55.5049E-03    -31.4021E+06    -121.111E+06    -30.9696E+06    -75.2459E+03    -26.5445E-03     53.0767E-03    -26.5322E-03     5.70309E-03    -26.4811E-03     52.5619E-03    -26.4659E-03     5.69928E-03
            1413     16.6508E-03     55.4928E-03    -4.91213E+06     134.711E+06     80.6336E+06    -576.053E+03    -28.7373E-03     55.3229E-03    -26.5856E-03     119.502E-03    -30.3686E-03     57.1811E-03    -26.3706E-03     119.955E-03
            1414     15.7774E-03     55.3330E-03    -9.87339E+06     119.797E+06     45.9243E+06    -1.70178E+06    -30.8494E-03     57.2926E-03    -26.4431E-03     148.147E-03    -32.6430E-03     59.3431E-03    -26.3729E-03     148.250E-03
            1415     14.9025E-03     55.2118E-03    -9.64016E+06     81.5202E+06     8.44246E+06     225.497E+03    -28.8720E-03     55.1757E-03    -26.3037E-03     112.778E-03    -29.7059E-03     56.2403E-03    -26.3657E-03     112.599E-03
            1416     14.0248E-03     55.1196E-03    -8.77164E+06     27.9624E+06    -4.26013E+06     1.70378E+06    -27.8111E-03     54.1397E-03    -26.3286E-03     89.6063E-03    -28.1910E-03     54.6001E-03    -26.3777E-03     89.4395E-03
            1417     13.1484E-03     55.0419E-03    -10.2391E+06    -13.0832E+06    -3.73519E+06     1.26303E+06    -27.6253E-03     54.0325E-03    -26.4073E-03     77.1394E-03    -27.8264E-03     54.1617E-03    -26.3921E-03     76.9928E-03
            1418     12.2717E-03     54.9731E-03    -11.7909E+06    -32.5153E+06    -1.46863E+06     919.060E+03    -27.4935E-03     53.9496E-03    -26.4561E-03     69.8912E-03    -27.6152E-03     53.9182E-03    -26.3992E-03     69.7681E-03
            1419     11.3951E-03     54.9095E-03    -12.0878E+06    -47.5694E+06    -1.84070E+06     734.683E+03    -27.3607E-03     53.8427E-03    -26.4821E-03     64.6314E-03    -27.4257E-03     53.7013E-03    -26.4048E-03     64.5302E-03
            1420     10.5185E-03     54.8505E-03    -12.7717E+06    -59.1609E+06    -650.640E+03     690.713E+03    -27.2340E-03     53.7465E-03    -26.5125E-03     59.6992E-03    -27.2639E-03     53.5230E-03    -26.4114E-03     59.6180E-03
            1421     9.64188E-03     54.7963E-03    -13.9962E+06    -66.7146E+06     169.098E+03     736.406E+03    -27.1299E-03     53.6662E-03    -26.5363E-03     54.9376E-03    -27.1402E-03     53.3895E-03    -26.4184E-03     54.8742E-03
            1422     8.76530E-03     54.7462E-03    -15.6012E+06    -74.3078E+06    -475.514E+03     504.812E+03    -27.0332E-03     53.5862E-03    -26.5530E-03     50.3234E-03    -27.0285E-03     53.2637E-03    -26.4250E-03     50.2713E-03
            1423     7.88869E-03     54.7008E-03    -17.3032E+06    -81.1296E+06    -1.08141E+06     477.483E+03    -26.9366E-03     53.5055E-03    -26.5689E-03     45.6064E-03    -26.9217E-03     53.1443E-03    -26.4315E-03     45.5660E-03
            1424     7.01215E-03     54.6596E-03    -19.2310E+06    -88.4711E+06    -3.15367E+06     325.042E+03    -26.8455E-03     53.4243E-03    -26.5788E-03     40.7921E-03    -26.8209E-03     53.0265E-03    -26.4384E-03     40.7596E-03
            1425     6.13556E-03     54.6233E-03    -21.3840E+06    -94.9122E+06    -6.41014E+06     240.618E+03    -26.7689E-03     53.3510E-03    -26.5821E-03     35.8726E-03    -26.7370E-03     52.9248E-03    -26.4455E-03     35.8472E-03
            1426     5.25905E-03     54.5915E-03    -23.6239E+06    -100.520E+06    -10.6592E+06     249.260E+03    -26.7026E-03     53.2817E-03    -26.5791E-03     30.8803E-03    -26.6647E-03     52.8340E-03    -26.4524E-03     30.8617E-03
            1427     4.38248E-03     54.5647E-03    -25.8085E+06    -107.388E+06    -15.3363E+06     192.619E+03    -26.6518E-03     53.2270E-03    -26.5752E-03     25.8051E-03    -26.6062E-03     52.7530E-03    -26.4587E-03     25.7912E-03
            1428     3.50600E-03     54.5426E-03    -27.7788E+06    -112.661E+06    -20.2939E+06     91.4606E+03    -26.6103E-03     53.1767E-03    -26.5664E-03     20.7024E-03    -26.5583E-03     52.6850E-03    -26.4642E-03     20.6915E-03
            1429     2.62944E-03     54.5254E-03    -29.4123E+06    -116.622E+06    -24.8737E+06     31.7366E+03    -26.5765E-03     53.1334E-03    -26.5568E-03     15.6084E-03    -26.5194E-03     52.6300E-03    -26.4695E-03     15.6004E-03
            1430     1.75298E-03     54.5130E-03    -30.6498E+06    -119.675E+06    -28.5143E+06    -41.7275E+03    -26.5579E-03     53.1075E-03    -26.5496E-03     10.5160E-03    -26.4968E-03     52.5954E-03    -26.4742E-03     10.5100E-03
            1431     876.459E-06     54.5055E-03    -31.5588E+06    -121.187E+06    -30.9608E+06    -7.45684E+03    -26.5543E-03     53.0918E-03    -26.5375E-03     5.71317E-03    -26.4916E-03     52.5769E-03    -26.4708E-03     5.71023E-03
            1432     16.6573E-03     54.4941E-03    -2.05604E+06     137.041E+06     83.2088E+06     528.114E+03    -28.6360E-03     55.2144E-03    -26.5785E-03     118.062E-03    -30.2343E-03     57.0507E-03    -26.3581E-03     118.531E-03
            1433     15.7787E-03     54.3317E-03    -7.10349E+06     120.430E+06     43.9749E+06    -312.776E+03    -30.1069E-03     56.5444E-03    -26.4376E-03     147.302E-03    -31.8644E-03     58.5767E-03    -26.3820E-03     147.436E-03
            1434     14.9011E-03     54.2127E-03    -11.2828E+06     78.4201E+06     92.0510E+03    -1.29146E+06    -28.9353E-03     55.2314E-03    -26.2961E-03     112.229E-03    -29.7605E-03     56.2946E-03    -26.3930E-03     112.030E-03
            1435     14.0252E-03     54.1197E-03    -11.4669E+06     26.4842E+06    -9.26256E+06     647.715E+03    -28.0868E-03     54.4136E-03    -26.3268E-03     89.7144E-03    -28.4730E-03     54.8800E-03    -26.3949E-03     89.5313E-03
            1436     13.1483E-03     54.0428E-03    -10.3735E+06    -12.1647E+06    -4.55162E+06     1.81471E+06    -27.6894E-03     54.0989E-03    -26.4095E-03     77.3381E-03    -27.8913E-03     54.2340E-03    -26.3996E-03     77.1985E-03
            1437     12.2717E-03     53.9734E-03    -10.3820E+06    -31.9845E+06    -1.66183E+06     1.00504E+06    -27.5177E-03     53.9754E-03    -26.4578E-03     69.9634E-03    -27.6326E-03     53.9448E-03    -26.4047E-03     69.8416E-03
            1438     11.3951E-03     53.9101E-03    -11.5495E+06    -47.6172E+06    -2.20167E+06     897.736E+03    -27.3864E-03     53.8704E-03    -26.4840E-03     64.6201E-03    -27.4481E-03     53.7284E-03    -26.4092E-03     64.5210E-03
            1439     10.5184E-03     53.8510E-03    -12.9580E+06    -58.9166E+06    -981.308E+03     898.152E+03    -27.2609E-03     53.7744E-03    -26.5135E-03     59.7090E-03    -27.2917E-03     53.5529E-03    -26.4142E-03     59.6304E-03
            1440     9.64188E-03     53.7967E-03    -14.2828E+06    -66.6923E+06    -1.40245E+03     806.069E+03    -27.1454E-03     53.6822E-03    -26.5368E-03     54.9130E-03    -27.1569E-03     53.4063E-03    -26.4194E-03     54.8505E-03
            1441     8.76526E-03     53.7468E-03    -15.7595E+06    -73.8291E+06    -490.823E+03     728.494E+03    -27.0367E-03     53.5891E-03    -26.5524E-03     50.3097E-03    -27.0335E-03     53.2693E-03    -26.4250E-03     50.2605E-03
            1442     7.88874E-03     53.7012E-03    -17.5487E+06    -81.0927E+06    -1.21767E+06     429.882E+03    -26.9315E-03     53.4999E-03    -26.5684E-03     45.6076E-03    -26.9177E-03     53.1394E-03    -26.4314E-03     45.5665E-03
            1443     7.01212E-03     53.6603E-03    -19.5143E+06    -88.2025E+06    -3.15991E+06     414.931E+03    -26.8392E-03     53.4184E-03    -26.5792E-03     40.8011E-03    -26.8164E-03     53.0224E-03    -26.4388E-03     40.7697E-03
            1444     6.13559E-03     53.6238E-03    -21.6700E+06    -94.8209E+06    -6.62358E+06     281.023E+03    -26.7604E-03     53.3431E-03    -26.5827E-03     35.8939E-03    -26.7298E-03     52.9181E-03    -26.4469E-03     35.8690E-03
            1445     5.25900E-03     53.5922E-03    -23.7697E+06    -100.459E+06    -10.7146E+06     214.897E+03    -26.6972E-03     53.2788E-03    -26.5816E-03     30.9010E-03    -26.6601E-03     52.8318E-03    -26.4551E-03     30.8819E-03
            1446     4.38250E-03     53.5652E-03    -25.7726E+06    -107.203E+06    -15.3100E+06     142.874E+03    -26.6498E-03     53.2287E-03    -26.5789E-03     25.8255E-03    -26.6043E-03     52.7555E-03    -26.4626E-03     25.8109E-03
            1447     3.50594E-03     53.5432E-03    -27.6912E+06    -112.551E+06    -20.2100E+06     50.6195E+03    -26.6144E-03     53.1856E-03    -26.5712E-03     20.7189E-03    -26.5622E-03     52.6942E-03    -26.4689E-03     20.7075E-03
            1448     2.62949E-03     53.5259E-03    -29.3635E+06    -116.564E+06    -24.8178E+06    -22.4495E+03    -26.5816E-03     53.1433E-03    -26.5617E-03     15.6029E-03    -26.5244E-03     52.6400E-03    -26.4742E-03     15.5942E-03
            1449     1.75295E-03     53.5136E-03    -30.7476E+06    -119.701E+06    -28.4862E+06     3.34223E+03    -26.5583E-03     53.1142E-03    -26.5559E-03     10.5184E-03    -26.4976E-03     52.6021E-03    -26.4802E-03     10.5131E-03
            1450     876.487E-06     53.5059E-03    -31.5225E+06    -121.214E+06    -31.0146E+06     27.7406E+03    -26.5592E-03     53.1064E-03    -26.5472E-03     5.68417E-03    -26.4961E-03     52.5913E-03    -26.4808E-03     5.68172E-03
            1451     16.6557E-03     53.4960E-03    -2.66401E+06     136.436E+06     82.7496E+06    -1.05689E+06    -28.5494E-03     55.1318E-03    -26.5824E-03     120.364E-03    -30.1640E-03     56.9814E-03    -26.3626E-03     120.817E-03
            1452     15.7773E-03     53.3334E-03    -5.36625E+06     120.783E+06     43.6219E+06     1.19659E+06    -30.1266E-03     56.5758E-03    -26.4492E-03     149.354E-03    -31.8821E-03     58.6145E-03    -26.3985E-03     149.506E-03
            1453     14.9012E-03     53.2116E-03    -9.42712E+06     78.8471E+06     1.58760E+06     1.93520E+06    -28.9241E-03     55.2470E-03    -26.3229E-03     112.030E-03    -29.7404E-03     56.3051E-03    -26.4156E-03     111.873E-03
            1454     14.0244E-03     53.1206E-03    -12.2354E+06     25.8050E+06    -8.19318E+06     444.657E+03    -28.2384E-03     54.5915E-03    -26.3531E-03     89.3820E-03    -28.6298E-03     55.0549E-03    -26.4138E-03     89.1945E-03
            1455     13.1480E-03     53.0427E-03    -12.4521E+06    -12.4069E+06    -5.70986E+06     127.065E+03    -27.8161E-03     54.2328E-03    -26.4167E-03     77.1764E-03    -28.0263E-03     54.3713E-03    -26.4092E-03     77.0142E-03
            1456     12.2716E-03     52.9741E-03    -12.2643E+06    -31.8225E+06    -2.20709E+06     1.07896E+06    -27.5498E-03     54.0109E-03    -26.4612E-03     69.7768E-03    -27.6735E-03     53.9845E-03    -26.4083E-03     69.6558E-03
            1457     11.3949E-03     52.9104E-03    -12.9537E+06    -47.5345E+06    -2.55111E+06     1.08061E+06    -27.4149E-03     53.8996E-03    -26.4847E-03     64.4509E-03    -27.4832E-03     53.7605E-03    -26.4097E-03     64.3540E-03
            1458     10.5185E-03     52.8515E-03    -13.5255E+06    -58.5255E+06    -765.858E+03     833.218E+03    -27.2738E-03     53.7866E-03    -26.5128E-03     59.5701E-03    -27.3083E-03     53.5675E-03    -26.4122E-03     59.4905E-03
            1459     9.64185E-03     52.7972E-03    -14.4213E+06    -66.6148E+06     123.794E+03     674.693E+03    -27.1310E-03     53.6659E-03    -26.5350E-03     54.8476E-03    -27.1435E-03     53.3904E-03    -26.4168E-03     54.7834E-03
            1460     8.76534E-03     52.7473E-03    -15.5772E+06    -73.6035E+06    -187.345E+03     624.952E+03    -27.0146E-03     53.5668E-03    -26.5522E-03     50.2810E-03    -27.0112E-03     53.2474E-03    -26.4238E-03     50.2305E-03
            1461     7.88867E-03     52.7018E-03    -17.1735E+06    -80.8310E+06    -917.075E+03     611.870E+03    -26.9131E-03     53.4831E-03    -26.5700E-03     45.6145E-03    -26.8982E-03     53.1229E-03    -26.4325E-03     45.5758E-03
            1462     7.01214E-03     52.6607E-03    -19.2526E+06    -88.1375E+06    -2.85188E+06     481.953E+03    -26.8263E-03     53.4099E-03    -26.5836E-03     40.8178E-03    -26.8027E-03     53.0133E-03    -26.4421E-03     40.7873E-03
            1463     6.13553E-03     52.6244E-03    -21.4167E+06    -94.4575E+06    -6.32139E+06     356.521E+03    -26.7503E-03     53.3392E-03    -26.5888E-03     35.9291E-03    -26.7193E-03     52.9151E-03    -26.4524E-03     35.9052E-03
            1464     5.25900E-03     52.5926E-03    -23.5966E+06    -100.373E+06    -10.6712E+06     105.730E+03    -26.6890E-03     53.2787E-03    -26.5897E-03     30.9455E-03    -26.6512E-03     52.8317E-03    -26.4633E-03     30.9250E-03
            1465     4.38243E-03     52.5658E-03    -25.6709E+06    -107.109E+06    -15.2151E+06     65.2321E+03    -26.6492E-03     53.2393E-03    -26.5901E-03     25.8751E-03    -26.6034E-03     52.7662E-03    -26.4736E-03     25.8595E-03
            1466     3.50595E-03     52.5436E-03    -27.6291E+06    -112.476E+06    -20.1453E+06     38.5295E+03    -26.6183E-03     53.2031E-03    -26.5848E-03     20.7701E-03    -26.5660E-03     52.7119E-03    -26.4824E-03     20.7586E-03
            1467     2.62942E-03     52.5265E-03    -29.3762E+06    -116.546E+06    -24.7968E+06     38.0426E+03    -26.5966E-03     53.1732E-03    -26.5766E-03     15.6508E-03    -26.5395E-03     52.6700E-03    -26.4890E-03     15.6428E-03
            1468     1.75297E-03     52.5141E-03    -30.7006E+06    -119.704E+06    -28.5190E+06     27.8121E+03    -26.5803E-03     53.1485E-03    -26.5682E-03     10.5563E-03    -26.5193E-03     52.6363E-03    -26.4927E-03     10.5513E-03
            1469     876.460E-06     52.5065E-03    -31.5840E+06    -121.195E+06    -30.9539E+06     7.69613E+03    -26.5984E-03     53.1269E-03    -26.5285E-03     5.69790E-03    -26.5358E-03     52.6120E-03    -26.4618E-03     5.69520E-03
            1470     16.6521E-03     52.4957E-03    -5.74602E+06     136.537E+06     78.6059E+06    -559.398E+03    -28.4734E-03     55.0425E-03    -26.5691E-03     117.592E-03    -30.0722E-03     56.8777E-03    -26.3657E-03     118.040E-03
            1471     15.7778E-03     52.3323E-03    -12.6648E+06     118.638E+06     40.6320E+06     164.728E+03    -30.1443E-03     56.5882E-03    -26.4439E-03     147.650E-03    -31.9099E-03     58.6121E-03    -26.3944E-03     147.780E-03
            1472     14.9009E-03     52.2128E-03    -12.8189E+06     78.9063E+06     4.21622E+06     701.417E+03    -28.8616E-03     55.1931E-03    -26.3315E-03     111.355E-03    -29.6970E-03     56.2509E-03    -26.4062E-03     111.181E-03
            1473     14.0244E-03     52.1199E-03    -10.5800E+06     27.5557E+06    -5.70643E+06     657.458E+03    -28.2349E-03     54.5845E-03    -26.3497E-03     88.4624E-03    -28.6226E-03     55.0491E-03    -26.4028E-03     88.2768E-03
            1474     13.1484E-03     52.0434E-03    -11.1993E+06    -13.5318E+06    -4.39803E+06     402.830E+03    -27.8035E-03     54.2133E-03    -26.4098E-03     76.4233E-03    -28.0072E-03     54.3419E-03    -26.3959E-03     76.2644E-03
            1475     12.2716E-03     51.9742E-03    -12.5233E+06    -32.0162E+06    -1.64370E+06     770.806E+03    -27.5122E-03     53.9630E-03    -26.4508E-03     69.4088E-03    -27.6374E-03     53.9349E-03    -26.3945E-03     69.2839E-03
            1476     11.3953E-03     51.9110E-03    -12.7242E+06    -47.0018E+06    -2.09541E+06     611.320E+03    -27.3609E-03     53.8345E-03    -26.4736E-03     64.2395E-03    -27.4294E-03     53.6971E-03    -26.3975E-03     64.1367E-03
            1477     10.5185E-03     51.8520E-03    -13.3127E+06    -58.5669E+06    -694.832E+03     504.270E+03    -27.2116E-03     53.7158E-03    -26.5042E-03     59.4960E-03    -27.2451E-03     53.4961E-03    -26.4034E-03     59.4124E-03
            1478     9.64203E-03     51.7978E-03    -14.3358E+06    -66.2878E+06     147.352E+03     504.336E+03    -27.0739E-03     53.6042E-03    -26.5303E-03     54.8533E-03    -27.0865E-03     53.3301E-03    -26.4127E-03     54.7870E-03
            1479     8.76526E-03     51.7478E-03    -15.7630E+06    -73.7070E+06    -374.889E+03     452.417E+03    -26.9701E-03     53.5223E-03    -26.5522E-03     50.3372E-03    -26.9671E-03     53.2028E-03    -26.4244E-03     50.2846E-03
            1480     7.88873E-03     51.7023E-03    -17.3365E+06    -80.7040E+06    -879.289E+03     571.199E+03    -26.8815E-03     53.4566E-03    -26.5751E-03     45.6735E-03    -26.8677E-03     53.0973E-03    -26.4373E-03     45.6344E-03
            1481     7.01204E-03     51.6613E-03    -19.1274E+06    -87.8837E+06    -2.74760E+06     512.293E+03    -26.8057E-03     53.3981E-03    -26.5924E-03     40.8914E-03    -26.7820E-03     53.0025E-03    -26.4510E-03     40.8614E-03
            1482     6.13549E-03     51.6248E-03    -21.1441E+06    -94.2256E+06    -6.07267E+06     317.307E+03    -26.7424E-03     53.3442E-03    -26.6017E-03     35.9916E-03    -26.7108E-03     52.9206E-03    -26.4648E-03     35.9673E-03
            1483     5.25888E-03     51.5932E-03    -23.3032E+06    -100.123E+06    -10.5288E+06     222.719E+03    -26.6850E-03     53.2904E-03    -26.6054E-03     31.0008E-03    -26.6463E-03     52.8440E-03    -26.4790E-03     30.9820E-03
            1484     4.38236E-03     51.5662E-03    -25.5491E+06    -107.096E+06    -15.2271E+06     73.8786E+03    -26.6498E-03     53.2592E-03    -26.6094E-03     25.9317E-03    -26.6034E-03     52.7861E-03    -26.4932E-03     25.9163E-03
            1485     3.50581E-03     51.5442E-03    -27.5728E+06    -112.444E+06    -20.1496E+06     87.3478E+03    -26.6292E-03     53.2372E-03    -26.6079E-03     20.8078E-03    -26.5767E-03     52.7460E-03    -26.5056E-03     20.7970E-03
            1486     2.62934E-03     51.5269E-03    -29.2908E+06    -116.515E+06    -24.7760E+06     74.9675E+03    -26.6176E-03     53.2199E-03    -26.6023E-03     15.6750E-03    -26.5602E-03     52.7167E-03    -26.5148E-03     15.6676E-03
            1487     1.75287E-03     51.5146E-03    -30.6131E+06    -119.633E+06    -28.4049E+06     51.1003E+03    -26.6118E-03     53.2054E-03    -26.5937E-03     10.5617E-03    -26.5506E-03     52.6933E-03    -26.5179E-03     10.5570E-03
            1488     876.463E-06     51.5070E-03    -31.5294E+06    -121.175E+06    -30.9479E+06     42.2497E+03    -26.6180E-03     53.1744E-03    -26.5565E-03     5.72706E-03    -26.5551E-03     52.6595E-03    -26.4898E-03     5.72481E-03
            1489     16.6602E-03     51.4981E-03    -5.63039E+06     136.282E+06     80.1595E+06     1.37743E+06    -29.3153E-03     55.8531E-03    -26.5378E-03     118.006E-03    -30.9142E-03     57.6833E-03    -26.3264E-03     118.469E-03
            1490     15.7789E-03     51.3344E-03    -8.73006E+06     121.116E+06     43.4513E+06     1.63112E+06    -30.0814E-03     56.4693E-03    -26.3879E-03     147.940E-03    -31.8301E-03     58.4909E-03    -26.3336E-03     148.092E-03
            1491     14.9019E-03     51.2121E-03    -10.6557E+06     79.2918E+06     1.85821E+06    -1.35128E+06    -28.6724E-03     54.9331E-03    -26.2606E-03     111.166E-03    -29.4885E-03     55.9874E-03    -26.3509E-03     110.967E-03
            1492     14.0258E-03     51.1207E-03    -10.9465E+06     25.9869E+06    -8.51156E+06    -703.549E+03    -28.0181E-03     54.3102E-03    -26.2921E-03     88.0308E-03    -28.3980E-03     54.7682E-03    -26.3565E-03     87.8300E-03
            1493     13.1486E-03     51.0436E-03    -10.3836E+06    -13.5839E+06    -4.61982E+06     1.03531E+06    -27.5892E-03     53.9612E-03    -26.3720E-03     76.2283E-03    -27.7874E-03     54.0877E-03    -26.3603E-03     76.0795E-03
            1494     12.2724E-03     50.9749E-03    -10.4500E+06    -31.8902E+06    -1.46254E+06     692.450E+03    -27.3547E-03     53.7786E-03    -26.4239E-03     69.3905E-03    -27.4696E-03     53.7475E-03    -26.3699E-03     69.2658E-03
            1495     11.3953E-03     50.9115E-03    -11.6305E+06    -46.7710E+06    -1.91889E+06     710.133E+03    -27.2123E-03     53.6709E-03    -26.4586E-03     64.3721E-03    -27.2757E-03     53.5326E-03    -26.3835E-03     64.2714E-03
            1496     10.5188E-03     50.8526E-03    -12.9468E+06    -58.4530E+06    -648.147E+03     597.154E+03    -27.1099E-03     53.6095E-03    -26.4996E-03     59.6369E-03    -27.1417E-03     53.3897E-03    -26.3993E-03     59.5549E-03
            1497     9.64186E-03     50.7984E-03    -14.3939E+06    -66.2225E+06     171.897E+03     543.168E+03    -27.0097E-03     53.5435E-03    -26.5338E-03     55.0094E-03    -27.0226E-03     53.2698E-03    -26.4161E-03     54.9439E-03
            1498     8.76531E-03     50.7484E-03    -15.8837E+06    -73.5526E+06    -362.803E+03     480.822E+03    -26.9341E-03     53.4954E-03    -26.5613E-03     50.4752E-03    -26.9320E-03     53.1769E-03    -26.4335E-03     50.4232E-03
            1499     7.88852E-03     50.7029E-03    -17.5505E+06    -80.7450E+06    -1.07919E+06     360.523E+03    -26.8570E-03     53.4452E-03    -26.5882E-03     45.7968E-03    -26.8439E-03     53.0863E-03    -26.4511E-03     45.7551E-03
            1500     7.01196E-03     50.6618E-03    -19.2733E+06    -87.5867E+06    -2.89533E+06     279.736E+03    -26.7960E-03     53.4052E-03    -26.6092E-03     40.9975E-03    -26.7733E-03     53.0115E-03    -26.4687E-03     40.9646E-03
            1501     6.13531E-03     50.6254E-03    -21.1910E+06    -94.1896E+06    -6.25534E+06     257.292E+03    -26.7442E-03     53.3661E-03    -26.6219E-03     36.0716E-03    -26.7125E-03     52.9430E-03    -26.4859E-03     36.0466E-03
            1502     5.25880E-03     50.5936E-03    -23.2953E+06    -99.9751E+06    -10.5585E+06     283.279E+03    -26.6966E-03     53.3252E-03    -26.6286E-03     31.0579E-03    -26.6580E-03     52.8796E-03    -26.5026E-03     31.0399E-03
            1503     4.38222E-03     50.5668E-03    -25.4010E+06    -106.937E+06    -15.3229E+06     240.166E+03    -26.6692E-03     53.3031E-03    -26.6339E-03     25.9777E-03    -26.6222E-03     52.8307E-03    -26.5186E-03     25.9645E-03
            1504     3.50574E-03     50.5446E-03    -27.4388E+06    -112.425E+06    -20.1921E+06     141.071E+03    -26.6560E-03     53.2897E-03    -26.6337E-03     20.8282E-03    -26.6027E-03     52.7985E-03    -26.5319E-03     20.8181E-03
            1505     2.62928E-03     50.5274E-03    -29.1564E+06    -116.424E+06    -24.6932E+06     136.207E+03    -26.6434E-03     53.2723E-03    -26.6288E-03     15.6838E-03    -26.5856E-03     52.7692E-03    -26.5412E-03     15.6772E-03
            1506     1.75285E-03     50.5149E-03    -30.5113E+06    -119.578E+06    -28.3326E+06     115.231E+03    -26.6343E-03     53.2562E-03    -26.6220E-03     10.5624E-03    -26.5728E-03     52.7441E-03    -26.5460E-03     10.5586E-03
            1507     876.425E-06     50.5074E-03    -31.3032E+06    -121.048E+06    -30.8306E+06     104.818E+03    -26.5929E-03     53.2345E-03    -26.6416E-03     5.69729E-03    -26.5293E-03     52.7197E-03    -26.5748E-03     5.69591E-03
            1508     16.6515E-03     50.4948E-03    -4.91517E+06     133.635E+06     81.9031E+06    -578.301E+03    -29.6521E-03     56.2070E-03    -26.5549E-03     117.771E-03    -31.2666E-03     58.0409E-03    -26.3320E-03     118.198E-03
            1509     15.7803E-03     50.3355E-03    -4.17829E+06     121.599E+06     48.5835E+06     282.326E+03    -30.8853E-03     57.2648E-03    -26.3795E-03     148.202E-03    -32.6398E-03     59.2952E-03    -26.3068E-03     148.322E-03
            1510     14.9033E-03     50.2128E-03    -5.31444E+06     81.5890E+06     7.06544E+06     2.46262E+06    -28.7225E-03     54.9474E-03    -26.2249E-03     111.788E-03    -29.5200E-03     55.9952E-03    -26.3002E-03     111.638E-03
            1511     14.0258E-03     50.1214E-03    -9.95273E+06     25.6970E+06    -7.00965E+06     1.05318E+06    -27.6717E-03     53.9287E-03    -26.2570E-03     88.3330E-03    -28.0460E-03     54.3792E-03    -26.3149E-03     88.1593E-03
            1512     13.1495E-03     50.0443E-03    -11.7156E+06    -13.8668E+06    -6.14294E+06    -5.34237E+03    -27.3181E-03     53.6621E-03    -26.3440E-03     76.6702E-03    -27.5195E-03     53.7905E-03    -26.3376E-03     76.5106E-03
            1513     12.2721E-03     49.9758E-03    -12.0962E+06    -32.0819E+06    -2.82413E+06     780.099E+03    -27.1497E-03     53.5629E-03    -26.4132E-03     69.8539E-03    -27.2706E-03     53.5352E-03    -26.3633E-03     69.7317E-03
            1514     11.3955E-03     49.9122E-03    -12.6709E+06    -46.5295E+06    -2.34624E+06     799.345E+03    -27.1003E-03     53.5638E-03    -26.4634E-03     64.7875E-03    -27.1688E-03     53.4288E-03    -26.3893E-03     64.6886E-03
            1515     10.5184E-03     49.8534E-03    -13.4689E+06    -58.2813E+06    -771.346E+03     746.978E+03    -27.0510E-03     53.5644E-03    -26.5135E-03     59.9540E-03    -27.0854E-03     53.3465E-03    -26.4133E-03     59.8743E-03
            1516     9.64184E-03     49.7990E-03    -14.5056E+06    -65.9692E+06     180.710E+03     501.821E+03    -26.9963E-03     53.5491E-03    -26.5528E-03     55.2524E-03    -27.0102E-03     53.2768E-03    -26.4352E-03     55.1865E-03
            1517     8.76498E-03     49.7491E-03    -15.7762E+06    -73.4997E+06    -375.288E+03     394.762E+03    -26.9329E-03     53.5162E-03    -26.5833E-03     50.6454E-03    -26.9303E-03     53.1978E-03    -26.4558E-03     50.5923E-03
            1518     7.88843E-03     49.7034E-03    -17.2919E+06    -80.4284E+06    -1.12434E+06     254.214E+03    -26.8681E-03     53.4800E-03    -26.6118E-03     45.9282E-03    -26.8540E-03     53.1222E-03    -26.4758E-03     45.8853E-03
            1519     7.01172E-03     49.6624E-03    -19.1907E+06     -87.635E+06    -3.12434E+06     148.160E+03    -26.8118E-03     53.4464E-03    -26.6346E-03     41.0947E-03    -26.7882E-03     53.0526E-03    -26.4953E-03     41.0603E-03
            1520     6.13518E-03     49.6258E-03    -21.2978E+06    -94.1549E+06    -6.52071E+06     246.600E+03    -26.7639E-03     53.4127E-03    -26.6488E-03     36.1381E-03    -26.7325E-03     52.9903E-03    -26.5139E-03     36.1131E-03
            1521     5.25858E-03     49.5942E-03    -23.4092E+06    -99.9544E+06    -10.8653E+06     264.318E+03    -26.7307E-03     53.3862E-03    -26.6555E-03     31.1012E-03    -26.6922E-03     52.9413E-03    -26.5310E-03     31.0831E-03
            1522     4.38211E-03     49.5671E-03    -25.4326E+06    -106.801E+06    -15.3569E+06     275.442E+03    -26.7090E-03     53.3691E-03    -26.6601E-03     25.9974E-03    -26.6622E-03     52.8974E-03    -26.5452E-03     25.9847E-03
            1523     3.50564E-03     49.5450E-03    -27.3197E+06    -112.312E+06    -20.1497E+06     247.925E+03    -26.6852E-03     53.3436E-03    -26.6583E-03     20.8403E-03    -26.6316E-03     52.8527E-03    -26.5566E-03     20.8316E-03
            1524     2.62920E-03     49.5277E-03    -29.0233E+06    -116.368E+06    -24.6862E+06     214.005E+03    -26.6669E-03     53.3201E-03    -26.6532E-03     15.6878E-03    -26.6085E-03     52.8171E-03    -26.5658E-03     15.6823E-03
            1525     1.75279E-03     49.5154E-03    -30.2984E+06    -119.417E+06    -28.2098E+06     180.966E+03    -26.6497E-03     53.2999E-03    -26.6502E-03     10.5670E-03    -26.5876E-03     52.7881E-03    -26.5742E-03     10.5640E-03
            1526     876.384E-06     49.5077E-03    -31.0930E+06    -120.848E+06    -30.5744E+06     99.8878E+03    -26.6163E-03     53.2987E-03    -26.6824E-03     5.68108E-03    -26.5522E-03     52.7842E-03    -26.6150E-03     5.67964E-03
            1527     16.6590E-03     49.4961E-03    -4.82805E+06     135.160E+06     78.2011E+06    -1.24992E+06    -29.3001E-03     55.8317E-03    -26.5316E-03     117.693E-03    -30.9089E-03     57.6765E-03    -26.3296E-03     118.109E-03
            1528     15.7786E-03     49.3335E-03    -10.6216E+06     118.148E+06     41.4885E+06    -1.85190E+06    -30.9599E-03     57.3211E-03    -26.3612E-03     147.498E-03    -32.7324E-03     59.3550E-03    -26.3097E-03     147.586E-03
            1529     14.9033E-03     49.2140E-03    -11.4155E+06     79.0038E+06     4.50542E+06     1.26907E+06    -28.7845E-03     55.0052E-03    -26.2206E-03     111.675E-03    -29.6048E-03     56.0523E-03    -26.2961E-03     111.510E-03
            1530     14.0266E-03     49.1221E-03    -9.15841E+06     28.3189E+06    -5.15830E+06     3.19862E+06    -27.4850E-03     53.7460E-03    -26.2610E-03     89.0521E-03    -27.8618E-03     54.2057E-03    -26.3145E-03     88.9089E-03
            1531     13.1488E-03     49.0457E-03    -11.1872E+06    -13.0638E+06    -4.61739E+06     1.65046E+06    -27.1338E-03     53.4974E-03    -26.3636E-03     77.2626E-03    -27.3364E-03     53.6272E-03    -26.3515E-03     77.1257E-03
            1532     12.2720E-03     48.9765E-03    -13.0102E+06    -32.2127E+06    -3.19990E+06     443.739E+03    -27.0716E-03     53.5100E-03    -26.4385E-03     70.4366E-03    -27.1968E-03     53.4840E-03    -26.3889E-03     70.3104E-03
            1533     11.3948E-03     48.9131E-03    -13.4347E+06    -46.3988E+06    -2.77227E+06     486.259E+03    -27.0971E-03     53.5909E-03    -26.4938E-03     65.1631E-03    -27.1692E-03     53.4586E-03    -26.4209E-03     65.0600E-03
            1534     10.5182E-03     48.8539E-03    -13.8807E+06    -58.0817E+06    -1.20352E+06     296.885E+03    -27.0776E-03     53.6231E-03    -26.5455E-03     60.2462E-03    -27.1139E-03     53.4074E-03    -26.4472E-03     60.1606E-03
            1535     9.64132E-03     48.7997E-03    -14.7111E+06    -65.8790E+06    -172.430E+03     334.896E+03    -27.0334E-03     53.6192E-03    -26.5858E-03     55.4436E-03    -27.0480E-03     53.3482E-03    -26.4698E-03     55.3755E-03
            1536     8.76479E-03     48.7495E-03    -16.0011E+06    -73.2475E+06    -718.906E+03     179.692E+03    -26.9759E-03     53.5919E-03    -26.6160E-03     50.7854E-03    -26.9742E-03     53.2755E-03    -26.4902E-03     50.7296E-03
            1537     7.88805E-03     48.7040E-03    -17.5287E+06    -80.3960E+06    -1.51617E+06     128.300E+03    -26.9184E-03     53.5619E-03    -26.6435E-03     46.0301E-03    -26.9050E-03     53.2052E-03    -26.5091E-03     45.9856E-03
            1538     7.01154E-03     48.6628E-03    -19.3837E+06    -87.6231E+06    -3.39062E+06     222.252E+03    -26.8636E-03     53.5283E-03    -26.6647E-03     41.1359E-03    -26.8405E-03     53.1352E-03    -26.5265E-03     41.1025E-03
            1539     6.13493E-03     48.6264E-03    -21.4383E+06    -94.1979E+06    -6.75622E+06     211.258E+03    -26.8176E-03     53.4935E-03    -26.6759E-03     36.1451E-03    -26.7864E-03     53.0714E-03    -26.5421E-03     36.1196E-03
            1540     5.25847E-03     48.5945E-03    -23.4623E+06    -99.8694E+06    -10.9575E+06     228.443E+03    -26.7833E-03     53.4621E-03    -26.6788E-03     31.0712E-03    -26.7451E-03     53.0178E-03    -26.5548E-03     31.0525E-03
            1541     4.38200E-03     48.5675E-03    -25.4491E+06    -106.785E+06    -15.4707E+06     225.656E+03    -26.7468E-03     53.4259E-03    -26.6790E-03     25.9458E-03    -26.7000E-03     52.9545E-03    -26.5647E-03     25.9324E-03
            1542     3.50558E-03     48.5453E-03    -27.3219E+06    -112.215E+06    -20.1672E+06     274.260E+03    -26.7147E-03     53.3886E-03    -26.6739E-03     20.7941E-03    -26.6612E-03     52.8982E-03    -26.5724E-03     20.7857E-03
            1543     2.62917E-03     48.5281E-03    -28.9076E+06    -116.232E+06    -24.6000E+06     251.794E+03    -26.6895E-03     53.3549E-03    -26.6654E-03     15.6262E-03    -26.6308E-03     52.8524E-03    -26.5780E-03     15.6211E-03
            1544     1.75275E-03     48.5156E-03    -30.1461E+06    -119.210E+06    -28.0589E+06     180.929E+03    -26.6692E-03     53.3271E-03    -26.6578E-03     10.4967E-03    -26.6068E-03     52.8158E-03    -26.5816E-03     10.4937E-03
            1545     876.351E-06     48.5081E-03    -30.9537E+06    -120.647E+06    -30.3805E+06     96.8468E+03    -26.6536E-03     53.3077E-03    -26.6542E-03     5.63647E-03    -26.5894E-03     52.7938E-03    -26.5863E-03     5.63498E-03
            1546     16.6523E-03     48.4948E-03    -4.24000E+06     135.858E+06     79.2788E+06     922.366E+03    -29.2619E-03     55.7885E-03    -26.5266E-03     118.891E-03    -30.8677E-03     57.6317E-03    -26.3211E-03     119.337E-03
            1547     15.7800E-03     48.3332E-03    -9.66922E+06     118.706E+06     40.2675E+06    -359.811E+03    -30.6197E-03     56.9757E-03    -26.3560E-03     146.941E-03    -32.3731E-03     58.9994E-03    -26.3128E-03     147.049E-03
            1548     14.9027E-03     48.2144E-03    -12.2653E+06     75.8896E+06    -1.27927E+06    -1.34420E+06    -28.4179E-03     54.6378E-03    -26.2199E-03     110.915E-03    -29.2254E-03     55.6749E-03    -26.3186E-03     110.723E-03
            1549     14.0251E-03     48.1233E-03    -11.9788E+06     26.3119E+06    -8.76612E+06     1.17512E+06    -27.3496E-03     53.6378E-03    -26.2882E-03     89.3449E-03    -27.7318E-03     54.0963E-03    -26.3528E-03     89.1772E-03
            1550     13.1485E-03     48.0465E-03    -10.0708E+06    -10.9599E+06    -3.88514E+06     2.89027E+06    -27.1223E-03     53.5314E-03    -26.4090E-03     77.7162E-03    -27.3246E-03     53.6702E-03    -26.3980E-03     77.5947E-03
            1551     12.2711E-03     47.9776E-03    -11.1979E+06    -30.9604E+06    -2.66976E+06     1.51115E+06    -27.1487E-03     53.6341E-03    -26.4855E-03     70.8258E-03    -27.2679E-03     53.6115E-03    -26.4377E-03     70.7125E-03
            1552     11.3945E-03     47.9136E-03    -12.7913E+06    -46.0687E+06    -2.62790E+06     232.460E+03    -27.1738E-03     53.7147E-03    -26.5410E-03     65.4063E-03    -27.2434E-03     53.5831E-03    -26.4688E-03     65.2995E-03
            1553     10.5175E-03     47.8547E-03    -13.7818E+06    -58.0865E+06    -1.49951E+06     141.569E+03    -27.1627E-03     53.7524E-03    -26.5897E-03     60.4252E-03    -27.1981E-03     53.5371E-03    -26.4930E-03     60.3373E-03
            1554     9.64104E-03     47.8000E-03    -14.9291E+06    -65.7810E+06    -370.683E+03     19.4844E+03    -27.1134E-03     53.7412E-03    -26.6278E-03     55.5463E-03    -27.1289E-03     53.4713E-03    -26.5127E-03     55.4739E-03
            1555     8.76429E-03     47.7501E-03    -16.1173E+06    -73.2049E+06    -742.930E+03     49.6088E+03    -27.0687E-03     53.7233E-03    -26.6545E-03     50.8199E-03    -27.0677E-03     53.4073E-03    -26.5287E-03     50.7622E-03
            1556     7.88784E-03     47.7043E-03    -17.7295E+06    -80.3799E+06    -1.51972E+06     44.9877E+03    -27.0158E-03     53.6917E-03    -26.6759E-03     45.9921E-03    -27.0034E-03     53.3354E-03    -26.5412E-03     45.9463E-03
            1557     7.01127E-03     47.6632E-03    -19.4556E+06    -87.7363E+06    -3.37887E+06     53.0004E+03    -26.9555E-03     53.6445E-03    -26.6890E-03     41.0390E-03    -26.9327E-03     53.2510E-03    -26.5505E-03     41.0031E-03
            1558     6.13486E-03     47.6266E-03    -21.2863E+06    -94.1403E+06    -6.62186E+06     142.226E+03    -26.8969E-03     53.5881E-03    -26.6912E-03     36.0276E-03    -26.8652E-03     53.1659E-03    -26.5570E-03     36.0010E-03
            1559     5.25841E-03     47.5948E-03    -23.2962E+06    -99.9005E+06    -10.9009E+06     158.367E+03    -26.8343E-03     53.5196E-03    -26.6853E-03     30.9400E-03    -26.7953E-03     53.0748E-03    -26.5611E-03     30.9203E-03
            1560     4.38200E-03     47.5678E-03    -25.3089E+06    -106.758E+06    -15.4296E+06     242.935E+03    -26.7805E-03     53.4584E-03    -26.6779E-03     25.8067E-03    -26.7331E-03     52.9869E-03    -26.5636E-03     25.7935E-03
            1561     3.50559E-03     47.5457E-03    -27.1965E+06    -112.163E+06    -20.0763E+06     249.003E+03    -26.7347E-03     53.4004E-03    -26.6657E-03     20.6695E-03    -26.6808E-03     52.9100E-03    -26.5640E-03     20.6606E-03
            1562     2.62919E-03     47.5283E-03    -28.8076E+06    -116.029E+06    -24.3412E+06     221.493E+03    -26.7007E-03     53.3500E-03    -26.6494E-03     15.5182E-03    -26.6421E-03     52.8480E-03    -26.5611E-03     15.5126E-03
            1563     1.75283E-03     47.5160E-03    -30.0532E+06    -119.066E+06    -27.9244E+06     157.426E+03    -26.6677E-03     53.2972E-03    -26.6295E-03     10.4130E-03    -26.6053E-03     52.7864E-03    -26.5529E-03     10.4097E-03
            1564     876.473E-06     47.5084E-03    -30.8513E+06    -120.395E+06    -30.2857E+06      85.587E+03    -26.6290E-03     53.2365E-03    -26.6074E-03     5.60102E-03    -26.5649E-03     52.7235E-03    -26.5395E-03     5.59936E-03
            1565     16.6589E-03     47.4951E-03    -3.85200E+06     135.994E+06     79.6695E+06     1.15661E+06    -29.4122E-03     55.9217E-03    -26.5095E-03     117.728E-03    -31.0033E-03     57.7509E-03    -26.3028E-03     118.186E-03
            1566     15.7790E-03     47.3329E-03    -5.89635E+06     120.791E+06     42.9715E+06     1.69441E+06    -29.8626E-03     56.2192E-03    -26.3567E-03     146.100E-03    -31.5874E-03     58.2273E-03    -26.3084E-03     146.254E-03
            1567     14.9023E-03     47.2159E-03    -9.72124E+06     76.0613E+06    -333.429E+03     208.686E+03    -27.8299E-03     54.0843E-03    -26.2543E-03     110.599E-03    -28.6192E-03     55.1100E-03    -26.3522E-03     110.433E-03
            1568     14.0251E-03     47.1243E-03    -11.8500E+06     22.6970E+06    -11.3572E+06     754.870E+03    -27.1346E-03     53.4763E-03    -26.3418E-03     89.9036E-03    -27.5063E-03     53.9195E-03    -26.4143E-03     89.7323E-03
            1569     13.1472E-03     47.0477E-03    -13.6894E+06    -10.6152E+06    -6.78732E+06     2.13652E+06    -27.2356E-03     53.7051E-03    -26.4695E-03     78.4419E-03    -27.4535E-03     53.8564E-03    -26.4682E-03     78.3094E-03
            1570     12.2707E-03     46.9779E-03    -13.2367E+06    -28.5427E+06    -2.78658E+06     1.17655E+06    -27.3322E-03     53.8815E-03    -26.5493E-03     71.1641E-03    -27.4653E-03     53.8743E-03    -26.5027E-03     71.0454E-03
            1571     11.3936E-03     46.9144E-03    -13.1344E+06    -46.0172E+06    -2.56671E+06     383.964E+03    -27.3291E-03     53.9280E-03    -26.5989E-03     65.6487E-03    -27.4007E-03     53.7970E-03    -26.5260E-03     65.5433E-03
            1572     10.5172E-03     46.8548E-03    -14.0544E+06    -57.6153E+06    -1.34754E+06    -2.05655E+03    -27.3253E-03     53.9644E-03    -26.6391E-03     60.4876E-03    -27.3631E-03     53.7517E-03    -26.5419E-03     60.3974E-03
            1573     9.64046E-03     46.8006E-03    -14.9571E+06    -65.9107E+06    -265.829E+03    -223.973E+03    -27.2722E-03     53.9394E-03    -26.6672E-03     55.4692E-03    -27.2878E-03     53.6687E-03    -26.5513E-03     55.3933E-03
            1574     8.76410E-03     46.7502E-03    -16.2495E+06    -73.2303E+06    -624.787E+03    -151.689E+03    -27.2178E-03     53.8999E-03    -26.6821E-03     50.6568E-03    -27.2177E-03     53.5839E-03    -26.5554E-03     50.5961E-03
            1575     7.88763E-03     46.7047E-03    -17.6279E+06    -80.3752E+06    -1.27278E+06    -151.070E+03    -27.1435E-03     53.8342E-03    -26.6906E-03     45.7568E-03    -27.1311E-03     53.4775E-03    -26.5549E-03     45.7080E-03
            1576     7.01129E-03     46.6633E-03    -19.3494E+06    -87.7825E+06    -3.34837E+06    -151.666E+03    -27.0584E-03     53.7478E-03    -26.6894E-03     40.7998E-03    -27.0351E-03     53.3540E-03    -26.5508E-03     40.7609E-03
            1577     6.13491E-03     46.6269E-03    -21.2828E+06    -94.3608E+06    -6.73691E+06    -9.19916E+03    -26.9626E-03     53.6413E-03    -26.6787E-03     35.7814E-03    -26.9305E-03     53.2182E-03    -26.5447E-03     35.7525E-03
            1578     5.25853E-03     46.5950E-03    -23.2805E+06    -99.8451E+06    -10.9238E+06     164.944E+03    -26.8645E-03     53.5267E-03    -26.6622E-03     30.7176E-03    -26.8255E-03     53.0823E-03    -26.5383E-03     30.6977E-03
            1579     4.38214E-03     46.5682E-03    -25.2721E+06    -106.814E+06    -15.2263E+06     163.152E+03    -26.7939E-03     53.4405E-03    -26.6466E-03     25.6189E-03    -26.7466E-03     52.9684E-03    -26.5312E-03     25.6044E-03
            1580     3.50576E-03     46.5459E-03    -27.1101E+06    -112.056E+06    -19.8844E+06     234.489E+03    -26.7273E-03     53.3519E-03    -26.6246E-03     20.5043E-03    -26.6734E-03     52.8616E-03    -26.5223E-03     20.4951E-03
            1581     2.62934E-03     46.5288E-03    -28.7137E+06    -115.899E+06    -24.2665E+06     171.856E+03    -26.6646E-03     53.2655E-03    -26.6009E-03     15.4081E-03    -26.6059E-03     52.7639E-03    -26.5126E-03     15.4018E-03
            1582     1.75293E-03     46.5163E-03    -29.9865E+06    -118.878E+06    -27.6685E+06     101.925E+03    -26.6145E-03     53.1948E-03    -26.5803E-03     10.3349E-03    -26.5524E-03     52.6845E-03    -26.5028E-03     10.3309E-03
            1583     876.424E-06     46.5090E-03    -30.7876E+06    -120.235E+06    -30.1663E+06    -1.91246E+03    -26.5848E-03     53.1375E-03    -26.5527E-03     5.56010E-03    -26.5207E-03     52.6250E-03    -26.4846E-03     5.55729E-03
            1584     16.6553E-03     46.4953E-03    -3.29685E+06     134.989E+06     79.2566E+06    -1.01683E+06    -29.1999E-03     55.7091E-03    -26.5092E-03     117.637E-03    -30.7936E-03     57.5405E-03    -26.3039E-03     118.084E-03
            1585     15.7800E-03     46.3347E-03    -4.53060E+06     119.734E+06     39.3716E+06     1.67592E+06    -28.9373E-03     55.3107E-03    -26.3734E-03     146.841E-03    -30.6394E-03     57.3076E-03    -26.3436E-03     147.017E-03
            1586     14.9014E-03     46.2169E-03    -8.29850E+06     75.1958E+06    -1.87055E+06     6.02716E+06    -27.1893E-03     53.5239E-03    -26.3346E-03     112.316E-03    -27.9562E-03     54.5337E-03    -26.4409E-03     112.236E-03
            1587     14.0228E-03     46.1265E-03    -15.6229E+06     24.9970E+06    -11.0988E+06     4.94522E+06    -27.3955E-03     53.8517E-03    -26.4562E-03     91.6911E-03    -27.7943E-03     54.3160E-03    -26.5253E-03     91.5716E-03
            1588     13.1462E-03     46.0475E-03    -16.7182E+06    -8.53250E+06    -7.29629E+06    -221.484E+03    -27.6973E-03     54.2622E-03    -26.5649E-03     79.2404E-03    -27.9338E-03     54.4302E-03    -26.5648E-03     79.0745E-03
            1589     12.2693E-03     45.9787E-03    -14.8251E+06    -28.9832E+06    -2.92212E+06    -950.064E+03    -27.6858E-03     54.3122E-03    -26.6264E-03     71.2536E-03    -27.8264E-03     54.3057E-03    -26.5775E-03     71.1057E-03
            1590     11.3930E-03     45.9143E-03    -14.2169E+06    -45.6152E+06    -2.80134E+06    -341.780E+03    -27.6589E-03     54.3113E-03    -26.6524E-03     65.5544E-03    -27.7366E-03     54.1847E-03    -26.5797E-03     65.4381E-03
            1591     10.5166E-03     45.8552E-03    -14.0812E+06    -57.4123E+06    -1.08517E+06    -593.036E+03    -27.5932E-03     54.2659E-03    -26.6726E-03     60.1465E-03    -27.6321E-03     54.0540E-03    -26.5744E-03     60.0474E-03
            1592     9.64038E-03     45.8005E-03    -14.8099E+06    -66.1204E+06    -257.007E+03    -469.604E+03    -27.4891E-03     54.1688E-03    -26.6797E-03     55.0524E-03    -27.5040E-03     53.8971E-03    -26.5637E-03     54.9722E-03
            1593     8.76405E-03     45.7505E-03    -15.9293E+06    -73.2770E+06    -613.309E+03    -389.045E+03    -27.3707E-03     54.0465E-03    -26.6758E-03     50.2257E-03    -27.3691E-03     53.7300E-03    -26.5495E-03     50.1610E-03
            1594     7.88783E-03     45.7046E-03    -17.4880E+06    -80.4468E+06    -1.40240E+06    -348.937E+03    -27.2401E-03     53.9086E-03    -26.6685E-03     45.3606E-03    -27.2268E-03     53.5517E-03    -26.5335E-03     45.3087E-03
            1595     7.01152E-03     45.6636E-03    -19.3539E+06    -87.9463E+06    -3.32972E+06    -193.042E+03    -27.1087E-03     53.7643E-03    -26.6556E-03     40.4573E-03    -27.0853E-03     53.3697E-03    -26.5167E-03     40.4174E-03
            1596     6.13521E-03     45.6271E-03    -21.4510E+06    -94.5391E+06    -6.70936E+06    -42.7958E+03    -26.9748E-03     53.6098E-03    -26.6350E-03     35.5037E-03    -26.9434E-03     53.1861E-03    -26.5004E-03     35.4741E-03
            1597     5.25885E-03     45.5954E-03    -23.4736E+06    -99.8906E+06    -10.7157E+06     4.67871E+03    -26.8559E-03     53.4666E-03    -26.6107E-03     30.5145E-03    -26.8181E-03     53.0219E-03    -26.4854E-03     30.4923E-03
            1598     4.38243E-03     45.5684E-03    -25.4340E+06    -106.809E+06    -15.0641E+06     90.3209E+03    -26.7620E-03     53.3494E-03    -26.5875E-03     25.4686E-03    -26.7157E-03     52.8774E-03    -26.4710E-03     25.4530E-03
            1599     3.50601E-03     45.5464E-03    -27.2799E+06    -112.014E+06    -19.7894E+06     45.6094E+03    -26.6757E-03     53.2357E-03    -26.5600E-03     20.3920E-03    -26.6229E-03     52.7458E-03    -26.4570E-03     20.3804E-03
            1600     2.62955E-03     45.5292E-03    -28.7287E+06    -115.779E+06    -24.1747E+06     44.1461E+03    -26.5954E-03     53.1295E-03    -26.5341E-03     15.3303E-03    -26.5371E-03     52.6283E-03    -26.4455E-03     15.3223E-03
            1601     1.75301E-03     45.5169E-03    -29.8366E+06    -118.768E+06    -27.5596E+06    -59.1115E+03    -26.5405E-03     53.0564E-03    -26.5159E-03     10.2732E-03    -26.4780E-03     52.5463E-03    -26.4382E-03     10.2671E-03
            1602     876.562E-06     45.5094E-03    -30.6300E+06    -120.256E+06    -29.9693E+06    -102.989E+03    -26.5163E-03     53.0142E-03    -26.4980E-03     5.52205E-03    -26.4517E-03     52.5011E-03    -26.4290E-03     5.51792E-03
            1603     16.6565E-03     45.4937E-03    -1.36153E+06     133.385E+06     79.7580E+06    -3.26712E+06    -26.7917E-03     53.4200E-03    -26.6284E-03     120.283E-03    -28.3661E-03     55.2320E-03    -26.4210E-03     120.731E-03
            1604     15.7775E-03     45.3375E-03    -11.1512E+06     107.422E+06     33.7318E+06     4.35819E+06    -28.9011E-03     55.4754E-03    -26.5743E-03     150.299E-03    -30.6110E-03     57.4292E-03    -26.5453E-03     150.525E-03
            1605     14.8972E-03     45.2198E-03    -18.7899E+06     76.3729E+06    -1.19678E+06     11.5618E+06    -28.3100E-03     54.8521E-03    -26.5421E-03     114.968E-03    -29.1478E-03     55.8977E-03    -26.6316E-03     114.953E-03
            1606     14.0205E-03     45.1256E-03    -16.5083E+06     36.2188E+06    -5.42656E+06     3.23423E+06    -28.5554E-03     55.1584E-03    -26.6031E-03     91.8636E-03    -28.9913E-03     55.6800E-03    -26.6588E-03     91.7106E-03
            1607     13.1446E-03     45.0478E-03    -12.5249E+06    -7.97138E+06    -5.41516E+06    -2.51629E+06    -28.4353E-03     55.0807E-03    -26.6453E-03     78.2568E-03    -28.6560E-03     55.2443E-03    -26.6427E-03     78.0558E-03
            1608     12.2687E-03     44.9782E-03    -12.6697E+06    -30.1122E+06    -2.22418E+06    -1.60299E+06    -28.1615E-03     54.8285E-03    -26.6669E-03     70.2268E-03    -28.2919E-03     54.8134E-03    -26.6160E-03     70.0668E-03
            1609     11.3927E-03     44.9143E-03    -12.9997E+06    -45.5501E+06    -2.36072E+06    -1.55395E+06    -28.0022E-03     54.6629E-03    -26.6607E-03     64.5606E-03    -28.0753E-03     54.5350E-03    -26.5876E-03     64.4260E-03
            1610     10.5168E-03     44.8549E-03    -13.3984E+06    -57.9043E+06    -927.654E+03    -1.12471E+06    -27.8075E-03     54.4640E-03    -26.6565E-03     59.3251E-03    -27.8429E-03     54.2490E-03    -26.5577E-03     59.2174E-03
            1611     9.64067E-03     44.8006E-03    -14.2123E+06    -66.3162E+06    -126.471E+03    -789.996E+03    -27.6205E-03     54.2647E-03    -26.6442E-03     54.3898E-03    -27.6326E-03     53.9914E-03    -26.5281E-03     54.3043E-03
            1612     8.76459E-03     44.7504E-03    -15.4210E+06    -73.5392E+06    -396.134E+03    -574.011E+03    -27.4291E-03     54.0558E-03    -26.6267E-03     49.7040E-03    -27.4251E-03     53.7371E-03    -26.4996E-03     49.6362E-03
            1613     7.88833E-03     44.7049E-03    -16.9903E+06    -80.5970E+06    -904.842E+03    -332.855E+03    -27.2423E-03     53.8530E-03    -26.6107E-03     44.9696E-03    -27.2271E-03     53.4940E-03    -26.4738E-03     44.9174E-03
            1614     7.01204E-03     44.6637E-03    -18.9760E+06    -88.2360E+06    -2.48001E+06    -145.228E+03    -27.0681E-03     53.6624E-03    -26.5942E-03     40.1625E-03    -27.0437E-03     53.2645E-03    -26.4512E-03     40.1231E-03
            1615     6.13566E-03     44.6275E-03    -20.9828E+06    -94.4241E+06    -5.63646E+06    -157.700E+03    -26.9180E-03     53.4890E-03    -26.5710E-03     35.3075E-03    -26.8859E-03     53.0636E-03    -26.4319E-03     35.2763E-03
            1616     5.25921E-03     44.5957E-03    -22.9999E+06    -100.056E+06    -9.73885E+06    -194.924E+03    -26.7982E-03     53.3426E-03    -26.5444E-03     30.3886E-03    -26.7592E-03     52.8950E-03    -26.4147E-03     30.3639E-03
            1617     4.38279E-03     44.5690E-03    -24.9069E+06    -106.792E+06    -14.0575E+06    -172.608E+03    -26.6908E-03     53.2105E-03    -26.5198E-03     25.3791E-03    -26.6433E-03     52.7363E-03    -26.3991E-03     25.3602E-03
            1618     3.50625E-03     44.5469E-03    -26.6658E+06    -112.022E+06    -18.7099E+06    -160.991E+03    -26.5974E-03     53.0909E-03    -26.4935E-03     20.3359E-03    -26.5430E-03     52.5984E-03    -26.3860E-03     20.3217E-03
            1619     2.62972E-03     44.5299E-03    -28.3410E+06    -115.814E+06    -23.5021E+06    -145.962E+03    -26.5263E-03     52.9932E-03    -26.4669E-03     15.2766E-03    -26.4669E-03     52.4903E-03    -26.3754E-03     15.2662E-03
            1620     1.75319E-03     44.5176E-03    -29.6901E+06    -118.745E+06    -27.5847E+06    -80.4441E+03    -26.4681E-03     52.9145E-03    -26.4464E-03     10.2540E-03    -26.4048E-03     52.4043E-03    -26.3691E-03     10.2476E-03
            1621     876.545E-06     44.5102E-03    -30.5366E+06    -120.431E+06    -30.0952E+06    -103.601E+03    -26.4323E-03     52.8782E-03    -26.4460E-03     5.50410E-03    -26.3668E-03     52.3643E-03    -26.3775E-03     5.49998E-03
            1622     16.6476E-03     44.4970E-03     5.08948E+06     128.693E+06     77.8034E+06     6.37700E+06    -25.4447E-03     52.2293E-03    -26.7846E-03     122.124E-03    -26.9804E-03     54.0143E-03    -26.5896E-03     122.701E-03
            1623     15.7670E-03     44.3372E-03    -23.4637E+06     102.047E+06     34.7521E+06     8.51438E+06    -29.8979E-03     56.6824E-03    -26.7845E-03     147.060E-03    -31.6883E-03     58.6509E-03    -26.7247E-03     147.312E-03
            1624     14.8945E-03     44.2178E-03    -21.6344E+06     83.5146E+06     8.99048E+06    -208.725E+03    -30.0468E-03     56.7231E-03    -26.6764E-03     110.479E-03    -30.9554E-03     57.8252E-03    -26.7211E-03     110.277E-03
            1625     14.0202E-03     44.1244E-03    -9.64498E+06     40.9238E+06    -992.603E+03    -3.65566E+06    -29.2645E-03     55.8770E-03    -26.6126E-03     88.3465E-03    -29.6835E-03     56.4100E-03    -26.6629E-03     88.0924E-03
            1626     13.1451E-03     44.0468E-03    -8.56065E+06    -8.87232E+06    -3.07020E+06    -1.73582E+06    -28.6584E-03     55.2767E-03    -26.6183E-03     75.6728E-03    -28.8627E-03     55.4279E-03    -26.6083E-03     75.4769E-03
            1627     12.2695E-03     43.9777E-03    -9.71667E+06    -30.3643E+06    -828.095E+03    -1.78645E+06    -28.3052E-03     54.9204E-03    -26.6152E-03     68.5984E-03    -28.4233E-03     54.8986E-03    -26.5613E-03     68.4330E-03
            1628     11.3938E-03     43.9138E-03    -10.5572E+06    -46.0176E+06    -834.681E+03    -1.42139E+06    -28.0274E-03     54.6245E-03    -26.5971E-03     63.4074E-03    -28.0902E-03     54.4889E-03    -26.5193E-03     63.2731E-03
            1629     10.5177E-03     43.8548E-03    -11.9600E+06    -58.5112E+06     57.1310E+03    -1.05630E+06    -27.7771E-03     54.3617E-03    -26.5846E-03     58.6157E-03    -27.8060E-03     54.1403E-03    -26.4821E-03     58.5082E-03
            1630     9.64162E-03     43.8004E-03    -13.4094E+06    -66.5055E+06     983.690E+03    -822.109E+03    -27.5554E-03     54.1249E-03    -26.5695E-03     53.9143E-03    -27.5648E-03     53.8478E-03    -26.4487E-03     53.8281E-03
            1631     8.76535E-03     43.7506E-03    -14.8869E+06    -73.9139E+06     707.252E+03    -654.822E+03    -27.3445E-03     53.8958E-03    -26.5513E-03     49.4150E-03    -27.3388E-03     53.5728E-03    -26.4190E-03     49.3463E-03
            1632     7.88906E-03     43.7050E-03    -16.5609E+06    -80.9387E+06     230.573E+03    -366.713E+03    -27.1442E-03     53.6806E-03    -26.5364E-03     44.7988E-03    -27.1279E-03     53.3175E-03    -26.3939E-03     44.7465E-03
            1633     7.01263E-03     43.6642E-03    -18.2928E+06    -88.2316E+06    -1.26026E+06    -308.323E+03    -26.9715E-03     53.4929E-03    -26.5214E-03     40.0644E-03    -26.9453E-03     53.0922E-03    -26.3732E-03     40.0230E-03
            1634     6.13614E-03     43.6279E-03    -20.2602E+06    -94.4424E+06    -4.35645E+06    -359.695E+03    -26.8310E-03     53.3314E-03    -26.5005E-03     35.2440E-03    -26.7971E-03     52.9030E-03    -26.3559E-03     35.2104E-03
            1635     5.25966E-03     43.5963E-03    -22.3644E+06    -100.120E+06    -8.75600E+06    -349.498E+03    -26.7072E-03     53.1821E-03    -26.4749E-03     30.3338E-03    -26.6664E-03     52.7318E-03    -26.3411E-03     30.3073E-03
            1636     4.38306E-03     43.5695E-03    -24.5879E+06    -106.884E+06    -13.6125E+06    -322.416E+03    -26.6045E-03     53.0557E-03    -26.4512E-03     25.3307E-03    -26.5559E-03     52.5798E-03    -26.3286E-03     25.3101E-03
            1637     3.50650E-03     43.5477E-03    -26.7495E+06    -112.112E+06    -18.8044E+06    -271.804E+03    -26.5207E-03     52.9462E-03    -26.4255E-03     20.2976E-03    -26.4665E-03     52.4535E-03    -26.3182E-03     20.2821E-03
            1638     2.62990E-03     43.5305E-03    -28.5614E+06    -115.989E+06    -23.7108E+06    -175.933E+03    -26.4513E-03     52.8524E-03    -26.4012E-03     15.2389E-03    -26.3925E-03     52.3493E-03    -26.3101E-03     15.2282E-03
            1639     1.75325E-03     43.5184E-03    -29.9041E+06    -118.840E+06    -27.6211E+06    -73.8208E+03    -26.4010E-03     52.7846E-03    -26.3836E-03     10.2298E-03    -26.3386E-03     52.2742E-03    -26.3060E-03     10.2236E-03
            1640     876.657E-06     43.5109E-03    -30.7032E+06    -120.498E+06    -30.2085E+06    -8.30778E+03    -26.3605E-03     52.7527E-03    -26.3922E-03     5.52113E-03    -26.2956E-03     52.2389E-03    -26.3240E-03     5.51829E-03
            1641     16.6509E-03     43.5029E-03    -1.68020E+06     125.588E+06     78.3284E+06     13.6402E+06    -28.9812E-03     55.7791E-03    -26.7978E-03     117.701E-03    -30.5614E-03     57.5715E-03    -26.5859E-03     118.357E-03
            1642     15.7765E-03     43.3353E-03    -9.18941E+06     119.437E+06     50.0117E+06     3.08881E+06    -30.6742E-03     57.3514E-03    -26.6773E-03     143.227E-03    -32.4559E-03     59.3795E-03    -26.5871E-03     143.384E-03
            1643     14.9000E-03     43.2166E-03    -2.21112E+06     87.7888E+06     15.2305E+06    -8.91089E+06    -29.5911E-03     56.0989E-03    -26.5078E-03     107.451E-03    -30.4215E-03     57.1888E-03    -26.5557E-03     107.130E-03
            1644     14.0238E-03     43.1234E-03    -5.33806E+06     33.7324E+06    -526.364E+03    -4.79117E+06    -28.7599E-03     55.2283E-03    -26.4683E-03     86.6742E-03    -29.1451E-03     55.7158E-03    -26.5121E-03     86.4069E-03
            1645     13.1476E-03     43.0466E-03    -6.52581E+06    -8.14940E+06     28.0038E+03    -1.01722E+06    -28.2431E-03     54.7403E-03    -26.4971E-03     74.9960E-03    -28.4415E-03     54.8864E-03    -26.4757E-03     74.8110E-03
            1646     12.2714E-03     42.9771E-03    -7.20352E+06    -30.9572E+06     1.31108E+06    -1.27851E+06    -28.0135E-03     54.5188E-03    -26.5053E-03     68.2360E-03    -28.1203E-03     54.4863E-03    -26.4434E-03     68.0787E-03
            1647     11.3951E-03     42.9140E-03    -8.78195E+06    -46.7917E+06     1.41859E+06    -472.602E+03    -27.7888E-03     54.2892E-03    -26.5003E-03     63.2328E-03    -27.8442E-03     54.1432E-03    -26.4127E-03     63.1119E-03
            1648     10.5189E-03     42.8547E-03    -10.4556E+06    -58.3126E+06     2.12607E+06    -328.778E+03    -27.5846E-03     54.0797E-03    -26.4951E-03     58.5838E-03    -27.6087E-03     53.8535E-03    -26.3848E-03     58.4869E-03
            1649     9.64253E-03     42.8007E-03    -12.1005E+06    -66.7799E+06     2.79546E+06    -534.589E+03    -27.3792E-03     53.8672E-03    -26.4880E-03     53.9185E-03    -27.3840E-03     53.5839E-03    -26.3597E-03     53.8371E-03
            1650     8.76613E-03     42.7508E-03    -13.8943E+06    -74.0670E+06     2.19198E+06    -421.212E+03    -27.1930E-03     53.6693E-03    -26.4764E-03     49.4466E-03    -27.1839E-03     53.3417E-03    -26.3379E-03     49.3818E-03
            1651     7.88964E-03     42.7056E-03    -15.7003E+06    -81.1382E+06     1.26111E+06    -492.405E+03    -27.0254E-03     53.4912E-03    -26.4658E-03     44.8325E-03    -27.0058E-03     53.1242E-03    -26.3191E-03     44.7792E-03
            1652     7.01311E-03     42.6647E-03    -17.6326E+06    -88.1860E+06    -559.404E+03    -505.959E+03    -26.8827E-03     53.3358E-03    -26.4531E-03     40.0908E-03    -26.8542E-03     52.9332E-03    -26.3024E-03     40.0474E-03
            1653     6.13659E-03     42.6286E-03    -19.7463E+06    -94.6073E+06    -3.85740E+06    -475.314E+03    -26.7500E-03     53.1840E-03    -26.4340E-03     35.2493E-03    -26.7139E-03     52.7532E-03    -26.2875E-03     35.2147E-03
            1654     5.25997E-03     42.5970E-03     -22.081E+06    -100.293E+06    -8.44354E+06    -307.019E+03    -26.6253E-03     53.0357E-03    -26.4104E-03     30.3214E-03    -26.5832E-03     52.5836E-03    -26.2751E-03     30.2957E-03
            1655     4.38337E-03     42.5704E-03    -24.4382E+06    -107.002E+06    -13.6494E+06    -176.323E+03    -26.5306E-03     52.9182E-03    -26.3876E-03     25.3098E-03    -26.4810E-03     52.4415E-03    -26.2652E-03     25.2913E-03
            1656     3.50672E-03     42.5485E-03    -26.6826E+06    -112.225E+06    -18.9165E+06    -108.850E+03    -26.4522E-03     52.8159E-03    -26.3637E-03     20.2668E-03    -26.3973E-03     52.3227E-03    -26.2568E-03     20.2536E-03
            1657     2.63005E-03     42.5315E-03    -28.6615E+06    -116.075E+06    -23.7680E+06    -113.332E+03    -26.3878E-03     52.7291E-03    -26.3413E-03     15.2095E-03    -26.3293E-03     52.2257E-03    -26.2503E-03     15.1998E-03
            1658     1.75338E-03     42.5193E-03    -30.1864E+06    -118.979E+06    -27.7201E+06    -100.796E+03    -26.3456E-03     52.6682E-03    -26.3227E-03     10.1994E-03    -26.2842E-03     52.1577E-03    -26.2450E-03     10.1929E-03
            1659     876.671E-06     42.5120E-03    -31.2316E+06    -120.546E+06    -30.5185E+06     95.7252E+03    -26.3017E-03     52.6244E-03    -26.3227E-03     5.49563E-03    -26.2389E-03     52.1115E-03    -26.2552E-03     5.49419E-03
            1660     16.6558E-03     42.4995E-03    -14.8769E+06     125.682E+06     75.4122E+06     2.20399E+06    -30.7736E-03     57.4423E-03    -26.6687E-03     116.891E-03    -32.3996E-03     59.2408E-03    -26.4523E-03     117.403E-03
            1661     15.7790E-03     42.3374E-03     15.8811E+06     131.224E+06     63.7289E+06     2.38374E+06    -30.8613E-03     57.3721E-03    -26.5108E-03     147.873E-03    -32.5442E-03     59.3918E-03    -26.4055E-03     148.042E-03
            1662     14.9017E-03     42.2158E-03     10.3295E+06     89.3728E+06     19.6071E+06     2.55018E+06    -29.0573E-03     55.4073E-03    -26.3499E-03     110.996E-03    -29.8222E-03     56.4692E-03    -26.3965E-03     110.838E-03
            1663     14.0254E-03     42.1242E-03    -197.568E+03     31.6324E+06     3.20416E+06     317.069E+03    -28.3637E-03     54.7187E-03    -26.3549E-03     88.2325E-03    -28.7211E-03     55.1784E-03    -26.3845E-03     88.0387E-03
            1664     13.1489E-03     42.0464E-03    -3.72821E+06    -8.94248E+06     1.83026E+06    -522.843E+03    -27.9745E-03     54.3694E-03    -26.3949E-03     76.2589E-03    -28.1576E-03     54.5023E-03    -26.3674E-03     76.0855E-03
            1665     12.2725E-03     41.9776E-03    -5.61384E+06    -31.0705E+06     2.95238E+06     595.340E+03    -27.7742E-03     54.1911E-03    -26.4170E-03     68.8959E-03    -27.8735E-03     54.1517E-03    -26.3490E-03     68.7662E-03
            1666     11.3961E-03     41.9140E-03    -7.66945E+06    -47.2664E+06     2.13272E+06     510.719E+03    -27.6065E-03     54.0262E-03    -26.4197E-03     63.7381E-03    -27.6556E-03     53.8741E-03    -26.3294E-03     63.6323E-03
            1667     10.5196E-03     41.8553E-03    -9.12251E+06    -57.7562E+06     3.45268E+06     401.038E+03    -27.4377E-03     53.8617E-03    -26.4240E-03     58.8756E-03    -27.4572E-03     53.6338E-03    -26.3098E-03     58.7896E-03
            1668     9.64318E-03     41.8011E-03    -10.9247E+06    -66.7084E+06     3.45173E+06     128.939E+03    -27.2505E-03     53.6719E-03    -26.4214E-03     54.1336E-03    -27.2499E-03     53.3857E-03    -26.2916E-03     54.0621E-03
            1669     8.76664E-03     41.7515E-03    -12.7729E+06    -73.9989E+06     2.85541E+06    -120.804E+03    -27.0959E-03     53.5112E-03    -26.4153E-03     49.5572E-03    -27.0821E-03     53.1810E-03    -26.2752E-03     49.4971E-03
            1670     7.89008E-03     41.7061E-03    -14.8138E+06    -81.0602E+06     1.57232E+06    -207.066E+03    -26.9516E-03     53.3581E-03    -26.4065E-03     44.8869E-03    -26.9279E-03     52.9895E-03    -26.2596E-03     44.8379E-03
            1671     7.01354E-03     41.6654E-03    -17.1995E+06    -88.2133E+06    -767.555E+03    -298.720E+03    -26.8192E-03     53.2129E-03    -26.3936E-03     40.1052E-03    -26.7881E-03     52.8097E-03    -26.2446E-03     40.0650E-03
            1672     6.13690E-03     41.6293E-03    -19.7808E+06    -94.7567E+06    -4.22978E+06    -251.012E+03    -26.6877E-03     53.0633E-03    -26.3756E-03     35.2336E-03    -26.6509E-03     52.6322E-03    -26.2306E-03     35.2022E-03
            1673     5.26028E-03     41.5979E-03    -22.2797E+06    -100.518E+06    -8.79237E+06    -160.494E+03    -26.5697E-03     52.9223E-03    -26.3527E-03     30.2875E-03    -26.5276E-03     52.4699E-03    -26.2186E-03     30.2640E-03
            1674     4.38359E-03     41.5712E-03    -24.6084E+06    -107.136E+06    -13.8510E+06    -20.2698E+03    -26.4718E-03     52.8023E-03    -26.3304E-03     25.2719E-03    -26.4226E-03     52.3255E-03    -26.2087E-03     25.2556E-03
            1675     3.50690E-03     41.5495E-03    -26.7166E+06    -112.250E+06    -18.9990E+06     40.0436E+03    -26.3925E-03     52.6999E-03    -26.3073E-03     20.2243E-03    -26.3376E-03     52.2067E-03    -26.2008E-03     20.2132E-03
            1676     2.63020E-03     41.5325E-03    -28.5580E+06    -116.057E+06    -23.8038E+06     55.9688E+03    -26.3341E-03     52.6191E-03    -26.2850E-03     15.1758E-03    -26.2751E-03     52.1157E-03    -26.1943E-03     15.1684E-03
            1677     1.75348E-03     41.5204E-03    -30.1472E+06    -119.001E+06    -27.7803E+06     74.5951E+03    -26.2926E-03     52.5577E-03    -26.2650E-03     10.1828E-03    -26.2309E-03     52.0471E-03    -26.1877E-03     10.1787E-03
            1678     876.773E-06     41.5129E-03    -31.3023E+06    -120.598E+06    -30.5410E+06     97.5469E+03    -26.2582E-03     52.5075E-03    -26.2493E-03     5.47842E-03    -26.1956E-03     51.9945E-03    -26.1818E-03     5.47705E-03
            1679     16.6537E-03     41.4985E-03    -11.9615E+06     123.930E+06     71.8735E+06    -9.50016E+06    -28.9443E-03     55.5256E-03    -26.5813E-03     118.312E-03    -30.5491E-03     57.3175E-03    -26.3843E-03     118.634E-03
            1680     15.7774E-03     41.3373E-03    -1.56603E+06     119.517E+06     54.5762E+06    -2.08983E+06    -30.9063E-03     57.3922E-03    -26.4859E-03     148.736E-03    -32.6463E-03     59.3921E-03    -26.3841E-03     148.831E-03
            1681     14.9018E-03     41.2152E-03     1.95126E+06     89.2832E+06     22.7924E+06     7.59525E+06    -29.3552E-03     55.7004E-03    -26.3452E-03     111.478E-03    -30.1580E-03     56.7609E-03    -26.3635E-03     111.386E-03
            1682     14.0256E-03     41.1245E-03     1.22974E+06     38.2601E+06     4.82658E+06     5.72743E+06    -28.4078E-03     54.7140E-03    -26.3063E-03     88.4448E-03    -28.7680E-03     55.2005E-03    -26.3394E-03     88.3229E-03
            1683     13.1493E-03     41.0465E-03    -2.72863E+06    -10.0049E+06     881.346E+03     2.35904E+06    -27.9830E-03     54.3246E-03    -26.3416E-03     76.5983E-03    -28.1570E-03     54.4508E-03    -26.3187E-03     76.4641E-03
            1684     12.2729E-03     40.9780E-03    -5.74263E+06    -30.4787E+06     2.55815E+06     2.37132E+06    -27.7060E-03     54.0717E-03    -26.3657E-03     69.1868E-03    -27.8054E-03     54.0351E-03    -26.3004E-03     69.0817E-03
            1685     11.3965E-03     40.9144E-03    -7.27463E+06    -46.2757E+06     1.62956E+06     1.35103E+06    -27.5631E-03     53.9310E-03    -26.3679E-03     63.9829E-03    -27.6105E-03     53.7836E-03    -26.2821E-03     63.8891E-03
            1686     10.5201E-03     40.8557E-03    -8.77950E+06    -58.0236E+06     2.98897E+06     1.03073E+06    -27.3814E-03     53.7567E-03    -26.3753E-03     59.0024E-03    -27.3978E-03     53.5273E-03    -26.2635E-03     58.9255E-03
            1687     9.64355E-03     40.8017E-03    -10.4722E+06    -65.8169E+06     3.22546E+06     928.211E+03    -27.2153E-03     53.5878E-03    -26.3725E-03     54.2128E-03    -27.2132E-03     53.3055E-03    -26.2458E-03     54.1522E-03
            1688     8.76703E-03     40.7521E-03    -12.5640E+06    -73.8680E+06     2.39590E+06     420.877E+03    -27.0681E-03     53.4337E-03    -26.3655E-03     49.5726E-03    -27.0525E-03     53.1043E-03    -26.2282E-03     49.5200E-03
            1689     7.89048E-03     40.7069E-03    -14.7972E+06    -80.9367E+06     1.13586E+06     351.141E+03    -26.9179E-03     53.2734E-03    -26.3555E-03     44.8636E-03    -26.8936E-03     52.9059E-03    -26.2110E-03     44.8221E-03
            1690     7.01383E-03     40.6662E-03    -17.3041E+06    -88.1454E+06    -1.22716E+06     362.743E+03    -26.7745E-03     53.1161E-03    -26.3416E-03     40.0527E-03    -26.7431E-03     52.7140E-03    -26.1948E-03     40.0213E-03
            1691     6.13722E-03     40.6302E-03    -19.8771E+06    -94.5494E+06    -4.38980E+06     111.855E+03    -26.6450E-03     52.9688E-03    -26.3238E-03     35.1632E-03    -26.6087E-03     52.5390E-03    -26.1798E-03     35.1367E-03
            1692     5.26053E-03     40.5988E-03    -22.3371E+06    -100.731E+06    -8.76848E+06     21.8341E+03    -26.5271E-03     52.8278E-03    -26.3007E-03     30.2167E-03    -26.4850E-03     52.3743E-03    -26.1661E-03     30.1957E-03
            1693     4.38384E-03     40.5723E-03    -24.6827E+06    -107.099E+06    -13.8091E+06     69.0818E+03    -26.4276E-03     52.7038E-03    -26.2761E-03     25.1986E-03    -26.3788E-03     52.2272E-03    -26.1541E-03     25.1836E-03
            1694     3.50710E-03     40.5505E-03    -26.7491E+06    -112.307E+06    -19.1281E+06     54.5777E+03    -26.3441E-03     52.5940E-03    -26.2500E-03     20.1548E-03    -26.2890E-03     52.1008E-03    -26.1440E-03     20.1439E-03
            1695     2.63034E-03     40.5336E-03    -28.4712E+06    -116.099E+06    -23.9939E+06     190.375E+03    -26.2788E-03     52.5043E-03    -26.2255E-03     15.1113E-03    -26.2189E-03     52.0008E-03    -26.1359E-03     15.1058E-03
            1696     1.75356E-03     40.5215E-03    -29.7930E+06    -118.888E+06    -27.6748E+06     224.197E+03    -26.2311E-03     52.4383E-03    -26.2072E-03     10.1290E-03    -26.1680E-03     51.9276E-03    -26.1300E-03     10.1268E-03
            1697     876.766E-06     40.5142E-03    -30.5189E+06    -120.375E+06    -30.0487E+06     53.9622E+03    -26.1979E-03     52.3984E-03    -26.2005E-03     5.45087E-03    -26.1324E-03     51.8847E-03    -26.1320E-03     5.44897E-03
            1698     16.6553E-03     40.5008E-03    -4.63206E+06     127.728E+06     75.9903E+06    -5.98285E+06    -28.8622E-03     55.4122E-03    -26.5500E-03     119.029E-03    -30.4668E-03     57.2332E-03    -26.3485E-03     119.373E-03
            1699     15.7784E-03     40.3355E-03    -19.0475E+06     108.990E+06     39.9557E+06    -9.62421E+06    -30.9206E-03     57.3335E-03    -26.4129E-03     147.217E-03    -32.7170E-03     59.3334E-03    -26.3436E-03     147.195E-03
            1700     14.9024E-03     40.2158E-03    -17.3038E+06     80.6558E+06     7.59164E+06    -4.22955E+06    -29.0325E-03     55.2994E-03    -26.2669E-03     110.349E-03    -29.8897E-03     56.3595E-03    -26.3208E-03     110.108E-03
            1701     14.0261E-03     40.1239E-03    -8.97440E+06     39.1736E+06    -638.054E+03     3.52418E+06    -28.2193E-03     54.4760E-03    -26.2566E-03     88.1182E-03    -28.6238E-03     54.9895E-03    -26.3036E-03     87.9695E-03
            1702     13.1499E-03     40.0473E-03    -7.09860E+06    -7.52111E+06     488.033E+03     4.66739E+06    -27.8902E-03     54.2005E-03    -26.3103E-03     76.3239E-03    -28.0890E-03     54.3460E-03    -26.2867E-03     76.2198E-03
            1703     12.2733E-03     39.9782E-03    -7.55797E+06    -29.5692E+06     1.53994E+06     2.27764E+06    -27.6579E-03     53.9890E-03    -26.3312E-03     69.2858E-03    -27.7661E-03     53.9610E-03    -26.2696E-03     69.1800E-03
            1704     11.3969E-03     39.9150E-03    -7.93023E+06    -45.3187E+06     1.51019E+06     1.94302E+06    -27.5454E-03     53.8812E-03    -26.3358E-03     63.9422E-03    -27.5972E-03     53.7396E-03    -26.2511E-03     63.8562E-03
            1705     10.5204E-03     39.8562E-03    -9.18977E+06    -57.8695E+06     2.45615E+06     1.57998E+06    -27.3803E-03     53.7202E-03    -26.3399E-03     58.9907E-03    -27.3980E-03     53.4927E-03    -26.2303E-03     58.9212E-03
            1706     9.64393E-03     39.8024E-03    -10.6286E+06    -65.2922E+06     3.14140E+06     1.37785E+06    -27.2236E-03     53.5584E-03    -26.3348E-03     54.1536E-03    -27.2227E-03     53.2789E-03    -26.2090E-03     54.0989E-03
            1707     8.76737E-03     39.7528E-03    -12.3204E+06    -73.2990E+06     2.50660E+06     1.17912E+06    -27.0677E-03     53.3915E-03    -26.3239E-03     49.4980E-03    -27.0517E-03     53.0644E-03    -26.1872E-03     49.4554E-03
            1708     7.89080E-03     39.7077E-03    -14.6219E+06    -81.0109E+06     1.57567E+06     1.05844E+06    -26.9064E-03     53.2189E-03    -26.3125E-03     44.7576E-03    -26.8816E-03     52.8500E-03    -26.1659E-03     44.7255E-03
            1709     7.01420E-03     39.6671E-03    -16.8990E+06    -87.5477E+06    -769.851E+03     807.779E+03    -26.7504E-03     53.0442E-03    -26.2938E-03     39.9490E-03    -26.7185E-03     52.6437E-03    -26.1462E-03     39.9236E-03
            1710     6.13752E-03     39.6311E-03    -19.1351E+06    -94.2346E+06    -3.96159E+06     406.526E+03    -26.6129E-03     52.8856E-03    -26.2727E-03     35.0533E-03    -26.5739E-03     52.4556E-03    -26.1281E-03     35.0309E-03
            1711     5.26082E-03     39.5999E-03    -21.5626E+06    -100.710E+06    -8.05315E+06     279.352E+03    -26.4905E-03     52.7392E-03    -26.2487E-03     30.1041E-03    -26.4456E-03     52.2836E-03    -26.1117E-03     30.0866E-03
            1712     4.38407E-03     39.5734E-03    -23.9498E+06    -107.008E+06    -13.3110E+06     217.877E+03    -26.3885E-03     52.6085E-03    -26.2200E-03     25.1031E-03    -26.3369E-03     52.1305E-03    -26.0966E-03     25.0902E-03
            1713     3.50732E-03     39.5517E-03    -26.2013E+06    -112.313E+06    -18.5954E+06     228.394E+03    -26.3006E-03     52.4912E-03    -26.1906E-03     20.0669E-03    -26.2436E-03     51.9964E-03    -26.0827E-03     20.0584E-03
            1714     2.63052E-03     39.5348E-03    -28.1178E+06    -116.165E+06    -23.4296E+06     280.707E+03    -26.2199E-03     52.3837E-03    -26.1638E-03     15.0452E-03    -26.1590E-03     51.8785E-03    -26.0717E-03     15.0409E-03
            1715     1.75371E-03     39.5228E-03    -29.4727E+06    -118.568E+06    -27.4106E+06     235.816E+03    -26.1693E-03     52.3111E-03    -26.1418E-03     10.0917E-03    -26.1054E-03     51.8011E-03    -26.0642E-03     10.0897E-03
            1716     876.859E-06     39.5154E-03    -30.2910E+06    -120.157E+06    -29.8062E+06     103.701E+03    -26.1570E-03     52.2659E-03    -26.1088E-03     5.37857E-03    -26.0911E-03     51.7525E-03    -26.0397E-03     5.37735E-03
            1717     16.6555E-03     39.4988E-03    -1.92317E+06     132.091E+06     81.3411E+06     92.7924E+03    -29.8138E-03     56.3120E-03    -26.4982E-03     118.503E-03    -31.4123E-03     58.1366E-03    -26.2802E-03     118.935E-03
            1718     15.7810E-03     39.3359E-03    -7.63921E+06     115.486E+06     41.0921E+06    -4.52155E+06    -30.3150E-03     56.6261E-03    -26.3111E-03     146.731E-03    -32.0533E-03     58.6281E-03    -26.2620E-03     146.798E-03
            1719     14.9038E-03     39.2167E-03    -15.9188E+06     73.7950E+06    -4.04428E+06    -8.65654E+06    -28.4756E-03     54.6430E-03    -26.1673E-03     111.399E-03    -29.3004E-03     55.6849E-03    -26.2715E-03     111.111E-03
            1720     14.0268E-03     39.1241E-03    -16.2387E+06     29.6717E+06    -8.13034E+06    -3.41630E+06    -28.0549E-03     54.2715E-03    -26.2166E-03     88.8874E-03    -28.4718E-03     54.7597E-03    -26.2767E-03     88.6507E-03
            1721     13.1501E-03     39.0477E-03    -11.4546E+06    -5.53052E+06    -844.545E+03     1.63599E+06    -27.8151E-03     54.1015E-03    -26.2864E-03     76.5446E-03    -28.0366E-03     54.2651E-03    -26.2660E-03     76.4017E-03
            1722     12.2737E-03     38.9787E-03    -9.46918E+06    -28.9365E+06     399.895E+03     1.62208E+06    -27.6765E-03     53.9830E-03    -26.3065E-03     69.4938E-03    -27.7936E-03     53.9626E-03    -26.2488E-03     69.3796E-03
            1723     11.3971E-03     38.9154E-03    -10.0227E+06    -45.3757E+06     390.313E+03     1.72859E+06    -27.5626E-03     53.8718E-03    -26.3092E-03     63.9547E-03    -27.6229E-03     53.7343E-03    -26.2269E-03     63.8661E-03
            1724     10.5208E-03     38.8568E-03    -10.7204E+06    -57.0704E+06     1.78139E+06     1.75889E+06    -27.4151E-03     53.7235E-03    -26.3084E-03     58.9349E-03    -27.4405E-03     53.5031E-03    -26.2012E-03     58.8678E-03
            1725     9.64422E-03     38.8029E-03    -11.8891E+06    -65.0802E+06     2.58544E+06     1.37164E+06    -27.2395E-03     53.5382E-03    -26.2987E-03     54.0757E-03    -27.2443E-03     53.2622E-03    -26.1742E-03     54.0212E-03
            1726     8.76775E-03     38.7535E-03    -13.3793E+06    -73.1076E+06     2.16293E+06     1.50739E+06    -27.0755E-03     53.3586E-03    -26.2831E-03     49.3867E-03    -27.0645E-03     53.0343E-03    -26.1469E-03     49.3485E-03
            1727     7.89118E-03     38.7085E-03    -15.0451E+06    -80.5475E+06     1.53629E+06     1.36964E+06    -26.9028E-03     53.1693E-03    -26.2665E-03     44.6327E-03    -26.8805E-03     52.8032E-03    -26.1202E-03     44.6048E-03
            1728     7.01454E-03     38.6680E-03    -17.0388E+06    -86.9323E+06    -941.641E+03     953.610E+03    -26.7355E-03     52.9768E-03    -26.2414E-03     39.8201E-03    -26.7048E-03     52.5798E-03    -26.0953E-03     39.7968E-03
            1729     6.13787E-03     38.6322E-03    -19.3026E+06    -93.8062E+06    -4.50123E+06     646.587E+03    -26.5857E-03     52.7998E-03    -26.2141E-03     34.9294E-03    -26.5473E-03     52.3729E-03    -26.0726E-03     34.9102E-03
            1730     5.26114E-03     38.6010E-03    -21.5855E+06    -100.587E+06    -8.56161E+06     441.126E+03    -26.4543E-03     52.6404E-03    -26.1861E-03     29.9729E-03    -26.4088E-03     52.1861E-03    -26.0518E-03     29.9577E-03
            1731     4.38436E-03     38.5746E-03    -23.9022E+06    -106.962E+06    -13.4891E+06     498.103E+03    -26.3405E-03     52.4957E-03    -26.1552E-03     24.9845E-03    -26.2884E-03     52.0182E-03    -26.0329E-03     24.9753E-03
            1732     3.50754E-03     38.5530E-03    -26.1464E+06    -112.178E+06    -18.5651E+06     509.024E+03    -26.2436E-03     52.3674E-03    -26.1237E-03     19.9583E-03    -26.1865E-03     51.8731E-03    -26.0160E-03     19.9535E-03
            1733     2.63070E-03     38.5363E-03    -28.0559E+06    -115.936E+06    -23.2044E+06     357.722E+03    -26.1617E-03     52.2559E-03    -26.0942E-03     14.9554E-03    -26.1011E-03     51.7515E-03    -26.0015E-03     14.9521E-03
            1734     1.75378E-03     38.5242E-03    -29.4368E+06    -118.320E+06    -27.1925E+06     249.849E+03    -26.1020E-03     52.1701E-03    -26.0681E-03     10.0346E-03    -26.0386E-03     51.6610E-03    -25.9898E-03     10.0328E-03
            1735     876.934E-06     38.5169E-03    -30.3161E+06    -119.892E+06    -29.7283E+06     166.922E+03    -26.1123E-03     52.1125E-03    -26.0002E-03     5.35304E-03    -26.0470E-03     51.6004E-03    -25.9310E-03     5.35262E-03
            1736     16.6599E-03     38.4978E-03    -5.29325E+06     133.743E+06     77.7737E+06    -1.46728E+06    -29.5874E-03     56.0544E-03    -26.4670E-03     119.815E-03    -31.2014E-03     57.8989E-03    -26.2644E-03     120.246E-03
            1737     15.7808E-03     38.3385E-03    -7.26527E+06     120.655E+06     41.2934E+06    -2.01237E+06    -30.0283E-03     56.3354E-03    -26.3071E-03     148.721E-03    -31.7780E-03     58.3678E-03    -26.2650E-03     148.836E-03
            1738     14.9027E-03     38.2170E-03    -8.74601E+06     74.9842E+06    -254.588E+03    -3.62856E+06    -28.7400E-03     54.9252E-03    -26.1852E-03     112.972E-03    -29.5454E-03     55.9665E-03    -26.2825E-03     112.747E-03
            1739     14.0264E-03     38.1247E-03    -11.2180E+06     23.5532E+06    -10.1401E+06    -4.85340E+06    -28.2379E-03     54.4495E-03    -26.2117E-03     89.3381E-03    -28.6173E-03     54.9021E-03    -26.2802E-03     89.0820E-03
            1740     13.1501E-03     38.0480E-03    -12.2461E+06    -9.18698E+06    -4.12725E+06    -1.84993E+06    -27.9341E-03     54.2067E-03    -26.2726E-03     76.7311E-03    -28.1495E-03     54.3579E-03    -26.2621E-03     76.5427E-03
            1741     12.2736E-03     37.9792E-03    -12.1324E+06    -28.7183E+06    -1.01038E+06     982.370E+03    -27.7730E-03     54.0641E-03    -26.2911E-03     69.4780E-03    -27.9016E-03     54.0506E-03    -26.2369E-03     69.3552E-03
            1742     11.3974E-03     37.9158E-03    -12.4328E+06    -45.6841E+06    -1.38467E+06     1.11995E+06    -27.6302E-03     53.9145E-03    -26.2843E-03     63.9187E-03    -27.6993E-03     53.7813E-03    -26.2069E-03     63.8223E-03
            1743     10.5210E-03     37.8574E-03    -12.8643E+06    -56.6558E+06     426.172E+03     1.18356E+06    -27.4640E-03     53.7407E-03    -26.2767E-03     58.8295E-03    -27.4986E-03     53.5273E-03    -26.1738E-03     58.7549E-03
            1744     9.64459E-03     37.8036E-03    -13.7962E+06    -65.0007E+06     1.24794E+06     1.35203E+06    -27.2707E-03     53.5308E-03    -26.2600E-03     53.9544E-03    -27.2830E-03     53.2597E-03    -26.1395E-03     53.8998E-03
            1745     8.76807E-03     37.7542E-03     -15.135E+06    -72.8750E+06     616.636E+03     1.21726E+06    -27.0890E-03     53.3252E-03    -26.2362E-03     49.2500E-03    -27.0846E-03     53.0066E-03    -26.1055E-03     49.2082E-03
            1746     7.89155E-03     37.7094E-03    -16.5236E+06    -80.1836E+06     54.8700E+03     1.07817E+06    -26.9078E-03     53.1203E-03    -26.2126E-03     44.4788E-03    -26.8912E-03     52.7603E-03    -26.0721E-03     44.4474E-03
            1747     7.01493E-03     37.6690E-03    -18.2862E+06    -86.4633E+06    -2.05715E+06     1.01940E+06    -26.7257E-03     52.9076E-03    -26.1819E-03     39.6455E-03    -26.7002E-03     52.5163E-03    -26.0403E-03     39.6233E-03
            1748     6.13824E-03     37.6333E-03    -20.3240E+06    -93.2770E+06    -5.67899E+06     682.823E+03    -26.5603E-03     52.7077E-03    -26.1475E-03     34.7624E-03    -26.5260E-03     52.2866E-03    -26.0111E-03     34.7439E-03
            1749     5.26148E-03     37.6022E-03    -22.4703E+06    -100.522E+06    -9.70158E+06     533.392E+03    -26.4168E-03     52.5310E-03    -26.1142E-03     29.8128E-03    -26.3742E-03     52.0799E-03    -25.9843E-03     29.7989E-03
            1750     4.38468E-03     37.5759E-03    -24.6134E+06    -106.951E+06    -14.0948E+06     610.962E+03    -26.2868E-03     52.3672E-03    -26.0804E-03     24.8294E-03    -26.2373E-03     51.8916E-03    -25.9602E-03     24.8218E-03
            1751     3.50781E-03     37.5544E-03    -26.5529E+06    -111.858E+06    -18.9896E+06     594.301E+03    -26.1752E-03     52.2203E-03    -26.0452E-03     19.8234E-03    -26.1199E-03     51.7288E-03    -25.9394E-03     19.8198E-03
            1752     2.63090E-03     37.5377E-03    -28.2321E+06    -115.506E+06    -23.5896E+06     363.691E+03    -26.0989E-03     52.1094E-03    -26.0105E-03     14.8499E-03    -26.0392E-03     51.6079E-03    -25.9201E-03     14.8468E-03
            1753     1.75403E-03     37.5258E-03    -29.5168E+06    -118.170E+06    -27.1923E+06     175.583E+03    -26.0273E-03     52.0066E-03    -25.9794E-03     9.93203E-03    -25.9645E-03     51.4984E-03    -25.9012E-03     9.92937E-03
            1754     876.959E-06     37.5185E-03    -30.3200E+06    -119.577E+06    -29.6462E+06     105.579E+03    -25.9699E-03     51.9271E-03    -25.9572E-03     5.32985E-03    -25.9052E-03     51.4164E-03    -25.8881E-03     5.32865E-03
            1755     16.6531E-03     37.4981E-03    -3.81280E+06     134.685E+06     79.2422E+06    -1.20625E+06    -28.8062E-03     55.3349E-03    -26.5287E-03     119.214E-03    -30.4037E-03     57.1672E-03    -26.3223E-03     119.656E-03
            1756     15.7776E-03     37.3381E-03    -8.64693E+06     120.891E+06     42.9154E+06    -2.47829E+06    -30.6549E-03     57.0343E-03    -26.3793E-03     148.128E-03    -32.4129E-03     59.0662E-03    -26.3275E-03     148.222E-03
            1757     14.9028E-03     37.2171E-03    -10.5158E+06     76.5068E+06     1.60093E+06    -3.39207E+06    -29.3256E-03     55.5476E-03    -26.2220E-03     112.152E-03    -30.1485E-03     56.6001E-03    -26.3097E-03     111.919E-03
            1758     14.0263E-03     37.1249E-03    -10.9662E+06     22.4057E+06    -10.1158E+06    -2.76729E+06    -28.3747E-03     54.5919E-03    -26.2173E-03     88.8737E-03    -28.7493E-03     55.0365E-03    -26.2844E-03     88.6438E-03
            1759     13.1501E-03     37.0482E-03    -12.4659E+06    -13.0607E+06    -5.77916E+06    -1.60266E+06    -28.0603E-03     54.3258E-03    -26.2654E-03     76.5702E-03    -28.2686E-03     54.4602E-03    -26.2573E-03     76.3843E-03
            1760     12.2739E-03     36.9794E-03    -13.2378E+06    -29.8611E+06    -2.19397E+06    -105.439E+03    -27.8832E-03     54.1577E-03    -26.2745E-03     69.2663E-03    -28.0137E-03     54.1415E-03    -26.2230E-03     69.1289E-03
            1761     11.3976E-03     36.9162E-03    -13.1636E+06    -45.3591E+06    -2.35450E+06     484.324E+03    -27.7010E-03     53.9584E-03    -26.2574E-03     63.7468E-03    -27.7725E-03     53.8290E-03    -26.1843E-03     63.6421E-03
            1762     10.5213E-03     36.8578E-03    -13.8046E+06    -57.2105E+06    -938.928E+03     721.506E+03    -27.5221E-03     53.7636E-03    -26.2415E-03     58.6321E-03    -27.5584E-03     53.5505E-03    -26.1432E-03     58.5517E-03
            1763     9.64492E-03     36.8042E-03    -14.7239E+06    -64.8283E+06     157.285E+03     1.04571E+06    -27.3194E-03     53.5360E-03    -26.2167E-03     53.7218E-03    -27.3348E-03     53.2686E-03    -26.1005E-03     53.6633E-03
            1764     8.76849E-03     36.7550E-03    -15.9142E+06    -72.5564E+06    -422.001E+03     954.167E+03    -27.1170E-03     53.3010E-03    -26.1840E-03     49.0115E-03    -27.1154E-03     52.9865E-03    -26.0578E-03     48.9665E-03
            1765     7.89196E-03     36.7103E-03    -17.5663E+06    -80.0019E+06    -906.591E+03     846.899E+03    -26.9152E-03     53.0682E-03    -26.1530E-03     44.2235E-03    -26.9026E-03     52.7119E-03    -26.0161E-03     44.1892E-03
            1766     7.01537E-03     36.6701E-03    -19.2137E+06    -86.1021E+06    -2.86257E+06     629.354E+03    -26.7164E-03     52.8311E-03    -26.1147E-03     39.4039E-03    -26.6948E-03     52.4440E-03    -25.9763E-03     39.3767E-03
            1767     6.13867E-03     36.6345E-03    -20.9707E+06    -93.0397E+06    -6.16762E+06     622.052E+03    -26.5340E-03     52.6077E-03    -26.0738E-03     34.5305E-03    -26.5025E-03     52.1894E-03    -25.9393E-03     34.5113E-03
            1768     5.26190E-03     36.6036E-03    -23.1353E+06    -100.356E+06    -10.1945E+06     618.546E+03    -26.3693E-03     52.4031E-03    -26.0337E-03     29.6046E-03    -26.3295E-03     51.9544E-03    -25.9057E-03     29.5919E-03
            1769     4.38505E-03     36.5774E-03    -25.2549E+06    -106.807E+06    -14.6687E+06     485.966E+03    -26.2210E-03     52.2152E-03    -25.9942E-03     24.6455E-03    -26.1741E-03     51.7420E-03    -25.8760E-03     24.6363E-03
            1770     3.50813E-03     36.5560E-03    -27.0551E+06    -111.581E+06    -19.4166E+06     384.932E+03    -26.0989E-03     52.0538E-03    -25.9549E-03     19.6934E-03    -26.0459E-03     51.5649E-03    -25.8509E-03     19.6871E-03
            1771     2.63117E-03     36.5394E-03    -28.5023E+06    -115.072E+06    -23.9479E+06     194.411E+03    -26.0080E-03     51.9257E-03    -25.9177E-03     14.7617E-03    -25.9498E-03     51.4273E-03    -25.8293E-03     14.7564E-03
            1772     1.75411E-03     36.5275E-03    -29.6169E+06    -118.085E+06    -27.4407E+06     36.6645E+03    -25.9425E-03     51.8271E-03    -25.8847E-03     9.86225E-03    -25.8799E-03     51.3199E-03    -25.8077E-03     9.85784E-03
            1773     877.155E-06     36.5204E-03    -30.2468E+06    -119.390E+06    -29.7794E+06     19.7287E+03    -25.8376E-03     51.7345E-03    -25.8969E-03     5.24754E-03    -25.7726E-03     51.2249E-03    -25.8288E-03     5.24528E-03
            1774     16.6567E-03     36.4995E-03    -4.02751E+06     135.845E+06     79.9220E+06    -1.44949E+06    -28.9406E-03     55.4719E-03    -26.5313E-03     117.120E-03    -30.5242E-03     57.2917E-03    -26.3228E-03     117.545E-03
            1775     15.7795E-03     36.3371E-03    -7.61089E+06     121.928E+06     42.3415E+06    -2.32078E+06    -30.5720E-03     56.9402E-03    -26.3682E-03     147.006E-03    -32.3159E-03     58.9671E-03    -26.3223E-03     147.098E-03
            1776     14.9027E-03     36.2169E-03    -10.0635E+06     76.3306E+06    -978.283E+03    -2.18571E+06    -29.2937E-03     55.4970E-03    -26.2033E-03     111.366E-03    -30.1066E-03     56.5479E-03    -26.3043E-03     111.149E-03
            1777     14.0266E-03     36.1253E-03    -12.4979E+06     21.0644E+06    -12.6757E+06    -1.61246E+06    -28.4621E-03     54.6616E-03    -26.1995E-03     88.6749E-03    -28.8381E-03     55.1048E-03    -26.2753E-03     88.4588E-03
            1778     13.1503E-03     36.0482E-03    -13.0379E+06    -13.9676E+06    -7.55968E+06    -1.11320E+06    -28.1544E-03     54.3969E-03    -26.2425E-03     76.4708E-03    -28.3612E-03     54.5298E-03    -26.2411E-03     76.2908E-03
            1779     12.2741E-03     35.9796E-03    -13.2705E+06    -31.1499E+06    -3.55357E+06    -807.546E+03    -27.9727E-03     54.2181E-03    -26.2454E-03     68.9464E-03    -28.0991E-03     54.1971E-03    -26.1987E-03     68.7997E-03
            1780     11.3980E-03     35.9167E-03    -13.9163E+06    -45.7502E+06    -3.25095E+06     19.7217E+03    -27.7695E-03     53.9911E-03    -26.2216E-03     63.4435E-03    -27.8426E-03     53.8618E-03    -26.1513E-03     63.3327E-03
            1781     10.5217E-03     35.8583E-03    -14.5388E+06    -57.4823E+06    -1.79219E+06     373.252E+03    -27.5777E-03     53.7746E-03    -26.1968E-03     58.3212E-03    -27.6158E-03     53.5621E-03    -26.1014E-03     58.2362E-03
            1782     9.64541E-03     35.8049E-03    -15.3537E+06    -64.9962E+06    -292.477E+03     502.502E+03    -27.3652E-03     53.5294E-03    -26.1642E-03     53.3819E-03    -27.3827E-03     53.2625E-03    -26.0492E-03     53.3165E-03
            1783     8.76901E-03     35.7558E-03    -16.4541E+06    -72.4020E+06    -648.212E+03     730.942E+03    -27.1403E-03     53.2626E-03    -26.1224E-03     48.6760E-03    -27.1411E-03     52.9499E-03    -25.9968E-03     48.6282E-03
            1784     7.89254E-03     35.7113E-03    -17.7482E+06    -79.5634E+06    -1.08094E+06     494.977E+03    -26.9115E-03     52.9933E-03    -26.0818E-03     43.9151E-03    -26.9000E-03     52.6395E-03    -25.9461E-03     43.8764E-03
            1785     7.01591E-03     35.6712E-03    -19.4083E+06    -85.9365E+06    -2.86845E+06     276.728E+03    -26.6946E-03     52.7311E-03    -26.0365E-03     39.1095E-03    -26.6742E-03     52.3451E-03    -25.8981E-03     39.0779E-03
            1786     6.13921E-03     35.6358E-03    -21.4278E+06    -93.3080E+06    -6.36461E+06     493.927E+03    -26.4923E-03     52.4804E-03    -25.9881E-03     34.2603E-03    -26.4624E-03     52.0616E-03    -25.8535E-03     34.2397E-03
            1787     5.26239E-03     35.6050E-03    -23.4105E+06    -99.9106E+06    -10.3972E+06     552.377E+03    -26.3012E-03     52.2418E-03    -25.9407E-03     29.3695E-03    -26.2631E-03     51.7961E-03    -25.8138E-03     29.3561E-03
            1788     4.38547E-03     35.5790E-03    -25.3034E+06    -106.526E+06    -14.6451E+06     212.657E+03    -26.1399E-03     52.0378E-03    -25.8979E-03     24.4551E-03    -26.0937E-03     51.5660E-03    -25.7800E-03     24.4425E-03
            1789     3.50847E-03     35.5577E-03    -26.9843E+06    -111.407E+06    -19.3978E+06      19.786E+03    -26.0089E-03     51.8643E-03    -25.8554E-03     19.5433E-03    -25.9558E-03     51.3762E-03    -25.7517E-03     19.5324E-03
            1790     2.63140E-03     35.5412E-03    -28.4372E+06    -114.919E+06    -23.9700E+06    -10.5691E+03    -25.8983E-03     51.7167E-03    -25.8183E-03     14.6404E-03    -25.8400E-03     51.2189E-03    -25.7303E-03     14.6326E-03
            1791     1.75433E-03     35.5294E-03    -29.6567E+06    -118.014E+06    -27.6230E+06     5.63515E+03    -25.8294E-03     51.6209E-03    -25.7916E-03     9.79395E-03    -25.7669E-03     51.1143E-03    -25.7155E-03     9.78919E-03
            1792     877.121E-06     35.5223E-03    -30.4311E+06    -119.398E+06    -29.8960E+06    -79.0520E+03    -25.7621E-03     51.5591E-03    -25.7970E-03     5.16639E-03    -25.6979E-03     51.0499E-03    -25.7293E-03     5.16292E-03
            1793     16.6565E-03     35.5001E-03    -4.60701E+06     138.029E+06     76.0465E+06    -1.18600E+06    -29.0803E-03     55.5842E-03    -26.5038E-03     118.585E-03    -30.6879E-03     57.4449E-03    -26.3171E-03     119.013E-03
            1794     15.7794E-03     35.3380E-03     -9.9776E+06     120.987E+06     34.6330E+06    -2.25715E+06    -30.6626E-03     56.9934E-03    -26.3308E-03     149.383E-03    -32.4305E-03     59.0549E-03    -26.3186E-03     149.474E-03
            1795     14.9029E-03     35.2165E-03    -12.5907E+06     75.1094E+06    -2.12404E+06    -568.258E+03    -29.4216E-03     55.6197E-03    -26.1981E-03     111.574E-03    -30.2418E-03     56.6680E-03    -26.2994E-03     111.374E-03
            1796     14.0266E-03     35.1256E-03    -13.7013E+06     21.9519E+06    -10.9362E+06    -474.483E+03    -28.6634E-03     54.8562E-03    -26.1927E-03     88.3478E-03    -29.0490E-03     55.3027E-03    -26.2594E-03     88.1442E-03
            1797     13.1507E-03     35.0482E-03    -14.4428E+06    -14.1490E+06    -7.97519E+06    -1.64608E+06    -28.3009E-03     54.5136E-03    -26.2127E-03     76.1764E-03    -28.5135E-03     54.6478E-03    -26.2111E-03     75.9886E-03
            1798     12.2746E-03     34.9799E-03    -14.7458E+06    -31.9991E+06    -3.91019E+06    -1.15766E+06    -28.0260E-03     54.2324E-03    -26.2064E-03     68.5293E-03    -28.1575E-03     54.2093E-03    -26.1582E-03     68.3780E-03
            1799     11.3985E-03     34.9169E-03    -14.9173E+06    -46.6066E+06    -3.58546E+06    -665.947E+03    -27.8302E-03     54.0034E-03    -26.1732E-03     63.0704E-03    -27.9063E-03     53.8715E-03    -26.1019E-03     62.9507E-03
            1800     10.5224E-03     34.8588E-03    -15.0572E+06    -57.4816E+06    -1.67396E+06    -384.940E+03    -27.6214E-03     53.7604E-03    -26.1390E-03     57.9527E-03    -27.6619E-03     53.5483E-03    -26.0422E-03     57.8580E-03
            1801     9.64608E-03     34.8054E-03    -15.5208E+06    -65.5056E+06    -300.867E+03    -130.545E+03    -27.3820E-03     53.4788E-03    -26.0968E-03     53.0089E-03    -27.3994E-03     53.2094E-03    -25.9808E-03     52.9354E-03
            1802     8.76972E-03     34.7567E-03    -16.2718E+06    -72.3838E+06    -333.774E+03     96.0957E+03    -27.1376E-03     53.1843E-03    -26.0468E-03     48.3261E-03    -27.1378E-03     52.8708E-03    -25.9199E-03     48.2703E-03
            1803     7.89319E-03     34.7123E-03    -17.4186E+06    -79.1846E+06    -942.257E+03     29.8678E+03    -26.8946E-03     52.8908E-03    -25.9963E-03     43.5901E-03    -26.8821E-03     52.5381E-03    -25.8609E-03     43.5457E-03
            1804     7.01659E-03     34.6725E-03    -19.1439E+06    -86.2235E+06    -2.63559E+06     183.235E+03    -26.6562E-03     52.6009E-03    -25.9446E-03     38.7956E-03    -26.6343E-03     52.2125E-03    -25.8050E-03     38.7631E-03
            1805     6.13982E-03     34.6372E-03    -21.1730E+06    -93.4166E+06    -6.13697E+06     423.422E+03    -26.4285E-03     52.3179E-03    -25.8893E-03     33.9682E-03    -26.3974E-03     51.8977E-03    -25.7539E-03     33.9468E-03
            1806     5.26295E-03     34.6067E-03    -23.1375E+06    -99.4703E+06    -10.3728E+06     230.079E+03    -26.2197E-03     52.0547E-03    -25.8350E-03     29.1159E-03    -26.1808E-03     51.6106E-03    -25.7091E-03     29.0985E-03
            1807     4.38594E-03     34.5808E-03    -24.9780E+06    -106.209E+06    -14.6613E+06    -21.5812E+03    -26.0482E-03     51.8362E-03    -25.7880E-03     24.2426E-03    -26.0007E-03     51.3655E-03    -25.6711E-03     24.2272E-03
            1808     3.50888E-03     34.5597E-03    -26.9051E+06    -111.371E+06    -19.5931E+06    -145.687E+03    -25.9015E-03     51.6444E-03    -25.7429E-03     19.3624E-03    -25.8478E-03     51.1566E-03    -25.6403E-03     19.3496E-03
            1809     2.63172E-03     34.5433E-03    -28.5642E+06    -115.043E+06    -24.2838E+06    -63.5839E+03    -25.7846E-03     51.4899E-03    -25.7052E-03     14.5023E-03    -25.7263E-03     50.9921E-03    -25.6184E-03     14.4939E-03
            1810     1.75446E-03     34.5316E-03    -29.7817E+06    -117.987E+06    -27.6625E+06     3.28139E+03    -25.7072E-03     51.3900E-03    -25.6828E-03     9.69919E-03    -25.6453E-03     50.8837E-03    -25.6068E-03     9.69446E-03
            1811     877.265E-06     34.5245E-03    -30.5581E+06    -119.408E+06    -30.1032E+06    -41.2126E+03    -25.6766E-03     51.3465E-03    -25.6700E-03     5.08793E-03    -25.6126E-03     50.8378E-03    -25.6030E-03     5.08503E-03
            1812     16.6541E-03     34.5013E-03    -3.10627E+06     139.703E+06     78.9193E+06     700.862E+03    -29.0056E-03     55.5542E-03    -26.5487E-03     118.965E-03    -30.6204E-03     57.4252E-03    -26.3521E-03     119.407E-03
            1813     15.7778E-03     34.3363E-03    -9.57130E+06     121.007E+06     35.2454E+06     841.290E+03    -31.4684E-03     57.8158E-03    -26.3474E-03     148.243E-03    -33.2350E-03     59.8757E-03    -26.3327E-03     148.346E-03
            1814     14.9028E-03     34.2164E-03    -13.8034E+06     73.8532E+06    -4.08806E+06    -499.769E+03    -29.6722E-03     55.8443E-03    -26.1721E-03     110.379E-03    -30.4869E-03     56.8840E-03    -26.2796E-03     110.175E-03
            1815     14.0272E-03     34.1251E-03    -13.3050E+06     23.5222E+06    -9.00907E+06    -1.04074E+06    -28.8166E-03     54.9795E-03    -26.1629E-03     87.7913E-03    -29.2050E-03     55.4303E-03    -26.2228E-03     87.5788E-03
            1816     13.1514E-03     34.0483E-03    -12.7194E+06    -14.0645E+06    -5.70987E+06    -1.49553E+06    -28.4003E-03     54.5729E-03    -26.1725E-03     75.6224E-03    -28.6072E-03     54.7013E-03    -26.1623E-03     75.4358E-03
            1817     12.2754E-03     33.9800E-03    -13.2223E+06    -32.6851E+06    -2.46173E+06    -1.52406E+06    -28.0604E-03     54.2150E-03    -26.1546E-03     68.1913E-03    -28.1848E-03     54.1836E-03    -26.1003E-03     68.0353E-03
            1818     11.3993E-03     33.9173E-03    -13.5661E+06    -46.8602E+06    -2.69645E+06    -1.40108E+06    -27.8804E-03     53.9904E-03    -26.1100E-03     62.7419E-03    -27.9503E-03     53.8536E-03    -26.0359E-03     62.6126E-03
            1819     10.5231E-03     33.8592E-03    -13.9475E+06    -58.1364E+06    -1.15544E+06    -1.09386E+06    -27.6425E-03     53.7086E-03    -26.0661E-03     57.6046E-03    -27.6769E-03     53.4904E-03    -25.9673E-03     57.5009E-03
            1820     9.64691E-03     33.8063E-03    -14.7246E+06    -65.7447E+06    -47.4301E+03    -691.894E+03    -27.3751E-03     53.3896E-03    -26.0145E-03     52.6789E-03    -27.3882E-03     53.1171E-03    -25.8980E-03     52.5985E-03
            1821     8.77049E-03     33.7576E-03    -15.7874E+06    -72.6848E+06    -196.787E+03    -562.751E+03    -27.1227E-03     53.0794E-03    -25.9567E-03     47.9923E-03    -27.1200E-03     52.7632E-03    -25.8294E-03     47.9283E-03
            1822     7.89401E-03     33.7135E-03    -17.1381E+06    -79.2012E+06    -856.000E+03    -284.072E+03    -26.8608E-03     52.7586E-03    -25.8978E-03     43.2525E-03    -26.8468E-03     52.4051E-03    -25.7624E-03     43.2044E-03
            1823     7.01731E-03     33.6738E-03    -18.8311E+06    -86.7512E+06    -2.65965E+06     30.6333E+03    -26.6016E-03     52.4404E-03    -25.8389E-03     38.4684E-03    -26.5771E-03     52.0488E-03    -25.6991E-03     38.4343E-03
            1824     6.14053E-03     33.6389E-03    -20.6493E+06    -93.3025E+06    -5.88028E+06     243.867E+03    -26.3514E-03     52.1289E-03    -25.7775E-03     33.6595E-03    -26.3180E-03     51.7081E-03    -25.6417E-03     33.6362E-03
            1825     5.26355E-03     33.6085E-03    -22.6237E+06    -99.1404E+06    -10.3764E+06     131.831E+03    -26.1305E-03     51.8468E-03    -25.7163E-03     28.8490E-03    -26.0895E-03     51.4036E-03    -25.5916E-03     28.8307E-03
            1826     4.38651E-03     33.5829E-03    -24.7599E+06    -106.034E+06    -15.0826E+06    -16.6889E+03    -25.9450E-03     51.6084E-03    -25.6633E-03     24.0089E-03    -25.8960E-03     51.1388E-03    -25.5491E-03     23.9938E-03
            1827     3.50930E-03     33.5619E-03    -26.6822E+06    -111.385E+06    -19.6501E+06    -60.4956E+03    -25.7858E-03     51.4027E-03    -25.6169E-03     19.1602E-03    -25.7309E-03     50.9146E-03    -25.5149E-03     19.1486E-03
            1828     2.63203E-03     33.5456E-03    -28.3897E+06    -115.218E+06    -23.9996E+06     6.50451E+03    -25.6676E-03     51.2455E-03    -25.5779E-03     14.3504E-03    -25.6085E-03     50.7462E-03    -25.4897E-03     14.3430E-03
            1829     1.75476E-03     33.5339E-03    -29.7718E+06    -117.958E+06    -27.8000E+06     75.7636E+03    -25.5780E-03     51.1286E-03    -25.5506E-03     9.59006E-03    -25.5159E-03     50.6227E-03    -25.4754E-03     9.58634E-03
            1830     877.339E-06     33.5269E-03    -30.6276E+06    -119.347E+06    -30.1327E+06     94.0478E+03    -25.5517E-03     51.0818E-03    -25.5300E-03     5.13767E-03    -25.4882E-03     50.5734E-03    -25.4632E-03     5.13651E-03
            1831     16.6545E-03     33.4989E-03    -5.45963E+06     137.851E+06     78.7647E+06     1.03935E+06    -29.8121E-03     56.3233E-03    -26.5112E-03     117.962E-03    -31.4192E-03     58.1720E-03    -26.3093E-03     118.389E-03
            1832     15.7809E-03     33.3356E-03    -9.34473E+06     122.232E+06     39.8913E+06     2.42343E+06    -31.2994E-03     57.5982E-03    -26.2989E-03     146.010E-03    -33.0435E-03     59.6274E-03    -26.2631E-03     146.131E-03
            1833     14.9042E-03     33.2165E-03    -9.89521E+06     76.9871E+06    -1.51186E+06     234.055E+03    -29.4109E-03     55.5191E-03    -26.1082E-03     109.554E-03    -30.2044E-03     56.5551E-03    -26.2130E-03     109.364E-03
            1834     14.0280E-03     33.1247E-03    -10.0612E+06     23.5308E+06    -10.0853E+06    -2.02683E+06    -28.7296E-03     54.8215E-03    -26.0919E-03     87.4965E-03    -29.0991E-03     55.2681E-03    -26.1619E-03     87.2724E-03
            1835     13.1523E-03     33.0484E-03    -9.94213E+06    -14.2345E+06    -4.69073E+06    -1.52908E+06    -28.3704E-03     54.4833E-03    -26.1129E-03     75.3025E-03    -28.5637E-03     54.6044E-03    -26.1013E-03     75.1160E-03
            1836     12.2762E-03     32.9803E-03    -10.3011E+06    -32.8568E+06    -1.59702E+06    -1.43902E+06    -28.1268E-03     54.2153E-03    -26.0885E-03     68.0457E-03    -28.2372E-03     54.1771E-03    -26.0339E-03     67.8908E-03
            1837     11.4002E-03     32.9175E-03    -11.2013E+06    -47.1317E+06    -1.79904E+06    -1.34368E+06    -27.9205E-03     53.9569E-03    -26.0363E-03     62.4870E-03    -27.9790E-03     53.8135E-03    -25.9607E-03     62.3587E-03
            1838     10.5241E-03     32.8599E-03    -12.4654E+06    -58.7018E+06    -803.223E+03    -1.05945E+06    -27.6527E-03     53.6358E-03    -25.9831E-03     57.3091E-03    -27.6789E-03     53.4117E-03    -25.8839E-03     57.2064E-03
            1839     9.64776E-03     32.8070E-03    -13.7537E+06    -66.0378E+06     167.141E+03    -871.782E+03    -27.3803E-03     53.3029E-03    -25.9227E-03     52.3742E-03    -27.3879E-03     53.0269E-03    -25.8062E-03     52.2919E-03
            1840     8.77143E-03     32.7587E-03    -15.1930E+06    -72.9223E+06    -182.948E+03    -652.043E+03    -27.1071E-03     52.9623E-03    -25.8553E-03     47.6477E-03    -27.1007E-03     52.6437E-03    -25.7284E-03     47.5831E-03
            1841     7.89484E-03     32.7147E-03    -16.9289E+06    -79.6624E+06    -965.337E+03    -419.591E+03    -26.8175E-03     52.6056E-03    -25.7881E-03     42.9021E-03    -26.8014E-03     52.2494E-03    -25.6529E-03     42.8527E-03
            1842     7.01817E-03     32.6754E-03    -18.7217E+06    -86.9883E+06    -3.08697E+06    -143.310E+03    -26.5362E-03     52.2561E-03    -25.7199E-03     38.1212E-03    -26.5101E-03     51.8636E-03    -25.5820E-03     38.0852E-03
            1843     6.14126E-03     32.6407E-03    -20.6277E+06    -93.4818E+06    -6.46128E+06     35.0013E+03    -26.2714E-03     51.9221E-03    -25.6507E-03     33.3314E-03    -26.2367E-03     51.5010E-03    -25.5176E-03     33.3057E-03
            1844     5.26426E-03     32.6106E-03    -22.6367E+06    -99.0012E+06    -10.7469E+06     257.922E+03    -26.0325E-03     51.6161E-03    -25.5836E-03     28.5472E-03    -25.9911E-03     51.1741E-03    -25.4609E-03     28.5308E-03
            1845     4.38706E-03     32.5851E-03    -24.7182E+06    -105.844E+06    -15.2879E+06     197.283E+03    -25.8309E-03     51.3566E-03    -25.5257E-03     23.7380E-03    -25.7816E-03     50.8881E-03    -25.4128E-03     23.7258E-03
            1846     3.50982E-03     32.5643E-03    -26.7690E+06    -111.391E+06    -19.8968E+06     98.9745E+03    -25.6638E-03     51.1381E-03    -25.4742E-03     18.9370E-03    -25.6089E-03     50.6504E-03    -25.3734E-03     18.9276E-03
            1847     2.63245E-03     32.5482E-03    -28.5132E+06    -115.297E+06    -24.2416E+06     149.001E+03    -25.5313E-03     50.9621E-03    -25.4308E-03     14.1896E-03    -25.4724E-03     50.4630E-03    -25.3435E-03     14.1841E-03
            1848     1.75496E-03     32.5366E-03    -29.8106E+06    -117.821E+06    -27.7015E+06     163.068E+03    -25.4386E-03     50.8382E-03    -25.3996E-03     9.47288E-03    -25.3770E-03     50.3329E-03    -25.3240E-03     9.47035E-03
            1849     877.494E-06     32.5297E-03    -30.6321E+06    -119.218E+06    -30.1200E+06     154.097E+03    -25.3628E-03     50.7721E-03    -25.4092E-03     5.13014E-03    -25.2995E-03     50.2644E-03    -25.3426E-03     5.12975E-03
            1850     16.6599E-03     32.4990E-03    -4.44072E+06     135.445E+06     80.8995E+06     752.158E+03    -30.6734E-03     57.1282E-03    -26.4549E-03     118.462E-03    -32.2714E-03     58.9567E-03    -26.2403E-03     118.876E-03
            1851     15.7813E-03     32.3358E-03    -6.11639E+06     123.360E+06     47.8458E+06     1.22147E+06    -30.8334E-03     57.0867E-03    -26.2532E-03     147.048E-03    -32.5726E-03     59.1033E-03    -26.1840E-03     147.172E-03
            1852     14.9052E-03     32.2166E-03    -7.08225E+06     81.1023E+06     4.54955E+06     724.097E+03    -29.2394E-03     55.3065E-03    -26.0671E-03     110.387E-03    -30.0330E-03     56.3497E-03    -26.1517E-03     110.207E-03
            1853     14.0292E-03     32.1248E-03    -7.96748E+06     24.1771E+06    -9.13762E+06    -920.526E+03    -28.6736E-03     54.7106E-03    -26.0370E-03     87.9143E-03    -29.0339E-03     55.1549E-03    -26.1062E-03     87.7054E-03
            1854     13.1528E-03     32.0486E-03    -9.08168E+06    -14.9317E+06    -5.00616E+06    -1.51939E+06    -28.4219E-03     54.4748E-03    -26.0530E-03     75.3409E-03    -28.6086E-03     54.5908E-03    -26.0432E-03     75.1547E-03
            1855     12.2770E-03     31.9803E-03    -9.71201E+06    -32.9312E+06    -1.76318E+06    -1.18903E+06    -28.2069E-03     54.2271E-03    -26.0202E-03     67.8800E-03    -28.3135E-03     54.1874E-03    -25.9672E-03     67.7284E-03
            1856     11.4011E-03     31.9180E-03    -10.6708E+06     -47.615E+06    -1.89326E+06    -860.185E+03    -27.9610E-03     53.9201E-03    -25.9591E-03     62.2582E-03    -28.0154E-03     53.7731E-03    -25.8840E-03     62.1366E-03
            1857     10.5249E-03     31.8605E-03    -11.7208E+06    -58.8326E+06    -717.679E+03    -704.323E+03    -27.7003E-03     53.5958E-03    -25.8955E-03     57.0119E-03    -27.7222E-03     53.3694E-03    -25.7968E-03     56.9141E-03
            1858     9.64878E-03     31.8079E-03    -13.0742E+06    -66.3466E+06     35.1156E+03    -581.693E+03    -27.4019E-03     53.2248E-03    -25.8229E-03     52.0257E-03    -27.4051E-03     52.9460E-03    -25.7076E-03     51.9477E-03
            1859     8.77233E-03     31.7598E-03    -14.7499E+06    -73.1704E+06    -528.817E+03    -379.147E+03    -27.0932E-03     52.8371E-03    -25.7439E-03     47.2726E-03    -27.0834E-03     52.5167E-03    -25.6191E-03     47.2120E-03
            1860     7.89584E-03     31.7162E-03    -16.6045E+06    -79.9434E+06    -1.33434E+06    -198.559E+03    -26.7805E-03     52.4474E-03    -25.6669E-03     42.5090E-03    -26.7615E-03     52.0896E-03    -25.5336E-03     42.4629E-03
            1861     7.01902E-03     31.6772E-03    -18.7255E+06    -87.2066E+06    -3.66255E+06    -55.3188E+03    -26.4779E-03     52.0661E-03    -25.5882E-03     37.7203E-03    -26.4504E-03     51.6732E-03    -25.4529E-03     37.6858E-03
            1862     6.14214E-03     31.6428E-03    -20.9113E+06    -93.6734E+06    -7.08460E+06     142.944E+03    -26.1938E-03     51.7033E-03    -25.5095E-03     32.9372E-03    -26.1592E-03     51.2825E-03    -25.3788E-03     32.9132E-03
            1863     5.26500E-03     31.6129E-03    -22.9894E+06    -99.0863E+06    -11.1134E+06     252.626E+03    -25.9311E-03     51.3654E-03    -25.4343E-03     28.1768E-03    -25.8907E-03     50.9239E-03    -25.3129E-03     28.1606E-03
            1864     4.38778E-03     31.5877E-03    -24.9010E+06    -105.668E+06    -15.4791E+06     348.370E+03    -25.7040E-03     51.0728E-03    -25.3688E-03     23.4068E-03    -25.6556E-03     50.6057E-03    -25.2569E-03     23.3969E-03
            1865     3.51035E-03     31.5670E-03    -26.8087E+06    -111.307E+06    -19.9966E+06     351.858E+03    -25.5203E-03     50.8319E-03    -25.3116E-03     18.6732E-03    -25.4655E-03     50.3448E-03    -25.2114E-03     18.6672E-03
            1866     2.63286E-03     31.5510E-03    -28.5420E+06    -115.163E+06    -24.2366E+06     260.201E+03    -25.3785E-03     50.6417E-03    -25.2632E-03     13.9808E-03    -25.3199E-03     50.1432E-03    -25.1760E-03     13.9770E-03
            1867     1.75530E-03     31.5396E-03    -29.8392E+06    -117.662E+06    -27.6118E+06     142.283E+03    -25.2812E-03     50.5062E-03    -25.2250E-03     9.34620E-03    -25.2201E-03     50.0016E-03    -25.1492E-03     9.34348E-03
            1868     877.695E-06     31.5326E-03    -30.6562E+06    -119.020E+06    -29.9999E+06     139.439E+03    -25.2008E-03     50.4124E-03    -25.2116E-03     5.00557E-03    -25.1381E-03     49.9056E-03    -25.1445E-03     5.00503E-03
            1869     16.6560E-03     31.4977E-03    -5.12048E+06     134.589E+06     79.8691E+06    -563.899E+03    -30.8085E-03     57.2938E-03    -26.4852E-03     119.541E-03    -32.4279E-03     59.1412E-03    -26.2736E-03     119.932E-03
            1870     15.7819E-03     31.3361E-03    -6.22389E+06     123.232E+06     48.8482E+06    -247.348E+03    -31.6616E-03     57.9302E-03    -26.2686E-03     147.636E-03    -33.4198E-03     59.9621E-03    -26.1940E-03     147.722E-03
            1871     14.9054E-03     31.2165E-03    -7.01828E+06     82.1638E+06     6.66472E+06     370.776E+03    -29.5098E-03     55.5662E-03    -26.0564E-03     110.847E-03    -30.3112E-03     56.6150E-03    -26.1320E-03     110.659E-03
            1872     14.0290E-03     31.1249E-03    -7.37290E+06     25.4688E+06    -8.16074E+06     154.000E+03    -28.9111E-03     54.9144E-03    -26.0034E-03     88.1068E-03    -29.2712E-03     55.3625E-03    -26.0704E-03     87.9099E-03
            1873     13.1537E-03     31.0483E-03    -8.18953E+06    -14.6578E+06    -4.90738E+06    -354.093E+03    -28.6032E-03     54.6033E-03    -26.0001E-03     75.2029E-03    -28.7856E-03     54.7188E-03    -25.9915E-03     75.0306E-03
            1874     12.2779E-03     30.9807E-03    -9.73664E+06    -33.2314E+06    -2.39720E+06    -649.024E+03    -28.2939E-03     54.2464E-03    -25.9524E-03     67.6846E-03    -28.3985E-03     54.2054E-03    -25.9021E-03     67.5401E-03
            1875     11.4019E-03     30.9184E-03    -10.7353E+06    -47.9207E+06    -2.57394E+06    -583.437E+03    -28.0585E-03     53.9371E-03    -25.8786E-03     61.9683E-03    -28.1111E-03     53.7890E-03    -25.8064E-03     61.8505E-03
            1876     10.5260E-03     30.8612E-03    -11.7870E+06    -59.0136E+06    -1.37459E+06    -324.515E+03    -27.7699E-03     53.5707E-03    -25.8008E-03     56.6401E-03    -27.7904E-03     53.3438E-03    -25.7051E-03     56.5476E-03
            1877     9.64973E-03     30.8089E-03    -13.2200E+06    -66.5049E+06    -570.313E+03    -149.866E+03    -27.4366E-03     53.1511E-03    -25.7146E-03     51.5994E-03    -27.4389E-03     52.8721E-03    -25.6018E-03     51.5274E-03
            1878     8.77343E-03     30.7611E-03    -14.7672E+06    -73.3641E+06    -1.18172E+06    -57.9022E+03    -27.0975E-03     52.7192E-03    -25.6217E-03     46.8207E-03    -27.0862E-03     52.3984E-03    -25.4998E-03     46.7648E-03
            1879     7.89679E-03     30.7178E-03    -16.5594E+06    -80.1733E+06    -1.69759E+06     155.547E+03    -26.7605E-03     52.2932E-03    -25.5326E-03     42.0166E-03    -26.7402E-03     51.9343E-03    -25.4008E-03     41.9755E-03
            1880     7.02009E-03     30.6791E-03    -18.6871E+06    -87.3368E+06    -3.61238E+06     393.321E+03    -26.4285E-03     51.8709E-03    -25.4425E-03     37.2214E-03    -26.4004E-03     51.4770E-03    -25.3068E-03     37.1931E-03
            1881     6.14307E-03     30.6450E-03    -20.9280E+06    -93.5971E+06     -7.1235E+06     348.677E+03    -26.1141E-03     51.4643E-03    -25.3502E-03     32.4655E-03    -26.0795E-03     51.0438E-03    -25.2197E-03     32.4445E-03
            1882     5.26595E-03     30.6155E-03    -23.0065E+06    -99.0966E+06    -11.1917E+06     279.998E+03    -25.8218E-03     51.0847E-03    -25.2630E-03     27.7407E-03    -25.7812E-03     50.6432E-03    -25.1419E-03     27.7252E-03
            1883     4.38854E-03     30.5905E-03    -24.9984E+06    -105.724E+06    -15.5692E+06     369.151E+03    -25.5666E-03     50.7536E-03    -25.1870E-03     23.0244E-03    -25.5184E-03     50.2864E-03    -25.0753E-03     23.0149E-03
            1884     3.51105E-03     30.5701E-03     -26.787E+06    -111.130E+06    -19.9513E+06     463.256E+03    -25.3579E-03     50.4791E-03    -25.1211E-03     18.3526E-03    -25.3033E-03     49.9927E-03    -25.0209E-03     18.3483E-03
            1885     2.63339E-03     30.5542E-03    -28.3958E+06    -114.826E+06    -24.0542E+06     352.219E+03    -25.1963E-03     50.2625E-03    -25.0662E-03     13.7331E-03    -25.1377E-03     49.7653E-03    -24.9788E-03     13.7305E-03
            1886     1.75565E-03     30.5429E-03    -29.7261E+06    -117.461E+06    -27.6825E+06     191.874E+03    -25.0815E-03     50.1054E-03    -25.0238E-03     9.20023E-03    -25.0200E-03     49.6017E-03    -24.9488E-03     9.19823E-03
            1887     877.808E-06     30.5360E-03    -30.5764E+06    -118.862E+06    -30.0223E+06     15.1212E+03    -25.0447E-03     50.0108E-03    -24.9661E-03     4.93064E-03    -24.9818E-03     49.5046E-03    -24.8995E-03     4.92851E-03
            1888     16.6542E-03     30.4932E-03    -4.32796E+06     135.406E+06     80.0786E+06    -995.805E+03    -30.3487E-03     56.8466E-03    -26.4978E-03     116.594E-03    -31.9288E-03     58.6598E-03    -26.2875E-03     116.979E-03
            1889     15.7804E-03     30.3342E-03    -8.34046E+06     120.930E+06     44.5227E+06    -1.53974E+06    -31.5574E-03     57.8311E-03    -26.2737E-03     145.510E-03    -33.2887E-03     59.8330E-03    -26.2143E-03     145.572E-03
            1890     14.9054E-03     30.2170E-03    -9.72216E+06     81.3700E+06     4.04680E+06    -798.592E+03    -30.0944E-03     56.1442E-03    -26.0498E-03     110.749E-03    -30.9095E-03     57.2019E-03    -26.1335E-03     110.536E-03
            1891     14.0301E-03     30.1240E-03    -9.62901E+06     25.9998E+06    -8.90973E+06     115.748E+03    -29.2507E-03     55.2246E-03    -25.9739E-03     87.9121E-03    -29.6216E-03     55.6794E-03    -26.0422E-03     87.7116E-03
            1892     13.1543E-03     30.0486E-03    -9.74500E+06    -14.4688E+06    -6.76204E+06     282.128E+03    -28.7527E-03     54.6983E-03    -25.9456E-03     75.0726E-03    -28.9395E-03     54.8187E-03    -25.9443E-03     74.9082E-03
            1893     12.2785E-03     29.9806E-03    -10.2454E+06    -32.9092E+06    -3.42575E+06     10.5301E+03    -28.4961E-03     54.3798E-03    -25.8837E-03     67.4178E-03    -28.6015E-03     54.3420E-03    -25.8383E-03     67.2812E-03
            1894     11.4029E-03     29.9188E-03    -11.4047E+06    -48.1995E+06    -3.53061E+06    -44.1944E+03    -28.1944E-03     53.9870E-03    -25.7925E-03     61.5602E-03    -28.2479E-03     53.8391E-03    -25.7238E-03     61.4494E-03
            1895     10.5269E-03     29.8618E-03    -12.7427E+06    -59.0836E+06    -2.22875E+06     52.2444E+03    -27.8566E-03     53.5546E-03    -25.6980E-03     56.1739E-03    -27.8799E-03     53.3294E-03    -25.6050E-03     56.0867E-03
            1896     9.65091E-03     29.8099E-03    -13.9531E+06    -66.6230E+06    -1.11412E+06     84.5455E+03    -27.4967E-03     53.0925E-03    -25.5958E-03     51.0579E-03    -27.5013E-03     52.8143E-03    -25.4845E-03     50.9893E-03
            1897     8.77453E-03     29.7625E-03    -15.4394E+06    -73.4244E+06    -1.57185E+06     201.908E+03    -27.1275E-03     52.6131E-03    -25.4856E-03     46.2385E-03    -27.1185E-03     52.2932E-03    -25.3646E-03     46.1864E-03
            1898     7.89808E-03     29.7196E-03    -17.1162E+06    -80.4379E+06    -2.06747E+06     346.290E+03    -26.7468E-03     52.1260E-03    -25.3791E-03     41.4218E-03    -26.7281E-03     51.7669E-03    -25.2480E-03     41.3836E-03
            1899     7.02123E-03     29.6813E-03    -18.8132E+06    -87.3550E+06    -3.62848E+06     482.948E+03    -26.3743E-03     51.6476E-03    -25.2733E-03     36.6353E-03    -26.3467E-03     51.2536E-03    -25.1375E-03     36.6086E-03
            1900     6.14425E-03     29.6475E-03    -20.6674E+06    -93.4248E+06    -6.99035E+06     540.639E+03    -26.0193E-03     51.1853E-03    -25.1660E-03     31.9175E-03    -25.9837E-03     50.7649E-03    -25.0355E-03     31.8994E-03
            1901     5.26694E-03     29.6183E-03    -22.8338E+06    -98.9425E+06    -11.1615E+06     472.809E+03    -25.6948E-03     50.7597E-03    -25.0649E-03     27.2401E-03    -25.6535E-03     50.3185E-03    -24.9442E-03     27.2273E-03
            1902     4.38950E-03     29.5937E-03    -24.9679E+06    -105.805E+06    -15.4084E+06     481.608E+03    -25.4135E-03     50.3910E-03    -24.9774E-03     22.5904E-03    -25.3652E-03     49.9230E-03    -24.8648E-03     22.5827E-03
            1903     3.51182E-03     29.5735E-03    -26.9449E+06    -110.921E+06    -20.2008E+06     533.957E+03    -25.1726E-03     50.0706E-03    -24.8980E-03     18.0018E-03    -25.1186E-03     49.5858E-03    -24.7991E-03     17.9986E-03
            1904     2.63400E-03     29.5579E-03    -28.4985E+06    -114.437E+06    -24.5732E+06     385.815E+03    -24.9813E-03     49.8148E-03    -24.8335E-03     13.4699E-03    -24.9230E-03     49.3204E-03    -24.7491E-03     13.4679E-03
            1905     1.75604E-03     29.5467E-03    -29.6459E+06    -117.250E+06    -27.7655E+06     264.689E+03    -24.8516E-03     49.6410E-03    -24.7894E-03     9.01094E-03    -24.7899E-03     49.1384E-03    -24.7152E-03     9.00997E-03
            1906     878.065E-06     29.5399E-03    -30.4209E+06    -118.570E+06    -30.0344E+06     147.935E+03    -24.8020E-03     49.5407E-03    -24.7387E-03     4.84266E-03    -24.7387E-03     49.0358E-03    -24.6729E-03     4.84229E-03
            1907     16.6611E-03     29.4948E-03    -3.36872E+06     136.596E+06     81.4715E+06    -883.723E+03    -30.2303E-03     56.7112E-03    -26.4808E-03     117.514E-03    -31.7948E-03     58.5123E-03    -26.2667E-03     117.897E-03
            1908     15.7807E-03     29.3351E-03    -7.17970E+06     121.084E+06     42.8969E+06    -960.083E+03    -31.3869E-03     57.6404E-03    -26.2534E-03     146.040E-03    -33.0950E-03     59.6283E-03    -26.2041E-03     146.111E-03
            1909     14.9050E-03     29.2139E-03    -10.2932E+06     79.8878E+06     3.30365E+06    -559.138E+03    -30.2917E-03     56.3299E-03    -26.0381E-03     110.073E-03    -31.1042E-03     57.3798E-03    -26.1225E-03     109.859E-03
            1910     14.0303E-03     29.1246E-03    -11.8600E+06     25.2126E+06    -8.22553E+06     147.004E+03    -29.4705E-03     55.4254E-03    -25.9548E-03     87.3630E-03    -29.8517E-03     55.8778E-03    -26.0153E-03     87.1608E-03
            1911     13.1546E-03     29.0478E-03    -12.3946E+06    -14.0681E+06    -8.43211E+06     76.4343E+03    -29.0399E-03     54.9330E-03    -25.8931E-03     74.8620E-03    -29.2372E-03     55.0608E-03    -25.8969E-03     74.6936E-03
            1912     12.2796E-03     28.9807E-03    -12.7899E+06    -32.8231E+06    -4.38031E+06     51.8602E+03    -28.7283E-03     54.5397E-03    -25.8114E-03     66.8298E-03    -28.8445E-03     54.5067E-03    -25.7672E-03     66.6929E-03
            1913     11.4038E-03     28.9190E-03    -13.2936E+06    -48.2287E+06    -4.39568E+06     115.616E+03    -28.3592E-03     54.0563E-03    -25.6971E-03     60.9877E-03    -28.4201E-03     53.9115E-03    -25.6298E-03     60.8789E-03
            1914     10.5282E-03     28.8625E-03    -13.7568E+06    -59.0137E+06    -2.55009E+06     1.18325E+03    -27.9802E-03     53.5622E-03    -25.5820E-03     55.5107E-03    -28.0076E-03     53.3387E-03    -25.4892E-03     55.4228E-03
            1915     9.65213E-03     28.8110E-03    -14.6654E+06    -66.7915E+06    -1.49106E+06     67.6154E+03    -27.5721E-03     53.0299E-03    -25.4578E-03     50.3622E-03    -27.5789E-03     52.7519E-03    -25.3472E-03     50.2937E-03
            1916     8.77600E-03     28.7640E-03    -15.8799E+06    -73.5764E+06    -1.78602E+06     301.151E+03    -27.1518E-03     52.4792E-03    -25.3274E-03     45.5262E-03    -27.1441E-03     52.1591E-03    -25.2066E-03     45.4758E-03
            1917     7.89940E-03     28.7216E-03    -17.3704E+06    -80.3547E+06    -2.51059E+06     327.364E+03    -26.7220E-03     51.9217E-03    -25.1998E-03     40.7432E-03    -26.7036E-03     51.5637E-03    -25.0706E-03     40.7052E-03
            1918     7.02267E-03     28.6837E-03    -19.0876E+06    -87.4856E+06    -4.19449E+06     330.837E+03    -26.3064E-03     51.3819E-03    -25.0755E-03     35.9855E-03    -26.2789E-03     50.9882E-03    -24.9420E-03     35.9573E-03
            1919     6.14552E-03     28.6504E-03    -20.9931E+06    -93.4926E+06    -7.34993E+06     601.000E+03    -25.9084E-03     50.8608E-03    -24.9524E-03     31.2999E-03    -25.8737E-03     50.4409E-03    -24.8231E-03     31.2829E-03
            1920     5.26818E-03     28.6215E-03    -22.9786E+06    -98.6847E+06    -11.3586E+06     708.959E+03    -25.5438E-03     50.3800E-03    -24.8363E-03     26.6803E-03    -25.5032E-03     49.9405E-03    -24.7166E-03     26.6709E-03
            1921     4.39054E-03     28.5972E-03    -25.0667E+06    -105.741E+06    -15.5624E+06     656.716E+03    -25.2298E-03     49.9655E-03    -24.7357E-03     22.1030E-03    -25.1817E-03     49.4982E-03    -24.6239E-03     22.0978E-03
            1922     3.51272E-03     28.5774E-03    -26.8885E+06    -110.608E+06    -20.1365E+06     573.280E+03    -24.9593E-03     49.6044E-03    -24.6450E-03     17.6004E-03    -24.9056E-03     49.1210E-03    -24.5464E-03     17.5979E-03
            1923     2.63468E-03     28.5620E-03    -28.3961E+06    -114.102E+06    -24.5005E+06     437.736E+03    -24.7429E-03     49.3135E-03    -24.5706E-03     13.1612E-03    -24.6847E-03     48.8204E-03    -24.4864E-03     13.1601E-03
            1924     1.75655E-03     28.5509E-03    -29.5649E+06    -117.018E+06    -27.8709E+06     341.395E+03    -24.5904E-03     49.1095E-03    -24.5191E-03     8.82212E-03    -24.5285E-03     48.6080E-03    -24.4459E-03     8.82224E-03
            1925     878.268E-06     28.5442E-03    -30.3067E+06    -118.107E+06    -29.8395E+06     264.731E+03    -24.5199E-03     48.9970E-03    -24.4771E-03     4.74947E-03    -24.4570E-03     48.4940E-03    -24.4111E-03     4.75066E-03
            1926     16.6514E-03     28.4919E-03    -5.14779E+06     137.512E+06     77.2991E+06    -1.14812E+06    -30.4855E-03     56.9629E-03    -26.4775E-03     116.713E-03    -32.0621E-03     58.7853E-03    -26.2829E-03     117.074E-03
            1927     15.7814E-03     28.3334E-03    -10.1987E+06     120.595E+06     36.9130E+06    -2.00284E+06    -31.9847E-03     58.2034E-03    -26.2187E-03     145.625E-03    -33.7047E-03     60.2082E-03    -26.1943E-03     145.661E-03
            1928     14.9064E-03     28.2138E-03    -10.9227E+06     77.5341E+06     3.13163E+06     332.653E+03    -30.3110E-03     56.3230E-03    -26.0121E-03     109.936E-03    -31.1203E-03     57.3598E-03    -26.0930E-03     109.732E-03
            1929     14.0303E-03     28.1233E-03    -12.2885E+06     25.4995E+06    -6.69826E+06     1.02538E+06    -29.7335E-03     55.6546E-03    -25.9211E-03     86.6901E-03    -30.1183E-03     56.1057E-03    -25.9738E-03     86.4961E-03
            1930     13.1559E-03     28.0473E-03    -13.0431E+06    -13.1635E+06    -7.72787E+06     47.6285E+03    -29.3697E-03     55.1994E-03    -25.8297E-03     74.0367E-03    -29.5718E-03     55.3309E-03    -25.8304E-03     73.8656E-03
            1931     12.2803E-03     27.9804E-03    -13.3423E+06    -33.1441E+06    -4.24999E+06    -256.731E+03    -28.9156E-03     54.6371E-03    -25.7214E-03     66.0713E-03    -29.0332E-03     54.6019E-03    -25.6753E-03     65.9299E-03
            1932     11.4053E-03     27.9193E-03    -13.4589E+06    -47.8955E+06    -4.41389E+06    -423.254E+03    -28.5535E-03     54.1344E-03    -25.5809E-03     60.1687E-03    -28.6149E-03     53.9908E-03    -25.5140E-03     60.0526E-03
            1933     10.5296E-03     27.8632E-03    -13.8886E+06    -59.3287E+06    -2.81335E+06    -316.559E+03    -28.1019E-03     53.5426E-03    -25.4407E-03     54.7004E-03    -28.1284E-03     53.3173E-03    -25.3486E-03     54.6087E-03
            1934     9.65384E-03     27.8121E-03    -14.7372E+06    -66.9274E+06    -1.85083E+06    -12.3955E+03    -27.6306E-03     52.9234E-03    -25.2928E-03     49.5567E-03    -27.6365E-03     52.6448E-03    -25.1836E-03     49.4877E-03
            1935     8.77753E-03     27.7657E-03    -15.9017E+06    -73.8488E+06    -2.26211E+06     160.281E+03    -27.1539E-03     52.2945E-03    -25.1407E-03     44.7366E-03    -27.1447E-03     51.9733E-03    -25.0218E-03     44.6849E-03
            1936     7.90111E-03     27.7237E-03    -17.2866E+06    -80.1865E+06    -2.88715E+06     316.950E+03    -26.6782E-03     51.6709E-03    -24.9927E-03     39.9673E-03    -26.6587E-03     51.3138E-03    -24.8658E-03     39.9298E-03
            1937     7.02416E-03     27.6864E-03    -19.1367E+06    -87.6766E+06    -4.51744E+06     447.645E+03    -26.2173E-03     51.0677E-03    -24.8504E-03     35.2467E-03    -26.1889E-03     50.6733E-03    -24.7181E-03     35.2205E-03
            1938     6.14705E-03     27.6535E-03    -21.1817E+06    -93.6636E+06    -7.66127E+06     672.336E+03    -25.7770E-03     50.4866E-03    -24.7095E-03     30.6107E-03    -25.7423E-03     50.0664E-03    -24.5813E-03     30.5952E-03
            1939     5.26952E-03     27.6252E-03    -23.2194E+06    -98.4687E+06    -11.5611E+06     788.212E+03    -25.3653E-03     49.9426E-03    -24.5773E-03     26.0715E-03    -25.3258E-03     49.5046E-03    -24.4587E-03     26.0636E-03
            1940     4.39175E-03     27.6012E-03    -25.0748E+06    -105.457E+06    -15.5599E+06     692.880E+03    -25.0139E-03     49.4776E-03    -24.4637E-03     21.5787E-03    -24.9662E-03     49.0116E-03    -24.3522E-03     21.5743E-03
            1941     3.51371E-03     27.5817E-03    -26.8847E+06    -110.329E+06    -20.0877E+06     581.967E+03    -24.7176E-03     49.0788E-03    -24.3612E-03     17.1714E-03    -24.6643E-03     48.5966E-03    -24.2626E-03     17.1693E-03
            1942     2.63549E-03     27.5666E-03    -28.4995E+06    -113.799E+06    -24.3532E+06     520.621E+03    -24.4770E-03     48.7531E-03    -24.2760E-03     12.8290E-03    -24.4199E-03     48.2614E-03    -24.1915E-03     12.8291E-03
            1943     1.75705E-03     27.5558E-03    -29.7544E+06    -116.697E+06    -27.6605E+06     422.616E+03    -24.3017E-03     48.5164E-03    -24.2146E-03     8.58928E-03    -24.2415E-03     48.0165E-03    -24.1406E-03     8.59058E-03
            1944     878.559E-06     27.5491E-03    -30.5923E+06    -117.543E+06    -30.0835E+06     271.062E+03    -24.1906E-03     48.3728E-03    -24.1822E-03     4.64523E-03    -24.1296E-03     47.8734E-03    -24.1178E-03     4.64656E-03
            1945     16.6611E-03     27.4916E-03    -2.80299E+06     140.228E+06     79.9036E+06     965.568E+03    -30.7998E-03     57.2680E-03    -26.4682E-03     115.644E-03    -32.3500E-03     59.0743E-03    -26.2680E-03     116.023E-03
            1946     15.7814E-03     27.3318E-03    -9.24964E+06     120.154E+06     34.6715E+06     387.237E+03    -31.9383E-03     58.1210E-03    -26.1826E-03     145.085E-03    -33.6318E-03     60.1075E-03    -26.1701E-03     145.145E-03
            1947     14.9057E-03     27.2133E-03    -14.0625E+06     75.0225E+06    -5.02284E+06    -513.365E+03    -30.7972E-03     56.7368E-03    -25.9397E-03     109.679E-03    -31.6049E-03     57.7755E-03    -26.0532E-03     109.455E-03
            1948     14.0319E-03     27.1216E-03    -12.5681E+06     26.5208E+06    -8.66752E+06     10.1742E+03    -30.1141E-03     55.9538E-03    -25.8397E-03     86.0527E-03    -30.4970E-03     56.4113E-03    -25.9032E-03     85.8418E-03
            1949     13.1568E-03     27.0469E-03    -11.2532E+06    -12.8187E+06    -6.80695E+06    -101.505E+03    -29.5797E-03     55.3144E-03    -25.7347E-03     73.1078E-03    -29.7729E-03     55.4419E-03    -25.7338E-03     72.9337E-03
            1950     12.2821E-03     26.9800E-03    -11.2930E+06    -32.9173E+06    -3.93460E+06    -433.050E+03    -29.1319E-03     54.7313E-03    -25.5994E-03     65.2481E-03    -29.2386E-03     54.6925E-03    -25.5550E-03     65.1041E-03
            1951     11.4068E-03     26.9195E-03    -12.0590E+06    -47.9554E+06    -4.12930E+06     -351.52E+03    -28.6959E-03     54.1316E-03    -25.4357E-03     59.2434E-03    -28.7495E-03     53.9841E-03    -25.3693E-03     59.1284E-03
            1952     10.5315E-03     26.8638E-03    -13.2440E+06    -59.6206E+06    -3.04204E+06    -185.342E+03    -28.1937E-03     53.4645E-03    -25.2707E-03     53.7983E-03    -28.2153E-03     53.2362E-03    -25.1803E-03     53.7088E-03
            1953     9.65555E-03     26.8134E-03    -14.5195E+06    -67.1233E+06    -2.09171E+06     9.87987E+03    -27.6604E-03     52.7610E-03    -25.1006E-03     48.6690E-03    -27.6638E-03     52.4806E-03    -24.9926E-03     48.6009E-03
            1954     8.77951E-03     26.7675E-03    -15.8597E+06    -73.9952E+06    -2.52348E+06     161.418E+03    -27.1365E-03     52.0633E-03    -24.9268E-03     43.8618E-03    -27.1259E-03     51.7411E-03    -24.8091E-03     43.8109E-03
            1955     7.90287E-03     26.7262E-03    -17.4524E+06    -80.3354E+06    -3.22378E+06     360.854E+03    -26.6100E-03     51.3679E-03    -24.7579E-03     39.1260E-03    -26.5902E-03     51.0103E-03    -24.6322E-03     39.0898E-03
            1956     7.02604E-03     26.6893E-03    -19.2230E+06    -87.8157E+06    -4.68263E+06     631.183E+03    -26.1017E-03     50.6983E-03    -24.5966E-03     34.4434E-03    -26.0730E-03     50.3032E-03    -24.4648E-03     34.4202E-03
            1957     6.14869E-03     26.6571E-03    -21.1866E+06    -93.6760E+06    -7.66666E+06     761.890E+03    -25.6116E-03     50.0500E-03    -24.4383E-03     29.8694E-03    -25.5767E-03     49.6295E-03    -24.3101E-03     29.8555E-03
            1958     5.27107E-03     26.6292E-03    -23.0408E+06    -98.2454E+06    -11.4219E+06     730.978E+03    -25.1607E-03     49.4509E-03    -24.2902E-03     25.4089E-03    -25.1207E-03     49.0134E-03    -24.1714E-03     25.4007E-03
            1959     4.39307E-03     26.6058E-03    -24.9895E+06    -105.231E+06    -15.5887E+06     730.527E+03    -24.7720E-03     48.9336E-03    -24.1616E-03     21.0111E-03    -24.7241E-03     48.4686E-03    -24.0507E-03     21.0076E-03
            1960     3.51482E-03     26.5866E-03    -26.9267E+06    -110.049E+06    -20.1472E+06     716.889E+03    -24.4405E-03     48.4878E-03    -24.0473E-03     16.6980E-03    -24.3877E-03     48.0072E-03    -23.9495E-03     16.6979E-03
            1961     2.63631E-03     26.5718E-03    -28.5926E+06    -113.435E+06    -24.2771E+06     568.620E+03    -24.1744E-03     48.1283E-03    -23.9539E-03     12.4810E-03    -24.1183E-03     47.6384E-03    -23.8693E-03     12.4820E-03
            1962     1.75770E-03     26.5612E-03    -29.9299E+06    -116.359E+06    -27.5659E+06     456.598E+03    -23.9871E-03     47.8713E-03    -23.8843E-03     8.37927E-03    -23.9283E-03     47.3732E-03    -23.8100E-03     8.38113E-03
            1963     878.886E-06     26.5548E-03    -30.9334E+06    -116.898E+06    -30.1866E+06     385.578E+03    -23.8357E-03     47.6987E-03    -23.8630E-03     4.53210E-03    -23.7771E-03     47.2031E-03    -23.7996E-03     4.53499E-03
            1964     16.6536E-03     26.4892E-03    -5.12689E+06     137.890E+06     79.0529E+06     1.06936E+06    -31.1142E-03     57.5864E-03    -26.4722E-03     116.531E-03    -32.6745E-03     59.3887E-03    -26.2694E-03     116.893E-03
            1965     15.7816E-03     26.3315E-03    -8.49402E+06     121.345E+06     39.2722E+06     2.56509E+06    -32.7398E-03     58.9140E-03    -26.1741E-03     144.996E-03    -34.4366E-03     60.8974E-03    -26.1414E-03     145.064E-03
            1966     14.9078E-03     26.2105E-03    -9.07641E+06      77.685E+06    -2.06513E+06     548.276E+03    -31.2985E-03     57.1730E-03    -25.8745E-03     108.859E-03    -32.0830E-03     58.2070E-03    -25.9843E-03     108.641E-03
            1967     14.0330E-03     26.1210E-03    -10.5445E+06     25.5335E+06    -11.7942E+06    -1.04614E+06    -30.3809E-03     56.1052E-03    -25.7243E-03     85.1950E-03    -30.7439E-03     56.5557E-03    -25.8050E-03     84.9687E-03
            1968     13.1586E-03     26.0456E-03    -10.9128E+06    -12.3584E+06    -7.91941E+06    -399.053E+03    -29.8099E-03     55.4150E-03    -25.6051E-03     72.2882E-03    -29.9983E-03     55.5438E-03    -25.6110E-03     72.1096E-03
            1969     12.2838E-03     25.9799E-03    -11.4865E+06    -32.9420E+06    -4.66626E+06    -338.203E+03    -29.3127E-03     54.7605E-03    -25.4478E-03     64.3097E-03    -29.4177E-03     54.7213E-03    -25.4067E-03     64.1670E-03
            1970     11.4089E-03     25.9194E-03    -12.3183E+06    -48.3917E+06    -4.55413E+06     37.4879E+03    -28.7901E-03     54.0522E-03    -25.2621E-03     58.3150E-03    -28.8423E-03     53.9021E-03    -25.1969E-03     58.2057E-03
            1971     10.5334E-03     25.8648E-03    -13.3004E+06    -59.5151E+06    -3.07886E+06     233.743E+03    -28.2448E-03     53.3202E-03    -25.0754E-03     52.8231E-03    -28.2657E-03     53.0915E-03    -24.9852E-03     52.7398E-03
            1972     9.65781E-03     25.8148E-03    -14.4984E+06    -67.2743E+06    -2.09420E+06     134.108E+03    -27.6693E-03     52.5522E-03    -24.8830E-03     47.7313E-03    -27.6715E-03     52.2703E-03    -24.7749E-03     47.6657E-03
            1973     8.78153E-03     25.7697E-03    -15.8482E+06    -74.1047E+06    -2.44833E+06     307.915E+03    -27.0938E-03     51.7811E-03    -24.6873E-03     42.9307E-03    -27.0825E-03     51.4575E-03    -24.5691E-03     42.8825E-03
            1974     7.90504E-03     25.7289E-03    -17.3667E+06    -80.4939E+06    -3.23955E+06     438.114E+03    -26.5152E-03     51.0120E-03    -24.4968E-03     38.2309E-03    -26.4942E-03     50.6531E-03    -24.3711E-03     38.1964E-03
            1975     7.02794E-03     25.6928E-03    -19.0663E+06    -88.0332E+06    -4.75116E+06     676.846E+03    -25.9538E-03     50.2697E-03    -24.3159E-03     33.5977E-03    -25.9236E-03     49.8731E-03    -24.1844E-03     33.5759E-03
            1976     6.15058E-03     25.6611E-03    -20.8600E+06    -93.4470E+06    -7.51574E+06     771.286E+03    -25.4188E-03     49.5591E-03    -24.1404E-03     29.0937E-03    -25.3825E-03     49.1388E-03    -24.0122E-03     29.0807E-03
            1977     5.27271E-03     25.6338E-03    -22.8713E+06    -98.1748E+06    -11.6553E+06     787.204E+03    -24.9277E-03     48.9028E-03    -23.9751E-03     24.7176E-03    -24.8865E-03     48.4656E-03    -23.8578E-03     24.7107E-03
            1978     4.39454E-03     25.6108E-03    -24.9057E+06    -105.105E+06    -15.8009E+06      947.85E+03    -24.5032E-03     48.3361E-03    -23.8328E-03     20.4200E-03    -24.4547E-03     47.8717E-03    -23.7233E-03     20.4197E-03
            1979     3.51603E-03     25.5922E-03    -26.8490E+06    -109.616E+06    -20.1374E+06     882.318E+03    -24.1362E-03     47.8441E-03    -23.7078E-03     16.2101E-03    -24.0836E-03     47.3654E-03    -23.6107E-03     16.2125E-03
            1980     2.63727E-03     25.5776E-03    -28.5114E+06    -112.987E+06    -24.3284E+06     672.319E+03    -23.8401E-03     47.4468E-03    -23.6067E-03     12.1058E-03    -23.7842E-03     46.9592E-03    -23.5232E-03     12.1083E-03
            1981     1.75822E-03     25.5673E-03    -29.8396E+06    -115.942E+06    -27.6975E+06     498.056E+03    -23.6361E-03     47.1709E-03    -23.5348E-03     8.13290E-03    -23.5773E-03     46.6749E-03    -23.4619E-03     8.13545E-03
            1982     879.154E-06     25.5609E-03    -30.6483E+06    -116.269E+06    -30.0804E+06     375.190E+03    -23.5095E-03     47.0024E-03    -23.4929E-03     4.37662E-03    -23.4506E-03     46.5094E-03    -23.4303E-03     4.37946E-03
            1983     16.6577E-03     25.4864E-03    -4.29084E+06     136.123E+06     80.9327E+06     914.603E+03    -31.8649E-03     58.3221E-03    -26.4572E-03     114.045E-03    -33.4102E-03     60.1007E-03    -26.2437E-03     114.374E-03
            1984     15.7831E-03     25.3282E-03    -7.37964E+06     121.031E+06     45.0382E+06     630.313E+03    -33.1393E-03     59.2740E-03    -26.1347E-03     143.205E-03    -34.8322E-03     61.2398E-03    -26.0743E-03     143.227E-03
            1985     14.9088E-03     25.2094E-03    -9.10158E+06     80.0645E+06     3.05830E+06     1.89798E+06    -31.5574E-03     57.3585E-03    -25.8011E-03     108.275E-03    -32.3466E-03     58.3907E-03    -25.8887E-03     108.068E-03
            1986     14.0348E-03     25.1191E-03    -11.0914E+06     26.8382E+06    -10.3034E+06     792.115E+03    -30.6426E-03     56.2532E-03    -25.6106E-03     84.4351E-03    -31.0086E-03     56.7051E-03    -25.6850E-03     84.2305E-03
            1987     13.1605E-03     25.0449E-03    -12.5871E+06    -12.4003E+06    -8.05266E+06    -708.264E+03    -30.0380E-03     55.4981E-03    -25.4601E-03     71.3728E-03    -30.2321E-03     55.6269E-03    -25.4641E-03     71.1895E-03
            1988     12.2861E-03     24.9792E-03    -12.7929E+06    -33.2816E+06    -4.79888E+06    -343.472E+03    -29.4381E-03     54.7150E-03    -25.2769E-03     63.3393E-03    -29.5469E-03     54.6742E-03    -25.2341E-03     63.1970E-03
            1989     11.4111E-03     24.9200E-03    -13.1449E+06    -48.6986E+06    -4.90278E+06    -97.8951E+03    -28.8681E-03     53.9339E-03    -25.0658E-03     57.3422E-03    -28.9220E-03     53.7824E-03    -25.0006E-03     57.2321E-03
            1990     10.5359E-03     24.8655E-03    -13.4940E+06    -59.6224E+06    -3.06951E+06     130.001E+03    -28.2674E-03     53.1241E-03    -24.8567E-03     51.8544E-03    -28.2879E-03     52.8939E-03    -24.7660E-03     51.7709E-03
            1991     9.66003E-03     24.8166E-03    -14.4042E+06    -67.2552E+06    -2.00753E+06     379.074E+03    -27.6513E-03     52.2930E-03    -24.6417E-03     46.7485E-03    -27.6524E-03     52.0100E-03    -24.5333E-03     46.6872E-03
            1992     8.78395E-03     24.7719E-03    -15.7856E+06    -74.2006E+06    -2.66859E+06     384.351E+03    -27.0263E-03     51.4489E-03    -24.4227E-03     41.9822E-03    -27.0135E-03     51.1244E-03    -24.3055E-03     41.9360E-03
            1993     7.90724E-03     24.7321E-03    -17.4168E+06    -80.7160E+06    -3.48425E+06     671.520E+03    -26.3949E-03     50.6064E-03    -24.2115E-03     37.2951E-03    -26.3730E-03     50.2462E-03    -24.0866E-03     37.2646E-03
            1994     7.03017E-03     24.6965E-03    -19.2597E+06    -87.8768E+06    -5.38157E+06     683.291E+03    -25.7758E-03     49.7852E-03    -24.0094E-03     32.7208E-03    -25.7455E-03     49.3901E-03    -23.8809E-03     32.6999E-03
            1995     6.15252E-03     24.6656E-03    -21.0582E+06    -93.5152E+06    -8.23508E+06     715.400E+03    -25.1975E-03     49.0145E-03    -23.8170E-03     28.2904E-03    -25.1608E-03     48.5949E-03    -23.6921E-03     28.2774E-03
            1996     5.27451E-03     24.6389E-03    -22.9837E+06    -98.1916E+06    -11.8782E+06     1.06505E+06    -24.6679E-03     48.3069E-03    -23.6390E-03     23.9930E-03    -24.6267E-03     47.8700E-03    -23.5227E-03     23.9903E-03
            1997     4.39605E-03     24.6166E-03    -24.9926E+06    -104.815E+06    -16.0015E+06     1.08050E+06    -24.2042E-03     47.6879E-03    -23.4837E-03     19.8008E-03    -24.1560E-03     47.2253E-03    -23.3755E-03     19.8027E-03
            1998     3.51729E-03     24.5983E-03    -26.7052E+06    -109.209E+06    -20.3391E+06     996.987E+03    -23.8102E-03     47.1584E-03    -23.3482E-03     15.7037E-03    -23.7571E-03     46.6818E-03    -23.2528E-03     15.7080E-03
            1999     2.63821E-03     24.5843E-03    -28.3042E+06    -112.447E+06    -24.4234E+06     909.248E+03    -23.4989E-03     46.7371E-03    -23.2382E-03     11.7186E-03    -23.4426E-03     46.2519E-03    -23.1562E-03     11.7245E-03
            2000     1.75898E-03     24.5741E-03    -29.7493E+06    -115.322E+06    -27.6270E+06     647.825E+03    -23.2738E-03     46.4326E-03    -23.1588E-03     7.86129E-03    -23.2155E-03     45.9394E-03    -23.0866E-03     7.86594E-03
            2001     879.505E-06     24.5680E-03    -30.7081E+06    -115.620E+06    -30.0441E+06     318.993E+03    -23.1445E-03     46.2422E-03    -23.0977E-03     4.24570E-03    -23.0868E-03     45.7525E-03    -23.0358E-03     4.24790E-03
            2002     16.6591E-03     24.4845E-03    -4.18617E+06     135.958E+06     79.9672E+06     643.170E+03    -32.5952E-03     59.0159E-03    -26.4207E-03     115.601E-03    -34.1406E-03     60.7972E-03    -26.2119E-03     115.905E-03
            2003     15.7844E-03     24.3264E-03    -7.56705E+06     119.579E+06     43.0519E+06     1.85155E+06    -33.8061E-03     59.8676E-03    -26.0615E-03     144.212E-03    -35.4926E-03     61.8269E-03    -26.0086E-03     144.229E-03
            2004     14.9105E-03     24.2070E-03    -11.0172E+06     80.6717E+06     1.01996E+06     2.30960E+06    -32.1067E-03     57.7963E-03    -25.6896E-03     107.576E-03    -32.8941E-03     58.8280E-03    -25.7855E-03     107.367E-03
            2005     14.0367E-03     24.1176E-03    -10.5150E+06     29.8038E+06    -9.33420E+06     1.05191E+06    -30.9686E-03     56.4400E-03    -25.4714E-03     83.5581E-03    -31.3320E-03     56.8990E-03    -25.5461E-03     83.3553E-03
            2006     13.1628E-03     24.0437E-03    -10.2589E+06    -12.3499E+06    -6.16553E+06     73.8775E+03    -30.2230E-03     55.5220E-03    -25.2991E-03     70.3745E-03    -30.4052E-03     55.6419E-03    -25.2971E-03     70.2015E-03
            2007     12.2883E-03     23.9791E-03    -11.3967E+06    -33.3467E+06    -4.03334E+06    -232.870E+03    -29.5536E-03     54.6411E-03    -25.0875E-03     62.3919E-03    -29.6543E-03     54.5947E-03    -25.0428E-03     62.2520E-03
            2008     11.4136E-03     23.9202E-03    -12.0217E+06    -48.8193E+06    -4.68913E+06    -239.329E+03    -28.9426E-03     53.7930E-03    -24.8503E-03     56.3754E-03    -28.9894E-03     53.6373E-03    -24.7855E-03     56.2645E-03
            2009     10.5383E-03     23.8669E-03    -12.8484E+06    -60.1197E+06    -3.23512E+06     108.762E+03    -28.2906E-03     52.9075E-03    -24.6168E-03     50.8547E-03    -28.3056E-03     52.6728E-03    -24.5272E-03     50.7722E-03
            2010     9.66268E-03     23.8184E-03    -13.9088E+06    -67.3389E+06    -1.97871E+06     490.550E+03    -27.6112E-03     51.9908E-03    -24.3796E-03     45.7382E-03    -27.6087E-03     51.7056E-03    -24.2716E-03     45.6796E-03
            2011     8.78637E-03     23.7748E-03    -15.2803E+06    -74.2707E+06    -2.66326E+06     746.330E+03    -26.9357E-03     51.0745E-03    -24.1388E-03     40.9710E-03    -26.9196E-03     50.7482E-03    -24.0223E-03     40.9307E-03
            2012     7.90971E-03     23.7355E-03    -16.8847E+06    -80.8595E+06    -3.66168E+06     853.693E+03    -26.2482E-03     50.1548E-03    -23.9067E-03     36.3146E-03    -26.2226E-03     49.7929E-03    -23.7832E-03     36.2876E-03
            2013     7.03238E-03     23.7010E-03    -18.6431E+06    -87.6129E+06    -5.34901E+06     992.310E+03    -25.5833E-03     49.2697E-03    -23.6864E-03     31.7975E-03    -25.5499E-03     48.8747E-03    -23.5591E-03     31.7815E-03
            2014     6.15464E-03     23.6706E-03    -20.8565E+06    -93.5466E+06    -8.39223E+06     1.01392E+06    -24.9580E-03     48.4354E-03    -23.4774E-03     27.4420E-03    -24.9197E-03     48.0153E-03    -23.3535E-03     27.4336E-03
            2015     5.27636E-03     23.6447E-03    -22.8721E+06    -98.2823E+06    -12.0739E+06     1.12684E+06    -24.3872E-03     47.6720E-03    -23.2848E-03     23.2279E-03    -24.3448E-03     47.2345E-03    -23.1695E-03     23.2266E-03
            2016     4.39769E-03     23.6229E-03    -24.6971E+06    -104.391E+06    -16.1935E+06     1.30819E+06    -23.8860E-03     47.0025E-03    -23.1165E-03     19.1357E-03    -23.8366E-03     46.5418E-03    -23.0103E-03     19.1410E-03
            2017     3.51861E-03     23.6052E-03    -26.6466E+06    -108.818E+06    -20.6314E+06     1.19822E+06    -23.4610E-03     46.4329E-03    -22.9719E-03     15.1649E-03    -23.4076E-03     45.9585E-03    -22.8787E-03     15.1722E-03
            2018     2.63924E-03     23.5915E-03    -28.1813E+06    -111.892E+06    -24.5141E+06     1.08447E+06    -23.1366E-03     45.9919E-03    -22.8554E-03     11.3307E-03    -23.0803E-03     45.5095E-03    -22.7748E-03     11.3391E-03
            2019     1.75960E-03     23.5818E-03    -29.3464E+06    -114.418E+06    -27.3915E+06     836.088E+03    -22.9048E-03     45.6723E-03    -22.7675E-03     7.59840E-03    -22.8462E-03     45.1827E-03    -22.6960E-03     7.60566E-03
            2020     879.870E-06     23.5757E-03    -30.2558E+06    -114.885E+06    -29.5898E+06     303.349E+03    -22.7313E-03     45.4506E-03    -22.7193E-03     4.12686E-03    -22.6731E-03     44.9632E-03    -22.6568E-03     4.12892E-03
            2021     16.6547E-03     23.4796E-03    -6.16547E+06     134.163E+06     78.2048E+06     958.427E+03    -33.2702E-03     59.6800E-03    -26.4097E-03     114.539E-03    -34.8111E-03     61.4484E-03    -26.2043E-03     114.811E-03
            2022     15.7842E-03     23.3218E-03    -10.6521E+06     117.982E+06     43.2960E+06     1.34485E+06    -34.9483E-03     60.9515E-03    -26.0032E-03     141.755E-03    -36.6322E-03     62.8909E-03    -25.9424E-03     141.729E-03
            2023     14.9123E-03     23.2046E-03    -9.37618E+06     82.3212E+06     2.09910E+06     1.07480E+06    -32.6324E-03     58.1962E-03    -25.5638E-03     105.746E-03    -33.4023E-03     59.2190E-03    -25.6591E-03     105.513E-03
            2024     14.0390E-03     23.1156E-03    -8.68734E+06     30.7162E+06    -11.5275E+06     679.686E+03    -31.1639E-03     56.4601E-03    -25.2962E-03     82.4848E-03    -31.5101E-03     56.9180E-03    -25.3858E-03     82.2773E-03
            2025     13.1651E-03     23.0428E-03    -9.11250E+06    -11.7578E+06    -6.28046E+06     732.823E+03    -30.3357E-03     55.4486E-03    -25.1129E-03     69.3226E-03    -30.5097E-03     55.5668E-03    -25.1140E-03     69.1588E-03
            2026     12.2910E-03     22.9787E-03    -9.65062E+06    -32.9604E+06    -3.70006E+06     371.101E+03    -29.6506E-03     54.5312E-03    -24.8806E-03     61.4162E-03    -29.7414E-03     54.4814E-03    -24.8373E-03     61.2851E-03
            2027     11.4161E-03     22.9208E-03    -10.9370E+06    -49.0474E+06    -4.62846E+06     374.311E+03    -29.0096E-03     53.6297E-03    -24.6201E-03     55.3599E-03    -29.0490E-03     53.4696E-03    -24.5563E-03     55.2582E-03
            2028     10.5411E-03     22.8681E-03    -12.2282E+06    -60.2646E+06    -3.26472E+06     524.122E+03    -28.3000E-03     52.6626E-03    -24.3626E-03     49.8168E-03    -28.3103E-03     52.4250E-03    -24.2738E-03     49.7410E-03
            2029     9.66528E-03     22.8208E-03    -13.5164E+06    -67.6810E+06    -2.04511E+06     721.235E+03    -27.5669E-03     51.6693E-03    -24.1024E-03     44.7177E-03    -27.5608E-03     51.3809E-03    -23.9949E-03     44.6634E-03
            2030     8.78911E-03     22.7778E-03    -14.8697E+06    -74.3103E+06    -2.58423E+06     1.02635E+06    -26.8261E-03     50.6661E-03    -23.8400E-03     39.9272E-03    -26.8072E-03     50.3381E-03    -23.7236E-03     39.8918E-03
            2031     7.91219E-03     22.7397E-03    -16.4089E+06    -80.7880E+06    -3.66689E+06     1.13607E+06    -26.0822E-03     49.6696E-03    -23.5874E-03     35.2976E-03    -26.0538E-03     49.3068E-03    -23.4648E-03     35.2754E-03
            2032     7.03481E-03     22.7057E-03    -18.2474E+06    -87.7152E+06    -5.37026E+06     1.35004E+06    -25.3722E-03     48.7216E-03    -23.3494E-03     30.8362E-03    -25.3362E-03     48.3251E-03    -23.2226E-03     30.8259E-03
            2033     6.15682E-03     22.6764E-03    -20.0807E+06     -93.131E+06    -8.17333E+06     1.46475E+06    -24.7040E-03     47.8279E-03    -23.1239E-03     26.5556E-03    -24.6624E-03     47.4081E-03    -23.0006E-03     26.5539E-03
            2034     5.27833E-03     22.6510E-03    -22.1543E+06    -98.2956E+06    -12.0981E+06     1.40375E+06    -24.0924E-03     47.0090E-03    -22.9166E-03     22.4421E-03    -24.0462E-03     46.5702E-03    -22.8024E-03     22.4451E-03
            2035     4.39936E-03     22.6300E-03    -24.1829E+06    -104.162E+06    -16.0543E+06     1.58744E+06    -23.5580E-03     46.2949E-03    -22.7369E-03     18.4480E-03    -23.5064E-03     45.8342E-03    -22.6311E-03     18.4575E-03
            2036     3.51998E-03     22.6128E-03    -25.9317E+06    -108.137E+06    -20.0471E+06     1.56844E+06    -23.1066E-03     45.6899E-03    -22.5833E-03     14.5987E-03    -23.0515E-03     45.2169E-03    -22.4891E-03     14.6111E-03
            2037     2.64026E-03     22.5996E-03    -27.6822E+06    -111.343E+06    -24.0042E+06     1.36564E+06    -22.7544E-03     45.2138E-03    -22.4594E-03     10.8930E-03    -22.6971E-03     44.7326E-03    -22.3778E-03     10.9053E-03
            2038     1.76035E-03     22.5900E-03    -29.0514E+06    -113.160E+06    -27.3800E+06     989.508E+03    -22.5034E-03     44.8689E-03    -22.3655E-03     7.29681E-03    -22.4451E-03     44.3852E-03    -22.2962E-03     7.30623E-03
            2039     880.223E-06     22.5844E-03    -29.7191E+06    -114.108E+06    -29.3615E+06     237.463E+03    -22.3365E-03     44.6510E-03    -22.3145E-03     3.93209E-03    -22.2771E-03     44.1664E-03    -22.2528E-03     3.93342E-03
            2040     16.6610E-03     22.4754E-03    -3.51014E+06     133.737E+06     82.6979E+06     1.60961E+06    -34.8718E-03     61.2350E-03    -26.3632E-03     113.653E-03    -36.3918E-03     62.9775E-03    -26.1385E-03     113.892E-03
            2041     15.7880E-03     22.3172E-03    -5.67707E+06     119.464E+06     49.8600E+06     1.36553E+06    -35.2940E-03     61.1936E-03    -25.8996E-03     139.677E-03    -36.9390E-03     63.0980E-03    -25.8153E-03     139.631E-03
            2042     14.9151E-03     22.2021E-03    -9.42094E+06     82.5692E+06     2.74142E+06     573.980E+03    -32.6758E-03     58.0912E-03    -25.4155E-03     104.235E-03    -33.4334E-03     59.1006E-03    -25.5078E-03     103.993E-03
            2043     14.0416E-03     22.1139E-03    -9.89246E+06     30.6562E+06    -11.4709E+06     561.886E+03    -31.2471E-03     56.3773E-03    -25.1302E-03     81.7685E-03    -31.5946E-03     56.8318E-03    -25.2177E-03     81.5599E-03
            2044     13.1678E-03     22.0418E-03    -9.52893E+06    -11.4228E+06    -5.99133E+06     623.962E+03    -30.4447E-03     55.3715E-03    -24.9268E-03     68.5908E-03    -30.6186E-03     55.4884E-03    -24.9263E-03     68.4264E-03
            2045     12.2935E-03     21.9786E-03    -10.1012E+06    -33.0276E+06    -3.68241E+06     901.108E+03    -29.7793E-03     54.4493E-03    -24.6700E-03     60.5705E-03    -29.8700E-03     54.3975E-03    -24.6258E-03     60.4472E-03
            2046     11.4191E-03     21.9214E-03    -10.8385E+06    -48.9075E+06    -4.51427E+06     1.07929E+06    -29.0718E-03     53.4551E-03    -24.3834E-03     54.3768E-03    -29.1091E-03     53.2935E-03    -24.3193E-03     54.2857E-03
            2047     10.5438E-03     21.8699E-03    -11.8099E+06    -60.2130E+06    -3.18465E+06     1.02501E+06    -28.3130E-03     52.4135E-03    -24.1006E-03     48.7894E-03    -28.3199E-03     52.1741E-03    -24.0120E-03     48.7216E-03
            2048     9.66818E-03     21.8231E-03    -13.0524E+06    -67.8758E+06    -2.06306E+06     1.17630E+06    -27.5213E-03     51.3372E-03    -23.8159E-03     43.6416E-03    -27.5115E-03     51.0461E-03    -23.7089E-03     43.5947E-03
            2049     8.79175E-03     21.7814E-03    -14.5676E+06    -74.3219E+06    -2.80807E+06     1.32981E+06    -26.7116E-03     50.2415E-03    -23.5299E-03     38.8484E-03    -26.6900E-03     49.9125E-03    -23.4151E-03     38.8184E-03
            2050     7.91486E-03     21.7440E-03    -16.3079E+06    -80.8712E+06    -3.95172E+06     1.65070E+06    -25.9171E-03     49.1737E-03    -23.2566E-03     34.2347E-03    -25.8870E-03     48.8101E-03    -23.1355E-03     34.2204E-03
            2051     7.03723E-03     21.7113E-03    -18.1924E+06    -87.4773E+06    -6.05136E+06     1.72329E+06    -25.1518E-03     48.1491E-03    -22.9973E-03     29.8181E-03    -25.1145E-03     47.7542E-03    -22.8743E-03     29.8137E-03
            2052     6.15906E-03     21.6825E-03    -20.1076E+06    -92.9204E+06    -8.91260E+06     1.68780E+06    -24.4344E-03     47.1894E-03    -22.7550E-03     25.6062E-03    -24.3919E-03     46.7715E-03    -22.6357E-03     25.6083E-03
            2053     5.28032E-03     21.6582E-03    -22.0276E+06    -98.1401E+06    -12.3178E+06     1.98340E+06    -23.7850E-03     46.3206E-03    -22.5357E-03     21.5782E-03    -23.7378E-03     45.8826E-03    -22.4230E-03     21.5894E-03
            2054     4.40108E-03     21.6377E-03    -24.1031E+06    -103.727E+06    -16.2849E+06     1.97252E+06    -23.2188E-03     45.5617E-03    -22.3429E-03     17.7049E-03    -23.1670E-03     45.1033E-03    -22.2389E-03     17.7200E-03
            2055     3.52141E-03     21.6212E-03    -26.0233E+06    -107.523E+06    -20.2028E+06     1.88788E+06    -22.7448E-03     44.9225E-03    -22.1776E-03     13.9920E-03    -22.6907E-03     44.4528E-03    -22.0850E-03     14.0090E-03
            2056     2.64140E-03     21.6083E-03    -27.5981E+06    -110.426E+06    -23.8206E+06     1.74167E+06    -22.3635E-03     44.4076E-03    -22.0441E-03     10.4226E-03    -22.3073E-03     43.9305E-03    -21.9631E-03     10.4401E-03
            2057     1.76105E-03     21.5993E-03    -28.8041E+06    -111.697E+06    -27.0772E+06     1.13802E+06    -22.0804E-03     44.0260E-03    -21.9455E-03     6.97690E-03    -22.0234E-03     43.5487E-03    -21.8772E-03     6.98844E-03
            2058     880.554E-06     21.5936E-03    -29.5996E+06    -113.199E+06    -29.4147E+06     454.422E+03    -21.9589E-03     43.8108E-03    -21.8519E-03     3.74858E-03    -21.9001E-03     43.3306E-03    -21.7919E-03     3.75282E-03
            2059     16.6585E-03     21.4676E-03    -4.66174E+06     132.361E+06     81.0014E+06    -657.345E+03    -35.7652E-03     62.0694E-03    -26.3043E-03     113.712E-03    -37.2751E-03     63.7978E-03    -26.0844E-03     113.893E-03
            2060     15.7892E-03     21.3131E-03      -6.469E+06     118.286E+06     49.7191E+06     1.31488E+06    -35.6860E-03     61.4962E-03    -25.8102E-03     139.478E-03    -37.3143E-03     63.3773E-03    -25.7238E-03     139.419E-03
            2061     14.9167E-03     21.1995E-03    -7.01398E+06     84.1225E+06     5.07167E+06     2.24261E+06    -32.9430E-03     58.2487E-03    -25.3057E-03     104.016E-03    -33.6863E-03     59.2511E-03    -25.3922E-03     103.794E-03
            2062     14.0437E-03     21.1122E-03    -8.09332E+06     31.3301E+06    -11.7684E+06     989.993E+03    -31.5677E-03     56.5521E-03    -24.9844E-03     81.6422E-03    -31.9023E-03     57.0033E-03    -25.0770E-03     81.4381E-03
            2063     13.1699E-03     21.0409E-03    -9.05094E+06    -11.9906E+06    -6.45002E+06     1.03976E+06    -30.7851E-03     55.5377E-03    -24.7525E-03     68.1027E-03    -30.9521E-03     55.6487E-03    -24.7543E-03     67.9434E-03
            2064     12.2962E-03     20.9783E-03    -9.81497E+06    -32.9295E+06    -3.72129E+06     1.47651E+06    -30.0092E-03     54.4727E-03    -24.4636E-03     59.6900E-03    -30.0960E-03     54.4187E-03    -24.4202E-03     59.5749E-03
            2065     11.4216E-03     20.9224E-03    -10.7079E+06    -48.7624E+06    -4.97708E+06     1.40165E+06    -29.1985E-03     53.3423E-03    -24.1438E-03     53.3667E-03    -29.2326E-03     53.1798E-03    -24.0825E-03     53.2812E-03
            2066     10.5467E-03     20.8715E-03    -11.5471E+06    -60.0813E+06    -3.49613E+06     1.52411E+06    -28.3626E-03     52.1952E-03    -23.8326E-03     47.6765E-03    -28.3664E-03     51.9549E-03    -23.7462E-03     47.6167E-03
            2067     9.67090E-03     20.8262E-03    -12.7370E+06    -67.9108E+06    -2.38586E+06     1.59613E+06    -27.4841E-03     51.0054E-03    -23.5213E-03     42.4604E-03    -27.4710E-03     50.7129E-03    -23.4163E-03     42.4206E-03
            2068     8.79461E-03     20.7852E-03    -14.1499E+06    -74.4115E+06    -3.13072E+06     1.91285E+06    -26.6097E-03     49.8205E-03    -23.2108E-03     37.6594E-03    -26.5844E-03     49.4900E-03    -23.0981E-03     37.6384E-03
            2069     7.91749E-03     20.7491E-03    -15.7745E+06    -80.8755E+06    -4.39595E+06     2.14230E+06    -25.7575E-03     48.6715E-03    -22.9140E-03     33.0667E-03    -25.7235E-03     48.3071E-03    -22.7958E-03     33.0600E-03
            2070     7.03980E-03     20.7171E-03    -17.5818E+06    -87.1033E+06    -6.26176E+06     2.29762E+06    -24.9373E-03     47.5715E-03    -22.6342E-03     28.6917E-03    -24.8967E-03     47.1774E-03    -22.5137E-03     28.6958E-03
            2071     6.16141E-03     20.6896E-03    -19.7503E+06    -92.6582E+06    -9.21955E+06     2.36992E+06    -24.1674E-03     46.5405E-03    -22.3731E-03     24.5556E-03    -24.1228E-03     46.1236E-03    -22.2562E-03     24.5674E-03
            2072     5.28242E-03     20.6659E-03    -21.9621E+06    -97.9985E+06    -12.7515E+06     2.44156E+06    -23.4713E-03     45.6085E-03    -22.1372E-03     20.6240E-03    -23.4232E-03     45.1715E-03    -22.0270E-03     20.6418E-03
            2073     4.40288E-03     20.6463E-03    -23.9712E+06    -103.015E+06    -16.4351E+06     2.60736E+06    -22.8679E-03     44.7984E-03    -21.9305E-03     16.8793E-03    -22.8161E-03     44.3434E-03    -21.8285E-03     16.9031E-03
            2074     3.52289E-03     20.6302E-03    -26.0502E+06    -106.702E+06    -20.2362E+06     2.37569E+06    -22.3623E-03     44.1157E-03    -21.7534E-03     13.3107E-03    -22.3094E-03     43.6502E-03    -21.6620E-03     13.3345E-03
            2075     2.64250E-03     20.6181E-03    -27.7256E+06    -109.119E+06    -23.9315E+06     1.83735E+06    -21.9531E-03     43.5614E-03    -21.6083E-03     9.89311E-03    -21.8992E-03     43.0911E-03    -21.5296E-03     9.91210E-03
            2076     1.76187E-03     20.6092E-03    -28.7561E+06    -110.294E+06    -27.2041E+06     1.19240E+06    -21.6500E-03     43.1509E-03    -21.5010E-03     6.62550E-03    -21.5946E-03     42.6808E-03    -21.4354E-03     6.63793E-03
            2077     880.985E-06     20.6039E-03    -29.3325E+06    -112.021E+06    -29.0236E+06     779.135E+03    -21.4872E-03     42.9186E-03    -21.4314E-03     3.63439E-03    -21.4294E-03     42.4434E-03    -21.3715E-03     3.64290E-03
            2078     16.6614E-03     20.4614E-03    -4.92994E+06     131.875E+06     80.2469E+06    -739.559E+03    -35.9050E-03     62.1808E-03    -26.2758E-03     111.652E-03    -37.3710E-03     63.8648E-03    -26.0586E-03     111.807E-03
            2079     15.7890E-03     20.3076E-03    -8.93685E+06     116.736E+06     48.3094E+06     176.057E+03    -35.8031E-03     61.5727E-03    -25.7696E-03     137.724E-03    -37.4001E-03     63.4123E-03    -25.6844E-03     137.633E-03
            2080     14.9176E-03     20.1964E-03    -10.0394E+06     84.0872E+06     3.52719E+06     746.159E+03    -33.5394E-03     58.7736E-03    -25.2343E-03     102.792E-03    -34.2883E-03     59.7753E-03    -25.3240E-03     102.541E-03
            2081     14.0447E-03     20.1101E-03    -9.46290E+06     32.0012E+06    -13.5036E+06     1.71686E+06    -32.2405E-03     57.1018E-03    -24.8613E-03     80.7008E-03    -32.5758E-03     57.5564E-03    -24.9615E-03     80.5012E-03
            2082     13.1722E-03     20.0393E-03    -9.52584E+06    -12.3146E+06    -7.78810E+06     1.66439E+06    -31.2780E-03     55.8609E-03    -24.5828E-03     66.8862E-03    -31.4417E-03     55.9696E-03    -24.5901E-03     66.7333E-03
            2083     12.2985E-03     19.9783E-03    -10.1541E+06    -32.7804E+06    -4.69353E+06     1.81742E+06    -30.2982E-03     54.5509E-03    -24.2527E-03     58.3135E-03    -30.3826E-03     54.4965E-03    -24.2139E-03     58.2035E-03
            2084     11.4245E-03     19.9231E-03    -10.8515E+06    -48.4984E+06    -5.69362E+06     1.93004E+06    -29.3567E-03     53.2547E-03    -23.8980E-03     52.0252E-03    -29.3888E-03     53.0927E-03    -23.8405E-03     51.9479E-03
            2085     10.5494E-03     19.8737E-03    -11.8012E+06    -59.9613E+06    -4.20876E+06     1.82245E+06    -28.4105E-03     51.9663E-03    -23.5558E-03     46.3277E-03    -28.4131E-03     51.7264E-03    -23.4728E-03     46.2734E-03
            2086     9.67392E-03     19.8292E-03    -12.8765E+06    -67.9345E+06    -2.97838E+06     2.07909E+06    -27.4542E-03     50.6711E-03    -23.2169E-03     41.1228E-03    -27.4396E-03     50.3783E-03    -23.1146E-03     41.0909E-03
            2087     8.79743E-03     19.7897E-03    -14.2741E+06    -74.5097E+06    -3.87825E+06     2.35062E+06    -26.5188E-03     49.3980E-03    -22.8791E-03     36.3430E-03    -26.4921E-03     49.0673E-03    -22.7698E-03     36.3292E-03
            2088     7.92035E-03     19.7544E-03    -15.7520E+06    -80.7124E+06    -5.02852E+06     2.61586E+06    -25.5988E-03     48.1561E-03    -22.5573E-03     31.7731E-03    -25.5633E-03     47.7927E-03    -22.4425E-03     31.7739E-03
            2089     7.04242E-03     19.7238E-03    -17.5022E+06    -87.0302E+06    -6.78209E+06     2.91903E+06    -24.7205E-03     46.9756E-03    -22.2552E-03     27.4597E-03    -24.6783E-03     46.5821E-03    -22.1375E-03     27.4730E-03
            2090     6.16386E-03     19.6970E-03    -19.3684E+06    -92.1327E+06    -9.46489E+06     3.12977E+06    -23.9039E-03     45.8767E-03    -21.9729E-03     23.4041E-03    -23.8574E-03     45.4619E-03    -21.8585E-03     23.4267E-03
            2091     5.28462E-03     19.6744E-03    -21.3855E+06    -97.5877E+06    -12.5430E+06     3.14471E+06    -23.1603E-03     44.8793E-03    -21.7190E-03     19.5748E-03    -23.1100E-03     44.4430E-03    -21.6092E-03     19.6024E-03
            2092     4.40480E-03     19.6554E-03    -23.5117E+06    -102.423E+06    -16.0021E+06     3.20735E+06    -22.5060E-03     44.0015E-03    -21.4956E-03     15.9629E-03    -22.4532E-03     43.5481E-03    -21.3930E-03     15.9951E-03
            2093     3.52448E-03     19.6403E-03    -25.4003E+06    -105.244E+06    -19.7635E+06     2.96034E+06    -21.9538E-03     43.2571E-03    -21.3033E-03     12.5524E-03    -21.9004E-03     42.7972E-03    -21.2127E-03     12.5842E-03
            2094     2.64376E-03     19.6284E-03    -27.1631E+06    -107.522E+06    -23.6690E+06     2.15494E+06    -21.5132E-03     42.6610E-03    -21.1478E-03     9.30785E-03    -21.4592E-03     42.1975E-03    -21.0709E-03     9.33126E-03
            2095     1.76265E-03     19.6202E-03    -28.6391E+06    -108.886E+06    -27.1579E+06     1.43839E+06    -21.1998E-03     42.2314E-03    -21.0316E-03     6.24608E-03    -21.1459E-03     41.7681E-03    -20.9680E-03     6.26189E-03
            2096     881.379E-06     19.6149E-03    -29.3960E+06    -110.541E+06    -29.1551E+06     763.653E+03    -20.9863E-03     41.9684E-03    -20.9820E-03     3.37658E-03    -20.9307E-03     41.5008E-03    -20.9249E-03     3.38499E-03
            2097     16.6604E-03     19.4554E-03    -3.81688E+06     132.747E+06     81.5943E+06    -60.6873E+03    -36.5466E-03     62.8072E-03    -26.2605E-03     109.604E-03    -37.9715E-03     64.4532E-03    -26.0395E-03     109.734E-03
            2098     15.7900E-03     19.3026E-03    -7.44039E+06     117.281E+06      48.156E+06    -335.362E+03    -36.1571E-03     61.8711E-03    -25.7141E-03     135.847E-03    -37.7077E-03     63.6722E-03    -25.6326E-03     135.725E-03
            2099     14.9181E-03     19.1924E-03    -10.7806E+06     82.0048E+06     653.088E+03    -143.437E+03    -34.1103E-03     59.2468E-03    -25.1366E-03     100.742E-03    -34.8412E-03     60.2288E-03    -25.2366E-03     100.468E-03
            2100     14.0471E-03     19.1071E-03    -10.9447E+06     31.0725E+06    -15.0764E+06     1.07117E+06    -32.9073E-03     57.6273E-03    -24.7200E-03     78.7359E-03    -33.2412E-03     58.0764E-03    -24.8246E-03     78.5218E-03
            2101     13.1744E-03     19.0377E-03    -10.5139E+06    -11.9067E+06    -8.65510E+06     1.95327E+06    -31.6499E-03     56.0442E-03    -24.3943E-03     65.0572E-03    -31.8132E-03     56.1530E-03    -24.4051E-03     64.9076E-03
            2102     12.3015E-03     18.9778E-03    -10.9096E+06    -32.8534E+06    -5.46959E+06     1.98605E+06    -30.5170E-03     54.5439E-03    -24.0269E-03     56.6565E-03    -30.6007E-03     54.4882E-03    -23.9908E-03     56.5497E-03
            2103     11.4273E-03     18.9242E-03    -11.3875E+06    -48.1656E+06    -6.33317E+06     2.08329E+06    -29.4870E-03     53.1251E-03    -23.6382E-03     50.4890E-03    -29.5190E-03     52.9641E-03    -23.5835E-03     50.4152E-03
            2104     10.5526E-03     18.8757E-03    -11.9273E+06    -59.8290E+06    -4.67369E+06     2.19687E+06    -28.4455E-03     51.7107E-03    -23.2652E-03     44.7801E-03    -28.4464E-03     51.4705E-03    -23.1845E-03     44.7325E-03
            2105     9.67686E-03     18.8328E-03    -13.0493E+06    -68.1142E+06    -3.46641E+06     2.46663E+06    -27.4257E-03     50.3230E-03    -22.8972E-03     39.6083E-03    -27.4097E-03     50.0289E-03    -22.7969E-03     39.5830E-03
            2106     8.80052E-03     18.7942E-03    -14.2764E+06    -74.3540E+06    -4.24145E+06     2.75903E+06    -26.4316E-03     48.9621E-03    -22.5305E-03     34.8228E-03    -26.4035E-03     48.6317E-03    -22.4232E-03     34.8158E-03
            2107     7.92324E-03     18.7605E-03    -15.6807E+06    -80.7328E+06    -5.53485E+06     3.01535E+06    -25.4474E-03     47.6276E-03    -22.1802E-03     30.2846E-03    -25.4100E-03     47.2640E-03    -22.0680E-03     30.2920E-03
            2108     7.04524E-03     18.7307E-03    -17.1812E+06    -86.9746E+06    -7.15753E+06     3.45596E+06    -24.5100E-03     46.3616E-03    -21.8516E-03     26.0303E-03    -24.4652E-03     45.9678E-03    -21.7364E-03     26.0518E-03
            2109     6.16644E-03     18.7053E-03    -18.9789E+06    -91.6536E+06    -9.65579E+06     3.74587E+06    -23.6352E-03     45.1793E-03    -21.5442E-03     22.0596E-03    -23.5868E-03     44.7662E-03    -21.4320E-03     22.0912E-03
            2110     5.28698E-03     18.6835E-03    -20.9879E+06    -96.9783E+06    -12.4122E+06     3.91540E+06    -22.8379E-03     44.1057E-03    -21.2678E-03     18.3450E-03    -22.7864E-03     43.6714E-03    -21.1588E-03     18.3835E-03
            2111     4.40687E-03     18.6656E-03    -23.0271E+06    -101.536E+06    -15.9176E+06     3.88164E+06    -22.1246E-03     43.1467E-03    -21.0221E-03     14.8897E-03    -22.0707E-03     42.6968E-03    -20.9211E-03     14.9312E-03
            2112     3.52618E-03     18.6510E-03    -24.9112E+06    -103.582E+06    -20.1142E+06     3.44850E+06    -21.5141E-03     42.3241E-03    -20.8100E-03     11.6627E-03    -21.4600E-03     41.8722E-03    -20.7242E-03     11.7012E-03
            2113     2.64501E-03     18.6400E-03    -26.4552E+06    -105.626E+06    -23.6063E+06     2.74019E+06    -21.0391E-03     41.6834E-03    -20.6443E-03     8.61782E-03    -20.9843E-03     41.2282E-03    -20.5708E-03     8.64913E-03
            2114     1.76356E-03     18.6319E-03    -27.6959E+06    -107.081E+06    -26.2614E+06     1.84511E+06    -20.7047E-03     41.2285E-03    -20.5238E-03     5.78524E-03    -20.6500E-03     40.7715E-03    -20.4597E-03     5.80651E-03
            2115     881.870E-06     18.6271E-03    -28.5072E+06    -108.722E+06    -28.2432E+06     982.855E+03    -20.5157E-03     40.9453E-03    -20.4296E-03     3.11047E-03    -20.4596E-03     40.4842E-03    -20.3719E-03     3.12182E-03
            2116     16.6610E-03     18.4461E-03    -3.64248E+06     132.659E+06     81.1935E+06    -326.999E+03    -37.5180E-03     63.7550E-03    -26.2370E-03     106.271E-03    -38.9118E-03     65.3715E-03    -26.0181E-03     106.356E-03
            2117     15.7915E-03     18.2982E-03    -8.17220E+06     115.932E+06     46.4347E+06    -777.516E+03    -36.8101E-03     62.4407E-03    -25.6306E-03     133.148E-03    -38.3232E-03     64.2017E-03    -25.5547E-03     132.992E-03
            2118     14.9209E-03     18.1874E-03    -9.98228E+06     81.1647E+06    -692.591E+03     800.013E+03    -34.6487E-03     59.6557E-03    -25.0070E-03     99.8355E-03    -35.3571E-03     60.6188E-03    -25.1137E-03     99.5644E-03
            2119     14.0492E-03     18.1039E-03    -11.2301E+06     30.2875E+06    -17.1350E+06     1.44647E+06    -33.4456E-03     57.9901E-03    -24.5445E-03     76.8240E-03    -33.7698E-03     58.4317E-03    -24.6579E-03     76.6103E-03
            2120     13.1776E-03     18.0357E-03    -11.5514E+06    -11.8321E+06    -9.85008E+06     1.63245E+06    -31.8990E-03     56.0809E-03    -24.1819E-03     63.2482E-03    -32.0597E-03     56.1872E-03    -24.1972E-03     63.0959E-03
            2121     12.3042E-03     17.9777E-03    -11.4486E+06    -32.8537E+06    -6.46978E+06     1.92526E+06    -30.7026E-03     54.4836E-03    -23.7810E-03     55.0421E-03    -30.7840E-03     54.4265E-03    -23.7491E-03     54.9361E-03
            2122     11.4306E-03     17.9249E-03    -11.6227E+06    -48.0379E+06    -6.88794E+06     2.02858E+06    -29.6348E-03     52.9939E-03    -23.3591E-03     48.7321E-03    -29.6647E-03     52.8320E-03    -23.3070E-03     48.6594E-03
            2123     10.5557E-03     17.8784E-03    -12.2170E+06    -59.9316E+06    -5.15095E+06     2.38424E+06    -28.5114E-03     51.4630E-03    -22.9516E-03     43.0031E-03    -28.5108E-03     51.2213E-03    -22.8728E-03     42.9600E-03
            2124     9.68027E-03     17.8364E-03    -12.9316E+06    -68.1658E+06    -3.77122E+06     2.72343E+06    -27.4244E-03     49.9737E-03    -22.5493E-03     37.8191E-03    -27.4057E-03     49.6781E-03    -22.4506E-03     37.7991E-03
            2125     8.80377E-03     17.7995E-03    -13.9656E+06    -74.3048E+06    -4.48908E+06     3.03713E+06    -26.3524E-03     48.5012E-03    -22.1488E-03     33.0100E-03    -26.3213E-03     48.1698E-03    -22.0432E-03     33.0084E-03
            2126     7.92650E-03     17.7668E-03    -15.2737E+06    -80.7814E+06    -5.81416E+06     3.50076E+06    -25.3068E-03     47.0721E-03    -21.7652E-03     28.4982E-03    -25.2661E-03     46.7072E-03    -21.6550E-03     28.5134E-03
            2127     7.04832E-03     17.7386E-03    -16.8993E+06    -86.8861E+06    -7.48183E+06     3.93794E+06    -24.3014E-03     45.7051E-03    -21.4038E-03     24.3137E-03    -24.2542E-03     45.3113E-03    -21.2907E-03     24.3428E-03
            2128     6.16937E-03     17.7141E-03    -18.5578E+06    -91.3315E+06    -9.82669E+06     4.38880E+06    -23.3510E-03     44.4165E-03    -21.0655E-03     20.4473E-03    -23.3003E-03     44.0042E-03    -20.9553E-03     20.4883E-03
            2129     5.28961E-03     17.6936E-03    -20.4099E+06    -96.2541E+06    -12.6696E+06     4.66517E+06    -22.4813E-03     43.2409E-03    -20.7595E-03     16.8727E-03    -22.4273E-03     42.8095E-03    -20.6537E-03     16.9217E-03
            2130     4.40917E-03     17.6764E-03    -22.2826E+06    -100.212E+06    -16.0698E+06     4.52693E+06    -21.7069E-03     42.1948E-03    -20.4879E-03     13.5927E-03    -21.6508E-03     41.7504E-03    -20.3906E-03     13.6433E-03
            2131     3.52812E-03     17.6629E-03    -23.9170E+06    -101.806E+06    -19.8327E+06     4.04303E+06    -21.0430E-03     41.2968E-03    -20.2538E-03     10.5760E-03    -20.9868E-03     40.8518E-03    -20.1707E-03     10.6227E-03
            2132     2.64656E-03     17.6522E-03    -25.2777E+06    -103.444E+06    -23.0547E+06     3.19411E+06    -20.5153E-03     40.5845E-03    -20.0692E-03     7.77085E-03    -20.4586E-03     40.1377E-03    -19.9979E-03     7.80840E-03
            2133     1.76456E-03     17.6449E-03    -26.1632E+06    -104.811E+06    -25.2710E+06     2.11995E+06    -20.1307E-03     40.0702E-03    -19.9395E-03     5.20720E-03    -20.0730E-03     39.6209E-03    -19.8760E-03     5.23227E-03
            2134     882.306E-06     17.6401E-03    -26.5859E+06    -106.567E+06    -26.2992E+06     1.14146E+06    -19.9113E-03     39.7804E-03    -19.8691E-03     2.84769E-03    -19.8515E-03     39.3245E-03    -19.8076E-03     2.86121E-03
            2135     16.6618E-03     17.4350E-03    -2.95214E+06     132.995E+06     81.3407E+06    -479.464E+03    -37.9547E-03     64.1758E-03    -26.2211E-03     104.728E-03    -39.3163E-03     65.7633E-03    -26.0030E-03     104.785E-03
            2136     15.7934E-03     17.2937E-03    -9.31369E+06     114.116E+06     44.0737E+06     1.33293E+06    -37.8299E-03     63.3911E-03    -25.5613E-03     131.677E-03    -39.3079E-03     65.1135E-03    -25.4929E-03     131.516E-03
            2137     14.9217E-03     17.1821E-03    -12.4413E+06     81.0652E+06    -2.82494E+06     2.06487E+06    -35.6841E-03     60.5555E-03    -24.8714E-03     98.9302E-03    -36.3893E-03     61.5125E-03    -24.9850E-03     98.6602E-03
            2138     14.0522E-03     17.0996E-03    -12.7068E+06     31.4795E+06    -17.9854E+06     1.33790E+06    -33.8553E-03     58.2113E-03    -24.3560E-03     74.4051E-03    -34.1742E-03     58.6491E-03    -24.4732E-03     74.1902E-03
            2139     13.1801E-03     17.0347E-03    -11.9635E+06    -12.4231E+06    -10.8602E+06     1.10726E+06    -32.2103E-03     56.1628E-03    -23.9525E-03     61.2017E-03    -32.3642E-03     56.2617E-03    -23.9714E-03     61.0440E-03
            2140     12.3076E-03     16.9769E-03    -11.6416E+06    -32.6746E+06    -6.91175E+06     1.41618E+06    -30.9883E-03     54.5000E-03    -23.5116E-03     53.0869E-03    -31.0662E-03     54.4406E-03    -23.4819E-03     52.9760E-03
            2141     11.4339E-03     16.9265E-03    -11.5095E+06    -48.3576E+06    -7.13430E+06     1.79218E+06    -29.8267E-03     52.8750E-03    -23.0483E-03     46.5546E-03    -29.8519E-03     52.7085E-03    -22.9972E-03     46.4809E-03
            2142     10.5595E-03     16.8808E-03    -11.6479E+06    -60.3035E+06    -5.30765E+06     2.43042E+06    -28.6325E-03     51.2306E-03    -22.5981E-03     40.8444E-03    -28.6259E-03     50.9840E-03    -22.5203E-03     40.8040E-03
            2143     9.68397E-03     16.8408E-03    -12.4774E+06    -68.1633E+06    -4.11106E+06     2.96358E+06    -27.4615E-03     49.6131E-03    -22.1517E-03     35.6314E-03    -27.4382E-03     49.3156E-03    -22.0553E-03     35.6166E-03
            2144     8.80759E-03     16.8049E-03    -13.6349E+06    -74.4411E+06    -4.81333E+06     3.40386E+06    -26.3004E-03     48.0096E-03    -21.7092E-03     30.7999E-03    -26.2657E-03     47.6763E-03    -21.6056E-03     30.8050E-03
            2145     7.93021E-03     16.7740E-03    -14.9064E+06    -80.8079E+06    -6.02376E+06     3.91040E+06    -25.1613E-03     46.4462E-03    -21.2848E-03     26.3199E-03    -25.1174E-03     46.0800E-03    -21.1762E-03     26.3422E-03
            2146     7.05194E-03     16.7468E-03    -16.2278E+06    -86.8153E+06    -7.52393E+06     4.45470E+06    -24.0606E-03     44.9453E-03    -20.8847E-03     22.2310E-03    -24.0095E-03     44.5503E-03    -20.7729E-03     22.2683E-03
            2147     6.17274E-03     16.7239E-03    -17.8843E+06    -91.1352E+06    -9.91706E+06     5.03822E+06    -23.0156E-03     43.5261E-03    -20.5104E-03     18.5265E-03    -22.9613E-03     43.1134E-03    -20.4019E-03     18.5772E-03
            2148     5.29270E-03     16.7043E-03    -19.5701E+06    -95.2996E+06    -12.7301E+06     5.33689E+06    -22.0623E-03     42.2339E-03    -20.1716E-03     15.1588E-03    -22.0051E-03     41.8058E-03    -20.0686E-03     15.2174E-03
            2149     4.41188E-03     16.6885E-03    -21.1695E+06    -98.6403E+06    -15.7902E+06     5.12002E+06    -21.2185E-03     41.0906E-03    -19.8721E-03     12.1140E-03    -21.1593E-03     40.6519E-03    -19.7773E-03     12.1730E-03
            2150     3.53038E-03     16.6756E-03    -22.6103E+06    -99.8191E+06    -19.0080E+06     4.54478E+06    -20.4984E-03     40.1127E-03    -19.6142E-03     9.37832E-03    -20.4397E-03     39.6744E-03    -19.5318E-03     9.43206E-03
            2151     2.64832E-03     16.6659E-03    -23.7039E+06    -100.917E+06    -21.9783E+06     3.62813E+06    -19.9226E-03     39.3280E-03    -19.4054E-03     6.85571E-03    -19.8632E-03     38.8899E-03    -19.3346E-03     6.89925E-03
            2152     1.76580E-03     16.6589E-03    -24.4984E+06    -102.232E+06    -23.9476E+06     2.44843E+06    -19.4988E-03     38.7493E-03    -19.2505E-03     4.54608E-03    -19.4384E-03     38.3085E-03    -19.1865E-03     4.57564E-03
            2153     882.989E-06     16.6546E-03    -25.0934E+06    -104.172E+06    -25.0277E+06     1.26792E+06    -19.2199E-03     38.3751E-03    -19.1552E-03     2.40011E-03    -19.1580E-03     37.9272E-03    -19.0929E-03     2.41542E-03
            2154     16.6603E-03     16.4256E-03    -4.75548E+06     130.479E+06     79.3557E+06     316.870E+03    -38.3302E-03     64.5534E-03    -26.2231E-03     102.931E-03    -39.6601E-03     66.0995E-03    -26.0086E-03     102.966E-03
            2155     15.7914E-03     16.2855E-03    -8.79283E+06     114.975E+06     46.3666E+06     2.89422E+06    -39.4705E-03     64.9879E-03    -25.5174E-03     129.645E-03    -40.9291E-03     66.6890E-03    -25.4395E-03     129.455E-03
            2156     14.9257E-03     16.1752E-03    -11.5749E+06     83.9792E+06     253.848E+03     2.78372E+06    -37.0160E-03     61.7464E-03    -24.7304E-03     95.2284E-03    -37.7094E-03     62.6963E-03    -24.8341E-03     94.9448E-03
            2157     14.0547E-03     16.0965E-03    -12.5391E+06     33.2343E+06    -17.4430E+06     737.604E+03    -34.1250E-03     58.2636E-03    -24.1386E-03     71.6510E-03    -34.4304E-03     58.6932E-03    -24.2558E-03     71.4317E-03
            2158     13.1837E-03     16.0321E-03    -11.6588E+06    -12.6968E+06    -11.9838E+06     18.4914E+03    -32.6492E-03     56.3352E-03    -23.6859E-03     58.7474E-03    -32.7930E-03     56.4273E-03    -23.7105E-03     58.5760E-03
            2159     12.3113E-03     15.9769E-03    -10.5657E+06    -33.2032E+06    -7.57212E+06     580.128E+03    -31.3501E-03     54.5453E-03    -23.1952E-03     50.6780E-03    -31.4159E-03     54.4778E-03    -23.1696E-03     50.5581E-03
            2160     11.4381E-03     15.9273E-03    -10.3131E+06    -49.1286E+06    -7.13911E+06     1.63801E+06    -30.0890E-03     52.7725E-03    -22.6835E-03     44.0175E-03    -30.1035E-03     52.5967E-03    -22.6330E-03     43.9442E-03
            2161     10.5638E-03     15.8840E-03    -10.9471E+06    -60.9540E+06    -5.66020E+06     2.69083E+06    -28.8233E-03     51.0021E-03    -22.1788E-03     38.2526E-03    -28.8090E-03     50.7491E-03    -22.1029E-03     38.2180E-03
            2162     9.68851E-03     15.8450E-03    -11.9103E+06    -68.2695E+06    -4.08762E+06     3.42775E+06    -27.5452E-03     49.2244E-03    -21.6791E-03     32.9615E-03    -27.5170E-03     48.9234E-03    -21.5833E-03     32.9552E-03
            2163     8.81216E-03     15.8112E-03    -12.9942E+06    -74.3607E+06    -4.62207E+06     3.75799E+06    -26.2518E-03     47.4359E-03    -21.1840E-03     28.1173E-03    -26.2128E-03     47.1002E-03    -21.0805E-03     28.1293E-03
            2164     7.93476E-03     15.7814E-03    -13.9545E+06    -80.8605E+06    -5.64627E+06     4.09979E+06    -24.9707E-03     45.6822E-03    -20.7115E-03     23.7438E-03    -24.9214E-03     45.3128E-03    -20.6023E-03     23.7706E-03
            2165     7.05629E-03     15.7562E-03    -15.1220E+06    -87.0167E+06    -7.05584E+06     4.88663E+06    -23.7346E-03     44.0038E-03    -20.2691E-03     19.8165E-03    -23.6777E-03     43.6047E-03    -20.1563E-03     19.8610E-03
            2166     6.17678E-03     15.7344E-03    -16.4536E+06    -90.8053E+06    -9.22678E+06     5.63705E+06    -22.5732E-03     42.4321E-03    -19.8589E-03     16.3564E-03    -22.5127E-03     42.0176E-03    -19.7495E-03     16.4161E-03
            2167     5.29632E-03     15.7164E-03    -17.9894E+06    -94.2962E+06    -11.6606E+06     5.97191E+06    -21.5271E-03     41.0186E-03    -19.4915E-03     13.2802E-03    -21.4647E-03     40.5914E-03    -19.3870E-03     13.3481E-03
            2168     4.41501E-03     15.7015E-03    -19.6345E+06    -96.8122E+06    -14.4077E+06     5.76554E+06    -20.6150E-03     39.7834E-03    -19.1684E-03     10.5494E-03    -20.5527E-03     39.3494E-03    -19.0716E-03     10.6174E-03
            2169     3.53297E-03     15.6898E-03    -21.0960E+06    -97.5121E+06    -17.7629E+06     4.97944E+06    -19.8470E-03     38.7353E-03    -18.8883E-03     8.12047E-03    -19.7858E-03     38.3044E-03    -18.8051E-03     8.18034E-03
            2170     2.65029E-03     15.6807E-03    -22.1397E+06    -98.2568E+06    -20.6320E+06     4.00137E+06    -19.2399E-03     37.8982E-03    -18.6583E-03     5.90676E-03    -19.1784E-03     37.4691E-03    -18.5869E-03     5.95548E-03
            2171     1.76720E-03     15.6744E-03    -22.8877E+06    -99.3804E+06    -22.4765E+06     2.94940E+06    -18.7873E-03     37.2641E-03    -18.4768E-03     3.89551E-03    -18.7252E-03     36.8331E-03    -18.4119E-03     3.93177E-03
            2172     883.765E-06     15.6704E-03    -23.3764E+06    -101.220E+06    -23.4622E+06     1.74338E+06    -18.4713E-03     36.7969E-03    -18.3257E-03     2.02674E-03    -18.4073E-03     36.3590E-03    -18.2623E-03     2.04832E-03
            2173     16.6618E-03     15.4233E-03    -5.64270E+06     128.888E+06     79.3650E+06     1.27709E+06    -40.3295E-03     66.5397E-03    -26.2103E-03     100.802E-03    -41.6417E-03     68.0594E-03    -25.9921E-03     100.781E-03
            2174     15.7949E-03     15.2699E-03    -8.20002E+06     115.781E+06     50.6630E+06     3.27602E+06    -40.9924E-03     66.4129E-03    -25.4205E-03     127.174E-03    -42.4306E-03     68.0863E-03    -25.3232E-03     126.936E-03
            2175     14.9281E-03     15.1706E-03    -9.40357E+06     85.4145E+06     2.83906E+06     2.08018E+06    -37.6497E-03     62.1935E-03    -24.5438E-03     90.4608E-03    -38.3067E-03     63.1123E-03    -24.6398E-03     90.1595E-03
            2176     14.0586E-03     15.0917E-03    -8.68056E+06     35.3762E+06    -16.5446E+06     1.47653E+06    -34.7545E-03     58.6345E-03    -23.8800E-03     68.9613E-03    -35.0317E-03     59.0546E-03    -24.0015E-03     68.7508E-03
            2177     13.1877E-03     15.0305E-03    -9.21912E+06    -11.8122E+06    -12.5401E+06     268.308E+03    -33.1388E-03     56.5046E-03    -23.3658E-03     56.1300E-03    -33.2629E-03     56.5905E-03    -23.3980E-03     55.9632E-03
            2178     12.3160E-03     14.9759E-03    -10.2412E+06    -34.7838E+06    -9.52467E+06     398.417E+03    -31.8171E-03     54.6313E-03    -22.8141E-03     47.8955E-03    -31.8708E-03     54.5529E-03    -22.7965E-03     47.7752E-03
            2179     11.4430E-03     14.9290E-03    -11.0386E+06    -50.2267E+06    -7.91812E+06     2.06547E+06    -30.4565E-03     52.7002E-03    -22.2437E-03     41.0959E-03    -30.4678E-03     52.5171E-03    -22.1944E-03     41.0307E-03
            2180     10.5691E-03     14.8867E-03    -11.7046E+06    -61.3756E+06    -6.24806E+06     2.87079E+06    -29.0893E-03     50.7604E-03    -21.6710E-03     35.1942E-03    -29.0744E-03     50.5042E-03    -21.5963E-03     35.1646E-03
            2181     9.69408E-03     14.8501E-03    -11.9480E+06    -68.4871E+06    -4.29527E+06     3.31552E+06    -27.6371E-03     48.7417E-03    -21.1047E-03     29.8592E-03    -27.6062E-03     48.4379E-03    -21.0095E-03     29.8541E-03
            2182     8.81779E-03     14.8177E-03    -12.2370E+06    -74.1636E+06    -4.31121E+06     3.76444E+06    -26.1502E-03     46.6992E-03    -20.5491E-03     25.0670E-03    -26.1065E-03     46.3615E-03    -20.4453E-03     25.0816E-03
            2183     7.94025E-03     14.7902E-03    -13.2465E+06    -81.1478E+06    -5.06275E+06     4.43381E+06    -24.6819E-03     44.7078E-03    -20.0259E-03     20.8486E-03    -24.6285E-03     44.3340E-03    -19.9143E-03     20.8820E-03
            2184     7.06145E-03     14.7662E-03    -14.5347E+06    -87.1179E+06    -6.47498E+06     5.19894E+06    -23.2843E-03     42.8243E-03    -19.5401E-03     17.1527E-03    -23.2244E-03     42.4224E-03    -19.4251E-03     17.2031E-03
            2185     6.18152E-03     14.7464E-03    -15.6747E+06    -90.5386E+06    -8.53247E+06     5.84239E+06    -21.9951E-03     41.0907E-03    -19.0956E-03     13.9744E-03    -21.9317E-03     40.6750E-03    -18.9843E-03     14.0382E-03
            2186     5.30048E-03     14.7296E-03    -16.7021E+06    -93.3458E+06    -10.6236E+06     6.36022E+06    -20.8443E-03     39.5477E-03    -18.7034E-03     11.2115E-03    -20.7781E-03     39.1217E-03    -18.5970E-03     11.2855E-03
            2187     4.41854E-03     14.7161E-03    -17.7882E+06    -94.7030E+06    -12.8261E+06     6.16572E+06    -19.8626E-03     38.2272E-03    -18.3646E-03     8.84549E-03    -19.7963E-03     37.7986E-03    -18.2656E-03     8.91944E-03
            2188     3.53582E-03     14.7052E-03    -18.8785E+06    -95.0209E+06    -15.4230E+06     5.36817E+06    -19.0645E-03     37.1411E-03    -18.0766E-03     6.78480E-03    -18.9991E-03     36.7160E-03    -17.9885E-03     6.85022E-03
            2189     2.65251E-03     14.6971E-03    -19.9306E+06    -95.6184E+06    -18.3384E+06     4.49998E+06    -18.4343E-03     36.2729E-03    -17.8386E-03     4.92869E-03    -18.3689E-03     35.8504E-03    -17.7628E-03     4.98419E-03
            2190     1.76864E-03     14.6913E-03    -20.7680E+06    -96.3083E+06    -20.4195E+06     3.46630E+06    -17.9488E-03     35.6057E-03    -17.6569E-03     3.21924E-03    -17.8835E-03     35.1839E-03    -17.5892E-03     3.26241E-03
            2191     884.430E-06     14.6880E-03    -21.1982E+06    -97.3284E+06    -21.3778E+06     2.11847E+06    -17.6164E-03     35.1637E-03    -17.5473E-03     1.63711E-03    -17.5502E-03     34.7390E-03    -17.4823E-03     1.66365E-03
            2192     16.6606E-03     14.4046E-03    -6.83128E+06     127.335E+06     78.7985E+06     243.123E+03    -42.6724E-03     68.8268E-03    -26.1544E-03     99.4976E-03    -43.9719E-03     70.3256E-03    -25.9351E-03     99.3848E-03
            2193     15.7986E-03     14.2624E-03    -7.53819E+06     116.144E+06     53.5310E+06     899.058E+03    -42.3777E-03     67.6408E-03    -25.2631E-03     123.347E-03    -43.7739E-03     69.2676E-03    -25.1529E-03     123.025E-03
            2194     14.9307E-03     14.1608E-03    -7.54760E+06     85.7409E+06     5.58703E+06     1.92896E+06    -38.0428E-03     62.3553E-03    -24.3124E-03     85.9507E-03    -38.6565E-03     63.2305E-03    -24.3979E-03     85.6453E-03
            2195     14.0629E-03     14.0888E-03    -7.88672E+06     35.6577E+06    -16.0458E+06     1.88474E+06    -35.5228E-03     59.1016E-03    -23.5788E-03     65.3109E-03    -35.7836E-03     59.5077E-03    -23.6993E-03     65.1028E-03
            2196     13.1925E-03     14.0270E-03    -8.85055E+06    -10.4520E+06    -11.4182E+06     2.35844E+06    -33.7872E-03     56.7806E-03    -22.9933E-03     53.1965E-03    -33.9044E-03     56.8624E-03    -23.0224E-03     53.0579E-03
            2197     12.3214E-03     13.9760E-03    -10.9094E+06    -35.2479E+06    -9.00255E+06     2.10701E+06    -32.4046E-03     54.7712E-03    -22.3666E-03     44.5849E-03    -32.4558E-03     54.6848E-03    -22.3447E-03     44.4884E-03
            2198     11.4491E-03     13.9298E-03    -12.1045E+06    -51.0916E+06    -8.08537E+06     2.05530E+06    -30.9363E-03     52.6488E-03    -21.7124E-03     37.7243E-03    -30.9471E-03     52.4588E-03    -21.6612E-03     37.6617E-03
            2199     10.5757E-03     13.8904E-03    -11.8576E+06    -61.3233E+06    -6.15294E+06     2.49169E+06    -29.3647E-03     50.4219E-03    -21.0572E-03     31.7059E-03    -29.3476E-03     50.1630E-03    -20.9819E-03     31.6745E-03
            2200     9.70076E-03     13.8552E-03    -11.9119E+06    -68.6816E+06    -4.56234E+06     2.72581E+06    -27.6816E-03     48.0953E-03    -20.4138E-03     26.3699E-03    -27.6476E-03     47.7887E-03    -20.3197E-03     26.3603E-03
            2201     8.82449E-03     13.8255E-03    -12.4364E+06    -74.6773E+06    -4.36667E+06     3.61612E+06    -25.9619E-03     45.7555E-03    -19.7936E-03     21.6727E-03    -25.9169E-03     45.4141E-03    -19.6891E-03     21.6882E-03
            2202     7.94669E-03     13.7995E-03    -13.3140E+06    -81.5359E+06    -4.65831E+06     4.75007E+06    -24.2924E-03     43.5085E-03    -19.2161E-03     17.6254E-03    -24.2383E-03     43.1313E-03    -19.1019E-03     17.6651E-03
            2203     7.06753E-03     13.7780E-03    -14.5007E+06    -86.8658E+06    -5.38411E+06     5.40686E+06    -22.7191E-03     41.4060E-03    -18.6869E-03     14.1777E-03    -22.6603E-03     41.0030E-03    -18.5668E-03     14.2327E-03
            2204     6.18700E-03     13.7595E-03    -15.6812E+06    -90.1860E+06    -7.56591E+06     5.77728E+06    -21.2903E-03     39.4965E-03    -18.2062E-03     11.3012E-03    -21.2284E-03     39.0807E-03    -18.0905E-03     11.3656E-03
            2205     5.30536E-03     13.7446E-03    -16.4096E+06    -92.3512E+06    -9.90038E+06     5.99593E+06    -20.0364E-03     37.8219E-03    -17.7855E-03     8.88034E-03    -19.9710E-03     37.3991E-03    -17.6773E-03     8.95073E-03
            2206     4.42263E-03     13.7322E-03    -16.6519E+06    -92.6567E+06    -11.8445E+06     5.75946E+06    -18.9726E-03     36.4014E-03    -17.4288E-03     6.87204E-03    -18.9048E-03     35.9798E-03    -17.3295E-03     6.94157E-03
            2207     3.53908E-03     13.7225E-03    -16.9154E+06    -92.8494E+06    -13.6472E+06     5.33200E+06    -18.1107E-03     35.2498E-03    -17.1391E-03     5.19182E-03    -18.0411E-03     34.8301E-03    -17.0482E-03     5.25737E-03
            2208     2.65486E-03     13.7151E-03    -17.4053E+06    -92.9390E+06    -15.5080E+06     4.74038E+06    -17.4551E-03     34.3694E-03    -16.9144E-03     3.74962E-03    -17.3850E-03     33.9525E-03    -16.8319E-03     3.80865E-03
            2209     1.77022E-03     13.7101E-03    -17.7825E+06    -92.9339E+06    -16.8834E+06     3.66083E+06    -16.9899E-03     33.7457E-03    -16.7558E-03     2.41430E-03    -16.9196E-03     33.3313E-03    -16.6797E-03     2.46025E-03
            2210     885.144E-06     13.7070E-03    -18.0995E+06    -92.9578E+06    -17.8305E+06     2.24181E+06    -16.7213E-03     33.3813E-03    -16.6600E-03     1.18165E-03    -16.6510E-03     32.9688E-03    -16.5881E-03     1.20993E-03
            2211     16.6641E-03     13.3888E-03    -5.71094E+06     127.742E+06     78.3335E+06     633.673E+03    -44.3512E-03     70.3974E-03    -26.0462E-03     98.0182E-03    -45.6080E-03     71.8603E-03    -25.8314E-03     97.8482E-03
            2212     15.8009E-03     13.2486E-03    -9.61111E+06     112.940E+06     49.4793E+06    -3.00454E+06    -43.4682E-03     68.5218E-03    -25.0536E-03     118.040E-03    -44.8043E-03     70.0816E-03    -24.9561E-03     117.623E-03
            2213     14.9367E-03     13.1547E-03    -9.61391E+06     83.7543E+06     4.73019E+06     599.137E+03    -38.9192E-03     62.9552E-03    -24.0360E-03     82.0398E-03    -39.5054E-03     63.7911E-03    -24.1198E-03     81.7080E-03
            2214     14.0676E-03     13.0827E-03    -9.97002E+06     35.6600E+06    -16.0101E+06     3.33484E+06    -36.3681E-03     59.5936E-03    -23.2255E-03     62.1201E-03    -36.6242E-03     59.9875E-03    -23.3428E-03     61.9297E-03
            2215     13.1988E-03     13.0251E-03    -10.6196E+06    -10.0434E+06    -12.3129E+06     3.17296E+06    -34.7543E-03     57.2985E-03    -22.5443E-03     49.9027E-03    -34.8706E-03     57.3774E-03    -22.5759E-03     49.7747E-03
            2216     12.3281E-03     12.9744E-03    -10.1246E+06    -34.1369E+06    -8.57672E+06     3.02730E+06    -33.1463E-03     54.9677E-03    -21.8214E-03     41.0722E-03    -33.1893E-03     54.8786E-03    -21.8001E-03     40.9903E-03
            2217     11.4566E-03     12.9317E-03    -10.2466E+06    -50.7870E+06    -7.29762E+06     2.38383E+06    -31.4703E-03     52.5433E-03    -21.0730E-03     33.9069E-03    -31.4688E-03     52.3465E-03    -21.0210E-03     33.8518E-03
            2218     10.5833E-03     12.8936E-03    -11.1974E+06    -61.4033E+06    -6.00930E+06     2.30058E+06    -29.5926E-03     49.9198E-03    -20.3272E-03     27.8640E-03    -29.5691E-03     49.6562E-03    -20.2520E-03     27.8339E-03
            2219     9.70876E-03     12.8616E-03    -12.1310E+06    -68.7910E+06    -4.49838E+06     2.80816E+06    -27.6370E-03     47.2423E-03    -19.6053E-03     22.5326E-03    -27.6020E-03     46.9332E-03    -19.5104E-03     22.5274E-03
            2220     8.83228E-03     12.8337E-03    -13.2463E+06    -75.6243E+06    -4.24210E+06     3.58004E+06    -25.6698E-03     44.5886E-03    -18.9188E-03     18.0356E-03    -25.6262E-03     44.2420E-03    -18.8112E-03     18.0535E-03
            2221     7.95427E-03     12.8106E-03    -14.1244E+06    -81.8541E+06    -4.29515E+06     4.59376E+06    -23.7952E-03     42.0788E-03    -18.2836E-03     14.2543E-03    -23.7442E-03     41.6997E-03    -18.1659E-03     14.2944E-03
            2222     7.07458E-03     12.7908E-03    -14.9416E+06    -86.5377E+06    -4.19197E+06     5.22234E+06    -22.0541E-03     39.7629E-03    -17.7088E-03     11.1302E-03    -21.9992E-03     39.3599E-03    -17.5826E-03     11.1845E-03
            2223     6.19350E-03     12.7747E-03    -15.8431E+06    -89.4814E+06    -5.97889E+06     5.45533E+06    -20.4840E-03     37.6743E-03    -17.1903E-03     8.58522E-03    -20.4259E-03     37.2596E-03    -17.0675E-03     8.64678E-03
            2224     5.31101E-03     12.7611E-03    -16.5728E+06    -90.9717E+06    -8.82904E+06     5.15198E+06    -19.1190E-03     35.8551E-03    -16.7361E-03     6.55462E-03    -19.0578E-03     35.4377E-03    -16.6244E-03     6.61506E-03
            2225     4.42754E-03     12.7503E-03    -16.8809E+06    -91.0869E+06    -11.0210E+06     4.71712E+06    -17.9683E-03     34.3253E-03    -16.3570E-03     4.93516E-03    -17.9051E-03     33.9106E-03    -16.2555E-03     4.99191E-03
            2226     3.54305E-03     12.7417E-03    -16.7417E+06    -91.0039E+06    -12.7245E+06     4.32914E+06    -17.0320E-03     33.0886E-03    -16.0567E-03     3.63537E-03    -16.9655E-03     32.6765E-03    -15.9641E-03     3.68845E-03
            2227     2.65784E-03     12.7353E-03    -16.0906E+06    -90.4512E+06    -13.4019E+06     3.66652E+06    -16.3334E-03     32.1733E-03    -15.8399E-03     2.56741E-03    -16.2634E-03     31.7639E-03    -15.7524E-03     2.61290E-03
            2228     1.77205E-03     12.7306E-03    -15.2872E+06    -89.7770E+06    -13.6264E+06     2.77503E+06    -15.8922E-03     31.5917E-03    -15.6995E-03     1.62340E-03    -15.8188E-03     31.1848E-03    -15.6153E-03     1.65812E-03
            2229     886.144E-06     12.7280E-03    -14.6324E+06    -89.1744E+06    -14.0399E+06     1.66989E+06    -15.6994E-03     31.2842E-03    -15.5848E-03     797.417E-06    -15.6228E-03     30.8801E-03    -15.5045E-03     818.432E-06
            2230     16.6659E-03     12.3720E-03    -1.50626E+06     131.189E+06     82.1495E+06     2.07487E+06    -45.7857E-03     71.7344E-03    -25.9487E-03     97.3974E-03    -46.9892E-03     73.1602E-03    -25.7260E-03     97.1950E-03
            2231     15.8048E-03     12.2350E-03    -8.95772E+06     110.862E+06     45.2879E+06     341.370E+03    -44.6294E-03     69.4784E-03    -24.8490E-03     114.233E-03    -45.8870E-03     70.9668E-03    -24.7703E-03     113.816E-03
            2232     14.9393E-03     12.1464E-03    -14.8492E+06     78.7360E+06    -991.108E+03    -288.614E+03    -40.4260E-03     64.1657E-03    -23.7397E-03     78.0031E-03    -40.9915E-03     64.9612E-03    -23.8373E-03     77.6445E-03
            2233     14.0734E-03     12.0770E-03    -13.3348E+06     35.6934E+06    -16.1001E+06     2.12124E+06    -37.8472E-03     60.6769E-03    -22.8298E-03     58.9384E-03    -38.1043E-03     61.0604E-03    -22.9427E-03     58.7287E-03
            2234     13.2052E-03     12.0212E-03    -10.8196E+06    -9.46050E+06    -14.2437E+06     2.67492E+06    -36.0032E-03     58.0146E-03    -22.0114E-03     46.0513E-03    -36.1093E-03     58.0902E-03    -22.0532E-03     45.9165E-03
            2235     12.3362E-03     11.9736E-03    -10.4407E+06    -33.7917E+06    -9.87161E+06     2.62661E+06    -34.0326E-03     55.2063E-03    -21.1737E-03     37.0818E-03    -34.0693E-03     55.1149E-03    -21.1590E-03     36.9975E-03
            2236     11.4651E-03     11.9328E-03    -10.9721E+06    -50.0995E+06    -7.23427E+06     3.21151E+06    -31.9228E-03     52.2494E-03    -20.3265E-03     29.7159E-03    -31.9215E-03     52.0525E-03    -20.2741E-03     29.6754E-03
            2237     10.5925E-03     11.8982E-03    -12.0967E+06    -61.0185E+06    -5.69466E+06     2.98932E+06    -29.6866E-03     49.1793E-03    -19.4927E-03     23.7735E-03    -29.6656E-03     48.9155E-03    -19.4152E-03     23.7563E-03
            2238     9.71768E-03     11.8684E-03    -13.2280E+06    -68.9134E+06    -4.11434E+06     2.97873E+06    -27.4101E-03     46.1076E-03    -18.6976E-03     18.7080E-03    -27.3789E-03     45.7970E-03    -18.5991E-03     18.7087E-03
            2239     8.84116E-03     11.8438E-03    -14.0965E+06    -76.2224E+06    -3.45902E+06     3.59394E+06    -25.2097E-03     43.1625E-03    -17.9528E-03     14.5535E-03    -25.1695E-03     42.8118E-03    -17.8391E-03     14.5744E-03
            2240     7.96255E-03     11.8228E-03    -15.1086E+06    -81.9583E+06    -3.59529E+06     4.19599E+06    -23.1291E-03     40.3971E-03    -17.2680E-03     11.2140E-03    -23.0833E-03     40.0172E-03    -17.1453E-03     11.2511E-03
            2241     7.08234E-03     11.8057E-03    -16.0839E+06    -86.2476E+06    -3.57071E+06     4.58648E+06    -21.2436E-03     37.8980E-03    -16.6544E-03     8.54285E-03    -21.1953E-03     37.4968E-03    -16.5239E-03     8.59051E-03
            2242     6.20044E-03     11.7914E-03    -16.9253E+06    -88.4968E+06    -4.82373E+06     4.58890E+06    -19.5678E-03     35.6749E-03    -16.1071E-03     6.43708E-03    -19.5180E-03     35.2648E-03    -15.9783E-03     6.48841E-03
            2243     5.31726E-03     11.7799E-03    -17.5342E+06    -89.3405E+06    -7.47847E+06     4.06598E+06    -18.1149E-03     33.7438E-03    -15.6289E-03     4.81640E-03    -18.0627E-03     33.3339E-03    -15.5113E-03     4.86341E-03
            2244     4.43269E-03     11.7705E-03    -17.8350E+06    -89.5735E+06    -9.68314E+06     3.22168E+06    -16.9020E-03     32.1339E-03    -15.2320E-03     3.55678E-03    -16.8475E-03     31.7262E-03    -15.1246E-03     3.59456E-03
            2245     3.54727E-03     11.7632E-03    -17.5651E+06    -89.3568E+06    -11.4691E+06     2.34790E+06    -15.9398E-03     30.8550E-03    -14.9152E-03     2.57120E-03    -15.8816E-03     30.4504E-03    -14.8175E-03     2.59887E-03
            2246     2.66102E-03     11.7576E-03    -16.8699E+06    -88.6305E+06    -13.0317E+06     1.61148E+06    -15.2159E-03     29.8925E-03    -14.6766E-03     1.78360E-03    -15.1530E-03     29.4927E-03    -14.5888E-03     1.80265E-03
            2247     1.77432E-03     11.7536E-03    -16.0731E+06    -87.8244E+06    -14.3073E+06     959.690E+03    -14.7268E-03     29.2440E-03    -14.5172E-03     1.10933E-03    -14.6592E-03     28.8489E-03    -14.4381E-03     1.12064E-03
            2248     887.144E-06     11.7511E-03    -15.3753E+06    -87.1750E+06    -14.7589E+06     512.529E+03    -14.5126E-03     28.9094E-03    -14.3968E-03     553.809E-06    -14.4416E-03     28.5174E-03    -14.3219E-03     559.870E-06
            2249     16.6665E-03     11.3533E-03    -3.14751E+06     128.924E+06     80.8940E+06     1.53754E+06    -47.3027E-03     73.1707E-03    -25.8680E-03     95.8693E-03    -48.4665E-03     74.5465E-03    -25.6459E-03     95.6002E-03
            2250     15.8057E-03     11.2199E-03    -7.13179E+06     112.400E+06     50.3736E+06     3.61017E+06    -46.6469E-03     71.3263E-03    -24.6793E-03     108.720E-03    -47.8375E-03     72.7448E-03    -24.5801E-03     108.285E-03
            2251     14.9447E-03     11.1361E-03    -10.5267E+06     80.1739E+06     3.35040E+06     2.27004E+06    -42.5026E-03     65.9230E-03    -23.4204E-03     71.7662E-03    -43.0231E-03     66.6814E-03    -23.5046E-03     71.4160E-03
            2252     14.0797E-03     11.0697E-03    -12.8165E+06     34.5661E+06    -16.5852E+06     467.126E+03    -39.5939E-03     61.9408E-03    -22.3468E-03     53.9854E-03    -39.8300E-03     62.3025E-03    -22.4613E-03     53.7486E-03
            2253     13.2137E-03     11.0167E-03    -12.6494E+06    -9.35600E+06    -14.0401E+06     1.59484E+06    -37.2250E-03     58.6210E-03    -21.3960E-03     41.2847E-03    -37.3311E-03     58.6901E-03    -21.4343E-03     41.1361E-03
            2254     12.3453E-03     10.9721E-03    -12.4504E+06    -34.5706E+06    -9.56232E+06     2.88977E+06    -34.7369E-03     55.1784E-03    -20.4415E-03     32.4176E-03    -34.7767E-03     55.0794E-03    -20.4212E-03     32.3400E-03
            2255     11.4750E-03     10.9347E-03    -12.9106E+06    -49.4846E+06    -6.11887E+06     3.29705E+06    -32.0994E-03     51.5998E-03    -19.5004E-03     25.4621E-03    -32.1061E-03     51.4030E-03    -19.4405E-03     25.4276E-03
            2256     10.6023E-03     10.9031E-03    -13.0209E+06    -60.1759E+06    -4.40893E+06     3.03590E+06    -29.4659E-03     48.0596E-03    -18.5937E-03     19.8913E-03    -29.4500E-03     47.7969E-03    -18.5096E-03     19.8790E-03
            2257     9.72740E-03     10.8769E-03    -13.5738E+06    -68.9477E+06    -2.56509E+06     3.02301E+06    -26.8806E-03     44.6297E-03    -17.7491E-03     15.3884E-03    -26.8519E-03     44.3156E-03    -17.6423E-03     15.3932E-03
            2258     8.85014E-03     10.8549E-03    -14.7724E+06    -76.4734E+06    -2.03219E+06     3.47895E+06    -24.4614E-03     41.4320E-03    -16.9706E-03     11.7904E-03    -24.4254E-03     41.0781E-03    -16.8485E-03     11.8125E-03
            2259     7.97102E-03     10.8371E-03    -16.0001E+06    -81.7806E+06    -2.06559E+06     3.85391E+06    -22.2381E-03     38.5037E-03    -16.2656E-03     9.02068E-03    -22.1988E-03     38.1233E-03    -16.1342E-03     9.05509E-03
            2260     7.08982E-03     10.8222E-03    -17.1841E+06    -85.5730E+06    -2.48625E+06     3.77236E+06    -20.2555E-03     35.8949E-03    -15.6394E-03     6.89752E-03    -20.2151E-03     35.4969E-03    -15.5028E-03     6.93575E-03
            2261     6.20711E-03     10.8104E-03    -18.1241E+06    -87.3854E+06    -3.54189E+06     3.27344E+06    -18.5449E-03     33.6341E-03    -15.0893E-03     5.24362E-03    -18.5045E-03     33.2295E-03    -14.9540E-03     5.27855E-03
            2262     5.32283E-03     10.8006E-03    -18.7012E+06    -87.6815E+06    -5.78444E+06     2.41025E+06    -17.0913E-03     31.7022E-03    -14.6110E-03     3.99454E-03    -17.0498E-03     31.2998E-03    -14.4856E-03     4.02044E-03
            2263     4.43754E-03     10.7929E-03    -18.9903E+06    -88.0238E+06    -8.53556E+06     1.29100E+06    -15.8976E-03     30.1051E-03    -14.2074E-03     3.01704E-03    -15.8529E-03     29.7052E-03    -14.0949E-03     3.02996E-03
            2264     3.55113E-03     10.7868E-03    -19.3365E+06    -88.1410E+06    -11.9028E+06     413.412E+03    -14.9515E-03     28.8250E-03    -13.8735E-03     2.21924E-03    -14.9033E-03     28.4298E-03    -13.7772E-03     2.22190E-03
            2265     2.66407E-03     10.7822E-03    -19.6567E+06    -87.7636E+06    -15.2601E+06    -181.689E+03    -14.2255E-03     27.8325E-03    -13.6069E-03     1.57090E-03    -14.1746E-03     27.4443E-03    -13.5275E-03     1.56673E-03
            2266     1.77635E-03     10.7788E-03    -19.8615E+06    -87.3919E+06    -17.9648E+06    -413.884E+03    -13.6929E-03     27.1037E-03    -13.4108E-03     996.860E-06    -13.6395E-03     26.7216E-03    -13.3451E-03     990.353E-06
            2267     888.325E-06     10.7768E-03    -19.9430E+06    -87.0422E+06    -19.3885E+06    -310.413E+03    -13.3866E-03     26.6545E-03    -13.2679E-03     550.690E-06    -13.3318E-03     26.2765E-03    -13.2097E-03     546.056E-06
            2268     16.6679E-03     10.3329E-03    -4.35958E+06     127.042E+06     79.7594E+06     1.20221E+06    -50.0715E-03     75.8019E-03    -25.7304E-03     92.5478E-03    -51.1912E-03     77.1260E-03    -25.5095E-03     92.1932E-03
            2269     15.8117E-03     10.2019E-03    -7.79124E+06     111.204E+06     52.1544E+06     2.05817E+06    -48.9163E-03     73.3110E-03    -24.3948E-03     101.159E-03    -50.0344E-03     74.6456E-03    -24.2839E-03     100.640E-03
            2270     14.9512E-03     10.1237E-03    -8.52147E+06     81.8849E+06     8.03549E+06     3.49477E+06    -44.3186E-03     67.3093E-03    -22.9908E-03     64.9677E-03    -44.8025E-03     68.0309E-03    -23.0570E-03     64.6165E-03
            2271     14.0888E-03     10.0614E-03    -10.1520E+06     36.1995E+06    -13.5314E+06     3.29177E+06    -41.0451E-03     62.8146E-03    -21.7695E-03     48.5935E-03    -41.2583E-03     63.1599E-03    -21.8749E-03     48.3914E-03
            2272     13.2233E-03     10.0116E-03    -12.7672E+06    -9.62302E+06    -13.0793E+06     2.14203E+06    -38.0105E-03     58.7066E-03    -20.6961E-03     36.5441E-03    -38.1084E-03     58.7634E-03    -20.7291E-03     36.4068E-03
            2273     12.3557E-03     9.97106E-03    -13.3236E+06    -35.1775E+06    -9.25693E+06     2.44871E+06    -34.9545E-03     54.6042E-03    -19.6497E-03     28.1326E-03    -34.9924E-03     54.4971E-03    -19.6256E-03     28.0552E-03
            2274     11.4852E-03     9.93731E-03    -12.7176E+06    -48.6952E+06    -4.69153E+06     2.59213E+06    -31.8324E-03     50.4808E-03    -18.6484E-03     21.8051E-03    -31.8379E-03     50.2822E-03    -18.5828E-03     21.7674E-03
            2275     10.6122E-03     9.90952E-03    -12.8320E+06    -59.7239E+06    -2.38891E+06     2.45839E+06    -28.8030E-03     46.5137E-03    -17.7107E-03     16.8566E-03    -28.7878E-03     46.2480E-03    -17.6174E-03     16.8418E-03
            2276     9.73648E-03     9.88670E-03    -13.6160E+06    -69.1923E+06    -463.721E+03     2.97291E+06    -25.9576E-03     42.8155E-03    -16.8579E-03     13.0394E-03    -25.9307E-03     42.4961E-03    -16.7402E-03     13.0471E-03
            2277     8.85846E-03     9.86819E-03    -14.7897E+06    -76.2789E+06     458.987E+03     3.33793E+06    -23.3754E-03     39.4663E-03    -16.0909E-03     10.1553E-03    -23.3429E-03     39.1093E-03    -15.9565E-03     10.1779E-03
            2278     7.97814E-03     9.85308E-03    -16.1069E+06    -81.4046E+06     806.471E+03     3.30601E+06    -21.1030E-03     36.5152E-03    -15.4122E-03     8.00799E-03    -21.0688E-03     36.1325E-03    -15.2667E-03     8.03673E-03
            2279     7.09609E-03     9.84102E-03    -17.3616E+06    -84.3753E+06     143.278E+03     2.83991E+06    -19.1349E-03     33.9515E-03    -14.8166E-03     6.45125E-03    -19.1009E-03     33.5560E-03    -14.6684E-03     6.47821E-03
            2280     6.21226E-03     9.83107E-03    -18.4424E+06    -85.8916E+06    -2.01169E+06     1.71161E+06    -17.4888E-03     31.7864E-03    -14.2976E-03     5.23740E-03    -17.4544E-03     31.3874E-03    -14.1563E-03     5.25254E-03
            2281     5.32724E-03     9.82336E-03    -19.2611E+06    -86.2601E+06    -4.54296E+06     480.864E+03    -16.1405E-03     29.9932E-03    -13.8528E-03     4.27511E-03    -16.1057E-03     29.5970E-03    -13.7225E-03     4.27623E-03
            2282     4.44093E-03     9.81699E-03    -20.2902E+06    -87.0703E+06    -8.74332E+06    -286.101E+03    -15.0480E-03     28.5187E-03    -13.4708E-03     3.48157E-03    -15.0108E-03     28.1258E-03    -13.3588E-03     3.47415E-03
            2283     3.55394E-03     9.81220E-03    -21.4920E+06    -87.5585E+06    -13.9300E+06    -795.051E+03    -14.1758E-03     27.3234E-03    -13.1475E-03     2.76884E-03    -14.1364E-03     26.9371E-03    -13.0590E-03     2.75588E-03
            2284     2.66608E-03     9.80843E-03    -22.6482E+06    -87.7583E+06    -18.2595E+06    -1.07394E+06    -13.4924E-03     26.3801E-03    -12.8877E-03     2.10791E-03    -13.4520E-03     26.0007E-03    -12.8189E-03     2.09218E-03
            2285     1.77781E-03     9.80589E-03    -23.5804E+06    -87.9747E+06    -21.4564E+06    -987.235E+03    -12.9910E-03     25.6800E-03    -12.6889E-03     1.43161E-03    -12.9503E-03     25.3055E-03    -12.6345E-03     1.41768E-03
            2286     889.009E-06     9.80428E-03    -24.0487E+06    -87.9054E+06    -23.3594E+06    -620.331E+03    -12.6554E-03     25.1979E-03    -12.5425E-03     817.639E-06    -12.6141E-03     24.8273E-03    -12.4970E-03     808.987E-06
            2287     16.6732E-03     9.30688E-03    -4.17015E+06     126.193E+06     79.8926E+06     471.443E+03    -53.0017E-03     78.5227E-03    -25.5211E-03     89.7293E-03    -54.0692E-03     79.7921E-03    -25.2985E-03     89.2903E-03
            2288     15.8183E-03     9.18392E-03    -7.30506E+06     109.675E+06     51.8431E+06     2.68805E+06    -50.9655E-03     74.9939E-03    -24.0284E-03     95.8371E-03    -52.0033E-03     76.2454E-03    -23.9176E-03     95.2851E-03
            2289     14.9597E-03     9.10978E-03    -11.0910E+06     80.6212E+06     8.65020E+06     4.21387E+06    -46.0450E-03     68.5385E-03    -22.4935E-03     59.8410E-03    -46.5071E-03     69.2230E-03    -22.5511E-03     59.4921E-03
            2290     14.0979E-03     9.05207E-03    -12.0707E+06     38.1973E+06    -10.7972E+06     4.61301E+06    -42.0401E-03     63.1955E-03    -21.1554E-03     43.8003E-03    -42.2533E-03     63.5333E-03    -21.2472E-03     43.6206E-03
            2291     13.2334E-03     9.00692E-03    -11.8180E+06    -7.75392E+06    -11.0849E+06     3.82655E+06    -38.2299E-03     58.2184E-03    -19.9885E-03     32.5673E-03    -38.3194E-03     58.2711E-03    -20.0156E-03     32.4610E-03
            2292     12.3654E-03     8.97059E-03    -12.7602E+06    -34.4593E+06    -7.97982E+06     2.28388E+06    -34.6054E-03     53.4980E-03    -18.8926E-03     24.7569E-03    -34.6382E-03     53.3868E-03    -18.8641E-03     24.6858E-03
            2293     11.4947E-03     8.94131E-03    -13.4469E+06    -48.2414E+06    -3.59538E+06     1.70390E+06    -31.0364E-03     48.9136E-03    -17.8772E-03     19.1311E-03    -31.0450E-03     48.7140E-03    -17.8057E-03     19.0888E-03
            2294     10.6206E-03     8.91755E-03    -13.9373E+06    -59.7860E+06    -574.499E+03     2.05715E+06    -27.6622E-03     44.6221E-03    -16.9599E-03     14.9882E-03    -27.6536E-03     44.3537E-03    -16.8559E-03     14.9732E-03
            2295     9.74392E-03     8.89857E-03    -14.6529E+06    -69.3063E+06     1.76056E+06     2.34005E+06    -24.6300E-03     40.7823E-03    -16.1523E-03     11.9993E-03    -24.6108E-03     40.4600E-03    -16.0217E-03     12.0022E-03
            2296     8.86455E-03     8.88330E-03    -15.2056E+06    -75.9481E+06     3.15218E+06     2.43287E+06    -21.9983E-03     37.4483E-03    -15.4500E-03     9.88501E-03    -21.9721E-03     37.0895E-03    -15.3020E-03     9.89809E-03
            2297     7.98312E-03     8.87116E-03    -15.8951E+06    -80.7711E+06     3.46914E+06     2.27572E+06    -19.7846E-03     34.6324E-03    -14.8478E-03     8.39245E-03    -19.7541E-03     34.2488E-03    -14.6903E-03     8.40916E-03
            2298     7.09976E-03     8.86138E-03    -16.8800E+06    -82.9908E+06     2.40646E+06     1.54481E+06    -17.9629E-03     32.2964E-03    -14.3335E-03     7.32266E-03    -17.9319E-03     31.9039E-03    -14.1767E-03     7.33358E-03
            2299     6.21504E-03     8.85363E-03    -17.9812E+06    -84.0884E+06    -629.920E+03     184.499E+03    -16.4953E-03     30.3903E-03    -13.8950E-03     6.49561E-03    -16.4633E-03     29.9978E-03    -13.7502E-03     6.49144E-03
            2300     5.32903E-03     8.84731E-03    -19.4794E+06    -85.5442E+06     -4.4706E+06    -833.258E+03    -15.3500E-03     28.8780E-03    -13.5280E-03     5.73564E-03    -15.3175E-03     28.4857E-03    -13.3981E-03     5.72004E-03
            2301     4.44230E-03     8.84249E-03    -21.1481E+06    -86.7694E+06    -9.64808E+06    -1.23058E+06    -14.4489E-03     27.6660E-03    -13.2171E-03     4.97818E-03    -14.4152E-03     27.2772E-03    -13.1089E-03     4.95874E-03
            2302     3.55462E-03     8.83858E-03    -22.6564E+06    -87.6255E+06    -15.3081E+06    -1.44688E+06    -13.7398E-03     26.6991E-03    -12.9592E-03     4.17181E-03    -13.7041E-03     26.3162E-03    -12.8759E-03     4.15059E-03
            2303     2.66654E-03     8.83583E-03    -23.9275E+06    -88.2932E+06    -19.6710E+06    -1.42201E+06    -13.1988E-03     25.9586E-03    -12.7598E-03     3.29644E-03    -13.1620E-03     25.5805E-03    -12.6955E-03     3.27634E-03
            2304     1.77787E-03     8.83377E-03    -24.9254E+06    -88.9294E+06    -22.9802E+06    -1.20279E+06    -12.8159E-03     25.4312E-03    -12.6153E-03     2.31984E-03    -12.7783E-03     25.0560E-03    -12.5651E-03     2.30322E-03
            2305     889.074E-06     8.83271E-03    -25.5889E+06    -89.2640E+06    -24.9061E+06    -741.501E+03    -12.5859E-03     25.1043E-03    -12.5184E-03     1.29482E-03    -12.5481E-03     24.7314E-03    -12.4764E-03     1.28466E-03
            2306     16.6763E-03     8.28166E-03    -4.24495E+06     124.117E+06     78.8563E+06     262.795E+03    -55.7092E-03     80.9814E-03    -25.2722E-03     84.7078E-03    -56.7058E-03     82.1756E-03    -25.0517E-03     84.2017E-03
            2307     15.8223E-03     8.16219E-03    -9.17883E+06     106.534E+06     52.1045E+06     2.98879E+06    -52.6048E-03     76.2538E-03    -23.6490E-03     89.5393E-03    -53.5736E-03     77.4177E-03    -23.5297E-03     88.9628E-03
            2308     14.9669E-03     8.09408E-03    -10.3747E+06     80.5195E+06     13.2655E+06     4.79161E+06    -47.3704E-03     69.3796E-03    -22.0093E-03     53.3402E-03    -47.8014E-03     70.0221E-03    -22.0446E-03     52.9976E-03
            2309     14.1067E-03     8.04280E-03    -11.1783E+06     39.3324E+06    -7.18122E+06     4.98247E+06    -42.3136E-03     62.8911E-03    -20.5775E-03     38.8606E-03    -42.5125E-03     63.2114E-03    -20.6543E-03     38.6984E-03
            2310     13.2419E-03     8.00270E-03    -12.3962E+06    -5.57677E+06    -7.90991E+06     4.34523E+06    -37.7912E-03     57.1633E-03    -19.3722E-03     28.9873E-03    -37.8832E-03     57.2150E-03    -19.3856E-03     28.8997E-03
            2311     12.3737E-03     7.97153E-03    -13.1560E+06    -32.1676E+06    -4.50953E+06     3.02242E+06    -33.5833E-03     51.8662E-03    -18.2829E-03     22.1624E-03    -33.6223E-03     51.7577E-03    -18.2397E-03     22.1110E-03
            2312     11.5017E-03     7.94687E-03    -14.5564E+06    -47.6445E+06    -682.716E+03     1.70387E+06    -29.6147E-03     46.9281E-03    -17.3134E-03     17.5375E-03    -29.6319E-03     46.7267E-03    -17.2266E-03     17.5026E-03
            2313     10.6265E-03     7.92769E-03    -15.4847E+06    -59.4847E+06     2.27385E+06     1.02504E+06    -26.0287E-03     42.5043E-03    -16.4756E-03     14.4827E-03    -26.0316E-03     42.2347E-03    -16.3556E-03     14.4595E-03
            2314     9.74808E-03     7.91240E-03    -15.3745E+06    -69.0197E+06     4.92278E+06     579.556E+03    -22.9610E-03     38.7342E-03    -15.7732E-03     12.4913E-03    -22.9501E-03     38.4096E-03    -15.6262E-03     12.4748E-03
            2315     8.86732E-03     7.90045E-03    -15.3731E+06    -75.9922E+06     6.74899E+06     601.398E+03    -20.4401E-03     35.6351E-03    -15.1950E-03     11.1641E-03    -20.4198E-03     35.2711E-03    -15.0288E-03     11.1556E-03
            2316     7.98441E-03     7.89086E-03    -15.8400E+06    -80.1142E+06     6.16053E+06     533.747E+03    -18.4432E-03     33.1615E-03    -14.7183E-03     10.2603E-03    -18.4174E-03     32.7772E-03    -14.5483E-03     10.2558E-03
            2317     7.10003E-03     7.88326E-03    -16.4163E+06    -81.6688E+06     3.62323E+06    -281.633E+03    -16.9050E-03     31.2327E-03    -14.3277E-03     9.51966E-03    -16.8754E-03     30.8444E-03    -14.1674E-03     9.50785E-03
            2318     6.21433E-03     7.87709E-03    -17.4627E+06    -83.0770E+06     99.3108E+03    -1.07207E+06    -15.7394E-03     29.7552E-03    -14.0158E-03     8.81765E-03    -15.7073E-03     29.3659E-03    -13.8695E-03     8.79787E-03
            2319     5.32783E-03     7.87216E-03    -19.0027E+06    -85.1772E+06    -4.46436E+06    -1.68035E+06    -14.8822E-03     28.6506E-03    -13.7684E-03     8.02281E-03    -14.8479E-03     28.2594E-03    -13.6397E-03     7.99678E-03
            2320     4.44052E-03     7.86818E-03    -20.5009E+06    -86.9918E+06    -9.76082E+06    -2.01608E+06    -14.2671E-03     27.8383E-03    -13.5712E-03     7.06294E-03    -14.2297E-03     27.4476E-03    -13.4641E-03     7.03377E-03
            2321     3.55296E-03     7.86521E-03    -21.7718E+06    -88.1456E+06    -14.7505E+06    -1.96748E+06    -13.8179E-03     27.2368E-03    -13.4189E-03     5.95449E-03    -13.7778E-03     26.8493E-03    -13.3333E-03     5.92688E-03
            2322     2.66487E-03     7.86287E-03    -22.7845E+06    -89.1702E+06    -18.7150E+06    -1.75792E+06    -13.5066E-03     26.8169E-03    -13.3103E-03     4.68333E-03    -13.4642E-03     26.4313E-03    -13.2415E-03     4.65915E-03
            2323     1.77673E-03     7.86136E-03    -23.5153E+06    -90.1334E+06    -21.7760E+06    -1.34806E+06    -13.3132E-03     26.5530E-03    -13.2398E-03     3.25415E-03    -13.2686E-03     26.1680E-03    -13.1839E-03     3.23582E-03
            2324     888.284E-06     7.86034E-03    -24.1775E+06    -90.8565E+06    -23.6484E+06    -816.602E+03    -13.2223E-03     26.4201E-03    -13.1979E-03     1.77297E-03    -13.1769E-03     26.0355E-03    -13.1493E-03     1.76194E-03
            2325     16.6835E-03     7.25702E-03    -4.06860E+06     122.097E+06     79.2137E+06     472.395E+03    -59.1937E-03     84.2666E-03    -25.0729E-03     80.9866E-03    -60.1363E-03     85.3993E-03    -24.8480E-03     80.4074E-03
            2326     15.8315E-03     7.13842E-03    -7.67973E+06     105.357E+06     53.8794E+06     3.85159E+06    -54.7553E-03     78.0410E-03    -23.2857E-03     84.4189E-03    -55.6512E-03     79.1285E-03    -23.1579E-03     83.8206E-03
            2327     14.9755E-03     7.07869E-03    -10.2620E+06     79.5396E+06     16.3266E+06     4.88762E+06    -47.5935E-03     69.1526E-03    -21.5591E-03     47.1755E-03    -47.9891E-03     69.7477E-03    -21.5779E-03     46.8539E-03
            2328     14.1140E-03     7.03379E-03    -12.1760E+06     40.2667E+06    -2.98532E+06     6.14222E+06    -41.6851E-03     61.7957E-03    -20.1106E-03     34.4478E-03    -41.8808E-03     62.1004E-03    -20.1662E-03     34.3210E-03
            2329     13.2487E-03     6.99996E-03    -13.7974E+06    -2.94910E+06    -3.86697E+06     5.33587E+06    -36.4334E-03     55.3666E-03    -18.9331E-03     26.1543E-03    -36.5347E-03     55.4201E-03    -18.9282E-03     26.0959E-03
            2330     12.3788E-03     6.97415E-03    -15.4924E+06    -29.6445E+06    -398.474E+03     3.15994E+06    -31.6892E-03     49.6162E-03    -17.9270E-03     20.8254E-03    -31.7459E-03     49.5143E-03    -17.8636E-03     20.7880E-03
            2331     11.5052E-03     6.95475E-03    -15.9971E+06    -45.6542E+06     3.52275E+06     1.08735E+06    -27.4974E-03     44.5787E-03    -17.0812E-03     17.5924E-03    -27.5293E-03     44.3818E-03    -16.9742E-03     17.5578E-03
            2332     10.6279E-03     6.93984E-03    -15.8667E+06    -58.1505E+06     6.59029E+06    -983.747E+03    -23.9701E-03     40.3655E-03    -16.3954E-03     15.7837E-03    -23.9826E-03     40.0963E-03    -16.2551E-03     15.7398E-03
            2333     9.74781E-03     6.92827E-03    -15.8076E+06    -68.9572E+06     8.86088E+06    -1.90304E+06    -21.1388E-03     36.9983E-03    -15.8595E-03     14.7171E-03    -21.1357E-03     36.6687E-03    -15.6923E-03     14.6719E-03
            2334     8.86532E-03     6.91912E-03    -15.9078E+06    -76.3576E+06     10.0060E+06    -1.83269E+06    -18.9695E-03     34.4186E-03    -15.4490E-03     13.9746E-03    -18.9561E-03     34.0487E-03    -15.2652E-03     13.9369E-03
            2335     7.98128E-03     6.91175E-03    -15.9033E+06    -79.6336E+06     8.12955E+06    -2.05372E+06    -17.3919E-03     32.5210E-03    -15.1291E-03     13.3184E-03    -17.3699E-03     32.1364E-03    -14.9499E-03     13.2820E-03
            2336     7.09592E-03     6.90570E-03    -16.1650E+06    -81.2499E+06     4.20943E+06    -2.38637E+06    -16.2839E-03     31.1688E-03    -14.8849E-03     12.5255E-03    -16.2544E-03     30.7813E-03    -14.7226E-03     12.4876E-03
            2337     6.20986E-03     6.90074E-03    -16.7859E+06    -82.9817E+06     102.598E+03    -2.57778E+06    -15.5235E-03     30.2315E-03    -14.7080E-03     11.5528E-03    -15.4882E-03     29.8417E-03    -14.5629E-03     11.5145E-03
            2338     5.32315E-03     6.89660E-03    -17.5849E+06    -85.1848E+06    -4.29861E+06    -2.78737E+06    -15.0145E-03     29.5972E-03    -14.5827E-03     10.3675E-03    -14.9733E-03     29.2036E-03    -14.4552E-03     10.3279E-03
            2339     4.43625E-03     6.89323E-03    -18.4919E+06    -87.5571E+06    -9.18294E+06    -2.92334E+06    -14.6955E-03     29.1904E-03    -14.4949E-03     8.94774E-03    -14.6480E-03     28.7931E-03    -14.3871E-03     8.90739E-03
            2340     3.54898E-03     6.89055E-03    -19.2175E+06    -89.1184E+06    -13.1329E+06    -2.73647E+06    -14.5171E-03     28.9555E-03    -14.4384E-03     7.37660E-03    -14.4652E-03     28.5570E-03    -14.3470E-03     7.33944E-03
            2341     2.66181E-03     6.88854E-03    -19.8626E+06    -90.4388E+06    -16.2518E+06    -2.24899E+06    -14.4282E-03     28.8316E-03    -14.4034E-03     5.67423E-03    -14.3730E-03     28.4318E-03    -14.3248E-03     5.64396E-03
            2342     1.77447E-03     6.88703E-03    -20.4090E+06    -91.6662E+06    -18.7811E+06    -1.58394E+06    -14.3862E-03     28.7682E-03    -14.3820E-03     3.87130E-03    -14.3282E-03     28.3667E-03    -14.3134E-03     3.85008E-03
            2343     887.337E-06     6.88619E-03    -20.9887E+06    -92.5318E+06    -20.3370E+06    -831.709E+03    -14.3778E-03     28.7416E-03    -14.3638E-03     2.11675E-03    -14.3189E-03     28.3391E-03    -14.3009E-03     2.10560E-03
            2344     16.6792E-03     6.21897E-03    -4.82530E+06     119.831E+06     79.2853E+06    -112.966E+03    -62.1658E-03     87.1132E-03    -24.9474E-03     76.1829E-03    -63.0617E-03     88.1881E-03    -24.7177E-03     75.5278E-03
            2345     15.8349E-03     6.11446E-03    -7.92709E+06     102.643E+06     56.2596E+06     3.09439E+06    -56.4453E-03     79.4719E-03    -23.0266E-03     75.9805E-03    -57.2701E-03     80.4714E-03    -22.8826E-03     75.3513E-03
            2346     14.9798E-03     6.06315E-03    -10.6634E+06     77.3728E+06     19.5844E+06     6.80594E+06    -46.9499E-03     68.1999E-03    -21.2500E-03     41.3871E-03    -47.3123E-03     68.7434E-03    -21.2488E-03     41.1240E-03
            2347     14.1188E-03     6.02633E-03    -15.0299E+06     41.1943E+06     332.073E+03     8.49363E+06    -39.8364E-03     59.6906E-03    -19.8541E-03     31.0650E-03    -40.0384E-03     59.9852E-03    -19.8904E-03     30.9959E-03
            2348     13.2514E-03     5.99918E-03    -18.4299E+06     1.44481E+06     292.632E+03     6.29621E+06    -33.8824E-03     52.6850E-03    -18.8026E-03     25.2263E-03    -34.0128E-03     52.7549E-03    -18.7765E-03     25.2008E-03
            2349     12.3794E-03     5.97947E-03    -19.1428E+06    -25.4747E+06     4.01901E+06     1.77829E+06    -28.9300E-03     46.9016E-03    -17.9716E-03     21.7921E-03    -29.0148E-03     46.8168E-03    -17.8868E-03     21.7505E-03
            2350     11.5029E-03     5.96497E-03    -18.1477E+06    -43.0585E+06     7.67125E+06    -1.98870E+06    -24.9343E-03     42.2618E-03    -17.3275E-03     20.0049E-03    -24.9855E-03     42.0738E-03    -17.2004E-03     19.9392E-03
            2351     10.6235E-03     5.95408E-03    -17.1972E+06    -56.9552E+06     10.4297E+06    -3.65511E+06    -21.8920E-03     38.7418E-03    -16.8499E-03     19.0712E-03    -21.9179E-03     38.4744E-03    -16.6902E-03     18.9981E-03
            2352     9.74150E-03     5.94550E-03    -17.1657E+06    -68.9111E+06     12.3107E+06    -4.55335E+06    -19.6636E-03     36.1750E-03    -16.5113E-03     18.3605E-03    -19.6720E-03     35.8422E-03    -16.3250E-03     18.2844E-03
            2353     8.85796E-03     5.93858E-03    -16.8585E+06    -76.6456E+06     11.5993E+06    -5.26209E+06    -18.1232E-03     34.3906E-03    -16.2674E-03     17.5955E-03    -18.1162E-03     34.0181E-03    -16.0739E-03     17.5158E-03
            2354     7.97318E-03     5.93264E-03    -16.2057E+06    -80.0840E+06     7.52329E+06    -5.30042E+06    -17.1188E-03     33.2038E-03    -16.0851E-03     16.5618E-03    -17.0965E-03     32.8179E-03    -15.9078E-03     16.4851E-03
            2355     7.08787E-03     5.92760E-03    -15.7161E+06    -81.9349E+06     3.29038E+06    -4.95317E+06    -16.4914E-03     32.4518E-03    -15.9604E-03     15.2235E-03    -16.4572E-03     32.0613E-03    -15.8023E-03     15.1536E-03
            2356     6.20206E-03     5.92322E-03    -15.5524E+06    -83.6928E+06    -574.472E+03    -4.59970E+06    -16.1154E-03     31.9950E-03    -15.8796E-03     13.6327E-03    -16.0718E-03     31.6006E-03    -15.7386E-03     13.5691E-03
            2357     5.31617E-03     5.91948E-03    -15.7811E+06    -86.0148E+06    -4.94424E+06    -4.18712E+06    -15.8921E-03     31.7191E-03    -15.8271E-03     11.8749E-03    -15.8396E-03     31.3195E-03    -15.7042E-03     11.8178E-03
            2358     4.43004E-03     5.91631E-03    -16.3238E+06    -88.5079E+06    -9.36086E+06    -3.79149E+06    -15.7816E-03     31.5771E-03    -15.7955E-03     9.98550E-03    -15.7217E-03     31.1720E-03    -15.6903E-03     9.93436E-03
            2359     3.54405E-03     5.91375E-03    -17.0300E+06    -90.5599E+06    -12.8188E+06    -3.32753E+06    -15.7493E-03     31.5292E-03    -15.7798E-03     8.03332E-03    -15.6848E-03     31.1197E-03    -15.6879E-03     7.98880E-03
            2360     2.65796E-03     5.91165E-03    -17.8175E+06    -92.1643E+06    -15.3165E+06    -2.56078E+06    -15.7501E-03     31.5226E-03    -15.7725E-03     6.05424E-03    -15.6835E-03     31.1099E-03    -15.6896E-03     6.02011E-03
            2361     1.77203E-03     5.91025E-03    -18.5330E+06    -93.5268E+06    -17.3570E+06    -1.67894E+06    -15.7564E-03     31.5238E-03    -15.7674E-03     4.07845E-03    -15.6884E-03     31.1082E-03    -15.6917E-03     4.05609E-03
            2362     885.899E-06     5.90929E-03    -18.7226E+06    -94.2139E+06    -18.5814E+06    -863.828E+03    -15.7588E-03     31.5263E-03    -15.7675E-03     2.22812E-03    -15.6887E-03     31.1095E-03    -15.6967E-03     2.21661E-03
            2363     16.6881E-03     5.18079E-03    -4.34261E+06     118.137E+06     79.1429E+06     857.226E+03    -64.0588E-03     88.9262E-03    -24.8674E-03     71.3593E-03    -64.8794E-03     89.9224E-03    -24.6367E-03     70.6929E-03
            2364     15.8393E-03     5.08894E-03    -10.3933E+06     96.8916E+06     56.1755E+06     2.67052E+06    -55.7916E-03     78.6982E-03    -22.9065E-03     66.2300E-03    -56.5214E-03     79.5740E-03    -22.7511E-03     65.6371E-03
            2365     14.9835E-03     5.04929E-03    -15.5354E+06     71.9297E+06     23.6105E+06     9.08194E+06    -44.5498E-03     65.7729E-03    -21.2230E-03     36.3671E-03    -44.8962E-03     66.2524E-03    -21.1867E-03     36.1883E-03
            2366     14.1184E-03     5.02158E-03    -20.5032E+06     43.7626E+06     5.13586E+06     12.3211E+06    -36.3176E-03     56.3117E-03    -19.9941E-03     30.6374E-03    -36.5451E-03     56.6078E-03    -20.0022E-03     30.6540E-03
            2367     13.2478E-03     5.00162E-03    -23.3992E+06     10.3508E+06     3.99640E+06     5.66512E+06    -30.3995E-03     49.5604E-03    -19.1609E-03     27.4915E-03    -30.5680E-03     49.6716E-03    -19.1220E-03     27.4801E-03
            2368     12.3722E-03     4.98744E-03    -22.1911E+06    -19.7007E+06     7.44099E+06    -2.67457E+06    -25.9462E-03     44.5253E-03    -18.5791E-03     25.5390E-03    -26.0569E-03     44.4662E-03    -18.4812E-03     25.4534E-03
            2369     11.4934E-03     4.97738E-03    -19.9096E+06    -41.6482E+06     9.85856E+06    -6.11596E+06    -22.7830E-03     40.9533E-03    -18.1703E-03     24.4202E-03    -22.8468E-03     40.7703E-03    -18.0318E-03     24.3092E-03
            2370     10.6120E-03     4.96928E-03    -18.8470E+06    -56.8157E+06     11.7570E+06    -7.02810E+06    -20.6719E-03     38.5661E-03    -17.8942E-03     23.3726E-03    -20.7072E-03     38.2988E-03    -17.7257E-03     23.2608E-03
            2371     9.72934E-03     4.96291E-03    -17.7727E+06    -68.3359E+06     12.5954E+06    -8.19578E+06    -19.3223E-03     37.0307E-03    -17.7084E-03     22.0767E-03    -19.3344E-03     36.7005E-03    -17.5205E-03     21.9567E-03
            2372     8.84563E-03     4.95713E-03    -16.7200E+06    -77.2477E+06     10.0923E+06    -9.17632E+06    -18.4948E-03     36.0652E-03    -17.5704E-03     20.5110E-03    -18.4836E-03     35.6910E-03    -17.3837E-03     20.3827E-03
            2373     7.96161E-03     4.95208E-03    -15.6524E+06    -81.6513E+06     5.19019E+06    -8.97143E+06    -17.9925E-03     35.4513E-03    -17.4587E-03     18.6214E-03    -17.9616E-03     35.0596E-03    -17.2917E-03     18.4987E-03
            2374     7.07717E-03     4.94742E-03    -14.5017E+06    -83.7812E+06     833.994E+03    -8.02646E+06    -17.6851E-03     35.0608E-03    -17.3757E-03     16.5378E-03    -17.6384E-03     34.6626E-03    -17.2290E-03     16.4292E-03
            2375     6.19273E-03     4.94331E-03    -13.8117E+06    -85.6898E+06    -2.91803E+06    -6.64975E+06    -17.4939E-03     34.8094E-03    -17.3154E-03     14.3408E-03    -17.4352E-03     34.4057E-03    -17.1858E-03     14.2514E-03
            2376     5.30808E-03     4.93973E-03    -13.9424E+06    -87.8756E+06    -6.69410E+06    -5.24698E+06    -17.3723E-03     34.6421E-03    -17.2698E-03     12.1527E-03    -17.3053E-03     34.2329E-03    -17.1557E-03     12.0823E-03
            2377     4.42351E-03     4.93664E-03    -14.7399E+06    -90.1817E+06    -10.3806E+06    -4.04892E+06    -17.2988E-03     34.5333E-03    -17.2344E-03     10.0071E-03    -17.2270E-03     34.1189E-03    -17.1342E-03     9.95295E-03
            2378     3.53879E-03     4.93405E-03    -15.9216E+06    -92.2928E+06    -13.5040E+06    -3.02901E+06    -17.2472E-03     34.4549E-03    -17.2077E-03     7.91883E-03    -17.1736E-03     34.0362E-03    -17.1183E-03     7.87834E-03
            2379     2.65416E-03     4.93205E-03    -17.0770E+06    -94.0444E+06    -16.0047E+06    -2.17569E+06    -17.2064E-03     34.3951E-03    -17.1887E-03     5.90248E-03    -17.1324E-03     33.9728E-03    -17.1076E-03     5.87343E-03
            2380     1.76937E-03     4.93054E-03    -17.9749E+06    -95.2658E+06    -17.6742E+06    -1.35170E+06    -17.1886E-03     34.3644E-03    -17.1758E-03     3.94790E-03    -17.1148E-03     33.9397E-03    -17.1000E-03     3.92984E-03
            2381     884.809E-06     4.92971E-03    -18.3364E+06    -95.7586E+06    -18.4222E+06    -774.789E+03    -17.1614E-03     34.3402E-03    -17.1788E-03     2.12692E-03    -17.0874E-03     33.9149E-03    -17.1055E-03     2.11659E-03
            2382     16.6825E-03     4.14157E-03    -5.55085E+06     116.177E+06     75.1263E+06     3.25933E+06    -64.6101E-03     89.5808E-03    -24.9707E-03     68.4054E-03    -65.3442E-03     90.4913E-03    -24.7555E-03     67.7906E-03
            2383     15.8371E-03     4.06369E-03    -13.9616E+06     92.3757E+06     51.5284E+06     7.43118E+06    -52.8835E-03     75.9626E-03    -23.0791E-03     57.9077E-03    -53.4994E-03     76.7101E-03    -22.9352E-03     57.4778E-03
            2384     14.9775E-03     4.03989E-03    -21.3972E+06     65.3178E+06     26.3166E+06     12.0311E+06    -39.6724E-03     61.3393E-03    -21.6669E-03     34.6259E-03    -40.0063E-03     61.7542E-03    -21.5990E-03     34.5627E-03
            2385     14.1085E-03     4.02068E-03    -23.1646E+06     49.5569E+06     14.1443E+06     10.9795E+06    -31.9363E-03     52.6875E-03    -20.7512E-03     34.1611E-03    -32.1885E-03     52.9931E-03    -20.7188E-03     34.1971E-03
            2386     13.2341E-03     4.00686E-03    -20.0626E+06     23.0492E+06     9.56770E+06     1.74675E+06    -27.2178E-03     47.3902E-03    -20.1725E-03     32.3798E-03    -27.3906E-03     47.5463E-03    -20.1289E-03     32.3382E-03
            2387     12.3562E-03     3.99741E-03    -18.8427E+06    -15.2587E+06     7.41711E+06    -6.39322E+06    -24.1513E-03     43.9678E-03    -19.8165E-03     30.5667E-03    -24.2484E-03     43.9224E-03    -19.7299E-03     30.4447E-03
            2388     11.4759E-03     3.98993E-03    -19.0938E+06    -41.0964E+06     6.51805E+06    -9.38456E+06    -22.3061E-03     41.8837E-03    -19.5776E-03     28.6964E-03    -22.3598E-03     41.7047E-03    -19.4577E-03     28.5499E-03
            2389     10.5948E-03     3.98375E-03    -17.8951E+06    -56.7442E+06     6.28709E+06    -11.1520E+06    -21.2391E-03     40.6408E-03    -19.4017E-03     26.4258E-03    -21.2604E-03     40.3787E-03    -19.2620E-03     26.2648E-03
            2390     9.71283E-03     3.97815E-03    -16.0705E+06    -68.3696E+06     5.77851E+06    -12.2842E+06    -20.6161E-03     39.8767E-03    -19.2606E-03     23.8978E-03    -20.6089E-03     39.5527E-03    -19.1093E-03     23.7275E-03
            2391     8.83086E-03     3.97315E-03    -14.6216E+06    -78.3748E+06     3.52676E+06    -12.7796E+06    -20.2154E-03     39.3478E-03    -19.1323E-03     21.2840E-03    -20.1820E-03     38.9737E-03    -18.9799E-03     21.1108E-03
            2392     7.94845E-03     3.96839E-03    -13.3907E+06    -84.1700E+06    -50.3625E+03    -12.3043E+06    -19.8877E-03     38.8940E-03    -19.0064E-03     18.6487E-03    -19.8338E-03     38.4937E-03    -18.8652E-03     18.4840E-03
            2393     7.06603E-03     3.96412E-03    -12.4809E+06    -87.1543E+06    -4.17508E+06    -10.4609E+06    -19.5972E-03     38.4840E-03    -18.8868E-03     16.0866E-03    -19.5280E-03     38.0729E-03    -18.7632E-03     15.9474E-03
            2394     6.18321E-03     3.96023E-03    -12.3068E+06    -89.2533E+06    -7.35357E+06    -7.86871E+06    -19.3448E-03     38.1282E-03    -18.7834E-03     13.6198E-03    -19.2668E-03     37.7108E-03    -18.6729E-03     13.5152E-03
            2395     5.30034E-03     3.95686E-03    -12.8744E+06    -90.8233E+06    -9.41625E+06    -5.36196E+06    -19.1243E-03     37.8207E-03    -18.6964E-03     11.3039E-03    -19.0437E-03     37.3991E-03    -18.5931E-03     11.2324E-03
            2396     4.41719E-03     3.95391E-03    -13.9602E+06    -92.4805E+06    -11.6309E+06    -3.45358E+06    -18.9247E-03     37.5448E-03    -18.6200E-03     9.17403E-03    -18.8438E-03     37.1195E-03    -18.5239E-03     9.12779E-03
            2397     3.53400E-03     3.95150E-03    -15.1630E+06    -94.1075E+06    -13.9356E+06    -2.14750E+06    -18.7557E-03     37.3106E-03    -18.5548E-03     7.17186E-03    -18.6751E-03     36.8822E-03    -18.4661E-03     7.14294E-03
            2398     2.65056E-03     3.94958E-03    -16.2748E+06    -95.5108E+06    -15.9517E+06    -1.25626E+06    -18.6196E-03     37.1224E-03    -18.5028E-03     5.28587E-03    -18.5394E-03     36.6915E-03    -18.4205E-03     5.26881E-03
            2399     1.76716E-03     3.94821E-03    -17.0730E+06    -96.3667E+06    -17.1647E+06    -748.774E+03    -18.5146E-03     36.9827E-03    -18.4681E-03     3.51736E-03    -18.4354E-03     36.5505E-03    -18.3894E-03     3.50716E-03
            2400     883.488E-06     3.94731E-03    -17.7206E+06    -96.8936E+06    -17.7589E+06    -365.780E+03    -18.4621E-03     36.9113E-03    -18.4492E-03     1.89398E-03    -18.3843E-03     36.4786E-03    -18.3719E-03     1.88898E-03
            2401     16.6791E-03     3.09562E-03    -7.10337E+06     111.363E+06     70.1449E+06     7.38501E+06    -62.7897E-03     88.2425E-03    -25.4528E-03     61.7011E-03    -63.4085E-03     89.0311E-03    -25.2533E-03     61.2157E-03
            2402     15.8291E-03     3.04610E-03    -14.7890E+06     88.5129E+06     49.8344E+06     12.1729E+06    -46.1055E-03     69.9272E-03    -23.8217E-03     50.6538E-03    -46.5971E-03     70.5391E-03    -23.6794E-03     50.4348E-03
            2403     14.9615E-03     3.03555E-03    -17.8819E+06     66.8409E+06     34.5655E+06     10.7858E+06    -34.1109E-03     56.9388E-03    -22.8278E-03     38.5640E-03    -34.4148E-03     57.3172E-03    -22.7260E-03     38.5530E-03
            2404     14.0877E-03     3.02276E-03    -14.0792E+06     57.7188E+06     22.7479E+06     3.38393E+06    -29.0139E-03     51.2311E-03    -22.2172E-03     40.1874E-03    -29.2347E-03     51.5412E-03    -22.1667E-03     40.1526E-03
            2405     13.2109E-03     3.01327E-03    -11.1106E+06     30.5277E+06     7.43631E+06    -2.10117E+06    -26.3487E-03     48.1484E-03    -21.7997E-03     37.4056E-03    -26.4774E-03     48.3243E-03    -21.7906E-03     37.3310E-03
            2406     12.3326E-03     3.00621E-03    -11.9639E+06    -11.9935E+06    -952.820E+03    -6.15907E+06    -25.0976E-03     46.6296E-03    -21.5320E-03     33.6440E-03    -25.1487E-03     46.5980E-03    -21.5020E-03     33.5342E-03
            2407     11.4540E-03     3.00007E-03    -13.1638E+06    -39.0428E+06    -4.99961E+06    -10.6466E+06    -24.3090E-03     45.6104E-03    -21.3014E-03     29.7206E-03    -24.3168E-03     45.4469E-03    -21.2507E-03     29.5630E-03
            2408     10.5749E-03     2.99460E-03    -13.0506E+06    -56.2849E+06    -8.42672E+06    -13.7948E+06    -23.7047E-03     44.7822E-03    -21.0775E-03     25.9805E-03    -23.6796E-03     44.5350E-03    -21.0191E-03     25.7888E-03
            2409     9.69577E-03     2.98968E-03    -12.1996E+06    -69.5592E+06    -10.0380E+06    -14.8976E+06    -23.2296E-03     44.0960E-03    -20.8665E-03     22.5294E-03    -23.1773E-03     43.7822E-03    -20.7981E-03     22.3275E-03
            2410     8.81606E-03     2.98509E-03    -11.1690E+06    -79.9780E+06    -10.7437E+06    -14.9403E+06    -22.7578E-03     43.4199E-03    -20.6621E-03     19.3558E-03    -22.6834E-03     43.0528E-03    -20.5837E-03     19.1561E-03
            2411     7.93619E-03     2.98097E-03    -10.6516E+06    -87.9400E+06    -11.2291E+06    -13.7342E+06    -22.2512E-03     42.7170E-03    -20.4658E-03     16.5163E-03    -22.1615E-03     42.3096E-03    -20.3790E-03     16.3342E-03
            2412     7.05561E-03     2.97721E-03    -11.0204E+06    -91.9919E+06    -11.7599E+06    -10.7732E+06    -21.7432E-03     42.0222E-03    -20.2790E-03     13.9425E-03    -21.6484E-03     41.5956E-03    -20.1885E-03     13.8001E-03
            2413     6.17480E-03     2.97383E-03    -11.9474E+06    -93.7106E+06    -12.3351E+06    -7.48672E+06    -21.2596E-03     41.3662E-03    -20.1066E-03     11.6054E-03    -21.1659E-03     40.9331E-03    -20.0151E-03     11.5063E-03
            2414     5.29346E-03     2.97087E-03    -12.9178E+06    -94.3747E+06    -12.4221E+06    -4.70905E+06    -20.8176E-03     40.7720E-03    -19.9544E-03     9.50391E-03    -20.7276E-03     40.3369E-03    -19.8609E-03     9.44131E-03
            2415     4.41186E-03     2.96837E-03    -13.7382E+06    -94.9507E+06    -13.0439E+06    -2.61102E+06    -20.4292E-03     40.2492E-03    -19.8200E-03     7.61503E-03    -20.3415E-03     39.8133E-03    -19.7276E-03     7.58000E-03
            2416     3.52983E-03     2.96626E-03    -14.6266E+06    -95.7506E+06    -14.2559E+06    -1.20558E+06    -20.1015E-03     39.8070E-03    -19.7055E-03     5.90154E-03    -20.0152E-03     39.3701E-03    -19.6168E-03     5.88503E-03
            2417     2.64768E-03     2.96462E-03    -15.4740E+06    -96.3805E+06    -15.1889E+06    -404.220E+03    -19.8442E-03     39.4592E-03    -19.6150E-03     4.32747E-03    -19.7599E-03     39.0218E-03    -19.5288E-03     4.32159E-03
            2418     1.76518E-03     2.96345E-03    -16.0734E+06    -96.8573E+06    -15.9336E+06    -83.9274E+03    -19.6529E-03     39.2010E-03    -19.5481E-03     2.85663E-03    -19.5697E-03     38.7631E-03    -19.4641E-03     2.85511E-03
            2419     882.684E-06     2.96272E-03    -16.4867E+06    -97.3141E+06    -16.6542E+06     58.2310E+03    -19.5303E-03     39.0404E-03    -19.5101E-03     1.54455E-03    -19.4473E-03     38.6022E-03    -19.4284E-03     1.54505E-03
            2420     16.6655E-03     2.05934E-03    -6.39944E+06     103.519E+06     67.5028E+06     9.83939E+06    -56.1247E-03     82.9050E-03    -26.7803E-03     63.3356E-03    -56.6250E-03     83.5589E-03    -26.5836E-03     63.0363E-03
            2421     15.8016E-03     2.03859E-03    -7.67210E+06     88.0400E+06     58.3352E+06     11.7417E+06    -40.1863E-03     65.7575E-03    -25.5712E-03     56.5059E-03    -40.5645E-03     66.2527E-03    -25.3960E-03     56.4275E-03
            2422     14.9295E-03     2.03274E-03    -4.15554E+06     76.6643E+06     43.1161E+06     4.77938E+06    -33.0913E-03     57.9212E-03    -24.8298E-03     47.8687E-03    -33.3306E-03     58.2921E-03    -24.7194E-03     47.8277E-03
            2423     14.0562E-03     2.02449E-03    -3.30910E+06     61.5472E+06     15.0207E+06    -663.086E+03    -31.1059E-03     55.3361E-03    -24.2302E-03     44.5797E-03    -31.2543E-03     55.6466E-03    -24.2395E-03     44.5166E-03
            2424     13.1814E-03     2.01664E-03    -4.75943E+06     31.2005E+06    -6.02959E+06    -1.50663E+06    -29.9245E-03     53.6654E-03    -23.7410E-03     37.1270E-03    -29.9951E-03     53.8464E-03    -23.8095E-03     37.0746E-03
            2425     12.3071E-03     2.01002E-03    -5.14075E+06    -7.36388E+06    -15.2813E+06    -4.83839E+06    -28.9294E-03     52.2735E-03    -23.3440E-03     30.3432E-03    -28.9280E-03     52.2713E-03    -23.4023E-03     30.2584E-03
            2426     11.4325E-03     2.00497E-03    -5.13006E+06    -35.7040E+06    -21.6567E+06    -9.81476E+06    -28.0230E-03     50.9856E-03    -22.9625E-03     25.2028E-03    -27.9688E-03     50.8486E-03    -23.0116E-03     25.0611E-03
            2427     10.5571E-03     2.00063E-03    -5.76720E+06    -55.8036E+06    -26.5693E+06    -12.7429E+06    -27.1342E-03     49.7261E-03    -22.5919E-03     21.1111E-03    -27.0455E-03     49.4955E-03    -22.6355E-03     20.9365E-03
            2428     9.68077E-03     1.99651E-03    -6.61660E+06    -70.7312E+06    -29.5475E+06    -13.9129E+06    -26.2175E-03     48.4587E-03    -22.2412E-03     17.6841E-03    -26.1063E-03     48.1584E-03    -22.2768E-03     17.4975E-03
            2429     8.80386E-03     1.99298E-03    -7.62729E+06    -82.3970E+06    -27.5269E+06    -13.6624E+06    -25.3151E-03     47.2476E-03    -21.9325E-03     14.8281E-03    -25.1945E-03     46.8871E-03    -21.9396E-03     14.6469E-03
            2430     7.92588E-03     1.98982E-03    -9.08059E+06    -92.3938E+06    -24.0087E+06    -11.8303E+06    -24.4718E-03     46.1244E-03    -21.6526E-03     12.4102E-03    -24.3489E-03     45.7107E-03    -21.6255E-03     12.2541E-03
            2431     7.04745E-03     1.98696E-03    -10.5867E+06    -97.3183E+06    -20.3119E+06    -8.80605E+06    -23.6576E-03     45.0492E-03    -21.3916E-03     10.3090E-03    -23.5403E-03     44.6076E-03    -21.3367E-03     10.1929E-03
            2432     6.16809E-03     1.98445E-03    -11.8465E+06    -97.8866E+06    -17.4610E+06    -5.72929E+06    -22.8929E-03     44.0419E-03    -21.1491E-03     8.48248E-03    -22.7850E-03     43.5951E-03    -21.0772E-03     8.40680E-03
            2433     5.28821E-03     1.98225E-03    -12.9155E+06     -97.574E+06    -15.6682E+06    -3.49935E+06    -22.2183E-03     43.1500E-03    -20.9317E-03     6.88694E-03    -22.1188E-03     42.7036E-03    -20.8498E-03     6.84052E-03
            2434     4.40768E-03     1.98036E-03    -13.7824E+06    -97.2403E+06    -14.7330E+06    -1.73941E+06    -21.6425E-03     42.3848E-03    -20.7423E-03     5.47175E-03    -21.5492E-03     41.9400E-03    -20.6550E-03     5.44839E-03
            2435     3.52679E-03     1.97885E-03    -14.3173E+06    -96.9662E+06    -14.3946E+06    -531.857E+03    -21.1614E-03     41.7443E-03    -20.5829E-03     4.20995E-03    -21.0715E-03     41.3011E-03    -20.4935E-03     4.20244E-03
            2436     2.64535E-03     1.97762E-03    -14.6542E+06     -96.885E+06    -14.5068E+06     19.5703E+03    -20.7826E-03     41.2388E-03    -20.4561E-03     3.06820E-03    -20.6944E-03     40.7966E-03    -20.3669E-03     3.06801E-03
            2437     1.76380E-03     1.97675E-03    -14.9451E+06    -96.9397E+06    -14.7347E+06     245.423E+03    -20.5187E-03     40.8801E-03    -20.3614E-03     2.02582E-03    -20.4315E-03     40.4384E-03    -20.2729E-03     2.02871E-03
            2438     881.934E-06     1.97621E-03    -15.1773E+06    -97.0568E+06    -15.0097E+06     242.203E+03    -20.3363E-03     40.6413E-03    -20.3050E-03     1.09241E-03    -20.2494E-03     40.2000E-03    -20.2173E-03     1.09537E-03
            2439     16.6114E-03     1.03432E-03    -847.223E+03     100.571E+06     71.1381E+06     6.23834E+06    -52.5817E-03     81.8777E-03    -29.2959E-03     66.0817E-03    -52.9636E-03     82.4072E-03    -29.0848E-03     65.8942E-03
            2440     15.7516E-03     1.02680E-03     2.36514E+06     92.5477E+06     61.0848E+06     3.59488E+06    -44.7915E-03     72.9323E-03    -28.1408E-03     54.5422E-03    -45.0557E-03     73.3543E-03    -27.9730E-03     54.4737E-03
            2441     14.8873E-03     1.02530E-03     4.42230E+06     80.8944E+06     34.0063E+06     1.63627E+06    -41.1400E-03     68.2564E-03    -27.1164E-03     41.3964E-03    -41.3022E-03     68.6209E-03    -27.0701E-03     41.3678E-03
            2442     14.0213E-03     1.01699E-03     3.42759E+06     61.6647E+06     1.42902E+06     1.79325E+06    -38.5831E-03     64.7556E-03    -26.1725E-03     32.2430E-03    -38.6649E-03     65.0633E-03    -26.2598E-03     32.2377E-03
            2443     13.1565E-03     1.01131E-03     3.30207E+06     32.8933E+06    -18.7068E+06    -144.251E+03    -35.8345E-03     61.2169E-03    -25.3824E-03     23.9400E-03    -35.8422E-03     61.4067E-03    -25.5284E-03     23.9194E-03
            2444     12.2880E-03     1.00759E-03     3.63398E+06    -3.13097E+06    -29.8956E+06    -3.53619E+06    -33.4708E-03     58.2013E-03    -24.7305E-03     18.5086E-03    -33.4067E-03     58.2254E-03    -24.8807E-03     18.4505E-03
            2445     11.4168E-03     1.00437E-03     2.94375E+06    -33.2260E+06    -37.6853E+06    -6.10031E+06    -31.5949E-03     55.7513E-03    -24.1564E-03     14.6962E-03    -31.4785E-03     55.6365E-03    -24.3009E-03     14.6093E-03
            2446     10.5444E-03     1.00161E-03     1.00713E+06    -55.1031E+06    -42.3491E+06    -7.88009E+06    -30.0046E-03     53.6433E-03    -23.6387E-03     11.9085E-03    -29.8589E-03     53.4283E-03    -23.7720E-03     11.8011E-03
            2447     9.67083E-03     999.491E-06    -1.56804E+06    -71.7062E+06    -43.3486E+06    -8.60179E+06    -28.5414E-03     51.7184E-03    -23.1770E-03     9.80023E-03    -28.3827E-03     51.4253E-03    -23.2875E-03     9.68543E-03
            2448     8.79547E-03     997.478E-06    -4.64386E+06    -84.9505E+06    -38.9077E+06    -8.01364E+06    -27.2173E-03     49.9986E-03    -22.7813E-03     8.09333E-03    -27.0611E-03     49.6371E-03    -22.8459E-03     7.98733E-03
            2449     7.91936E-03     995.690E-06    -7.72349E+06    -95.8282E+06    -32.5248E+06    -6.78879E+06    -26.0361E-03     48.4680E-03    -22.4319E-03     6.66697E-03    -25.8887E-03     48.0473E-03    -22.4444E-03     6.57753E-03
            2450     7.04198E-03     994.176E-06    -10.2376E+06    -101.402E+06    -26.1106E+06    -5.06828E+06    -24.9591E-03     47.0726E-03    -22.1134E-03     5.49260E-03    -24.8255E-03     46.6183E-03    -22.0821E-03     5.42591E-03
            2451     6.16384E-03     992.825E-06    -11.9744E+06    -100.984E+06    -21.2975E+06    -3.20590E+06    -23.9908E-03     45.8082E-03    -21.8174E-03     4.49705E-03    -23.8734E-03     45.3516E-03    -21.7601E-03     4.45480E-03
            2452     5.28479E-03     991.647E-06    -13.0973E+06    -99.7825E+06    -18.1413E+06    -1.72175E+06    -23.1462E-03     44.6986E-03    -21.5524E-03     3.62657E-03    -23.0407E-03     44.2449E-03    -21.4794E-03     3.60372E-03
            2453     4.40511E-03     990.651E-06    -13.7891E+06    -98.7250E+06    -16.0836E+06    -803.158E+03    -22.4289E-03     43.7521E-03    -21.3231E-03     2.86478E-03    -22.3314E-03     43.3017E-03    -21.2404E-03     2.85396E-03
            2454     3.52475E-03     989.818E-06    -14.0312E+06    -97.7624E+06    -14.6717E+06    -247.400E+03    -21.8417E-03     42.9737E-03    -21.1320E-03     2.19386E-03    -21.7488E-03     42.5265E-03    -21.0433E-03     2.19035E-03
            2455     2.64407E-03     989.196E-06    -14.0057E+06    -97.1353E+06    -14.0599E+06     124.819E+03    -21.3805E-03     42.3598E-03    -20.9793E-03     1.59770E-03    -21.2892E-03     41.9147E-03    -20.8884E-03     1.59909E-03
            2456     1.76285E-03     988.715E-06    -13.9970E+06    -96.8218E+06    -13.9057E+06     206.197E+03    -21.0478E-03     41.9155E-03    -20.8677E-03     1.05244E-03    -20.9571E-03     41.4718E-03    -20.7766E-03     1.05499E-03
            2457     881.509E-06     988.425E-06    -13.9604E+06    -96.6427E+06    -13.8651E+06     107.844E+03    -20.8427E-03     41.6449E-03    -20.8022E-03     546.891E-06    -20.7518E-03     41.2023E-03    -20.7111E-03     548.347E-06


