********************************************************************************
Field Output Report, written Wed May 29 01:41:11 2024

Source 1
---------

   ODB: G:/Abaqus_calc_2019/1740/Vel_5/odb/zeides_2a_8_red_150_cal_0_vel_5_fric_0100.odb
   Step: Step-1
   Frame: Increment  12178442: Step Time =    1.601

Loc 1 : Nodal values from source 1

Output sorted by column "Nodal Label".

Field Output reported at nodes for region: DIE_2A_8_D0_36-1.Region_1
   Computation algorithm: EXTRAPOLATE_COMPUTE_AVERAGE
   Averaged at nodes
   Averaging regions: ODB_REGIONS

      Node Label     COORD.COOR1     COORD.COOR2
                          @Loc 1          @Loc 1
-------------------------------------------------
               1     18.9668E-03     127.067E-03


Field Output reported at nodes for region: DIE_2A_8_D0_36-1.Region_2
   Computation algorithm: EXTRAPOLATE_COMPUTE_AVERAGE
   Averaged at nodes
   Averaging regions: ODB_REGIONS

      Node Label     COORD.COOR1     COORD.COOR2
                          @Loc 1          @Loc 1
-------------------------------------------------
               1     18.9668E-03     127.067E-03


Field Output reported at nodes for part: WIRE-1
   Computation algorithm: EXTRAPOLATE_COMPUTE_AVERAGE
   Averaged at nodes
   Averaging regions: ODB_REGIONS

      Node Label     COORD.COOR1     COORD.COOR2           S.S11           S.S22           S.S33           S.S12         PE.PE11         PE.PE22         PE.PE33         PE.PE12         LE.LE11         LE.LE22         LE.LE33         LE.LE12
                          @Loc 1          @Loc 1          @Loc 1          @Loc 1          @Loc 1          @Loc 1          @Loc 1          @Loc 1          @Loc 1          @Loc 1          @Loc 1          @Loc 1          @Loc 1          @Loc 1
-------------------------------------------------------------------------------------------------------------------------------------------------------------------------------------------------------------------------------------------------
               1    -216.758E-09     56.3833E-03    -19.1062E+06    -75.8897E+06    -19.0153E+06    -14.6716E+03    -15.0313E-03     30.1589E-03    -15.1276E-03     1.85793E-03    -14.9892E-03     29.8355E-03    -15.0849E-03     1.85741E-03
               2     17.7334E-03     56.9868E-03    -966.510E+03     110.086E+06     60.0193E+06     699.562E+03    -14.0389E-03     29.1668E-03    -15.1280E-03     21.5793E-03    -14.3358E-03     29.6772E-03    -14.9861E-03     21.6331E-03
               3     17.6167E-03     113.853E-03     11.8015E+06     9.32906E+06     18.7899E+06    -2.60375E+06     9.83308E-03     8.91107E-03    -18.7442E-03     4.10289E-03     9.84594E-03     8.90793E-03    -18.6808E-03     4.06915E-03
               4     583.656E-09     112.937E-03     9.33881E+06     114.969E+03     10.8737E+06    -1.36337E+06    -16.5169E-03     32.9444E-03    -16.4274E-03    -286.861E-06    -16.4861E-03     32.9162E-03    -16.3868E-03    -302.684E-06
               5    -167.796E-09    -256.739E-18    -19.1356E+06    -66.5605E+06    -19.3853E+06     125.670E+03    -14.4921E-03     29.0217E-03    -14.5296E-03     152.205E-06    -14.4623E-03     28.7454E-03    -14.5022E-03     155.505E-06
               6     17.6595E-03    -256.739E-18     2.32025E+06     81.5716E+06     60.1647E+06     2.37660E+06    -23.0322E-03     41.1500E-03    -18.1179E-03     36.1501E-03    -23.2405E-03     41.4812E-03    -17.9387E-03     36.1491E-03
               7     886.619E-06     56.3848E-03    -19.1414E+06    -75.3901E+06    -19.1739E+06    -46.3813E+03    -15.0506E-03     30.1505E-03    -15.0999E-03     3.16128E-03    -15.0093E-03     29.8296E-03    -15.0587E-03     3.16014E-03
               8     1.77315E-03     56.3889E-03    -18.8285E+06    -73.6424E+06    -17.6499E+06    -273.207E+03    -15.0638E-03     30.1388E-03    -15.0750E-03     5.92916E-03    -15.0257E-03     29.8237E-03    -15.0292E-03     5.92462E-03
               9     2.65972E-03     56.3957E-03    -17.7277E+06    -70.9973E+06    -14.4431E+06    -363.012E+03    -15.0475E-03     30.1249E-03    -15.0774E-03     8.89328E-03    -15.0124E-03     29.8168E-03    -15.0210E-03     8.88702E-03
              10     3.54636E-03     56.4054E-03    -16.3118E+06    -67.8398E+06    -11.0566E+06    -22.4375E+03    -15.0336E-03     30.1107E-03    -15.0770E-03     11.9515E-03    -15.0012E-03     29.8115E-03    -15.0103E-03     11.9490E-03
              11     4.43301E-03     56.4179E-03     -15.064E+06    -64.6502E+06    -7.22548E+06     186.319E+03    -15.0549E-03     30.1354E-03    -15.0805E-03     15.0896E-03    -15.0266E-03     29.8451E-03    -15.0011E-03     15.0891E-03
              12     5.31968E-03     56.4333E-03    -13.5036E+06    -60.9417E+06    -3.60409E+06    -215.872E+03    -15.1073E-03     30.1947E-03    -15.0874E-03     18.2958E-03    -15.0822E-03     29.9158E-03    -14.9975E-03     18.2891E-03
              13     6.20623E-03     56.4517E-03    -11.9662E+06    -59.2673E+06    -512.605E+03    -871.053E+03    -15.1470E-03     30.2454E-03    -15.0983E-03     21.5592E-03    -15.1217E-03     29.9686E-03    -14.9976E-03     21.5430E-03
              14     7.09279E-03     56.4733E-03    -10.6942E+06    -59.1346E+06     905.666E+03    -1.46847E+06    -15.1572E-03     30.2591E-03    -15.1019E-03     24.9284E-03    -15.1284E-03     29.9798E-03    -14.9961E-03     24.9032E-03
              15     7.97950E-03     56.4981E-03    -9.05095E+06    -53.6994E+06     1.35837E+06    -1.42539E+06    -15.1850E-03     30.2747E-03    -15.0897E-03     28.5102E-03    -15.1576E-03     30.0206E-03    -14.9919E-03     28.4840E-03
              16     8.86611E-03     56.5263E-03    -8.03019E+06    -53.2305E+06     1.40915E+06    -301.037E+03    -15.2885E-03     30.3739E-03    -15.0854E-03     32.1399E-03    -15.2583E-03     30.1221E-03    -14.9895E-03     32.1261E-03
              17     9.75271E-03     56.5578E-03    -7.51974E+06    -48.0738E+06     1.24380E+06     699.601E+03    -15.4062E-03     30.4853E-03    -15.0791E-03     35.9100E-03    -15.3829E-03     30.2611E-03    -14.9922E-03     35.9064E-03
              18     10.6392E-03     56.5932E-03    -6.92451E+06    -41.1398E+06     2.83581E+06     470.587E+03    -15.4978E-03     30.5798E-03    -15.0821E-03     39.8056E-03    -15.4872E-03     30.3904E-03    -14.9982E-03     39.7958E-03
              19     11.5256E-03     56.6319E-03    -6.28488E+06    -43.3822E+06    -780.336E+03    -511.242E+03    -15.5883E-03     30.6610E-03    -15.0727E-03     43.4910E-03    -15.5713E-03     30.4700E-03    -15.0046E-03     43.4643E-03
              20     12.4123E-03     56.6741E-03    -5.07361E+06    -37.8105E+06    -3.08473E+06    -620.992E+03    -15.6431E-03     30.6988E-03    -15.0557E-03     47.6835E-03    -15.6329E-03     30.5452E-03    -15.0089E-03     47.6509E-03
              21     13.2987E-03     56.7207E-03    -4.83764E+06    -25.9975E+06    -8.35608E+06    -389.397E+03    -15.7227E-03     30.7364E-03    -15.0137E-03     52.4165E-03    -15.7341E-03     30.6625E-03    -15.0107E-03     52.3822E-03
              22     14.1855E-03     56.7718E-03    -5.53189E+06    -457.709E+03    -11.1306E+06    -606.049E+03    -15.8111E-03     30.7757E-03    -14.9646E-03     57.7048E-03    -15.8836E-03     30.8593E-03    -15.0116E-03     57.6646E-03
              23     15.0719E-03     56.8285E-03    -5.52620E+06     50.4962E+06    -1.42498E+06     -901.74E+03    -15.9308E-03     30.8714E-03    -14.9405E-03     65.2422E-03    -16.1433E-03     31.2475E-03    -15.0128E-03     65.2051E-03
              24     15.9593E-03     56.8935E-03    -5.44498E+06     96.9326E+06     20.3629E+06    -109.259E+03    -15.9793E-03     30.9607E-03    -14.9814E-03     74.0693E-03    -16.3791E-03     31.6262E-03    -15.0122E-03     74.0935E-03
              25     16.8423E-03     56.9669E-03    -3.26097E+06     110.795E+06     48.8040E+06     818.012E+03    -14.9836E-03     30.0701E-03    -15.0865E-03     49.9533E-03    -15.3818E-03     30.7086E-03    -14.9984E-03     50.0208E-03
              26     17.7322E-03     57.9632E-03      2.9205E+03     110.987E+06     61.8502E+06    -226.005E+03    -14.0581E-03     29.1705E-03    -15.1124E-03     22.1696E-03    -14.3547E-03     29.6819E-03    -14.9641E-03     22.2112E-03
              27     17.7342E-03     58.9407E-03    -2.49310E+06     108.502E+06     59.7006E+06    -447.798E+03    -14.5285E-03     29.6173E-03    -15.0889E-03     21.8429E-03    -14.8311E-03     30.1232E-03    -14.9441E-03     21.8804E-03
              28     17.7319E-03     59.9177E-03    -2.21045E+06     108.489E+06     59.9643E+06    -709.638E+03    -14.6630E-03     29.7595E-03    -15.0965E-03     21.6753E-03    -14.9646E-03     30.2646E-03    -14.9508E-03     21.7093E-03
              29     17.7337E-03     60.8955E-03    -700.928E+03     109.646E+06     61.1592E+06     253.466E+03    -14.3713E-03     29.4785E-03    -15.1072E-03     22.3022E-03    -14.6696E-03     29.9862E-03    -14.9593E-03     22.3497E-03
              30     17.7323E-03     61.8722E-03    -1.35517E+06     109.084E+06     60.8554E+06     477.269E+03    -14.4060E-03     29.5094E-03    -15.1035E-03     22.7611E-03    -14.7068E-03     30.0163E-03    -14.9554E-03     22.8120E-03
              31     17.7335E-03     62.8496E-03    -1.78530E+06     107.783E+06     60.3727E+06     265.072E+03    -14.3681E-03     29.4696E-03    -15.1015E-03     21.8916E-03    -14.6672E-03     29.9700E-03    -14.9533E-03     21.9391E-03
              32     17.7327E-03     63.8251E-03    -657.444E+03     108.175E+06     60.9430E+06     811.052E+03    -14.2924E-03     29.3924E-03    -15.1001E-03     21.5138E-03    -14.5868E-03     29.8918E-03    -14.9512E-03     21.5683E-03
              33     17.7334E-03     64.8034E-03    -2.86280E+06     109.980E+06     57.9739E+06     704.946E+03    -14.2273E-03     29.3152E-03    -15.0879E-03     20.8727E-03    -14.5304E-03     29.8304E-03    -14.9533E-03     20.9256E-03
              34     17.7327E-03     65.7784E-03    -979.202E+03     110.727E+06     59.1393E+06    -238.668E+03    -14.0527E-03     29.1440E-03    -15.0913E-03     20.9536E-03    -14.3490E-03     29.6584E-03    -14.9548E-03     20.9949E-03
              35     17.7336E-03     66.7565E-03    -535.515E+03     111.232E+06     60.2887E+06     241.207E+03    -14.3627E-03     29.4464E-03    -15.0837E-03     21.6118E-03    -14.6602E-03     29.9620E-03    -14.9427E-03     21.6584E-03
              36     17.7328E-03     67.7339E-03    -3.21352E+06     110.772E+06     58.2675E+06    -568.032E+03    -14.5300E-03     29.6039E-03    -15.0739E-03     22.0954E-03    -14.8385E-03     30.1252E-03    -14.9385E-03     22.1312E-03
              37     17.7335E-03     68.7109E-03    -584.868E+03     109.045E+06     60.6835E+06    -801.407E+03    -14.4150E-03     29.5030E-03    -15.0880E-03     21.7319E-03    -14.7109E-03     30.0080E-03    -14.9419E-03     21.7652E-03
              38     17.7329E-03     69.6871E-03    -1.37155E+06     109.672E+06     60.3533E+06     425.173E+03    -14.4114E-03     29.4968E-03    -15.0854E-03     21.4557E-03    -14.7114E-03     30.0062E-03    -14.9406E-03     21.5050E-03
              39     17.7335E-03     70.6652E-03    -1.69263E+06     110.140E+06     59.2214E+06    -78.1506E+03    -14.4346E-03     29.5052E-03    -15.0706E-03     21.8353E-03    -14.7358E-03     30.0196E-03    -14.9317E-03     21.8779E-03
              40     17.7335E-03     71.6414E-03    -1.60335E+06     110.156E+06     58.8466E+06    -853.307E+03    -14.4910E-03     29.5549E-03    -15.0639E-03     22.0429E-03    -14.7916E-03     30.0702E-03    -14.9271E-03     22.0757E-03
              41     17.7331E-03     72.6202E-03    -578.649E+03     111.218E+06     60.7057E+06     147.495E+03    -14.6307E-03     29.7064E-03    -15.0757E-03     22.9049E-03    -14.9318E-03     30.2242E-03    -14.9326E-03     22.9513E-03
              42     17.7333E-03     73.5967E-03    -1.84895E+06     109.802E+06     60.0151E+06     362.096E+03    -14.6827E-03     29.7604E-03    -15.0777E-03     23.1411E-03    -14.9871E-03     30.2740E-03    -14.9342E-03     23.1899E-03
              43     17.7331E-03     74.5740E-03    -3.23901E+06     107.440E+06     58.3432E+06    -396.234E+03    -14.3899E-03     29.4693E-03    -15.0794E-03     22.2348E-03    -14.6942E-03     29.9743E-03    -14.9388E-03     22.2742E-03
              44     17.7335E-03     75.5503E-03    -88.6213E+03     106.940E+06     61.0331E+06    -126.081E+03    -14.2588E-03     29.3543E-03    -15.0955E-03     21.4834E-03    -14.5495E-03     29.8474E-03    -14.9453E-03     21.5266E-03
              45     17.7328E-03     76.5264E-03    -1.95895E+06     109.319E+06     57.9327E+06     1.33991E+06    -14.3161E-03     29.3953E-03    -15.0792E-03     20.7375E-03    -14.6136E-03     29.9060E-03    -14.9452E-03     20.7983E-03
              46     17.7337E-03     77.5043E-03    -1.13027E+06     110.528E+06     57.3876E+06    -418.310E+03    -14.3578E-03     29.4222E-03    -15.0644E-03     21.8532E-03    -14.6537E-03     29.9400E-03    -14.9361E-03     21.8915E-03
              47     17.7331E-03     78.4817E-03    -1.95853E+06     109.744E+06     58.4778E+06    -1.04340E+06    -14.6475E-03     29.7171E-03    -15.0696E-03     22.2274E-03    -14.9490E-03     30.2317E-03    -14.9335E-03     22.2571E-03
              48     17.7330E-03     79.4592E-03    -846.308E+03      110.15E+06     59.8272E+06     380.974E+03    -14.5617E-03     29.6445E-03    -15.0828E-03     22.3334E-03    -14.8607E-03     30.1580E-03    -14.9421E-03     22.3826E-03
              49     17.7334E-03     80.4356E-03    -1.22371E+06     109.310E+06     56.8666E+06     463.655E+03    -14.3844E-03     29.4515E-03    -15.0671E-03     22.1407E-03    -14.6793E-03     29.9653E-03    -14.9395E-03     22.1914E-03
              50     17.7333E-03     81.4128E-03    -2.86789E+06     109.314E+06     55.5096E+06    -508.410E+03    -14.3390E-03     29.4002E-03    -15.0612E-03     21.9537E-03    -14.6400E-03     29.9181E-03    -14.9380E-03     21.9919E-03
              51     17.7333E-03     82.3902E-03    -239.624E+03     107.610E+06     58.4289E+06    -889.051E+03    -14.3191E-03     29.3956E-03    -15.0765E-03     22.0829E-03    -14.6090E-03     29.8972E-03    -14.9401E-03     22.1164E-03
              52     17.7333E-03     83.3659E-03    -1.94090E+06     107.533E+06     57.2121E+06     382.018E+03    -14.3006E-03     29.3711E-03    -15.0705E-03     21.6922E-03    -14.5960E-03     29.8754E-03    -14.9375E-03     21.7419E-03
              53     17.7335E-03     84.3440E-03    -352.708E+03     108.704E+06     57.9840E+06     258.158E+03    -14.3914E-03     29.4529E-03    -15.0615E-03     22.4498E-03    -14.6827E-03     29.9607E-03    -14.9287E-03     22.4978E-03
              54     17.7335E-03     85.3209E-03    -2.71165E+06     107.451E+06     54.5850E+06    -79.5967E+03    -14.3560E-03     29.4044E-03    -15.0483E-03     22.1666E-03    -14.6525E-03     29.9143E-03    -14.9273E-03     22.2099E-03
              55     17.7334E-03     86.2973E-03    -1.31288E+06     108.854E+06     55.4486E+06    -24.0407E+03    -14.2975E-03     29.3435E-03    -15.0460E-03     22.1230E-03    -14.5897E-03     29.8567E-03    -14.9247E-03     22.1673E-03
              56     17.7339E-03     87.2742E-03    -912.655E+03     108.342E+06     55.8882E+06     27.6538E+03    -14.5136E-03     29.5498E-03    -15.0363E-03     22.0123E-03    -14.8028E-03     30.0584E-03    -14.9126E-03     22.0558E-03
              57     17.7334E-03     88.2521E-03    -2.22351E+06     106.299E+06     52.8712E+06     541.587E+03    -14.0912E-03     29.1180E-03    -15.0268E-03     21.6684E-03    -14.3797E-03     29.6226E-03    -14.9133E-03     21.7199E-03
              58     17.7346E-03     89.2268E-03    -393.178E+03     106.796E+06     51.3025E+06     156.295E+03    -14.0782E-03     29.0786E-03    -15.0005E-03     21.0576E-03    -14.3556E-03     29.5851E-03    -14.8982E-03     21.1041E-03
              59     17.7339E-03     90.2034E-03    -2.62568E+06     107.921E+06     47.5302E+06    -972.218E+03    -14.6758E-03     29.6316E-03    -14.9558E-03     20.3535E-03    -14.9595E-03     30.1513E-03    -14.8708E-03     20.3826E-03
              60     17.7350E-03     91.1826E-03    -781.649E+03     106.071E+06     50.8149E+06    -1.35515E+06    -14.8945E-03     29.8454E-03    -14.9509E-03     22.3571E-03    -15.1739E-03     30.3512E-03    -14.8495E-03     22.3820E-03
              61     17.7346E-03     92.1602E-03    -583.662E+03     103.511E+06     43.4322E+06    -648.609E+03    -14.6919E-03     29.5850E-03    -14.8930E-03     22.7541E-03    -14.9566E-03     30.0891E-03    -14.8251E-03     22.7887E-03
              62     17.7363E-03     93.1357E-03    -2.17283E+06     102.517E+06     41.7473E+06    -1.61439E+06    -15.2220E-03     30.0805E-03    -14.8586E-03     22.4114E-03    -15.4904E-03     30.5841E-03    -14.7953E-03     22.4321E-03
              63     17.7344E-03     94.1154E-03    -127.947E+03     101.268E+06     38.5936E+06     10.0053E+03    -15.6665E-03     30.4850E-03    -14.8185E-03     22.1046E-03    -15.9179E-03     30.9836E-03    -14.7722E-03     22.1443E-03
              64     17.7374E-03     95.0921E-03    -2.28879E+06     99.6729E+06     32.4145E+06    -812.599E+03    -15.5269E-03     30.2902E-03    -14.7633E-03     22.5627E-03    -15.7783E-03     30.7934E-03    -14.7425E-03     22.5920E-03
              65     17.7356E-03     96.0701E-03    -542.576E+03     96.6612E+06     36.1931E+06    -1.49053E+06    -16.2584E-03     30.9960E-03    -14.7377E-03     21.9010E-03    -16.5016E-03     31.4756E-03    -14.6961E-03     21.9186E-03
              66     17.7380E-03     97.0491E-03    -996.864E+03     93.8234E+06     32.7551E+06    -827.244E+03    -16.8887E-03     31.5688E-03    -14.6801E-03     22.0161E-03    -17.1257E-03     32.0405E-03    -14.6509E-03     22.0399E-03
              67     17.7370E-03     98.0282E-03    -2.33545E+06     90.5088E+06     32.2858E+06    -1.05090E+06    -17.6863E-03     32.3161E-03    -14.6299E-03     22.6199E-03    -17.9256E-03     32.7750E-03    -14.5963E-03     22.6378E-03
              68     17.7391E-03     99.0093E-03     1.22045E+06     89.3146E+06     28.5253E+06    -101.249E+03    -18.5328E-03     33.0766E-03    -14.5437E-03     23.2479E-03    -18.7486E-03     33.5311E-03    -14.5324E-03     23.2743E-03
              69     17.7389E-03     99.9897E-03    -4.46776E+06     83.4158E+06     21.1422E+06    -4.54045E+06    -19.7889E-03     34.2453E-03    -14.4564E-03     23.7627E-03    -20.0157E-03     34.6911E-03    -14.4652E-03     23.7270E-03
              70     17.7395E-03     100.973E-03    -668.119E+03     67.4032E+06     20.1789E+06    -7.85217E+06    -21.3272E-03     35.7396E-03    -14.4123E-03     23.5282E-03    -21.5119E-03     36.1027E-03    -14.4082E-03     23.4429E-03
              71     17.7397E-03     101.956E-03     465.354E+03     52.2007E+06     19.3172E+06    -7.45873E+06    -23.2831E-03     37.6477E-03    -14.3646E-03     25.6173E-03    -23.4427E-03     37.9385E-03    -14.3444E-03     25.5289E-03
              72     17.7398E-03     102.945E-03    -932.130E+03     36.4440E+06     16.0642E+06    -7.15484E+06    -25.2404E-03     39.5478E-03    -14.3074E-03     28.0020E-03    -25.3840E-03     39.7711E-03    -14.2786E-03     27.9079E-03
              73     17.7407E-03     103.931E-03    -154.894E+03     18.0727E+06     11.5249E+06    -7.84663E+06    -26.8163E-03     41.0580E-03    -14.2417E-03     30.2440E-03    -26.9273E-03     41.1992E-03    -14.2100E-03     30.1327E-03
              74     17.7409E-03     104.922E-03    -1.38216E+06    -885.396E+03     4.47244E+06    -8.79022E+06    -29.3831E-03     43.5274E-03    -14.1442E-03     31.5211E-03    -29.4657E-03     43.5890E-03    -14.1186E-03     31.3831E-03
              75     17.7415E-03     105.914E-03     649.124E+03    -20.0458E+06     3.65065E+06     -8.7353E+06    -32.2513E-03     46.3175E-03    -14.0661E-03     33.6879E-03    -32.3005E-03     46.2874E-03    -14.0197E-03     33.5335E-03
              76     17.7421E-03     106.909E-03     3.68441E+06    -33.6127E+06     8.58713E+06    -4.31423E+06    -35.7581E-03     49.7475E-03    -13.9895E-03     37.2132E-03    -35.7908E-03     49.6495E-03    -13.9031E-03     37.0936E-03
              77     17.7425E-03     107.911E-03     2.56888E+06    -34.9066E+06     9.36463E+06     2.74524E+06    -39.1275E-03     53.0265E-03    -13.8990E-03     42.0270E-03    -39.1845E-03     52.9425E-03    -13.8053E-03     41.9669E-03
              78     17.7422E-03     108.916E-03    -10.7441E+06    -39.3571E+06     10.9291E+06    -5.61472E+06    -40.8768E-03     54.7337E-03    -13.8569E-03     52.8951E-03    -41.0332E-03     54.6819E-03    -13.7296E-03     52.6956E-03
              79     17.7449E-03     109.924E-03    -1.74477E+06    -66.3025E+06     24.8410E+06    -16.6049E+06    -40.8286E-03     54.6711E-03    -13.8425E-03     68.3935E-03    -40.9706E-03     54.5012E-03    -13.6196E-03     68.0322E-03
              80     17.7483E-03     110.932E-03     18.9937E+06    -77.8781E+06     6.63410E+06     7.22055E+06    -38.2649E-03     52.0212E-03    -13.7563E-03     83.0117E-03    -38.2935E-03     51.8237E-03    -13.6377E-03     82.9558E-03
              81     17.7432E-03     111.940E-03    -5.05913E+06    -42.1840E+06    -21.9776E+06     23.2668E+06    -23.3223E-03     37.4960E-03    -14.1738E-03     91.9310E-03    -23.4076E-03     37.4816E-03    -14.2152E-03     92.1517E-03
              82     17.7365E-03     112.912E-03    -10.9015E+06    -2.56840E+06    -2.18847E+06     6.86245E+06    -279.872E-06     16.9829E-03    -16.7030E-03     48.8130E-03    -365.305E-06     17.0243E-03    -16.6944E-03     48.8946E-03
              83     16.7234E-03     113.754E-03     3.26950E+06    -6.75673E+06     16.8063E+06     4.61988E+06     1.21233E-03     17.9341E-03    -19.1465E-03     12.3885E-03     1.20994E-03     17.8691E-03    -19.0574E-03     12.4460E-03
              84     15.8362E-03     113.645E-03    -10.8688E+06     2.69602E+06     19.5082E+06     5.53434E+06    -10.9396E-03     30.5731E-03    -19.6335E-03     20.8473E-03    -11.0294E-03     30.5742E-03    -19.5241E-03     20.9140E-03
              85     14.9576E-03     113.531E-03    -14.2536E+06     5.72338E+06     16.2047E+06    -4.26866E+06    -14.7691E-03     34.4822E-03    -19.7132E-03     16.1376E-03    -14.8759E-03     34.5064E-03    -19.6198E-03     16.0775E-03
              86     14.0805E-03     113.439E-03    -11.7259E+06    -5.77648E+06     15.3950E+06    -3.57224E+06    -16.6922E-03     36.3933E-03    -19.7012E-03     8.96355E-03    -16.7682E-03     36.3571E-03    -19.5988E-03     8.91209E-03
              87     13.2039E-03     113.360E-03    -12.4228E+06     1.49156E+06     24.4739E+06    -1.12285E+06    -19.8822E-03     39.4789E-03    -19.5967E-03     5.24543E-03    -19.9847E-03     39.4672E-03    -19.4585E-03     5.22462E-03
              88     12.3297E-03     113.290E-03    -12.0636E+06     46.6437E+03     26.2536E+06    -3.97194E+06    -21.8886E-03     41.2011E-03    -19.3125E-03     2.96707E-03    -21.9895E-03     41.1790E-03    -19.1638E-03     2.90934E-03
              89     11.4558E-03     113.230E-03    -9.31835E+06    -1.44985E+06     25.3129E+06    -4.07478E+06    -22.2083E-03     41.1350E-03    -18.9267E-03     1.77939E-03    -22.2915E-03     41.1030E-03    -18.7845E-03     1.72104E-03
              90     10.5807E-03     113.179E-03    -7.42401E+06    -763.315E+03     24.9540E+06    -3.01470E+06    -21.6536E-03     40.1869E-03    -18.5333E-03     1.28225E-03    -21.7273E-03     40.1564E-03    -18.3967E-03     1.23855E-03
              91     9.70371E-03     113.135E-03    -5.27573E+06     964.808E+03     24.1224E+06    -3.92501E+06    -20.8010E-03     38.9661E-03    -18.1651E-03     1.11412E-03    -20.8649E-03     38.9426E-03    -18.0383E-03     1.05960E-03
              92     8.82521E-03     113.097E-03    -2.30079E+06    -2.27443E+06     24.1906E+06    -3.27747E+06    -20.0206E-03     37.8669E-03    -17.8464E-03     989.383E-06    -20.0648E-03     37.8230E-03    -17.7188E-03     943.956E-06
              93     7.94577E-03     113.064E-03    -1.06250E+06    -8.75263E+03     22.2777E+06    -1.73955E+06    -19.1885E-03     36.7437E-03    -17.5552E-03     898.218E-06    -19.2269E-03     36.7122E-03    -17.4423E-03     873.285E-06
              94     7.06493E-03     113.036E-03     270.836E+03     1.11617E+06     17.2110E+06    -2.95948E+06    -18.4099E-03     35.7118E-03    -17.3019E-03     856.271E-06    -18.4358E-03     35.6915E-03    -17.2179E-03     816.104E-06
              95     6.18319E-03     113.012E-03     3.86977E+06    -965.253E+03     17.4531E+06    -3.60492E+06    -17.9302E-03     35.0505E-03    -17.1204E-03     714.412E-06    -17.9353E-03     35.0142E-03    -17.0373E-03     666.296E-06
              96     5.30093E-03     112.992E-03     7.08211E+06    -1.22853E+06     19.7094E+06    -2.20332E+06    -17.5839E-03     34.5561E-03    -16.9722E-03     549.600E-06    -17.5758E-03     34.5106E-03    -16.8821E-03     519.900E-06
              97     4.41806E-03     112.976E-03     8.14589E+06    -78.0004E+03     18.2378E+06    -1.24458E+06    -17.2462E-03     34.0743E-03    -16.8281E-03     353.911E-06    -17.2323E-03     34.0352E-03    -16.7486E-03     336.873E-06
              98     3.53480E-03     112.962E-03     8.38806E+06    -201.501E+03     14.9561E+06    -1.29737E+06    -16.9963E-03     33.6945E-03    -16.6982E-03     240.935E-06    -16.9762E-03     33.6592E-03    -16.6353E-03     223.421E-06
              99     2.65141E-03     112.952E-03     8.88663E+06    -294.671E+03     12.8958E+06    -1.14757E+06    -16.8019E-03     33.3887E-03    -16.5868E-03     241.153E-06    -16.7762E-03     33.3552E-03    -16.5348E-03     225.729E-06
             100     1.76767E-03     112.944E-03     9.02769E+06    -353.194E+03     11.1878E+06    -1.16203E+06    -16.5716E-03     33.0760E-03    -16.5043E-03     247.528E-06    -16.5426E-03     33.0444E-03    -16.4609E-03     232.181E-06
             101     883.766E-06     112.939E-03     9.11678E+06    -643.081E+03     10.4131E+06    -1.39972E+06    -16.4831E-03     32.9338E-03    -16.4506E-03    -20.9143E-06    -16.4519E-03     32.9023E-03    -16.4109E-03    -38.1739E-06
             102    -494.183E-09     111.957E-03     10.1860E+06    -3.79463E+06     9.81678E+06    -1.79913E+06    -15.0079E-03     30.1102E-03    -15.1023E-03     32.6105E-06    -14.9655E-03     30.0629E-03    -15.0625E-03     10.1240E-06
             103     234.977E-09     110.983E-03     9.13285E+06    -9.66053E+06     8.56651E+06    -1.37579E+06    -12.6337E-03     25.4069E-03    -12.7732E-03     840.657E-06    -12.5862E-03     25.3336E-03    -12.7296E-03     822.641E-06
             104    -229.393E-09     110.012E-03     4.53640E+06    -13.4633E+06     4.84398E+06    -965.677E+03    -11.1396E-03     22.2741E-03    -11.1345E-03     1.34074E-03    -11.1043E-03     22.1938E-03    -11.0973E-03     1.32813E-03
             105     236.007E-09     109.044E-03    -2.03730E+06    -17.1151E+06    -2.14081E+06    -1.19349E+06    -10.1132E-03     20.1970E-03    -10.0838E-03     1.50375E-03    -10.0953E-03     20.1181E-03    -10.0667E-03     1.48825E-03
             106    -192.345E-09     108.077E-03    -13.6525E+06    -21.5977E+06    -13.0571E+06    -1.73516E+06    -9.43482E-03     18.9937E-03    -9.55886E-03     1.65578E-03    -9.45268E-03     18.9251E-03    -9.57303E-03     1.63316E-03
             107    -67.1446E-09     107.111E-03    -27.1760E+06    -28.1352E+06    -27.3222E+06    -2.27860E+06    -9.28288E-03     18.6257E-03    -9.34285E-03     1.61720E-03    -9.33825E-03     18.5648E-03    -9.39925E-03     1.58768E-03
             108     216.692E-09     106.145E-03    -41.7592E+06    -35.0535E+06    -41.8280E+06    -1.88536E+06    -9.44704E-03     18.7847E-03    -9.33769E-03     1.74547E-03    -9.54425E-03     18.7313E-03    -9.43545E-03     1.72114E-03
             109    -173.551E-09     105.179E-03    -57.0201E+06    -40.6076E+06    -56.8412E+06    -1.83142E+06    -9.58211E-03     19.3054E-03    -9.72324E-03     1.87183E-03    -9.72583E-03     19.2681E-03    -9.86589E-03     1.84814E-03
             110    -120.623E-09     104.212E-03    -58.0941E+06    -45.4754E+06    -58.5977E+06    -1.03322E+06    -10.1091E-03     20.3226E-03    -10.2135E-03     1.87236E-03    -10.2486E-03     20.2651E-03    -10.3563E-03     1.85905E-03
             111     221.332E-09     103.243E-03    -47.1720E+06    -47.5682E+06    -47.2498E+06    -104.365E+03    -10.7665E-03     21.4931E-03    -10.7266E-03     2.11932E-03    -10.8648E-03     21.3928E-03    -10.8255E-03     2.11799E-03
             112    -254.033E-09     102.274E-03    -34.2747E+06    -46.1238E+06    -35.0972E+06     1.17088E+06    -11.3986E-03     22.6987E-03    -11.3001E-03     2.13896E-03    -11.4522E-03     22.5694E-03    -11.3591E-03     2.15407E-03
             113     450.331E-09     101.303E-03    -24.0465E+06    -41.1906E+06    -23.4688E+06     2.01871E+06    -12.1629E-03     23.9285E-03    -11.7656E-03     2.00017E-03    -12.1894E-03     23.7921E-03    -11.7883E-03     2.02617E-03
             114     64.7782E-09     100.332E-03    -18.1312E+06    -35.2070E+06    -17.5721E+06     1.02576E+06    -12.6505E-03     24.9582E-03    -12.3077E-03     1.99642E-03    -12.6647E-03     24.8346E-03    -12.3182E-03     2.00957E-03
             115     34.3632E-09     99.3593E-03    -15.7538E+06    -32.1217E+06    -16.1259E+06     577.659E+03    -12.8651E-03     25.9096E-03    -13.0445E-03     2.03301E-03    -12.8739E-03     25.7959E-03    -13.0557E-03     2.04039E-03
             116    -458.198E-09     98.3853E-03    -15.4133E+06    -30.3585E+06    -15.7547E+06     716.352E+03    -13.1670E-03     26.7765E-03    -13.6094E-03     1.98327E-03    -13.1772E-03     26.6705E-03    -13.6218E-03     1.99242E-03
             117     90.6501E-09     97.4115E-03    -12.3226E+06    -29.7849E+06    -12.0429E+06     112.344E+03    -13.7418E-03     27.5460E-03    -13.8042E-03     1.77999E-03    -13.7427E-03     27.4330E-03    -13.8034E-03     1.78131E-03
             118     167.680E-09     96.4362E-03    -9.29516E+06    -30.1752E+06    -8.79567E+06    -510.048E+03    -14.1454E-03     28.1680E-03    -14.0225E-03     1.83996E-03    -14.1354E-03     28.0440E-03    -14.0093E-03     1.83322E-03
             119    -203.587E-09     95.4608E-03    -9.98855E+06    -31.9323E+06    -10.1406E+06    -670.971E+03    -14.3289E-03     28.6650E-03    -14.3361E-03     1.81616E-03    -14.3178E-03     28.5351E-03    -14.3260E-03     1.80729E-03
             120     223.482E-09     94.4849E-03    -12.2527E+06    -34.3725E+06    -12.3641E+06    -745.495E+03    -14.5293E-03     29.0531E-03    -14.5238E-03     1.82747E-03    -14.5228E-03     28.9176E-03    -14.5180E-03     1.81758E-03
             121    -236.368E-09     93.5083E-03    -14.7571E+06    -35.4712E+06    -15.3219E+06     73.6133E+03    -14.6420E-03     29.2897E-03    -14.6477E-03     1.94414E-03    -14.6421E-03     29.1566E-03    -14.6515E-03     1.94481E-03
             122     230.976E-09     92.5322E-03    -14.6600E+06    -35.6117E+06    -14.1176E+06     27.9319E+03    -14.8652E-03     29.5766E-03    -14.7113E-03     1.86030E-03    -14.8664E-03     29.4409E-03    -14.7090E-03     1.86042E-03
             123     51.9975E-09     91.5553E-03    -14.2888E+06    -37.1289E+06    -14.0462E+06    -972.050E+03    -14.8948E-03     29.7691E-03    -14.8743E-03     1.80189E-03    -14.8921E-03     29.6252E-03    -14.8700E-03     1.78907E-03
             124    -297.233E-09     90.5787E-03    -15.4623E+06    -40.0735E+06    -15.7958E+06    -715.599E+03    -14.8131E-03     29.8769E-03    -15.0639E-03     1.69790E-03    -14.8094E-03     29.7226E-03    -15.0623E-03     1.68839E-03
             125     92.5880E-09     89.6015E-03    -15.4458E+06    -41.6394E+06    -15.4786E+06    -401.784E+03    -14.9897E-03     30.0260E-03    -15.0363E-03     1.70000E-03    -14.9841E-03     29.8633E-03    -15.0309E-03     1.69456E-03
             126     27.7100E-09     88.6245E-03    -16.5133E+06    -43.6354E+06    -16.3729E+06    -671.762E+03    -15.0886E-03     30.0590E-03    -14.9704E-03     1.78629E-03    -15.0842E-03     29.8892E-03    -14.9651E-03     1.77736E-03
             127     61.7948E-09     87.6474E-03    -18.1100E+06    -46.8344E+06    -17.8988E+06    -1.11930E+06    -15.0930E-03     30.0803E-03    -14.9873E-03     1.79218E-03    -15.0897E-03     29.8990E-03    -14.9826E-03     1.77744E-03
             128     37.1986E-09     86.6705E-03    -18.5491E+06    -49.7345E+06    -18.7032E+06    -873.212E+03    -15.0973E-03     30.1275E-03    -15.0302E-03     1.70392E-03    -15.0909E-03     29.9335E-03    -15.0247E-03     1.69233E-03
             129    -20.2102E-09     85.6933E-03    -18.4269E+06    -51.6832E+06    -18.4724E+06    -460.207E+03    -15.1030E-03     30.1477E-03    -15.0447E-03     1.77535E-03    -15.0934E-03     29.9435E-03    -15.0354E-03     1.76912E-03
             130     104.571E-09     84.7160E-03    -18.8097E+06    -53.4136E+06    -19.0044E+06    -479.550E+03    -15.0633E-03     30.1431E-03    -15.0798E-03     1.89509E-03    -15.0523E-03     29.9315E-03    -15.0701E-03     1.88863E-03
             131    -222.037E-09     83.7393E-03    -19.3179E+06    -55.6578E+06    -19.0216E+06    -692.827E+03    -14.9608E-03     30.1050E-03    -15.1442E-03     1.76778E-03    -14.9491E-03     29.8830E-03    -15.1306E-03     1.75854E-03
             132     16.2829E-09     82.7621E-03    -19.2648E+06    -57.7288E+06    -19.4357E+06    -769.477E+03    -15.0402E-03     30.1062E-03    -15.0660E-03     1.72485E-03    -15.0247E-03     29.8743E-03    -15.0515E-03     1.71464E-03
             133     140.670E-09     81.7850E-03    -19.4582E+06    -59.6219E+06    -19.5611E+06    -300.457E+03    -15.1410E-03     30.1207E-03    -14.9797E-03     1.86725E-03    -15.1236E-03     29.8799E-03    -14.9628E-03     1.86308E-03
             134    -14.2342E-09     80.8080E-03    -19.6748E+06    -61.0914E+06    -19.3318E+06    -509.763E+03    -15.0468E-03     30.1155E-03    -15.0687E-03     1.93632E-03    -15.0286E-03     29.8673E-03    -15.0483E-03     1.92939E-03
             135    -148.765E-09     79.8309E-03    -20.6664E+06    -62.4873E+06    -20.9792E+06    -356.041E+03    -14.9786E-03     30.0925E-03    -15.1139E-03     1.89309E-03    -14.9610E-03     29.8412E-03    -15.0983E-03     1.88815E-03
             136     66.6696E-09     78.8540E-03    -21.3753E+06    -64.1318E+06    -21.1247E+06    -745.273E+03    -15.0201E-03     30.0409E-03    -15.0208E-03     1.87090E-03    -15.0034E-03     29.7825E-03    -15.0024E-03     1.86096E-03
             137     15.5798E-09     77.8770E-03    -20.8824E+06    -66.2077E+06    -21.3915E+06    -558.391E+03    -15.0287E-03     30.0041E-03    -14.9754E-03     1.82297E-03    -15.0061E-03     29.7350E-03    -14.9560E-03     1.81542E-03
             138    -10.5393E-09     76.9004E-03    -21.3637E+06    -66.6485E+06    -21.0704E+06     240.921E+03    -15.0206E-03     30.0475E-03    -15.0269E-03     1.83051E-03    -15.0003E-03     29.7765E-03    -15.0046E-03     1.83328E-03
             139    -3.72643E-09     75.9229E-03    -21.5362E+06    -66.7768E+06    -21.6145E+06    -358.197E+03    -14.9712E-03     30.0115E-03    -15.0403E-03     1.91080E-03    -14.9508E-03     29.7409E-03    -15.0203E-03     1.90586E-03
             140    -106.947E-09     74.9465E-03    -20.0051E+06    -67.5063E+06    -20.3660E+06    -20.6019E+03    -14.9272E-03     29.9686E-03    -15.0414E-03     1.77483E-03    -14.8999E-03     29.6903E-03    -15.0164E-03     1.77428E-03
             141     9.57674E-09     73.9698E-03    -18.7180E+06    -67.8243E+06    -18.3172E+06    -180.185E+03    -15.0402E-03     30.0626E-03    -15.0225E-03     1.63058E-03    -15.0089E-03     29.7779E-03    -14.9886E-03     1.62801E-03
             142     122.649E-09     72.9923E-03    -19.8705E+06    -69.0565E+06    -20.1035E+06    -199.964E+03    -15.1266E-03     30.0911E-03    -14.9645E-03     1.79134E-03    -15.0967E-03     29.8045E-03    -14.9360E-03     1.78851E-03
             143     28.5845E-09     72.0157E-03    -20.2904E+06    -69.8708E+06    -19.7124E+06    -345.551E+03    -15.1162E-03     30.1178E-03    -15.0016E-03     1.82157E-03    -15.0878E-03     29.8272E-03    -14.9694E-03     1.81678E-03
             144     28.6043E-09     71.0386E-03    -19.8291E+06    -71.2240E+06    -20.1319E+06    -591.287E+03    -15.1391E-03     30.1974E-03    -15.0582E-03     1.84197E-03    -15.1058E-03     29.8999E-03    -15.0269E-03     1.83400E-03
             145     52.6976E-09     70.0613E-03    -19.6857E+06    -72.3010E+06    -19.5729E+06    -90.0532E+03    -15.0521E-03     30.1800E-03    -15.1279E-03     1.98365E-03    -15.0173E-03     29.8761E-03    -15.0924E-03     1.98217E-03
             146    -269.019E-09     69.0845E-03    -18.8710E+06    -72.8432E+06    -19.1004E+06    -180.986E+03    -15.0010E-03     30.1460E-03    -15.1450E-03     1.81255E-03    -14.9620E-03     29.8375E-03    -15.1076E-03     1.80991E-03
             147     225.771E-09     68.1076E-03    -18.1598E+06    -72.8985E+06    -18.3404E+06     123.195E+03    -15.1110E-03     30.2242E-03    -15.1132E-03     1.71063E-03    -15.0696E-03     29.9134E-03    -15.0728E-03     1.71188E-03
             148    -189.663E-09     67.1304E-03    -18.8623E+06    -73.1791E+06    -18.3407E+06    -359.416E+03    -15.0953E-03     30.2663E-03    -15.1710E-03     1.81202E-03    -15.0570E-03     29.9551E-03    -15.1292E-03     1.80706E-03
             149     23.9053E-09     66.1532E-03    -17.9429E+06    -74.3488E+06    -18.5881E+06    -287.672E+03    -15.0939E-03     30.2579E-03    -15.1641E-03     1.82675E-03    -15.0489E-03     29.9399E-03    -15.1232E-03     1.82271E-03
             150     8.54616E-09     65.1762E-03    -18.0315E+06    -74.5261E+06    -17.7185E+06     124.264E+03    -15.1177E-03     30.2530E-03    -15.1353E-03     1.84172E-03    -15.0741E-03     29.9329E-03    -15.0897E-03     1.84297E-03
             151    -70.1445E-09     64.1991E-03    -19.6911E+06    -74.1218E+06    -19.9733E+06     67.3852E+03    -15.0995E-03     30.2352E-03    -15.1357E-03     1.83649E-03    -15.0615E-03     29.9228E-03    -15.0995E-03     1.83708E-03
             152     62.7972E-09     63.2220E-03    -20.4032E+06    -73.9477E+06    -20.0895E+06    -47.3836E+03    -15.1642E-03     30.2472E-03    -15.0829E-03     1.85641E-03    -15.1299E-03     29.9369E-03    -15.0466E-03     1.85552E-03
             153     90.7344E-09     62.2449E-03    -19.4920E+06    -75.1499E+06     -19.228E+06    -554.058E+03    -15.1949E-03     30.2415E-03    -15.0466E-03     1.91725E-03    -15.1555E-03     29.9226E-03    -15.0055E-03     1.90977E-03
             154     20.0191E-09     61.2677E-03    -19.3202E+06    -76.1101E+06    -19.7483E+06    -146.456E+03    -15.0691E-03     30.1389E-03    -15.0698E-03     1.84940E-03    -15.0268E-03     29.8157E-03    -15.0301E-03     1.84716E-03
             155    -138.338E-09     60.2912E-03    -20.0047E+06    -75.4901E+06    -19.9479E+06     509.867E+03    -15.0204E-03     30.0691E-03    -15.0487E-03     1.69185E-03    -14.9821E-03     29.7503E-03    -15.0100E-03     1.69812E-03
             156     205.892E-09     59.3140E-03    -19.2486E+06    -74.4066E+06    -18.8607E+06    -56.9630E+03    -15.0725E-03     30.1158E-03    -15.0432E-03     1.83941E-03    -15.0335E-03     29.7997E-03    -15.0017E-03     1.83837E-03
             157    -218.606E-09     58.3369E-03    -18.0871E+06    -75.1562E+06    -18.3866E+06    -421.881E+03    -15.0597E-03     30.1350E-03    -15.0753E-03     1.93287E-03    -15.0145E-03     29.8128E-03    -15.0320E-03     1.92710E-03
             158     198.578E-09     57.3600E-03    -17.9650E+06    -76.2993E+06    -18.1015E+06     45.8205E+03    -15.0448E-03     30.1094E-03    -15.0646E-03     1.86327E-03    -14.9977E-03     29.7809E-03    -15.0184E-03     1.86354E-03
             159     63.6807E-09     55.4061E-03    -19.9582E+06    -75.8874E+06    -20.0143E+06    -123.536E+03    -15.0769E-03     30.1992E-03    -15.1223E-03     1.75376E-03    -15.0376E-03     29.8784E-03    -15.0834E-03     1.75185E-03
             160     6.95409E-09     54.4291E-03    -20.6373E+06    -76.5698E+06    -20.6334E+06     113.914E+03    -15.0634E-03     30.1000E-03    -15.0367E-03     1.79060E-03    -15.0256E-03     29.7778E-03    -14.9989E-03     1.79176E-03
             161    -31.6493E-09     53.4522E-03    -21.5114E+06    -76.1737E+06    -21.5206E+06     322.273E+03    -15.0109E-03     30.0485E-03    -15.0376E-03     1.80807E-03    -14.9768E-03     29.7307E-03    -15.0035E-03     1.81192E-03
             162     7.47362E-09     52.4754E-03    -18.6177E+06    -74.9315E+06    -18.5455E+06    -9.30308E+03    -15.0498E-03     30.1175E-03    -15.0677E-03     1.79440E-03    -15.0073E-03     29.7975E-03    -15.0248E-03     1.79395E-03
             163    -15.8779E-09     51.4983E-03    -18.0047E+06    -76.1098E+06    -17.8437E+06    -514.581E+03    -15.1263E-03     30.1744E-03    -15.0481E-03     1.83903E-03    -15.0800E-03     29.8466E-03    -15.0009E-03     1.83208E-03
             164     163.116E-09     50.5213E-03    -20.9202E+06    -78.2631E+06    -20.9497E+06    -611.604E+03    -15.0952E-03     30.0914E-03    -14.9962E-03     1.87800E-03    -15.0559E-03     29.7615E-03    -14.9571E-03     1.86978E-03
             165    -136.724E-09     49.5444E-03    -20.3206E+06    -77.9554E+06    -20.9857E+06     645.193E+03    -14.9742E-03     29.9507E-03    -14.9765E-03     1.86973E-03    -14.9323E-03     29.6216E-03    -14.9390E-03     1.87772E-03
             166     96.8236E-09     48.5678E-03    -19.7497E+06    -76.4931E+06    -19.2259E+06     534.684E+03    -14.8886E-03     29.9109E-03    -15.0223E-03     1.84497E-03    -14.8485E-03     29.5858E-03    -14.9789E-03     1.85157E-03
             167    -289.700E-09     47.5910E-03    -18.0870E+06    -76.1184E+06    -18.0965E+06    -522.552E+03    -14.9378E-03     29.9531E-03    -15.0153E-03     1.78287E-03    -14.8915E-03     29.6258E-03    -14.9692E-03     1.77583E-03
             168     343.409E-09     46.6141E-03    -18.7798E+06    -76.8245E+06    -18.7431E+06     155.978E+03    -14.9703E-03     29.8888E-03    -14.9185E-03     1.73701E-03    -14.9256E-03     29.5599E-03    -14.8736E-03     1.73873E-03
             169    -306.322E-09     45.6376E-03    -19.8844E+06    -75.9432E+06    -20.0812E+06     565.404E+03    -14.8637E-03     29.7574E-03    -14.8937E-03     1.72659E-03    -14.8238E-03     29.4364E-03    -14.8551E-03     1.73361E-03
             170     212.370E-09     44.6610E-03    -19.8415E+06    -75.0909E+06    -19.3406E+06    -284.885E+03    -14.8682E-03     29.7858E-03    -14.9176E-03     1.76173E-03    -14.8305E-03     29.4680E-03    -14.8767E-03     1.75773E-03
             171    -201.688E-09     43.6843E-03    -20.7403E+06    -77.2536E+06    -20.6992E+06    -957.544E+03    -14.8648E-03     29.7244E-03    -14.8596E-03     1.70014E-03    -14.8265E-03     29.3990E-03    -14.8210E-03     1.68748E-03
             172     199.537E-09     42.7079E-03    -20.8949E+06    -78.3968E+06    -21.7601E+06     223.010E+03    -14.8077E-03     29.5743E-03    -14.7666E-03     1.58997E-03    -14.7670E-03     29.2449E-03    -14.7314E-03     1.59261E-03
             173    -135.405E-09     41.7317E-03    -19.6310E+06    -77.4751E+06    -18.8513E+06     253.044E+03    -14.7933E-03     29.6050E-03    -14.8117E-03     1.61226E-03    -14.7519E-03     29.2742E-03    -14.7651E-03     1.61525E-03
             174     46.6019E-09     40.7549E-03    -19.8420E+06    -77.7721E+06    -20.1150E+06    -558.778E+03    -14.7579E-03     29.5509E-03    -14.7930E-03     1.68452E-03    -14.7152E-03     29.2207E-03    -14.7520E-03     1.67703E-03
             175    -24.2891E-09     39.7785E-03    -20.3975E+06    -78.3270E+06    -20.8441E+06     321.132E+03    -14.6734E-03     29.3024E-03    -14.6290E-03     1.70983E-03    -14.6317E-03     28.9714E-03    -14.5900E-03     1.71367E-03
             176     74.5254E-09     38.8029E-03    -19.1664E+06    -77.2637E+06    -18.5175E+06     134.284E+03    -14.6089E-03     29.1918E-03    -14.5829E-03     1.64561E-03    -14.5659E-03     28.8609E-03    -14.5357E-03     1.64705E-03
             177    -72.3691E-09     37.8267E-03    -18.3205E+06    -76.8457E+06    -18.9000E+06    -123.643E+03    -14.5410E-03     29.1032E-03    -14.5622E-03     1.62866E-03    -14.4938E-03     28.7737E-03    -14.5187E-03     1.62675E-03
             178     24.7798E-09     36.8506E-03    -19.2981E+06    -76.5197E+06    -19.2350E+06     570.365E+03    -14.4252E-03     28.8636E-03    -14.4384E-03     1.68771E-03    -14.3829E-03     28.5377E-03    -14.3956E-03     1.69480E-03
             179    -1.05179E-09     35.8753E-03    -18.9296E+06    -75.8736E+06    -18.5219E+06     36.7224E+03    -14.3147E-03     28.6532E-03    -14.3384E-03     1.66336E-03    -14.2725E-03     28.3289E-03    -14.2936E-03     1.66356E-03
             180    -61.3119E-09     34.8996E-03    -18.8602E+06    -76.0096E+06    -18.9667E+06    -201.736E+03    -14.2200E-03     28.4233E-03    -14.2033E-03     1.61834E-03    -14.1766E-03     28.0989E-03    -14.1606E-03     1.61543E-03
             181     150.866E-09     33.9246E-03    -19.4914E+06    -76.3137E+06    -19.4862E+06     86.4356E+03    -14.1286E-03     28.1556E-03    -14.0270E-03     1.62222E-03    -14.0872E-03     27.8314E-03    -13.9855E-03     1.62307E-03
             182    -61.2457E-09     32.9497E-03    -18.5987E+06    -76.1681E+06    -18.4582E+06    -166.891E+03    -13.9750E-03     27.8991E-03    -13.9241E-03     1.54365E-03    -13.9308E-03     27.5728E-03    -13.8789E-03     1.54120E-03
             183     62.6351E-09     31.9751E-03    -19.1671E+06    -76.9740E+06    -19.1283E+06    -276.383E+03    -13.7596E-03     27.5590E-03    -13.7994E-03     1.48916E-03    -13.7161E-03     27.2305E-03    -13.7557E-03     1.48531E-03
             184    -135.371E-09     31.0008E-03    -19.8663E+06    -77.2946E+06    -20.1796E+06     279.680E+03    -13.5548E-03     27.1339E-03    -13.5792E-03     1.43215E-03    -13.5128E-03     26.8064E-03    -13.5392E-03     1.43552E-03
             185     160.341E-09     30.0271E-03    -19.9984E+06    -75.8817E+06    -19.8327E+06     253.420E+03    -13.3552E-03     26.7421E-03    -13.3870E-03     1.41682E-03    -13.3164E-03     26.4213E-03    -13.3471E-03     1.41982E-03
             186    -240.824E-09     29.0536E-03    -18.9178E+06    -75.7514E+06    -19.0120E+06    -347.591E+03    -13.1516E-03     26.3542E-03    -13.2026E-03     1.32794E-03    -13.1088E-03     26.0313E-03    -13.1604E-03     1.32322E-03
             187     228.844E-09     28.0805E-03    -19.1533E+06    -76.3293E+06    -19.3937E+06     52.7373E+03    -12.9699E-03     25.8648E-03    -12.8949E-03     1.31832E-03    -12.9268E-03     25.5399E-03    -12.8535E-03     1.31880E-03
             188    -87.2423E-09     27.1079E-03    -19.4081E+06    -76.1323E+06    -19.0447E+06     336.530E+03    -12.7252E-03     25.3647E-03    -12.6395E-03     1.36262E-03    -12.6842E-03     25.0406E-03    -12.5962E-03     1.36674E-03
             189     101.205E-09     26.1359E-03    -17.6323E+06    -75.9728E+06    -17.4723E+06    -166.312E+03    -12.4416E-03     24.8860E-03    -12.4444E-03     1.35161E-03    -12.3942E-03     24.5579E-03    -12.3961E-03     1.34926E-03
             190    -119.255E-09     25.1641E-03    -17.6101E+06    -76.0455E+06    -18.1576E+06     319.594E+03    -12.1282E-03     24.2877E-03    -12.1595E-03     1.28847E-03    -12.0796E-03     23.9602E-03    -12.1144E-03     1.29241E-03
             191     74.6649E-09     24.1935E-03    -18.1579E+06    -74.9403E+06    -17.7216E+06     387.996E+03    -11.8729E-03     23.7113E-03    -11.8384E-03     1.12784E-03    -11.8293E-03     23.3894E-03    -11.7920E-03     1.13264E-03
             192     35.8071E-09     23.2230E-03    -16.7174E+06    -74.1688E+06    -16.8459E+06    -125.453E+03    -11.6024E-03     23.1879E-03    -11.5855E-03     1.01056E-03    -11.5540E-03     22.8666E-03    -11.5380E-03     1.00876E-03
             193    -118.197E-09     22.2532E-03    -18.4759E+06    -73.3642E+06    -18.8746E+06     450.522E+03    -11.2488E-03     22.6038E-03    -11.3550E-03     1.00983E-03    -11.2074E-03     22.2919E-03    -11.3162E-03     1.01548E-03
             194     6.58232E-09     21.2836E-03    -18.5597E+06    -71.6683E+06    -18.3968E+06     705.173E+03    -11.0421E-03     22.0986E-03    -11.0565E-03     1.01673E-03    -11.0043E-03     21.7947E-03    -11.0176E-03     1.02566E-03
             195     80.8513E-09     20.3148E-03    -16.6957E+06    -69.9725E+06    -16.7130E+06     529.433E+03    -10.8765E-03     21.6646E-03    -10.7881E-03     951.357E-06    -10.8343E-03     21.3640E-03    -10.7460E-03     957.997E-06
             196    -11.4423E-09     19.3463E-03    -15.9144E+06    -67.8173E+06    -16.0118E+06     787.577E+03    -10.6697E-03     21.3047E-03    -10.6350E-03     848.619E-06    -10.6278E-03     21.0128E-03    -10.5936E-03     858.637E-06
             197     2.52383E-09     18.3781E-03    -13.7649E+06    -65.1311E+06    -13.7172E+06     849.349E+03    -10.5146E-03     21.0376E-03    -10.5230E-03     791.532E-06    -10.4691E-03     20.7527E-03    -10.4772E-03     802.344E-06
             198    -8.34796E-09     17.4100E-03    -11.8747E+06    -62.2819E+06    -11.9497E+06     701.434E+03    -10.4023E-03     20.7829E-03    -10.3806E-03     864.894E-06    -10.3541E-03     20.5069E-03    -10.3328E-03     873.791E-06
             199     51.8397E-09     16.4421E-03    -10.3717E+06    -59.7577E+06    -10.4047E+06     893.478E+03    -10.2521E-03     20.4410E-03    -10.1889E-03     856.409E-06    -10.2023E-03     20.1732E-03    -10.1392E-03     867.858E-06
             200     16.6894E-09     15.4750E-03    -9.07705E+06    -57.3676E+06    -9.01196E+06     680.626E+03    -9.99080E-03     19.9531E-03    -9.96235E-03     598.056E-06    -9.93994E-03     19.6934E-03    -9.91106E-03     606.705E-06
             201    -33.9204E-09     14.5083E-03    -7.55229E+06    -55.2845E+06    -7.42731E+06     506.173E+03    -9.70655E-03     19.3895E-03    -9.68298E-03     312.628E-06    -9.65340E-03     19.1357E-03    -9.62900E-03     319.047E-06
             202     94.6580E-09     13.5419E-03    -7.62619E+06    -54.0636E+06    -7.42816E+06     238.188E+03    -9.37886E-03     18.6943E-03    -9.31540E-03     135.105E-06    -9.32785E-03     18.4466E-03    -9.26309E-03     138.139E-06
             203    -39.8588E-09     12.5766E-03    -9.95724E+06    -54.0832E+06    -10.0224E+06     25.7950E+03    -8.89962E-03     17.7533E-03    -8.85368E-03     580.576E-09    -8.85647E-03     17.5127E-03    -8.81094E-03     875.252E-09
             204     66.3926E-09     11.6118E-03    -12.5224E+06     -54.132E+06    -12.5793E+06    -24.1648E+03    -8.33961E-03     16.5970E-03    -8.25742E-03    -6.66647E-06    -8.30551E-03     16.3636E-03    -8.22367E-03    -7.05710E-06
             205     53.3447E-09     10.6486E-03    -14.7659E+06    -53.8411E+06    -14.9221E+06    -179.165E+03    -7.74535E-03     15.3932E-03    -7.64790E-03     41.9548E-06    -7.71943E-03     15.1680E-03    -7.62303E-03     39.5739E-06
             206    -793.719E-12     9.68640E-03    -17.3041E+06    -54.2522E+06    -16.9711E+06    -158.542E+03    -7.29123E-03     14.5398E-03    -7.24862E-03     140.933E-06    -7.27441E-03     14.3192E-03    -7.22971E-03     138.781E-06
             207     28.1348E-09     8.72480E-03    -17.9059E+06    -54.8256E+06    -17.7919E+06     50.5470E+03    -7.24437E-03     14.4386E-03    -7.19419E-03     348.578E-06    -7.22854E-03     14.2171E-03    -7.17769E-03     349.095E-06
             208     35.3554E-09     7.76275E-03    -16.5173E+06    -55.0997E+06    -16.2487E+06     87.4017E+03    -7.66460E-03     15.2674E-03    -7.60280E-03     579.135E-06    -7.64365E-03     15.0403E-03    -7.58020E-03     580.216E-06
             209     14.5336E-09     6.79965E-03    -13.7326E+06    -55.6724E+06    -13.4890E+06    -294.453E+03    -8.45831E-03     16.9110E-03    -8.45271E-03     723.305E-06    -8.42662E-03     16.6730E-03    -8.41952E-03     719.449E-06
             210    -51.5823E-09     5.83435E-03    -10.0865E+06    -56.1638E+06    -10.4108E+06    -239.001E+03    -9.55016E-03     19.1096E-03    -9.55948E-03     818.334E-06    -9.50401E-03     18.8593E-03    -9.51547E-03     815.134E-06
             211     68.3639E-09     4.86701E-03    -7.64503E+06    -56.8892E+06    -7.39919E+06    -364.460E+03    -10.7798E-03     21.5512E-03    -10.7714E-03     862.149E-06    -10.7248E-03     21.2893E-03    -10.7148E-03     857.331E-06
             212    -67.1203E-09     3.89692E-03    -5.77358E+06    -58.8612E+06    -5.90262E+06    -718.324E+03    -11.9530E-03     23.9085E-03    -11.9555E-03     814.503E-06    -11.8879E-03     23.6319E-03    -11.8913E-03     805.347E-06
             213     59.9933E-09     2.92515E-03    -6.08864E+06    -61.2005E+06    -6.11837E+06    -737.758E+03    -12.9885E-03     26.0038E-03    -13.0153E-03     682.845E-06    -12.9212E-03     25.7163E-03    -12.9483E-03     673.066E-06
             214    -100.915E-09     1.95102E-03    -11.9951E+06    -63.6877E+06    -11.8019E+06    -834.019E+03    -13.8113E-03     27.6290E-03    -13.8176E-03     482.211E-06    -13.7616E-03     27.3459E-03    -13.7669E-03     471.075E-06
             215     132.404E-09     975.974E-06    -17.7558E+06    -65.8028E+06    -18.1363E+06    -395.301E+03    -14.3282E-03     28.6555E-03    -14.3273E-03     266.380E-06    -14.2946E-03     28.3793E-03    -14.2968E-03     262.169E-06
             216     887.001E-06    -256.739E-18    -19.0499E+06    -66.3223E+06    -19.6117E+06    -179.121E+03    -14.5107E-03     29.0316E-03    -14.5208E-03     225.706E-06    -14.4808E-03     28.7563E-03    -14.4951E-03     224.420E-06
             217     1.77394E-03    -256.739E-18    -19.0027E+06    -66.5914E+06    -20.6342E+06    -444.186E+03    -14.5702E-03     29.0892E-03    -14.5190E-03     407.113E-06    -14.5386E-03     28.8137E-03    -14.4981E-03     401.505E-06
             218     2.66083E-03    -256.739E-18    -18.7929E+06    -67.6675E+06    -22.3023E+06    -811.671E+03    -14.6633E-03     29.2023E-03    -14.5390E-03     623.134E-06    -14.6267E-03     28.9235E-03    -14.5252E-03     612.560E-06
             219     3.54763E-03    -256.739E-18    -18.3332E+06    -68.4971E+06    -23.8323E+06    -993.941E+03    -14.7871E-03     29.3584E-03    -14.5714E-03     833.113E-06    -14.7448E-03     29.0770E-03    -14.5646E-03     820.202E-06
             220     4.43432E-03    -256.739E-18    -17.8027E+06    -69.5041E+06    -25.7785E+06    -1.20777E+06    -14.9596E-03     29.5738E-03    -14.6142E-03     1.07203E-03    -14.9104E-03     29.2895E-03    -14.6165E-03     1.05633E-03
             221     5.32078E-03    -256.739E-18    -16.9176E+06    -70.6587E+06    -28.4932E+06    -1.67329E+06    -15.1762E-03     29.8430E-03    -14.6667E-03     1.34141E-03    -15.1170E-03     29.5555E-03    -14.6822E-03     1.31967E-03
             222     6.20707E-03    -256.739E-18    -15.4559E+06    -71.0718E+06    -31.0565E+06    -2.19930E+06    -15.4277E-03     30.1588E-03    -14.7312E-03     1.62906E-03    -15.3568E-03     29.8709E-03    -14.7610E-03     1.60049E-03
             223     7.09311E-03    -256.739E-18    -13.7841E+06    -70.5558E+06    -33.1154E+06    -2.19518E+06    -15.7144E-03     30.5234E-03    -14.8091E-03     1.93304E-03    -15.6329E-03     30.2386E-03    -14.8524E-03     1.90447E-03
             224     7.97887E-03    -256.739E-18    -12.0141E+06    -68.9735E+06    -34.5334E+06    -2.40597E+06    -16.0483E-03     30.9499E-03    -14.9016E-03     2.29139E-03    -15.9582E-03     30.6725E-03    -14.9568E-03     2.26003E-03
             225     8.86431E-03    -256.739E-18    -9.54690E+06    -65.9788E+06    -35.1379E+06    -3.04816E+06    -16.4649E-03     31.4757E-03    -15.0107E-03     2.67851E-03    -16.3660E-03     31.2106E-03    -15.0769E-03     2.63875E-03
             226     9.74937E-03    -256.739E-18    -5.97802E+06    -60.4364E+06    -35.7706E+06    -3.70993E+06    -16.9699E-03     32.1035E-03    -15.1336E-03     3.17294E-03    -16.8603E-03     31.8618E-03    -15.2161E-03     3.12453E-03
             227     10.6337E-03    -256.739E-18    -2.04634E+06    -50.0838E+06    -36.4784E+06    -3.74406E+06    -17.5660E-03     32.8364E-03    -15.2704E-03     3.79083E-03    -17.4507E-03     32.6419E-03    -15.3772E-03     3.74181E-03
             228     11.5178E-03    -256.739E-18     1.41214E+06    -34.5235E+06    -35.8707E+06    -3.14166E+06    -18.3482E-03     33.7832E-03    -15.4350E-03     4.57517E-03    -18.2391E-03     33.6605E-03    -15.5663E-03     4.53370E-03
             229     12.4005E-03    -256.739E-18     4.16631E+06    -13.7714E+06    -32.4848E+06    -2.68022E+06    -19.3739E-03     35.0191E-03    -15.6452E-03     5.76744E-03    -19.2861E-03     34.9914E-03    -15.7937E-03     5.73164E-03
             230     13.2821E-03    -256.739E-18     4.11265E+06     17.6930E+06    -24.5468E+06     139.331E+03    -20.6549E-03     36.5706E-03    -15.9157E-03     7.17000E-03    -20.6245E-03     36.6888E-03    -16.0700E-03     7.16982E-03
             231     14.1627E-03    -256.739E-18     625.544E+03     45.8129E+06    -9.40162E+06     3.13407E+06    -22.6214E-03     38.9238E-03    -16.3024E-03     9.76335E-03    -22.6713E-03     39.1658E-03    -16.4168E-03     9.80090E-03
             232     15.0390E-03    -256.739E-18    -384.660E+03     61.7045E+06     10.7907E+06     706.671E+03    -24.9066E-03     41.7238E-03    -16.8172E-03     15.6561E-03    -25.0144E-03     42.0173E-03    -16.8522E-03     15.6618E-03
             233     15.9098E-03    -256.739E-18     2.72606E+06     75.0827E+06     39.3079E+06    -1.00100E+06    -25.6958E-03     43.1119E-03    -17.4162E-03     25.0163E-03    -25.8508E-03     43.4277E-03    -17.3324E-03     24.9946E-03
             234     16.7816E-03    -256.739E-18     3.43280E+06     81.3658E+06     58.7996E+06     1.41457E+06    -24.2429E-03     42.1695E-03    -17.9266E-03     33.2668E-03    -24.4384E-03     42.4944E-03    -17.7555E-03     33.2621E-03
             235     17.6955E-03     987.355E-06    -908.782E+03     82.6544E+06     57.3165E+06     4.73250E+06    -25.0251E-03     42.3000E-03    -17.2749E-03     30.7878E-03    -25.2504E-03     42.6497E-03    -17.1068E-03     30.8105E-03
             236     17.7136E-03     1.98210E-03    -4.49415E+06     86.5237E+06     55.1879E+06     4.86674E+06    -30.2685E-03     46.2248E-03    -15.9563E-03     21.9735E-03    -30.5201E-03     46.6085E-03    -15.7993E-03     21.9788E-03
             237     17.7228E-03     2.98033E-03    -2.65971E+06     91.1312E+06     59.1075E+06     1.47707E+06    -34.5835E-03     49.8617E-03    -15.2782E-03     16.7536E-03    -34.8414E-03     50.2625E-03    -15.1109E-03     16.6990E-03
             238     17.7265E-03     3.97925E-03     198.883E+03     94.7790E+06     63.8130E+06     614.937E+03    -35.6901E-03     50.7025E-03    -15.0125E-03     13.9677E-03    -35.9461E-03     51.1109E-03    -14.8311E-03     13.8989E-03
             239     17.7273E-03     4.97856E-03    -778.266E+03     96.3664E+06     64.5104E+06     618.343E+03    -34.8150E-03     49.7606E-03    -14.9456E-03     12.1014E-03    -35.0782E-03     50.1760E-03    -14.7617E-03     12.0379E-03
             240     17.7282E-03     5.97212E-03    -2.68108E+06     96.2931E+06     62.0601E+06    -198.755E+03    -33.3541E-03     48.3098E-03    -14.9557E-03     10.0253E-03    -33.6207E-03     48.7287E-03    -14.7812E-03     9.95991E-03
             241     17.7268E-03     6.96873E-03    -2.13667E+06     97.6535E+06     60.6583E+06     823.573E+03    -31.2524E-03     46.2613E-03    -15.0089E-03     8.47764E-03    -31.5141E-03     46.6862E-03    -14.8441E-03     8.43462E-03
             242     17.7281E-03     7.95870E-03    -355.579E+03     100.128E+06     61.6498E+06     564.928E+03    -29.1565E-03     44.2118E-03    -15.0553E-03     8.31473E-03    -29.4140E-03     44.6446E-03    -14.8917E-03     8.27588E-03
             243     17.7273E-03     8.94964E-03    -945.140E+03     100.348E+06     60.8739E+06    -271.586E+03    -28.4962E-03     43.5590E-03    -15.0628E-03     7.65987E-03    -28.7547E-03     43.9940E-03    -14.9026E-03     7.61450E-03
             244     17.7280E-03     9.94130E-03    -1.40840E+06     100.746E+06     60.4273E+06     511.831E+03    -27.6372E-03     42.7039E-03    -15.0667E-03     8.81477E-03    -27.8990E-03     43.1432E-03    -14.9086E-03     8.78375E-03
             245     17.7284E-03     10.9310E-03    -1.74514E+06     101.506E+06     60.7545E+06    -8.98253E+03    -27.0906E-03     42.1496E-03    -15.0590E-03     10.8807E-03    -27.3583E-03     42.5954E-03    -14.8999E-03     10.8460E-03
             246     17.7284E-03     11.9221E-03    -2.60488E+06     101.482E+06     59.9625E+06     666.104E+03    -26.2880E-03     41.3470E-03    -15.0589E-03     11.1301E-03    -26.5602E-03     41.7963E-03    -14.9025E-03     11.1082E-03
             247     17.7293E-03     12.9087E-03    -1.42297E+06     103.161E+06     60.5113E+06     1.21055E+06    -25.0815E-03     40.1383E-03    -15.0568E-03     12.2357E-03    -25.3528E-03     40.5952E-03    -14.9017E-03     12.2259E-03
             248     17.7297E-03     13.8971E-03    -1.22122E+06     103.869E+06     60.8312E+06     13.4007E+03    -24.7737E-03     39.8024E-03    -15.0287E-03     13.2891E-03    -25.0472E-03     40.2640E-03    -14.8734E-03     13.2661E-03
             249     17.7305E-03     14.8850E-03    -1.77927E+06     103.853E+06     60.2157E+06     166.868E+03    -23.9504E-03     38.9672E-03    -15.0168E-03     14.3162E-03    -24.2280E-03     39.4326E-03    -14.8637E-03     14.2997E-03
             250     17.7307E-03     15.8711E-03    -579.147E+03     105.595E+06     60.6186E+06     431.410E+03    -23.1943E-03     38.2072E-03    -15.0129E-03     16.0810E-03    -23.4721E-03     38.6821E-03    -14.8621E-03     16.0720E-03
             251     17.7310E-03     16.8574E-03    -1.52125E+06     104.964E+06     59.8592E+06    -27.4031E+03    -22.9625E-03     37.9633E-03    -15.0008E-03     16.7539E-03    -23.2444E-03     38.4388E-03    -14.8515E-03     16.7412E-03
             252     17.7313E-03     17.8421E-03    -1.80711E+06     105.121E+06     60.1253E+06     230.664E+03    -22.2184E-03     37.2166E-03    -14.9982E-03     17.4303E-03    -22.5038E-03     37.6944E-03    -14.8474E-03     17.4258E-03
             253     17.7320E-03     18.8280E-03    -1.31862E+06     106.010E+06     60.1677E+06     146.076E+03    -21.4038E-03     36.4059E-03    -15.0020E-03     18.6022E-03    -21.6904E-03     36.8896E-03    -14.8530E-03     18.6016E-03
             254     17.7314E-03     19.8110E-03    -2.07525E+06     105.605E+06     59.5941E+06     689.646E+03    -20.5696E-03     35.5841E-03    -15.0145E-03     18.8798E-03    -20.8594E-03     36.0686E-03    -14.8666E-03     18.8910E-03
             255     17.7324E-03     20.7934E-03    -1.58416E+06     106.372E+06     59.5818E+06    -167.112E+03    -19.8370E-03     34.8511E-03    -15.0142E-03     19.0995E-03    -20.1261E-03     35.3395E-03    -14.8682E-03     19.1038E-03
             256     17.7321E-03     21.7756E-03    -1.65195E+06     106.751E+06     60.3756E+06    -624.344E+03    -19.7471E-03     34.7635E-03    -15.0164E-03     19.5380E-03    -20.0394E-03     35.2539E-03    -14.8670E-03     19.5387E-03
             257     17.7319E-03     22.7594E-03    -410.275E+03     108.410E+06     61.4294E+06     284.985E+03    -19.0545E-03     34.0803E-03    -15.0257E-03     20.9014E-03    -19.3466E-03     34.5776E-03    -14.8752E-03     20.9181E-03
             258     17.7333E-03     23.7394E-03    -1.95866E+06     107.276E+06     59.0828E+06    -321.874E+03    -18.6573E-03     33.6760E-03    -15.0187E-03     21.5891E-03    -18.9533E-03     34.1745E-03    -14.8760E-03     21.6015E-03
             259     17.7313E-03     24.7218E-03    -2.81619E+06     106.554E+06     57.1301E+06     566.183E+03    -18.1961E-03     33.2344E-03    -15.0383E-03     20.4539E-03    -18.4914E-03     33.7323E-03    -14.9030E-03     20.4807E-03
             260     17.7328E-03     25.7006E-03    -933.973E+03     108.617E+06     59.2087E+06     504.306E+03    -17.4220E-03     32.4876E-03    -15.0656E-03     21.4514E-03    -17.7148E-03     32.9910E-03    -14.9257E-03     21.4815E-03
             261     17.7317E-03     26.6813E-03    -1.71050E+06     108.118E+06     60.6758E+06     635.058E+03    -17.3083E-03     32.3789E-03    -15.0706E-03     21.2168E-03    -17.6060E-03     32.8784E-03    -14.9215E-03     21.2501E-03
             262     17.7329E-03     27.6610E-03    -2.40254E+06     107.587E+06     59.3611E+06     587.716E+03    -16.3314E-03     31.4070E-03    -15.0756E-03     20.3429E-03    -16.6293E-03     31.9062E-03    -14.9313E-03     20.3798E-03
             263     17.7326E-03     28.6371E-03    -748.700E+03     109.560E+06     61.3295E+06    -299.224E+03    -15.9530E-03     31.0245E-03    -15.0714E-03     20.5990E-03    -16.2488E-03     31.5287E-03    -14.9226E-03     20.6267E-03
             264     17.7333E-03     29.6190E-03    -1.16238E+06     109.568E+06     61.3791E+06    -310.589E+03    -16.2292E-03     31.2894E-03    -15.0602E-03     21.4415E-03    -16.5290E-03     31.7960E-03    -14.9105E-03     21.4696E-03
             265     17.7326E-03     30.5967E-03    -2.16827E+06     108.799E+06     59.6738E+06    -119.191E+03    -16.0005E-03     31.0635E-03    -15.0631E-03     22.4814E-03    -16.3036E-03     31.5722E-03    -14.9193E-03     22.5142E-03
             266     17.7331E-03     31.5760E-03    -881.937E+03     110.240E+06     61.5247E+06     239.801E+03    -15.8322E-03     30.9073E-03    -15.0751E-03     22.5434E-03    -16.1336E-03     31.4184E-03    -14.9260E-03     22.5817E-03
             267     17.7326E-03     32.5535E-03    -1.74548E+06     109.485E+06     61.0875E+06    -48.1298E+03    -15.7241E-03     30.8017E-03    -15.0776E-03     22.1232E-03    -16.0271E-03     31.3100E-03    -14.9284E-03     22.1587E-03
             268     17.7331E-03     33.5318E-03    -2.15511E+06     109.081E+06     60.5254E+06     129.400E+03    -15.3827E-03     30.4668E-03    -15.0841E-03     21.7174E-03    -15.6858E-03     30.9739E-03    -14.9365E-03     21.7567E-03
             269     17.7327E-03     34.5101E-03    -1.15316E+06     110.339E+06     62.1974E+06     206.018E+03    -15.2069E-03     30.3046E-03    -15.0977E-03     22.2667E-03    -15.5103E-03     30.8152E-03    -14.9450E-03     22.3084E-03
             270     17.7327E-03     35.4874E-03    -1.66722E+06     109.733E+06     61.3943E+06     48.3703E+03    -15.0556E-03     30.1514E-03    -15.0958E-03     21.6431E-03    -15.3581E-03     30.6596E-03    -14.9456E-03     21.6830E-03
             271     17.7332E-03     36.4642E-03    -1.71783E+06     109.709E+06     61.3386E+06    -105.881E+03    -14.9336E-03     30.0251E-03    -15.0915E-03     21.5862E-03    -15.2365E-03     30.5334E-03    -14.9414E-03     21.6248E-03
             272     17.7327E-03     37.4435E-03    -952.041E+03     110.661E+06     61.7599E+06    -43.0931E+03    -15.0688E-03     30.1585E-03    -15.0897E-03     22.3429E-03    -15.3712E-03     30.6713E-03    -14.9400E-03     22.3824E-03
             273     17.7331E-03     38.4204E-03    -1.81786E+06     109.816E+06     60.8385E+06     211.755E+03    -14.7549E-03     29.8506E-03    -15.0957E-03     21.8816E-03    -15.0582E-03     30.3608E-03    -14.9481E-03     21.9256E-03
             274     17.7328E-03     39.3967E-03    -1.40949E+06     110.183E+06     60.2373E+06     407.316E+03    -14.5455E-03     29.6380E-03    -15.0925E-03     21.7187E-03    -14.8464E-03     30.1503E-03    -14.9490E-03     21.7664E-03
             275     17.7334E-03     40.3753E-03    -1.61847E+06     110.041E+06     59.8344E+06    -341.720E+03    -14.7665E-03     29.8545E-03    -15.0880E-03     21.9960E-03    -15.0684E-03     30.3677E-03    -14.9460E-03     22.0335E-03
             276     17.7324E-03     41.3520E-03    -1.71543E+06     109.869E+06     59.4038E+06     200.100E+03    -14.5629E-03     29.6530E-03    -15.0901E-03     21.8832E-03    -14.8640E-03     30.1658E-03    -14.9499E-03     21.9284E-03
             277     17.7339E-03     42.3290E-03    -1.63041E+06     109.990E+06     58.9068E+06    -237.415E+03    -14.5045E-03     29.5871E-03    -15.0826E-03     22.1367E-03    -14.8051E-03     30.1016E-03    -14.9452E-03     22.1768E-03
             278     17.7323E-03     43.3067E-03    -1.40486E+06     110.255E+06     58.2245E+06    -913.474E+03    -14.8353E-03     29.9114E-03    -15.0760E-03     22.2097E-03    -15.1349E-03     30.4285E-03    -14.9427E-03     22.2402E-03
             279     17.7335E-03     44.2843E-03    -768.789E+03     111.093E+06     59.5252E+06    -1.06074E+06    -15.0944E-03     30.1789E-03    -15.0846E-03     23.2777E-03    -15.3953E-03     30.6988E-03    -14.9469E-03     23.3068E-03
             280     17.7319E-03     45.2635E-03    -2.23350E+06     109.525E+06     59.1340E+06     551.125E+03    -14.8492E-03     29.9587E-03    -15.1095E-03     22.8372E-03    -15.1535E-03     30.4724E-03    -14.9694E-03     22.8876E-03
             281     17.7327E-03     46.2387E-03    -1.61726E+06     109.958E+06     59.7583E+06     987.447E+03    -14.3737E-03     29.5018E-03    -15.1280E-03     22.4396E-03    -14.6752E-03     30.0146E-03    -14.9863E-03     22.4962E-03
             282     17.7324E-03     47.2154E-03    -940.858E+03     110.684E+06     62.4552E+06     166.988E+03    -14.4586E-03     29.5784E-03    -15.1198E-03     22.1492E-03    -14.7606E-03     30.0889E-03    -14.9667E-03     22.1944E-03
             283     17.7335E-03     48.1940E-03    -2.18687E+06     109.382E+06     60.2663E+06     515.007E+03    -14.1004E-03     29.2033E-03    -15.1029E-03     21.7419E-03    -14.4035E-03     29.7122E-03    -14.9570E-03     21.7929E-03
             284     17.7329E-03     49.1684E-03    -1.71971E+06     110.001E+06     60.6632E+06     63.3736E+03    -14.2314E-03     29.3295E-03    -15.0981E-03     22.0557E-03    -14.5345E-03     29.8411E-03    -14.9518E-03     22.1010E-03
             285     17.7331E-03     50.1479E-03    -1.64699E+06     110.014E+06     60.1750E+06    -332.985E+03    -14.4656E-03     29.5547E-03    -15.0892E-03     22.0483E-03    -14.7678E-03     30.0672E-03    -14.9454E-03     22.0874E-03
             286     17.7333E-03     51.1232E-03    -1.87816E+06     109.715E+06     60.0944E+06    -638.795E+03    -14.2517E-03     29.3477E-03    -15.0960E-03     22.1560E-03    -14.5546E-03     29.8592E-03    -14.9519E-03     22.1923E-03
             287     17.7326E-03     52.1013E-03    -568.840E+03     111.034E+06     60.7029E+06    -338.665E+03    -14.3740E-03     29.4590E-03    -15.0850E-03     22.9570E-03    -14.6741E-03     29.9752E-03    -14.9417E-03     22.9968E-03
             288     17.7343E-03     53.0779E-03    -1.36769E+06     110.350E+06     59.4636E+06    -575.914E+03    -14.8936E-03     29.9580E-03    -15.0644E-03     23.5288E-03    -15.1960E-03     30.4748E-03    -14.9251E-03     23.5644E-03
             289     17.7319E-03     54.0574E-03    -1.99829E+06     109.392E+06     56.7070E+06     826.019E+03    -14.7599E-03     29.8362E-03    -15.0763E-03     22.6108E-03    -15.0590E-03     30.3521E-03    -14.9485E-03     22.6652E-03
             290     17.7337E-03     55.0319E-03    -1.80183E+06     109.369E+06     57.2245E+06    -212.334E+03    -14.5882E-03     29.6862E-03    -15.0980E-03     22.5557E-03    -14.8864E-03     30.2003E-03    -14.9678E-03     22.5970E-03
             291     17.7315E-03     56.0102E-03    -2.65029E+06     108.515E+06     58.5872E+06     455.129E+03    -14.6867E-03     29.8011E-03    -15.1144E-03     21.0432E-03    -14.9874E-03     30.3078E-03    -14.9750E-03     21.0915E-03
             292     886.580E-06     57.3618E-03    -17.8776E+06    -75.0799E+06    -18.1498E+06    -230.090E+03    -15.0660E-03     30.1280E-03    -15.0621E-03     3.13424E-03    -15.0203E-03     29.8054E-03    -15.0180E-03     3.13074E-03
             293     1.77317E-03     57.3659E-03    -17.5856E+06    -73.3176E+06    -16.7098E+06    -340.631E+03    -15.0720E-03     30.1384E-03    -15.0664E-03     5.90114E-03    -15.0295E-03     29.8217E-03    -15.0182E-03     5.89571E-03
             294     2.65976E-03     57.3727E-03    -17.1775E+06    -70.9602E+06    -14.0949E+06    -257.299E+03    -15.0459E-03     30.1175E-03    -15.0715E-03     8.88405E-03    -15.0087E-03     29.8082E-03    -15.0142E-03     8.87914E-03
             295     3.54640E-03     57.3823E-03    -16.2706E+06    -68.2868E+06    -11.0753E+06    -100.976E+03    -15.0438E-03     30.1168E-03    -15.0730E-03     11.9229E-03    -15.0105E-03     29.8154E-03    -15.0057E-03     11.9194E-03
             296     4.43305E-03     57.3948E-03    -14.4571E+06    -64.6371E+06    -6.82115E+06     66.5517E+03    -15.0778E-03     30.1589E-03    -15.0810E-03     15.0639E-03    -15.0471E-03     29.8672E-03    -15.0004E-03     15.0618E-03
             297     5.31959E-03     57.4103E-03    -12.8623E+06    -60.4386E+06    -3.04316E+06    -37.0131E+03    -15.1210E-03     30.2119E-03    -15.0909E-03     18.2765E-03    -15.0943E-03     29.9338E-03    -14.9998E-03     18.2721E-03
             298     6.20616E-03     57.4288E-03    -12.0506E+06    -58.8920E+06    -820.664E+03    -53.3547E+03    -15.1503E-03     30.2498E-03    -15.0995E-03     21.5636E-03    -15.1254E-03     29.9755E-03    -15.0008E-03     21.5580E-03
             299     7.09279E-03     57.4503E-03    -11.7679E+06    -57.9148E+06    -574.579E+03    -682.960E+03    -15.1869E-03     30.2862E-03    -15.0993E-03     24.9497E-03    -15.1632E-03     30.0168E-03    -15.0012E-03     24.9345E-03
             300     7.97937E-03     57.4751E-03    -11.9330E+06    -54.1778E+06    -648.568E+03    -1.07731E+06    -15.2219E-03     30.3155E-03    -15.0935E-03     28.5214E-03    -15.2054E-03     30.0661E-03    -15.0009E-03     28.4996E-03
             301     8.86605E-03     57.5033E-03    -10.8273E+06    -54.1862E+06     250.275E+03    -693.151E+03    -15.2968E-03     30.3934E-03    -15.0966E-03     32.1556E-03    -15.2775E-03     30.1426E-03    -15.0011E-03     32.1367E-03
             302     9.75259E-03     57.5349E-03    -8.24926E+06    -48.6651E+06     712.295E+03    -346.061E+03    -15.4037E-03     30.4933E-03    -15.0897E-03     35.9682E-03    -15.3824E-03     30.2680E-03    -15.0036E-03     35.9512E-03
             303     10.6391E-03     57.5703E-03    -5.90645E+06    -40.8304E+06     3.13703E+06     40.5515E+03    -15.4977E-03     30.5894E-03    -15.0918E-03     39.8496E-03    -15.4829E-03     30.3997E-03    -15.0083E-03     39.8343E-03
             304     11.5257E-03     57.6091E-03    -4.76979E+06    -41.9046E+06     155.059E+03    -633.169E+03    -15.6079E-03     30.6906E-03    -15.0827E-03     43.5367E-03    -15.5869E-03     30.5034E-03    -15.0142E-03     43.5084E-03
             305     12.4121E-03     57.6513E-03    -4.82596E+06    -38.4986E+06    -4.20430E+06    -1.11148E+06    -15.6771E-03     30.7383E-03    -15.0612E-03     47.7667E-03    -15.6630E-03     30.5826E-03    -15.0194E-03     47.7277E-03
             306     13.2988E-03     57.6978E-03    -4.81631E+06    -26.2938E+06    -9.77566E+06    -367.072E+03    -15.7519E-03     30.7702E-03    -15.0184E-03     52.6706E-03    -15.7606E-03     30.6969E-03    -15.0221E-03     52.6367E-03
             307     14.1851E-03     57.7491E-03    -5.33097E+06    -271.664E+03    -11.9613E+06    -37.9220E+03    -15.8227E-03     30.7939E-03    -14.9712E-03     58.0900E-03    -15.8935E-03     30.8794E-03    -15.0229E-03     58.0572E-03
             308     15.0719E-03     57.8055E-03    -7.14170E+06     50.4408E+06    -5.35527E+06     225.396E+03    -15.8617E-03     30.7929E-03    -14.9312E-03     65.9001E-03    -16.0768E-03     31.1772E-03    -15.0208E-03     65.8782E-03
             309     15.9573E-03     57.8714E-03    -7.13180E+06     96.5531E+06     14.4549E+06     41.9559E+03    -15.7025E-03     30.6541E-03    -14.9516E-03     74.7355E-03    -16.1012E-03     31.3282E-03    -15.0090E-03     74.7641E-03
             310     16.8481E-03     57.9436E-03    -3.01682E+06     110.322E+06     46.9467E+06    -339.309E+03    -14.7849E-03     29.8456E-03    -15.0608E-03     50.4212E-03    -15.1781E-03     30.4837E-03    -14.9816E-03     50.4754E-03
             311     886.597E-06     58.3388E-03    -18.3867E+06    -74.3650E+06    -18.6721E+06    -424.334E+03    -15.0557E-03     30.1215E-03    -15.0658E-03     3.16327E-03    -15.0128E-03     29.8039E-03    -15.0246E-03     3.15725E-03
             312     1.77316E-03     58.3429E-03    -18.3920E+06    -73.3507E+06    -17.1410E+06    -330.027E+03    -15.0470E-03     30.1078E-03    -15.0608E-03     5.87672E-03    -15.0079E-03     29.7928E-03    -15.0135E-03     5.87144E-03
             313     2.65981E-03     58.3496E-03    -17.4776E+06    -71.1303E+06    -13.7276E+06     26.6303E+03    -15.0577E-03     30.1261E-03    -15.0684E-03     8.85676E-03    -15.0223E-03     29.8159E-03    -15.0086E-03     8.85550E-03
             314     3.54638E-03     58.3593E-03    -16.2164E+06    -68.1866E+06    -10.6047E+06    -26.9093E+03    -15.0870E-03     30.1648E-03    -15.0778E-03     11.9009E-03    -15.0542E-03     29.8631E-03    -15.0085E-03     11.8983E-03
             315     4.43293E-03     58.3718E-03    -14.8896E+06    -64.6180E+06    -7.74250E+06    -285.079E+03    -15.0907E-03     30.1761E-03    -15.0854E-03     15.0754E-03    -15.0608E-03     29.8864E-03    -15.0088E-03     15.0687E-03
             316     5.31957E-03     58.3874E-03    -13.3595E+06    -60.8540E+06    -4.40666E+06     189.004E+03    -15.0925E-03     30.1839E-03    -15.0914E-03     18.3087E-03    -15.0656E-03     29.9063E-03    -15.0058E-03     18.3073E-03
             317     6.20623E-03     58.4057E-03    -11.8440E+06    -58.8809E+06    -1.24948E+06     547.897E+03    -15.1483E-03     30.2480E-03    -15.0997E-03     21.5683E-03    -15.1218E-03     29.9741E-03    -15.0034E-03     21.5704E-03
             318     7.09283E-03     58.4274E-03    -10.7359E+06    -57.1500E+06     540.361E+03     466.062E+03    -15.2347E-03     30.3417E-03    -15.1070E-03     24.9161E-03    -15.2086E-03     30.0730E-03    -15.0059E-03     24.9157E-03
             319     7.97934E-03     58.4521E-03    -9.92991E+06    -53.9918E+06     1.74808E+06     130.145E+03    -15.2864E-03     30.3987E-03    -15.1123E-03     28.4666E-03    -15.2636E-03     30.1439E-03    -15.0109E-03     28.4603E-03
             320     8.86584E-03     58.4803E-03    -9.07654E+06    -53.1421E+06     1.83149E+06    -1.25704E+06    -15.3218E-03     30.4353E-03    -15.1135E-03     32.1884E-03    -15.2976E-03     30.1849E-03    -15.0141E-03     32.1622E-03
             321     9.75243E-03     58.5121E-03    -7.77783E+06    -49.2014E+06    -180.844E+03    -1.90562E+06    -15.3676E-03     30.4638E-03    -15.0962E-03     36.0672E-03    -15.3418E-03     30.2363E-03    -15.0145E-03     36.0301E-03
             322     10.6390E-03     58.5474E-03    -6.07862E+06    -41.2827E+06     577.852E+03    -1.30253E+06    -15.4507E-03     30.5366E-03    -15.0859E-03     40.0260E-03    -15.4324E-03     30.3485E-03    -15.0143E-03     39.9935E-03
             323     11.5255E-03     58.5863E-03    -4.95616E+06    -41.3673E+06    -861.399E+03    -707.857E+03    -15.5692E-03     30.6481E-03    -15.0790E-03     43.6846E-03    -15.5483E-03     30.4653E-03    -15.0161E-03     43.6554E-03
             324     12.4122E-03     58.6284E-03    -5.30788E+06    -38.8800E+06    -4.51863E+06    -199.150E+03    -15.6390E-03     30.6987E-03    -15.0597E-03     47.9038E-03    -15.6263E-03     30.5422E-03    -15.0182E-03     47.8767E-03
             325     13.2986E-03     58.6750E-03    -6.25216E+06    -26.2140E+06    -10.1744E+06    -605.347E+03    -15.6961E-03     30.7101E-03    -15.0140E-03     52.8920E-03    -15.7115E-03     30.6398E-03    -15.0178E-03     52.8552E-03
             326     14.1855E-03     58.7262E-03    -6.38192E+06    -1.38190E+06    -11.8185E+06     60.7034E+03    -15.7317E-03     30.6980E-03    -14.9663E-03     58.3797E-03    -15.8063E-03     30.7793E-03    -15.0141E-03     58.3484E-03
             327     15.0719E-03     58.7829E-03    -5.59946E+06     50.2407E+06    -5.60816E+06     961.991E+03    -15.6302E-03     30.5399E-03    -14.9098E-03     66.1773E-03    -15.8363E-03     30.9208E-03    -15.0026E-03     66.1661E-03
             328     15.9603E-03     58.8482E-03    -3.86599E+06     98.4834E+06     15.1365E+06    -364.577E+03    -15.5181E-03     30.4360E-03    -14.9179E-03     74.5754E-03    -15.9026E-03     31.1125E-03    -14.9794E-03     74.5999E-03
             329     16.8442E-03     58.9199E-03    -2.59142E+06     110.456E+06     46.7223E+06    -937.726E+03    -15.0147E-03     30.0465E-03    -15.0318E-03     50.0124E-03    -15.4050E-03     30.6842E-03    -14.9546E-03     50.0583E-03
             330     886.548E-06     59.3157E-03    -19.0516E+06    -74.0518E+06    -17.9598E+06     59.7019E+03    -15.0518E-03     30.1018E-03    -15.0500E-03     3.13533E-03    -15.0138E-03     29.7857E-03    -15.0048E-03     3.13556E-03
             331     1.77321E-03     59.3198E-03    -18.5304E+06    -73.2853E+06    -16.2715E+06     19.1189E+03    -15.0561E-03     30.1161E-03    -15.0599E-03     5.88799E-03    -15.0191E-03     29.8003E-03    -15.0082E-03     5.88720E-03
             332     2.65977E-03     59.3266E-03    -17.5569E+06    -71.4639E+06    -14.0284E+06    -32.9413E+03    -15.0879E-03     30.1586E-03    -15.0707E-03     8.86355E-03    -15.0519E-03     29.8473E-03    -15.0117E-03     8.86151E-03
             333     3.54634E-03     59.3363E-03    -16.1841E+06    -67.8104E+06    -11.0409E+06    -33.1783E+03    -15.0998E-03     30.1829E-03    -15.0832E-03     11.9252E-03    -15.0667E-03     29.8838E-03    -15.0166E-03     11.9225E-03
             334     4.43292E-03     59.3488E-03    -14.7488E+06    -64.3822E+06    -7.56398E+06    -271.212E+03    -15.0973E-03     30.1915E-03    -15.0942E-03     15.0600E-03    -15.0674E-03     29.9026E-03    -15.0173E-03     15.0535E-03
             335     5.31957E-03     59.3642E-03    -12.9792E+06    -61.5260E+06    -3.96946E+06    -233.301E+03    -15.1110E-03     30.2139E-03    -15.1030E-03     18.2730E-03    -15.0819E-03     29.9319E-03    -15.0148E-03     18.2661E-03
             336     6.20615E-03     59.3828E-03    -10.8786E+06    -59.3352E+06    -510.595E+03     335.359E+03    -15.1703E-03     30.2831E-03    -15.1128E-03     21.5436E-03    -15.1394E-03     30.0044E-03    -15.0136E-03     21.5429E-03
             337     7.09264E-03     59.4045E-03    -9.30360E+06    -57.4688E+06     1.75106E+06     959.166E+03    -15.2310E-03     30.3519E-03    -15.1209E-03     24.9298E-03    -15.1989E-03     30.0778E-03    -15.0154E-03     24.9358E-03
             338     7.97920E-03     59.4293E-03    -8.17883E+06    -52.9438E+06     2.10132E+06     495.944E+03    -15.2787E-03     30.3958E-03    -15.1170E-03     28.5454E-03    -15.2492E-03     30.1431E-03    -15.0179E-03     28.5439E-03
             339     8.86579E-03     59.4575E-03    -7.33262E+06    -51.0262E+06     1.94550E+06    -938.602E+03    -15.3208E-03     30.4343E-03    -15.1135E-03     32.2909E-03    -15.2911E-03     30.1918E-03    -15.0192E-03     32.2688E-03
             340     9.75240E-03     59.4891E-03    -7.13934E+06    -49.0952E+06     343.048E+03    -1.95540E+06    -15.3415E-03     30.4422E-03    -15.1007E-03     36.1537E-03    -15.3134E-03     30.2135E-03    -15.0174E-03     36.1161E-03
             341     10.6391E-03     59.5244E-03    -7.29219E+06    -42.1457E+06     433.967E+03    -1.54733E+06    -15.3916E-03     30.4789E-03    -15.0873E-03     40.1684E-03    -15.3779E-03     30.2884E-03    -15.0134E-03     40.1329E-03
             342     11.5258E-03     59.5635E-03    -7.85611E+06    -42.4592E+06    -1.38554E+06    -177.846E+03    -15.5025E-03     30.5794E-03    -15.0769E-03     43.7240E-03    -15.4938E-03     30.3961E-03    -15.0109E-03     43.7018E-03
             343     12.4123E-03     59.6053E-03    -7.71959E+06    -38.4021E+06    -4.10114E+06    -121.059E+03    -15.5855E-03     30.6418E-03    -15.0563E-03     47.8656E-03    -15.5861E-03     30.4906E-03    -15.0099E-03     47.8396E-03
             344     13.2991E-03     59.6521E-03    -6.38900E+06    -24.9443E+06    -9.12690E+06    -1.29874E+06    -15.6398E-03     30.6467E-03    -15.0069E-03     52.8402E-03    -15.6592E-03     30.5814E-03    -15.0071E-03     52.7945E-03
             345     14.1855E-03     59.7031E-03    -4.83312E+06    -3.17167E+06    -12.8593E+06    -1.47268E+06    -15.6319E-03     30.5785E-03    -14.9465E-03     58.2586E-03    -15.6945E-03     30.6499E-03    -14.9992E-03     58.2079E-03
             346     15.0728E-03     59.7598E-03    -3.55175E+06     49.8234E+06    -5.85757E+06    -347.067E+03    -15.6032E-03     30.4914E-03    -14.8882E-03     65.7813E-03    -15.7975E-03     30.8669E-03    -14.9846E-03     65.7533E-03
             347     15.9586E-03     59.8247E-03    -3.46327E+06     99.2546E+06     17.2150E+06     477.027E+03    -15.7119E-03     30.6267E-03    -14.9148E-03     74.0018E-03    -16.0986E-03     31.3035E-03    -14.9676E-03     74.0359E-03
             348     16.8486E-03     59.8978E-03    -3.01668E+06     110.312E+06     47.6434E+06     -81.938E+03    -15.2344E-03     30.2723E-03    -15.0379E-03     49.7116E-03    -15.6283E-03     30.9089E-03    -14.9553E-03     49.7675E-03
             349     886.649E-06     60.2925E-03    -19.3951E+06    -74.4397E+06    -18.6059E+06     374.801E+03    -15.0458E-03     30.0971E-03    -15.0513E-03     3.07366E-03    -15.0079E-03     29.7805E-03    -15.0083E-03     3.07796E-03
             350     1.77320E-03     60.2968E-03    -18.2454E+06    -73.0504E+06    -16.3121E+06     185.928E+03    -15.0865E-03     30.1504E-03    -15.0639E-03     5.89614E-03    -15.0483E-03     29.8355E-03    -15.0131E-03     5.89750E-03
             351     2.65974E-03     60.3036E-03    -17.1798E+06    -71.4452E+06    -13.7991E+06     3.18363E+03    -15.1014E-03     30.1838E-03    -15.0824E-03     8.86391E-03    -15.0639E-03     29.8717E-03    -15.0229E-03     8.86233E-03
             352     3.54631E-03     60.3133E-03    -15.9864E+06    -67.6527E+06    -10.8483E+06    -177.065E+03    -15.0988E-03     30.1923E-03    -15.0935E-03     11.9247E-03    -15.0653E-03     29.8934E-03    -15.0265E-03     11.9202E-03
             353     4.43291E-03     60.3258E-03    -14.4787E+06    -63.9631E+06    -7.12587E+06    -364.000E+03    -15.1229E-03     30.2283E-03    -15.1054E-03     15.0482E-03    -15.0928E-03     29.9405E-03    -15.0273E-03     15.0405E-03
             354     5.31941E-03     60.3413E-03    -12.8059E+06    -61.5654E+06    -3.56364E+06    -627.344E+03    -15.1526E-03     30.2712E-03    -15.1186E-03     18.2833E-03    -15.1231E-03     29.9881E-03    -15.0286E-03     18.2713E-03
             355     6.20597E-03     60.3599E-03    -11.0944E+06    -60.3646E+06    -1.14363E+06    -194.814E+03    -15.1495E-03     30.2744E-03    -15.1250E-03     21.5959E-03    -15.1172E-03     29.9919E-03    -15.0271E-03     21.5885E-03
             356     7.09267E-03     60.3815E-03    -8.97766E+06    -57.9520E+06     954.142E+03     457.774E+03    -15.1823E-03     30.3066E-03    -15.1243E-03     25.0249E-03    -15.1468E-03     30.0307E-03    -15.0225E-03     25.0246E-03
             357     7.97931E-03     60.4063E-03    -6.79533E+06    -51.7329E+06     3.26258E+06     68.0224E+03    -15.2559E-03     30.3768E-03    -15.1209E-03     28.5959E-03    -15.2229E-03     30.1265E-03    -15.0197E-03     28.5888E-03
             358     8.86590E-03     60.4345E-03    -5.24372E+06    -49.7007E+06     4.97945E+06    -745.391E+03    -15.3187E-03     30.4424E-03    -15.1237E-03     32.2215E-03    -15.2849E-03     30.1991E-03    -15.0191E-03     32.2019E-03
             359     9.75248E-03     60.4661E-03    -4.49467E+06    -48.5731E+06     4.35463E+06    -1.11854E+06    -15.3580E-03     30.4744E-03    -15.1164E-03     36.0250E-03    -15.3233E-03     30.2387E-03    -15.0177E-03     35.9980E-03
             360     10.6391E-03     60.5014E-03    -4.39913E+06    -43.4445E+06     4.31499E+06    -525.127E+03    -15.3789E-03     30.4832E-03    -15.1042E-03     40.0695E-03    -15.3545E-03     30.2764E-03    -15.0133E-03     40.0472E-03
             361     11.5256E-03     60.5406E-03    -3.93613E+06    -43.5688E+06     1.19100E+06     476.319E+03    -15.4702E-03     30.5531E-03    -15.0829E-03     43.6579E-03    -15.4439E-03     30.3548E-03    -15.0081E-03     43.6442E-03
             362     12.4124E-03     60.5824E-03      -3.629E+06    -36.6951E+06    -2.27293E+06    -169.395E+03    -15.5595E-03     30.6108E-03    -15.0513E-03     47.7802E-03    -15.5447E-03     30.4595E-03    -15.0042E-03     47.7536E-03
             363     13.2988E-03     60.6291E-03    -4.42523E+06    -23.6940E+06    -7.38840E+06    -1.57261E+06    -15.6232E-03     30.6268E-03    -15.0036E-03     52.7429E-03    -15.6371E-03     30.5624E-03    -14.9998E-03     52.6937E-03
             364     14.1859E-03     60.6800E-03    -6.37984E+06    -3.93345E+06    -12.9406E+06    -1.60433E+06    -15.6949E-03     30.6393E-03    -14.9444E-03     57.9721E-03    -15.7640E-03     30.7093E-03    -14.9941E-03     57.9194E-03
             365     15.0723E-03     60.7366E-03    -7.66588E+06     48.8620E+06    -6.21015E+06    -1.10486E+06    -15.8005E-03     30.6983E-03    -14.8978E-03     65.5480E-03    -16.0141E-03     31.0761E-03    -14.9885E-03     65.5093E-03
             366     15.9600E-03     60.8023E-03    -6.09578E+06     98.2580E+06     16.7252E+06    -452.786E+03    -15.8337E-03     30.7653E-03    -14.9316E-03     73.8151E-03    -16.2318E-03     31.4420E-03    -14.9816E-03     73.8363E-03
             367     16.8435E-03     60.8744E-03    -2.65036E+06     110.261E+06     47.1066E+06     156.429E+03    -15.0747E-03     30.1225E-03    -15.0478E-03     49.8332E-03    -15.4662E-03     30.7593E-03    -14.9683E-03     49.8924E-03
             368     886.572E-06     61.2696E-03    -19.2744E+06    -74.6937E+06    -19.3461E+06    -56.9160E+03    -15.0843E-03     30.1577E-03    -15.0734E-03     3.14012E-03    -15.0444E-03     29.8408E-03    -15.0339E-03     3.13883E-03
             369     1.77311E-03     61.2737E-03    -18.5847E+06    -72.8457E+06    -17.1014E+06    -130.415E+03    -15.0957E-03     30.1827E-03    -15.0870E-03     5.88909E-03    -15.0584E-03     29.8705E-03    -15.0399E-03     5.88638E-03
             370     2.65971E-03     61.2806E-03    -17.0177E+06    -71.2255E+06    -13.3018E+06    -314.428E+03    -15.0951E-03     30.1980E-03    -15.1029E-03     8.85676E-03    -15.0578E-03     29.8861E-03    -15.0415E-03     8.85110E-03
             371     3.54626E-03     61.2903E-03    -15.3793E+06    -67.5760E+06    -10.0644E+06    -264.848E+03    -15.1081E-03     30.2182E-03    -15.1101E-03     11.9193E-03    -15.0728E-03     29.9176E-03    -15.0402E-03     11.9136E-03
             372     4.43282E-03     61.3028E-03    -14.0367E+06    -63.6458E+06    -6.71577E+06    -345.151E+03    -15.1299E-03     30.2486E-03    -15.1186E-03     15.0908E-03    -15.0987E-03     29.9611E-03    -15.0396E-03     15.0834E-03
             373     5.31939E-03     61.3184E-03    -12.6951E+06    -61.1725E+06    -2.88300E+06    -573.835E+03    -15.1391E-03     30.2701E-03    -15.1310E-03     18.3221E-03    -15.1107E-03     29.9879E-03    -15.0383E-03     18.3108E-03
             374     6.20600E-03     61.3368E-03    -10.8865E+06    -60.7767E+06    -318.562E+03    -768.970E+03    -15.1527E-03     30.2896E-03    -15.1369E-03     21.6003E-03    -15.1200E-03     30.0035E-03    -15.0346E-03     21.5854E-03
             375     7.09263E-03     61.3585E-03    -8.41028E+06    -57.9873E+06     1.55058E+06    -999.248E+03    -15.1877E-03     30.3213E-03    -15.1335E-03     25.0163E-03    -15.1502E-03     30.0435E-03    -15.0295E-03     24.9971E-03
             376     7.97920E-03     61.3835E-03    -6.08518E+06    -51.5361E+06     4.08455E+06    -753.245E+03    -15.2361E-03     30.3650E-03    -15.1290E-03     28.5785E-03    -15.2010E-03     30.1135E-03    -15.0250E-03     28.5609E-03
             377     8.86575E-03     61.4116E-03    -5.16108E+06    -49.4434E+06     6.04824E+06    -255.607E+03    -15.3072E-03     30.4388E-03    -15.1317E-03     32.1987E-03    -15.2748E-03     30.1952E-03    -15.0223E-03     32.1854E-03
             378     9.75235E-03     61.4432E-03    -5.12804E+06    -48.1047E+06     4.94230E+06    -389.797E+03    -15.3620E-03     30.4844E-03    -15.1224E-03     35.9855E-03    -15.3321E-03     30.2511E-03    -15.0205E-03     35.9679E-03
             379     10.6390E-03     61.4784E-03    -4.42272E+06    -44.3186E+06     3.80248E+06    -441.265E+03    -15.3816E-03     30.4876E-03    -15.1060E-03     40.0267E-03    -15.3553E-03     30.2772E-03    -15.0163E-03     40.0054E-03
             380     11.5258E-03     61.5175E-03    -2.83569E+06    -43.6026E+06     732.549E+03    -645.953E+03    -15.4524E-03     30.5334E-03    -15.0811E-03     43.6852E-03    -15.4199E-03     30.3340E-03    -15.0101E-03     43.6571E-03
             381     12.4124E-03     61.5596E-03    -1.43234E+06    -36.2792E+06    -836.199E+03    -355.822E+03    -15.5635E-03     30.6191E-03    -15.0556E-03     47.6768E-03    -15.5405E-03     30.4646E-03    -15.0051E-03     47.6477E-03
             382     13.2993E-03     61.6059E-03    -2.44727E+06    -23.6529E+06    -3.44045E+06     780.656E+03    -15.6474E-03     30.6694E-03    -15.0220E-03     52.4924E-03    -15.6573E-03     30.5966E-03    -15.0014E-03     52.4735E-03
             383     14.1855E-03     61.6572E-03    -4.49454E+06    -2.95322E+06    -9.70799E+06     207.581E+03    -15.7961E-03     30.7577E-03    -14.9617E-03     57.9421E-03    -15.8621E-03     30.8255E-03    -14.9994E-03     57.9125E-03
             384     15.0722E-03     61.7136E-03    -5.10058E+06     48.7124E+06    -5.51985E+06    -953.782E+03    -15.8578E-03     30.7644E-03    -14.9067E-03     65.8402E-03    -16.0597E-03     31.1372E-03    -14.9975E-03     65.8034E-03
             385     15.9577E-03     61.7796E-03    -4.35302E+06     97.6673E+06     15.9767E+06    -1.06690E+06    -15.7009E-03     30.6322E-03    -14.9313E-03     74.2439E-03    -16.0882E-03     31.3044E-03    -14.9868E-03     74.2577E-03
             386     16.8481E-03     61.8513E-03    -2.45851E+06     110.104E+06     46.2217E+06    -267.370E+03    -14.9998E-03     30.0414E-03    -15.0416E-03     50.2703E-03    -15.3887E-03     30.6785E-03    -14.9666E-03     50.3247E-03
             387     886.511E-06     62.2466E-03    -19.1423E+06    -74.3706E+06    -18.9332E+06    -444.553E+03    -15.1507E-03     30.2313E-03    -15.0806E-03     3.18552E-03    -15.1112E-03     29.9152E-03    -15.0397E-03     3.17924E-03
             388     1.77308E-03     62.2508E-03    -18.4695E+06    -72.6732E+06    -16.8281E+06    -341.905E+03    -15.0990E-03     30.2166E-03    -15.1176E-03     5.90822E-03    -15.0618E-03     29.9047E-03    -15.0696E-03     5.90278E-03
             389     2.65961E-03     62.2577E-03    -17.5095E+06    -70.7219E+06    -13.3677E+06    -577.088E+03    -15.0945E-03     30.2172E-03    -15.1227E-03     8.87432E-03    -15.0604E-03     29.9086E-03    -15.0616E-03     8.86527E-03
             390     3.54621E-03     62.2673E-03    -15.8159E+06    -67.6369E+06    -10.3327E+06    -727.339E+03    -15.1105E-03     30.2357E-03    -15.1252E-03     11.9504E-03    -15.0769E-03     29.9358E-03    -15.0559E-03     11.9387E-03
             391     4.43277E-03     62.2799E-03    -13.7052E+06    -63.4815E+06    -6.19427E+06    -573.309E+03    -15.1147E-03     30.2467E-03    -15.1320E-03     15.0988E-03    -15.0828E-03     29.9588E-03    -15.0511E-03     15.0884E-03
             392     5.31938E-03     62.2954E-03    -11.7298E+06    -60.8647E+06    -1.57544E+06    -550.399E+03    -15.1255E-03     30.2681E-03    -15.1426E-03     18.2948E-03    -15.0946E-03     29.9840E-03    -15.0452E-03     18.2838E-03
             393     6.20598E-03     62.3139E-03    -10.1250E+06    -60.1935E+06     868.365E+03    -944.124E+03    -15.1768E-03     30.3239E-03    -15.1471E-03     21.5907E-03    -15.1429E-03     30.0379E-03    -15.0408E-03     21.5736E-03
             394     7.09245E-03     62.3356E-03    -9.40587E+06    -57.7743E+06     1.27737E+06    -1.21249E+06    -15.1931E-03     30.3339E-03    -15.1408E-03     25.0379E-03    -15.1605E-03     30.0591E-03    -15.0370E-03     25.0159E-03
             395     7.97914E-03     62.3604E-03    -9.59028E+06    -52.6416E+06     1.55301E+06    -380.786E+03    -15.1892E-03     30.3176E-03    -15.1284E-03     28.6515E-03    -15.1663E-03     30.0693E-03    -15.0304E-03     28.6388E-03
             396     8.86586E-03     62.3887E-03    -9.21897E+06    -49.5267E+06     3.14910E+06     298.023E+03    -15.2663E-03     30.3912E-03    -15.1249E-03     32.2923E-03    -15.2499E-03     30.1571E-03    -15.0240E-03     32.2862E-03
             397     9.75242E-03     62.4203E-03    -7.64297E+06    -46.9423E+06     3.64899E+06    -563.994E+03    -15.3640E-03     30.4828E-03    -15.1188E-03     35.9934E-03    -15.3465E-03     30.2609E-03    -15.0214E-03     35.9736E-03
             398     10.6391E-03     62.4554E-03    -5.76536E+06    -44.4003E+06     2.62028E+06    -1.41077E+06    -15.3965E-03     30.5009E-03    -15.1045E-03     39.9551E-03    -15.3750E-03     30.2938E-03    -15.0186E-03     39.9213E-03
             399     11.5255E-03     62.4945E-03    -4.78420E+06    -43.0540E+06    -285.099E+03    -1.53579E+06    -15.4478E-03     30.5289E-03    -15.0811E-03     43.7081E-03    -15.4244E-03     30.3365E-03    -15.0132E-03     43.6686E-03
             400     12.4123E-03     62.5365E-03    -4.61861E+06    -37.6648E+06    -2.90369E+06    -966.443E+03    -15.5730E-03     30.6286E-03    -15.0556E-03     47.7854E-03    -15.5609E-03     30.4748E-03    -15.0088E-03     47.7484E-03
             401     13.2985E-03     62.5832E-03    -3.23039E+06    -25.3968E+06    -5.96198E+06     698.987E+03    -15.6753E-03     30.6933E-03    -15.0179E-03     52.5533E-03    -15.6830E-03     30.6166E-03    -15.0062E-03     52.5332E-03
             402     14.1857E-03     62.6340E-03    -1.83516E+06    -647.644E+03    -9.70114E+06     592.920E+03    -15.7489E-03     30.7067E-03    -14.9578E-03     58.2168E-03    -15.8049E-03     30.7820E-03    -15.0027E-03     58.1923E-03
             403     15.0720E-03     62.6914E-03    -2.20085E+06     49.0547E+06    -6.09282E+06    -448.134E+03    -15.7060E-03     30.6014E-03    -14.8954E-03     65.9447E-03    -15.8926E-03     30.9720E-03    -14.9938E-03     65.9151E-03
             404     15.9604E-03     62.7560E-03    -2.78172E+06     97.4348E+06     17.8427E+06     102.182E+03    -15.7164E-03     30.6471E-03    -14.9307E-03     74.1362E-03    -16.0986E-03     31.3135E-03    -14.9787E-03     74.1652E-03
             405     16.8443E-03     62.8285E-03    -2.34883E+06     110.310E+06     48.8855E+06     408.079E+03    -15.0916E-03     30.1413E-03    -15.0497E-03     49.8809E-03    -15.4842E-03     30.7755E-03    -14.9618E-03     49.9434E-03
             406     886.526E-06     63.2237E-03    -20.1591E+06    -73.6562E+06    -19.3843E+06    -326.637E+03    -15.1363E-03     30.2395E-03    -15.1032E-03     3.17551E-03    -15.1023E-03     29.9291E-03    -15.0641E-03     3.17078E-03
             407     1.77302E-03     63.2279E-03    -19.3287E+06    -72.5694E+06    -17.5383E+06    -467.479E+03    -15.1080E-03     30.2318E-03    -15.1238E-03     5.94508E-03    -15.0742E-03     29.9227E-03    -15.0783E-03     5.93802E-03
             408     2.65962E-03     63.2347E-03    -18.0462E+06    -70.1238E+06    -13.9892E+06    -529.135E+03    -15.1108E-03     30.2411E-03    -15.1304E-03     8.91624E-03    -15.0793E-03     29.9372E-03    -15.0725E-03     8.90782E-03
             409     3.54614E-03     63.2444E-03    -16.6701E+06    -67.0880E+06    -10.3234E+06    -1.02145E+06    -15.1075E-03     30.2442E-03    -15.1367E-03     11.9856E-03    -15.0790E-03     29.9483E-03    -15.0669E-03     11.9702E-03
             410     4.43272E-03     63.2570E-03    -15.0948E+06    -63.6311E+06    -7.40836E+06    -1.07062E+06    -15.1036E-03     30.2402E-03    -15.1366E-03     15.1163E-03    -15.0767E-03     29.9553E-03    -15.0595E-03     15.0995E-03
             411     5.31932E-03     63.2725E-03    -13.1298E+06    -60.6696E+06    -3.33034E+06    -904.772E+03    -15.1229E-03     30.2650E-03    -15.1421E-03     18.3370E-03    -15.0967E-03     29.9865E-03    -15.0518E-03     18.3214E-03
             412     6.20587E-03     63.2910E-03    -11.2812E+06    -59.7597E+06    -131.747E+03    -877.807E+03    -15.1522E-03     30.2997E-03    -15.1475E-03     21.6405E-03    -15.1233E-03     30.0190E-03    -15.0452E-03     21.6242E-03
             413     7.09258E-03     63.3126E-03    -10.0981E+06    -58.2700E+06     1.39293E+06    -221.655E+03    -15.1846E-03     30.3299E-03    -15.1453E-03     25.0275E-03    -15.1548E-03     30.0534E-03    -15.0392E-03     25.0184E-03
             414     7.97917E-03     63.3374E-03    -8.96783E+06    -53.7015E+06     2.64849E+06     487.561E+03    -15.2120E-03     30.3491E-03    -15.1371E-03     28.5933E-03    -15.1860E-03     30.0930E-03    -15.0330E-03     28.5917E-03
             415     8.86577E-03     63.3657E-03    -7.15264E+06    -48.6164E+06     4.20110E+06    -124.367E+03    -15.2664E-03     30.3954E-03    -15.1290E-03     32.2830E-03    -15.2425E-03     30.1613E-03    -15.0271E-03     32.2715E-03
             416     9.75240E-03     63.3974E-03    -5.28057E+06    -45.4970E+06     4.30088E+06    -1.36203E+06    -15.3601E-03     30.4786E-03    -15.1185E-03     35.9716E-03    -15.3338E-03     30.2595E-03    -15.0233E-03     35.9415E-03
             417     10.6389E-03     63.4325E-03    -4.44342E+06    -44.2995E+06     2.64015E+06    -1.73171E+06    -15.4078E-03     30.5118E-03    -15.1041E-03     39.8826E-03    -15.3799E-03     30.3033E-03    -15.0202E-03     39.8445E-03
             418     11.5257E-03     63.4713E-03    -4.42892E+06    -43.3118E+06    -992.712E+03    -1.23307E+06    -15.4573E-03     30.5366E-03    -15.0793E-03     43.7494E-03    -15.4307E-03     30.3434E-03    -15.0151E-03     43.7138E-03
             419     12.4123E-03     63.5137E-03    -4.22221E+06    -37.8759E+06    -3.50991E+06    -1.21037E+06    -15.5491E-03     30.6023E-03    -15.0532E-03     47.8683E-03    -15.5338E-03     30.4477E-03    -15.0097E-03     47.8283E-03
             420     13.2993E-03     63.5601E-03    -3.75968E+06    -26.8929E+06    -9.05811E+06    -1.26739E+06    -15.6806E-03     30.6859E-03    -15.0053E-03     52.6398E-03    -15.6842E-03     30.6069E-03    -15.0061E-03     52.5944E-03
             421     14.1854E-03     63.6113E-03    -3.86855E+06    -817.851E+03    -10.4542E+06     152.691E+03    -15.6846E-03     30.6401E-03    -14.9555E-03     58.1612E-03    -15.7492E-03     30.7184E-03    -15.0010E-03     58.1313E-03
             422     15.0727E-03     63.6680E-03    -4.78978E+06     49.8905E+06    -4.81060E+06     600.943E+03    -15.6710E-03     30.5717E-03    -14.9007E-03     65.7059E-03    -15.8732E-03     30.9479E-03    -14.9902E-03     65.6898E-03
             423     15.9582E-03     63.7331E-03    -4.57055E+06     96.8599E+06     16.0104E+06     507.311E+03    -15.7821E-03     30.7051E-03    -14.9230E-03     74.2077E-03    -16.1699E-03     31.3742E-03    -14.9768E-03     74.2419E-03
             424     16.8473E-03     63.8064E-03    -2.20625E+06     110.450E+06     48.3409E+06     938.221E+03    -15.0575E-03     30.1030E-03    -15.0455E-03     49.8745E-03    -15.4490E-03     30.7387E-03    -14.9608E-03     49.9441E-03
             425     886.529E-06     64.2008E-03    -19.5315E+06    -73.2050E+06    -18.9186E+06    -35.4905E+03    -15.1032E-03     30.2310E-03    -15.1277E-03     3.15440E-03    -15.0674E-03     29.9212E-03    -15.0878E-03     3.15342E-03
             426     1.77311E-03     64.2049E-03    -18.8879E+06    -71.9393E+06    -16.9820E+06    -542.440E+03    -15.1186E-03     30.2412E-03    -15.1226E-03     5.94526E-03    -15.0843E-03     29.9338E-03    -15.0758E-03     5.93723E-03
             427     2.65958E-03     64.2118E-03    -17.6990E+06    -69.9052E+06    -14.2581E+06    -762.313E+03    -15.1195E-03     30.2493E-03    -15.1298E-03     8.93418E-03    -15.0862E-03     29.9464E-03    -15.0741E-03     8.92275E-03
             428     3.54615E-03     64.2215E-03    -16.3643E+06    -66.2625E+06    -10.4907E+06    -780.406E+03    -15.1070E-03     30.2434E-03    -15.1363E-03     12.0024E-03    -15.0780E-03     29.9514E-03    -15.0690E-03     11.9901E-03
             429     4.43274E-03     64.2340E-03    -15.1285E+06    -63.6319E+06    -7.28620E+06    -985.208E+03    -15.1102E-03     30.2496E-03    -15.1394E-03     15.1380E-03    -15.0836E-03     29.9646E-03    -15.0616E-03     15.1222E-03
             430     5.31931E-03     64.2496E-03    -13.9541E+06    -60.5523E+06    -3.92539E+06    -916.943E+03    -15.1113E-03     30.2533E-03    -15.1419E-03     18.3661E-03    -15.0886E-03     29.9774E-03    -15.0535E-03     18.3504E-03
             431     6.20597E-03     64.2680E-03    -12.6086E+06    -59.6587E+06    -955.769E+03    -852.264E+03    -15.1439E-03     30.2897E-03    -15.1458E-03     21.6463E-03    -15.1206E-03     30.0126E-03    -15.0458E-03     21.6303E-03
             432     7.09250E-03     64.2896E-03    -10.7902E+06    -59.5858E+06     544.464E+03    -222.335E+03    -15.2006E-03     30.3460E-03    -15.1453E-03     25.0050E-03    -15.1712E-03     30.0651E-03    -15.0406E-03     24.9958E-03
             433     7.97907E-03     64.3145E-03    -8.84433E+06    -53.5495E+06     1.43826E+06     58.9778E+03    -15.2262E-03     30.3598E-03    -15.1335E-03     28.5985E-03    -15.1982E-03     30.1060E-03    -15.0359E-03     28.5914E-03
             434     8.86570E-03     64.3427E-03    -7.15855E+06    -46.9765E+06     2.21148E+06    -1.04504E+06    -15.2435E-03     30.3622E-03    -15.1186E-03     32.4010E-03    -15.2192E-03     30.1392E-03    -15.0291E-03     32.3777E-03
             435     9.75232E-03     64.3746E-03    -6.46282E+06    -45.1730E+06     1.66235E+06    -1.35538E+06    -15.3071E-03     30.4119E-03    -15.1048E-03     36.1267E-03    -15.2833E-03     30.2000E-03    -15.0216E-03     36.0968E-03
             436     10.6391E-03     64.4095E-03    -6.74981E+06    -44.2842E+06     1.07886E+06    -958.498E+03    -15.4100E-03     30.5061E-03    -15.0961E-03     39.9393E-03    -15.3915E-03     30.3033E-03    -15.0167E-03     39.9112E-03
             437     11.5255E-03     64.4484E-03    -6.57746E+06    -43.2791E+06    -1.81976E+06    -1.35192E+06    -15.4870E-03     30.5640E-03    -15.0769E-03     43.7609E-03    -15.4700E-03     30.3752E-03    -15.0137E-03     43.7237E-03
             438     12.4123E-03     64.4906E-03    -6.07531E+06    -37.4855E+06    -3.20277E+06    -1.57914E+06    -15.5469E-03     30.6042E-03    -15.0573E-03     47.8617E-03    -15.5418E-03     30.4538E-03    -15.0102E-03     47.8169E-03
             439     13.2986E-03     64.5372E-03    -6.21822E+06    -27.0255E+06    -9.63253E+06    -1.60355E+06    -15.6627E-03     30.6694E-03    -15.0067E-03     52.6209E-03    -15.6776E-03     30.5942E-03    -15.0066E-03     52.5712E-03
             440     14.1857E-03     64.5883E-03    -5.89678E+06    -3.00467E+06    -11.9631E+06    -791.076E+03    -15.7331E-03     30.6893E-03    -14.9562E-03     57.9769E-03    -15.8026E-03     30.7619E-03    -15.0031E-03     57.9346E-03
             441     15.0721E-03     64.6448E-03    -4.93408E+06     49.7116E+06    -5.33694E+06     827.457E+03    -15.7431E-03     30.6475E-03    -14.9044E-03     65.6655E-03    -15.9453E-03     31.0242E-03    -14.9960E-03     65.6520E-03
             442     15.9599E-03     64.7108E-03    -4.84234E+06     96.7899E+06     13.1774E+06     1.02287E+06    -15.7462E-03     30.6622E-03    -14.9161E-03     74.0755E-03    -16.1306E-03     31.3349E-03    -14.9835E-03     74.1167E-03
             443     16.8451E-03     64.7824E-03    -3.99173E+06     110.344E+06     44.5558E+06     632.842E+03    -14.9777E-03     30.0109E-03    -15.0332E-03     49.2823E-03    -15.3715E-03     30.6531E-03    -14.9646E-03     49.3482E-03
             444     886.536E-06     65.1778E-03    -17.7733E+06    -73.1846E+06    -17.4284E+06     49.2706E+03    -15.1184E-03     30.2472E-03    -15.1289E-03     3.14815E-03    -15.0760E-03     29.9328E-03    -15.0841E-03     3.14824E-03
             445     1.77303E-03     65.1820E-03    -17.4397E+06    -71.0954E+06    -15.7873E+06    -229.614E+03    -15.1158E-03     30.2416E-03    -15.1258E-03     5.94916E-03    -15.0772E-03     29.9345E-03    -15.0763E-03     5.94517E-03
             446     2.65961E-03     65.1889E-03    -16.9829E+06    -69.5061E+06    -13.5823E+06    -634.297E+03    -15.1143E-03     30.2436E-03    -15.1293E-03     8.93034E-03    -15.0789E-03     29.9406E-03    -15.0718E-03     8.92055E-03
             447     3.54619E-03     65.1985E-03    -15.9799E+06    -66.1661E+06    -10.9039E+06    -635.495E+03    -15.1104E-03     30.2414E-03    -15.1310E-03     11.9903E-03    -15.0790E-03     29.9499E-03    -15.0664E-03     11.9798E-03
             448     4.43272E-03     65.2111E-03    -14.7063E+06    -63.1423E+06    -7.10760E+06    -666.041E+03    -15.1115E-03     30.2486E-03    -15.1370E-03     15.1330E-03    -15.0838E-03     29.9651E-03    -15.0597E-03     15.1214E-03
             449     5.31933E-03     65.2265E-03    -13.2871E+06    -60.7791E+06    -3.59699E+06    -603.912E+03    -15.1212E-03     30.2630E-03    -15.1419E-03     18.3438E-03    -15.0952E-03     29.9846E-03    -15.0524E-03     18.3322E-03
             450     6.20591E-03     65.2451E-03    -12.2096E+06    -59.6844E+06    -1.41646E+06    -234.316E+03    -15.1438E-03     30.2862E-03    -15.1424E-03     21.6590E-03    -15.1177E-03     30.0090E-03    -15.0452E-03     21.6511E-03
             451     7.09249E-03     65.2667E-03    -11.3341E+06    -59.7690E+06    -1.38809E+06    -547.600E+03    -15.1775E-03     30.3121E-03    -15.1346E-03     25.0809E-03    -15.1477E-03     30.0339E-03    -15.0384E-03     25.0676E-03
             452     7.97915E-03     65.2915E-03    -9.62862E+06    -53.0601E+06    -547.524E+03    -1.04019E+06    -15.1904E-03     30.3092E-03    -15.1188E-03     28.7119E-03    -15.1640E-03     30.0619E-03    -15.0306E-03     28.6907E-03
             453     8.86580E-03     65.3198E-03    -8.45915E+06    -46.1843E+06     1.63600E+06    -981.000E+03    -15.2143E-03     30.3231E-03    -15.1088E-03     32.4652E-03    -15.1967E-03     30.1068E-03    -15.0214E-03     32.4428E-03
             454     9.75258E-03     65.3514E-03    -8.40728E+06    -45.9252E+06     894.837E+03    -461.023E+03    -15.3007E-03     30.3975E-03    -15.0968E-03     36.1502E-03    -15.2844E-03     30.1857E-03    -15.0135E-03     36.1319E-03
             455     10.6391E-03     65.3867E-03    -8.00960E+06    -43.8422E+06     608.657E+03    -404.410E+03    -15.4223E-03     30.5105E-03    -15.0882E-03     39.9621E-03    -15.4100E-03     30.3124E-03    -15.0100E-03     39.9411E-03
             456     11.5258E-03     65.4255E-03    -7.67196E+06    -42.1328E+06    -1.24197E+06    -1.30214E+06    -15.5192E-03     30.5950E-03    -15.0758E-03     43.7384E-03    -15.5102E-03     30.4128E-03    -15.0098E-03     43.7017E-03
             457     12.4122E-03     65.4676E-03    -7.49631E+06    -37.6395E+06    -3.85402E+06    -1.76150E+06    -15.5733E-03     30.6286E-03    -15.0553E-03     47.9164E-03    -15.5742E-03     30.4805E-03    -15.0091E-03     47.8693E-03
             458     13.2992E-03     65.5143E-03    -7.12350E+06    -26.5272E+06    -10.5465E+06    -1.81840E+06    -15.6809E-03     30.6843E-03    -15.0034E-03     52.7194E-03    -15.6997E-03     30.6142E-03    -15.0073E-03     52.6669E-03
             459     14.1853E-03     65.5653E-03    -6.94707E+06    -4.16195E+06    -15.0223E+06    -1.91907E+06    -15.8272E-03     30.7753E-03    -14.9481E-03     58.0987E-03    -15.8962E-03     30.8484E-03    -15.0071E-03     58.0416E-03
             460     15.0722E-03     65.6221E-03    -6.46039E+06     47.3901E+06    -8.82123E+06    -404.744E+03    -15.8516E-03     30.7538E-03    -14.9022E-03     65.6303E-03    -16.0534E-03     31.1265E-03    -15.0057E-03     65.6005E-03
             461     15.9581E-03     65.6872E-03    -4.88251E+06     96.8756E+06     11.9772E+06     1.28799E+06    -15.7124E-03     30.6338E-03    -14.9214E-03     74.0021E-03    -16.0953E-03     31.3085E-03    -14.9949E-03     74.0467E-03
             462     16.8464E-03     65.7606E-03    -2.37682E+06     111.111E+06     44.1769E+06     660.077E+03    -14.8290E-03     29.8627E-03    -15.0337E-03     49.3854E-03    -15.2150E-03     30.5065E-03    -14.9704E-03     49.4521E-03
             463     886.514E-06     66.1550E-03    -17.9535E+06    -72.9904E+06    -18.1245E+06    -246.244E+03    -15.1042E-03     30.2473E-03    -15.1431E-03     3.13238E-03    -15.0620E-03     29.9352E-03    -15.1018E-03     3.12866E-03
             464     1.77309E-03     66.1591E-03    -17.4647E+06    -70.8426E+06    -16.2753E+06    -125.562E+03    -15.1077E-03     30.2306E-03    -15.1229E-03     5.93448E-03    -15.0689E-03     29.9255E-03    -15.0762E-03     5.93184E-03
             465     2.65964E-03     66.1660E-03    -16.5722E+06    -69.0013E+06    -13.1549E+06    -194.604E+03    -15.1067E-03     30.2338E-03    -15.1271E-03     8.92403E-03    -15.0707E-03     29.9321E-03    -15.0688E-03     8.91992E-03
             466     3.54613E-03     66.1756E-03    -15.6797E+06    -66.0973E+06    -10.2973E+06    -436.555E+03    -15.1089E-03     30.2386E-03    -15.1297E-03     11.9857E-03    -15.0769E-03     29.9462E-03    -15.0626E-03     11.9778E-03
             467     4.43278E-03     66.1881E-03    -14.4342E+06    -62.7511E+06    -7.29464E+06    -579.209E+03    -15.1107E-03     30.2425E-03    -15.1318E-03     15.1361E-03    -15.0819E-03     29.9609E-03    -15.0563E-03     15.1256E-03
             468     5.31933E-03     66.2037E-03    -12.8635E+06    -60.9621E+06    -3.72953E+06    -590.501E+03    -15.1198E-03     30.2573E-03    -15.1376E-03     18.3543E-03    -15.0913E-03     29.9775E-03    -15.0492E-03     18.3428E-03
             469     6.20592E-03     66.2221E-03    -10.8065E+06    -60.0041E+06    -1.16245E+06    -344.255E+03    -15.1210E-03     30.2580E-03    -15.1370E-03     21.6815E-03    -15.0879E-03     29.9768E-03    -15.0401E-03     21.6721E-03
             470     7.09265E-03     66.2437E-03     -8.8784E+06    -58.8192E+06     288.854E+03    -520.095E+03    -15.1456E-03     30.2747E-03    -15.1291E-03     25.0925E-03    -15.1073E-03     29.9953E-03    -15.0295E-03     25.0795E-03
             471     7.97925E-03     66.2685E-03    -8.18212E+06    -52.5503E+06     1.18083E+06    -1.15540E+06    -15.1906E-03     30.3047E-03    -15.1141E-03     28.6818E-03    -15.1602E-03     30.0553E-03    -15.0202E-03     28.6591E-03
             472     8.86597E-03     66.2967E-03    -7.55202E+06    -47.1756E+06     3.21941E+06    -528.814E+03    -15.2595E-03     30.3687E-03    -15.1093E-03     32.3832E-03    -15.2383E-03     30.1439E-03    -15.0138E-03     32.3666E-03
             473     9.75247E-03     66.3285E-03    -6.50955E+06    -46.1774E+06     3.64009E+06     146.039E+03    -15.3384E-03     30.4432E-03    -15.1048E-03     36.0477E-03    -15.3163E-03     30.2234E-03    -15.0102E-03     36.0371E-03
             474     10.6392E-03     66.3637E-03    -5.52421E+06    -42.7902E+06     2.66395E+06    -602.589E+03    -15.4201E-03     30.5115E-03    -15.0914E-03     39.9375E-03    -15.4000E-03     30.3121E-03    -15.0080E-03     39.9140E-03
             475     11.5257E-03     66.4026E-03    -4.81536E+06    -41.7815E+06     225.387E+03    -786.208E+03    -15.5314E-03     30.6078E-03    -15.0763E-03     43.6624E-03    -15.5109E-03     30.4211E-03    -15.0076E-03     43.6323E-03
             476     12.4123E-03     66.4447E-03    -5.01606E+06    -36.7538E+06    -2.17650E+06    -1.25147E+06    -15.5990E-03     30.6566E-03    -15.0576E-03     47.8035E-03    -15.5913E-03     30.5069E-03    -15.0079E-03     47.7628E-03
             477     13.2987E-03     66.4913E-03    -5.55024E+06    -26.3331E+06    -8.56351E+06    -1.94660E+06    -15.7010E-03     30.7117E-03    -15.0108E-03     52.7333E-03    -15.7152E-03     30.6376E-03    -15.0074E-03     52.6791E-03
             478     14.1856E-03     66.5426E-03    -6.75040E+06    -4.71487E+06    -13.5902E+06    -1.24558E+06    -15.8238E-03     30.7798E-03    -14.9561E-03     58.2337E-03    -15.8931E-03     30.8479E-03    -15.0074E-03     58.1853E-03
             479     15.0719E-03     66.5992E-03    -7.98517E+06     45.9195E+06    -8.67169E+06    -703.980E+03    -15.8175E-03     30.7237E-03    -14.9062E-03     65.9613E-03    -16.0253E-03     31.0914E-03    -15.0046E-03     65.9279E-03
             480     15.9591E-03     66.6648E-03    -6.15472E+06     95.7836E+06     11.5224E+06    -713.863E+03    -15.5322E-03     30.4476E-03    -14.9154E-03     74.3046E-03    -15.9194E-03     31.1195E-03    -14.9877E-03     74.3248E-03
             481     16.8456E-03     66.7361E-03    -2.31405E+06     111.739E+06     44.4015E+06    -227.800E+03    -14.8233E-03     29.8450E-03    -15.0217E-03     49.7882E-03    -15.2105E-03     30.4919E-03    -14.9583E-03     49.8442E-03
             482     886.535E-06     67.1320E-03    -18.5499E+06    -72.2851E+06    -18.2844E+06    -515.881E+03    -15.0996E-03     30.2455E-03    -15.1459E-03     3.12070E-03    -15.0612E-03     29.9380E-03    -15.1056E-03     3.11350E-03
             483     1.77304E-03     67.1362E-03    -17.8128E+06    -70.8327E+06    -17.1116E+06    -579.602E+03    -15.1012E-03     30.2204E-03    -15.1192E-03     5.91999E-03    -15.0629E-03     29.9171E-03    -15.0762E-03     5.91149E-03
             484     2.65960E-03     67.1430E-03    -16.7097E+06    -69.0324E+06    -13.6495E+06    -250.019E+03    -15.0934E-03     30.2150E-03    -15.1217E-03     8.92652E-03    -15.0572E-03     29.9141E-03    -15.0656E-03     8.92171E-03
             485     3.54625E-03     67.1527E-03    -15.3296E+06    -65.6401E+06    -9.79891E+06    -255.157E+03    -15.1046E-03     30.2308E-03    -15.1262E-03     11.9918E-03    -15.0723E-03     29.9394E-03    -15.0578E-03     11.9863E-03
             486     4.43274E-03     67.1652E-03    -13.8466E+06    -62.4387E+06    -6.40130E+06    -639.506E+03    -15.1086E-03     30.2388E-03    -15.1302E-03     15.1219E-03    -15.0786E-03     29.9566E-03    -15.0516E-03     15.1107E-03
             487     5.31937E-03     67.1807E-03    -12.1259E+06    -60.7865E+06    -2.73314E+06    -825.980E+03    -15.0917E-03     30.2264E-03    -15.1347E-03     18.3376E-03    -15.0612E-03     29.9450E-03    -15.0427E-03     18.3231E-03
             488     6.20604E-03     67.1991E-03    -10.3105E+06    -59.8973E+06    -378.014E+03    -1.09064E+06    -15.1110E-03     30.2424E-03    -15.1314E-03     21.6613E-03    -15.0767E-03     29.9599E-03    -15.0315E-03     21.6423E-03
             489     7.09262E-03     67.2207E-03    -8.40798E+06    -58.5100E+06     1.40964E+06    -1.13634E+06    -15.1654E-03     30.2919E-03    -15.1265E-03     25.0580E-03    -15.1269E-03     30.0117E-03    -15.0224E-03     25.0370E-03
             490     7.97934E-03     67.2455E-03    -6.95381E+06    -52.7346E+06     3.09643E+06    -393.802E+03    -15.2332E-03     30.3524E-03    -15.1192E-03     28.6070E-03    -15.1993E-03     30.0976E-03    -15.0172E-03     28.5940E-03
             491     8.86584E-03     67.2738E-03    -6.55523E+06    -48.0296E+06     3.69242E+06     61.1341E+03    -15.2920E-03     30.4042E-03    -15.1122E-03     32.3223E-03    -15.2652E-03     30.1729E-03    -15.0146E-03     32.3132E-03
             492     9.75250E-03     67.3056E-03    -5.56505E+06    -45.4840E+06     4.03419E+06    -452.587E+03    -15.3442E-03     30.4507E-03    -15.1065E-03     36.0432E-03    -15.3189E-03     30.2325E-03    -15.0123E-03     36.0249E-03
             493     10.6391E-03     67.3407E-03    -3.98774E+06    -41.9950E+06     4.03581E+06    -1.02235E+06    -15.4112E-03     30.5076E-03    -15.0964E-03     39.9610E-03    -15.3864E-03     30.3079E-03    -15.0095E-03     39.9321E-03
             494     11.5258E-03     67.3798E-03    -3.00777E+06    -42.2127E+06     292.655E+03    -983.109E+03    -15.5128E-03     30.5873E-03    -15.0744E-03     43.7115E-03    -15.4827E-03     30.3958E-03    -15.0074E-03     43.6789E-03
             495     12.4123E-03     67.4217E-03    -2.72797E+06    -36.2468E+06    -1.30086E+06    -439.241E+03    -15.6031E-03     30.6595E-03    -15.0564E-03     47.8419E-03    -15.5861E-03     30.5078E-03    -15.0064E-03     47.8117E-03
             496     13.2991E-03     67.4684E-03    -4.17396E+06    -25.8429E+06    -7.55197E+06    -473.675E+03    -15.6923E-03     30.7033E-03    -15.0109E-03     52.8358E-03    -15.7019E-03     30.6282E-03    -15.0052E-03     52.8006E-03
             497     14.1854E-03     67.5196E-03    -5.16788E+06    -5.25487E+06    -13.5551E+06    -834.362E+03    -15.7448E-03     30.6941E-03    -14.9494E-03     58.3617E-03    -15.8054E-03     30.7571E-03    -15.0020E-03     58.3189E-03
             498     15.0724E-03     67.5765E-03    -4.29537E+06     46.0734E+06    -6.83184E+06    -988.713E+03    -15.6213E-03     30.5174E-03    -14.8961E-03     65.8886E-03    -15.8129E-03     30.8771E-03    -14.9908E-03     65.8525E-03
             499     15.9592E-03     67.6413E-03    -4.51973E+06     95.7634E+06     13.9841E+06    -915.043E+03    -15.5378E-03     30.4445E-03    -14.9068E-03     73.8834E-03    -15.9193E-03     31.1094E-03    -14.9691E-03     73.9010E-03
             500     16.8472E-03     67.7131E-03    -4.26012E+06     111.118E+06     44.2595E+06    -622.733E+03    -15.0480E-03     30.0618E-03    -15.0138E-03     49.7149E-03    -15.4440E-03     30.7088E-03    -14.9474E-03     49.7648E-03
             501     886.490E-06     68.1091E-03    -18.2804E+06    -71.5167E+06    -17.7989E+06    -234.466E+03    -15.1070E-03     30.2188E-03    -15.1118E-03     3.10398E-03    -15.0690E-03     29.9140E-03    -15.0706E-03     3.10040E-03
             502     1.77309E-03     68.1132E-03    -18.1813E+06    -70.4181E+06    -16.6418E+06    -629.474E+03    -15.1048E-03     30.2167E-03    -15.1119E-03     5.94241E-03    -15.0696E-03     29.9153E-03    -15.0667E-03     5.93326E-03
             503     2.65967E-03     68.1200E-03    -17.1199E+06    -69.0387E+06    -14.0006E+06    -747.522E+03    -15.1001E-03     30.2172E-03    -15.1170E-03     8.91145E-03    -15.0656E-03     29.9173E-03    -15.0621E-03     8.90021E-03
             504     3.54617E-03     68.1297E-03    -15.3489E+06    -65.4641E+06    -10.2709E+06    -641.485E+03    -15.0851E-03     30.2051E-03    -15.1201E-03     11.9929E-03    -15.0524E-03     29.9154E-03    -15.0542E-03     11.9824E-03
             505     4.43281E-03     68.1423E-03    -13.7540E+06    -61.9630E+06    -6.36272E+06    -610.586E+03    -15.0756E-03     30.1972E-03    -15.1216E-03     15.1254E-03    -15.0459E-03     29.9171E-03    -15.0436E-03     15.1145E-03
             506     5.31941E-03     68.1576E-03    -12.3973E+06    -60.4831E+06    -2.61837E+06    -859.637E+03    -15.0897E-03     30.2153E-03    -15.1255E-03     18.3367E-03    -15.0612E-03     29.9356E-03    -15.0330E-03     18.3218E-03
             507     6.20605E-03     68.1761E-03    -11.2476E+06    -59.4815E+06    -705.305E+03    -967.455E+03    -15.1358E-03     30.2600E-03    -15.1242E-03     21.6450E-03    -15.1063E-03     29.9814E-03    -15.0252E-03     21.6276E-03
             508     7.09272E-03     68.1977E-03    -10.4639E+06    -58.2400E+06     252.731E+03    -1.24355E+06    -15.2027E-03     30.3252E-03    -15.1225E-03     25.0411E-03    -15.1731E-03     30.0510E-03    -15.0216E-03     25.0187E-03
             509     7.97918E-03     68.2226E-03    -8.87698E+06    -53.7863E+06     1.40855E+06    -1.05803E+06    -15.2403E-03     30.3581E-03    -15.1178E-03     28.6339E-03    -15.2120E-03     30.1033E-03    -15.0199E-03     28.6124E-03
             510     8.86585E-03     68.2509E-03    -6.29325E+06    -48.2279E+06     3.00644E+06    -322.209E+03    -15.2603E-03     30.3704E-03    -15.1101E-03     32.3650E-03    -15.2309E-03     30.1388E-03    -15.0160E-03     32.3510E-03
             511     9.75247E-03     68.2826E-03    -4.67731E+06    -44.0642E+06     3.87165E+06    -903.757E+03    -15.3162E-03     30.4168E-03    -15.1006E-03     36.1563E-03    -15.2883E-03     30.2046E-03    -15.0105E-03     36.1322E-03
             512     10.6391E-03     68.3179E-03    -4.17474E+06    -42.2430E+06     2.95625E+06    -1.23428E+06    -15.3884E-03     30.4759E-03    -15.0875E-03     40.0737E-03    -15.3627E-03     30.2768E-03    -15.0054E-03     40.0421E-03
             513     11.5257E-03     68.3566E-03    -4.58411E+06    -42.5729E+06    -1.56303E+06    -560.542E+03    -15.4779E-03     30.5398E-03    -15.0619E-03     43.8523E-03    -15.4524E-03     30.3514E-03    -15.0013E-03     43.8253E-03
             514     12.4124E-03     68.3989E-03    -5.16316E+06    -36.5427E+06    -2.74509E+06    -366.427E+03    -15.5844E-03     30.6302E-03    -15.0458E-03     47.9572E-03    -15.5770E-03     30.4827E-03    -14.9991E-03     47.9280E-03
             515     13.2989E-03     68.4453E-03    -3.97484E+06    -25.3636E+06    -7.02262E+06    -425.215E+03    -15.6868E-03     30.6921E-03    -15.0052E-03     52.8489E-03    -15.6970E-03     30.6184E-03    -14.9978E-03     52.8143E-03
             516     14.1858E-03     68.4968E-03    -2.94164E+06    -4.03018E+06    -12.2697E+06    -1.59924E+06    -15.7092E-03     30.6516E-03    -14.9425E-03     58.2891E-03    -15.7622E-03     30.7155E-03    -14.9937E-03     58.2366E-03
             517     15.0724E-03     68.5531E-03    -3.55405E+06     44.4923E+06    -6.70916E+06    -1.01211E+06    -15.6218E-03     30.5109E-03    -14.8890E-03     65.5239E-03    -15.8069E-03     30.8607E-03    -14.9819E-03     65.4875E-03
             518     15.9597E-03     68.6183E-03    -3.57912E+06     95.9868E+06     15.7290E+06     382.898E+03    -15.6918E-03     30.6016E-03    -14.9098E-03     73.7780E-03    -16.0714E-03     31.2636E-03    -14.9651E-03     73.8109E-03
             519     16.8454E-03     68.6903E-03    -1.84649E+06     111.706E+06     47.4523E+06    -332.821E+03    -15.1176E-03     30.1448E-03    -15.0273E-03     49.6963E-03    -15.5074E-03     30.7870E-03    -14.9493E-03     49.7489E-03
             520     886.637E-06     69.0862E-03    -18.7344E+06    -71.3526E+06    -18.0833E+06     80.7717E+03    -15.0588E-03     30.1774E-03    -15.1186E-03     3.11847E-03    -15.0229E-03     29.8745E-03    -15.0784E-03     3.11899E-03
             521     1.77311E-03     69.0903E-03    -18.1454E+06    -69.6686E+06    -15.5032E+06    -129.989E+03    -15.1153E-03     30.2190E-03    -15.1038E-03     5.91068E-03    -15.0827E-03     29.9197E-03    -15.0540E-03     5.90799E-03
             522     2.65960E-03     69.0971E-03    -17.2672E+06    -68.3629E+06    -13.2725E+06    -854.982E+03    -15.0978E-03     30.2124E-03    -15.1146E-03     8.90750E-03    -15.0660E-03     29.9151E-03    -15.0568E-03     8.89488E-03
             523     3.54623E-03     69.1068E-03    -16.1336E+06    -65.4834E+06    -11.0718E+06    -1.04010E+06    -15.0560E-03     30.1665E-03    -15.1105E-03     11.9815E-03    -15.0261E-03     29.8789E-03    -15.0475E-03     11.9659E-03
             524     4.43287E-03     69.1192E-03    -14.5329E+06    -61.8733E+06    -7.55399E+06    -760.647E+03    -15.0477E-03     30.1536E-03    -15.1059E-03     15.1230E-03    -15.0203E-03     29.8769E-03    -15.0329E-03     15.1103E-03
             525     5.31953E-03     69.1347E-03    -12.8336E+06    -60.0085E+06    -3.35508E+06    -763.581E+03    -15.1081E-03     30.2202E-03    -15.1121E-03     18.3412E-03    -15.0814E-03     29.9447E-03    -15.0233E-03     18.3275E-03
             526     6.20608E-03     69.1531E-03    -11.3771E+06    -59.7774E+06    -1.07943E+06    -558.746E+03    -15.1767E-03     30.2956E-03    -15.1189E-03     21.6570E-03    -15.1468E-03     30.0163E-03    -15.0211E-03     21.6448E-03
             527     7.09258E-03     69.1748E-03    -10.3468E+06    -57.4334E+06    -78.7291E+03    -546.032E+03    -15.2020E-03     30.3206E-03    -15.1187E-03     25.0825E-03    -15.1725E-03     30.0508E-03    -15.0208E-03     25.0692E-03
             528     7.97926E-03     69.1996E-03    -9.58070E+06    -53.3023E+06     135.872E+03    -1.66230E+06    -15.1991E-03     30.3079E-03    -15.1088E-03     28.6965E-03    -15.1732E-03     30.0583E-03    -15.0169E-03     28.6672E-03
             529     8.86589E-03     69.2279E-03    -7.93082E+06    -48.5845E+06     139.861E+03    -2.25609E+06    -15.2249E-03     30.3173E-03    -15.0923E-03     32.4732E-03    -15.1991E-03     30.0904E-03    -15.0097E-03     32.4343E-03
             530     9.75260E-03     69.2596E-03    -5.61093E+06    -43.5627E+06     2.24619E+06    -1.66640E+06    -15.2843E-03     30.3687E-03    -15.0844E-03     36.2352E-03    -15.2594E-03     30.1628E-03    -15.0019E-03     36.2013E-03
             531     10.6393E-03     69.2948E-03    -4.61249E+06    -43.1807E+06     3.11409E+06    -711.035E+03    -15.3628E-03     30.4429E-03    -15.0801E-03     40.0643E-03    -15.3381E-03     30.2395E-03    -14.9952E-03     40.0395E-03
             532     11.5260E-03     69.3337E-03    -4.93418E+06    -43.7278E+06    -1.22576E+06     652.476E+03    -15.4707E-03     30.5258E-03    -15.0551E-03     43.8478E-03    -15.4457E-03     30.3316E-03    -14.9907E-03     43.8365E-03
             533     12.4126E-03     69.3759E-03    -5.72710E+06    -35.2853E+06    -3.09550E+06     405.108E+03    -15.5774E-03     30.6102E-03    -15.0327E-03     48.0010E-03    -15.5741E-03     30.4702E-03    -14.9888E-03     47.9818E-03
             534     13.2993E-03     69.4225E-03     -6.4147E+06    -23.9823E+06    -7.63406E+06    -1.89479E+06    -15.6875E-03     30.6819E-03    -14.9944E-03     52.8574E-03    -15.7110E-03     30.6196E-03    -14.9885E-03     52.8039E-03
             535     14.1857E-03     69.4736E-03    -7.44834E+06    -4.74845E+06    -11.3963E+06    -1.22402E+06    -15.7085E-03     30.6554E-03    -14.9469E-03     58.1872E-03    -15.7842E-03     30.7209E-03    -14.9862E-03     58.1395E-03
             536     15.0725E-03     69.5303E-03    -8.10331E+06     44.2964E+06    -6.37785E+06    -831.819E+03    -15.7020E-03     30.5962E-03    -14.8942E-03     65.5265E-03    -15.9102E-03     30.9514E-03    -14.9786E-03     65.4919E-03
             537     15.9590E-03     69.5949E-03    -5.73322E+06     95.3630E+06     13.7845E+06    -1.57702E+06    -15.7312E-03     30.6361E-03    -14.9048E-03     74.0772E-03    -16.1186E-03     31.3016E-03    -14.9659E-03     74.0845E-03
             538     16.8470E-03     69.6681E-03    -2.47720E+06     111.029E+06     46.0091E+06    -224.229E+03    -15.0678E-03     30.0899E-03    -15.0222E-03     49.7835E-03    -15.4579E-03     30.7320E-03    -14.9495E-03     49.8379E-03
             539     886.517E-06     70.0633E-03    -19.0986E+06    -71.4944E+06    -18.7121E+06    -55.5518E+03    -15.0698E-03     30.1797E-03    -15.1099E-03     3.19013E-03    -15.0346E-03     29.8776E-03    -15.0721E-03     3.18889E-03
             540     1.77309E-03     70.0673E-03    -18.0948E+06    -69.3333E+06    -16.3096E+06    -2.38023E+03    -15.0818E-03     30.1762E-03    -15.0944E-03     5.91838E-03    -15.0482E-03     29.8796E-03    -15.0492E-03     5.91735E-03
             541     2.65971E-03     70.0742E-03    -17.2456E+06    -67.4640E+06    -13.1441E+06    -285.576E+03    -15.0705E-03     30.1702E-03    -15.0997E-03     8.90744E-03    -15.0400E-03     29.8772E-03    -15.0426E-03     8.90218E-03
             542     3.54627E-03     70.0837E-03    -16.3483E+06    -65.0566E+06    -10.4614E+06    -818.919E+03    -15.0593E-03     30.1589E-03    -15.0995E-03     11.9459E-03    -15.0319E-03     29.8728E-03    -15.0338E-03     11.9331E-03
             543     4.43290E-03     70.0962E-03    -15.1075E+06    -61.9366E+06    -7.85257E+06    -998.423E+03    -15.0670E-03     30.1642E-03    -15.0972E-03     15.1156E-03    -15.0420E-03     29.8884E-03    -15.0247E-03     15.0997E-03
             544     5.31950E-03     70.1117E-03    -13.5189E+06    -59.7651E+06    -4.14120E+06    -862.252E+03    -15.1079E-03     30.2120E-03    -15.1042E-03     18.3643E-03    -15.0838E-03     29.9398E-03    -15.0186E-03     18.3493E-03
             545     6.20609E-03     70.1303E-03    -11.5649E+06    -59.9198E+06    -1.83468E+06    -922.042E+03    -15.1554E-03     30.2657E-03    -15.1104E-03     21.6895E-03    -15.1252E-03     29.9871E-03    -15.0159E-03     21.6726E-03
             546     7.09272E-03     70.1518E-03    -9.35343E+06    -57.1608E+06    -663.562E+03    -878.142E+03    -15.1699E-03     30.2754E-03    -15.1056E-03     25.1245E-03    -15.1350E-03     30.0064E-03    -15.0124E-03     25.1070E-03
             547     7.97935E-03     70.1767E-03    -7.56661E+06    -51.2553E+06     1.87598E+06    -1.62045E+06    -15.1868E-03     30.2879E-03    -15.1011E-03     28.7023E-03    -15.1563E-03     30.0432E-03    -15.0064E-03     28.6736E-03
             548     8.86605E-03     70.2048E-03    -6.88914E+06    -48.3916E+06     2.02139E+06    -2.62043E+06    -15.2300E-03     30.3198E-03    -15.0897E-03     32.4427E-03    -15.2020E-03     30.0896E-03    -14.9995E-03     32.3991E-03
             549     9.75270E-03     70.2366E-03    -6.87588E+06    -44.4783E+06     1.83217E+06    -2.12757E+06    -15.2880E-03     30.3648E-03    -15.0768E-03     36.2109E-03    -15.2675E-03     30.1567E-03    -14.9931E-03     36.1711E-03
             550     10.6393E-03     70.2718E-03    -5.65135E+06    -44.1274E+06     4.07993E+06    -1.17361E+06    -15.3776E-03     30.4587E-03    -15.0811E-03     39.9759E-03    -15.3581E-03     30.2507E-03    -14.9885E-03     39.9451E-03
             551     11.5260E-03     70.3107E-03    -3.43118E+06    -45.7764E+06     549.592E+03     213.857E+03    -15.4814E-03     30.5411E-03    -15.0596E-03     43.7374E-03    -15.4486E-03     30.3319E-03    -14.9855E-03     43.7203E-03
             552     12.4126E-03     70.3530E-03    -1.99527E+06    -33.8387E+06    -79.6767E+03     870.271E+03    -15.5820E-03     30.6175E-03    -15.0355E-03     47.9293E-03    -15.5665E-03     30.4751E-03    -14.9840E-03     47.9161E-03
             553     13.2992E-03     70.3996E-03    -3.01456E+06    -21.8574E+06    -3.17227E+06     14.6817E+03    -15.6737E-03     30.6772E-03    -15.0035E-03     52.6742E-03    -15.6897E-03     30.6141E-03    -14.9833E-03     52.6453E-03
             554     14.1860E-03     70.4508E-03    -3.25029E+06    -5.45313E+06    -9.61954E+06    -1.63108E+06    -15.7198E-03     30.6650E-03    -14.9452E-03     58.0644E-03    -15.7761E-03     30.7182E-03    -14.9806E-03     58.0114E-03
             555     15.0727E-03     70.5070E-03    -1.30863E+06     44.6699E+06    -5.50326E+06    -1.60996E+06    -15.7247E-03     30.6072E-03    -14.8824E-03     65.6477E-03    -15.9008E-03     30.9531E-03    -14.9728E-03     65.6030E-03
             556     15.9596E-03     70.5725E-03    -2.96323E+06     94.7457E+06     13.5775E+06    -323.859E+03    -15.6990E-03     30.5925E-03    -14.8935E-03     74.2056E-03    -16.0712E-03     31.2511E-03    -14.9586E-03     74.2296E-03
             557     16.8457E-03     70.6442E-03    -3.54039E+06     110.051E+06     44.1895E+06    -133.466E+03    -15.0532E-03     30.0605E-03    -15.0073E-03     50.0053E-03    -15.4446E-03     30.7019E-03    -14.9408E-03     50.0613E-03
             558     886.539E-06     71.0402E-03    -19.5518E+06    -70.9366E+06    -19.4568E+06    -602.270E+03    -15.0940E-03     30.1651E-03    -15.0711E-03     3.15292E-03    -15.0608E-03     29.8675E-03    -15.0372E-03     3.14462E-03
             559     1.77316E-03     71.0444E-03    -18.6420E+06    -69.4181E+06    -17.5031E+06    -464.909E+03    -15.0459E-03     30.1248E-03    -15.0789E-03     5.92404E-03    -15.0132E-03     29.8303E-03    -15.0387E-03     5.91704E-03
             560     2.65973E-03     71.0512E-03    -17.2270E+06    -67.1238E+06    -13.9013E+06    -275.697E+03    -15.0479E-03     30.1258E-03    -15.0779E-03     8.88146E-03    -15.0168E-03     29.8356E-03    -15.0251E-03     8.87632E-03
             561     3.54635E-03     71.0608E-03    -15.7177E+06    -64.2758E+06    -10.0454E+06    -522.114E+03    -15.0765E-03     30.1613E-03    -15.0849E-03     11.9465E-03    -15.0477E-03     29.8777E-03    -15.0191E-03     11.9375E-03
             562     4.43292E-03     71.0732E-03    -14.4266E+06    -61.7611E+06    -6.75507E+06    -820.184E+03    -15.1002E-03     30.1946E-03    -15.0944E-03     15.1226E-03    -15.0736E-03     29.9171E-03    -15.0177E-03     15.1090E-03
             563     5.31951E-03     71.0887E-03    -13.0408E+06    -59.6401E+06    -3.49734E+06    -902.837E+03    -15.0920E-03     30.1943E-03    -15.1023E-03     18.3943E-03    -15.0667E-03     29.9211E-03    -15.0144E-03     18.3788E-03
             564     6.20616E-03     71.1072E-03    -11.3351E+06    -58.8742E+06    -1.63052E+06    -1.61294E+06    -15.1074E-03     30.2088E-03    -15.1014E-03     21.7091E-03    -15.0779E-03     29.9347E-03    -15.0077E-03     21.6834E-03
             565     7.09280E-03     71.1288E-03     -9.3774E+06    -57.3879E+06    -589.776E+03    -2.02338E+06    -15.1515E-03     30.2465E-03    -15.0949E-03     25.1035E-03    -15.1166E-03     29.9762E-03    -15.0011E-03     25.0712E-03
             566     7.97947E-03     71.1536E-03    -7.80504E+06    -50.1065E+06     2.42723E+06    -1.79266E+06    -15.1958E-03     30.2878E-03    -15.0920E-03     28.6944E-03    -15.1689E-03     30.0483E-03    -14.9959E-03     28.6634E-03
             567     8.86605E-03     71.1819E-03    -7.04264E+06    -47.9607E+06     3.89882E+06    -1.79683E+06    -15.2510E-03     30.3422E-03    -15.0912E-03     32.3685E-03    -15.2271E-03     30.1118E-03    -14.9920E-03     32.3354E-03
             568     9.75273E-03     71.2135E-03    -6.44254E+06    -45.1501E+06     2.54244E+06    -1.62269E+06    -15.3085E-03     30.3844E-03    -15.0759E-03     36.1942E-03    -15.2860E-03     30.1713E-03    -14.9884E-03     36.1609E-03
             569     10.6394E-03     71.2489E-03    -6.32066E+06    -44.4548E+06     2.47633E+06    -1.39111E+06    -15.3888E-03     30.4602E-03    -15.0714E-03     39.9986E-03    -15.3699E-03     30.2539E-03    -14.9854E-03     39.9650E-03
             570     11.5259E-03     71.2876E-03    -5.89016E+06    -46.8168E+06    -2.05062E+06    -1.45369E+06    -15.4801E-03     30.5295E-03    -15.0495E-03     43.7923E-03    -15.4542E-03     30.3225E-03    -14.9833E-03     43.7538E-03
             571     12.4126E-03     71.3300E-03    -4.45940E+06    -34.8027E+06    -2.92721E+06    -402.725E+03    -15.5503E-03     30.5737E-03    -15.0234E-03     48.1189E-03    -15.5415E-03     30.4340E-03    -14.9811E-03     48.0895E-03
             572     13.2992E-03     71.3768E-03    -2.44986E+06    -20.5769E+06    -3.48943E+06     130.608E+03    -15.6479E-03     30.6424E-03    -14.9945E-03     52.7642E-03    -15.6623E-03     30.5853E-03    -14.9786E-03     52.7368E-03
             573     14.1859E-03     71.4275E-03    -2.69478E+06    -2.81669E+06    -9.33005E+06    -1.67948E+06    -15.7506E-03     30.6882E-03    -14.9376E-03     58.0695E-03    -15.8084E-03     30.7535E-03    -14.9763E-03     58.0157E-03
             574     15.0725E-03     71.4844E-03    -5.69185E+06     42.2909E+06    -6.70496E+06    -1.53395E+06    -15.7588E-03     30.6435E-03    -14.8848E-03     65.4394E-03    -15.9517E-03     30.9858E-03    -14.9713E-03     65.3955E-03
             575     15.9596E-03     71.5489E-03    -4.88813E+06     93.2694E+06     13.0058E+06     846.677E+03    -15.6240E-03     30.5184E-03    -14.8944E-03     73.7103E-03    -16.0020E-03     31.1725E-03    -14.9576E-03     73.7495E-03
             576     16.8473E-03     71.6221E-03    -2.07980E+06     111.034E+06     43.8644E+06     524.462E+03    -15.0051E-03     30.0038E-03    -14.9986E-03     49.8260E-03    -15.3896E-03     30.6478E-03    -14.9373E-03     49.8907E-03
             577     886.574E-06     72.0172E-03    -20.1927E+06    -69.9018E+06    -19.4457E+06    -543.625E+03    -15.0893E-03     30.1216E-03    -15.0323E-03     3.12419E-03    -15.0608E-03     29.8300E-03    -14.9989E-03     3.11664E-03
             578     1.77313E-03     72.0213E-03    -19.5798E+06    -68.9911E+06    -18.1608E+06    -909.471E+03    -15.0432E-03     30.1046E-03    -15.0614E-03     5.88871E-03    -15.0149E-03     29.8146E-03    -15.0238E-03     5.87596E-03
             579     2.65978E-03     72.0281E-03    -18.1753E+06    -66.9205E+06    -15.5281E+06    -1.08542E+06    -15.0380E-03     30.0986E-03    -15.0606E-03     8.87707E-03    -15.0095E-03     29.8131E-03    -15.0149E-03     8.86148E-03
             580     3.54639E-03     72.0377E-03    -16.3222E+06    -63.9983E+06    -11.3665E+06    -893.238E+03    -15.0689E-03     30.1383E-03    -15.0694E-03     11.9681E-03    -15.0416E-03     29.8589E-03    -15.0098E-03     11.9543E-03
             581     4.43295E-03     72.0503E-03    -14.4634E+06    -61.4358E+06    -7.14478E+06    -821.478E+03    -15.0877E-03     30.1704E-03    -15.0827E-03     15.1293E-03    -15.0612E-03     29.8952E-03    -15.0084E-03     15.1157E-03
             582     5.31955E-03     72.0657E-03    -12.5532E+06    -59.1214E+06    -3.26022E+06    -1.17614E+06    -15.0836E-03     30.1760E-03    -15.0924E-03     18.3937E-03    -15.0569E-03     29.9043E-03    -15.0048E-03     18.3747E-03
             583     6.20623E-03     72.0842E-03    -10.9013E+06    -57.6031E+06    -438.123E+03    -1.70655E+06    -15.1024E-03     30.1980E-03    -15.0957E-03     21.7063E-03    -15.0742E-03     29.9280E-03    -14.9985E-03     21.6794E-03
             584     7.09287E-03     72.1058E-03     -9.8764E+06    -56.9198E+06    -82.7937E+03    -2.33778E+06    -15.1498E-03     30.2392E-03    -15.0894E-03     25.0810E-03    -15.1188E-03     29.9713E-03    -14.9929E-03     25.0446E-03
             585     7.97949E-03     72.1306E-03    -8.88186E+06    -50.8265E+06     694.925E+03    -1.84190E+06    -15.1832E-03     30.2616E-03    -15.0783E-03     28.7062E-03    -15.1582E-03     30.0225E-03    -14.9883E-03     28.6747E-03
             586     8.86617E-03     72.1589E-03    -7.84118E+06    -47.2872E+06     2.31659E+06    -1.43361E+06    -15.2529E-03     30.3291E-03    -15.0762E-03     32.4025E-03    -15.2317E-03     30.1054E-03    -14.9847E-03     32.3741E-03
             587     9.75273E-03     72.1905E-03    -6.89178E+06    -45.3931E+06     1.77196E+06    -1.69558E+06    -15.3167E-03     30.3837E-03    -15.0670E-03     36.2333E-03    -15.2948E-03     30.1711E-03    -14.9823E-03     36.1991E-03
             588     10.6394E-03     72.2259E-03    -5.91095E+06    -44.9752E+06     1.37289E+06    -946.126E+03    -15.3742E-03     30.4342E-03    -15.0600E-03     40.0574E-03    -15.3509E-03     30.2263E-03    -14.9794E-03     40.0296E-03
             589     11.5261E-03     72.2645E-03    -6.01679E+06    -45.7636E+06    -2.22266E+06    -1.18654E+06    -15.4735E-03     30.5142E-03    -15.0407E-03     43.8270E-03    -15.4495E-03     30.3128E-03    -14.9767E-03     43.7920E-03
             590     12.4127E-03     72.3070E-03    -5.62057E+06    -35.6108E+06    -5.30498E+06    -2.34212E+06    -15.5425E-03     30.5503E-03    -15.0078E-03     48.1664E-03    -15.5349E-03     30.4117E-03    -14.9745E-03     48.1119E-03
             591     13.2996E-03     72.3536E-03    -4.68578E+06    -21.3475E+06    -6.16382E+06    -1.39029E+06    -15.6639E-03     30.6438E-03    -14.9799E-03     52.7683E-03    -15.6845E-03     30.5899E-03    -14.9730E-03     52.7213E-03
             592     14.1860E-03     72.4049E-03    -5.87005E+06    -2.13269E+06    -8.22300E+06     600.520E+03    -15.7719E-03     30.7153E-03    -14.9435E-03     57.9781E-03    -15.8482E-03     30.7872E-03    -14.9730E-03     57.9535E-03
             593     15.0727E-03     72.4611E-03    -6.78126E+06     42.4003E+06    -5.81854E+06     105.743E+03    -15.7538E-03     30.6424E-03    -14.8887E-03     65.5836E-03    -15.9536E-03     30.9856E-03    -14.9694E-03     65.5609E-03
             594     15.9590E-03     72.5265E-03    -5.87280E+06     92.1467E+06     11.8869E+06    -1.09263E+06    -15.6632E-03     30.5541E-03    -14.8909E-03     73.9408E-03    -16.0434E-03     31.2061E-03    -14.9565E-03     73.9549E-03
             595     16.8458E-03     72.5976E-03    -2.89143E+06     110.575E+06     43.9697E+06    -463.971E+03    -15.1154E-03     30.1192E-03    -15.0037E-03     50.2845E-03    -15.5047E-03     30.7632E-03    -14.9400E-03     50.3365E-03
             596     886.616E-06     72.9943E-03    -19.4453E+06    -68.9277E+06    -19.1326E+06    -445.444E+03    -15.0810E-03     30.0867E-03    -15.0058E-03     3.09442E-03    -15.0506E-03     29.7985E-03    -14.9733E-03     3.08816E-03
             597     1.77318E-03     72.9982E-03    -18.8461E+06    -68.0566E+06    -17.3165E+06    -874.538E+03    -15.0464E-03     30.0958E-03    -15.0493E-03     5.87808E-03    -15.0170E-03     29.8081E-03    -15.0099E-03     5.86576E-03
             598     2.65978E-03     73.0050E-03    -18.2620E+06    -66.1278E+06    -15.1599E+06    -1.37414E+06    -15.0527E-03     30.1081E-03    -15.0554E-03     8.88398E-03    -15.0264E-03     29.8261E-03    -15.0088E-03     8.86466E-03
             599     3.54635E-03     73.0147E-03    -17.0115E+06    -63.9642E+06    -11.9241E+06    -1.55998E+06    -15.0378E-03     30.1003E-03    -15.0624E-03     11.9823E-03    -15.0132E-03     29.8228E-03    -15.0046E-03     11.9600E-03
             600     4.43304E-03     73.0272E-03    -15.1535E+06    -61.1746E+06    -8.41689E+06    -1.37406E+06    -15.0464E-03     30.1125E-03    -15.0661E-03     15.1486E-03    -15.0218E-03     29.8414E-03    -14.9975E-03     15.1279E-03
             601     5.31967E-03     73.0427E-03    -13.4484E+06    -58.5246E+06    -4.46661E+06    -1.40348E+06    -15.0813E-03     30.1555E-03    -15.0742E-03     18.3941E-03    -15.0582E-03     29.8898E-03    -14.9922E-03     18.3721E-03
             602     6.20625E-03     73.0611E-03    -12.0421E+06    -56.9177E+06    -1.77536E+06    -1.59809E+06    -15.1107E-03     30.1905E-03    -15.0798E-03     21.7156E-03    -15.0873E-03     29.9275E-03    -14.9887E-03     21.6901E-03
             603     7.09289E-03     73.0828E-03    -10.9898E+06    -56.1169E+06    -1.21345E+06    -1.82310E+06    -15.1445E-03     30.2209E-03    -15.0764E-03     25.0944E-03    -15.1185E-03     29.9603E-03    -14.9852E-03     25.0646E-03
             604     7.97955E-03     73.1075E-03    -10.0629E+06    -51.3747E+06    -735.540E+03    -2.03559E+06    -15.1742E-03     30.2406E-03    -15.0665E-03     28.7107E-03    -15.1522E-03     30.0026E-03    -14.9811E-03     28.6767E-03
             605     8.86624E-03     73.1358E-03    -8.47806E+06    -46.9074E+06     1.14620E+06    -1.93562E+06    -15.2364E-03     30.2996E-03    -15.0632E-03     32.4375E-03    -15.2172E-03     30.0804E-03    -14.9772E-03     32.4027E-03
             606     9.75288E-03     73.1676E-03    -6.91865E+06    -45.0572E+06     2.34488E+06    -1.99684E+06    -15.3162E-03     30.3782E-03    -15.0619E-03     36.1791E-03    -15.2959E-03     30.1665E-03    -14.9748E-03     36.1410E-03
             607     10.6396E-03     73.2027E-03    -5.40296E+06    -46.0705E+06     1.62542E+06    -1.81220E+06    -15.3860E-03     30.4418E-03    -15.0557E-03     40.0136E-03    -15.3590E-03     30.2273E-03    -14.9730E-03     39.9745E-03
             608     11.5261E-03     73.2417E-03    -3.52197E+06    -44.9203E+06    -165.618E+03    -1.19115E+06    -15.4804E-03     30.5211E-03    -15.0406E-03     43.7691E-03    -15.4483E-03     30.3174E-03    -14.9712E-03     43.7339E-03
             609     12.4128E-03     73.2838E-03    -3.77747E+06    -34.1085E+06    -2.68601E+06    -1.90311E+06    -15.5784E-03     30.5905E-03    -15.0121E-03     48.0951E-03    -15.5675E-03     30.4529E-03    -14.9706E-03     48.0462E-03
             610     13.2992E-03     73.3309E-03    -5.25636E+06    -24.2909E+06    -7.44469E+06    -1.23463E+06    -15.6637E-03     30.6396E-03    -14.9759E-03     52.8213E-03    -15.6811E-03     30.5737E-03    -14.9703E-03     52.7763E-03
             611     14.1859E-03     73.3817E-03    -4.56807E+06    -3.37250E+06    -8.97272E+06     683.955E+03    -15.7187E-03     30.6537E-03    -14.9350E-03     58.0760E-03    -15.7855E-03     30.7184E-03    -14.9684E-03     58.0527E-03
             612     15.0726E-03     73.4384E-03    -3.86696E+06     44.4401E+06    -5.51547E+06     153.156E+03    -15.6665E-03     30.5404E-03    -14.8739E-03     65.5026E-03    -15.8547E-03     30.8886E-03    -14.9603E-03     65.4810E-03
             613     15.9604E-03     73.5030E-03    -4.50643E+06     92.5819E+06     11.7590E+06    -1.23266E+06    -15.7417E-03     30.6199E-03    -14.8782E-03     73.9668E-03    -16.1159E-03     31.2727E-03    -14.9471E-03     73.9788E-03
             614     16.8471E-03     73.5757E-03    -3.35873E+06     110.184E+06     43.9082E+06    -682.865E+03    -15.2841E-03     30.2860E-03    -15.0019E-03     50.5785E-03    -15.6758E-03     30.9296E-03    -14.9372E-03     50.6270E-03
             615     886.540E-06     73.9711E-03    -18.7521E+06    -67.9984E+06    -18.1896E+06    -380.978E+03    -15.0294E-03     30.0551E-03    -15.0257E-03     3.04312E-03    -14.9983E-03     29.7692E-03    -14.9909E-03     3.03770E-03
             616     1.77326E-03     73.9753E-03    -18.3139E+06    -67.3333E+06    -16.5266E+06    -681.099E+03    -15.0414E-03     30.0779E-03    -15.0365E-03     5.92128E-03    -15.0115E-03     29.7919E-03    -14.9949E-03     5.91147E-03
             617     2.65976E-03     73.9820E-03    -17.5858E+06    -65.2332E+06    -14.0425E+06    -907.010E+03    -15.0541E-03     30.1020E-03    -15.0479E-03     8.89776E-03    -15.0273E-03     29.8220E-03    -14.9981E-03     8.88447E-03
             618     3.54643E-03     73.9916E-03    -16.9031E+06    -63.1726E+06    -11.4824E+06    -1.47823E+06    -15.0317E-03     30.0867E-03    -15.0550E-03     11.9660E-03    -15.0083E-03     29.8123E-03    -14.9963E-03     11.9447E-03
             619     4.43306E-03     74.0041E-03    -15.7555E+06    -60.9780E+06    -9.02918E+06    -1.82141E+06    -15.0281E-03     30.0831E-03    -15.0550E-03     15.1364E-03    -15.0060E-03     29.8147E-03    -14.9889E-03     15.1100E-03
             620     5.31970E-03     74.0196E-03    -14.0190E+06    -58.1366E+06    -6.04941E+06    -1.73484E+06    -15.0602E-03     30.1166E-03    -15.0564E-03     18.3972E-03    -15.0382E-03     29.8560E-03    -14.9820E-03     18.3710E-03
             621     6.20636E-03     74.0381E-03    -12.1873E+06    -56.5383E+06    -2.92854E+06    -1.75183E+06    -15.1065E-03     30.1697E-03    -15.0632E-03     21.7168E-03    -15.0827E-03     29.9104E-03    -14.9781E-03     21.6893E-03
             622     7.09299E-03     74.0597E-03    -10.5265E+06    -55.7225E+06    -820.292E+03    -1.77678E+06    -15.1595E-03     30.2280E-03    -15.0685E-03     25.0936E-03    -15.1324E-03     29.9681E-03    -14.9765E-03     25.0645E-03
             623     7.97963E-03     74.0845E-03    -9.07445E+06    -50.6540E+06     882.768E+03    -2.13822E+06    -15.2036E-03     30.2702E-03    -15.0667E-03     28.6703E-03    -15.1800E-03     30.0321E-03    -14.9756E-03     28.6349E-03
             624     8.86623E-03     74.1128E-03    -7.73624E+06    -46.6370E+06     2.27702E+06    -2.70086E+06    -15.2456E-03     30.3100E-03    -15.0644E-03     32.4026E-03    -15.2247E-03     30.0895E-03    -14.9742E-03     32.3579E-03
             625     9.75291E-03     74.1445E-03    -6.27534E+06    -45.0201E+06     2.75205E+06    -2.48314E+06    -15.3140E-03     30.3745E-03    -15.0605E-03     36.1180E-03    -15.2911E-03     30.1615E-03    -14.9724E-03     36.0735E-03
             626     10.6395E-03     74.1798E-03    -5.29737E+06    -45.9522E+06     1.79698E+06    -2.47475E+06    -15.3908E-03     30.4449E-03    -15.0541E-03     39.9463E-03    -15.3637E-03     30.2306E-03    -14.9708E-03     39.8987E-03
             627     11.5262E-03     74.2185E-03    -4.19460E+06    -44.9809E+06    -900.716E+03    -2.89947E+06    -15.4850E-03     30.5216E-03    -15.0365E-03     43.8140E-03    -15.4551E-03     30.3196E-03    -14.9697E-03     43.7568E-03
             628     12.4127E-03     74.2610E-03    -2.72593E+06    -34.8684E+06    -1.62684E+06    -1.17901E+06    -15.5695E-03     30.5848E-03    -15.0153E-03     48.1118E-03    -15.5539E-03     30.4404E-03    -14.9689E-03     48.0722E-03
             629     13.2996E-03     74.3077E-03    -2.96293E+06    -25.1984E+06    -6.48394E+06    -56.6887E+03    -15.6539E-03     30.6299E-03    -14.9760E-03     52.7862E-03    -15.6599E-03     30.5548E-03    -14.9676E-03     52.7565E-03
             630     14.1863E-03     74.3588E-03    -4.12082E+06    -4.28760E+06    -9.62513E+06    -364.244E+03    -15.6747E-03     30.6026E-03    -14.9279E-03     57.9648E-03    -15.7369E-03     30.6628E-03    -14.9638E-03     57.9282E-03
             631     15.0731E-03     74.4153E-03    -4.40010E+06     45.2001E+06    -5.41104E+06     303.822E+03    -15.7306E-03     30.6012E-03    -14.8706E-03     65.3002E-03    -15.9227E-03     30.9538E-03    -14.9568E-03     65.2800E-03
             632     15.9591E-03     74.4798E-03    -3.83910E+06     94.4845E+06     13.2785E+06    -70.3721E+03    -15.9207E-03     30.8066E-03    -14.8859E-03     73.8289E-03    -16.2973E-03     31.4665E-03    -14.9509E-03     73.8549E-03
             633     16.8460E-03     74.5529E-03    -3.27244E+06     109.583E+06     44.5855E+06    -613.473E+03    -15.2039E-03     30.2167E-03    -15.0127E-03     50.0825E-03    -15.5953E-03     30.8561E-03    -14.9440E-03     50.1316E-03
             634     886.712E-06     74.9481E-03    -19.7218E+06    -67.5662E+06    -19.0901E+06    -82.4655E+03    -14.9888E-03     30.0172E-03    -15.0283E-03     3.10317E-03    -14.9619E-03     29.7361E-03    -14.9972E-03     3.10159E-03
             635     1.77318E-03     74.9521E-03    -19.2420E+06    -66.7167E+06    -17.0073E+06    -314.672E+03    -15.0301E-03     30.0513E-03    -15.0212E-03     5.91769E-03    -15.0051E-03     29.7704E-03    -14.9816E-03     5.91262E-03
             636     2.65991E-03     74.9590E-03    -18.4154E+06    -64.6578E+06    -14.9547E+06    -606.311E+03    -15.0245E-03     30.0546E-03    -15.0301E-03     8.89258E-03    -15.0013E-03     29.7799E-03    -14.9844E-03     8.88319E-03
             637     3.54643E-03     74.9686E-03    -17.2505E+06    -62.0665E+06    -11.7770E+06    -1.03466E+06    -15.0422E-03     30.0821E-03    -15.0399E-03     11.9535E-03    -15.0217E-03     29.8143E-03    -14.9838E-03     11.9380E-03
             638     4.43306E-03     74.9810E-03    -15.8961E+06    -59.9767E+06    -8.49197E+06    -1.94203E+06    -15.0458E-03     30.0957E-03    -15.0499E-03     15.1299E-03    -15.0266E-03     29.8318E-03    -14.9824E-03     15.1019E-03
             639     5.31974E-03     74.9965E-03    -14.1605E+06    -57.9685E+06    -5.62548E+06    -2.34970E+06    -15.0506E-03     30.1050E-03    -15.0544E-03     18.3720E-03    -15.0302E-03     29.8448E-03    -14.9779E-03     18.3378E-03
             640     6.20640E-03     75.0151E-03    -12.3367E+06    -56.2009E+06    -2.66242E+06    -2.16155E+06    -15.0923E-03     30.1516E-03    -15.0593E-03     21.6782E-03    -15.0701E-03     29.8938E-03    -14.9732E-03     21.6454E-03
             641     7.09302E-03     75.0367E-03    -10.5980E+06    -55.3430E+06    -937.324E+03    -2.26902E+06    -15.1683E-03     30.2312E-03    -15.0629E-03     25.0768E-03    -15.1419E-03     29.9734E-03    -14.9720E-03     25.0413E-03
             642     7.97958E-03     75.0615E-03    -9.07345E+06    -49.9658E+06     256.010E+03    -2.40959E+06    -15.2142E-03     30.2738E-03    -15.0596E-03     28.6723E-03    -15.1907E-03     30.0400E-03    -14.9728E-03     28.6333E-03
             643     8.86623E-03     75.0897E-03    -8.21572E+06    -45.9419E+06     1.57224E+06    -2.60289E+06    -15.2488E-03     30.3076E-03    -15.0588E-03     32.4333E-03    -15.2303E-03     30.0923E-03    -14.9724E-03     32.3899E-03
             644     9.75283E-03     75.1216E-03    -8.04168E+06    -45.4730E+06     417.463E+03    -2.50612E+06    -15.3082E-03     30.3588E-03    -15.0506E-03     36.1812E-03    -15.2900E-03     30.1495E-03    -14.9709E-03     36.1365E-03
             645     10.6396E-03     75.1567E-03    -7.61126E+06    -44.8702E+06     26.7080E+03    -2.64034E+06    -15.3984E-03     30.4447E-03    -15.0463E-03     39.9669E-03    -15.3818E-03     30.2418E-03    -14.9701E-03     39.9171E-03
             646     11.5261E-03     75.1956E-03    -7.44105E+06    -44.3564E+06    -2.34029E+06    -3.37278E+06    -15.4933E-03     30.5273E-03    -15.0340E-03     43.7904E-03    -15.4784E-03     30.3353E-03    -14.9706E-03     43.7271E-03
             647     12.4129E-03     75.2379E-03    -6.89839E+06    -37.6164E+06    -4.14865E+06    -2.77160E+06    -15.5672E-03     30.5822E-03    -15.0150E-03     48.0179E-03    -15.5648E-03     30.4338E-03    -14.9712E-03     47.9577E-03
             648     13.2993E-03     75.2847E-03    -4.88647E+06    -25.9505E+06    -6.52766E+06    -714.227E+03    -15.6598E-03     30.6426E-03    -14.9829E-03     52.6282E-03    -15.6743E-03     30.5666E-03    -14.9708E-03     52.5899E-03
             649     14.1859E-03     75.3359E-03    -3.85149E+06    -3.66546E+06    -7.64044E+06    -239.486E+03    -15.7100E-03     30.6514E-03    -14.9414E-03     57.7225E-03    -15.7747E-03     30.7116E-03    -14.9687E-03     57.6873E-03
             650     15.0727E-03     75.3920E-03    -3.37333E+06     44.0622E+06    -4.67733E+06    -323.901E+03    -15.7772E-03     30.6588E-03    -14.8816E-03     65.3140E-03    -15.9640E-03     31.0036E-03    -14.9640E-03     65.2854E-03
             651     15.9599E-03     75.4577E-03    -2.44073E+06     94.6276E+06     14.1956E+06     571.340E+03    -15.9709E-03     30.8678E-03    -14.8969E-03     74.3045E-03    -16.3434E-03     31.5264E-03    -14.9596E-03     74.3386E-03
             652     16.8461E-03     75.5300E-03    -1.12949E+06     110.241E+06     47.0629E+06     394.605E+03    -15.1756E-03     30.2045E-03    -15.0289E-03     50.0043E-03    -15.5613E-03     30.8411E-03    -14.9518E-03     50.0665E-03
             653     886.588E-06     75.9251E-03    -21.0951E+06    -67.2173E+06    -20.5230E+06    -300.948E+03    -14.9893E-03     30.0165E-03    -15.0272E-03     3.13548E-03    -14.9677E-03     29.7412E-03    -15.0018E-03     3.13107E-03
             654     1.77328E-03     75.9291E-03    -19.8892E+06    -66.3043E+06    -18.2724E+06    -331.559E+03    -15.0083E-03     30.0236E-03    -15.0154E-03     5.86799E-03    -14.9852E-03     29.7477E-03    -14.9818E-03     5.86272E-03
             655     2.65982E-03     75.9359E-03    -18.5731E+06    -64.0170E+06    -15.3157E+06    -655.282E+03    -15.0086E-03     30.0300E-03    -15.0214E-03     8.87136E-03    -14.9866E-03     29.7592E-03    -14.9782E-03     8.86133E-03
             656     3.54654E-03     75.9455E-03    -17.0757E+06    -61.1377E+06    -11.5990E+06    -1.17038E+06    -15.0311E-03     30.0624E-03    -15.0313E-03     11.9471E-03    -15.0114E-03     29.7987E-03    -14.9759E-03     11.9298E-03
             657     4.43313E-03     75.9580E-03    -15.5668E+06    -58.5424E+06    -7.71719E+06    -1.79316E+06    -15.0655E-03     30.1112E-03    -15.0457E-03     15.1149E-03    -15.0479E-03     29.8529E-03    -14.9769E-03     15.0888E-03
             658     5.31968E-03     75.9735E-03    -14.3746E+06    -57.4788E+06    -4.59342E+06    -2.35232E+06    -15.0755E-03     30.1342E-03    -15.0587E-03     18.3468E-03    -15.0584E-03     29.8753E-03    -14.9775E-03     18.3126E-03
             659     6.20635E-03     75.9919E-03    -12.9805E+06    -55.9855E+06    -3.06810E+06    -2.46881E+06    -15.0874E-03     30.1470E-03    -15.0596E-03     21.6831E-03    -15.0682E-03     29.8919E-03    -14.9750E-03     21.6463E-03
             660     7.09300E-03     76.0137E-03    -11.6125E+06    -54.6273E+06    -2.47674E+06    -2.58447E+06    -15.1354E-03     30.1906E-03    -15.0553E-03     25.1071E-03    -15.1128E-03     29.9401E-03    -14.9716E-03     25.0675E-03
             661     7.97968E-03     76.0385E-03    -10.2776E+06    -49.5246E+06    -1.14400E+06    -2.89169E+06    -15.1941E-03     30.2450E-03    -15.0509E-03     28.7011E-03    -15.1753E-03     30.0172E-03    -14.9699E-03     28.6560E-03
             662     8.86631E-03     76.0668E-03    -8.78377E+06    -45.8719E+06     884.356E+03    -2.60795E+06    -15.2570E-03     30.3102E-03    -15.0532E-03     32.4110E-03    -15.2405E-03     30.0970E-03    -14.9695E-03     32.3675E-03
             663     9.75300E-03     76.0985E-03    -7.52791E+06    -45.5667E+06     464.318E+03    -2.19006E+06    -15.3397E-03     30.3891E-03    -15.0494E-03     36.1131E-03    -15.3189E-03     30.1785E-03    -14.9701E-03     36.0724E-03
             664     10.6395E-03     76.1338E-03    -7.04347E+06    -43.9683E+06     305.441E+03    -2.37695E+06    -15.4391E-03     30.4869E-03    -15.0477E-03     39.9252E-03    -15.4214E-03     30.2872E-03    -14.9722E-03     39.8787E-03
             665     11.5261E-03     76.1726E-03    -7.17468E+06    -43.7369E+06    -2.26298E+06    -2.53991E+06    -15.5346E-03     30.5729E-03    -15.0383E-03     43.6927E-03    -15.5194E-03     30.3835E-03    -14.9758E-03     43.6400E-03
             666     12.4126E-03     76.2149E-03    -7.75278E+06    -37.9950E+06    -5.71057E+06    -2.90979E+06    -15.5831E-03     30.5991E-03    -15.0160E-03     47.9880E-03    -15.5822E-03     30.4523E-03    -14.9782E-03     47.9261E-03
             667     13.2993E-03     76.2618E-03    -7.69818E+06    -27.5080E+06    -10.4374E+06    -2.97320E+06    -15.6582E-03     30.6351E-03    -14.9769E-03     52.7250E-03    -15.6787E-03     30.5609E-03    -14.9781E-03     52.6577E-03
             668     14.1861E-03     76.3127E-03    -6.63761E+06    -4.58932E+06    -11.8354E+06    -1.12256E+06    -15.7874E-03     30.7226E-03    -14.9352E-03     57.8443E-03    -15.8587E-03     30.7884E-03    -14.9781E-03     57.7975E-03
             669     15.0725E-03     76.3693E-03    -6.74010E+06     44.7399E+06    -7.91865E+06    -889.564E+03    -15.8690E-03     30.7526E-03    -14.8836E-03     65.2814E-03    -16.0694E-03     31.1108E-03    -14.9783E-03     65.2452E-03
             670     15.9591E-03     76.4342E-03    -5.53669E+06     92.9026E+06     9.72244E+06    -939.387E+03    -15.8041E-03     30.6981E-03    -14.8940E-03     74.0674E-03    -16.1821E-03     31.3581E-03    -14.9721E-03     74.0827E-03
             671     16.8463E-03     76.5082E-03    -2.81993E+06     109.560E+06     42.5065E+06     798.112E+03    -15.0184E-03     30.0319E-03    -15.0135E-03     49.5107E-03    -15.4029E-03     30.6721E-03    -14.9557E-03     49.5784E-03
             672     886.567E-06     76.9018E-03    -21.1738E+06    -66.5469E+06    -20.6259E+06    -261.866E+03    -15.0100E-03     30.0327E-03    -15.0227E-03     3.13690E-03    -14.9896E-03     29.7610E-03    -14.9986E-03     3.13298E-03
             673     1.77320E-03     76.9060E-03    -20.3527E+06    -65.5488E+06    -19.0860E+06    -979.293E+03    -15.0029E-03     30.0207E-03    -15.0178E-03     5.88628E-03    -14.9821E-03     29.7503E-03    -14.9886E-03     5.87263E-03
             674     2.65988E-03     76.9128E-03    -18.7454E+06    -63.3828E+06    -15.9956E+06    -1.24939E+06    -15.0106E-03     30.0321E-03    -15.0215E-03     8.85324E-03    -14.9894E-03     29.7657E-03    -14.9824E-03     8.83554E-03
             675     3.54646E-03     76.9224E-03    -17.1655E+06    -60.3317E+06    -11.9360E+06    -1.44659E+06    -15.0226E-03     30.0539E-03    -15.0313E-03     11.9446E-03    -15.0040E-03     29.7948E-03    -14.9786E-03     11.9237E-03
             676     4.43310E-03     76.9350E-03    -15.8170E+06    -57.8185E+06    -8.11645E+06    -1.53632E+06    -15.0478E-03     30.0907E-03    -15.0429E-03     15.1002E-03    -15.0319E-03     29.8370E-03    -14.9767E-03     15.0774E-03
             677     5.31976E-03     76.9504E-03    -14.4036E+06    -56.2900E+06    -4.88934E+06    -2.00416E+06    -15.0853E-03     30.1402E-03    -15.0548E-03     18.3485E-03    -15.0696E-03     29.8877E-03    -14.9768E-03     18.3188E-03
             678     6.20632E-03     76.9689E-03    -12.6493E+06    -55.1893E+06    -2.89048E+06    -2.96220E+06    -15.1097E-03     30.1703E-03    -15.0606E-03     21.6821E-03    -15.0902E-03     29.9184E-03    -14.9767E-03     21.6390E-03
             679     7.09303E-03     76.9905E-03    -10.4742E+06    -54.2286E+06    -1.66393E+06    -3.18491E+06    -15.1375E-03     30.1976E-03    -15.0600E-03     25.0826E-03    -15.1111E-03     29.9462E-03    -14.9745E-03     25.0352E-03
             680     7.97966E-03     77.0155E-03    -8.77794E+06    -48.7952E+06     267.019E+03    -3.19145E+06    -15.2000E-03     30.2573E-03    -15.0573E-03     28.6535E-03    -15.1767E-03     30.0289E-03    -14.9725E-03     28.6044E-03
             681     8.86628E-03     77.0437E-03    -7.51060E+06    -46.3394E+06     1.60833E+06    -3.09157E+06    -15.2858E-03     30.3451E-03    -15.0593E-03     32.3280E-03    -15.2633E-03     30.1267E-03    -14.9731E-03     32.2782E-03
             682     9.75278E-03     77.0755E-03    -6.19073E+06    -45.5892E+06     1.45595E+06    -2.62233E+06    -15.3621E-03     30.4198E-03    -15.0577E-03     36.0748E-03    -15.3361E-03     30.2057E-03    -14.9753E-03     36.0285E-03
             683     10.6394E-03     77.1108E-03    -4.85653E+06    -43.5483E+06     1.35340E+06    -2.41054E+06    -15.4491E-03     30.5039E-03    -15.0548E-03     39.9715E-03    -15.4226E-03     30.3016E-03    -14.9778E-03     39.9247E-03
             684     11.5260E-03     77.1497E-03    -4.03110E+06    -43.8257E+06    -2.32220E+06    -2.11892E+06    -15.5553E-03     30.5942E-03    -15.0389E-03     43.7442E-03    -15.5241E-03     30.3999E-03    -14.9811E-03     43.6969E-03
             685     12.4126E-03     77.1919E-03    -3.51798E+06    -36.6298E+06    -3.87133E+06    -2.57030E+06    -15.5958E-03     30.6178E-03    -15.0220E-03     47.9891E-03    -15.5784E-03     30.4691E-03    -14.9831E-03     47.9315E-03
             686     13.2993E-03     77.2387E-03    -3.56967E+06    -27.7516E+06    -9.30481E+06    -3.08553E+06    -15.6833E-03     30.6648E-03    -14.9815E-03     52.7843E-03    -15.6845E-03     30.5818E-03    -14.9826E-03     52.7155E-03
             687     14.1856E-03     77.2899E-03    -3.78189E+06    -7.08042E+06    -14.8355E+06    -2.26903E+06    -15.8013E-03     30.7250E-03    -14.9236E-03     58.0687E-03    -15.8504E-03     30.7785E-03    -14.9821E-03     58.0073E-03
             688     15.0724E-03     77.3465E-03    -3.42388E+06     44.9557E+06    -9.69148E+06    -317.257E+03    -15.8718E-03     30.7437E-03    -14.8719E-03     65.8269E-03    -16.0537E-03     31.1011E-03    -14.9806E-03     65.7984E-03
             689     15.9587E-03     77.4118E-03    -5.07980E+06     92.6361E+06     7.79147E+06     238.316E+03    -15.7200E-03     30.6023E-03    -14.8823E-03     74.5970E-03    -16.0926E-03     31.2631E-03    -14.9703E-03     74.6290E-03
             690     16.8459E-03     77.4839E-03    -4.01084E+06     108.522E+06     39.8536E+06    -461.517E+03    -14.9391E-03     29.9356E-03    -14.9965E-03     50.2019E-03    -15.3248E-03     30.5768E-03    -14.9488E-03     50.2547E-03
             691     886.674E-06     77.8788E-03    -20.5415E+06    -65.5666E+06    -20.5949E+06    -622.021E+03    -15.0312E-03     30.0258E-03    -14.9946E-03     3.13578E-03    -15.0091E-03     29.7581E-03    -14.9727E-03     3.12720E-03
             692     1.77321E-03     77.8829E-03    -19.9183E+06    -64.2427E+06    -18.2295E+06    -1.12972E+06    -15.0288E-03     30.0512E-03    -15.0224E-03     5.88896E-03    -15.0090E-03     29.7855E-03    -14.9915E-03     5.87336E-03
             693     2.65981E-03     77.8897E-03    -19.1841E+06    -62.5912E+06    -15.8306E+06    -1.73115E+06    -15.0234E-03     30.0552E-03    -15.0317E-03     8.85043E-03    -15.0059E-03     29.7932E-03    -14.9923E-03     8.82651E-03
             694     3.54645E-03     77.8994E-03    -17.7267E+06    -59.7952E+06    -12.7724E+06    -1.79636E+06    -15.0189E-03     30.0557E-03    -15.0368E-03     11.9412E-03    -15.0027E-03     29.8013E-03    -14.9883E-03     11.9158E-03
             695     4.43310E-03     77.9118E-03    -15.7304E+06    -57.3740E+06    -8.73716E+06    -1.83431E+06    -15.0325E-03     30.0776E-03    -15.0451E-03     15.0993E-03    -15.0159E-03     29.8269E-03    -14.9828E-03     15.0727E-03
             696     5.31971E-03     77.9274E-03    -13.6884E+06    -55.0771E+06    -4.89733E+06    -2.22763E+06    -15.0764E-03     30.1311E-03    -15.0548E-03     18.3395E-03    -15.0588E-03     29.8837E-03    -14.9796E-03     18.3068E-03
             697     6.20637E-03     77.9459E-03    -12.1857E+06    -53.5466E+06    -2.35922E+06    -3.08537E+06    -15.1358E-03     30.1994E-03    -15.0636E-03     21.6486E-03    -15.1172E-03     29.9542E-03    -14.9801E-03     21.6038E-03
             698     7.09289E-03     77.9675E-03    -11.0565E+06    -53.7788E+06    -1.58577E+06    -3.89401E+06    -15.1819E-03     30.2502E-03    -15.0683E-03     25.0505E-03    -15.1592E-03     30.0019E-03    -14.9822E-03     24.9939E-03
             699     7.97954E-03     77.9924E-03    -9.62251E+06    -48.6934E+06    -664.655E+03    -3.60932E+06    -15.2021E-03     30.2658E-03    -15.0637E-03     28.6651E-03    -15.1819E-03     30.0405E-03    -14.9824E-03     28.6107E-03
             700     8.86614E-03     78.0209E-03    -8.42244E+06    -46.0660E+06     313.127E+03    -3.35232E+06    -15.2518E-03     30.3132E-03    -15.0614E-03     32.3759E-03    -15.2323E-03     30.0994E-03    -14.9808E-03     32.3228E-03
             701     9.75282E-03     78.0525E-03    -7.04557E+06    -45.3956E+06     352.418E+03    -3.66778E+06    -15.3265E-03     30.3836E-03    -15.0571E-03     36.1852E-03    -15.3034E-03     30.1733E-03    -14.9793E-03     36.1255E-03
             702     10.6394E-03     78.0879E-03    -5.63992E+06     -44.032E+06    -304.727E+03    -3.15858E+06    -15.4135E-03     30.4625E-03    -15.0490E-03     40.1174E-03    -15.3878E-03     30.2613E-03    -14.9785E-03     40.0610E-03
             703     11.5260E-03     78.1268E-03    -4.78628E+06    -43.7914E+06    -4.20267E+06    -2.66460E+06    -15.5311E-03     30.5597E-03    -15.0287E-03     43.8910E-03    -15.5010E-03     30.3694E-03    -14.9792E-03     43.8368E-03
             704     12.4126E-03     78.1690E-03    -4.56724E+06    -35.5837E+06    -4.29410E+06    -2.86089E+06    -15.6111E-03     30.6289E-03    -15.0178E-03     48.0726E-03    -15.5999E-03     30.4876E-03    -14.9810E-03     48.0112E-03
             705     13.2991E-03     78.2157E-03    -4.69464E+06    -27.5972E+06    -9.33162E+06    -3.10228E+06    -15.6848E-03     30.6665E-03    -14.9817E-03     52.9155E-03    -15.6919E-03     30.5860E-03    -14.9815E-03     52.8465E-03
             706     14.1860E-03     78.2670E-03    -5.28762E+06    -8.21606E+06    -15.7946E+06    -2.67103E+06    -15.7584E-03     30.6788E-03    -14.9205E-03     58.2018E-03    -15.8120E-03     30.7304E-03    -14.9799E-03     58.1352E-03
             707     15.0727E-03     78.3234E-03    -5.95178E+06     42.0177E+06    -9.75850E+06    -881.492E+03    -15.7138E-03     30.5858E-03    -14.8720E-03     65.6752E-03    -15.9036E-03     30.9319E-03    -14.9731E-03     65.6400E-03
             708     15.9602E-03     78.3889E-03    -4.33264E+06     92.4601E+06     9.56979E+06     426.714E+03    -15.6380E-03     30.5156E-03    -14.8776E-03     73.9413E-03    -16.0076E-03     31.1703E-03    -14.9575E-03     73.9758E-03
             709     16.8472E-03     78.4608E-03    -2.31768E+06     109.975E+06     41.6745E+06    -266.391E+03    -15.1357E-03     30.1284E-03    -14.9928E-03     49.8881E-03    -15.5170E-03     30.7711E-03    -14.9405E-03     49.9425E-03
             710     886.557E-06     78.8557E-03    -21.1186E+06    -63.9781E+06    -20.7386E+06    -1.07751E+06    -15.0239E-03     30.0464E-03    -15.0226E-03     3.13025E-03    -15.0067E-03     29.7877E-03    -15.0029E-03     3.11582E-03
             711     1.77323E-03     78.8598E-03    -20.1627E+06    -63.1037E+06    -18.5743E+06    -1.41100E+06    -15.0323E-03     30.0640E-03    -15.0316E-03     5.87068E-03    -15.0149E-03     29.8048E-03    -15.0038E-03     5.85146E-03
             712     2.65979E-03     78.8667E-03    -18.8578E+06    -61.4840E+06    -15.4231E+06    -1.66958E+06    -15.0363E-03     30.0790E-03    -15.0428E-03     8.84845E-03    -15.0192E-03     29.8215E-03    -15.0034E-03     8.82532E-03
             713     3.54639E-03     78.8762E-03    -17.5160E+06    -58.9524E+06    -12.5420E+06    -2.27432E+06    -15.0262E-03     30.0737E-03    -15.0475E-03     11.9265E-03    -15.0105E-03     29.8229E-03    -14.9993E-03     11.8950E-03
             714     4.43302E-03     78.8888E-03    -15.6275E+06    -56.6139E+06    -9.44975E+06    -2.73820E+06    -15.0366E-03     30.0870E-03    -15.0504E-03     15.1147E-03    -15.0196E-03     29.8409E-03    -14.9929E-03     15.0764E-03
             715     5.31969E-03     78.9043E-03    -13.5725E+06    -54.3255E+06    -5.74757E+06    -2.86509E+06    -15.0794E-03     30.1375E-03    -15.0581E-03     18.3621E-03    -15.0611E-03     29.8949E-03    -14.9884E-03     18.3213E-03
             716     6.20627E-03     78.9229E-03    -11.9463E+06    -52.4397E+06    -2.68769E+06    -2.86243E+06    -15.1372E-03     30.2050E-03    -15.0678E-03     21.6627E-03    -15.1185E-03     29.9655E-03    -14.9879E-03     21.6208E-03
             717     7.09290E-03     78.9445E-03    -11.0967E+06    -52.3196E+06    -1.57665E+06    -3.49004E+06    -15.1930E-03     30.2669E-03    -15.0739E-03     25.0673E-03    -15.1726E-03     30.0259E-03    -14.9898E-03     25.0160E-03
             718     7.97942E-03     78.9694E-03    -10.0863E+06    -48.5391E+06    -1.51735E+06    -4.34531E+06    -15.1910E-03     30.2579E-03    -15.0669E-03     28.7034E-03    -15.1721E-03     30.0353E-03    -14.9895E-03     28.6395E-03
             719     8.86617E-03     78.9977E-03    -8.10120E+06    -45.8052E+06    -296.548E+03    -4.16244E+06    -15.2135E-03     30.2748E-03    -15.0613E-03     32.4439E-03    -15.1919E-03     30.0627E-03    -14.9846E-03     32.3804E-03
             720     9.75281E-03     79.0295E-03    -6.97111E+06    -44.7665E+06     616.587E+03    -3.96621E+06    -15.3034E-03     30.3613E-03    -15.0579E-03     36.1957E-03    -15.2812E-03     30.1537E-03    -14.9798E-03     36.1322E-03
             721     10.6395E-03     79.0648E-03    -6.42279E+06    -44.7940E+06    -298.270E+03    -3.74746E+06    -15.3844E-03     30.4342E-03    -15.0498E-03     40.0563E-03    -15.3615E-03     30.2303E-03    -14.9770E-03     39.9923E-03
             722     11.5262E-03     79.1038E-03    -5.72187E+06    -43.6122E+06    -4.05322E+06    -3.22358E+06    -15.5052E-03     30.5326E-03    -15.0274E-03     43.8835E-03    -15.4803E-03     30.3443E-03    -14.9761E-03     43.8221E-03
             723     12.4127E-03     79.1461E-03    -5.11854E+06    -35.1809E+06    -4.22820E+06    -3.15537E+06    -15.6161E-03     30.6312E-03    -15.0151E-03     47.9969E-03    -15.6084E-03     30.4926E-03    -14.9778E-03     47.9316E-03
             724     13.2994E-03     79.1927E-03    -4.71166E+06    -26.9845E+06    -8.35509E+06    -3.44382E+06    -15.6973E-03     30.6809E-03    -14.9836E-03     52.7590E-03    -15.7068E-03     30.6022E-03    -14.9794E-03     52.6854E-03
             725     14.1858E-03     79.2439E-03    -4.32901E+06    -9.30052E+06    -15.3057E+06    -3.07954E+06    -15.7953E-03     30.7181E-03    -14.9228E-03     58.1104E-03    -15.8434E-03     30.7622E-03    -14.9796E-03     58.0384E-03
             726     15.0724E-03     79.3006E-03    -3.45999E+06     39.6566E+06    -9.68148E+06    -1.50555E+06    -15.7455E-03     30.6192E-03    -14.8737E-03     65.4123E-03    -15.9191E-03     30.9494E-03    -14.9746E-03     65.3691E-03
             727     15.9588E-03     79.3654E-03    -3.23011E+06     92.0126E+06     10.9611E+06    -409.483E+03    -15.7280E-03     30.6161E-03    -14.8881E-03     73.8854E-03    -16.0937E-03     31.2651E-03    -14.9620E-03     73.9080E-03
             728     16.8457E-03     79.4380E-03    -2.15927E+06     110.001E+06     43.0329E+06     55.2950E+03    -15.1828E-03     30.1898E-03    -15.0070E-03     50.1117E-03    -15.5663E-03     30.8313E-03    -14.9482E-03     50.1698E-03
             729     886.606E-06     79.8327E-03    -20.6689E+06    -62.0646E+06    -20.1867E+06    -856.651E+03    -15.0061E-03     30.0864E-03    -15.0803E-03     3.15098E-03    -14.9903E-03     29.8358E-03    -15.0613E-03     3.13938E-03
             730     1.77312E-03     79.8368E-03    -20.1496E+06    -61.5545E+06    -18.5341E+06    -1.85793E+06    -15.0324E-03     30.0792E-03    -15.0468E-03     5.88656E-03    -15.0171E-03     29.8277E-03    -15.0210E-03     5.86156E-03
             731     2.65979E-03     79.8436E-03    -18.6033E+06    -60.4779E+06    -16.1716E+06    -2.35668E+06    -15.0357E-03     30.0842E-03    -15.0486E-03     8.85501E-03    -15.0177E-03     29.8325E-03    -15.0147E-03     8.82300E-03
             732     3.54636E-03     79.8532E-03    -16.9814E+06    -57.7176E+06    -12.8284E+06    -2.53118E+06    -15.0441E-03     30.0976E-03    -15.0536E-03     11.9254E-03    -15.0271E-03     29.8527E-03    -15.0094E-03     11.8905E-03
             733     4.43301E-03     79.8657E-03    -15.8883E+06    -55.3858E+06    -9.45358E+06    -3.13503E+06    -15.0557E-03     30.1165E-03    -15.0608E-03     15.1207E-03    -15.0417E-03     29.8769E-03    -15.0047E-03     15.0772E-03
             734     5.31960E-03     79.8813E-03    -14.2713E+06    -53.6304E+06    -6.16110E+06    -3.62029E+06    -15.0802E-03     30.1485E-03    -15.0683E-03     18.3821E-03    -15.0658E-03     29.9110E-03    -15.0007E-03     18.3316E-03
             735     6.20623E-03     79.8999E-03    -11.9019E+06    -52.0128E+06    -3.09280E+06    -3.64742E+06    -15.1214E-03     30.1963E-03    -15.0749E-03     21.6975E-03    -15.1025E-03     29.9594E-03    -14.9976E-03     21.6454E-03
             736     7.09282E-03     79.9216E-03    -9.17135E+06    -50.7809E+06    -547.775E+03    -3.93511E+06    -15.1655E-03     30.2450E-03    -15.0795E-03     25.0792E-03    -15.1392E-03     30.0075E-03    -14.9953E-03     25.0222E-03
             737     7.97950E-03     79.9464E-03    -7.36309E+06    -47.2847E+06     388.196E+03    -4.64159E+06    -15.2034E-03     30.2772E-03    -15.0738E-03     28.6531E-03    -15.1755E-03     30.0541E-03    -14.9926E-03     28.5853E-03
             738     8.86612E-03     79.9746E-03    -6.80407E+06    -46.1512E+06     665.359E+03    -4.71967E+06    -15.2489E-03     30.3182E-03    -15.0692E-03     32.3878E-03    -15.2218E-03     30.1011E-03    -14.9891E-03     32.3171E-03
             739     9.75281E-03     80.0065E-03    -5.73589E+06    -44.4193E+06     1.36710E+06    -4.13177E+06    -15.3069E-03     30.3719E-03    -15.0650E-03     36.1287E-03    -15.2802E-03     30.1631E-03    -14.9854E-03     36.0630E-03
             740     10.6394E-03     80.0418E-03    -4.51266E+06    -44.6238E+06     1.17013E+06    -4.13844E+06    -15.3804E-03     30.4393E-03    -15.0588E-03     39.9546E-03    -15.3503E-03     30.2313E-03    -14.9817E-03     39.8855E-03
             741     11.5260E-03     80.0807E-03     -3.7701E+06    -44.3041E+06    -3.84354E+06    -3.63117E+06    -15.4784E-03     30.5076E-03    -15.0293E-03     43.8913E-03    -15.4429E-03     30.3127E-03    -14.9788E-03     43.8248E-03
             742     12.4126E-03     80.1233E-03    -3.78787E+06    -34.5240E+06    -4.69099E+06    -3.15484E+06    -15.5986E-03     30.6086E-03    -15.0100E-03     48.0547E-03    -15.5844E-03     30.4720E-03    -14.9780E-03     47.9896E-03
             743     13.2991E-03     80.1697E-03    -4.18357E+06    -26.2981E+06    -8.54037E+06    -3.68697E+06    -15.7220E-03     30.7030E-03    -14.9810E-03     52.7695E-03    -15.7297E-03     30.6272E-03    -14.9795E-03     52.6927E-03
             744     14.1859E-03     80.2211E-03    -4.95002E+06    -10.2012E+06    -16.2409E+06    -3.42712E+06    -15.8008E-03     30.7220E-03    -14.9211E-03     58.2478E-03    -15.8492E-03     30.7637E-03    -14.9804E-03     58.1715E-03
             745     15.0726E-03     80.2776E-03    -6.03938E+06     37.9277E+06    -11.3321E+06    -2.32035E+06    -15.7721E-03     30.6456E-03    -14.8735E-03     65.4362E-03    -15.9538E-03     30.9734E-03    -14.9764E-03     65.3822E-03
             746     15.9600E-03     80.3424E-03    -5.18385E+06     91.3549E+06     9.74947E+06    -811.010E+03    -15.7499E-03     30.6389E-03    -14.8890E-03     74.1817E-03    -16.1239E-03     31.2905E-03    -14.9652E-03     74.1992E-03
             747     16.8466E-03     80.4155E-03    -2.60277E+06     109.902E+06     41.3910E+06     265.828E+03    -15.0806E-03     30.0806E-03    -15.0000E-03     50.4140E-03    -15.4646E-03     30.7255E-03    -14.9487E-03     50.4753E-03
             748     886.531E-06     80.8097E-03    -19.3744E+06    -60.3293E+06    -19.1513E+06    -833.444E+03    -15.0482E-03     30.1092E-03    -15.0610E-03     3.17119E-03    -15.0300E-03     29.8639E-03    -15.0412E-03     3.15988E-03
             749     1.77319E-03     80.8138E-03    -18.9730E+06    -59.4050E+06    -17.8098E+06    -1.72066E+06    -15.0446E-03     30.1002E-03    -15.0555E-03     5.88160E-03    -15.0277E-03     29.8567E-03    -15.0309E-03     5.85837E-03
             750     2.65970E-03     80.8206E-03    -18.6056E+06    -58.8680E+06    -16.1738E+06    -2.84151E+06    -15.0434E-03     30.0997E-03    -15.0563E-03     8.86225E-03    -15.0278E-03     29.8560E-03    -15.0248E-03     8.82399E-03
             751     3.54637E-03     80.8302E-03    -17.4471E+06    -57.0448E+06    -13.6738E+06    -3.10004E+06    -15.0575E-03     30.1172E-03    -15.0597E-03     11.9330E-03    -15.0426E-03     29.8775E-03    -15.0201E-03     11.8908E-03
             752     4.43289E-03     80.8428E-03    -15.7971E+06    -53.9019E+06    -9.62438E+06    -3.15158E+06    -15.0752E-03     30.1451E-03    -15.0699E-03     15.1272E-03    -15.0627E-03     29.9130E-03    -15.0169E-03     15.0836E-03
             753     5.31952E-03     80.8582E-03    -14.4142E+06    -52.2418E+06    -6.11547E+06    -4.03042E+06    -15.0840E-03     30.1633E-03    -15.0793E-03     18.3917E-03    -15.0724E-03     29.9328E-03    -15.0132E-03     18.3358E-03
             754     6.20615E-03     80.8769E-03    -12.8319E+06    -51.2752E+06    -4.24369E+06     -4.7033E+06    -15.0898E-03     30.1685E-03    -15.0788E-03     21.7129E-03    -15.0749E-03     29.9384E-03    -15.0071E-03     21.6473E-03
             755     7.09280E-03     80.8986E-03    -11.2946E+06    -49.4809E+06    -3.19555E+06    -5.14482E+06    -15.1330E-03     30.2054E-03    -15.0724E-03     25.1171E-03    -15.1153E-03     29.9812E-03    -15.0003E-03     25.0445E-03
             756     7.97944E-03     80.9234E-03    -9.70649E+06    -46.5986E+06    -947.514E+03    -5.14390E+06    -15.2112E-03     30.2846E-03    -15.0734E-03     28.6722E-03    -15.1940E-03     30.0703E-03    -14.9965E-03     28.5979E-03
             757     8.86600E-03     80.9517E-03    -7.99273E+06    -45.9292E+06     526.075E+03    -4.90650E+06    -15.2592E-03     30.3344E-03    -15.0752E-03     32.3943E-03    -15.2381E-03     30.1203E-03    -14.9944E-03     32.3211E-03
             758     9.75258E-03     80.9834E-03    -6.75865E+06    -44.1853E+06    -1.06691E+06    -5.04964E+06    -15.2912E-03     30.3501E-03    -15.0588E-03     36.2405E-03    -15.2664E-03     30.1474E-03    -14.9903E-03     36.1629E-03
             759     10.6394E-03     81.0188E-03    -5.68043E+06    -44.3140E+06    -1.46340E+06    -4.76609E+06    -15.3766E-03     30.4271E-03    -15.0506E-03     40.0704E-03    -15.3489E-03     30.2263E-03    -14.9854E-03     39.9933E-03
             760     11.5260E-03     81.0576E-03    -4.80692E+06    -44.8468E+06    -4.84537E+06    -4.44896E+06    -15.4778E-03     30.5076E-03    -15.0298E-03     43.9356E-03    -15.4453E-03     30.3129E-03    -14.9820E-03     43.8585E-03
             761     12.4128E-03     81.1002E-03    -3.94033E+06    -35.1217E+06    -4.94072E+06    -3.38478E+06    -15.5716E-03     30.5836E-03    -15.0120E-03     48.1152E-03    -15.5569E-03     30.4446E-03    -14.9801E-03     48.0471E-03
             762     13.2995E-03     81.1470E-03    -4.76483E+06    -25.5657E+06    -6.95226E+06    -2.47868E+06    -15.7019E-03     30.6911E-03    -14.9893E-03     52.6817E-03    -15.7158E-03     30.6176E-03    -14.9801E-03     52.6205E-03
             763     14.1859E-03     81.1979E-03    -6.60006E+06    -10.3005E+06    -15.2121E+06    -2.87784E+06    -15.7524E-03     30.6803E-03    -14.9279E-03     58.1232E-03    -15.8103E-03     30.7223E-03    -14.9795E-03     58.0540E-03
             764     15.0726E-03     81.2549E-03    -6.71348E+06     37.0689E+06    -12.1073E+06    -2.64613E+06    -15.7837E-03     30.6539E-03    -14.8702E-03     65.4961E-03    -15.9663E-03     30.9794E-03    -14.9748E-03     65.4380E-03
             765     15.9586E-03     81.3191E-03    -5.46079E+06     90.1011E+06     7.43365E+06    -1.53637E+06    -15.7820E-03     30.6613E-03    -14.8793E-03     74.0774E-03    -16.1522E-03     31.3104E-03    -14.9649E-03     74.0856E-03
             766     16.8461E-03     81.3924E-03    -3.71520E+06     108.876E+06     38.7504E+06    -679.466E+03    -15.0313E-03     30.0208E-03    -14.9895E-03     50.1493E-03    -15.4153E-03     30.6657E-03    -14.9482E-03     50.1987E-03
             767     886.601E-06     81.7867E-03    -19.4268E+06    -58.5111E+06    -19.4110E+06    -888.574E+03    -15.0934E-03     30.1094E-03    -15.0161E-03     3.13834E-03    -15.0776E-03     29.8737E-03    -15.0001E-03     3.12635E-03
             768     1.77308E-03     81.7908E-03    -18.9602E+06    -57.4029E+06    -17.9786E+06    -1.81901E+06    -15.0492E-03     30.1050E-03    -15.0559E-03     5.88249E-03    -15.0348E-03     29.8718E-03    -15.0350E-03     5.85799E-03
             769     2.65977E-03     81.7976E-03    -18.1026E+06    -56.8104E+06    -15.0485E+06    -2.57422E+06    -15.0662E-03     30.1321E-03    -15.0659E-03     8.87228E-03    -15.0527E-03     29.8963E-03    -15.0325E-03     8.83747E-03
             770     3.54623E-03     81.8072E-03    -17.2014E+06    -55.9352E+06    -12.6440E+06    -3.43525E+06    -15.0756E-03     30.1501E-03    -15.0745E-03     11.9383E-03    -15.0626E-03     29.9141E-03    -15.0317E-03     11.8918E-03
             771     4.43292E-03     81.8197E-03    -15.6909E+06    -52.8153E+06    -10.6689E+06    -3.85576E+06    -15.0693E-03     30.1432E-03    -15.0738E-03     15.1452E-03    -15.0564E-03     29.9179E-03    -15.0278E-03     15.0925E-03
             772     5.31947E-03     81.8354E-03    -13.9852E+06    -50.6360E+06    -6.86717E+06    -4.07757E+06    -15.0727E-03     30.1528E-03    -15.0801E-03     18.4189E-03    -15.0602E-03     29.9308E-03    -15.0207E-03     18.3624E-03
             773     6.20609E-03     81.8538E-03    -13.0518E+06    -49.9474E+06    -4.28324E+06    -4.70888E+06    -15.0854E-03     30.1677E-03    -15.0823E-03     21.7244E-03    -15.0735E-03     29.9446E-03    -15.0124E-03     21.6588E-03
             774     7.09282E-03     81.8755E-03    -12.3872E+06    -48.4881E+06    -3.72209E+06    -5.05478E+06    -15.1232E-03     30.1974E-03    -15.0743E-03     25.1454E-03    -15.1116E-03     29.9805E-03    -15.0046E-03     25.0740E-03
             775     7.97939E-03     81.9005E-03    -11.4885E+06    -45.5050E+06    -2.09798E+06    -5.71852E+06    -15.1697E-03     30.2402E-03    -15.0705E-03     28.7505E-03    -15.1614E-03     30.0357E-03    -14.9984E-03     28.6689E-03
             776     8.86606E-03     81.9287E-03    -9.74896E+06    -45.4412E+06    -1.07000E+06    -6.22675E+06    -15.2350E-03     30.3031E-03    -15.0681E-03     32.4589E-03    -15.2211E-03     30.0964E-03    -14.9934E-03     32.3687E-03
             777     9.75282E-03     81.9604E-03    -7.89977E+06    -43.9750E+06    -1.85658E+06    -5.75317E+06    -15.3154E-03     30.3712E-03    -15.0557E-03     36.2452E-03    -15.2955E-03     30.1724E-03    -14.9898E-03     36.1586E-03
             778     10.6394E-03     81.9958E-03    -6.70106E+06    -44.0530E+06    -1.84047E+06    -5.60633E+06    -15.4074E-03     30.4595E-03    -15.0521E-03     40.0276E-03    -15.3847E-03     30.2620E-03    -14.9877E-03     39.9396E-03
             779     11.5260E-03     82.0346E-03    -5.93254E+06    -45.2816E+06    -4.04035E+06    -4.98872E+06    -15.5089E-03     30.5501E-03    -15.0412E-03     43.8426E-03    -15.4826E-03     30.3537E-03    -14.9871E-03     43.7584E-03
             780     12.4125E-03     82.0772E-03    -6.18348E+06    -36.7389E+06    -5.30082E+06    -3.65077E+06    -15.5722E-03     30.5945E-03    -15.0223E-03     48.0859E-03    -15.5659E-03     30.4512E-03    -14.9866E-03     48.0144E-03
             781     13.2991E-03     82.1240E-03    -5.20516E+06    -25.6436E+06    -6.66735E+06    -2.62447E+06    -15.6542E-03     30.6507E-03    -14.9965E-03     52.6523E-03    -15.6706E-03     30.5769E-03    -14.9851E-03     52.5893E-03
             782     14.1858E-03     82.1751E-03    -3.07663E+06    -8.26956E+06    -12.5394E+06    -3.66418E+06    -15.7441E-03     30.6801E-03    -14.9360E-03     57.9934E-03    -15.7912E-03     30.7233E-03    -14.9823E-03     57.9141E-03
             783     15.0727E-03     82.2314E-03    -2.02101E+06     34.8085E+06    -10.7734E+06    -3.33782E+06    -15.7611E-03     30.6353E-03    -14.8742E-03     65.5155E-03    -15.9189E-03     30.9407E-03    -14.9756E-03     65.4485E-03
             784     15.9600E-03     82.2970E-03    -2.31031E+06     88.6067E+06     9.64268E+06    -836.582E+03    -15.8013E-03     30.6886E-03    -14.8874E-03     74.1621E-03    -16.1568E-03     31.3226E-03    -14.9643E-03     74.1793E-03
             785     16.8463E-03     82.3688E-03    -1.58432E+06     109.316E+06     41.9614E+06    -515.837E+03    -15.0870E-03     30.0896E-03    -15.0026E-03     50.2017E-03    -15.4659E-03     30.7293E-03    -14.9490E-03     50.2531E-03
             786     886.518E-06     82.7638E-03    -19.1229E+06    -56.5374E+06    -18.9475E+06    -1.04988E+06    -15.0417E-03     30.0993E-03    -15.0576E-03     3.08485E-03    -15.0279E-03     29.8723E-03    -15.0427E-03     3.07078E-03
             787     1.77321E-03     82.7678E-03    -18.6691E+06    -55.3564E+06    -17.3038E+06    -1.93880E+06    -15.0647E-03     30.1213E-03    -15.0566E-03     5.90760E-03    -15.0528E-03     29.8968E-03    -15.0358E-03     5.88156E-03
             788     2.65964E-03     82.7747E-03    -17.6194E+06    -55.0256E+06    -14.5812E+06    -2.79493E+06    -15.0796E-03     30.1509E-03    -15.0713E-03     8.88615E-03    -15.0669E-03     29.9227E-03    -15.0389E-03     8.84849E-03
             789     3.54630E-03     82.7843E-03    -16.0903E+06    -53.8980E+06    -11.9978E+06    -3.57773E+06    -15.0814E-03     30.1618E-03    -15.0804E-03     11.9606E-03    -15.0667E-03     29.9335E-03    -15.0389E-03     11.9122E-03
             790     4.43277E-03     82.7968E-03    -14.9686E+06    -51.7534E+06    -9.83212E+06    -4.26056E+06    -15.0668E-03     30.1481E-03    -15.0813E-03     15.1451E-03    -15.0530E-03     29.9259E-03    -15.0337E-03     15.0871E-03
             791     5.31950E-03     82.8123E-03    -13.7064E+06    -49.5117E+06    -6.23451E+06    -4.47769E+06    -15.0549E-03     30.1394E-03    -15.0846E-03     18.4130E-03    -15.0435E-03     29.9218E-03    -15.0241E-03     18.3514E-03
             792     6.20618E-03     82.8309E-03    -11.6168E+06    -48.4905E+06    -2.61656E+06    -4.82334E+06    -15.1004E-03     30.1893E-03    -15.0889E-03     21.7246E-03    -15.0859E-03     29.9690E-03    -15.0148E-03     21.6574E-03
             793     7.09267E-03     82.8525E-03    -9.58767E+06    -47.7513E+06    -734.421E+03    -5.18954E+06    -15.1293E-03     30.2162E-03    -15.0868E-03     25.1414E-03    -15.1092E-03     29.9946E-03    -15.0074E-03     25.0682E-03
             794     7.97946E-03     82.8774E-03    -8.30748E+06    -43.6927E+06     303.759E+03    -5.57186E+06    -15.1608E-03     30.2375E-03    -15.0766E-03     28.7275E-03    -15.1427E-03     30.0339E-03    -14.9997E-03     28.6478E-03
             795     8.86616E-03     82.9057E-03    -7.85505E+06    -44.1502E+06     141.586E+03    -6.59194E+06    -15.2650E-03     30.3361E-03    -15.0710E-03     32.3652E-03    -15.2453E-03     30.1313E-03    -14.9949E-03     32.2702E-03
             796     9.75260E-03     82.9374E-03    -7.04297E+06    -44.4474E+06    -1.04078E+06    -6.61252E+06    -15.3483E-03     30.4115E-03    -15.0632E-03     36.1515E-03    -15.3246E-03     30.2080E-03    -14.9938E-03     36.0536E-03
             797     10.6392E-03     82.9728E-03    -6.28636E+06    -43.5483E+06    -1.29619E+06    -5.80926E+06    -15.4150E-03     30.4738E-03    -15.0587E-03     40.0561E-03    -15.3919E-03     30.2774E-03    -14.9930E-03     39.9655E-03
             798     11.5258E-03     83.0117E-03    -5.98019E+06    -45.9604E+06    -4.78068E+06    -5.41479E+06    -15.5121E-03     30.5557E-03    -15.0436E-03     43.9243E-03    -15.4841E-03     30.3572E-03    -14.9922E-03     43.8346E-03
             799     12.4126E-03     83.0542E-03    -4.42820E+06    -37.8462E+06    -6.51782E+06    -4.48344E+06    -15.5710E-03     30.5904E-03    -15.0194E-03     48.2216E-03    -15.5525E-03     30.4407E-03    -14.9907E-03     48.1394E-03
             800     13.2992E-03     83.1010E-03    -2.59957E+06    -24.6957E+06    -8.82372E+06    -4.99518E+06    -15.6499E-03     30.6330E-03    -14.9831E-03     52.8357E-03    -15.6515E-03     30.5633E-03    -14.9876E-03     52.7422E-03
             801     14.1859E-03     83.1519E-03    -2.56788E+06    -8.20846E+06    -12.9354E+06    -4.43489E+06    -15.7730E-03     30.7086E-03    -14.9356E-03     58.0800E-03    -15.8172E-03     30.7521E-03    -14.9846E-03     57.9907E-03
             802     15.0722E-03     83.2088E-03    -4.76141E+06     32.9768E+06    -10.7453E+06    -2.66008E+06    -15.8112E-03     30.6969E-03    -14.8857E-03     65.4099E-03    -15.9803E-03     30.9973E-03    -14.9804E-03     65.3514E-03
             803     15.9589E-03     83.2731E-03    -4.49598E+06     86.6947E+06     8.34071E+06    -1.59075E+06    -15.7253E-03     30.6168E-03    -14.8915E-03     73.9606E-03    -16.0864E-03     31.2455E-03    -14.9690E-03     73.9683E-03
             804     16.8463E-03     83.3470E-03    -2.27046E+06     108.953E+06     41.4146E+06    -104.633E+03    -14.9792E-03     29.9807E-03    -15.0015E-03     49.9252E-03    -15.3589E-03     30.6190E-03    -14.9491E-03     49.9822E-03
             805     886.631E-06     83.7407E-03    -18.9762E+06    -54.5809E+06    -18.3471E+06    -1.06780E+06    -15.0176E-03     30.1209E-03    -15.1033E-03     3.09661E-03    -15.0068E-03     29.9026E-03    -15.0884E-03     3.08231E-03
             806     1.77308E-03     83.7449E-03    -18.4696E+06    -53.3141E+06    -17.1620E+06    -1.75198E+06    -15.0681E-03     30.1331E-03    -15.0650E-03     5.88888E-03    -15.0584E-03     29.9184E-03    -15.0467E-03     5.86526E-03
             807     2.65971E-03     83.7517E-03    -17.7998E+06    -52.6657E+06    -14.7905E+06    -3.00905E+06    -15.0628E-03     30.1363E-03    -15.0735E-03     8.88079E-03    -15.0542E-03     29.9205E-03    -15.0453E-03     8.84038E-03
             808     3.54622E-03     83.7613E-03    -16.4941E+06    -51.9683E+06    -12.1096E+06    -4.19616E+06    -15.0661E-03     30.1454E-03    -15.0793E-03     11.9743E-03    -15.0560E-03     29.9275E-03    -15.0406E-03     11.9180E-03
             809     4.43291E-03     83.7739E-03    -14.8392E+06    -50.6309E+06    -9.00628E+06    -4.37964E+06    -15.0738E-03     30.1585E-03    -15.0846E-03     15.1238E-03    -15.0622E-03     29.9405E-03    -15.0347E-03     15.0643E-03
             810     5.31943E-03     83.7892E-03    -13.4126E+06    -48.3091E+06    -5.21035E+06    -4.67407E+06    -15.0692E-03     30.1597E-03    -15.0905E-03     18.3905E-03    -15.0597E-03     29.9461E-03    -15.0270E-03     18.3263E-03
             811     6.20604E-03     83.8079E-03    -12.1766E+06    -46.8951E+06    -3.40262E+06    -5.41520E+06    -15.0720E-03     30.1576E-03    -15.0856E-03     21.7461E-03    -15.0614E-03     29.9472E-03    -15.0169E-03     21.6713E-03
             812     7.09281E-03     83.8295E-03    -10.6894E+06    -46.6846E+06    -2.67176E+06    -5.98033E+06    -15.1350E-03     30.2130E-03    -15.0780E-03     25.1560E-03    -15.1191E-03     30.0012E-03    -15.0082E-03     25.0726E-03
             813     7.97937E-03     83.8544E-03    -9.19915E+06    -43.2412E+06    -901.585E+03    -5.70269E+06    -15.2018E-03     30.2766E-03    -15.0749E-03     28.7463E-03    -15.1870E-03     30.0784E-03    -15.0033E-03     28.6648E-03
             814     8.86589E-03     83.8828E-03    -8.54576E+06    -42.1393E+06     445.333E+03    -5.71706E+06    -15.2499E-03     30.3257E-03    -15.0758E-03     32.4264E-03    -15.2370E-03     30.1315E-03    -15.0001E-03     32.3427E-03
             815     9.75262E-03     83.9144E-03    -8.55975E+06    -43.7390E+06    -1.52039E+06    -6.86035E+06    -15.3054E-03     30.3699E-03    -15.0646E-03     36.2532E-03    -15.2895E-03     30.1729E-03    -14.9963E-03     36.1523E-03
             816     10.6393E-03     83.9498E-03    -7.38990E+06    -44.0350E+06    -2.89722E+06    -6.72697E+06    -15.3927E-03     30.4455E-03    -15.0529E-03     40.2051E-03    -15.3719E-03     30.2507E-03    -14.9928E-03     40.1026E-03
             817     11.5260E-03     83.9887E-03    -5.59397E+06    -45.4005E+06    -5.29269E+06    -6.32380E+06    -15.5025E-03     30.5407E-03    -15.0382E-03     44.0003E-03    -15.4726E-03     30.3451E-03    -14.9907E-03     43.8989E-03
             818     12.4124E-03     84.0311E-03    -3.20957E+06    -36.8972E+06    -6.68965E+06    -7.93202E+06    -15.5753E-03     30.5888E-03    -15.0135E-03     48.2776E-03    -15.5519E-03     30.4424E-03    -14.9888E-03     48.1508E-03
             819     13.2992E-03     84.0780E-03    -563.201E+03    -25.3545E+06    -8.26373E+06    -7.05793E+06    -15.6779E-03     30.6605E-03    -14.9826E-03     52.8755E-03    -15.6693E-03     30.5839E-03    -14.9863E-03     52.7553E-03
             820     14.1857E-03     84.1291E-03    -450.708E+03    -11.3889E+06    -10.9542E+06    -3.53340E+06    -15.7572E-03     30.7028E-03    -14.9455E-03     58.1128E-03    -15.7892E-03     30.7245E-03    -14.9831E-03     58.0351E-03
             821     15.0727E-03     84.1856E-03    -1.13715E+06     32.1764E+06    -9.85963E+06    -1.12761E+06    -15.8001E-03     30.6827E-03    -14.8826E-03     65.7439E-03    -15.9515E-03     30.9729E-03    -14.9769E-03     65.7054E-03
             822     15.9592E-03     84.2509E-03    -3.02451E+06     85.7120E+06     6.84700E+06    -555.263E+03    -15.6880E-03     30.5651E-03    -14.8771E-03     74.4011E-03    -16.0389E-03     31.1897E-03    -14.9628E-03     74.4233E-03
             823     16.8462E-03     84.3227E-03    -2.67645E+06     107.830E+06     40.4633E+06    -340.504E+03    -14.9636E-03     29.9542E-03    -14.9906E-03     50.4749E-03    -15.3433E-03     30.5899E-03    -14.9408E-03     50.5298E-03
             824     886.482E-06     84.7179E-03    -18.7473E+06    -52.6842E+06    -18.1762E+06    -831.886E+03    -15.0659E-03     30.1433E-03    -15.0774E-03     3.16949E-03    -15.0570E-03     29.9339E-03    -15.0647E-03     3.15823E-03
             825     1.77308E-03     84.7219E-03    -18.1305E+06    -51.5048E+06    -16.2882E+06    -1.67608E+06    -15.0620E-03     30.1381E-03    -15.0760E-03     5.90765E-03    -15.0545E-03     29.9306E-03    -15.0565E-03     5.88500E-03
             826     2.65965E-03     84.7288E-03    -17.2117E+06    -50.0663E+06    -13.3502E+06    -2.71663E+06    -15.0500E-03     30.1301E-03    -15.0801E-03     8.88002E-03    -15.0443E-03     29.9243E-03    -15.0493E-03     8.84338E-03
             827     3.54628E-03     84.7384E-03    -16.3995E+06    -49.4966E+06    -10.6300E+06    -4.15115E+06    -15.0548E-03     30.1387E-03    -15.0839E-03     11.9552E-03    -15.0500E-03     29.9308E-03    -15.0415E-03     11.8994E-03
             828     4.43281E-03     84.7508E-03    -15.0694E+06    -49.7367E+06    -9.05675E+06    -4.94143E+06    -15.0683E-03     30.1515E-03    -15.0831E-03     15.1213E-03    -15.0591E-03     29.9384E-03    -15.0345E-03     15.0545E-03
             829     5.31944E-03     84.7664E-03    -13.4192E+06    -47.1380E+06    -6.40873E+06    -4.80203E+06    -15.0635E-03     30.1453E-03    -15.0818E-03     18.3990E-03    -15.0539E-03     29.9393E-03    -15.0260E-03     18.3331E-03
             830     6.20613E-03     84.7847E-03    -12.0259E+06    -44.7675E+06    -3.52913E+06    -5.51812E+06    -15.0837E-03     30.1650E-03    -15.0813E-03     21.7604E-03    -15.0753E-03     29.9652E-03    -15.0166E-03     21.6843E-03
             831     7.09275E-03     84.8065E-03    -10.7144E+06    -45.4839E+06    -2.09179E+06    -6.40359E+06    -15.1451E-03     30.2257E-03    -15.0806E-03     25.1741E-03    -15.1319E-03     30.0191E-03    -15.0095E-03     25.0853E-03
             832     7.97932E-03     84.8315E-03    -9.25090E+06    -43.2634E+06    -899.217E+03    -6.30914E+06    -15.1742E-03     30.2497E-03    -15.0755E-03     28.7957E-03    -15.1597E-03     30.0513E-03    -15.0038E-03     28.7064E-03
             833     8.86609E-03     84.8597E-03    -7.45054E+06    -41.2223E+06     856.240E+03    -5.88360E+06    -15.2092E-03     30.2808E-03    -15.0717E-03     32.5292E-03    -15.1926E-03     30.0890E-03    -14.9968E-03     32.4435E-03
             834     9.75271E-03     84.8914E-03    -6.29830E+06    -41.7291E+06     370.998E+03    -6.21913E+06    -15.2959E-03     30.3579E-03    -15.0620E-03     36.2812E-03    -15.2744E-03     30.1649E-03    -14.9905E-03     36.1885E-03
             835     10.6393E-03     84.9267E-03    -6.28738E+06    -43.5785E+06    -2.81217E+06    -7.41672E+06    -15.3795E-03     30.4238E-03    -15.0443E-03     40.2523E-03    -15.3541E-03     30.2295E-03    -14.9860E-03     40.1410E-03
             836     11.5259E-03     84.9658E-03    -5.47048E+06    -44.3970E+06    -6.17075E+06    -8.08219E+06    -15.4725E-03     30.4965E-03    -15.0239E-03     44.1242E-03    -15.4422E-03     30.3070E-03    -14.9825E-03     44.0001E-03
             837     12.4127E-03     85.0081E-03    -6.01937E+06    -34.4697E+06    -8.25775E+06    -8.56661E+06    -15.5650E-03     30.5624E-03    -14.9974E-03     48.4595E-03    -15.5569E-03     30.4346E-03    -14.9800E-03     48.3246E-03
             838     13.2991E-03     85.0552E-03    -8.35155E+06    -28.1355E+06    -12.5877E+06    -8.03511E+06    -15.6593E-03     30.6276E-03    -14.9682E-03     53.1154E-03    -15.6794E-03     30.5546E-03    -14.9783E-03     52.9827E-03
             839     14.1860E-03     85.1059E-03    -8.30109E+06    -15.4385E+06    -14.4074E+06    -4.70505E+06    -15.7155E-03     30.6531E-03    -14.9376E-03     58.2231E-03    -15.7761E-03     30.6712E-03    -14.9752E-03     58.1303E-03
             840     15.0725E-03     85.1627E-03    -7.30189E+06     30.7386E+06    -11.2661E+06    -2.20230E+06    -15.6875E-03     30.5637E-03    -14.8763E-03     65.6582E-03    -15.8656E-03     30.8577E-03    -14.9666E-03     65.6062E-03
             841     15.9600E-03     85.2275E-03    -4.82091E+06     85.3092E+06     6.43259E+06    -799.471E+03    -15.7242E-03     30.5921E-03    -14.8679E-03     73.8735E-03    -16.0826E-03     31.2176E-03    -14.9524E-03     73.8920E-03
             842     16.8470E-03     85.3000E-03    -2.57602E+06     108.037E+06     38.8481E+06     172.068E+03    -15.0711E-03     30.0484E-03    -14.9773E-03     49.8987E-03    -15.4482E-03     30.6872E-03    -14.9360E-03     49.9591E-03
             843     886.592E-06     85.6949E-03    -18.0437E+06    -50.9816E+06    -17.4586E+06    -832.529E+03    -15.0736E-03     30.1306E-03    -15.0570E-03     3.12338E-03    -15.0647E-03     29.9276E-03    -15.0442E-03     3.11212E-03
             844     1.77314E-03     85.6991E-03    -17.2634E+06    -49.6643E+06    -15.1892E+06    -1.59579E+06    -15.0531E-03     30.1238E-03    -15.0707E-03     5.92607E-03    -15.0455E-03     29.9227E-03    -15.0496E-03     5.90446E-03
             845     2.65965E-03     85.7059E-03    -16.2814E+06    -48.0522E+06    -12.4424E+06    -2.38802E+06    -15.0549E-03     30.1296E-03    -15.0746E-03     8.89643E-03    -15.0488E-03     29.9312E-03    -15.0436E-03     8.86403E-03
             846     3.54625E-03     85.7154E-03    -15.2503E+06    -46.7597E+06    -9.70391E+06    -3.49352E+06    -15.0512E-03     30.1300E-03    -15.0788E-03     11.9820E-03    -15.0460E-03     29.9328E-03    -15.0374E-03     11.9347E-03
             847     4.43286E-03     85.7280E-03    -14.4454E+06    -47.8414E+06    -8.08475E+06    -4.94896E+06    -15.0541E-03     30.1335E-03    -15.0794E-03     15.1296E-03    -15.0459E-03     29.9276E-03    -15.0295E-03     15.0627E-03
             848     5.31952E-03     85.7432E-03    -12.8987E+06    -46.2433E+06    -6.43466E+06    -5.68536E+06    -15.0686E-03     30.1432E-03    -15.0746E-03     18.3990E-03    -15.0577E-03     29.9410E-03    -15.0210E-03     18.3217E-03
             849     6.20612E-03     85.7619E-03    -10.9025E+06    -42.9985E+06    -2.79532E+06    -5.74973E+06    -15.1075E-03     30.1857E-03    -15.0782E-03     21.7885E-03    -15.0971E-03     29.9921E-03    -15.0140E-03     21.7094E-03
             850     7.09265E-03     85.7835E-03    -9.67593E+06    -43.8393E+06    -346.842E+03    -6.41141E+06    -15.1218E-03     30.2050E-03    -15.0832E-03     25.2156E-03    -15.1083E-03     30.0026E-03    -15.0073E-03     25.1267E-03
             851     7.97945E-03     85.8084E-03    -8.27348E+06    -42.3954E+06    -466.189E+03    -7.19142E+06    -15.1266E-03     30.1955E-03    -15.0689E-03     28.8220E-03    -15.1090E-03     29.9994E-03    -14.9978E-03     28.7214E-03
             852     8.86608E-03     85.8367E-03    -6.50294E+06    -41.2163E+06     81.9810E+03    -7.02309E+06    -15.2069E-03     30.2648E-03    -15.0579E-03     32.5706E-03    -15.1845E-03     30.0727E-03    -14.9883E-03     32.4702E-03
             853     9.75278E-03     85.8685E-03    -5.00447E+06    -40.7123E+06     871.434E+03    -6.49026E+06    -15.3085E-03     30.3619E-03    -15.0534E-03     36.2914E-03    -15.2828E-03     30.1714E-03    -14.9827E-03     36.1952E-03
             854     10.6394E-03     85.9037E-03    -3.78696E+06    -41.0022E+06     452.849E+03    -7.42224E+06    -15.3643E-03     30.4100E-03    -15.0457E-03     40.1764E-03    -15.3348E-03     30.2202E-03    -14.9785E-03     40.0650E-03
             855     11.5263E-03     85.9426E-03    -3.49748E+06     -43.324E+06    -3.67690E+06    -8.79195E+06    -15.4506E-03     30.4740E-03    -15.0234E-03     44.0821E-03    -15.4156E-03     30.2835E-03    -14.9739E-03     43.9489E-03
             856     12.4128E-03     85.9852E-03    -3.45709E+06    -35.1979E+06    -5.25567E+06    -7.31785E+06    -15.5478E-03     30.5479E-03    -15.0000E-03     48.3337E-03    -15.5303E-03     30.4083E-03    -14.9703E-03     48.2149E-03
             857     13.2997E-03     86.0320E-03    -4.71753E+06    -28.7080E+06    -8.76324E+06    -5.43964E+06    -15.6519E-03     30.6244E-03    -14.9725E-03     52.9238E-03    -15.6586E-03     30.5378E-03    -14.9678E-03     52.8245E-03
             858     14.1860E-03     86.0831E-03    -6.79326E+06    -17.4461E+06    -16.2034E+06    -5.55718E+06    -15.7510E-03     30.6708E-03    -14.9198E-03     58.1060E-03    -15.7986E-03     30.6793E-03    -14.9657E-03     58.0022E-03
             859     15.0730E-03     86.1394E-03    -5.80195E+06     28.9098E+06    -13.6676E+06    -4.27879E+06    -15.7643E-03     30.6228E-03    -14.8585E-03     65.6126E-03    -15.9285E-03     30.9086E-03    -14.9603E-03     65.5338E-03
             860     15.9592E-03     86.2046E-03    -4.56963E+06     83.3089E+06     4.14966E+06    -1.93162E+06    -15.7924E-03     30.6486E-03    -14.8562E-03     74.2749E-03    -16.1438E-03     31.2674E-03    -14.9496E-03     74.2783E-03
             861     16.8455E-03     86.2772E-03    -3.10024E+06     106.629E+06     36.5225E+06    -568.862E+03    -15.0653E-03     30.0317E-03    -14.9664E-03     50.2637E-03    -15.4400E-03     30.6680E-03    -14.9339E-03     50.3142E-03
             862     886.510E-06     86.6720E-03    -18.0711E+06    -49.0814E+06    -17.6015E+06    -1.16283E+06    -15.0690E-03     30.1148E-03    -15.0458E-03     3.08109E-03    -15.0628E-03     29.9216E-03    -15.0364E-03     3.06556E-03
             863     1.77310E-03     86.6761E-03    -16.9793E+06    -47.9075E+06    -15.4431E+06    -1.78334E+06    -15.0340E-03     30.0929E-03    -15.0589E-03     5.90494E-03    -15.0272E-03     29.9006E-03    -15.0421E-03     5.88093E-03
             864     2.65977E-03     86.6829E-03    -15.6597E+06    -46.3312E+06    -12.6591E+06    -2.49824E+06    -15.0361E-03     30.0948E-03    -15.0586E-03     8.89236E-03    -15.0291E-03     29.9044E-03    -15.0320E-03     8.85855E-03
             865     3.54629E-03     86.6925E-03    -14.3634E+06    -44.6568E+06    -9.26385E+06    -3.24561E+06    -15.0370E-03     30.1005E-03    -15.0635E-03     11.9844E-03    -15.0310E-03     29.9119E-03    -15.0242E-03     11.9403E-03
             866     4.43295E-03     86.7049E-03    -13.1498E+06    -45.0034E+06    -6.11079E+06     -4.4747E+06    -15.0580E-03     30.1295E-03    -15.0715E-03     15.1345E-03    -15.0503E-03     29.9331E-03    -15.0178E-03     15.0738E-03
             867     5.31949E-03     86.7204E-03    -12.3443E+06    -44.5912E+06    -4.88969E+06    -5.89504E+06    -15.0852E-03     30.1564E-03    -15.0712E-03     18.4246E-03    -15.0762E-03     29.9594E-03    -15.0131E-03     18.3447E-03
             868     6.20611E-03     86.7388E-03    -11.3911E+06    -42.1912E+06    -3.57184E+06    -6.25219E+06    -15.0606E-03     30.1261E-03    -15.0655E-03     21.8391E-03    -15.0527E-03     29.9383E-03    -15.0056E-03     21.7536E-03
             869     7.09290E-03     86.7606E-03    -9.82994E+06    -41.7220E+06    -1.35013E+06    -6.54944E+06    -15.0807E-03     30.1433E-03    -15.0627E-03     25.2759E-03    -15.0696E-03     29.9531E-03    -14.9947E-03     25.1853E-03
             870     7.97947E-03     86.7853E-03    -8.87656E+06    -40.8016E+06    -942.070E+03    -7.51703E+06    -15.1508E-03     30.2038E-03    -15.0530E-03     28.8579E-03    -15.1379E-03     30.0173E-03    -14.9857E-03     28.7531E-03
             871     8.86625E-03     86.8136E-03    -7.96947E+06    -40.8811E+06    -520.903E+03    -7.92977E+06    -15.2086E-03     30.2561E-03    -15.0475E-03     32.6148E-03    -15.1931E-03     30.0687E-03    -14.9793E-03     32.5027E-03
             872     9.75284E-03     86.8455E-03    -6.08745E+06    -40.0988E+06    -9.96187E+03    -7.98580E+06    -15.2824E-03     30.3233E-03    -15.0409E-03     36.3598E-03    -15.2617E-03     30.1387E-03    -14.9740E-03     36.2443E-03
             873     10.6395E-03     86.8807E-03    -4.75478E+06    -39.4271E+06     587.932E+03    -7.81097E+06    -15.3666E-03     30.4036E-03    -15.0369E-03     40.1889E-03    -15.3445E-03     30.2229E-03    -14.9699E-03     40.0724E-03
             874     11.5260E-03     86.9196E-03    -4.71339E+06    -41.4150E+06    -2.72058E+06    -8.34476E+06    -15.4443E-03     30.4641E-03    -15.0198E-03     44.1170E-03    -15.4196E-03     30.2835E-03    -14.9665E-03     43.9895E-03
             875     12.4129E-03     86.9621E-03    -4.61468E+06    -37.5890E+06    -6.06546E+06    -8.06760E+06    -15.5342E-03     30.5280E-03    -14.9938E-03     48.4426E-03    -15.5178E-03     30.3794E-03    -14.9630E-03     48.3142E-03
             876     13.2992E-03     87.0090E-03    -2.92286E+06    -30.1286E+06    -8.30582E+06    -5.62488E+06    -15.6390E-03     30.6051E-03    -14.9661E-03     53.0064E-03    -15.6353E-03     30.5081E-03    -14.9597E-03     52.9048E-03
             877     14.1863E-03     87.0600E-03    -1.29949E+06    -15.3174E+06    -13.6871E+06    -5.45857E+06    -15.7540E-03     30.6663E-03    -14.9123E-03     58.2086E-03    -15.7808E-03     30.6737E-03    -14.9566E-03     58.1062E-03
             878     15.0726E-03     87.1165E-03    -2.52077E+06     25.6831E+06    -13.1402E+06    -5.04099E+06    -15.8128E-03     30.6654E-03    -14.8526E-03     65.6998E-03    -15.9570E-03     30.9299E-03    -14.9518E-03     65.6109E-03
             879     15.9601E-03     87.1815E-03    -3.73343E+06     80.1367E+06     3.43537E+06    -2.11100E+06    -15.7065E-03     30.5526E-03    -14.8462E-03     74.2699E-03    -16.0476E-03     31.1550E-03    -14.9398E-03     74.2714E-03
             880     16.8478E-03     87.2543E-03    -2.22695E+06     106.717E+06     36.4574E+06    -372.675E+03    -15.0590E-03     30.0116E-03    -14.9525E-03     50.1849E-03    -15.4283E-03     30.6460E-03    -14.9218E-03     50.2381E-03
             881     886.588E-06     87.6491E-03    -17.8558E+06    -46.5906E+06    -17.6143E+06    -1.51470E+06    -15.0660E-03     30.0796E-03    -15.0136E-03     3.10998E-03    -15.0623E-03     29.8985E-03    -15.0082E-03     3.08992E-03
             882     1.77315E-03     87.6531E-03    -17.0269E+06    -45.8918E+06    -16.1012E+06    -2.38635E+06    -15.0293E-03     30.0701E-03    -15.0408E-03     5.90790E-03    -15.0247E-03     29.8889E-03    -15.0301E-03     5.87611E-03
             883     2.65969E-03     87.6600E-03    -15.6163E+06    -44.5572E+06    -13.0543E+06    -3.15593E+06    -15.0078E-03     30.0498E-03    -15.0420E-03     8.89563E-03    -15.0026E-03     29.8688E-03    -15.0200E-03     8.85335E-03
             884     3.54640E-03     87.6695E-03    -13.8123E+06    -43.0862E+06    -9.11862E+06    -3.64434E+06    -15.0115E-03     30.0569E-03    -15.0455E-03     11.9773E-03    -15.0052E-03     29.8751E-03    -15.0086E-03     11.9280E-03
             885     4.43298E-03     87.6820E-03     -12.129E+06    -42.5487E+06    -5.25429E+06    -4.38418E+06    -15.0467E-03     30.1010E-03    -15.0543E-03     15.1849E-03    -15.0387E-03     29.9141E-03    -15.0013E-03     15.1254E-03
             886     5.31961E-03     87.6974E-03    -10.6687E+06    -42.1671E+06    -3.14818E+06    -5.53461E+06    -15.0628E-03     30.1200E-03    -15.0572E-03     18.4557E-03    -15.0514E-03     29.9301E-03    -14.9963E-03     18.3804E-03
             887     6.20628E-03     87.7158E-03    -9.46537E+06    -41.1819E+06    -1.90466E+06    -6.36451E+06    -15.0511E-03     30.1034E-03    -15.0523E-03     21.8090E-03    -15.0374E-03     29.9154E-03    -14.9884E-03     21.7220E-03
             888     7.09296E-03     87.7374E-03    -8.22178E+06    -39.7546E+06     98.6399E+03    -7.05684E+06    -15.0883E-03     30.1372E-03    -15.0489E-03     25.2803E-03    -15.0741E-03     29.9524E-03    -14.9788E-03     25.1831E-03
             889     7.97971E-03     87.7624E-03    -6.14768E+06    -38.7670E+06     2.11816E+06    -8.04181E+06    -15.1703E-03     30.2186E-03    -15.0483E-03     28.8480E-03    -15.1512E-03     30.0339E-03    -14.9726E-03     28.7364E-03
             890     8.86618E-03     87.7906E-03    -4.18405E+06    -40.0316E+06     2.93332E+06    -8.58535E+06    -15.1993E-03     30.2453E-03    -15.0460E-03     32.6102E-03    -15.1712E-03     30.0517E-03    -14.9672E-03     32.4896E-03
             891     9.75300E-03     87.8224E-03    -4.16852E+06    -39.9450E+06     968.373E+03    -7.86593E+06    -15.2333E-03     30.2614E-03    -15.0282E-03     36.4751E-03    -15.2046E-03     30.0734E-03    -14.9594E-03     36.3613E-03
             892     10.6397E-03     87.8577E-03    -4.75285E+06    -38.5116E+06    -236.547E+03    -7.62834E+06    -15.3372E-03     30.3514E-03    -15.0142E-03     40.3664E-03    -15.3151E-03     30.1764E-03    -14.9526E-03     40.2524E-03
             893     11.5265E-03     87.8965E-03    -4.31714E+06    -39.4633E+06    -2.75103E+06    -8.43663E+06    -15.4425E-03     30.4413E-03    -14.9987E-03     44.2797E-03    -15.4185E-03     30.2698E-03    -14.9490E-03     44.1512E-03
             894     12.4130E-03     87.9390E-03    -3.86798E+06    -38.3808E+06    -6.70571E+06    -8.53707E+06    -15.5094E-03     30.4825E-03    -14.9731E-03     48.6390E-03    -15.4871E-03     30.3297E-03    -14.9454E-03     48.5047E-03
             895     13.3000E-03     87.9860E-03    -3.53910E+06    -31.6000E+06    -11.4379E+06    -7.94553E+06    -15.6335E-03     30.5687E-03    -14.9353E-03     53.2886E-03    -15.6261E-03     30.4698E-03    -14.9415E-03     53.1572E-03
             896     14.1864E-03     88.0369E-03    -3.44761E+06    -15.0159E+06    -14.2046E+06    -6.49798E+06    -15.7533E-03     30.6482E-03    -14.8949E-03     58.4032E-03    -15.7904E-03     30.6610E-03    -14.9392E-03     58.2875E-03
             897     15.0734E-03     88.0936E-03    -3.29290E+06     23.4486E+06    -12.1387E+06    -4.48622E+06    -15.8612E-03     30.7082E-03    -14.8469E-03     65.8656E-03    -16.0078E-03     30.9615E-03    -14.9369E-03     65.7838E-03
             898     15.9594E-03     88.1583E-03    -2.76128E+06     78.0432E+06     3.06402E+06    -2.19626E+06    -15.9641E-03     30.8041E-03    -14.8400E-03     74.0793E-03    -16.2974E-03     31.3958E-03    -14.9339E-03     74.0785E-03
             899     16.8460E-03     88.2307E-03    -2.37843E+06     106.141E+06     35.1360E+06    -160.541E+03    -15.0348E-03     29.9829E-03    -14.9480E-03     49.6931E-03    -15.4023E-03     30.6168E-03    -14.9228E-03     49.7484E-03
             900     886.591E-06     88.6261E-03    -16.4921E+06    -43.7788E+06    -15.9958E+06    -1.35611E+06    -15.0538E-03     30.0536E-03    -14.9997E-03     3.06820E-03    -15.0497E-03     29.8822E-03    -14.9923E-03     3.05021E-03
             901     1.77317E-03     88.6302E-03    -16.1731E+06    -43.2956E+06    -14.8737E+06    -2.67594E+06    -15.0064E-03     30.0327E-03    -15.0263E-03     5.86809E-03    -15.0031E-03     29.8614E-03    -15.0144E-03     5.83257E-03
             902     2.65982E-03     88.6369E-03    -15.2776E+06    -42.3785E+06    -12.7012E+06    -3.77162E+06    -14.9907E-03     30.0139E-03    -15.0233E-03     8.89190E-03    -14.9874E-03     29.8428E-03    -15.0032E-03     8.84168E-03
             903     3.54641E-03     88.6465E-03    -13.7689E+06    -41.5502E+06    -9.44229E+06    -4.45129E+06    -14.9880E-03     30.0124E-03    -15.0244E-03     12.0001E-03    -14.9833E-03     29.8387E-03    -14.9914E-03     11.9405E-03
             904     4.43310E-03     88.6590E-03    -11.6341E+06    -40.4266E+06    -5.69044E+06    -5.14548E+06    -14.9929E-03     30.0202E-03    -15.0272E-03     15.2201E-03    -14.9849E-03     29.8438E-03    -14.9802E-03     15.1507E-03
             905     5.31976E-03     88.6744E-03    -9.59007E+06    -40.0466E+06    -2.75409E+06    -5.91596E+06    -15.0271E-03     30.0563E-03    -15.0292E-03     18.4790E-03    -15.0140E-03     29.8749E-03    -14.9709E-03     18.3989E-03
             906     6.20641E-03     88.6928E-03    -8.08893E+06     -39.745E+06    -566.714E+03    -6.39406E+06    -15.0824E-03     30.1146E-03    -15.0322E-03     21.8173E-03    -15.0659E-03     29.9299E-03    -14.9656E-03     21.7299E-03
             907     7.09304E-03     88.7144E-03    -7.02840E+06    -37.7173E+06     938.984E+03    -7.17033E+06    -15.0888E-03     30.1191E-03    -15.0303E-03     25.3386E-03    -15.0728E-03     29.9415E-03    -14.9607E-03     25.2399E-03
             908     7.97962E-03     88.7394E-03    -6.88732E+06    -36.5575E+06     954.177E+03    -8.23520E+06    -15.0797E-03     30.0992E-03    -15.0195E-03     29.0076E-03    -15.0657E-03     29.9283E-03    -14.9518E-03     28.8936E-03
             909     8.86651E-03     88.7675E-03    -7.21283E+06    -39.2308E+06     597.758E+03    -8.55729E+06    -15.1252E-03     30.1363E-03    -15.0111E-03     32.7795E-03    -15.1100E-03     29.9545E-03    -14.9408E-03     32.6594E-03
             910     9.75320E-03     88.7992E-03    -5.92081E+06    -40.2207E+06    -866.563E+03    -8.19319E+06    -15.1820E-03     30.1748E-03    -14.9927E-03     36.6694E-03    -15.1590E-03     29.9904E-03    -14.9302E-03     36.5516E-03
             911     10.6400E-03     88.8346E-03    -3.78736E+06    -37.0304E+06    -724.024E+03    -8.16148E+06    -15.2898E-03     30.2669E-03    -14.9771E-03     40.6210E-03    -15.2643E-03     30.0986E-03    -14.9215E-03     40.5004E-03
             912     11.5266E-03     88.8735E-03    -3.72962E+06    -38.8734E+06    -2.35977E+06    -7.92842E+06    -15.4393E-03     30.4070E-03    -14.9677E-03     44.4084E-03    -15.4138E-03     30.2371E-03    -14.9178E-03     44.2864E-03
             913     12.4134E-03     88.9159E-03    -4.88250E+06    -37.0874E+06    -5.02073E+06    -8.31287E+06    -15.5165E-03     30.4688E-03    -14.9524E-03     48.6738E-03    -15.5036E-03     30.3216E-03    -14.9166E-03     48.5424E-03
             914     13.3000E-03     88.9627E-03    -4.70313E+06    -31.1562E+06    -10.6509E+06    -9.38302E+06    -15.6367E-03     30.5509E-03    -14.9142E-03     53.4125E-03    -15.6369E-03     30.4547E-03    -14.9155E-03     53.2626E-03
             915     14.1869E-03     89.0142E-03    -3.25608E+06    -17.4631E+06    -13.9938E+06    -8.04963E+06    -15.7975E-03     30.6738E-03    -14.8763E-03     58.4658E-03    -15.8305E-03     30.6738E-03    -14.9162E-03     58.3299E-03
             916     15.0733E-03     89.0702E-03    -2.90727E+06     20.8828E+06    -12.3378E+06    -4.90980E+06    -15.8912E-03     30.7204E-03    -14.8292E-03     65.9781E-03    -16.0320E-03     30.9609E-03    -14.9170E-03     65.8908E-03
             917     15.9605E-03     89.1361E-03    -3.26634E+06     74.9694E+06    -249.823E+03    -1.77124E+06    -16.0122E-03     30.8229E-03    -14.8108E-03     74.8484E-03    -16.3402E-03     31.4062E-03    -14.9160E-03     74.8533E-03
             918     16.8466E-03     89.2084E-03    -1.77792E+06     105.382E+06     32.1581E+06    -6.86631E+03    -15.0861E-03     30.0035E-03    -14.9173E-03     50.0228E-03    -15.4464E-03     30.6383E-03    -14.9068E-03     50.0803E-03
             919     886.548E-06     89.6032E-03    -15.3770E+06    -41.3906E+06    -14.5864E+06    -900.484E+03    -14.9812E-03     30.0026E-03    -15.0214E-03     3.04605E-03    -14.9770E-03     29.8395E-03    -15.0120E-03     3.03395E-03
             920     1.77319E-03     89.6071E-03    -15.1192E+06    -40.4713E+06    -12.9329E+06    -2.16061E+06    -14.9753E-03     29.9785E-03    -15.0033E-03     5.89112E-03    -14.9736E-03     29.8171E-03    -14.9873E-03     5.86226E-03
             921     2.65983E-03     89.6139E-03    -14.5684E+06    -39.6323E+06    -11.0872E+06    -3.68129E+06    -14.9748E-03     29.9755E-03    -15.0007E-03     8.89742E-03    -14.9743E-03     29.8148E-03    -14.9775E-03     8.84837E-03
             922     3.54651E-03     89.6234E-03    -13.6960E+06    -39.5588E+06    -9.21496E+06    -4.80042E+06    -14.9543E-03     29.9525E-03    -14.9982E-03     12.0029E-03    -14.9524E-03     29.7883E-03    -14.9670E-03     11.9388E-03
             923     4.43318E-03     89.6358E-03    -12.8637E+06    -38.1948E+06    -7.76573E+06    -5.68262E+06    -14.9345E-03     29.9223E-03    -14.9878E-03     15.2427E-03    -14.9328E-03     29.7618E-03    -14.9526E-03     15.1665E-03
             924     5.31994E-03     89.6513E-03    -12.0377E+06    -38.5362E+06    -5.75955E+06    -6.20988E+06    -14.9661E-03     29.9498E-03    -14.9837E-03     18.5543E-03    -14.9630E-03     29.7839E-03    -14.9392E-03     18.4705E-03
             925     6.20659E-03     89.6698E-03    -10.8521E+06    -38.0241E+06    -3.99397E+06    -6.75165E+06    -15.0039E-03     29.9847E-03    -14.9808E-03     21.9783E-03    -14.9987E-03     29.8175E-03    -14.9299E-03     21.8864E-03
             926     7.09322E-03     89.6914E-03    -9.70504E+06    -36.0615E+06    -2.55567E+06    -7.21441E+06    -14.9902E-03     29.9633E-03    -14.9731E-03     25.5387E-03    -14.9848E-03     29.8029E-03    -14.9195E-03     25.4397E-03
             927     7.98019E-03     89.7160E-03    -9.36283E+06    -35.3378E+06    -977.133E+03    -6.94680E+06    -14.9850E-03     29.9501E-03    -14.9652E-03     29.2252E-03    -14.9823E-03     29.7916E-03    -14.9052E-03     29.1282E-03
             928     8.86694E-03     89.7443E-03    -9.30965E+06    -37.3681E+06    -527.749E+03    -7.73080E+06    -15.0534E-03     30.0098E-03    -14.9563E-03     32.9856E-03    -15.0497E-03     29.8419E-03    -14.8913E-03     32.8764E-03
             929     9.75373E-03     89.7760E-03    -9.04798E+06    -38.9112E+06    -2.53477E+06    -9.36568E+06    -15.1488E-03     30.0869E-03    -14.9381E-03     36.8651E-03    -15.1409E-03     29.9161E-03    -14.8812E-03     36.7322E-03
             930     10.6405E-03     89.8113E-03    -8.38139E+06    -36.7193E+06    -3.11518E+06    -9.43251E+06    -15.2482E-03     30.1726E-03    -14.9244E-03     40.9180E-03    -15.2426E-03     30.0159E-03    -14.8746E-03     40.7811E-03
             931     11.5274E-03     89.8506E-03    -6.62822E+06    -39.0638E+06    -3.41435E+06    -8.41139E+06    -15.4098E-03     30.3316E-03    -14.9217E-03     44.6751E-03    -15.3970E-03     30.1664E-03    -14.8725E-03     44.5471E-03
             932     12.4139E-03     89.8926E-03    -4.60018E+06    -34.9319E+06    -3.93297E+06    -8.65780E+06    -15.5462E-03     30.4586E-03    -14.9124E-03     48.9196E-03    -15.5367E-03     30.3201E-03    -14.8747E-03     48.7837E-03
             933     13.3006E-03     89.9399E-03    -4.37425E+06    -29.4704E+06    -10.0334E+06    -9.89697E+06    -15.6670E-03     30.5439E-03    -14.8769E-03     53.7571E-03    -15.6689E-03     30.4548E-03    -14.8780E-03     53.6007E-03
             934     14.1871E-03     89.9908E-03    -5.78314E+06    -20.3545E+06    -15.9252E+06    -8.92968E+06    -15.8511E-03     30.6927E-03    -14.8415E-03     58.8988E-03    -15.8899E-03     30.6849E-03    -14.8833E-03     58.7517E-03
             935     15.0739E-03     90.0478E-03    -6.48118E+06     17.2228E+06    -14.9629E+06    -5.29868E+06    -15.9785E-03     30.7781E-03    -14.7996E-03     66.1733E-03    -16.1285E-03     31.0097E-03    -14.8900E-03     66.0807E-03
             936     15.9603E-03     90.1122E-03    -6.04645E+06     72.0846E+06    -3.37522E+06    -2.28371E+06    -15.8075E-03     30.5828E-03    -14.7753E-03     74.6300E-03    -16.1388E-03     31.1583E-03    -14.8879E-03     74.6294E-03
             937     16.8482E-03     90.1860E-03    -4.15881E+06     104.026E+06     28.0423E+06    -1.17125E+06    -15.1416E-03     30.0137E-03    -14.8721E-03     49.5054E-03    -15.5031E-03     30.6484E-03    -14.8767E-03     49.5479E-03
             938     886.692E-06     90.5801E-03    -15.0678E+06    -39.6116E+06    -14.8085E+06    -909.771E+03    -14.8836E-03     29.8894E-03    -15.0059E-03     3.05275E-03    -14.8801E-03     29.7351E-03    -15.0006E-03     3.04051E-03
             939     1.77335E-03     90.5841E-03    -14.5460E+06    -38.2043E+06    -12.8088E+06    -1.51807E+06    -14.9510E-03     29.9027E-03    -14.9517E-03     5.90103E-03    -14.9499E-03     29.7515E-03    -14.9392E-03     5.88048E-03
             940     2.65995E-03     90.5908E-03    -14.3929E+06    -36.7031E+06    -10.9107E+06    -2.77117E+06    -14.9235E-03     29.8777E-03    -14.9542E-03     8.91741E-03    -14.9266E-03     29.7311E-03    -14.9347E-03     8.88015E-03
             941     3.54662E-03     90.6003E-03    -14.1624E+06    -37.0375E+06    -9.60982E+06    -4.34535E+06    -14.8944E-03     29.8427E-03    -14.9483E-03     12.0556E-03    -14.8979E-03     29.6923E-03    -14.9221E-03     11.9974E-03
             942     4.43339E-03     90.6126E-03    -13.8191E+06    -36.3843E+06    -8.66951E+06    -5.11307E+06    -14.8827E-03     29.8186E-03    -14.9358E-03     15.3314E-03    -14.8871E-03     29.6699E-03    -14.9064E-03     15.2626E-03
             943     5.32011E-03     90.6281E-03    -13.3555E+06    -36.5920E+06    -7.33340E+06    -5.94631E+06    -14.8611E-03     29.7857E-03    -14.9247E-03     18.6882E-03    -14.8651E-03     29.6337E-03    -14.8889E-03     18.6079E-03
             944     6.20695E-03     90.6465E-03    -12.4850E+06    -35.8174E+06    -6.15550E+06    -7.16444E+06    -14.8422E-03     29.7502E-03    -14.9080E-03     22.1421E-03    -14.8451E-03     29.5995E-03    -14.8688E-03     22.0451E-03
             945     7.09396E-03     90.6680E-03    -11.3667E+06    -35.3061E+06    -3.91109E+06    -7.37965E+06    -14.8830E-03     29.7808E-03    -14.8979E-03     25.6632E-03    -14.8850E-03     29.6285E-03    -14.8497E-03     25.5622E-03
             946     7.98065E-03     90.6928E-03    -9.61575E+06    -34.9749E+06    -527.306E+03    -7.01309E+06    -14.9443E-03     29.8414E-03    -14.8972E-03     29.3320E-03    -14.9440E-03     29.6844E-03    -14.8352E-03     29.2342E-03
             947     8.86754E-03     90.7210E-03    -7.77791E+06    -34.5732E+06     1.85510E+06    -7.62779E+06    -15.0090E-03     29.9036E-03    -14.8946E-03     33.1324E-03    -15.0051E-03     29.7439E-03    -14.8239E-03     33.0247E-03
             948     9.75441E-03     90.7527E-03    -6.95983E+06    -36.8092E+06     1.13528E+06    -8.78552E+06    -15.1157E-03     30.0010E-03    -14.8852E-03     37.0099E-03    -15.1057E-03     29.8322E-03    -14.8161E-03     36.8847E-03
             949     10.6411E-03     90.7881E-03    -6.86250E+06    -36.2262E+06    -869.537E+03    -9.44115E+06    -15.2099E-03     30.0795E-03    -14.8696E-03     41.1168E-03    -15.2007E-03     29.9198E-03    -14.8114E-03     40.9800E-03
             950     11.5279E-03     90.8272E-03    -6.28021E+06    -38.3516E+06    -4.33995E+06    -10.1194E+06    -15.3631E-03     30.2164E-03    -14.8533E-03     45.0342E-03    -15.3481E-03     30.0555E-03    -14.8103E-03     44.8844E-03
             951     12.4147E-03     90.8698E-03    -4.85491E+06    -33.5275E+06    -4.64893E+06    -10.5254E+06    -15.5596E-03     30.4071E-03    -14.8475E-03     49.2343E-03    -15.5523E-03     30.2771E-03    -14.8151E-03     49.0745E-03
             952     13.3013E-03     90.9164E-03    -3.93844E+06    -29.0562E+06    -7.73515E+06    -9.66400E+06    -15.7272E-03     30.5610E-03    -14.8338E-03     53.9162E-03    -15.7311E-03     30.4701E-03    -14.8246E-03     53.7627E-03
             953     14.1880E-03     90.9681E-03    -4.17281E+06    -22.0152E+06    -13.5980E+06    -8.23010E+06    -15.8920E-03     30.6978E-03    -14.8058E-03     59.1655E-03    -15.9240E-03     30.6762E-03    -14.8358E-03     59.0273E-03
             954     15.0744E-03     91.0245E-03    -4.17478E+06     13.7254E+06    -14.4593E+06    -6.14502E+06    -16.0788E-03     30.8408E-03    -14.7620E-03     66.5779E-03    -16.2132E-03     31.0511E-03    -14.8482E-03     66.4742E-03
             955     15.9610E-03     91.0901E-03    -2.88969E+06     69.6044E+06    -5.38426E+06    -3.49695E+06    -15.9483E-03     30.6783E-03    -14.7300E-03     74.6705E-03    -16.2574E-03     31.2398E-03    -14.8537E-03     74.6541E-03
             956     16.8473E-03     91.1614E-03    -1.37661E+06     103.104E+06     27.6715E+06    -1.86066E+06    -15.3010E-03     30.1430E-03    -14.8419E-03     50.3413E-03    -15.6480E-03     30.7708E-03    -14.8511E-03     50.3751E-03
             957     886.701E-06     91.5570E-03    -14.2188E+06    -37.9731E+06    -13.8643E+06    -995.110E+03    -14.8962E-03     29.7790E-03    -14.8828E-03     3.10930E-03    -14.8922E-03     29.6303E-03    -14.8764E-03     3.09598E-03
             958     1.77334E-03     91.5610E-03    -14.0643E+06    -36.9887E+06    -13.3515E+06    -1.15256E+06    -14.8684E-03     29.7532E-03    -14.8848E-03     5.91351E-03    -14.8658E-03     29.6082E-03    -14.8775E-03     5.89772E-03
             959     2.66013E-03     91.5677E-03    -13.9941E+06    -34.3722E+06    -11.8155E+06    -1.79910E+06    -14.8281E-03     29.7026E-03    -14.8744E-03     8.94797E-03    -14.8313E-03     29.5683E-03    -14.8634E-03     8.92332E-03
             960     3.54696E-03     91.5770E-03    -13.9655E+06    -34.1137E+06    -9.07074E+06    -3.29320E+06    -14.8195E-03     29.6911E-03    -14.8716E-03     12.1166E-03    -14.8271E-03     29.5543E-03    -14.8472E-03     12.0721E-03
             961     4.43370E-03     91.5894E-03    -13.2176E+06    -34.7218E+06    -6.86963E+06    -4.70735E+06    -14.7967E-03     29.6629E-03    -14.8662E-03     15.4060E-03    -14.8031E-03     29.5190E-03    -14.8310E-03     15.3425E-03
             962     5.32058E-03     91.6047E-03    -11.9063E+06    -33.9336E+06    -5.04077E+06    -5.83236E+06    -14.7539E-03     29.6054E-03    -14.8515E-03     18.7580E-03    -14.7579E-03     29.4612E-03    -14.8102E-03     18.6793E-03
             963     6.20756E-03     91.6230E-03    -10.6391E+06    -33.2718E+06    -2.72176E+06    -7.31445E+06    -14.7522E-03     29.5893E-03    -14.8370E-03     22.1881E-03    -14.7546E-03     29.4437E-03    -14.7870E-03     22.0893E-03
             964     7.09439E-03     91.6446E-03    -8.94935E+06    -34.7203E+06    -570.713E+03    -7.92363E+06    -14.8012E-03     29.6286E-03    -14.8274E-03     25.7336E-03    -14.7969E-03     29.4709E-03    -14.7669E-03     25.6256E-03
             965     7.98139E-03     91.6694E-03    -7.40906E+06    -34.2371E+06     1.48643E+06    -7.74943E+06    -14.8663E-03     29.6859E-03    -14.8196E-03     29.4538E-03    -14.8589E-03     29.5264E-03    -14.7518E-03     29.3466E-03
             966     8.86829E-03     91.6976E-03    -5.96930E+06    -32.4078E+06     3.29966E+06    -8.23543E+06    -14.9456E-03     29.7587E-03    -14.8131E-03     33.3369E-03    -14.9378E-03     29.6051E-03    -14.7410E-03     33.2215E-03
             967     9.75508E-03     91.7294E-03    -4.38061E+06    -35.2280E+06     2.46106E+06    -8.89553E+06    -15.0483E-03     29.8519E-03    -14.8036E-03     37.2598E-03    -15.0295E-03     29.6853E-03    -14.7338E-03     37.1333E-03
             968     10.6420E-03     91.7646E-03    -3.61916E+06    -35.3023E+06     844.053E+03    -8.86544E+06    -15.1586E-03     29.9490E-03    -14.7904E-03     41.3804E-03    -15.1368E-03     29.7867E-03    -14.7298E-03     41.2512E-03
             969     11.5290E-03     91.8040E-03    -4.56812E+06    -36.1998E+06    -2.56714E+06    -9.46154E+06    -15.3309E-03     30.1078E-03    -14.7769E-03     45.3673E-03    -15.3130E-03     29.9526E-03    -14.7306E-03     45.2262E-03
             970     12.4157E-03     91.8464E-03    -6.31613E+06    -32.3033E+06    -5.01606E+06    -10.5510E+06    -15.5523E-03     30.3225E-03    -14.7702E-03     49.6210E-03    -15.5535E-03     30.2011E-03    -14.7392E-03     49.4611E-03
             971     13.3021E-03     91.8938E-03    -5.71391E+06    -28.5126E+06    -8.55429E+06    -11.6109E+06    -15.7756E-03     30.5374E-03    -14.7619E-03     54.3030E-03    -15.7880E-03     30.4532E-03    -14.7550E-03     54.1244E-03
             972     14.1886E-03     91.9446E-03    -2.80185E+06    -24.3193E+06    -14.4375E+06    -10.2805E+06    -15.9722E-03     30.7132E-03    -14.7410E-03     59.5671E-03    -15.9930E-03     30.6796E-03    -14.7739E-03     59.4024E-03
             973     15.0754E-03     92.0021E-03    -1.69201E+06     10.5682E+06    -14.1800E+06    -6.56268E+06    -16.0939E-03     30.8014E-03    -14.7075E-03     66.9223E-03    -16.2120E-03     30.9921E-03    -14.7913E-03     66.8135E-03
             974     15.9619E-03     92.0668E-03    -2.84607E+06     68.0006E+06    -3.69866E+06    -4.19201E+06    -16.2323E-03     30.9267E-03    -14.6944E-03     74.6117E-03    -16.5424E-03     31.4788E-03    -14.8073E-03     74.5849E-03
             975     16.8493E-03     92.1388E-03    -2.04094E+06     101.051E+06     24.2760E+06    -2.04035E+06    -15.5091E-03     30.3073E-03    -14.7982E-03     50.3594E-03    -15.8529E-03     30.9322E-03    -14.8204E-03     50.3894E-03
             976     886.733E-06     92.5337E-03    -14.5002E+06    -36.5640E+06    -13.6891E+06    -442.693E+03    -14.8248E-03     29.5769E-03    -14.7521E-03     3.15588E-03    -14.8245E-03     29.4354E-03    -14.7465E-03     3.14972E-03
             977     1.77361E-03     92.5377E-03    -14.0583E+06    -35.9996E+06    -13.3009E+06    -1.08034E+06    -14.7617E-03     29.5453E-03    -14.7835E-03     5.94428E-03    -14.7607E-03     29.4051E-03    -14.7774E-03     5.92945E-03
             978     2.66045E-03     92.5442E-03    -13.3485E+06    -32.9722E+06    -11.3171E+06    -1.53203E+06    -14.7353E-03     29.5090E-03    -14.7737E-03     8.98280E-03    -14.7380E-03     29.3801E-03    -14.7631E-03     8.96166E-03
             979     3.54725E-03     92.5537E-03    -12.3591E+06    -31.4262E+06    -7.18884E+06    -2.58858E+06    -14.7137E-03     29.4884E-03    -14.7747E-03     12.1541E-03    -14.7198E-03     29.3599E-03    -14.7472E-03     12.1187E-03
             980     4.43416E-03     92.5660E-03    -11.1922E+06    -31.8519E+06    -3.58849E+06    -4.54256E+06    -14.6867E-03     29.4602E-03    -14.7736E-03     15.4366E-03    -14.6918E-03     29.3230E-03    -14.7291E-03     15.3754E-03
             981     5.32114E-03     92.5811E-03    -9.51164E+06    -31.5398E+06    -1.09010E+06    -6.23236E+06    -14.6802E-03     29.4436E-03    -14.7634E-03     18.7985E-03    -14.6813E-03     29.3021E-03    -14.7093E-03     18.7147E-03
             982     6.20804E-03     92.5995E-03    -7.97289E+06    -30.8647E+06     1.31133E+06    -7.10879E+06    -14.6823E-03     29.4348E-03    -14.7526E-03     22.2749E-03    -14.6806E-03     29.2915E-03    -14.6897E-03     22.1788E-03
             983     7.09511E-03     92.6210E-03    -7.14886E+06    -32.9970E+06     2.33918E+06    -8.20168E+06    -14.6928E-03     29.4329E-03    -14.7401E-03     25.8760E-03    -14.6861E-03     29.2769E-03    -14.6702E-03     25.7646E-03
             984     7.98213E-03     92.6458E-03    -5.62198E+06    -33.6916E+06     1.94980E+06    -8.49265E+06    -14.7349E-03     29.4534E-03    -14.7185E-03     29.6595E-03    -14.7200E-03     29.2933E-03    -14.6518E-03     29.5429E-03
             985     8.86913E-03     92.6741E-03    -4.59991E+06    -30.8687E+06     2.53510E+06    -8.20305E+06    -14.8199E-03     29.5210E-03    -14.7011E-03     33.6185E-03    -14.8062E-03     29.3741E-03    -14.6370E-03     33.5038E-03
             986     9.75626E-03     92.7058E-03    -4.95000E+06    -33.6898E+06     2.44440E+06    -8.71460E+06    -14.9608E-03     29.6581E-03    -14.6973E-03     37.5494E-03    -14.9470E-03     29.5000E-03    -14.6291E-03     37.4255E-03
             987     10.6431E-03     92.7412E-03    -4.36359E+06    -34.4332E+06     1.41565E+06    -9.38306E+06    -15.1234E-03     29.8152E-03    -14.6919E-03     41.6589E-03    -15.1074E-03     29.6575E-03    -14.6286E-03     41.5231E-03
             988     11.5300E-03     92.7805E-03    -2.47249E+06    -34.9802E+06    -27.4715E+03    -9.23072E+06    -15.3128E-03     30.0016E-03    -14.6888E-03     45.6843E-03    -15.2898E-03     29.8457E-03    -14.6346E-03     45.5464E-03
             989     12.4167E-03     92.8233E-03    -635.539E+03    -29.5169E+06    -560.826E+03    -10.2929E+06    -15.5276E-03     30.2158E-03    -14.6881E-03     50.0202E-03    -15.5109E-03     30.0936E-03    -14.6472E-03     49.8638E-03
             990     13.3036E-03     92.8704E-03    -647.813E+03    -26.2880E+06    -5.50718E+06    -12.2001E+06    -15.8214E-03     30.5008E-03    -14.6794E-03     54.6740E-03    -15.8162E-03     30.4160E-03    -14.6679E-03     54.4878E-03
             991     14.1900E-03     92.9220E-03    -2.52428E+06    -27.0052E+06    -14.6606E+06    -11.6368E+06    -16.1154E-03     30.7817E-03    -14.6663E-03     59.8289E-03    -16.1310E-03     30.7349E-03    -14.6968E-03     59.6464E-03
             992     15.0762E-03     92.9787E-03    -2.41489E+06     6.54479E+06    -15.7843E+06    -8.16431E+06    -16.2631E-03     30.9055E-03    -14.6424E-03     67.0614E-03    -16.3767E-03     31.0795E-03    -14.7273E-03     66.9315E-03
             993     15.9629E-03     93.0443E-03    -1.17480E+06     65.0079E+06    -6.11163E+06    -3.50247E+06    -16.3858E-03     31.0173E-03    -14.6315E-03     75.1315E-03    -16.6806E-03     31.5564E-03    -14.7546E-03     75.1124E-03
             994     16.8476E-03     93.1167E-03    -1.67147E+06     99.0315E+06     21.4000E+06    -1.48600E+06    -15.8420E-03     30.5893E-03    -14.7473E-03     50.6878E-03    -16.1778E-03     31.2086E-03    -14.7815E-03     50.7234E-03
             995     886.991E-06     93.5103E-03    -14.3120E+06    -35.2258E+06    -14.2080E+06    -548.558E+03    -14.6478E-03     29.2978E-03    -14.6500E-03     3.17502E-03    -14.6477E-03     29.1635E-03    -14.6492E-03     3.16749E-03
             996     1.77380E-03     93.5141E-03    -13.1265E+06    -34.3911E+06    -11.8540E+06    -1.64434E+06    -14.6503E-03     29.3054E-03    -14.6551E-03     5.93544E-03    -14.6490E-03     29.1698E-03    -14.6455E-03     5.91339E-03
             997     2.66071E-03     93.5207E-03    -11.7108E+06    -32.2327E+06    -9.16262E+06    -1.94403E+06    -14.6185E-03     29.2734E-03    -14.6550E-03     9.03265E-03    -14.6172E-03     29.1427E-03    -14.6371E-03     9.00627E-03
             998     3.54771E-03     93.5301E-03    -10.4379E+06    -29.2544E+06    -5.26692E+06    -2.41952E+06    -14.5777E-03     29.2292E-03    -14.6515E-03     12.2260E-03    -14.5801E-03     29.1060E-03    -14.6203E-03     12.1929E-03
             999     4.43477E-03     93.5423E-03    -9.31204E+06    -28.5938E+06    -644.629E+03    -3.97682E+06    -14.5737E-03     29.2273E-03    -14.6536E-03     15.5236E-03    -14.5784E-03     29.0993E-03    -14.6019E-03     15.4698E-03
            1000     5.32172E-03     93.5575E-03    -8.82119E+06    -29.1212E+06     1.43385E+06    -5.59747E+06    -14.5697E-03     29.2167E-03    -14.6470E-03     18.9164E-03    -14.5746E-03     29.0827E-03    -14.5848E-03     18.8409E-03
            1001     6.20886E-03     93.5757E-03    -8.53101E+06    -29.1080E+06     1.61614E+06    -6.52314E+06    -14.5488E-03     29.1776E-03    -14.6288E-03     22.4346E-03    -14.5529E-03     29.0434E-03    -14.5661E-03     22.3462E-03
            1002     7.09595E-03     93.5972E-03    -7.67076E+06    -29.9524E+06     2.56412E+06    -7.79375E+06    -14.5572E-03     29.1705E-03    -14.6132E-03     26.0851E-03    -14.5579E-03     29.0301E-03    -14.5459E-03     25.9792E-03
            1003     7.98310E-03     93.6219E-03    -6.75613E+06    -32.5617E+06     1.69641E+06    -9.27406E+06    -14.6006E-03     29.1928E-03    -14.5922E-03     29.8951E-03    -14.5926E-03     29.0403E-03    -14.5267E-03     29.7687E-03
            1004     8.87041E-03     93.6501E-03    -5.37522E+06    -31.2423E+06     1.75443E+06    -8.38382E+06    -14.6813E-03     29.2541E-03    -14.5728E-03     33.8783E-03    -14.6698E-03     29.1075E-03    -14.5109E-03     33.7616E-03
            1005     9.75739E-03     93.6821E-03    -4.37927E+06    -31.8533E+06     3.77447E+06    -7.65887E+06    -14.8548E-03     29.4291E-03    -14.5744E-03     37.8609E-03    -14.8426E-03     29.2774E-03    -14.5030E-03     37.7509E-03
            1006     10.6444E-03     93.7175E-03    -4.80954E+06    -32.1526E+06     2.32839E+06    -9.20857E+06    -15.0547E-03     29.6253E-03    -14.5706E-03     42.0697E-03    -15.0455E-03     29.4781E-03    -14.5054E-03     41.9365E-03
            1007     11.5313E-03     93.7570E-03    -4.31540E+06    -33.4724E+06    -1.36898E+06    -11.3121E+06    -15.2704E-03     29.8348E-03    -14.5644E-03     46.2228E-03    -15.2567E-03     29.6910E-03    -14.5165E-03     46.0583E-03
            1008     12.4182E-03     93.7998E-03    -2.46982E+06    -27.2645E+06    -746.488E+03    -12.2031E+06    -15.5475E-03     30.1234E-03    -14.5759E-03     50.5757E-03    -15.5430E-03     30.0155E-03    -14.5365E-03     50.3948E-03
            1009     13.3046E-03     93.8475E-03    -1.40790E+06    -25.1371E+06    -2.93567E+06    -11.8253E+06    -15.8974E-03     30.4888E-03    -14.5914E-03     55.1078E-03    -15.9017E-03     30.4073E-03    -14.5676E-03     54.9264E-03
            1010     14.1910E-03     93.8989E-03    -1.24426E+06    -27.8951E+06    -11.8007E+06    -11.0116E+06    -16.2510E-03     30.8431E-03    -14.5921E-03     60.1480E-03    -16.2634E-03     30.7862E-03    -14.6088E-03     59.9731E-03
            1011     15.0774E-03     93.9562E-03    -2.66859E+06     2.50072E+06    -15.7693E+06    -8.76325E+06    -16.5096E-03     31.0858E-03    -14.5762E-03     67.4678E-03    -16.6197E-03     31.2410E-03    -14.6548E-03     67.3291E-03
            1012     15.9633E-03     94.0214E-03    -3.27179E+06     60.2577E+06    -7.44849E+06    -5.25767E+06    -16.6815E-03     31.2624E-03    -14.5809E-03     75.2150E-03    -16.9801E-03     31.7849E-03    -14.7008E-03     75.1717E-03
            1013     16.8520E-03     94.0940E-03    -1.27638E+06     97.5666E+06     19.6023E+06    -1.65185E+06    -16.2038E-03     30.9101E-03    -14.7062E-03     50.3536E-03    -16.5339E-03     31.5251E-03    -14.7478E-03     50.3854E-03
            1014     886.943E-06     94.4863E-03    -12.1867E+06    -33.4565E+06    -12.2845E+06    -1.13704E+06    -14.5043E-03     29.0197E-03    -14.5154E-03     3.15523E-03    -14.4990E-03     28.8883E-03    -14.5107E-03     3.14013E-03
            1015     1.77410E-03     94.4904E-03    -11.9792E+06    -32.2641E+06    -10.9589E+06    -2.00852E+06    -14.4771E-03     28.9821E-03    -14.5050E-03     5.99726E-03    -14.4745E-03     28.8542E-03    -14.4956E-03     5.97055E-03
            1016     2.66116E-03     94.4969E-03    -10.9747E+06    -31.2738E+06    -8.22985E+06    -2.66334E+06    -14.4617E-03     28.9625E-03    -14.5009E-03     9.08000E-03    -14.4594E-03     28.8342E-03    -14.4808E-03     9.04439E-03
            1017     3.54831E-03     94.5062E-03    -9.36868E+06    -28.2845E+06    -4.77744E+06    -2.55053E+06    -14.4339E-03     28.9294E-03    -14.4955E-03     12.2852E-03    -14.4331E-03     28.8088E-03    -14.4648E-03     12.2505E-03
            1018     4.43538E-03     94.5184E-03    -8.52993E+06    -26.2382E+06    -240.905E+03    -2.83848E+06    -14.4050E-03     28.9003E-03    -14.4952E-03     15.6240E-03    -14.4098E-03     28.7823E-03    -14.4460E-03     15.5850E-03
            1019     5.32263E-03     94.5335E-03    -8.08752E+06    -26.7339E+06     2.89570E+06    -3.99145E+06    -14.3934E-03     28.8845E-03    -14.4911E-03     19.0609E-03    -14.4001E-03     28.7592E-03    -14.4262E-03     19.0063E-03
            1020     6.20979E-03     94.5517E-03    -7.38870E+06    -26.8416E+06     3.67636E+06    -5.55698E+06    -14.3942E-03     28.8685E-03    -14.4743E-03     22.6146E-03    -14.3988E-03     28.7409E-03    -14.4063E-03     22.5389E-03
            1021     7.09710E-03     94.5731E-03    -6.66906E+06    -26.9306E+06     4.81599E+06    -7.28082E+06    -14.4129E-03     28.8729E-03    -14.4600E-03     26.3257E-03    -14.4161E-03     28.7429E-03    -14.3872E-03     26.2267E-03
            1022     7.98441E-03     94.5979E-03    -6.20998E+06    -30.3635E+06     4.82519E+06    -8.54869E+06    -14.4871E-03     28.9355E-03    -14.4485E-03     30.1495E-03    -14.4839E-03     28.7886E-03    -14.3713E-03     30.0327E-03
            1023     8.87149E-03     94.6260E-03    -5.86243E+06    -31.9453E+06     2.54552E+06    -8.91361E+06    -14.5618E-03     28.9887E-03    -14.4269E-03     34.2030E-03    -14.5528E-03     28.8381E-03    -14.3594E-03     34.0797E-03
            1024     9.75893E-03     94.6581E-03    -4.49295E+06    -31.1020E+06     2.82268E+06    -8.11866E+06    -14.7009E-03     29.1190E-03    -14.4181E-03     38.3555E-03    -14.6888E-03     28.9723E-03    -14.3523E-03     38.2400E-03
            1025     10.6460E-03     94.6937E-03    -2.21311E+06    -28.3191E+06     4.47624E+06    -9.30637E+06    -14.9459E-03     29.3678E-03    -14.4220E-03     42.5529E-03    -14.9322E-03     29.2328E-03    -14.3553E-03     42.4188E-03
            1026     11.5331E-03     94.7332E-03    -1.23909E+06    -30.5239E+06     1.22281E+06    -11.7159E+06    -15.2601E-03     29.6843E-03    -14.4241E-03     46.7368E-03    -15.2391E-03     29.5470E-03    -14.3720E-03     46.5674E-03
            1027     12.4197E-03     94.7765E-03    -1.89446E+06    -26.3747E+06    -486.806E+03    -12.5467E+06    -15.5983E-03     30.0393E-03    -14.4410E-03     51.2385E-03    -15.5926E-03     29.9346E-03    -14.4024E-03     51.0534E-03
            1028     13.3064E-03     94.8243E-03    -1.75113E+06    -24.3533E+06    -2.99482E+06    -12.7891E+06    -15.9819E-03     30.4506E-03    -14.4686E-03     55.8619E-03    -15.9891E-03     30.3737E-03    -14.4458E-03     55.6681E-03
            1029     14.1927E-03     94.8761E-03    -1.41830E+06    -29.3159E+06    -12.5184E+06    -11.5533E+06    -16.4262E-03     30.9096E-03    -14.4833E-03     60.8528E-03    -16.4368E-03     30.8473E-03    -14.5014E-03     60.6707E-03
            1030     15.0787E-03     94.9334E-03    -1.33816E+06    -831.712E+03    -15.2258E+06    -8.34014E+06    -16.8643E-03     31.3589E-03    -14.4946E-03     68.0358E-03    -16.9650E-03     31.4960E-03    -14.5675E-03     67.9013E-03
            1031     15.9649E-03     94.9993E-03     -2.1886E+06     57.1098E+06    -4.64477E+06    -5.00337E+06    -17.2250E-03     31.7637E-03    -14.5387E-03     75.9211E-03    -17.5207E-03     32.2677E-03    -14.6415E-03     75.8783E-03
            1032     16.8472E-03     95.0723E-03    -2.84086E+06     94.5764E+06     17.8011E+06    -2.22545E+06    -16.4432E-03     31.1105E-03    -14.6673E-03     51.0192E-03    -16.7764E-03     31.7177E-03    -14.7113E-03     51.0419E-03
            1033     887.228E-06     95.4624E-03    -10.2630E+06    -31.3367E+06    -10.3396E+06    -1.04048E+06    -14.3194E-03     28.6478E-03    -14.3284E-03     3.17724E-03    -14.3104E-03     28.5215E-03    -14.3198E-03     3.16344E-03
            1034     1.77439E-03     95.4662E-03    -10.5333E+06    -30.5035E+06    -9.42753E+06    -1.64262E+06    -14.2955E-03     28.6148E-03    -14.3193E-03     6.03870E-03    -14.2904E-03     28.4914E-03    -14.3070E-03     6.01678E-03
            1035     2.66168E-03     95.4727E-03    -10.4686E+06    -29.4861E+06    -7.23694E+06     -2.4688E+06    -14.2749E-03     28.5902E-03    -14.3153E-03     9.13065E-03    -14.2742E-03     28.4686E-03    -14.2935E-03     9.09765E-03
            1036     3.54885E-03     95.4820E-03    -9.64938E+06    -27.8507E+06    -4.83555E+06    -2.97334E+06    -14.2374E-03     28.5445E-03    -14.3071E-03     12.3840E-03    -14.2385E-03     28.4265E-03    -14.2769E-03     12.3440E-03
            1037     4.43628E-03     95.4941E-03    -7.78743E+06    -25.5879E+06    -354.787E+03    -2.43097E+06    -14.1850E-03     28.4856E-03    -14.3007E-03     15.7615E-03    -14.1868E-03     28.3700E-03    -14.2541E-03     15.7279E-03
            1038     5.32364E-03     95.5093E-03    -6.10885E+06    -24.3192E+06     4.45033E+06    -2.99069E+06    -14.1740E-03     28.4690E-03    -14.2951E-03     19.2485E-03    -14.1765E-03     28.3506E-03    -14.2287E-03     19.2071E-03
            1039     6.21109E-03     95.5274E-03     -5.1213E+06    -24.3121E+06     6.66506E+06    -4.56605E+06    -14.2077E-03     28.4908E-03    -14.2830E-03     22.8494E-03    -14.2090E-03     28.3682E-03    -14.2070E-03     22.7868E-03
            1040     7.09847E-03     95.5487E-03    -5.15631E+06    -24.7965E+06     7.37099E+06    -5.50856E+06    -14.2540E-03     28.5248E-03    -14.2708E-03     26.6077E-03    -14.2564E-03     28.3994E-03    -14.1905E-03     26.5319E-03
            1041     7.98582E-03     95.5735E-03    -6.00480E+06    -27.8192E+06     6.21246E+06    -6.77394E+06    -14.3220E-03     28.5803E-03    -14.2583E-03     30.5231E-03    -14.3235E-03     28.4437E-03    -14.1782E-03     30.4295E-03
            1042     8.87336E-03     95.6017E-03    -6.47181E+06    -30.5783E+06     3.38308E+06    -8.15305E+06    -14.4168E-03     28.6574E-03    -14.2406E-03     34.6248E-03    -14.4139E-03     28.5131E-03    -14.1700E-03     34.5117E-03
            1043     9.76059E-03     95.6336E-03    -5.24203E+06    -29.5139E+06     1.65131E+06    -10.0324E+06    -14.5568E-03     28.7822E-03    -14.2254E-03     38.9525E-03    -14.5489E-03     28.6461E-03    -14.1667E-03     38.8128E-03
            1044     10.6480E-03     95.6697E-03    -2.91692E+06    -25.6252E+06     3.27977E+06    -11.1584E+06    -14.8248E-03     29.0560E-03    -14.2312E-03     43.2801E-03    -14.8167E-03     28.9371E-03    -14.1734E-03     43.1226E-03
            1045     11.5349E-03     95.7093E-03    -2.16589E+06    -28.8739E+06     2.12542E+06    -11.0279E+06    -15.2140E-03     29.4664E-03    -14.2525E-03     47.5040E-03    -15.2012E-03     29.3373E-03    -14.1968E-03     47.3439E-03
            1046     12.4219E-03     95.7530E-03    -1.94998E+06    -23.6184E+06     1.13948E+06    -12.3807E+06    -15.6212E-03     29.9019E-03    -14.2808E-03     52.0953E-03    -15.6221E-03     29.8088E-03    -14.2380E-03     51.9126E-03
            1047     13.3083E-03     95.8010E-03    -1.74058E+06    -24.0251E+06    -1.52564E+06    -13.1562E+06    -16.0923E-03     30.4176E-03    -14.3253E-03     56.6288E-03    -16.1022E-03     30.3405E-03    -14.2956E-03     56.4303E-03
            1048     14.1946E-03     95.8533E-03    -2.27703E+06    -30.7248E+06    -11.1570E+06    -11.7449E+06    -16.6506E-03     31.0124E-03    -14.3619E-03     61.5873E-03    -16.6659E-03     30.9430E-03    -14.3698E-03     61.4023E-03
            1049     15.0803E-03     95.9110E-03    -2.99352E+06    -4.31599E+06    -15.0172E+06    -9.12994E+06    -17.2241E-03     31.6190E-03    -14.3949E-03     69.0420E-03    -17.3301E-03     31.7426E-03    -14.4594E-03     68.8959E-03
            1050     15.9652E-03     95.9777E-03    -2.37032E+06     53.1891E+06    -5.87668E+06    -5.13449E+06    -17.5598E-03     32.0135E-03    -14.4537E-03     76.8308E-03    -17.8511E-03     32.5022E-03    -14.5568E-03     76.7845E-03
            1051     16.8543E-03     96.0506E-03    -912.327E+03     92.8076E+06     19.1731E+06    -2.14084E+06    -16.9313E-03     31.5449E-03    -14.6136E-03     50.9868E-03    -17.2549E-03     32.1392E-03    -14.6510E-03     51.0083E-03
            1052     887.410E-06     96.4379E-03    -9.19892E+06    -29.8374E+06    -8.54220E+06    -587.566E+03    -14.1150E-03     28.1692E-03    -14.0542E-03     3.20650E-03    -14.1054E-03     28.0462E-03    -14.0403E-03     3.19860E-03
            1053     1.77483E-03     96.4417E-03    -8.93466E+06    -29.1770E+06    -7.20155E+06    -1.00108E+06    -14.0749E-03     28.1626E-03    -14.0877E-03     6.11547E-03    -14.0669E-03     28.0403E-03    -14.0685E-03     6.10189E-03
            1054     2.66220E-03     96.4482E-03    -8.75117E+06    -28.1066E+06    -5.12037E+06    -1.34286E+06    -14.0377E-03     28.1233E-03    -14.0856E-03     9.26624E-03    -14.0334E-03     28.0031E-03    -14.0578E-03     9.24788E-03
            1055     3.54980E-03     96.4574E-03    -9.16782E+06    -26.7536E+06    -3.04810E+06    -1.77753E+06    -13.9895E-03     28.0654E-03    -14.0760E-03     12.5229E-03    -13.9924E-03     27.9496E-03    -14.0391E-03     12.4985E-03
            1056     4.43727E-03     96.4694E-03    -9.36024E+06    -25.5968E+06    -1.22266E+06    -2.17985E+06    -13.9385E-03     27.9980E-03    -14.0595E-03     15.9249E-03    -13.9469E-03     27.8858E-03    -14.0149E-03     15.8948E-03
            1057     5.32494E-03     96.4845E-03    -8.78157E+06    -22.7135E+06     1.06991E+06    -2.23295E+06    -13.9083E-03     27.9473E-03    -14.0390E-03     19.4844E-03    -13.9215E-03     27.8456E-03    -13.9880E-03     19.4530E-03
            1058     6.21256E-03     96.5026E-03    -8.99345E+06    -22.7199E+06     3.55767E+06    -2.57554E+06    -13.9430E-03     27.9712E-03    -14.0282E-03     23.1480E-03    -13.9613E-03     27.8666E-03    -13.9644E-03     23.1114E-03
            1059     7.10017E-03     96.5240E-03    -9.47917E+06    -23.1879E+06     4.61169E+06    -3.38432E+06    -14.0036E-03     28.0217E-03    -14.0181E-03     26.9835E-03    -14.0258E-03     27.9145E-03    -13.9477E-03     26.9354E-03
            1060     7.98784E-03     96.5487E-03    -9.32124E+06    -24.9127E+06     4.56194E+06    -4.97185E+06    -14.0854E-03     28.0946E-03    -14.0092E-03     30.9848E-03    -14.1051E-03     27.9796E-03    -13.9368E-03     30.9149E-03
            1061     8.87530E-03     96.5770E-03    -8.69009E+06    -27.5757E+06     3.87493E+06    -7.45254E+06    -14.2160E-03     28.2197E-03    -14.0037E-03     35.1869E-03    -14.2291E-03     28.0928E-03    -13.9317E-03     35.0833E-03
            1062     9.76291E-03     96.6090E-03    -8.90656E+06    -25.8427E+06     1.36361E+06    -9.95933E+06    -14.3938E-03     28.3853E-03    -13.9915E-03     39.6542E-03    -14.4090E-03     28.2732E-03    -13.9343E-03     39.5159E-03
            1063     10.6503E-03     96.6451E-03    -10.1425E+06    -24.5031E+06     568.686E+03    -11.2857E+06    -14.6713E-03     28.6727E-03    -14.0013E-03     44.1926E-03    -14.6969E-03     28.5735E-03    -13.9482E-03     44.0341E-03
            1064     11.5376E-03     96.6854E-03    -9.05575E+06    -27.1508E+06     600.671E+03    -12.1849E+06    -15.1389E-03     29.1755E-03    -14.0366E-03     48.4988E-03    -15.1608E-03     29.0671E-03    -13.9811E-03     48.3242E-03
            1065     12.4243E-03     96.7291E-03    -7.09595E+06    -20.9556E+06     757.519E+03    -13.1351E+06    -15.6671E-03     29.7486E-03    -14.0816E-03     53.0914E-03    -15.6971E-03     29.6769E-03    -14.0371E-03     52.8992E-03
            1066     13.3108E-03     96.7781E-03    -6.26104E+06    -23.4756E+06    -1.63110E+06    -13.4393E+06    -16.2590E-03     30.4090E-03    -14.1500E-03     57.6475E-03    -16.2925E-03     30.3416E-03    -14.1150E-03     57.4452E-03
            1067     14.1967E-03     96.8304E-03    -5.27739E+06    -31.9094E+06    -10.8150E+06    -12.7198E+06    -16.9422E-03     31.1562E-03    -14.2139E-03     62.5858E-03    -16.9723E-03     31.0856E-03    -14.2141E-03     62.3875E-03
            1068     15.0823E-03     96.8891E-03    -4.11941E+06    -7.48057E+06    -13.4346E+06    -10.0776E+06    -17.5980E-03     31.8788E-03    -14.2808E-03     69.9170E-03    -17.7093E-03     31.9878E-03    -14.3311E-03     69.7572E-03
            1069     15.9683E-03     96.9559E-03    -3.68634E+06     49.4722E+06    -1.37514E+06    -6.59503E+06    -18.0665E-03     32.4523E-03    -14.3858E-03     77.2179E-03    -18.3677E-03     32.9200E-03    -14.4591E-03     77.1496E-03
            1070     16.8494E-03     97.0293E-03    -2.43376E+06     89.6436E+06     20.2897E+06    -2.93390E+06    -17.5470E-03     32.1099E-03    -14.5629E-03     51.0611E-03    -17.8765E-03     32.6901E-03    -14.5879E-03     51.0690E-03
            1071     887.648E-06     97.4128E-03    -12.3403E+06    -29.5931E+06    -11.6559E+06     159.327E+03    -13.7547E-03     27.5440E-03    -13.7893E-03     3.21931E-03    -13.7567E-03     27.4312E-03    -13.7868E-03     3.22109E-03
            1072     1.77535E-03     97.4167E-03    -12.5694E+06    -28.4362E+06    -10.4494E+06     52.7995E+03    -13.7474E-03     27.5194E-03    -13.7720E-03     6.21607E-03    -13.7539E-03     27.4108E-03    -13.7648E-03     6.21618E-03
            1073     2.66311E-03     97.4231E-03    -12.8190E+06    -27.8260E+06    -8.73178E+06     11.7472E+03    -13.7237E-03     27.4918E-03    -13.7680E-03     9.40428E-03    -13.7350E-03     27.3840E-03    -13.7528E-03     9.40352E-03
            1074     3.55077E-03     97.4323E-03    -12.6889E+06    -26.2365E+06    -6.39226E+06     209.198E+03    -13.6966E-03     27.4588E-03    -13.7622E-03     12.6944E-03    -13.7130E-03     27.3555E-03    -13.7377E-03     12.6959E-03
            1075     4.43862E-03     97.4442E-03    -12.8439E+06    -24.5608E+06    -4.33742E+06    -328.492E+03    -13.6577E-03     27.4092E-03    -13.7515E-03     16.1130E-03    -13.6804E-03     27.3118E-03    -13.7190E-03     16.1071E-03
            1076     5.32645E-03     97.4592E-03    -13.2654E+06    -22.6013E+06    -3.11528E+06    -746.706E+03    -13.6216E-03     27.3545E-03    -13.7329E-03     19.7341E-03    -13.6512E-03     27.2658E-03    -13.6965E-03     19.7222E-03
            1077     6.21437E-03     97.4774E-03    -12.7616E+06    -21.9176E+06     52.1729E+03    -724.016E+03    -13.6245E-03     27.3483E-03    -13.7238E-03     23.4801E-03    -13.6576E-03     27.2582E-03    -13.6733E-03     23.4678E-03
            1078     7.10230E-03     97.4987E-03    -11.7339E+06    -21.0673E+06     3.24424E+06    -1.96958E+06    -13.6819E-03     27.3999E-03    -13.7179E-03     27.3873E-03    -13.7164E-03     27.3084E-03    -13.6542E-03     27.3580E-03
            1079     7.99012E-03     97.5235E-03    -10.9007E+06    -22.3325E+06     4.01264E+06    -3.82331E+06    -13.7902E-03     27.5005E-03    -13.7103E-03     31.4983E-03    -13.8206E-03     27.4013E-03    -13.6421E-03     31.4437E-03
            1080     8.87805E-03     97.5518E-03    -11.1319E+06    -23.7889E+06     4.50477E+06    -5.92273E+06    -13.9676E-03     27.6805E-03    -13.7129E-03     35.8388E-03    -13.9992E-03     27.5750E-03    -13.6397E-03     35.7555E-03
            1081     9.76571E-03     97.5840E-03    -11.7079E+06    -22.7939E+06     4.16059E+06    -7.98254E+06    -14.2202E-03     27.9413E-03    -13.7211E-03     40.3566E-03    -14.2577E-03     27.8443E-03    -13.6503E-03     40.2443E-03
            1082     10.6533E-03     97.6203E-03    -10.8699E+06    -21.3575E+06     3.68732E+06    -10.4768E+06    -14.5657E-03     28.3073E-03    -13.7416E-03     45.0326E-03    -14.6038E-03     28.2203E-03    -13.6764E-03     44.8850E-03
            1083     11.5404E-03     97.6609E-03    -10.0972E+06    -24.4812E+06     1.26523E+06    -13.0037E+06    -15.0974E-03     28.8776E-03    -13.7801E-03     49.5959E-03    -15.1292E-03     28.7829E-03    -13.7237E-03     49.4112E-03
            1084     12.4273E-03     97.7056E-03    -9.18362E+06    -19.3171E+06     1.48178E+06    -14.0237E+06    -15.7347E-03     29.5812E-03    -13.8464E-03     54.2475E-03    -15.7787E-03     29.5197E-03    -13.7977E-03     54.0441E-03
            1085     13.3137E-03     97.7545E-03    -7.70875E+06    -22.6570E+06    -906.401E+03    -14.1592E+06    -16.4666E-03     30.4053E-03    -13.9388E-03     58.8627E-03    -16.5099E-03     30.3435E-03    -13.8993E-03     58.6510E-03
            1086     14.1994E-03     97.8082E-03    -7.18285E+06    -32.2233E+06    -10.5982E+06    -13.7567E+06    -17.3546E-03     31.3881E-03    -14.0335E-03     63.8253E-03    -17.3952E-03     31.3195E-03    -14.0293E-03     63.6125E-03
            1087     15.0845E-03     97.8668E-03    -5.91371E+06    -9.72521E+06    -12.0707E+06    -12.7178E+06    -18.1867E-03     32.3338E-03    -14.1471E-03     71.0798E-03    -18.3082E-03     32.4348E-03    -14.1848E-03     70.8835E-03
            1088     15.9682E-03     97.9353E-03    -2.60648E+06     44.5125E+06    -1.09633E+06    -8.47677E+06    -18.6335E-03     32.9180E-03    -14.2846E-03     78.2048E-03    -18.9255E-03     33.3619E-03    -14.3508E-03     78.1093E-03
            1089     16.8562E-03     98.0086E-03    -1.46847E+06     85.7335E+06     19.5996E+06    -3.01228E+06    -18.1960E-03     32.6869E-03    -14.4909E-03     51.7709E-03    -18.5158E-03     33.2491E-03    -14.5151E-03     51.7748E-03
            1090     888.053E-06     98.3873E-03    -15.7141E+06    -30.3007E+06    -15.7358E+06     771.571E+03    -13.2717E-03     26.7677E-03    -13.4960E-03     3.32977E-03    -13.2835E-03     26.6622E-03    -13.5080E-03     3.33951E-03
            1091     1.77601E-03     98.3909E-03    -16.1218E+06    -29.3066E+06    -14.2265E+06     1.42533E+06    -13.3719E-03     26.7577E-03    -13.3858E-03     6.29407E-03    -13.3895E-03     26.6553E-03    -13.3911E-03     6.31199E-03
            1092     2.66405E-03     98.3974E-03    -16.1755E+06    -27.8182E+06    -11.8276E+06     1.53476E+06    -13.3654E-03     26.7549E-03    -13.3895E-03     9.53129E-03    -13.3889E-03     26.6565E-03    -13.3848E-03     9.55032E-03
            1093     3.55216E-03     98.4065E-03    -15.5090E+06    -26.2890E+06    -9.74289E+06     984.853E+03    -13.3532E-03     26.7416E-03    -13.3885E-03     12.8483E-03    -13.3787E-03     26.6470E-03    -13.3766E-03     12.8599E-03
            1094     4.44020E-03     98.4184E-03    -14.1887E+06    -24.1191E+06    -6.31629E+06     1.00457E+06    -13.3352E-03     26.7237E-03    -13.3886E-03     16.3209E-03    -13.3623E-03     26.6332E-03    -13.3646E-03     16.3324E-03
            1095     5.32830E-03     98.4333E-03    -12.8866E+06    -22.2209E+06    -1.85368E+06     658.045E+03    -13.3127E-03     26.7031E-03    -13.3903E-03     19.9894E-03    -13.3429E-03     26.6139E-03    -13.3487E-03     19.9958E-03
            1096     6.21649E-03     98.4514E-03    -11.8263E+06    -21.6635E+06     1.22593E+06     139.470E+03    -13.2908E-03     26.6744E-03    -13.3836E-03     23.8170E-03    -13.3212E-03     26.5824E-03    -13.3290E-03     23.8161E-03
            1097     7.10469E-03     98.4728E-03    -11.2725E+06    -19.0362E+06     3.49437E+06    -507.005E+03    -13.3123E-03     26.6821E-03    -13.3698E-03     27.8290E-03    -13.3476E-03     26.5996E-03    -13.3084E-03     27.8190E-03
            1098     7.99299E-03     98.4976E-03    -11.2950E+06    -19.7942E+06     5.42250E+06    -2.24353E+06    -13.4565E-03     26.8239E-03    -13.3674E-03     32.0452E-03    -13.4944E-03     26.7358E-03    -13.2952E-03     32.0115E-03
            1099     8.88103E-03     98.5261E-03    -11.1617E+06    -21.4462E+06     6.33779E+06    -3.65680E+06    -13.7081E-03     27.0845E-03    -13.3765E-03     36.4792E-03    -13.7456E-03     26.9879E-03    -13.2975E-03     36.4256E-03
            1100     9.76896E-03     98.5586E-03    -11.0289E+06    -18.7295E+06     6.66383E+06    -6.20587E+06    -14.0297E-03     27.4241E-03    -13.3945E-03     41.1446E-03    -14.0731E-03     27.3426E-03    -13.3180E-03     41.0557E-03
            1101     10.6566E-03     98.5951E-03    -11.3614E+06    -17.1775E+06     6.21620E+06    -9.65905E+06    -14.4480E-03     27.8785E-03    -13.4305E-03     46.0215E-03    -14.4981E-03     27.8093E-03    -13.3581E-03     45.8849E-03
            1102     11.5440E-03     98.6363E-03    -11.5061E+06    -21.1466E+06     3.30774E+06    -12.0865E+06    -15.0530E-03     28.5395E-03    -13.4864E-03     50.8446E-03    -15.0995E-03     28.4605E-03    -13.4226E-03     50.6722E-03
            1103     12.4308E-03     98.6814E-03    -11.3547E+06    -16.8944E+06     2.71667E+06    -14.2221E+06    -15.8079E-03     29.3802E-03    -13.5723E-03     55.6133E-03    -15.8681E-03     29.3323E-03    -13.5178E-03     55.4076E-03
            1104     13.3170E-03     98.7316E-03    -11.3406E+06    -22.6273E+06    -496.507E+03    -14.3468E+06    -16.7058E-03     30.3994E-03    -13.6936E-03     60.2681E-03    -16.7684E-03     30.3429E-03    -13.6468E-03     60.0537E-03
            1105     14.2026E-03     98.7855E-03    -11.0572E+06    -30.8667E+06    -9.67434E+06    -14.3207E+06    -17.7592E-03     31.5826E-03    -13.8235E-03     65.4498E-03    -17.8239E-03     31.5266E-03    -13.8110E-03     65.2287E-03
            1106     15.0870E-03     98.8461E-03    -9.81590E+06    -8.83251E+06    -11.1641E+06    -15.8787E+06    -18.7379E-03     32.7146E-03    -13.9767E-03     72.7139E-03    -18.8845E-03     32.8274E-03    -14.0055E-03     72.4744E-03
            1107     15.9720E-03     98.9141E-03    -6.77603E+06     37.0985E+06    -3.38008E+06    -12.9616E+06    -19.3781E-03     33.5326E-03    -14.1546E-03     79.3247E-03    -19.6808E-03     33.9528E-03    -14.2154E-03     79.1665E-03
            1108     16.8527E-03     98.9882E-03    -1.70656E+06     78.3708E+06     15.1930E+06    -4.64035E+06    -19.0553E-03     33.4473E-03    -14.3920E-03     52.4494E-03    -19.3622E-03     33.9823E-03    -14.4272E-03     52.4273E-03
            1109     888.332E-06     99.3606E-03    -15.9956E+06    -32.0985E+06    -15.5454E+06     1.19668E+06    -12.9118E-03     25.9141E-03    -13.0023E-03     3.40569E-03    -12.9228E-03     25.7997E-03    -13.0103E-03     3.42096E-03
            1110     1.77685E-03     99.3645E-03    -15.9755E+06    -31.4946E+06    -14.1668E+06     2.34022E+06    -12.9728E-03     25.9378E-03    -12.9650E-03     6.37782E-03    -12.9866E-03     25.8242E-03    -12.9670E-03     6.40764E-03
            1111     2.66518E-03     99.3709E-03    -15.5473E+06    -28.0418E+06    -12.5080E+06     2.62662E+06    -12.9707E-03     25.9401E-03    -12.9694E-03     9.63006E-03    -12.9898E-03     25.8407E-03    -12.9687E-03     9.66333E-03
            1112     3.55355E-03     99.3800E-03    -15.8572E+06    -26.4824E+06    -10.0328E+06     2.36453E+06    -12.9491E-03     25.9246E-03    -12.9755E-03     13.0008E-03    -12.9756E-03     25.8300E-03    -12.9643E-03     13.0304E-03
            1113     4.44198E-03     99.3919E-03    -16.5836E+06    -24.6699E+06    -7.39120E+06     2.33465E+06    -12.9293E-03     25.9067E-03    -12.9775E-03     16.5541E-03    -12.9660E-03     25.8185E-03    -12.9546E-03     16.5829E-03
            1114     5.33050E-03     99.4068E-03    -16.9276E+06    -21.7760E+06    -4.58634E+06     2.20932E+06    -12.9079E-03     25.8824E-03    -12.9745E-03     20.2895E-03    -12.9549E-03     25.8053E-03    -12.9413E-03     20.3163E-03
            1115     6.21895E-03     99.4248E-03    -16.8544E+06    -21.1362E+06    -1.08734E+06     1.55905E+06    -12.8922E-03     25.8666E-03    -12.9744E-03     24.1819E-03    -12.9451E-03     25.7877E-03    -12.9247E-03     24.1997E-03
            1116     7.10761E-03     99.4460E-03    -15.9226E+06    -17.9758E+06     2.22086E+06     670.343E+03    -12.9267E-03     25.8949E-03    -12.9682E-03     28.2919E-03    -12.9848E-03     25.8262E-03    -12.9079E-03     28.2974E-03
            1117     7.99613E-03     99.4711E-03    -14.9113E+06    -17.7029E+06     4.63540E+06    -265.377E+03    -13.0977E-03     26.0676E-03    -12.9700E-03     32.6295E-03    -13.1554E-03     25.9961E-03    -12.8995E-03     32.6219E-03
            1118     8.88450E-03     99.4997E-03    -14.0324E+06    -18.7936E+06     5.83575E+06    -2.65880E+06    -13.3874E-03     26.3723E-03    -12.9849E-03     37.2292E-03    -13.4422E-03     26.2936E-03    -12.9081E-03     37.1891E-03
            1119     9.77271E-03     99.5325E-03    -12.4464E+06    -14.6441E+06     7.35618E+06    -5.35176E+06    -13.7779E-03     26.7919E-03    -13.0139E-03     42.0758E-03    -13.8351E-03     26.7316E-03    -12.9379E-03     41.9986E-03
            1120     10.6606E-03     99.5696E-03    -11.7552E+06    -13.6314E+06     8.64229E+06    -7.45114E+06    -14.3238E-03     27.3969E-03    -13.0731E-03     47.0513E-03    -14.3843E-03     27.3423E-03    -12.9931E-03     46.9437E-03
            1121     11.5480E-03     99.6110E-03    -11.9555E+06    -16.4768E+06     6.99874E+06    -10.8154E+06    -15.0447E-03     28.2003E-03    -13.1555E-03     52.0723E-03    -15.1055E-03     28.1399E-03    -13.0793E-03     51.9168E-03
            1122     12.4348E-03     99.6575E-03    -12.1395E+06    -14.6851E+06     5.02519E+06    -12.9095E+06    -15.8954E-03     29.1596E-03    -13.2642E-03     56.9911E-03    -15.9662E-03     29.1207E-03    -13.2002E-03     56.8025E-03
            1123     13.3210E-03     99.7080E-03    -11.8219E+06    -21.3634E+06     1.46621E+06    -13.9237E+06    -16.9417E-03     30.3559E-03    -13.4142E-03     61.8446E-03    -17.0120E-03     30.3042E-03    -13.3588E-03     61.6355E-03
            1124     14.2061E-03     99.7637E-03    -9.51498E+06    -27.4585E+06    -6.12965E+06    -16.4501E+06    -18.1473E-03     31.7276E-03    -13.5803E-03     67.2271E-03    -18.2159E-03     31.6828E-03    -13.5574E-03     66.9775E-03
            1125     15.0907E-03     99.8246E-03    -7.67534E+06    -7.75337E+06    -7.79028E+06    -16.9037E+06    -19.3160E-03     33.0910E-03    -13.7750E-03     74.3071E-03    -19.4610E-03     33.2038E-03    -13.7915E-03     74.0517E-03
            1126     15.9733E-03     99.8946E-03    -8.12608E+06     31.9954E+06    -2.14956E+06    -14.2241E+06    -20.3119E-03     34.3183E-03    -14.0064E-03     80.7709E-03    -20.6208E-03     34.7182E-03    -14.0518E-03     80.5901E-03
            1127     16.8588E-03     99.9692E-03    -6.57052E+06     69.2320E+06     11.0327E+06    -8.54771E+06    -20.2672E-03     34.5577E-03    -14.2905E-03     53.4265E-03    -20.5833E-03     35.0643E-03    -14.3262E-03     53.3471E-03
            1128     888.914E-06     100.333E-03    -18.0407E+06    -35.4250E+06    -17.1654E+06     1.92438E+06    -12.5777E-03     24.9777E-03    -12.3999E-03     3.42883E-03    -12.5917E-03     24.8520E-03    -12.4082E-03     3.45352E-03
            1129     1.77755E-03     100.337E-03    -18.1316E+06    -33.8826E+06    -17.1391E+06     3.00621E+06    -12.5006E-03     24.9901E-03    -12.4896E-03     6.49886E-03    -12.5173E-03     24.8720E-03    -12.4998E-03     6.53736E-03
            1130     2.66639E-03     100.344E-03    -18.9124E+06    -29.7122E+06    -16.8132E+06     3.94507E+06    -12.4800E-03     24.9652E-03    -12.4852E-03     9.79913E-03    -12.5072E-03     24.8685E-03    -12.4988E-03     9.84954E-03
            1131     3.55524E-03     100.353E-03    -20.0394E+06    -27.8654E+06    -13.7505E+06     5.04276E+06    -12.4616E-03     24.9541E-03    -12.4925E-03     13.2284E-03    -12.5017E-03     24.8640E-03    -12.4918E-03     13.2927E-03
            1132     4.44412E-03     100.364E-03    -20.8819E+06    -25.1292E+06    -10.1272E+06     5.10544E+06    -12.4548E-03     24.9538E-03    -12.4990E-03     16.8373E-03    -12.5084E-03     24.8734E-03    -12.4829E-03     16.9021E-03
            1133     5.33295E-03     100.379E-03    -21.1525E+06    -21.9681E+06    -7.08778E+06     4.59438E+06    -12.4450E-03     24.9447E-03    -12.4997E-03     20.5833E-03    -12.5091E-03     24.8762E-03    -12.4726E-03     20.6412E-03
            1134     6.22197E-03     100.397E-03    -20.5443E+06    -19.8721E+06    -2.17989E+06     3.38241E+06    -12.4731E-03     24.9827E-03    -12.5096E-03     24.5346E-03    -12.5446E-03     24.9170E-03    -12.4619E-03     24.5762E-03
            1135     7.11078E-03     100.419E-03    -19.0935E+06    -16.7337E+06     2.42643E+06     1.52922E+06    -12.5649E-03     25.0847E-03    -12.5198E-03     28.7424E-03    -12.6409E-03     25.0265E-03    -12.4557E-03     28.7594E-03
            1136     7.99965E-03     100.444E-03    -16.5998E+06    -16.4698E+06     4.76870E+06     88.5395E+03    -12.7380E-03     25.2682E-03    -12.5301E-03     33.2151E-03    -12.8060E-03     25.2049E-03    -12.4583E-03     33.2125E-03
            1137     8.88844E-03     100.473E-03    -13.6035E+06    -14.2587E+06     7.96437E+06    -2.55121E+06    -13.0515E-03     25.6078E-03    -12.5563E-03     37.9578E-03    -13.1136E-03     25.5479E-03    -12.4761E-03     37.9196E-03
            1138     9.77687E-03     100.506E-03    -11.5053E+06    -12.4956E+06     10.3108E+06    -5.13152E+06    -13.5392E-03     26.1436E-03    -12.6044E-03     42.9429E-03    -13.5989E-03     26.0882E-03    -12.5180E-03     42.8691E-03
            1139     10.6649E-03     100.543E-03    -9.56095E+06    -10.7352E+06     12.0875E+06    -6.47133E+06    -14.2092E-03     26.8907E-03    -12.6815E-03     48.1283E-03    -14.2678E-03     26.8422E-03    -12.5916E-03     48.0339E-03
            1140     11.5523E-03     100.586E-03    -8.55630E+06    -11.5355E+06     11.3842E+06    -8.87436E+06    -15.0393E-03     27.8269E-03    -12.7876E-03     53.3399E-03    -15.0966E-03     27.7799E-03    -12.7015E-03     53.2098E-03
            1141     12.4392E-03     100.633E-03    -8.19557E+06    -12.2157E+06     8.67013E+06    -11.6765E+06    -15.9952E-03     28.9176E-03    -12.9224E-03     58.4897E-03    -16.0554E-03     28.8802E-03    -12.8495E-03     58.3173E-03
            1142     13.3251E-03     100.685E-03    -5.90726E+06    -16.9004E+06     5.86136E+06    -15.1653E+06    -17.1880E-03     30.2890E-03    -13.1010E-03     63.6319E-03    -17.2422E-03     30.2453E-03    -13.0386E-03     63.4065E-03
            1143     14.2104E-03     100.741E-03    -4.05403E+06    -23.9700E+06    -1.79747E+06    -17.9579E+06    -18.6376E-03     31.9446E-03    -13.3069E-03     69.0829E-03    -18.6918E-03     31.9045E-03    -13.2753E-03     68.8123E-03
            1144     15.0939E-03     100.804E-03    -3.99589E+06    -9.73778E+06    -5.51638E+06    -16.7055E+06    -20.1108E-03     33.6620E-03    -13.5512E-03     75.9310E-03    -20.2412E-03     33.7597E-03    -13.5589E-03     75.6741E-03
            1145     15.9778E-03     100.875E-03    -3.48176E+06     31.0348E+06     2.31918E+06    -14.2429E+06    -21.4631E-03     35.3164E-03    -13.8533E-03     81.9611E-03    -21.7601E-03     35.7045E-03    -13.8817E-03     81.7718E-03
            1146     16.8569E-03     100.951E-03    -1.76845E+06     62.7810E+06     14.4734E+06    -10.7096E+06    -21.7166E-03     35.9305E-03    -14.2139E-03     53.7744E-03    -22.0090E-03     36.3976E-03    -14.2300E-03     53.6583E-03
            1147     889.153E-06     101.305E-03    -23.9424E+06    -39.7414E+06    -24.0577E+06     2.53590E+06    -12.0578E-03     23.9159E-03    -11.8581E-03     3.45700E-03    -12.0850E-03     23.7872E-03    -11.8861E-03     3.48963E-03
            1148     1.77860E-03     101.309E-03    -24.1351E+06    -36.5712E+06    -23.9077E+06     3.67936E+06    -11.9404E-03     23.8883E-03    -11.9479E-03     6.59355E-03    -11.9734E-03     23.7752E-03    -11.9794E-03     6.64081E-03
            1149     2.66786E-03     101.315E-03    -24.3342E+06    -33.3051E+06    -21.1386E+06     5.36415E+06    -11.9234E-03     23.8715E-03    -11.9481E-03     9.92044E-03    -11.9662E-03     23.7710E-03    -11.9702E-03     9.98928E-03
            1150     3.55720E-03     101.324E-03    -23.7252E+06    -30.4517E+06    -16.9424E+06     6.84290E+06    -11.9273E-03     23.8829E-03    -11.9556E-03     13.3889E-03    -11.9773E-03     23.7897E-03    -11.9617E-03     13.4767E-03
            1151     4.44647E-03     101.336E-03    -22.2195E+06    -25.4667E+06    -11.4322E+06     6.72136E+06    -11.9421E-03     23.9093E-03    -11.9672E-03     17.0648E-03    -12.0000E-03     23.8310E-03    -11.9552E-03     17.1507E-03
            1152     5.33585E-03     101.351E-03    -20.0228E+06    -22.3177E+06    -4.80407E+06     5.88525E+06    -11.9939E-03     23.9833E-03    -11.9894E-03     20.8506E-03    -12.0551E-03     23.9081E-03    -11.9520E-03     20.9253E-03
            1153     6.22505E-03     101.369E-03    -17.8122E+06    -18.5077E+06     1.14325E+06     4.69746E+06    -12.0735E-03     24.0856E-03    -12.0121E-03     24.8641E-03    -12.1381E-03     24.0179E-03    -11.9537E-03     24.9230E-03
            1154     7.11438E-03     101.390E-03    -15.9254E+06    -14.6050E+06     5.48510E+06     2.57008E+06    -12.1970E-03     24.2302E-03    -12.0333E-03     29.1493E-03    -12.2645E-03     24.1734E-03    -11.9616E-03     29.1801E-03
            1155     8.00354E-03     101.416E-03    -13.9606E+06    -14.3733E+06     8.22292E+06    -79.2590E+03    -12.4193E-03     24.4809E-03    -12.0616E-03     33.7342E-03    -12.4820E-03     24.4192E-03    -11.9794E-03     33.7298E-03
            1156     8.89251E-03     101.445E-03    -12.2683E+06    -10.7695E+06     10.4040E+06    -2.34615E+06    -12.7559E-03     24.8546E-03    -12.0986E-03     38.6399E-03    -12.8198E-03     24.8064E-03    -12.0132E-03     38.6048E-03
            1157     9.78128E-03     101.479E-03    -11.2200E+06    -10.3512E+06     11.7835E+06    -4.13485E+06    -13.2963E-03     25.4580E-03    -12.1617E-03     43.8165E-03    -13.3596E-03     25.4105E-03    -12.0715E-03     43.7561E-03
            1158     10.6695E-03     101.517E-03    -10.1208E+06    -7.72620E+06     12.9526E+06    -6.52764E+06    -14.0082E-03     26.2612E-03    -12.2530E-03     49.2881E-03    -14.0750E-03     26.2271E-03    -12.1624E-03     49.1936E-03
            1159     11.5572E-03     101.560E-03    -7.86745E+06    -8.23257E+06     12.5286E+06    -8.61029E+06    -14.9174E-03     27.2942E-03    -12.3767E-03     54.8058E-03    -14.9775E-03     27.2608E-03    -12.2907E-03     54.6797E-03
            1160     12.4439E-03     101.608E-03    -6.03548E+06    -7.87641E+06     11.3743E+06    -11.1999E+06    -16.0613E-03     28.6009E-03    -12.5397E-03     60.2895E-03    -16.1209E-03     28.5782E-03    -12.4626E-03     60.1235E-03
            1161     13.3301E-03     101.661E-03    -6.21963E+06    -10.5371E+06     8.73517E+06    -15.6788E+06    -17.4847E-03     30.2385E-03    -12.7538E-03     65.7247E-03    -17.5544E-03     30.2235E-03    -12.6859E-03     65.4924E-03
            1162     14.2145E-03     101.720E-03    -6.03735E+06    -21.7209E+06     342.444E+03    -18.5984E+06    -19.2670E-03     32.2785E-03    -13.0115E-03     71.3249E-03    -19.3392E-03     32.2513E-03    -12.9695E-03     71.0442E-03
            1163     15.0980E-03     101.784E-03    -4.41554E+06    -11.4884E+06    -3.38215E+06    -18.0073E+06    -21.1613E-03     34.4834E-03    -13.3221E-03     77.9644E-03    -21.2989E-03     34.5744E-03    -13.3159E-03     77.6852E-03
            1164     15.9788E-03     101.857E-03    -1.45032E+06     29.7966E+06     5.88674E+06    -15.8027E+06    -22.5756E-03     36.2714E-03    -13.6958E-03     84.0087E-03    -22.8726E-03     36.6520E-03    -13.7074E-03     83.7904E-03
            1165     16.8612E-03     101.935E-03     480.075E+03     55.2665E+06     16.3124E+06    -11.0256E+06    -23.1737E-03     37.3020E-03    -14.1283E-03     55.9904E-03    -23.4522E-03     37.7311E-03    -14.1275E-03     55.8612E-03
            1166     889.880E-06     102.275E-03    -34.0716E+06    -43.7918E+06    -34.3049E+06     1.97714E+06    -11.3879E-03     22.7158E-03    -11.3279E-03     3.56683E-03    -11.4450E-03     22.5963E-03    -11.3865E-03     3.59229E-03
            1167     1.77949E-03     102.279E-03    -32.9818E+06    -40.0279E+06    -31.3040E+06     3.49869E+06    -11.3551E-03     22.7167E-03    -11.3616E-03     6.63831E-03    -11.4167E-03     22.6099E-03    -11.4122E-03     6.68329E-03
            1168     2.66937E-03     102.286E-03    -30.6944E+06    -37.2942E+06    -26.2820E+06     5.09361E+06    -11.3374E-03     22.7098E-03    -11.3724E-03     10.0035E-03    -11.3988E-03     22.6060E-03    -11.4052E-03     10.0690E-03
            1169     3.55915E-03     102.295E-03    -27.3786E+06    -32.9766E+06    -20.0126E+06     6.13141E+06    -11.3668E-03     22.7521E-03    -11.3853E-03     13.5486E-03    -11.4270E-03     22.6560E-03    -11.3978E-03     13.6273E-03
            1170     4.44903E-03     102.307E-03    -24.0186E+06    -26.3873E+06    -12.6909E+06     6.36835E+06    -11.4204E-03     22.8271E-03    -11.4067E-03     17.2238E-03    -11.4841E-03     22.7486E-03    -11.3970E-03     17.3052E-03
            1171     5.33878E-03     102.322E-03    -21.1599E+06    -22.4945E+06    -5.55928E+06     5.86416E+06    -11.5115E-03     22.9506E-03    -11.4391E-03     21.0570E-03    -11.5769E-03     22.8772E-03    -11.4036E-03     21.1317E-03
            1172     6.22850E-03     102.340E-03    -17.9932E+06    -17.4418E+06     1.19749E+06     4.59413E+06    -11.6377E-03     23.1133E-03    -11.4755E-03     25.1353E-03    -11.7048E-03     23.0510E-03    -11.4181E-03     25.1931E-03
            1173     7.11810E-03     102.361E-03    -14.7453E+06    -12.6499E+06     7.16481E+06     2.96218E+06    -11.8140E-03     23.3309E-03    -11.5169E-03     29.4901E-03    -11.8808E-03     23.2796E-03    -11.4413E-03     29.5263E-03
            1174     8.00759E-03     102.387E-03    -12.5301E+06    -11.4113E+06     10.4722E+06     718.553E+03    -12.0896E-03     23.6533E-03    -11.5637E-03     34.1844E-03    -12.1526E-03     23.6009E-03    -11.4767E-03     34.1907E-03
            1175     8.89689E-03     102.416E-03    -11.1590E+06    -8.85114E+06     11.7669E+06    -1.23128E+06    -12.4757E-03     24.0928E-03    -11.6171E-03     39.2636E-03    -12.5385E-03     24.0504E-03    -11.5292E-03     39.2434E-03
            1176     9.78583E-03     102.450E-03    -9.68088E+06    -7.58933E+06     12.9580E+06    -3.15851E+06    -13.0079E-03     24.7019E-03    -11.6940E-03     44.7055E-03    -13.0689E-03     24.6640E-03    -11.6042E-03     44.6583E-03
            1177     10.6743E-03     102.490E-03    -7.94935E+06    -3.68192E+06     14.4453E+06    -6.05601E+06    -13.7197E-03     25.5166E-03    -11.7969E-03     50.4701E-03    -13.7833E-03     25.4970E-03    -11.7078E-03     50.3825E-03
            1178     11.5623E-03     102.534E-03    -6.69739E+06    -5.41017E+06     14.0953E+06    -8.98748E+06    -14.7357E-03     26.6738E-03    -11.9381E-03     56.3530E-03    -14.7959E-03     26.6501E-03    -11.8500E-03     56.2229E-03
            1179     12.4495E-03     102.583E-03    -5.59708E+06    -4.12655E+06     14.3395E+06    -10.8402E+06    -16.1211E-03     28.2523E-03    -12.1312E-03     62.1741E-03    -16.1882E-03     28.2433E-03    -12.0454E-03     62.0133E-03
            1180     13.3351E-03     102.638E-03    -4.90400E+06    -4.02129E+06     12.9407E+06    -13.9112E+06    -17.8349E-03     30.2185E-03    -12.3836E-03     67.8821E-03    -17.9142E-03     30.2287E-03    -12.3060E-03     67.6721E-03
            1181     14.2196E-03     102.698E-03    -4.38531E+06    -16.7314E+06     4.67306E+06    -19.2234E+06    -19.9607E-03     32.6553E-03    -12.6947E-03     73.9939E-03    -20.0402E-03     32.6464E-03    -12.6407E-03     73.7028E-03
            1182     15.1016E-03     102.765E-03    -2.66185E+06    -13.2870E+06    -144.875E+03    -20.1192E+06    -22.1478E-03     35.2193E-03    -13.0715E-03     80.8650E-03    -22.2831E-03     35.2985E-03    -13.0491E-03     80.5530E-03
            1183     15.9830E-03     102.840E-03    -1.77582E+06     27.2477E+06     7.83132E+06    -16.6953E+06    -23.8350E-03     37.3487E-03    -13.5137E-03     86.1025E-03    -24.1402E-03     37.7217E-03    -13.5115E-03     85.8613E-03
            1184     16.8623E-03     102.918E-03    -1.48358E+06     47.5021E+06     15.5876E+06    -11.1572E+06    -24.8798E-03     38.9066E-03    -14.0268E-03     57.8894E-03    -25.1626E-03     39.3077E-03    -14.0156E-03     57.7460E-03
            1185     890.263E-06     103.245E-03    -45.7959E+06    -46.1744E+06    -45.1214E+06     343.287E+03    -10.7428E-03     21.4796E-03    -10.7367E-03     3.57775E-03    -10.8395E-03     21.3809E-03    -10.8290E-03     3.58215E-03
            1186     1.78067E-03     103.249E-03    -42.2851E+06    -42.8605E+06    -40.0876E+06     1.34863E+06    -10.7302E-03     21.4811E-03    -10.7509E-03     6.68875E-03    -10.8214E-03     21.3864E-03    -10.8279E-03     6.70603E-03
            1187     2.67092E-03     103.255E-03    -37.4212E+06    -39.8582E+06    -33.2064E+06     2.20750E+06    -10.7640E-03     21.5329E-03    -10.7689E-03     10.1084E-03    -10.8453E-03     21.4361E-03    -10.8229E-03     10.1366E-03
            1188     3.56134E-03     103.264E-03    -31.9229E+06    -34.8662E+06    -24.9525E+06     2.88520E+06    -10.8271E-03     21.6250E-03    -10.7979E-03     13.6695E-03    -10.9001E-03     21.5332E-03    -10.8258E-03     13.7064E-03
            1189     4.45152E-03     103.276E-03    -26.3683E+06    -28.4092E+06    -16.3698E+06     4.01483E+06    -10.9119E-03     21.7456E-03    -10.8337E-03     17.3298E-03    -10.9790E-03     21.6657E-03    -10.8361E-03     17.3811E-03
            1190     5.34174E-03     103.291E-03    -21.2781E+06    -22.6049E+06    -7.80106E+06     4.43351E+06    -11.0216E-03     21.8991E-03    -10.8775E-03     21.2036E-03    -11.0842E-03     21.8285E-03    -10.8529E-03     21.2600E-03
            1191     6.23190E-03     103.310E-03    -17.1336E+06    -16.6274E+06     454.381E+03     3.53448E+06    -11.1901E-03     22.1196E-03    -10.9295E-03     25.3290E-03    -11.2529E-03     22.0612E-03    -10.8783E-03     25.3734E-03
            1192     7.12190E-03     103.331E-03    -13.6928E+06    -11.5770E+06     7.12437E+06     2.52050E+06    -11.4264E-03     22.4143E-03    -10.9880E-03     29.7489E-03    -11.4893E-03     22.3669E-03    -10.9157E-03     29.7796E-03
            1193     8.01174E-03     103.357E-03    -10.6723E+06    -9.00463E+06     11.2548E+06     1.11104E+06    -11.7433E-03     22.7957E-03    -11.0524E-03     34.5481E-03    -11.8015E-03     22.7513E-03    -10.9676E-03     34.5599E-03
            1194     8.90128E-03     103.387E-03    -7.88847E+06    -6.94460E+06     13.7410E+06    -826.889E+03    -12.1477E-03     23.2737E-03    -11.1260E-03     39.7860E-03    -12.1996E-03     23.2330E-03    -11.0357E-03     39.7715E-03
            1195     9.79055E-03     103.422E-03    -5.24205E+06    -4.43709E+06     15.6687E+06    -3.15297E+06    -12.6660E-03     23.8812E-03    -11.2152E-03     45.4761E-03    -12.7130E-03     23.8484E-03    -11.1228E-03     45.4297E-03
            1196     10.6795E-03     103.461E-03    -3.31509E+06    -74.9507E+03     17.9014E+06    -5.57689E+06    -13.4315E-03     24.7631E-03    -11.3316E-03     51.5417E-03    -13.4817E-03     24.7494E-03    -11.2372E-03     51.4611E-03
            1197     11.5678E-03     103.507E-03    -2.53181E+06    -2.29132E+06     18.1570E+06    -7.57115E+06    -14.6062E-03     26.0998E-03    -11.4936E-03     57.7690E-03    -14.6555E-03     26.0794E-03    -11.3958E-03     57.6580E-03
            1198     12.4547E-03     103.557E-03    -2.14102E+06    -800.382E+03     17.8417E+06    -10.1011E+06    -16.1375E-03     27.8461E-03    -11.7085E-03     64.0929E-03    -16.1968E-03     27.8432E-03    -11.6151E-03     63.9423E-03
            1199     13.3406E-03     103.614E-03    -1.63492E+06     981.824E+03     16.2282E+06    -12.7423E+06    -18.0701E-03     30.0591E-03    -11.9891E-03     70.4017E-03    -18.1452E-03     30.0849E-03    -11.9070E-03     70.2068E-03
            1200     14.2243E-03     103.677E-03    -2.73654E+06    -8.25212E+06     9.22216E+06    -17.5851E+06    -20.4777E-03     32.8229E-03    -12.3452E-03     77.2337E-03    -20.5690E-03     32.8486E-03    -12.2832E-03     76.9623E-03
            1201     15.1066E-03     103.747E-03    -3.94721E+06    -14.3131E+06     730.314E+03    -21.1741E+06    -23.0634E-03     35.8407E-03    -12.7773E-03     84.0456E-03    -23.2079E-03     35.9184E-03    -12.7471E-03     83.7146E-03
            1202     15.9863E-03     103.823E-03    -2.46290E+06     23.3285E+06     7.69132E+06    -17.6244E+06    -25.5740E-03     38.8738E-03    -13.2998E-03     89.2010E-03    -25.8884E-03     39.2402E-03    -13.2916E-03     88.9319E-03
            1203     16.8637E-03     103.906E-03    -639.107E+03     40.7336E+06     15.0226E+06    -11.0725E+06    -26.8071E-03     40.7205E-03    -13.9134E-03     60.7621E-03    -27.0869E-03     41.0992E-03    -13.8964E-03     60.6041E-03
            1204     890.765E-06     104.213E-03    -56.9330E+06    -45.0033E+06    -56.8559E+06    -1.66555E+06    -10.1008E-03     20.2799E-03    -10.1792E-03     3.46599E-03    -10.2378E-03     20.2203E-03    -10.3156E-03     3.44447E-03
            1205     1.78164E-03     104.217E-03    -53.2078E+06    -42.6381E+06    -51.8779E+06    -2.74539E+06    -10.1319E-03     20.2814E-03    -10.1495E-03     6.68901E-03    -10.2610E-03     20.2206E-03    -10.2699E-03     6.65348E-03
            1206     2.67255E-03     104.223E-03    -47.0921E+06    -39.8414E+06    -44.0140E+06    -3.32412E+06    -10.2302E-03     20.4087E-03    -10.1785E-03     10.0819E-03    -10.3441E-03     20.3416E-03    -10.2725E-03     10.0388E-03
            1207     3.56317E-03     104.233E-03    -39.4476E+06    -35.7239E+06    -34.4757E+06    -3.05815E+06    -10.3137E-03     20.5398E-03    -10.2261E-03     13.6295E-03    -10.4093E-03     20.4684E-03    -10.2894E-03     13.5898E-03
            1208     4.45397E-03     104.245E-03    -30.7336E+06    -29.9354E+06    -23.9790E+06    -2.23155E+06    -10.4016E-03     20.6778E-03    -10.2762E-03     17.3119E-03    -10.4772E-03     20.6076E-03    -10.3081E-03     17.2826E-03
            1209     5.34464E-03     104.260E-03    -21.9207E+06    -23.9087E+06    -12.5090E+06    -644.234E+03    -10.5552E-03     20.8907E-03    -10.3356E-03     21.2079E-03    -10.6122E-03     20.8214E-03    -10.3317E-03     21.1989E-03
            1210     6.23517E-03     104.278E-03    -15.0702E+06    -17.0311E+06    -1.83705E+06     1.02693E+06    -10.7558E-03     21.1588E-03    -10.4030E-03     25.3505E-03    -10.8043E-03     21.0986E-03    -10.3656E-03     25.3627E-03
            1211     7.12558E-03     104.301E-03    -10.4262E+06    -11.0300E+06     6.50596E+06     1.25182E+06    -11.0272E-03     21.5038E-03    -10.4766E-03     29.8361E-03    -11.0736E-03     21.4551E-03    -10.4129E-03     29.8507E-03
            1212     8.01571E-03     104.327E-03    -6.71724E+06    -7.43495E+06     12.1145E+06     321.462E+03    -11.3633E-03     21.9196E-03    -10.5563E-03     34.7268E-03    -11.4051E-03     21.8760E-03    -10.4752E-03     34.7287E-03
            1213     8.90566E-03     104.357E-03    -3.88427E+06    -4.77213E+06     15.6116E+06    -1.19552E+06    -11.7573E-03     22.4000E-03    -10.6427E-03     40.1032E-03    -11.7948E-03     22.3615E-03    -10.5521E-03     40.0844E-03
            1214     9.79536E-03     104.392E-03    -1.69505E+06    -1.05919E+06     18.5598E+06    -3.53011E+06    -12.3257E-03     23.0704E-03    -10.7447E-03     45.9901E-03    -12.3636E-03     23.0447E-03    -10.6479E-03     45.9395E-03
            1215     10.6845E-03     104.433E-03     136.801E+03     1.76423E+06     20.7808E+06    -5.07636E+06    -13.1760E-03     24.0517E-03    -10.8757E-03     52.3654E-03    -13.2152E-03     24.0374E-03    -10.7746E-03     52.2921E-03
            1216     11.5728E-03     104.479E-03     691.668E+03    -264.509E+03     20.7355E+06    -5.57943E+06    -14.3782E-03     25.4281E-03    -11.0499E-03     59.1368E-03    -14.4173E-03     25.4086E-03    -10.9468E-03     59.0526E-03
            1217     12.4602E-03     104.532E-03     285.502E+03     4.62242E+06     21.0459E+06    -8.46427E+06    -15.9674E-03     27.2450E-03    -11.2776E-03     66.1520E-03    -16.0261E-03     27.2601E-03    -11.1795E-03     66.0237E-03
            1218     13.3461E-03     104.590E-03    -482.770E+03     3.20960E+06     18.7574E+06    -10.9749E+06    -18.1118E-03     29.6918E-03    -11.5799E-03     73.2331E-03    -18.1873E-03     29.7226E-03    -11.4901E-03     73.0619E-03
            1219     14.2303E-03     104.656E-03    -1.62271E+06     1.08322E+06     14.4266E+06    -14.5244E+06    -20.8465E-03     32.8171E-03    -11.9705E-03     80.6530E-03    -20.9532E-03     32.8801E-03    -11.8976E-03     80.4205E-03
            1220     15.1117E-03     104.728E-03    -3.43094E+06    -11.5032E+06     3.44557E+06    -19.3410E+06    -24.0642E-03     36.5183E-03    -12.4541E-03     87.8173E-03    -24.2169E-03     36.6082E-03    -12.4152E-03     87.5040E-03
            1221     15.9904E-03     104.808E-03    -4.39216E+06     18.3956E+06     5.74760E+06    -18.7906E+06    -27.1817E-03     40.2300E-03    -13.0482E-03     93.3747E-03    -27.5088E-03     40.5904E-03    -13.0398E-03     93.0751E-03
            1222     16.8673E-03     104.894E-03    -2.75409E+06     33.4756E+06     11.2664E+06    -12.8605E+06    -28.9714E-03     42.7309E-03    -13.7596E-03     63.5932E-03    -29.2575E-03     43.0937E-03    -13.7478E-03     63.3945E-03
            1223     891.310E-06     105.180E-03    -56.3696E+06    -40.2719E+06    -56.1304E+06    -3.13418E+06    -9.63015E-03     19.3232E-03    -9.69306E-03     3.35836E-03    -9.77222E-03     19.2854E-03    -9.83358E-03     3.31785E-03
            1224     1.78254E-03     105.184E-03    -54.8800E+06    -38.3027E+06    -53.9890E+06    -5.79873E+06    -9.70157E-03     19.3740E-03    -9.67242E-03     6.53869E-03    -9.84221E-03     19.3404E-03    -9.80725E-03     6.46376E-03
            1225     2.67367E-03     105.191E-03    -52.1297E+06    -36.4355E+06    -49.9885E+06    -8.25903E+06    -9.76003E-03     19.4599E-03    -9.69992E-03     9.92975E-03    -9.89541E-03     19.4259E-03    -9.82144E-03     9.82298E-03
            1226     3.56491E-03     105.200E-03    -46.9806E+06    -33.7588E+06    -43.7579E+06    -9.91245E+06    -9.83285E-03     19.5698E-03    -9.73695E-03     13.4231E-03    -9.95545E-03     19.5327E-03    -9.83867E-03     13.2949E-03
            1227     4.45599E-03     105.212E-03    -39.6290E+06    -29.0313E+06    -34.5630E+06    -10.5438E+06    -9.94314E-03     19.7293E-03    -9.78614E-03     17.1165E-03    -10.0492E-03     19.6919E-03    -9.85940E-03     16.9800E-03
            1228     5.34704E-03     105.228E-03    -30.2222E+06    -25.4503E+06    -23.0909E+06    -9.55722E+06    -10.1102E-03     19.9628E-03    -9.85259E-03     20.9855E-03    -10.1912E-03     19.9131E-03    -9.88732E-03     20.8616E-03
            1229     6.23801E-03     105.246E-03    -19.3779E+06    -19.6545E+06    -10.3837E+06    -6.35912E+06    -10.3280E-03     20.2575E-03    -9.92957E-03     25.1171E-03    -10.3817E-03     20.2028E-03    -9.92489E-03     25.0342E-03
            1230     7.12878E-03     105.269E-03    -10.1382E+06    -12.1352E+06     1.82720E+06    -2.95925E+06    -10.5972E-03     20.6124E-03    -10.0152E-03     29.6264E-03    -10.6337E-03     20.5645E-03    -9.97373E-03     29.5869E-03
            1231     8.01937E-03     105.295E-03    -4.91230E+06    -7.30625E+06     10.6708E+06    -1.16850E+06    -10.9267E-03     21.0335E-03    -10.1068E-03     34.5417E-03    -10.9573E-03     20.9898E-03    -10.0357E-03     34.5247E-03
            1232     8.90973E-03     105.326E-03    -1.99686E+06    -2.48070E+06     16.4966E+06    -1.76986E+06    -11.3681E-03     21.5715E-03    -10.2034E-03     40.0050E-03    -11.4005E-03     21.5401E-03    -10.1144E-03     39.9793E-03
            1233     9.79970E-03     105.362E-03     643.796E+03     2.08816E+06     20.4657E+06    -3.98412E+06    -11.9794E-03     22.2935E-03    -10.3141E-03     46.1248E-03    -12.0124E-03     22.2769E-03    -10.2158E-03     46.0690E-03
            1234     10.6891E-03     105.403E-03     2.59793E+06     1.98349E+06     22.1138E+06    -4.70946E+06    -12.8181E-03     23.2696E-03    -10.4515E-03     52.9024E-03    -12.8465E-03     23.2501E-03    -10.3476E-03     52.8348E-03
            1235     11.5779E-03     105.451E-03     4.61043E+06     1.30090E+06     23.3390E+06    -4.99661E+06    -13.9913E-03     24.6204E-03    -10.6292E-03     60.2444E-03    -14.0155E-03     24.5980E-03    -10.5211E-03     60.1691E-03
            1236     12.4657E-03     105.505E-03     5.61749E+06     8.60433E+06     26.0503E+06    -5.97777E+06    -15.6627E-03     26.5271E-03    -10.8643E-03     67.9282E-03    -15.7061E-03     26.5454E-03    -10.7547E-03     67.8337E-03
            1237     13.3520E-03     105.566E-03     4.67931E+06     5.70758E+06     24.3181E+06    -7.86420E+06    -18.0370E-03     29.2176E-03    -11.1807E-03     75.8139E-03    -18.0966E-03     29.2437E-03    -11.0742E-03     75.6841E-03
            1238     14.2358E-03     105.634E-03     3.83679E+06     9.01351E+06     21.2642E+06    -11.9607E+06    -21.0963E-03     32.6881E-03    -11.5918E-03     84.1623E-03    -21.1955E-03     32.7714E-03    -11.5041E-03     83.9629E-03
            1239     15.1172E-03     105.711E-03     2.98800E+06    -6.28494E+06     10.3534E+06    -16.4907E+06    -24.8430E-03     36.9628E-03    -12.1198E-03     92.1189E-03    -24.9820E-03     37.0603E-03    -12.0632E-03     91.8376E-03
            1240     15.9953E-03     105.794E-03     1.63683E+06     17.1918E+06     10.5380E+06    -17.6820E+06    -28.8650E-03     41.6517E-03    -12.7866E-03     98.0690E-03    -29.1788E-03     42.0021E-03    -12.7613E-03     97.7660E-03
            1241     16.8695E-03     105.884E-03     782.628E+03     24.2266E+06     12.7757E+06    -12.8105E+06    -31.5303E-03     45.1405E-03    -13.6101E-03     67.0551E-03    -31.8007E-03     45.4628E-03    -13.5825E-03     66.8350E-03
            1242     891.523E-06     106.146E-03    -41.9058E+06    -33.8633E+06    -41.9438E+06    -3.39889E+06    -9.43363E-03     18.8008E-03    -9.36720E-03     3.17163E-03    -9.53324E-03     18.7535E-03    -9.46706E-03     3.12772E-03
            1243     1.78303E-03     106.150E-03    -42.0279E+06    -31.8064E+06    -41.5837E+06    -6.34229E+06    -9.42452E-03     18.8262E-03    -9.40167E-03     6.26657E-03    -9.52832E-03     18.7885E-03    -9.50253E-03     6.18457E-03
            1244     2.67459E-03     106.157E-03    -41.9109E+06    -30.2147E+06    -40.0654E+06    -9.53020E+06    -9.45134E-03     18.8662E-03    -9.41486E-03     9.57371E-03    -9.55905E-03     18.8341E-03    -9.51060E-03     9.45048E-03
            1245     3.56605E-03     106.166E-03    -41.2280E+06    -28.1219E+06    -37.7592E+06    -13.0482E+06    -9.53401E-03     18.9704E-03    -9.43635E-03     12.9596E-03    -9.64473E-03     18.9444E-03    -9.52458E-03     12.7909E-03
            1246     4.45751E-03     106.179E-03    -39.1931E+06    -25.4526E+06    -33.9042E+06    -15.4317E+06    -9.64504E-03     19.1175E-03    -9.47244E-03     16.5347E-03    -9.75512E-03     19.0964E-03    -9.54822E-03     16.3351E-03
            1247     5.34884E-03     106.194E-03    -35.4928E+06    -23.9072E+06    -28.1507E+06    -16.4643E+06    -9.77595E-03     19.2998E-03    -9.52384E-03     20.3339E-03    -9.87821E-03     19.2728E-03    -9.57847E-03     20.1208E-03
            1248     6.24005E-03     106.213E-03    -28.7871E+06    -21.3153E+06    -20.7756E+06    -15.9882E+06    -9.95497E-03     19.5382E-03    -9.58319E-03     24.4496E-03    -10.0383E-03     19.5039E-03    -9.61442E-03     24.2424E-03
            1249     7.13118E-03     106.236E-03    -18.5444E+06    -15.8540E+06    -9.88347E+06    -12.1828E+06    -10.1793E-03     19.8367E-03    -9.65747E-03     28.8960E-03    -10.2353E-03     19.7993E-03    -9.65701E-03     28.7376E-03
            1250     8.02220E-03     106.263E-03    -7.52228E+06    -10.0547E+06     4.34176E+06    -6.96994E+06    -10.5193E-03     20.2771E-03    -9.75777E-03     33.7881E-03    -10.5497E-03     20.2325E-03    -9.71057E-03     33.6965E-03
            1251     8.91287E-03     106.294E-03     507.781E+03    -1.43717E+06     16.2337E+06    -4.40063E+06    -10.9776E-03     20.8424E-03    -9.86482E-03     39.3074E-03    -10.9983E-03     20.8127E-03    -9.78231E-03     39.2481E-03
            1252     9.80314E-03     106.331E-03     3.87868E+06     3.63519E+06     21.7003E+06    -4.02568E+06    -11.5414E-03     21.5151E-03    -9.97365E-03     45.6162E-03    -11.5618E-03     21.4992E-03    -9.87604E-03     45.5606E-03
            1253     10.6931E-03     106.373E-03     5.14811E+06     2.45248E+06     23.9625E+06    -4.35365E+06    -12.3386E-03     22.4447E-03    -10.1062E-03     52.7461E-03    -12.3565E-03     22.4202E-03    -9.99736E-03     52.6842E-03
            1254     11.5823E-03     106.421E-03     6.45924E+06     3.09934E+06     26.0762E+06    -5.38121E+06    -13.5261E-03     23.8029E-03    -10.2768E-03     60.6122E-03    -13.5462E-03     23.7813E-03    -10.1603E-03     60.5335E-03
            1255     12.4705E-03     106.477E-03     8.04511E+06     8.47093E+06     28.8953E+06    -4.98722E+06    -15.2563E-03     25.7627E-03    -10.5063E-03     69.0529E-03    -15.2892E-03     25.7704E-03    -10.3858E-03     68.9731E-03
            1256     13.3571E-03     106.541E-03     8.49701E+06     8.87117E+06     29.3320E+06    -4.75210E+06    -17.7615E-03     28.5848E-03    -10.8233E-03     77.9367E-03    -17.8110E-03     28.6109E-03    -10.7018E-03     77.8492E-03
            1257     14.2415E-03     106.612E-03     7.58547E+06     17.5331E+06     28.4130E+06    -9.78758E+06    -21.0550E-03     32.2977E-03    -11.2427E-03     87.3987E-03    -21.1546E-03     32.4042E-03    -11.1371E-03     87.2286E-03
            1258     15.1229E-03     106.693E-03     8.55155E+06    -901.392E+03     18.2215E+06    -16.0064E+06    -25.2615E-03     37.0587E-03    -11.7972E-03     96.5234E-03    -25.3879E-03     37.1597E-03    -11.7172E-03     96.2459E-03
            1259     16.0001E-03     106.782E-03     9.26039E+06     15.4241E+06     18.3145E+06    -14.9684E+06    -30.2561E-03     42.7793E-03    -12.5232E-03     104.056E-03    -30.5502E-03     43.1084E-03    -12.4674E-03     103.771E-03
            1260     16.8732E-03     106.878E-03     6.14905E+06     14.6173E+06     18.8387E+06    -8.15057E+06    -34.3050E-03     47.7647E-03    -13.4597E-03     72.2902E-03    -34.5608E-03     48.0401E-03    -13.3956E-03     72.1045E-03
            1261     891.643E-06     107.113E-03    -27.0630E+06    -27.1987E+06    -27.1738E+06    -3.49347E+06    -9.31767E-03     18.6505E-03    -9.33279E-03     3.00960E-03    -9.37415E-03     18.5935E-03    -9.38998E-03     2.96437E-03
            1262     1.78330E-03     107.116E-03    -26.6846E+06    -25.1548E+06    -26.1411E+06    -6.25069E+06    -9.36537E-03     18.6975E-03    -9.33210E-03     5.88717E-03    -9.42449E-03     18.6484E-03    -9.38764E-03     5.80628E-03
            1263     2.67495E-03     107.123E-03    -26.1021E+06    -23.3626E+06    -24.1722E+06    -9.23867E+06    -9.41590E-03     18.7703E-03    -9.35440E-03     8.91256E-03    -9.47756E-03     18.7265E-03    -9.40354E-03     8.79297E-03
            1264     3.56656E-03     107.133E-03    -25.9878E+06    -21.0836E+06    -21.7993E+06    -12.2727E+06    -9.49823E-03     18.8830E-03    -9.38475E-03     12.0790E-03    -9.56613E-03     18.8470E-03    -9.42549E-03     11.9201E-03
            1265     4.45798E-03     107.145E-03    -26.4063E+06    -19.8168E+06    -20.1535E+06    -15.2921E+06    -9.58283E-03     19.0020E-03    -9.41920E-03     15.4076E-03    -9.65713E-03     18.9707E-03    -9.45295E-03     15.2096E-03
            1266     5.34945E-03     107.161E-03    -26.4190E+06    -19.4474E+06    -18.8312E+06    -17.6101E+06    -9.67554E-03     19.1302E-03    -9.45470E-03     19.0294E-03    -9.75247E-03     19.0990E-03    -9.48235E-03     18.8013E-03
            1267     6.24084E-03     107.180E-03    -26.1135E+06    -18.5002E+06    -17.1528E+06    -19.4476E+06    -9.79422E-03     19.2867E-03    -9.49248E-03     22.9732E-03    -9.87358E-03     19.2574E-03    -9.51356E-03     22.7213E-03
            1268     7.13217E-03     107.203E-03    -23.8172E+06    -17.7409E+06    -13.9947E+06    -19.6810E+06    -9.95444E-03     19.4929E-03    -9.53842E-03     27.2750E-03    -10.0282E-03     19.4597E-03    -9.54813E-03     27.0198E-03
            1269     8.02336E-03     107.230E-03    -16.5147E+06    -13.4999E+06    -6.19844E+06    -17.0969E+06    -10.1942E-03     19.7953E-03    -9.60113E-03     32.1684E-03    -10.2492E-03     19.7618E-03    -9.58860E-03     31.9462E-03
            1270     8.91434E-03     107.262E-03    -6.03767E+06    -4.52639E+06     6.96264E+06    -12.0405E+06    -10.5279E-03     20.2170E-03    -9.68906E-03     37.6806E-03    -10.5631E-03     20.1945E-03    -9.63893E-03     37.5232E-03
            1271     9.80519E-03     107.299E-03     2.79320E+06     1.69839E+06     19.1828E+06    -6.81657E+06    -11.0350E-03     20.8302E-03    -9.79522E-03     44.0482E-03    -11.0537E-03     20.8093E-03    -9.70582E-03     43.9573E-03
            1272     10.6955E-03     107.341E-03     7.39639E+06     3.03142E+06     25.8352E+06     -4.5564E+06    -11.8244E-03     21.7394E-03    -9.91503E-03     51.4420E-03    -11.8335E-03     21.7106E-03    -9.80098E-03     51.3787E-03
            1273     11.5852E-03     107.391E-03     8.48365E+06     4.12578E+06     28.9549E+06    -4.23127E+06    -13.0062E-03     23.0732E-03    -10.0670E-03     59.8046E-03    -13.0199E-03     23.0477E-03    -9.94050E-03     59.7425E-03
            1274     12.4739E-03     107.449E-03     9.13319E+06     8.70508E+06     31.6007E+06    -4.98384E+06    -14.7454E-03     25.0226E-03    -10.2772E-03     69.0064E-03    -14.7741E-03     25.0230E-03    -10.1451E-03     68.9290E-03
            1275     13.3610E-03     107.515E-03     11.7238E+06     8.59920E+06     33.0835E+06    -4.44480E+06    -17.2877E-03     27.8656E-03    -10.5779E-03     78.9213E-03    -17.3214E-03     27.8755E-03    -10.4419E-03     78.8407E-03
            1276     14.2457E-03     107.590E-03     10.9602E+06     25.1314E+06     35.1601E+06    -4.70419E+06    -20.7549E-03     31.7421E-03    -10.9872E-03     89.4928E-03    -20.8519E-03     31.8655E-03    -10.8638E-03     89.3908E-03
            1277     15.1274E-03     107.675E-03     4.76309E+06     9.69037E+06     23.7621E+06    -13.1572E+06    -25.3677E-03     36.9120E-03    -11.5443E-03     99.7825E-03    -25.5271E-03     37.0541E-03    -11.4464E-03     99.5414E-03
            1278     16.0054E-03     107.769E-03     2.25221E+06     7.57956E+06     14.3557E+06    -15.5724E+06    -31.1304E-03     43.4147E-03    -12.2843E-03     108.905E-03    -31.4437E-03     43.7218E-03    -12.2268E-03     108.597E-03
            1279     16.8776E-03     107.873E-03     2.92809E+06     3.23801E+06     14.0365E+06    -4.21980E+06    -36.6802E-03     49.9796E-03    -13.2994E-03     77.5918E-03    -36.9453E-03     50.2266E-03    -13.2381E-03     77.4277E-03
            1280     891.622E-06     108.079E-03    -13.7340E+06    -20.6459E+06    -13.0302E+06    -3.17216E+06    -9.50899E-03     19.0513E-03    -9.54228E-03     2.77331E-03    -9.52879E-03     18.9872E-03    -9.55758E-03     2.73213E-03
            1281     1.78310E-03     108.083E-03    -13.6818E+06    -18.5275E+06    -12.5338E+06    -6.10102E+06    -9.62259E-03     19.1681E-03    -9.54555E-03     5.24939E-03    -9.64603E-03     19.1136E-03    -9.56152E-03     5.17032E-03
            1282     2.67447E-03     108.089E-03    -13.4179E+06    -17.0397E+06    -11.3106E+06    -8.96385E+06    -9.68986E-03     19.2754E-03    -9.58558E-03     7.98870E-03    -9.71594E-03     19.2262E-03    -9.59797E-03     7.87250E-03
            1283     3.56578E-03     108.099E-03    -13.1160E+06    -15.4056E+06    -9.32505E+06    -11.0226E+06    -9.74273E-03     19.3668E-03    -9.62409E-03     10.8525E-03    -9.77263E-03     19.3225E-03    -9.62936E-03     10.7095E-03
            1284     4.45721E-03     108.112E-03    -13.3119E+06    -13.6688E+06    -6.89380E+06    -13.1259E+06    -9.82301E-03     19.4868E-03    -9.66379E-03     13.8488E-03    -9.86004E-03     19.4480E-03    -9.65914E-03     13.6785E-03
            1285     5.34846E-03     108.127E-03    -14.0415E+06    -14.0506E+06    -5.35238E+06    -15.7526E+06    -9.90712E-03     19.6114E-03    -9.70429E-03     17.0734E-03    -9.94960E-03     19.5697E-03    -9.69031E-03     16.8690E-03
            1286     6.23971E-03     108.147E-03    -14.9555E+06    -14.2760E+06    -4.48854E+06    -17.2269E+06    -9.97022E-03     19.7101E-03    -9.73991E-03     20.6431E-03    -10.0184E-03     19.6675E-03    -9.71997E-03     20.4194E-03
            1287     7.13087E-03     108.170E-03    -16.5505E+06    -14.0945E+06    -4.52544E+06    -19.1499E+06    -10.0578E-03     19.8272E-03    -9.76935E-03     24.6571E-03    -10.1143E-03     19.7880E-03    -9.74754E-03     24.4085E-03
            1288     8.02201E-03     108.197E-03    -17.7503E+06    -12.9905E+06    -5.79120E+06    -21.1351E+06    -10.1309E-03     19.9193E-03    -9.78847E-03     29.2838E-03    -10.1934E-03     19.8895E-03    -9.77285E-03     29.0094E-03
            1289     8.91329E-03     108.229E-03    -15.4982E+06    -8.75766E+06    -1.35467E+06    -19.3333E+06    -10.2486E-03     20.0725E-03    -9.82392E-03     34.6081E-03    -10.3128E-03     20.0545E-03    -9.79552E-03     34.3566E-03
            1290     9.80434E-03     108.266E-03    -8.13108E+06    -2.59466E+06     10.3291E+06    -14.7166E+06    -10.5883E-03     20.4800E-03    -9.89177E-03     40.9381E-03    -10.6420E-03     20.4658E-03    -9.82457E-03     40.7458E-03
            1291     10.6952E-03     108.309E-03     1.48211E+06     268.945E+03     21.5037E+06    -9.48653E+06    -11.2878E-03     21.2704E-03    -9.98263E-03     48.4955E-03    -11.3151E-03     21.2416E-03    -9.87765E-03     48.3696E-03
            1292     11.5853E-03     108.360E-03     9.01949E+06     2.94724E+06     29.9073E+06    -5.54596E+06    -12.4640E-03     22.5726E-03    -10.1086E-03     57.2614E-03    -12.4725E-03     22.5369E-03    -9.97644E-03     57.1840E-03
            1293     12.4744E-03     108.419E-03     12.3207E+06     9.88619E+06     35.5120E+06    -4.21704E+06    -14.1837E-03     24.4728E-03    -10.2891E-03     67.0319E-03    -14.2001E-03     24.4651E-03    -10.1438E-03     66.9669E-03
            1294     13.3619E-03     108.487E-03     12.7392E+06     8.19852E+06     35.7782E+06    -4.80750E+06    -16.6740E-03     27.2271E-03    -10.5532E-03     77.9127E-03    -16.6995E-03     27.2234E-03    -10.4047E-03     77.8311E-03
            1295     14.2474E-03     108.566E-03     12.1364E+06     21.0625E+06     36.6332E+06     597.317E+03    -20.1724E-03     31.0987E-03    -10.9263E-03     89.8538E-03    -20.2495E-03     31.1876E-03    -10.7913E-03     89.8250E-03
            1296     15.1295E-03     108.656E-03     2.16811E+06     23.8069E+06     30.7817E+06     2.33861E+06    -24.9646E-03     36.4259E-03    -11.4613E-03     101.919E-03    -25.1505E-03     36.6151E-03    -11.3450E-03     101.883E-03
            1297     16.0062E-03     108.756E-03    -14.2012E+06     12.6942E+06     10.8769E+06    -9.48518E+06    -31.1610E-03     43.3282E-03    -12.1672E-03     114.158E-03    -31.5443E-03     43.6751E-03    -12.1106E-03     113.923E-03
            1298     16.8775E-03     108.868E-03    -15.9745E+06    -11.1385E+06     5.08849E+06    -11.2705E+06    -37.7259E-03     50.9313E-03    -13.2054E-03     86.6856E-03    -38.0662E-03     51.1616E-03    -13.1407E-03     86.4072E-03
            1299     891.030E-06     109.045E-03    -2.39292E+06    -14.9385E+06    -2.24243E+06    -2.43039E+06    -10.1493E-03     20.2527E-03    -10.1034E-03     2.42789E-03    -10.1364E-03     20.1852E-03    -10.0895E-03     2.39632E-03
            1300     1.78202E-03     109.049E-03    -3.07634E+06    -12.1531E+06    -1.82854E+06    -5.21873E+06    -10.2248E-03     20.3708E-03    -10.1460E-03     4.54436E-03    -10.2200E-03     20.3172E-03    -10.1330E-03     4.47654E-03
            1301     2.67296E-03     109.056E-03    -3.55964E+06    -11.1371E+06    -1.12274E+06    -8.01530E+06    -10.3058E-03     20.4957E-03    -10.1898E-03     6.88649E-03    -10.3060E-03     20.4469E-03    -10.1741E-03     6.78231E-03
            1302     3.56388E-03     109.066E-03    -3.67022E+06    -10.6767E+06    -151.190E+03    -10.1453E+06    -10.3870E-03     20.6214E-03    -10.2344E-03     9.30183E-03    -10.3898E-03     20.5737E-03    -10.2144E-03     9.16994E-03
            1303     4.45464E-03     109.079E-03    -3.75701E+06    -9.40230E+06     2.41473E+06    -11.1695E+06    -10.4675E-03     20.7524E-03    -10.2849E-03     11.8543E-03    -10.4765E-03     20.7076E-03    -10.2537E-03     11.7089E-03
            1304     5.34534E-03     109.095E-03    -4.97780E+06    -8.94282E+06     4.86996E+06    -12.3730E+06    -10.5416E-03     20.8783E-03    -10.3367E-03     14.5674E-03    -10.5611E-03     20.8342E-03    -10.2922E-03     14.4062E-03
            1305     6.23598E-03     109.114E-03    -6.26861E+06    -10.3699E+06     5.41088E+06    -14.4551E+06    -10.5893E-03     20.9676E-03    -10.3783E-03     17.6438E-03    -10.6141E-03     20.9176E-03    -10.3271E-03     17.4555E-03
            1306     7.12675E-03     109.137E-03    -6.76251E+06    -9.52346E+06     6.35910E+06    -15.7783E+06    -10.6070E-03     21.0175E-03    -10.4105E-03     21.1114E-03    -10.6371E-03     20.9713E-03    -10.3551E-03     20.9058E-03
            1307     8.01747E-03     109.164E-03    -8.49683E+06    -8.70997E+06     6.61705E+06    -17.4376E+06    -10.5893E-03     21.0213E-03    -10.4319E-03     25.0539E-03    -10.6299E-03     20.9815E-03    -10.3739E-03     24.8267E-03
            1308     8.90823E-03     109.196E-03    -10.4403E+06    -8.19773E+06     5.42290E+06    -19.5048E+06    -10.5438E-03     20.9797E-03    -10.4359E-03     29.8334E-03    -10.5933E-03     20.9473E-03    -10.3818E-03     29.5793E-03
            1309     9.79924E-03     109.233E-03    -10.5556E+06    -5.27523E+06     7.99553E+06    -18.8730E+06    -10.6045E-03     21.0500E-03    -10.4454E-03     35.7558E-03    -10.6629E-03     21.0289E-03    -10.3825E-03     35.5098E-03
            1310     10.6901E-03     109.277E-03    -7.50931E+06    -3.65694E+06     15.3146E+06    -15.9093E+06    -11.0212E-03     21.5068E-03    -10.4856E-03     43.1218E-03    -11.0780E-03     21.4795E-03    -10.3928E-03     42.9135E-03
            1311     11.5806E-03     109.329E-03    -225.097E+03    -238.332E+03     24.9814E+06    -12.3227E+06    -11.9428E-03     22.5063E-03    -10.5634E-03     52.0567E-03    -11.9839E-03     22.4732E-03    -10.4378E-03     51.8933E-03
            1312     12.4700E-03     109.389E-03     7.51721E+06     5.94744E+06     33.6006E+06    -6.58421E+06    -13.4777E-03     24.1699E-03    -10.6922E-03     62.3723E-03    -13.5055E-03     24.1481E-03    -10.5437E-03     62.2796E-03
            1313     13.3581E-03     109.460E-03     9.86572E+06     8.91309E+06     36.8927E+06    -2.43605E+06    -15.8775E-03     26.7757E-03    -10.8982E-03     74.2365E-03    -15.9125E-03     26.7705E-03    -10.7410E-03     74.1901E-03
            1314     14.2440E-03     109.541E-03     10.0167E+06     10.1101E+06     36.5387E+06     1.91601E+06    -19.1653E-03     30.3791E-03    -11.2137E-03     87.4729E-03    -19.2228E-03     30.4022E-03    -11.0602E-03     87.4684E-03
            1315     15.1271E-03     109.636E-03     12.9239E+06     20.4266E+06     40.8917E+06     13.7008E+06    -23.2246E-03     34.9015E-03    -11.6769E-03     101.758E-03    -23.3390E-03     35.0160E-03    -11.5208E-03     101.880E-03
            1316     16.0070E-03     109.743E-03     9.87027E+06     38.5729E+06     33.1010E+06     8.42873E+06    -28.9028E-03     41.1544E-03    -12.2516E-03     118.452E-03    -29.1929E-03     41.5209E-03    -12.1563E-03     118.462E-03
            1317     16.8812E-03     109.863E-03     1.54273E+06    -9.49741E+06     22.7385E+06    -10.6291E+06    -36.5914E-03     49.7887E-03    -13.1973E-03     98.0531E-03    -36.8724E-03     49.9767E-03    -13.0721E-03     97.7786E-03
            1318     890.209E-06     110.014E-03     4.46233E+06    -10.2978E+06     4.47490E+06    -2.10975E+06    -11.1734E-03     22.3166E-03    -11.1432E-03     2.07595E-03    -11.1427E-03     22.2525E-03    -11.1124E-03     2.04841E-03
            1319     1.78031E-03     110.018E-03     4.20622E+06    -6.68346E+06     4.65174E+06    -4.30819E+06    -11.2634E-03     22.4400E-03    -11.1766E-03     3.74801E-03    -11.2396E-03     22.3938E-03    -11.1498E-03     3.69178E-03
            1320     2.67032E-03     110.025E-03     3.50847E+06    -6.02813E+06     5.95411E+06    -6.34697E+06    -11.3968E-03     22.6318E-03    -11.2350E-03     5.58816E-03    -11.3794E-03     22.5880E-03    -11.2016E-03     5.50533E-03
            1321     3.56014E-03     110.035E-03     2.28048E+06    -6.12575E+06     7.33688E+06    -8.23326E+06    -11.5274E-03     22.8325E-03    -11.3051E-03     7.44380E-03    -11.5181E-03     22.7881E-03    -11.2628E-03     7.33635E-03
            1322     4.44993E-03     110.048E-03     1.45789E+06    -6.69531E+06     8.46987E+06    -9.35953E+06    -11.6027E-03     22.9747E-03    -11.3720E-03     9.43409E-03    -11.5984E-03     22.9271E-03    -11.3220E-03     9.31177E-03
            1323     5.33971E-03     110.064E-03     1.38907E+06    -6.03057E+06     10.9188E+06    -9.42690E+06    -11.6782E-03     23.1141E-03    -11.4359E-03     11.5870E-03    -11.6788E-03     23.0664E-03    -11.3746E-03     11.4635E-03
            1324     6.22939E-03     110.083E-03     307.813E+03    -5.38906E+06     13.5194E+06    -10.9453E+06    -11.7688E-03     23.2682E-03    -11.4995E-03     13.9929E-03    -11.7797E-03     23.2217E-03    -11.4245E-03     13.8494E-03
            1325     7.11890E-03     110.106E-03    -1.17490E+06    -6.71078E+06     13.9923E+06    -12.9743E+06    -11.7882E-03     23.3392E-03    -11.5510E-03     16.7061E-03    -11.8056E-03     23.2877E-03    -11.4696E-03     16.5361E-03
            1326     8.00860E-03     110.133E-03    -1.41962E+06    -4.69030E+06     15.0865E+06    -13.9038E+06    -11.7536E-03     23.3415E-03    -11.5879E-03     19.8139E-03    -11.7769E-03     23.2992E-03    -11.5036E-03     19.6316E-03
            1327     8.89834E-03     110.164E-03    -2.63471E+06    -4.26285E+06     15.2021E+06    -15.4518E+06    -11.7109E-03     23.3230E-03    -11.6122E-03     23.5711E-03    -11.7413E-03     23.2847E-03    -11.5262E-03     23.3686E-03
            1328     9.78823E-03     110.201E-03    -5.46104E+06    -5.77115E+06     13.9623E+06    -15.6383E+06    -11.6661E-03     23.2910E-03    -11.6250E-03     28.3746E-03    -11.7070E-03     23.2513E-03    -11.5389E-03     28.1695E-03
            1329     10.6783E-03     110.245E-03    -7.67358E+06    -3.08918E+06     15.6123E+06    -15.8810E+06    -11.7032E-03     23.3425E-03    -11.6393E-03     34.6860E-03    -11.7619E-03     23.3175E-03    -11.5457E-03     34.4777E-03
            1330     11.5683E-03     110.297E-03    -8.44380E+06    -2.66339E+06     18.8372E+06    -15.6274E+06    -11.9887E-03     23.6555E-03    -11.6669E-03     42.8177E-03    -12.0572E-03     23.6298E-03    -11.5566E-03     42.6122E-03
            1331     12.4582E-03     110.359E-03    -5.83420E+06    -864.810E+03     24.8492E+06    -11.6434E+06    -12.8735E-03     24.6015E-03    -11.7281E-03     53.0200E-03    -12.9421E-03     24.5743E-03    -11.5941E-03     52.8644E-03
            1332     13.3468E-03     110.431E-03     2.37127E+06     5.12281E+06     34.4988E+06    -6.01033E+06    -14.7475E-03     26.6054E-03    -11.8580E-03     65.6094E-03    -14.8032E-03     26.5878E-03    -11.6963E-03     65.5219E-03
            1333     14.2334E-03     110.516E-03     11.2493E+06     2.97349E+06     39.3174E+06    -738.903E+03    -17.4144E-03     29.4866E-03    -12.0721E-03     79.8375E-03    -17.4432E-03     29.4520E-03    -11.8962E-03     79.8083E-03
            1334     15.1180E-03     110.613E-03     22.4351E+06     5.18634E+06     42.5519E+06     5.54956E+06    -20.0923E-03     32.4551E-03    -12.3628E-03     95.2101E-03    -20.1054E-03     32.4431E-03    -12.1901E-03     95.2452E-03
            1335     16.0014E-03     110.724E-03     37.0568E+06     50.6471E+06     48.6494E+06     11.1766E+06    -23.8225E-03     36.5146E-03    -12.6921E-03     115.765E-03    -23.9383E-03     36.8012E-03    -12.5760E-03     115.843E-03
            1336     16.8806E-03     110.853E-03     31.4111E+06     5.40841E+06     28.9142E+06     10.0381E+06    -32.2941E-03     45.6017E-03    -13.3075E-03     105.624E-03    -32.4180E-03     45.7739E-03    -13.2164E-03     105.636E-03
            1337     888.811E-06     110.985E-03     8.63914E+06    -5.96166E+06     8.04028E+06    -2.13726E+06    -12.7024E-03     25.4464E-03    -12.7440E-03     1.47420E-03    -12.6622E-03     25.3927E-03    -12.7077E-03     1.44622E-03
            1338     1.77759E-03     110.989E-03     7.56720E+06    -2.75920E+06     7.69852E+06    -3.40881E+06    -12.8729E-03     25.6226E-03    -12.7497E-03     2.70002E-03    -12.8425E-03     25.5867E-03    -12.7182E-03     2.65537E-03
            1339     2.66619E-03     110.996E-03     6.36423E+06    -2.70674E+06     9.28373E+06    -4.22443E+06    -13.0575E-03     25.8916E-03    -12.8341E-03     3.93430E-03    -13.0355E-03     25.8554E-03    -12.7930E-03     3.87880E-03
            1340     3.55460E-03     111.006E-03     5.09900E+06    -2.55348E+06     11.6774E+06    -5.17469E+06    -13.2176E-03     26.1512E-03    -12.9336E-03     5.15717E-03    -13.2056E-03     26.1141E-03    -12.8789E-03     5.08903E-03
            1341     4.44285E-03     111.019E-03     3.78379E+06    -3.64645E+06     12.8122E+06    -6.66682E+06    -13.3540E-03     26.3822E-03    -13.0282E-03     6.42794E-03    -13.3488E-03     26.3399E-03    -12.9643E-03     6.34017E-03
            1342     5.33100E-03     111.035E-03     3.04420E+06    -4.63285E+06     13.6165E+06    -7.50622E+06    -13.4745E-03     26.5909E-03    -13.1164E-03     7.88856E-03    -13.4728E-03     26.5437E-03    -13.0460E-03     7.78958E-03
            1343     6.21901E-03     111.055E-03     2.84457E+06    -2.10385E+06     16.4626E+06    -7.52744E+06    -13.6003E-03     26.8070E-03    -13.2066E-03     9.52023E-03    -13.6076E-03     26.7687E-03    -13.1254E-03     9.42055E-03
            1344     7.10694E-03     111.078E-03     1.77713E+06    -2.68332E+06     18.2823E+06    -9.28252E+06    -13.7343E-03     27.0319E-03    -13.2976E-03     11.3350E-03    -13.7489E-03     26.9898E-03    -13.2049E-03     11.2123E-03
            1345     7.99471E-03     111.105E-03    -34.8353E+03    -2.52149E+06     17.9853E+06    -11.0341E+06    -13.8496E-03     27.2278E-03    -13.3782E-03     13.4558E-03    -13.8733E-03     27.1897E-03    -13.2845E-03     13.3100E-03
            1346     8.88246E-03     111.136E-03    -2.46284E+06    -2.22099E+06     18.6952E+06    -10.3105E+06    -14.0263E-03     27.4939E-03    -13.4676E-03     15.9323E-03    -14.0638E-03     27.4600E-03    -13.3673E-03     15.7952E-03
            1347     9.76994E-03     111.173E-03    -4.99255E+06    -4.06479E+06     19.0240E+06    -10.7347E+06    -14.1733E-03     27.7365E-03    -13.5632E-03     19.0761E-03    -14.2217E-03     27.6968E-03    -13.4549E-03     18.9330E-03
            1348     10.6574E-03     111.216E-03    -7.05357E+06    -670.021E+03     18.6617E+06    -11.8551E+06    -14.0788E-03     27.7189E-03    -13.6402E-03     23.3643E-03    -14.1422E-03     27.7000E-03    -13.5356E-03     23.2065E-03
            1349     11.5453E-03     111.268E-03    -10.2547E+06    -3.11763E+06     17.7689E+06    -11.2622E+06    -13.9193E-03     27.6262E-03    -13.7069E-03     29.1073E-03    -13.9944E-03     27.6013E-03    -13.5986E-03     28.9569E-03
            1350     12.4335E-03     111.329E-03    -13.1804E+06    -2.33116E+06     19.9651E+06    -11.6904E+06    -13.9664E-03     27.7393E-03    -13.7729E-03     36.9356E-03    -14.0613E-03     27.7203E-03    -13.6506E-03     36.7792E-03
            1351     13.3219E-03     111.402E-03    -12.8475E+06     1.16130E+06     25.7178E+06    -11.9947E+06    -14.3280E-03     28.1795E-03    -13.8515E-03     47.4694E-03    -14.4364E-03     28.1712E-03    -13.7060E-03     47.3076E-03
            1352     14.2098E-03     111.488E-03    -9.07286E+06    -4.45695E+06     29.6761E+06    -6.91253E+06    -14.9202E-03     28.8582E-03    -13.9380E-03     60.5020E-03    -15.0121E-03     28.8161E-03    -13.7700E-03     60.4021E-03
            1353     15.0965E-03     111.587E-03    -4.52713E+06     3.58093E+06     32.0819E+06    -6.71351E+06    -16.0760E-03     30.0885E-03    -14.0125E-03     75.6740E-03    -16.1746E-03     30.0910E-03    -13.8508E-03     75.5682E-03
            1354     15.9831E-03     111.698E-03    -3.11005E+06     33.0190E+06     32.5798E+06     489.181E+03    -17.2170E-03     31.2817E-03    -14.0647E-03     95.8608E-03    -17.3980E-03     31.4747E-03    -13.9451E-03     95.8347E-03
            1355     16.8712E-03     111.833E-03    -4.33036E+06     4.16913E+06     4.97039E+06     17.5891E+06    -20.4255E-03     34.5545E-03    -14.1290E-03     99.9224E-03    -20.5897E-03     34.7062E-03    -14.1039E-03     100.090E-03
            1356     886.889E-06     111.959E-03     9.76285E+06    -2.23583E+06     9.53239E+06    -1.83589E+06    -15.0446E-03     30.1268E-03    -15.0822E-03     517.870E-06    -15.0064E-03     30.0879E-03    -15.0455E-03     494.393E-06
            1357     1.77365E-03     111.964E-03     8.64526E+06    -807.645E+03     9.96700E+06    -1.95548E+06    -15.2051E-03     30.3046E-03    -15.0995E-03     1.19261E-03    -15.1755E-03     30.2733E-03    -15.0610E-03     1.16690E-03
            1358     2.66011E-03     111.971E-03     7.68928E+06    -965.096E+03     11.4594E+06    -2.12021E+06    -15.4183E-03     30.6072E-03    -15.1889E-03     1.61006E-03    -15.3955E-03     30.5744E-03    -15.1413E-03     1.58189E-03
            1359     3.54646E-03     111.982E-03     7.16865E+06    -652.577E+03     13.8132E+06    -2.43531E+06    -15.6030E-03     30.9024E-03    -15.2994E-03     2.03452E-03    -15.5866E-03     30.8684E-03    -15.2397E-03     2.00201E-03
            1360     4.43257E-03     111.995E-03     6.21117E+06    -996.786E+03     16.4420E+06    -3.09917E+06    -15.8252E-03     31.2462E-03    -15.4210E-03     2.53530E-03    -15.8170E-03     31.2081E-03    -15.3464E-03     2.49394E-03
            1361     5.31840E-03     112.011E-03     4.68397E+06    -2.56597E+06     17.0155E+06    -4.31144E+06    -16.0700E-03     31.6157E-03    -15.5457E-03     3.18366E-03    -16.0680E-03     31.5712E-03    -15.4637E-03     3.12630E-03
            1362     6.20408E-03     112.030E-03     3.55017E+06    -1.23775E+06     16.7784E+06    -4.97929E+06    -16.3121E-03     31.9830E-03    -15.6708E-03     3.88509E-03    -16.3175E-03     31.9470E-03    -15.5903E-03     3.81874E-03
            1363     7.08950E-03     112.054E-03     2.29391E+06     543.838E+03     18.7081E+06    -5.01411E+06    -16.6627E-03     32.4830E-03    -15.8203E-03     4.60483E-03    -16.6799E-03     32.4551E-03    -15.7309E-03     4.53759E-03
            1364     7.97449E-03     112.081E-03    -839.001E+03    -892.470E+03     20.6421E+06    -5.40793E+06    -17.1765E-03     33.1808E-03    -16.0042E-03     5.40297E-03    -17.2102E-03     33.1473E-03    -15.8985E-03     5.33010E-03
            1365     8.85894E-03     112.113E-03    -3.62630E+06    -2.25589E+06     21.3130E+06    -5.43090E+06    -17.7621E-03     33.9772E-03    -16.2151E-03     6.37043E-03    -17.8090E-03     33.9401E-03    -16.1000E-03     6.29660E-03
            1366     9.74268E-03     112.150E-03    -5.09866E+06    -684.056E+03     22.6743E+06    -6.17732E+06    -18.3105E-03     34.7631E-03    -16.4526E-03     7.55250E-03    -18.3693E-03     34.7340E-03    -16.3308E-03     7.46828E-03
            1367     10.6260E-03     112.193E-03     -7.8326E+06    -395.814E+03     22.5498E+06    -6.37977E+06    -18.7167E-03     35.4215E-03    -16.7049E-03     9.17468E-03    -18.7898E-03     35.3980E-03    -16.5802E-03     9.08710E-03
            1368     11.5089E-03     112.244E-03    -10.1869E+06    -2.24913E+06     22.0896E+06    -6.03172E+06    -18.8832E-03     35.8460E-03    -16.9629E-03     11.4946E-03    -18.9652E-03     35.8173E-03    -16.8344E-03     11.4108E-03
            1369     12.3917E-03     112.304E-03    -11.9262E+06    -457.108E+03     23.6855E+06    -6.72378E+06    -18.5695E-03     35.7781E-03    -17.2086E-03     15.0172E-03    -18.6657E-03     35.7586E-03    -17.0722E-03     14.9240E-03
            1370     13.2746E-03     112.376E-03    -16.8873E+06     1.08781E+06     22.1520E+06    -6.87812E+06    -17.2375E-03     34.6220E-03    -17.3845E-03     20.3007E-03    -17.3590E-03     34.6202E-03    -17.2508E-03     20.2054E-03
            1371     14.1595E-03     112.460E-03    -22.3208E+06    -7.50921E+06     16.7818E+06    -7.13276E+06    -15.1207E-03     32.5711E-03    -17.4504E-03     27.8885E-03    -15.2498E-03     32.5428E-03    -17.3232E-03     27.7903E-03
            1372     15.0481E-03     112.557E-03    -24.3837E+06     6.82119E+06     20.3708E+06    -7.75991E+06    -14.3138E-03     31.7588E-03    -17.4449E-03     38.8403E-03    -14.4823E-03     31.8033E-03    -17.3176E-03     38.7321E-03
            1373     15.9344E-03     112.671E-03    -25.6771E+06     10.8645E+06     19.5403E+06     1.07574E+06    -12.3628E-03     29.7270E-03    -17.3643E-03     50.0516E-03    -12.5523E-03     29.8059E-03    -17.2451E-03     50.0540E-03
            1374     16.8241E-03     112.795E-03    -18.7669E+06    -5.06527E+06     5.04737E+06     8.51343E+06    -5.19468E-03     22.1933E-03    -16.9987E-03     51.8015E-03    -5.31961E-03     22.2174E-03    -16.9389E-03     51.9016E-03
            1375     16.8484E-03     55.9897E-03    -2.54380E+06     111.163E+06     48.2619E+06     352.252E+03    -15.2842E-03     30.3470E-03    -15.0628E-03     49.7058E-03    -15.6784E-03     30.9869E-03    -14.9790E-03     49.7664E-03
            1376     15.9583E-03     55.9162E-03    -3.47492E+06     98.2427E+06     20.8983E+06    -60.0043E+03    -15.8840E-03     30.8376E-03    -14.9536E-03     74.0231E-03    -16.2761E-03     31.5055E-03    -14.9865E-03     74.0485E-03
            1377     15.0724E-03     55.8512E-03    -4.28176E+06     50.7798E+06    -2.86907E+06    -954.174E+03    -15.8759E-03     30.7845E-03    -14.9086E-03     65.1535E-03    -16.0798E-03     31.1618E-03    -14.9904E-03     65.1161E-03
            1378     14.1858E-03     55.7947E-03    -3.48339E+06    -1.18636E+06    -11.7339E+06    -914.651E+03    -15.8053E-03     30.7434E-03    -14.9382E-03     57.6298E-03    -15.8655E-03     30.8211E-03    -14.9901E-03     57.5857E-03
            1379     13.2993E-03     55.7438E-03    -3.10353E+06    -26.2378E+06    -6.85652E+06    -325.780E+03    -15.6609E-03     30.6598E-03    -14.9988E-03     52.3762E-03    -15.6654E-03     30.5800E-03    -14.9906E-03     52.3429E-03
            1380     12.4125E-03     55.6969E-03    -3.10015E+06    -37.6058E+06    -1.41425E+06    -67.0745E+03    -15.5881E-03     30.6320E-03    -15.0439E-03     47.6871E-03    -15.5706E-03     30.4741E-03    -14.9920E-03     47.6617E-03
            1381     11.5260E-03     55.6549E-03    -3.30615E+06    -43.9849E+06     1.15633E+06     178.302E+03    -15.5615E-03     30.6260E-03    -15.0645E-03     43.4442E-03    -15.5315E-03     30.4248E-03    -14.9902E-03     43.4264E-03
            1382     10.6393E-03     55.6159E-03    -4.37873E+06    -42.0801E+06     4.55342E+06     655.480E+03    -15.4551E-03     30.5317E-03    -15.0766E-03     39.7343E-03    -15.4329E-03     30.3314E-03    -14.9864E-03     39.7269E-03
            1383     9.75277E-03     55.5809E-03    -5.53142E+06    -47.3446E+06     4.02569E+06     831.101E+03    -15.3655E-03     30.4462E-03    -15.0807E-03     35.8769E-03    -15.3373E-03     30.2186E-03    -14.9839E-03     35.8751E-03
            1384     8.86621E-03     55.5493E-03    -6.90848E+06    -51.6012E+06     3.48126E+06    -280.922E+03    -15.2773E-03     30.3626E-03    -15.0853E-03     32.1349E-03    -15.2468E-03     30.1143E-03    -14.9831E-03     32.1213E-03
            1385     7.97953E-03     55.5212E-03    -8.45885E+06    -53.5775E+06     2.16205E+06    -924.595E+03    -15.1899E-03     30.2759E-03    -15.0859E-03     28.5260E-03    -15.1609E-03     30.0203E-03    -14.9852E-03     28.5062E-03
            1386     7.09292E-03     55.4963E-03    -10.0612E+06    -59.2784E+06     385.025E+03    -1.15539E+06    -15.1463E-03     30.2381E-03    -15.0919E-03     24.9790E-03    -15.1134E-03     29.9580E-03    -14.9894E-03     24.9578E-03
            1387     6.20624E-03     55.4748E-03    -11.7793E+06    -60.1869E+06    -1.70066E+06    -1.08092E+06    -15.0967E-03     30.1878E-03    -15.0910E-03     21.5906E-03    -15.0674E-03     29.9079E-03    -14.9952E-03     21.5718E-03
            1388     5.31955E-03     55.4563E-03    -13.1200E+06    -61.7517E+06    -3.66428E+06    -330.768E+03    -15.0684E-03     30.1614E-03    -15.0930E-03     18.3124E-03    -15.0401E-03     29.8780E-03    -15.0028E-03     18.3043E-03
            1389     4.43295E-03     55.4409E-03    -14.4937E+06    -64.6828E+06    -6.23906E+06         157.734    -15.0695E-03     30.1629E-03    -15.0935E-03     15.0869E-03    -15.0397E-03     29.8702E-03    -15.0099E-03     15.0839E-03
            1390     3.54634E-03     55.4284E-03    -16.1337E+06    -67.6490E+06    -9.96939E+06     102.698E+03    -15.0639E-03     30.1509E-03    -15.0870E-03     11.9379E-03    -15.0324E-03     29.8509E-03    -15.0154E-03     11.9370E-03
            1391     2.65977E-03     55.4188E-03    -17.8192E+06    -70.8745E+06    -14.0136E+06     88.2091E+03    -15.0467E-03     30.1283E-03    -15.0816E-03     8.88606E-03    -15.0129E-03     29.8203E-03    -15.0231E-03     8.88561E-03
            1392     1.77312E-03     55.4120E-03    -19.2871E+06    -73.8669E+06    -17.6656E+06    -67.8232E+03    -15.0484E-03     30.1319E-03    -15.0835E-03     5.92424E-03    -15.0123E-03     29.8164E-03    -15.0368E-03     5.92235E-03
            1393     886.456E-06     55.4078E-03    -19.9343E+06    -75.5174E+06    -19.7700E+06    -117.202E+03    -15.0677E-03     30.1715E-03    -15.1039E-03     3.11484E-03    -15.0293E-03     29.8520E-03    -15.0643E-03     3.11279E-03
            1394     16.8440E-03     55.0126E-03    -3.42890E+06     110.264E+06     45.5082E+06          -633.5    -15.4444E-03     30.4846E-03    -15.0402E-03     50.5733E-03    -15.8407E-03     31.1282E-03    -14.9676E-03     50.6288E-03
            1395     15.9601E-03     54.9392E-03    -4.99598E+06     99.1398E+06     19.0055E+06    -104.509E+03    -16.0128E-03     30.9380E-03    -14.9252E-03     74.0705E-03    -16.4120E-03     31.6163E-03    -14.9667E-03     74.0946E-03
            1396     15.0725E-03     54.8740E-03    -5.81742E+06     51.6270E+06    -4.06536E+06    -636.082E+03    -15.7088E-03     30.5925E-03    -14.8836E-03     65.1208E-03    -15.9190E-03     30.9770E-03    -14.9704E-03     65.0883E-03
            1397     14.1860E-03     54.8177E-03    -7.24277E+06    -2.09783E+06    -13.5466E+06    -663.105E+03    -15.7168E-03     30.6388E-03    -14.9220E-03     57.8033E-03    -15.7918E-03     30.7199E-03    -14.9762E-03     57.7627E-03
            1398     13.2993E-03     54.7667E-03    -7.46154E+06    -26.0941E+06    -8.79957E+06    -651.426E+03    -15.6711E-03     30.6533E-03    -14.9822E-03     52.5596E-03    -15.6949E-03     30.5834E-03    -14.9775E-03     52.5221E-03
            1399     12.4127E-03     54.7201E-03    -6.99495E+06    -38.0669E+06    -3.61677E+06    -747.356E+03    -15.5563E-03     30.5814E-03    -15.0251E-03     47.8541E-03    -15.5544E-03     30.4300E-03    -14.9779E-03     47.8201E-03
            1400     11.5261E-03     54.6776E-03    -6.37000E+06    -44.0925E+06     59.9819E+03    -523.923E+03    -15.4801E-03     30.5322E-03    -15.0521E-03     43.6302E-03    -15.4636E-03     30.3364E-03    -14.9786E-03     43.6037E-03
            1401     10.6395E-03     54.6391E-03    -5.40664E+06    -43.1336E+06     3.47552E+06    -36.1421E+03    -15.3965E-03     30.4637E-03    -15.0671E-03     39.8426E-03    -15.3764E-03     30.2611E-03    -14.9794E-03     39.8265E-03
            1402     9.75281E-03     54.6037E-03    -4.98730E+06    -47.0368E+06     4.13570E+06     566.862E+03    -15.3198E-03     30.3970E-03    -15.0772E-03     35.9671E-03    -15.2895E-03     30.1700E-03    -14.9811E-03     35.9620E-03
            1403     8.86616E-03     54.5724E-03    -5.88362E+06    -50.4832E+06     4.46124E+06     507.164E+03    -15.2730E-03     30.3597E-03    -15.0868E-03     32.1672E-03    -15.2404E-03     30.1141E-03    -14.9827E-03     32.1638E-03
            1404     7.97954E-03     54.5441E-03    -7.83614E+06    -53.3093E+06     1.77778E+06    -189.175E+03    -15.2151E-03     30.2965E-03    -15.0814E-03     28.5243E-03    -15.1828E-03     30.0420E-03    -14.9839E-03     28.5140E-03
            1405     7.09290E-03     54.5194E-03    -9.75724E+06    -58.9799E+06    -25.3351E+03    -609.086E+03    -15.1381E-03     30.2249E-03    -15.0869E-03     24.9846E-03    -15.1035E-03     29.9464E-03    -14.9873E-03     24.9705E-03
            1406     6.20624E-03     54.4978E-03    -11.5581E+06    -60.7178E+06    -1.81518E+06    -698.468E+03    -15.0762E-03     30.1671E-03    -15.0909E-03     21.5887E-03    -15.0448E-03     29.8844E-03    -14.9952E-03     21.5748E-03
            1407     5.31958E-03     54.4794E-03    -13.2674E+06    -62.3251E+06    -3.71286E+06    -665.352E+03    -15.0574E-03     30.1540E-03    -15.0966E-03     18.2919E-03    -15.0289E-03     29.8680E-03    -15.0056E-03     18.2794E-03
            1408     4.43290E-03     54.4639E-03    -14.6555E+06    -65.0347E+06    -5.82475E+06    -245.887E+03    -15.0662E-03     30.1672E-03    -15.1009E-03     15.0704E-03    -15.0374E-03     29.8723E-03    -15.0145E-03     15.0643E-03
            1409     3.54636E-03     54.4515E-03    -16.0959E+06    -67.7684E+06    -9.52676E+06     113.191E+03    -15.0759E-03     30.1695E-03    -15.0936E-03     11.9333E-03    -15.0447E-03     29.8682E-03    -15.0196E-03     11.9325E-03
            1410     2.65971E-03     54.4418E-03    -17.5146E+06    -70.8218E+06    -13.3497E+06     284.239E+03    -15.0737E-03     30.1567E-03    -15.0830E-03     8.86600E-03    -15.0394E-03     29.8476E-03    -15.0217E-03     8.86807E-03
            1411     1.77314E-03     54.4350E-03    -18.8121E+06    -73.5481E+06    -16.5088E+06     226.586E+03    -15.0726E-03     30.1447E-03    -15.0721E-03     5.88577E-03    -15.0362E-03     29.8284E-03    -15.0207E-03     5.88767E-03
            1412     886.660E-06     54.4308E-03    -20.0467E+06    -75.6471E+06    -19.3263E+06     66.6758E+03    -15.0696E-03     30.1208E-03    -15.0512E-03     3.10587E-03    -15.0323E-03     29.8002E-03    -15.0090E-03     3.10619E-03
            1413     16.8470E-03     54.0336E-03    -2.79426E+06     110.591E+06     44.6136E+06    -112.918E+03    -15.4096E-03     30.4242E-03    -15.0146E-03     49.7191E-03    -15.7997E-03     31.0676E-03    -14.9478E-03     49.7733E-03
            1414     15.9593E-03     53.9618E-03    -4.55099E+06     98.9087E+06     16.5621E+06    -534.658E+03    -15.8119E-03     30.7090E-03    -14.8971E-03     73.3566E-03    -16.2021E-03     31.3861E-03    -14.9511E-03     73.3761E-03
            1415     15.0730E-03     53.8973E-03    -5.69959E+06     51.3718E+06    -4.60190E+06     475.817E+03    -15.5972E-03     30.4709E-03    -14.8737E-03     65.4589E-03    -15.8053E-03     30.8545E-03    -14.9629E-03     65.4414E-03
            1416     14.1859E-03     53.8407E-03    -6.04856E+06    -1.87604E+06    -11.7285E+06     676.959E+03    -15.6734E-03     30.6000E-03    -14.9266E-03     58.0117E-03    -15.7455E-03     30.6780E-03    -14.9738E-03     57.9885E-03
            1417     13.2993E-03     53.7896E-03    -7.11920E+06    -25.4945E+06    -7.33509E+06     112.230E+03    -15.6671E-03     30.6546E-03    -14.9875E-03     52.6761E-03    -15.6921E-03     30.5851E-03    -14.9768E-03     52.6485E-03
            1418     12.4128E-03     53.7430E-03    -8.40255E+06    -37.4656E+06    -4.32394E+06    -980.048E+03    -15.5558E-03     30.5780E-03    -15.0222E-03     48.0211E-03    -15.5607E-03     30.4326E-03    -14.9773E-03     47.9842E-03
            1419     11.5261E-03     53.7009E-03    -8.30950E+06    -43.9528E+06    -3.41742E+06    -2.12010E+06    -15.4460E-03     30.4839E-03    -15.0379E-03     43.8552E-03    -15.4343E-03     30.2966E-03    -14.9792E-03     43.8083E-03
            1420     10.6393E-03     53.6618E-03    -7.39043E+06    -44.4048E+06     468.577E+03    -1.89264E+06    -15.3867E-03     30.4458E-03    -15.0592E-03     39.9512E-03    -15.3702E-03     30.2441E-03    -14.9817E-03     39.9112E-03
            1421     9.75277E-03     53.6270E-03    -6.55515E+06    -47.9808E+06     1.88780E+06    -731.282E+03    -15.3283E-03     30.4003E-03    -15.0720E-03     35.9876E-03    -15.3012E-03     30.1741E-03    -14.9835E-03     35.9658E-03
            1422     8.86609E-03     53.5952E-03    -6.09227E+06    -50.5978E+06     3.82093E+06     306.655E+03    -15.2691E-03     30.3555E-03    -15.0863E-03     32.1887E-03    -15.2365E-03     30.1105E-03    -14.9850E-03     32.1828E-03
            1423     7.97956E-03     53.5672E-03    -6.97017E+06    -52.9324E+06     2.93882E+06     884.572E+03    -15.2196E-03     30.3076E-03    -15.0880E-03     28.4826E-03    -15.1852E-03     30.0520E-03    -14.9865E-03     28.4861E-03
            1424     7.09290E-03     53.5424E-03    -9.40610E+06    -58.3988E+06     752.624E+03     541.907E+03    -15.1487E-03     30.2401E-03    -15.0914E-03     24.9499E-03    -15.1144E-03     29.9629E-03    -14.9894E-03     24.9507E-03
            1425     6.20622E-03     53.5210E-03    -11.8745E+06    -60.5443E+06    -1.58505E+06    -97.2409E+03    -15.0941E-03     30.1864E-03    -15.0923E-03     21.5816E-03    -15.0649E-03     29.9047E-03    -14.9953E-03     21.5755E-03
            1426     5.31958E-03     53.5024E-03    -13.8917E+06     -62.284E+06    -4.68083E+06    -479.980E+03    -15.0678E-03     30.1578E-03    -15.0900E-03     18.3014E-03    -15.0411E-03     29.8743E-03    -15.0030E-03     18.2913E-03
            1427     4.43298E-03     53.4870E-03    -15.6564E+06    -65.6406E+06    -7.76586E+06    -593.332E+03    -15.0524E-03     30.1431E-03    -15.0907E-03     15.0696E-03    -15.0249E-03     29.8495E-03    -15.0116E-03     15.0590E-03
            1428     3.54625E-03     53.4744E-03    -16.9443E+06    -68.0135E+06    -10.2660E+06    -276.982E+03    -15.0615E-03     30.1525E-03    -15.0909E-03     11.9213E-03    -15.0331E-03     29.8522E-03    -15.0191E-03     11.9155E-03
            1429     2.65978E-03     53.4649E-03    -18.0743E+06    -71.0651E+06    -13.4856E+06     30.5528E+03    -15.0938E-03     30.1738E-03    -15.0800E-03     8.86029E-03    -15.0618E-03     29.8644E-03    -15.0182E-03     8.85909E-03
            1430     1.77324E-03     53.4579E-03    -19.3039E+06    -73.3262E+06    -16.6011E+06     382.576E+03    -15.0810E-03     30.1389E-03    -15.0579E-03     5.89216E-03    -15.0473E-03     29.8245E-03    -15.0066E-03     5.89607E-03
            1431     886.586E-06     53.4539E-03    -20.7325E+06    -75.2014E+06    -19.6522E+06     469.627E+03    -15.0331E-03     30.0751E-03    -15.0420E-03     3.11236E-03    -14.9993E-03     29.7582E-03    -15.0011E-03     3.11789E-03
            1432     16.8470E-03     53.0571E-03    -1.95907E+06     110.829E+06     43.5387E+06    -164.126E+03    -15.1589E-03     30.1500E-03    -14.9912E-03     50.5199E-03    -15.5424E-03     30.7938E-03    -14.9313E-03     50.5753E-03
            1433     15.9600E-03     52.9853E-03    -3.52768E+06     97.8824E+06     12.5232E+06     434.288E+03    -15.4732E-03     30.3508E-03    -14.8777E-03     73.9237E-03    -15.8495E-03     31.0258E-03    -14.9518E-03     73.9580E-03
            1434     15.0723E-03     52.9203E-03    -4.34109E+06     50.8647E+06    -6.43600E+06     636.083E+03    -15.6572E-03     30.5307E-03    -14.8736E-03     65.8081E-03    -15.8557E-03     30.9130E-03    -14.9732E-03     65.7926E-03
            1435     14.1861E-03     52.8637E-03    -3.66829E+06    -1.80707E+06    -11.4669E+06     876.037E+03    -15.7587E-03     30.6906E-03    -14.9320E-03     58.1884E-03    -15.8195E-03     30.7653E-03    -14.9814E-03     58.1675E-03
            1436     13.2993E-03     52.8127E-03    -2.72090E+06    -24.9129E+06    -5.89293E+06     979.747E+03    -15.6767E-03     30.6705E-03    -14.9937E-03     52.7622E-03    -15.6826E-03     30.5953E-03    -14.9831E-03     52.7458E-03
            1437     12.4124E-03     52.7660E-03    -2.67014E+06    -35.6007E+06    -1.66065E+06    -12.1802E+03    -15.6148E-03     30.6450E-03    -15.0302E-03     47.9105E-03    -15.5977E-03     30.4968E-03    -14.9830E-03     47.8859E-03
            1438     11.5260E-03     52.7239E-03    -4.09318E+06    -43.0714E+06    -1.66445E+06    -1.60753E+06    -15.4995E-03     30.5419E-03    -15.0424E-03     43.6882E-03    -15.4706E-03     30.3504E-03    -14.9823E-03     43.6477E-03
            1439     10.6394E-03     52.6849E-03    -6.11350E+06    -45.5008E+06     884.051E+03    -1.91822E+06    -15.3816E-03     30.4448E-03    -15.0633E-03     39.9221E-03    -15.3577E-03     30.2352E-03    -14.9840E-03     39.8817E-03
            1440     9.75275E-03     52.6498E-03    -7.86307E+06    -49.1896E+06     1.24335E+06    -1.25795E+06    -15.3360E-03     30.4108E-03    -15.0748E-03     35.9558E-03    -15.3128E-03     30.1814E-03    -14.9859E-03     35.9271E-03
            1441     8.86618E-03     52.6183E-03     -9.0206E+06    -51.4795E+06     1.36842E+06    -576.919E+03    -15.2458E-03     30.3282E-03    -15.0824E-03     32.2121E-03    -15.2230E-03     30.0866E-03    -14.9878E-03     32.1948E-03
            1442     7.97943E-03     52.5901E-03    -9.37733E+06    -53.7930E+06     1.85058E+06     564.394E+03    -15.1921E-03     30.2844E-03    -15.0922E-03     28.5141E-03    -15.1669E-03     30.0295E-03    -14.9914E-03     28.5136E-03
            1443     7.09284E-03     52.5655E-03    -9.80172E+06    -57.6324E+06     1.36172E+06     1.19857E+06    -15.1818E-03     30.2799E-03    -15.0981E-03     24.9239E-03    -15.1514E-03     30.0062E-03    -14.9935E-03     24.9331E-03
            1444     6.20626E-03     52.5439E-03    -11.3040E+06    -59.6756E+06    -828.717E+03     505.468E+03    -15.1278E-03     30.2215E-03    -15.0937E-03     21.5528E-03    -15.0980E-03     29.9422E-03    -14.9949E-03     21.5544E-03
            1445     5.31961E-03     52.5255E-03    -13.2230E+06    -62.1069E+06    -3.95303E+06    -62.5455E+03    -15.0840E-03     30.1722E-03    -15.0882E-03     18.2832E-03    -15.0553E-03     29.8875E-03    -14.9987E-03     18.2785E-03
            1446     4.43295E-03     52.5100E-03    -15.1909E+06    -65.6308E+06    -7.63763E+06    -280.150E+03    -15.0725E-03     30.1546E-03    -15.0821E-03     15.0451E-03    -15.0428E-03     29.8602E-03    -15.0031E-03     15.0385E-03
            1447     3.54643E-03     52.4976E-03    -17.1125E+06    -68.3440E+06    -11.0442E+06    -509.897E+03    -15.0517E-03     30.1282E-03    -15.0765E-03     11.9002E-03    -15.0225E-03     29.8277E-03    -15.0079E-03     11.8914E-03
            1448     2.65971E-03     52.4877E-03    -18.4671E+06    -71.4321E+06    -14.5958E+06    -338.669E+03    -15.0465E-03     30.1180E-03    -15.0715E-03     8.87083E-03    -15.0143E-03     29.8090E-03    -15.0141E-03     8.86488E-03
            1449     1.77316E-03     52.4811E-03    -19.1607E+06    -73.6480E+06    -17.2455E+06    -3.27519E+03    -15.0617E-03     30.1280E-03    -15.0663E-03     5.89528E-03    -15.0259E-03     29.8127E-03    -15.0179E-03     5.89423E-03
            1450     886.608E-06     52.4769E-03    -18.9741E+06    -74.5164E+06    -18.3509E+06     95.9800E+03    -15.0577E-03     30.1231E-03    -15.0654E-03     3.10391E-03    -15.0180E-03     29.8051E-03    -15.0216E-03     3.10462E-03
            1451     16.8459E-03     52.0797E-03    -3.17225E+06     110.125E+06     44.1278E+06    -674.115E+03    -14.9764E-03     29.9950E-03    -15.0187E-03     50.3191E-03    -15.3658E-03     30.6362E-03    -14.9531E-03     50.3682E-03
            1452     15.9588E-03     52.0087E-03    -4.94547E+06     97.4338E+06     12.9903E+06    -231.934E+03    -15.6816E-03     30.5860E-03    -14.9044E-03     74.0534E-03    -16.0659E-03     31.2610E-03    -14.9736E-03     74.0782E-03
            1453     15.0725E-03     51.9431E-03    -4.36928E+06     50.5563E+06    -4.80349E+06     1.03396E+06    -15.7780E-03     30.6734E-03    -14.8954E-03     65.7903E-03    -15.9787E-03     31.0521E-03    -14.9864E-03     65.7793E-03
            1454     14.1855E-03     51.8865E-03    -5.52962E+06    -2.01044E+06    -9.22625E+06     1.54614E+06    -15.7810E-03     30.7362E-03    -14.9552E-03     58.0421E-03    -15.8541E-03     30.8093E-03    -14.9904E-03     58.0298E-03
            1455     13.2991E-03     51.8357E-03    -6.45955E+06    -23.5762E+06    -6.49013E+06     434.191E+03    -15.7103E-03     30.7111E-03    -15.0008E-03     52.6910E-03    -15.7360E-03     30.6490E-03    -14.9897E-03     52.6674E-03
            1456     12.4127E-03     51.7888E-03    -5.40673E+06    -34.3128E+06    -3.98370E+06    -991.615E+03    -15.6205E-03     30.6456E-03    -15.0251E-03     47.9723E-03    -15.6155E-03     30.5112E-03    -14.9874E-03     47.9351E-03
            1457     11.5262E-03     51.7468E-03    -4.36862E+06    -43.1182E+06    -1.30626E+06    -689.282E+03    -15.5390E-03     30.5862E-03    -15.0472E-03     43.6713E-03    -15.5120E-03     30.3944E-03    -14.9849E-03     43.6426E-03
            1458     10.6394E-03     51.7081E-03    -5.25388E+06    -45.5113E+06     1.50193E+06    -503.471E+03    -15.3946E-03     30.4604E-03    -15.0658E-03     39.9360E-03    -15.3673E-03     30.2485E-03    -14.9847E-03     39.9140E-03
            1459     9.75270E-03     51.6727E-03    -6.64015E+06    -49.8180E+06     1.59957E+06    -621.653E+03    -15.3122E-03     30.3898E-03    -15.0776E-03     35.9750E-03    -15.2824E-03     30.1549E-03    -14.9877E-03     35.9547E-03
            1460     8.86606E-03     51.6414E-03    -8.41610E+06    -52.4044E+06     2.31721E+06     25.8685E+03    -15.2537E-03     30.3445E-03    -15.0908E-03     32.1495E-03    -15.2279E-03     30.0960E-03    -14.9910E-03     32.1400E-03
            1461     7.97943E-03     51.6132E-03    -10.4808E+06    -54.1390E+06     1.26258E+06     15.1917E+03    -15.1962E-03     30.2903E-03    -15.0942E-03     28.5106E-03    -15.1751E-03     30.0362E-03    -14.9941E-03     28.5030E-03
            1462     7.09282E-03     51.5884E-03    -11.1245E+06    -57.7077E+06     797.316E+03    -126.738E+03    -15.1882E-03     30.2873E-03    -15.0991E-03     24.9087E-03    -15.1635E-03     30.0160E-03    -14.9953E-03     24.9008E-03
            1463     6.20624E-03     51.5670E-03    -11.1994E+06    -59.1896E+06    -364.324E+03     286.130E+03    -15.1659E-03     30.2592E-03    -15.0933E-03     21.5003E-03    -15.1370E-03     29.9815E-03    -14.9931E-03     21.4991E-03
            1464     5.31964E-03     51.5485E-03    -12.5377E+06    -62.0135E+06    -2.91180E+06     370.716E+03    -15.1160E-03     30.2002E-03    -15.0842E-03     18.2250E-03    -15.0855E-03     29.9135E-03    -14.9906E-03     18.2259E-03
            1465     4.43307E-03     51.5331E-03    -14.4059E+06    -65.1481E+06    -6.54298E+06     125.302E+03    -15.0724E-03     30.1458E-03    -15.0734E-03     15.0118E-03    -15.0411E-03     29.8511E-03    -14.9908E-03     15.0105E-03
            1466     3.54641E-03     51.5205E-03    -16.1393E+06    -68.4028E+06    -10.6447E+06    -136.448E+03    -15.0424E-03     30.1062E-03    -15.0638E-03     11.8893E-03    -15.0089E-03     29.8034E-03    -14.9944E-03     11.8853E-03
            1467     2.65984E-03     51.5110E-03    -17.8858E+06    -71.6310E+06    -14.6615E+06    -228.931E+03    -15.0241E-03     30.0837E-03    -15.0596E-03     8.85768E-03    -14.9886E-03     29.7730E-03    -15.0031E-03     8.85315E-03
            1468     1.77311E-03     51.5040E-03    -18.7058E+06    -73.6457E+06    -17.9523E+06    -611.217E+03    -15.0319E-03     30.0936E-03    -15.0617E-03     5.85003E-03    -14.9928E-03     29.7787E-03    -15.0175E-03     5.84114E-03
            1469     886.546E-06     51.5000E-03    -18.3642E+06    -75.1739E+06    -18.5036E+06    -766.114E+03    -15.0855E-03     30.1420E-03    -15.0566E-03     3.09724E-03    -15.0415E-03     29.8202E-03    -15.0135E-03     3.08682E-03
            1470     16.8461E-03     51.1038E-03    -2.62122E+06     111.151E+06     47.0798E+06    -45.3090E+03    -14.9867E-03     30.0277E-03    -15.0410E-03     49.7311E-03    -15.3782E-03     30.6679E-03    -14.9630E-03     49.7876E-03
            1471     15.9591E-03     51.0308E-03    -5.20585E+06     97.4502E+06     16.2177E+06    -238.190E+03    -15.7375E-03     30.6661E-03    -14.9285E-03     73.6691E-03    -16.1273E-03     31.3363E-03    -14.9812E-03     73.6929E-03
            1472     15.0723E-03     50.9663E-03    -6.65041E+06     48.2201E+06    -4.86808E+06     564.582E+03    -15.7913E-03     30.6982E-03    -14.9069E-03     65.6447E-03    -16.0001E-03     31.0687E-03    -14.9915E-03     65.6275E-03
            1473     14.1858E-03     50.9093E-03    -5.24370E+06    -1.51773E+06    -8.90485E+06     1.83116E+06    -15.8069E-03     30.7663E-03    -14.9595E-03     58.0162E-03    -15.8797E-03     30.8410E-03    -14.9942E-03     58.0074E-03
            1474     13.2992E-03     50.8585E-03    -3.96101E+06    -20.9635E+06    -4.62230E+06     305.633E+03    -15.6862E-03     30.6930E-03    -15.0068E-03     52.6035E-03    -15.7057E-03     30.6375E-03    -14.9938E-03     52.5783E-03
            1475     12.4123E-03     50.8119E-03    -4.53861E+06    -33.6668E+06    -3.24546E+06    -1.31676E+06    -15.5961E-03     30.6291E-03    -15.0330E-03     48.0404E-03    -15.5887E-03     30.4955E-03    -14.9938E-03     47.9991E-03
            1476     11.5257E-03     50.7696E-03    -5.53783E+06    -44.8778E+06    -2.01062E+06    -774.781E+03    -15.5809E-03     30.6350E-03    -15.0541E-03     43.6618E-03    -15.5561E-03     30.4371E-03    -14.9910E-03     43.6319E-03
            1477     10.6394E-03     50.7311E-03    -6.10646E+06    -45.0806E+06     1.53446E+06     192.061E+03    -15.4477E-03     30.5166E-03    -15.0689E-03     39.8018E-03    -15.4254E-03     30.3081E-03    -14.9870E-03     39.7886E-03
            1478     9.75272E-03     50.6958E-03    -7.24000E+06    -49.7896E+06     1.19562E+06    -119.368E+03    -15.3131E-03     30.3891E-03    -15.0760E-03     35.9366E-03    -15.2857E-03     30.1558E-03    -14.9874E-03     35.9227E-03
            1479     8.86608E-03     50.6643E-03    -7.93380E+06    -53.4835E+06     3.28234E+06     206.438E+03    -15.2762E-03     30.3710E-03    -15.0948E-03     32.0856E-03    -15.2478E-03     30.1150E-03    -14.9893E-03     32.0784E-03
            1480     7.97950E-03     50.6362E-03    -8.45183E+06     -52.916E+06     2.92946E+06     119.513E+03    -15.2248E-03     30.3182E-03    -15.0934E-03     28.4232E-03    -15.1978E-03     30.0648E-03    -14.9898E-03     28.4169E-03
            1481     7.09284E-03     50.6115E-03    -9.85843E+06    -57.7601E+06     849.514E+03    -886.258E+03    -15.1811E-03     30.2732E-03    -15.0921E-03     24.8864E-03    -15.1501E-03     29.9997E-03    -14.9898E-03     24.8687E-03
            1482     6.20627E-03     50.5899E-03    -11.4233E+06    -60.3075E+06    -372.990E+03    -369.912E+03    -15.1750E-03     30.2642E-03    -15.0891E-03     21.4672E-03    -15.1457E-03     29.9812E-03    -14.9870E-03     21.4574E-03
            1483     5.31974E-03     50.5716E-03    -12.7620E+06    -61.8229E+06    -2.87655E+06     470.131E+03    -15.1334E-03     30.2082E-03    -15.0748E-03     18.1709E-03    -15.1043E-03     29.9227E-03    -14.9811E-03     18.1731E-03
            1484     4.43311E-03     50.5561E-03    -14.3522E+06    -64.7277E+06    -6.89433E+06     321.246E+03    -15.0616E-03     30.1204E-03    -15.0588E-03     14.9820E-03    -15.0301E-03     29.8282E-03    -14.9786E-03     14.9832E-03
            1485     3.54646E-03     50.5437E-03    -16.0449E+06    -68.3515E+06    -10.2534E+06     194.192E+03    -15.0379E-03     30.0900E-03    -15.0521E-03     11.8655E-03    -15.0045E-03     29.7868E-03    -14.9810E-03     11.8658E-03
            1486     2.65979E-03     50.5340E-03    -17.4147E+06    -71.3904E+06    -13.4426E+06     16.5018E+03    -15.0370E-03     30.0816E-03    -15.0447E-03     8.82140E-03    -15.0013E-03     29.7696E-03    -14.9831E-03     8.82004E-03
            1487     1.77330E-03     50.5272E-03    -18.7625E+06    -73.4067E+06    -17.3967E+06    -285.531E+03    -15.0177E-03     30.0521E-03    -15.0344E-03     5.83935E-03    -14.9800E-03     29.7378E-03    -14.9878E-03     5.83466E-03
            1488     886.561E-06     50.5230E-03    -20.2030E+06    -76.3120E+06    -20.2144E+06    -476.056E+03    -15.0513E-03     30.0648E-03    -15.0134E-03     3.12085E-03    -15.0124E-03     29.7423E-03    -14.9746E-03     3.11418E-03
            1489     16.8459E-03     50.1255E-03    -3.16875E+06     110.952E+06     47.5627E+06    -347.288E+03    -14.9624E-03     30.0009E-03    -15.0385E-03     49.7616E-03    -15.3569E-03     30.6401E-03    -14.9570E-03     49.8148E-03
            1490     15.9594E-03     50.0546E-03    -4.33081E+06     97.7801E+06     17.0205E+06     11.5944E+03    -15.6013E-03     30.5307E-03    -14.9294E-03     73.9802E-03    -15.9888E-03     31.2006E-03    -14.9798E-03     74.0084E-03
            1491     15.0721E-03     49.9889E-03    -3.40199E+06     46.9285E+06    -6.83641E+06    -140.168E+03    -15.8435E-03     30.7397E-03    -14.8962E-03     65.8042E-03    -16.0318E-03     31.1023E-03    -14.9935E-03     65.7778E-03
            1492     14.1856E-03     49.9322E-03    -1.91638E+06    -1.94690E+06    -9.56235E+06     181.891E+03    -15.8473E-03     30.7998E-03    -14.9525E-03     57.9158E-03    -15.9018E-03     30.8683E-03    -14.9947E-03     57.8857E-03
            1493     13.2989E-03     49.8815E-03    -1.42310E+06    -19.2838E+06    -1.72867E+06     728.047E+03    -15.6798E-03     30.6949E-03    -15.0152E-03     52.4314E-03    -15.6932E-03     30.6399E-03    -14.9938E-03     52.4117E-03
            1494     12.4125E-03     49.8348E-03    -2.52514E+06    -33.1546E+06     15.4532E+03     383.515E+03    -15.5963E-03     30.6423E-03    -15.0460E-03     47.8557E-03    -15.5844E-03     30.5036E-03    -14.9941E-03     47.8363E-03
            1495     11.5260E-03     49.7925E-03    -4.02418E+06    -45.4997E+06     330.838E+03    -11.3782E+03    -15.5701E-03     30.6355E-03    -15.0654E-03     43.5735E-03    -15.5402E-03     30.4288E-03    -14.9919E-03     43.5534E-03
            1496     10.6393E-03     49.7539E-03    -5.18681E+06    -45.8134E+06     3.02689E+06     324.894E+03    -15.4887E-03     30.5645E-03    -15.0759E-03     39.6476E-03    -15.4629E-03     30.3490E-03    -14.9868E-03     39.6360E-03
            1497     9.75278E-03     49.7190E-03    -6.29787E+06    -49.0440E+06     2.86743E+06      671.49E+03    -15.3698E-03     30.4470E-03    -15.0772E-03     35.8370E-03    -15.3412E-03     30.2137E-03    -14.9826E-03     35.8332E-03
            1498     8.86616E-03     49.6872E-03    -7.65368E+06    -53.3936E+06     3.04549E+06    -379.181E+03    -15.2820E-03     30.3669E-03    -15.0849E-03     32.0863E-03    -15.2520E-03     30.1114E-03    -14.9812E-03     32.0716E-03
            1499     7.97956E-03     49.6592E-03    -8.28827E+06    -52.7160E+06     2.54845E+06    -571.133E+03    -15.2288E-03     30.3102E-03    -15.0814E-03     28.3858E-03    -15.2007E-03     30.0582E-03    -14.9802E-03     28.3706E-03
            1500     7.09298E-03     49.6345E-03    -9.45558E+06    -57.5009E+06     944.085E+03    -135.128E+03    -15.1875E-03     30.2678E-03    -15.0803E-03     24.8477E-03    -15.1550E-03     29.9949E-03    -14.9785E-03     24.8398E-03
            1501     6.20633E-03     49.6129E-03    -11.5508E+06    -61.1272E+06    -1.07034E+06    -238.430E+03    -15.1450E-03     30.2212E-03    -15.0762E-03     21.4509E-03    -15.1141E-03     29.9353E-03    -14.9761E-03     21.4429E-03
            1502     5.31974E-03     49.5945E-03    -13.0844E+06    -62.0855E+06    -3.22575E+06    -37.4159E+03    -15.1131E-03     30.1785E-03    -15.0654E-03     18.1290E-03    -15.0848E-03     29.8927E-03    -14.9726E-03     18.1246E-03
            1503     4.43314E-03     49.5793E-03    -14.2940E+06    -64.6749E+06    -6.08102E+06     374.004E+03    -15.0850E-03     30.1365E-03    -15.0515E-03     14.9309E-03    -15.0545E-03     29.8433E-03    -14.9674E-03     14.9328E-03
            1504     3.54653E-03     49.5667E-03    -15.8617E+06    -68.0509E+06    -9.37957E+06     327.582E+03    -15.0528E-03     30.0894E-03    -15.0366E-03     11.8295E-03    -15.0202E-03     29.7861E-03    -14.9618E-03     11.8315E-03
            1505     2.65997E-03     49.5571E-03    -17.5346E+06    -71.1154E+06    -13.1071E+06     51.8378E+03    -15.0252E-03     30.0450E-03    -15.0198E-03     8.77232E-03    -14.9909E-03     29.7340E-03    -14.9568E-03     8.77142E-03
            1506     1.77321E-03     49.5503E-03    -19.0291E+06    -73.5988E+06    -16.6621E+06     244.452E+03    -15.0118E-03     30.0131E-03    -15.0013E-03     5.80957E-03    -14.9763E-03     29.6971E-03    -14.9503E-03     5.81173E-03
            1507     886.713E-06     49.5462E-03    -20.0439E+06    -76.1546E+06    -19.6686E+06     561.328E+03    -14.9913E-03     29.9750E-03    -14.9837E-03     3.11280E-03    -14.9526E-03     29.6523E-03    -14.9425E-03     3.11952E-03
            1508     16.8470E-03     49.1502E-03    -3.03391E+06     110.571E+06     45.7985E+06     382.715E+03    -14.9647E-03     30.0016E-03    -15.0369E-03     50.0902E-03    -15.3565E-03     30.6423E-03    -14.9639E-03     50.1525E-03
            1509     15.9584E-03     49.0771E-03    -5.73338E+06     99.0435E+06     14.9957E+06    -583.231E+03    -15.7697E-03     30.6921E-03    -14.9224E-03     74.1730E-03    -16.1641E-03     31.3742E-03    -14.9827E-03     74.1924E-03
            1510     15.0725E-03     49.0117E-03    -6.51627E+06     47.1329E+06    -8.97409E+06    -1.72704E+06    -15.8163E-03     30.7046E-03    -14.8883E-03     65.6545E-03    -16.0169E-03     31.0754E-03    -14.9921E-03     65.6076E-03
            1511     14.1857E-03     48.9551E-03    -5.57507E+06    -3.72086E+06    -12.9324E+06    -865.857E+03    -15.7939E-03     30.7375E-03    -14.9437E-03     57.9819E-03    -15.8590E-03     30.8072E-03    -14.9948E-03     57.9385E-03
            1512     13.2993E-03     48.9043E-03    -4.67320E+06    -19.5914E+06    -3.20318E+06     371.316E+03    -15.7165E-03     30.7293E-03    -15.0128E-03     52.4845E-03    -15.7437E-03     30.6796E-03    -14.9937E-03     52.4601E-03
            1513     12.4125E-03     48.8578E-03    -4.16984E+06    -32.8890E+06    -713.059E+03     832.513E+03    -15.5977E-03     30.6399E-03    -15.0422E-03     47.9411E-03    -15.5932E-03     30.5060E-03    -14.9921E-03     47.9276E-03
            1514     11.5258E-03     48.8154E-03    -4.25405E+06    -44.8509E+06    -426.702E+03     556.223E+03    -15.5652E-03     30.6240E-03    -15.0588E-03     43.6998E-03    -15.5363E-03     30.4220E-03    -14.9897E-03     43.6872E-03
            1515     10.6394E-03     48.7768E-03    -4.75623E+06    -46.8047E+06     2.12773E+06     585.804E+03    -15.5231E-03     30.5919E-03    -15.0687E-03     39.5850E-03    -15.4925E-03     30.3720E-03    -14.9833E-03     39.5767E-03
            1516     9.75287E-03     48.7418E-03    -5.47244E+06    -48.6023E+06     3.29690E+06     912.327E+03    -15.4091E-03     30.4797E-03    -15.0706E-03     35.7403E-03    -15.3777E-03     30.2468E-03    -14.9757E-03     35.7396E-03
            1517     8.86630E-03     48.7103E-03    -6.80161E+06    -51.9018E+06     3.60527E+06     309.768E+03    -15.2938E-03     30.3681E-03    -15.0743E-03     32.0658E-03    -15.2625E-03     30.1180E-03    -14.9712E-03     32.0599E-03
            1518     7.97963E-03     48.6822E-03    -9.19775E+06    -53.3054E+06     1.33584E+06    -397.250E+03    -15.2299E-03     30.2956E-03    -15.0657E-03     28.3740E-03    -15.2038E-03     30.0437E-03    -14.9684E-03     28.3611E-03
            1519     7.09303E-03     48.6575E-03    -10.7504E+06    -57.7258E+06     325.794E+03    -153.231E+03    -15.1933E-03     30.2583E-03    -15.0651E-03     24.7921E-03    -15.1660E-03     29.9870E-03    -14.9642E-03     24.7839E-03
            1520     6.20647E-03     48.6360E-03    -11.6850E+06    -60.8914E+06    -923.535E+03    -88.8123E+03    -15.1255E-03     30.1864E-03    -15.0609E-03     21.3788E-03    -15.0957E-03     29.9017E-03    -14.9603E-03     21.3727E-03
            1521     5.31978E-03     48.6176E-03    -13.2335E+06    -62.3272E+06    -2.83623E+06    -336.687E+03    -15.0850E-03     30.1382E-03    -15.0532E-03     18.0724E-03    -15.0577E-03     29.8509E-03    -14.9578E-03     18.0642E-03
            1522     4.43320E-03     48.6022E-03    -14.6628E+06    -65.0972E+06    -5.63574E+06    -170.164E+03    -15.0874E-03     30.1264E-03    -15.0390E-03     14.8718E-03    -15.0588E-03     29.8310E-03    -14.9516E-03     14.8666E-03
            1523     3.54665E-03     48.5898E-03    -15.8362E+06    -67.8407E+06    -8.94171E+06     169.442E+03    -15.0490E-03     30.0673E-03    -15.0183E-03     11.7829E-03    -15.0172E-03     29.7644E-03    -14.9417E-03     11.7829E-03
            1524     2.65995E-03     48.5803E-03    -17.3432E+06    -70.9964E+06    -12.9547E+06     283.109E+03    -15.0067E-03     30.0039E-03    -14.9972E-03     8.77586E-03    -14.9719E-03     29.6931E-03    -14.9339E-03     8.77795E-03
            1525     1.77343E-03     48.5735E-03    -18.7736E+06    -73.7391E+06    -16.3871E+06     246.476E+03    -14.9904E-03     29.9691E-03    -14.9787E-03     5.82699E-03    -14.9538E-03     29.6516E-03    -14.9265E-03     5.82918E-03
            1526     886.646E-06     48.5694E-03    -19.5258E+06    -75.5203E+06    -18.3507E+06     381.599E+03    -14.9348E-03     29.9313E-03    -14.9965E-03     3.10171E-03    -14.8964E-03     29.6091E-03    -14.9504E-03     3.10611E-03
            1527     16.8442E-03     48.1720E-03    -2.72061E+06     111.083E+06     47.4389E+06     51.6041E+03    -14.9465E-03     29.9962E-03    -15.0497E-03     49.9454E-03    -15.3392E-03     30.6360E-03    -14.9696E-03     50.0028E-03
            1528     15.9600E-03     48.0999E-03    -3.71467E+06     99.5573E+06     17.0615E+06     118.120E+03    -15.8094E-03     30.7442E-03    -14.9348E-03     74.3528E-03    -16.1973E-03     31.4228E-03    -14.9884E-03     74.3807E-03
            1529     15.0723E-03     48.0348E-03    -5.76370E+06     48.1664E+06    -9.07911E+06    -491.698E+03    -15.8359E-03     30.7262E-03    -14.8903E-03     65.9129E-03    -16.0341E-03     31.1012E-03    -14.9972E-03     65.8819E-03
            1530     14.1855E-03     47.9781E-03    -5.90112E+06    -4.10352E+06    -16.6455E+06    -2.20659E+06    -15.8335E-03     30.7638E-03    -14.9303E-03     58.1485E-03    -15.8942E-03     30.8372E-03    -14.9990E-03     58.0878E-03
            1531     13.2988E-03     47.9270E-03    -3.84719E+06    -22.2875E+06    -6.04797E+06    -840.000E+03    -15.7630E-03     30.7666E-03    -15.0036E-03     52.4552E-03    -15.7780E-03     30.7063E-03    -14.9959E-03     52.4151E-03
            1532     12.4125E-03     47.8809E-03    -3.61012E+06    -32.7554E+06    -486.086E+03     1.07687E+06    -15.6634E-03     30.7045E-03    -15.0411E-03     47.7654E-03    -15.6568E-03     30.5702E-03    -14.9908E-03     47.7547E-03
            1533     11.5260E-03     47.8382E-03    -4.32534E+06    -44.1614E+06    -1.30177E+06     737.141E+03    -15.5864E-03     30.6351E-03    -15.0487E-03     43.6254E-03    -15.5575E-03     30.4379E-03    -14.9849E-03     43.6151E-03
            1534     10.6395E-03     47.7996E-03    -4.84106E+06    -47.2697E+06     1.87075E+06     620.416E+03    -15.5146E-03     30.5770E-03    -15.0624E-03     39.5491E-03    -15.4833E-03     30.3553E-03    -14.9775E-03     39.5413E-03
            1535     9.75291E-03     47.7648E-03    -5.55624E+06    -48.6258E+06     3.28796E+06     879.156E+03    -15.4319E-03     30.4955E-03    -15.0636E-03     35.6730E-03    -15.4009E-03     30.2626E-03    -14.9686E-03     35.6718E-03
            1536     8.86631E-03     47.7333E-03    -6.71977E+06    -51.2148E+06     3.95018E+06     1.05554E+06    -15.3414E-03     30.4047E-03    -15.0633E-03     31.9730E-03    -15.3112E-03     30.1573E-03    -14.9595E-03     31.9768E-03
            1537     7.97979E-03     47.7052E-03    -8.06760E+06    -52.6137E+06     2.08885E+06     610.962E+03    -15.2533E-03     30.3032E-03    -15.0499E-03     28.2713E-03    -15.2236E-03     30.0520E-03    -14.9515E-03     28.2713E-03
            1538     7.09319E-03     47.6805E-03    -9.96553E+06    -57.8731E+06     993.387E+03    -97.5254E+03    -15.1766E-03     30.2252E-03    -15.0485E-03     24.7058E-03    -15.1462E-03     29.9510E-03    -14.9452E-03     24.6984E-03
            1539     6.20657E-03     47.6590E-03    -12.0853E+06    -60.8180E+06     96.8703E+03    -111.385E+03    -15.1161E-03     30.1625E-03    -15.0464E-03     21.3193E-03    -15.0900E-03     29.8773E-03    -14.9402E-03     21.3130E-03
            1540     5.31998E-03     47.6407E-03    -13.9654E+06    -62.0072E+06    -3.15574E+06    -311.067E+03    -15.0675E-03     30.0979E-03    -15.0304E-03     18.0597E-03    -15.0439E-03     29.8137E-03    -14.9360E-03     18.0518E-03
            1541     4.43332E-03     47.6253E-03    -15.5680E+06    -65.2687E+06    -7.31562E+06    -753.210E+03    -15.0397E-03     30.0520E-03    -15.0123E-03     14.8627E-03    -15.0129E-03     29.7595E-03    -14.9317E-03     14.8500E-03
            1542     3.54665E-03     47.6130E-03    -16.7057E+06    -68.4820E+06    -10.4117E+06    -493.644E+03    -15.0217E-03     30.0188E-03    -14.9971E-03     11.7491E-03    -14.9912E-03     29.7161E-03    -14.9256E-03     11.7405E-03
            1543     2.66005E-03     47.6034E-03    -17.5000E+06    -71.0721E+06    -13.1962E+06     76.7435E+03    -14.9861E-03     29.9686E-03    -14.9825E-03     8.74414E-03    -14.9516E-03     29.6580E-03    -14.9201E-03     8.74357E-03
            1544     1.77325E-03     47.5967E-03    -18.0796E+06    -73.4764E+06    -16.5650E+06     92.7221E+03    -14.9597E-03     29.9304E-03    -14.9707E-03     5.82622E-03    -14.9197E-03     29.6135E-03    -14.9208E-03     5.82642E-03
            1545     886.706E-06     47.5926E-03    -18.2059E+06    -75.3959E+06    -18.2753E+06    -308.242E+03    -14.9481E-03     29.9388E-03    -14.9907E-03     3.08263E-03    -14.9034E-03     29.6152E-03    -14.9463E-03     3.07813E-03
            1546     16.8481E-03     47.1962E-03    -2.88808E+06     111.112E+06     48.5171E+06     89.9309E+03    -15.0394E-03     30.1025E-03    -15.0632E-03     50.5869E-03    -15.4353E-03     30.7420E-03    -14.9775E-03     50.6448E-03
            1547     15.9576E-03     47.1226E-03    -6.01899E+06     98.2564E+06     17.4322E+06     351.038E+03    -15.8183E-03     30.7660E-03    -14.9477E-03     74.4941E-03    -16.2170E-03     31.4416E-03    -14.9943E-03     74.5249E-03
            1548     15.0719E-03     47.0575E-03    -5.45701E+06     50.6309E+06    -5.70165E+06    -523.073E+03    -15.9793E-03     30.8830E-03    -14.9038E-03     65.2757E-03    -16.1843E-03     31.2650E-03    -14.9978E-03     65.2433E-03
            1549     14.1857E-03     47.0009E-03    -4.88771E+06    -3.52791E+06    -14.2035E+06    -1.84619E+06    -15.8578E-03     30.7923E-03    -14.9345E-03     57.6776E-03    -15.9177E-03     30.8635E-03    -14.9933E-03     57.6214E-03
            1550     13.2992E-03     46.9500E-03    -6.56366E+06    -25.5076E+06    -7.72251E+06    -954.802E+03    -15.7401E-03     30.7369E-03    -14.9969E-03     52.2984E-03    -15.7615E-03     30.6669E-03    -14.9890E-03     52.2568E-03
            1551     12.4127E-03     46.9035E-03    -6.46673E+06    -33.1255E+06    -2.07829E+06     375.978E+03    -15.6756E-03     30.7053E-03    -15.0298E-03     47.6368E-03    -15.6804E-03     30.5757E-03    -14.9827E-03     47.6171E-03
            1552     11.5262E-03     46.8613E-03    -5.56603E+06    -43.4113E+06    -2.35920E+06     400.134E+03    -15.5632E-03     30.5983E-03    -15.0351E-03     43.5921E-03    -15.5400E-03     30.4081E-03    -14.9759E-03     43.5775E-03
            1553     10.6395E-03     46.8224E-03    -5.34934E+06    -47.6341E+06     1.64847E+06     269.057E+03    -15.4988E-03     30.5529E-03    -15.0542E-03     39.5993E-03    -15.4691E-03     30.3304E-03    -14.9691E-03     39.5870E-03
            1554     9.75298E-03     46.7877E-03    -5.82412E+06    -49.2519E+06     4.07582E+06     987.640E+03    -15.4920E-03     30.5492E-03    -15.0573E-03     35.5504E-03    -15.4626E-03     30.3125E-03    -14.9570E-03     35.5505E-03
            1555     8.86655E-03     46.7562E-03    -6.73804E+06    -50.7061E+06     4.81504E+06     1.10758E+06    -15.3805E-03     30.4293E-03    -15.0488E-03     31.8016E-03    -15.3524E-03     30.1833E-03    -14.9414E-03     31.8060E-03
            1556     7.97999E-03     46.7282E-03    -7.79628E+06    -51.9150E+06     3.56319E+06     676.045E+03    -15.2390E-03     30.2731E-03    -15.0341E-03     28.1757E-03    -15.2111E-03     30.0229E-03    -14.9297E-03     28.1766E-03
            1557     7.09337E-03     46.7036E-03    -9.19062E+06    -57.5656E+06     2.61702E+06     580.493E+03    -15.1571E-03     30.1896E-03    -15.0326E-03     24.6499E-03    -15.1255E-03     29.9135E-03    -14.9227E-03     24.6512E-03
            1558     6.20670E-03     46.6822E-03    -11.0274E+06    -60.5641E+06     983.355E+03     149.034E+03    -15.0996E-03     30.1257E-03    -15.0260E-03     21.2682E-03    -15.0699E-03     29.8389E-03    -14.9173E-03     21.2653E-03
            1559     5.32005E-03     46.6638E-03    -12.9086E+06    -61.6504E+06    -2.53261E+06    -240.575E+03    -15.0436E-03     30.0523E-03    -15.0087E-03     18.0102E-03    -15.0160E-03     29.7674E-03    -14.9132E-03     18.0033E-03
            1560     4.43339E-03     46.6486E-03    -14.9834E+06    -65.0660E+06    -7.03618E+06    -479.340E+03    -14.9981E-03     29.9907E-03    -14.9926E-03     14.8359E-03    -14.9691E-03     29.6979E-03    -14.9117E-03     14.8268E-03
            1561     3.54671E-03     46.6361E-03    -16.8071E+06    -68.8428E+06    -11.3604E+06    -921.155E+03    -14.9885E-03     29.9663E-03    -14.9777E-03     11.7366E-03    -14.9567E-03     29.6633E-03    -14.9104E-03     11.7226E-03
            1562     2.66004E-03     46.6267E-03    -17.6661E+06    -71.8256E+06    -14.0563E+06    -830.675E+03    -14.9827E-03     29.9477E-03    -14.9650E-03     8.69497E-03    -14.9467E-03     29.6348E-03    -14.9055E-03     8.68268E-03
            1563     1.77343E-03     46.6199E-03    -17.9168E+06    -73.4884E+06    -16.3859E+06    -287.186E+03    -14.9569E-03     29.9077E-03    -14.9509E-03     5.75230E-03    -14.9163E-03     29.5903E-03    -14.9003E-03     5.74760E-03
            1564     886.593E-06     46.6159E-03    -18.3722E+06    -75.5565E+06    -18.4556E+06     35.6366E+03    -14.9581E-03     29.8881E-03    -14.9300E-03     3.02324E-03    -14.9137E-03     29.5642E-03    -14.8861E-03     3.02319E-03
            1565     16.8430E-03     46.2187E-03    -3.72825E+06     110.934E+06     49.1566E+06     700.278E+03    -15.4499E-03     30.5264E-03    -15.0764E-03     50.4022E-03    -15.8528E-03     31.1673E-03    -14.9861E-03     50.4656E-03
            1566     15.9600E-03     46.1453E-03    -4.96690E+06     99.6450E+06     19.3230E+06    -833.944E+03    -16.2043E-03     31.1436E-03    -14.9393E-03     73.7652E-03    -16.6030E-03     31.8224E-03    -14.9800E-03     73.7783E-03
            1567     15.0729E-03     46.0800E-03    -4.55062E+06     51.4132E+06    -5.52587E+06    -1.59941E+06    -15.8002E-03     30.6805E-03    -14.8803E-03     64.9060E-03    -16.0009E-03     31.0636E-03    -14.9759E-03     64.8604E-03
            1568     14.1860E-03     46.0240E-03    -4.52702E+06    -4.27906E+06    -13.1803E+06    -491.184E+03    -15.7672E-03     30.6923E-03    -14.9250E-03     57.7144E-03    -15.8257E-03     30.7577E-03    -14.9782E-03     57.6758E-03
            1569     13.2993E-03     45.9729E-03    -4.05882E+06    -26.2767E+06    -6.46566E+06    -132.992E+03    -15.7347E-03     30.7230E-03    -14.9882E-03     52.4129E-03    -15.7443E-03     30.6436E-03    -14.9766E-03     52.3820E-03
            1570     12.4127E-03     45.9264E-03    -4.52585E+06    -33.8023E+06    -281.953E+03    -67.3751E+03    -15.6540E-03     30.6795E-03    -15.0254E-03     47.6369E-03    -15.6507E-03     30.5409E-03    -14.9713E-03     47.6115E-03
            1571     11.5261E-03     45.8843E-03    -5.48992E+06    -43.1745E+06    -1.03382E+06     327.354E+03    -15.6100E-03     30.6379E-03    -15.0279E-03     43.3942E-03    -15.5888E-03     30.4469E-03    -14.9625E-03     43.3785E-03
            1572     10.6397E-03     45.8455E-03    -6.49215E+06    -47.6114E+06     1.28536E+06     204.681E+03    -15.5365E-03     30.5719E-03    -15.0354E-03     39.4688E-03    -15.5120E-03     30.3516E-03    -14.9505E-03     39.4557E-03
            1573     9.75320E-03     45.8104E-03    -6.86270E+06    -50.0314E+06     3.82105E+06     231.864E+03    -15.4707E-03     30.5077E-03    -15.0371E-03     35.4260E-03    -15.4449E-03     30.2689E-03    -14.9355E-03     35.4164E-03
            1574     8.86678E-03     45.7792E-03    -7.01048E+06    -50.3186E+06     5.33488E+06     611.799E+03    -15.3434E-03     30.3733E-03    -15.0299E-03     31.6954E-03    -15.3179E-03     30.1288E-03    -14.9201E-03     31.6934E-03
            1575     7.98014E-03     45.7513E-03    -8.09254E+06    -51.7487E+06     4.33160E+06     694.388E+03    -15.2147E-03     30.2321E-03    -15.0174E-03     28.1453E-03    -15.1896E-03     29.9820E-03    -14.9090E-03     28.1464E-03
            1576     7.09350E-03     45.7267E-03    -9.51032E+06    -57.3020E+06     2.75924E+06     548.420E+03    -15.1546E-03     30.1659E-03    -15.0113E-03     24.6270E-03    -15.1252E-03     29.8913E-03    -14.9006E-03     24.6279E-03
            1577     6.20692E-03     45.7053E-03    -10.8638E+06    -59.8853E+06     469.405E+03     210.479E+03    -15.0825E-03     30.0808E-03    -14.9983E-03     21.2232E-03    -15.0521E-03     29.7979E-03    -14.8934E-03     21.2210E-03
            1578     5.32020E-03     45.6870E-03    -12.6548E+06    -61.6717E+06    -2.31714E+06     6.81941E+03    -15.0082E-03     29.9943E-03    -14.9860E-03     17.9608E-03    -14.9797E-03     29.7086E-03    -14.8899E-03     17.9571E-03
            1579     4.43350E-03     45.6717E-03    -14.4496E+06    -64.6898E+06    -6.34635E+06    -131.033E+03    -14.9819E-03     29.9537E-03    -14.9717E-03     14.7859E-03    -14.9518E-03     29.6610E-03    -14.8887E-03     14.7813E-03
            1580     3.54678E-03     45.6594E-03    -16.1110E+06    -68.5589E+06    -11.3023E+06    -554.569E+03    -14.9668E-03     29.9200E-03    -14.9532E-03     11.6664E-03    -14.9319E-03     29.6173E-03    -14.8870E-03     11.6570E-03
            1581     2.66009E-03     45.6498E-03    -17.8614E+06    -72.3673E+06    -15.1747E+06    -934.735E+03    -14.9593E-03     29.8967E-03    -14.9375E-03     8.64089E-03    -14.9218E-03     29.5830E-03    -14.8825E-03     8.62728E-03
            1582     1.77341E-03     45.6432E-03     -19.236E+06    -74.5065E+06    -17.2236E+06    -600.871E+03    -14.9535E-03     29.8730E-03    -14.9195E-03     5.74201E-03    -14.9168E-03     29.5536E-03    -14.8697E-03     5.73326E-03
            1583     886.867E-06     45.6392E-03    -19.8277E+06    -75.5716E+06    -18.9966E+06     234.004E+03    -14.9034E-03     29.8044E-03    -14.9010E-03     3.02362E-03    -14.8655E-03     29.4834E-03    -14.8577E-03     3.02614E-03
            1584     16.8477E-03     45.2399E-03    -2.36209E+06     111.594E+06     47.7970E+06    -247.492E+03    -15.5277E-03     30.5749E-03    -15.0472E-03     50.3270E-03    -15.9216E-03     31.2180E-03    -14.9666E-03     50.3786E-03
            1585     15.9593E-03     45.1675E-03    -3.41219E+06     100.339E+06     17.9037E+06    -826.546E+03    -15.9620E-03     30.8754E-03    -14.9134E-03     73.7204E-03    -16.3503E-03     31.5558E-03    -14.9644E-03     73.7347E-03
            1586     15.0727E-03     45.1038E-03    -4.71343E+06     51.0892E+06    -7.24830E+06    -642.628E+03    -15.7248E-03     30.5908E-03    -14.8661E-03     65.4752E-03    -15.9235E-03     30.9752E-03    -14.9696E-03     65.4425E-03
            1587     14.1858E-03     45.0466E-03    -4.74929E+06    -5.05954E+06    -14.8122E+06    -548.896E+03    -15.8245E-03     30.7376E-03    -14.9131E-03     58.0670E-03    -15.8807E-03     30.8019E-03    -14.9729E-03     58.0276E-03
            1588     13.2996E-03     44.9960E-03    -4.22750E+06    -26.2415E+06    -6.79049E+06    -259.695E+03    -15.8389E-03     30.8151E-03    -14.9762E-03     52.3802E-03    -15.8492E-03     30.7369E-03    -14.9660E-03     52.3473E-03
            1589     12.4129E-03     44.9492E-03    -4.22606E+06    -34.6775E+06     375.204E+03     396.739E+03    -15.7255E-03     30.7373E-03    -15.0118E-03     47.4847E-03    -15.7204E-03     30.5931E-03    -14.9535E-03     47.4650E-03
            1590     11.5265E-03     44.9071E-03    -5.04634E+06    -43.3990E+06     1.04989E+06     1.17711E+06    -15.6451E-03     30.6597E-03    -15.0146E-03     43.2229E-03    -15.6243E-03     30.4639E-03    -14.9391E-03     43.2180E-03
            1591     10.6401E-03     44.8683E-03    -6.01724E+06    -46.1984E+06     2.92286E+06     313.603E+03    -15.5091E-03     30.5240E-03    -15.0150E-03     39.4438E-03    -15.4866E-03     30.3077E-03    -14.9246E-03     39.4321E-03
            1592     9.75356E-03     44.8334E-03    -6.38824E+06    -50.1634E+06     3.05495E+06    -892.500E+03    -15.3788E-03     30.3890E-03    -15.0102E-03     35.5175E-03    -15.3493E-03     30.1499E-03    -14.9129E-03     35.4936E-03
            1593     8.86684E-03     44.8022E-03    -6.36850E+06    -51.2177E+06     4.58818E+06    -396.499E+03    -15.3166E-03     30.3248E-03    -15.0081E-03     31.6895E-03    -15.2855E-03     30.0759E-03    -14.9017E-03     31.6746E-03
            1594     7.98028E-03     44.7744E-03    -6.90939E+06    -52.3208E+06     4.88260E+06     860.497E+03    -15.2338E-03     30.2334E-03    -14.9997E-03     28.0419E-03    -15.2027E-03     29.9779E-03    -14.8894E-03     28.0452E-03
            1595     7.09368E-03     44.7498E-03    -8.91468E+06    -56.5654E+06     2.78142E+06     1.11341E+06    -15.1312E-03     30.1193E-03    -14.9881E-03     24.5684E-03    -15.0999E-03     29.8475E-03    -14.8792E-03     24.5767E-03
            1596     6.20699E-03     44.7285E-03    -11.4350E+06    -59.3106E+06    -55.7296E+03     444.375E+03    -15.0634E-03     30.0375E-03    -14.9741E-03     21.1864E-03    -15.0359E-03     29.7590E-03    -14.8718E-03     21.1873E-03
            1597     5.32031E-03     44.7103E-03    -13.2794E+06    -61.5312E+06    -2.87563E+06     31.4756E+03    -15.0124E-03     29.9718E-03    -14.9593E-03     17.9152E-03    -14.9864E-03     29.6885E-03    -14.8652E-03     17.9118E-03
            1598     4.43359E-03     44.6950E-03    -14.8151E+06    -64.5134E+06    -6.85961E+06    -148.515E+03    -14.9729E-03     29.9129E-03    -14.9400E-03     14.7292E-03    -14.9441E-03     29.6224E-03    -14.8592E-03     14.7244E-03
            1599     3.54695E-03     44.6826E-03    -16.4364E+06    -68.5055E+06    -11.2287E+06    -35.2994E+03    -14.9434E-03     29.8641E-03    -14.9208E-03     11.5960E-03    -14.9103E-03     29.5621E-03    -14.8537E-03     11.5934E-03
            1600     2.66022E-03     44.6733E-03    -18.0076E+06    -72.1545E+06    -15.4168E+06    -142.977E+03    -14.9133E-03     29.8169E-03    -14.9035E-03     8.59420E-03    -14.8766E-03     29.5048E-03    -14.8499E-03     8.59082E-03
            1601     1.77347E-03     44.6664E-03    -19.1918E+06    -75.2499E+06    -17.9549E+06    -553.464E+03    -14.8941E-03     29.7907E-03    -14.8967E-03     5.70250E-03    -14.8550E-03     29.4686E-03    -14.8495E-03     5.69439E-03
            1602     886.645E-06     44.6626E-03    -19.7285E+06    -76.0300E+06    -18.8169E+06    -520.530E+03    -14.8787E-03     29.7870E-03    -14.9083E-03     3.01250E-03    -14.8400E-03     29.4633E-03    -14.8635E-03     3.00526E-03
            1603     16.8454E-03     44.2633E-03    -2.18495E+06     111.670E+06     47.1127E+06    -340.132E+03    -15.3222E-03     30.3482E-03    -15.0260E-03     50.5421E-03    -15.7128E-03     30.9908E-03    -14.9492E-03     50.5936E-03
            1604     15.9591E-03     44.1907E-03    -5.56305E+06     99.4653E+06     19.4471E+06     597.616E+03    -15.6148E-03     30.5370E-03    -14.9223E-03     73.4922E-03    -16.0127E-03     31.2119E-03    -14.9612E-03     73.5262E-03
            1605     15.0724E-03     44.1263E-03    -8.59839E+06     51.3547E+06    -2.83709E+06     552.924E+03    -15.7913E-03     30.6874E-03    -14.8962E-03     65.0648E-03    -16.0166E-03     31.0727E-03    -14.9723E-03     65.0469E-03
            1606     14.1861E-03     44.0697E-03    -10.0747E+06    -4.28684E+06    -13.8593E+06    -435.274E+03    -15.9077E-03     30.8281E-03    -14.9205E-03     57.9722E-03    -15.9932E-03     30.9029E-03    -14.9689E-03     57.9338E-03
            1607     13.2995E-03     44.0184E-03    -9.92686E+06    -26.5881E+06    -10.2118E+06    -1.23121E+06    -15.8889E-03     30.8463E-03    -14.9574E-03     52.4590E-03    -15.9221E-03     30.7795E-03    -14.9555E-03     52.4136E-03
            1608     12.4134E-03     43.9722E-03    -9.15304E+06    -36.3594E+06    -3.76084E+06    -326.157E+03    -15.7674E-03     30.7524E-03    -14.9850E-03     47.5804E-03    -15.7785E-03     30.6128E-03    -14.9378E-03     47.5515E-03
            1609     11.5268E-03     43.9300E-03    -7.81480E+06     -42.833E+06    -1.76308E+06    -27.6041E+03    -15.5953E-03     30.5818E-03    -14.9865E-03     43.4754E-03    -15.5850E-03     30.3968E-03    -14.9219E-03     43.4553E-03
            1610     10.6402E-03     43.8913E-03    -6.28768E+06    -45.2461E+06     1.49848E+06    -547.006E+03    -15.4747E-03     30.4663E-03    -14.9916E-03     39.5684E-03    -15.4528E-03     30.2571E-03    -14.9093E-03     39.5458E-03
            1611     9.75352E-03     43.8566E-03    -6.66432E+06    -49.6487E+06     1.78247E+06    -851.969E+03    -15.3784E-03     30.3668E-03    -14.9884E-03     35.5425E-03    -15.3491E-03     30.1324E-03    -14.8978E-03     35.5192E-03
            1612     8.86703E-03     43.8251E-03    -7.94940E+06    -52.2122E+06     2.20542E+06    -1.11194E+06    -15.3162E-03     30.2994E-03    -14.9832E-03     31.7132E-03    -15.2880E-03     30.0513E-03    -14.8850E-03     31.6892E-03
            1613     7.98051E-03     43.7974E-03    -8.75172E+06    -54.3691E+06     3.40368E+06     330.092E+03    -15.2381E-03     30.2167E-03    -14.9787E-03     27.9741E-03    -15.2111E-03     29.9558E-03    -14.8701E-03     27.9706E-03
            1614     7.09382E-03     43.7730E-03     -9.6147E+06    -55.8353E+06     3.04066E+06     1.58560E+06    -15.1190E-03     30.0866E-03    -14.9675E-03     24.4814E-03    -15.0927E-03     29.8191E-03    -14.8574E-03     24.4958E-03
            1615     6.20712E-03     43.7517E-03    -10.9959E+06    -58.1240E+06     181.318E+03     823.263E+03    -15.0584E-03     30.0071E-03    -14.9487E-03     21.1094E-03    -15.0308E-03     29.7336E-03    -14.8476E-03     21.1153E-03
            1616     5.32047E-03     43.7335E-03    -12.7221E+06    -61.3089E+06    -2.88788E+06    -16.4801E+03    -15.0269E-03     29.9560E-03    -14.9290E-03     17.8188E-03    -14.9984E-03     29.6730E-03    -14.8361E-03     17.8149E-03
            1617     4.43383E-03     43.7183E-03    -14.7414E+06    -64.8144E+06    -6.58968E+06     225.695E+03    -14.9517E-03     29.8595E-03    -14.9077E-03     14.6446E-03    -14.9225E-03     29.5669E-03    -14.8253E-03     14.6447E-03
            1618     3.54701E-03     43.7060E-03    -16.8420E+06    -68.3607E+06    -10.9231E+06     367.150E+03    -14.8914E-03     29.7808E-03    -14.8894E-03     11.5730E-03    -14.8610E-03     29.4796E-03    -14.8205E-03     11.5756E-03
            1619     2.66030E-03     43.6966E-03    -18.2297E+06    -71.8538E+06    -15.1717E+06     147.129E+03    -14.8774E-03     29.7514E-03    -14.8740E-03     8.59226E-03    -14.8426E-03     29.4407E-03    -14.8192E-03     8.59264E-03
            1620     1.77352E-03     43.6900E-03    -19.1170E+06    -74.9867E+06    -18.2046E+06    -157.812E+03    -14.8652E-03     29.7297E-03    -14.8645E-03     5.66506E-03    -14.8258E-03     29.4091E-03    -14.8191E-03     5.66206E-03
            1621     886.766E-06     43.6859E-03    -20.1702E+06    -77.0051E+06    -19.9380E+06    -681.640E+03    -14.8612E-03     29.7227E-03    -14.8615E-03     2.94951E-03    -14.8216E-03     29.3964E-03    -14.8203E-03     2.94021E-03
            1622     16.8473E-03     43.2858E-03    -3.24385E+06     111.168E+06     47.6673E+06    -43.7398E+03    -15.2704E-03     30.2980E-03    -15.0277E-03     49.7866E-03    -15.6661E-03     30.9386E-03    -14.9458E-03     49.8419E-03
            1623     15.9599E-03     43.2141E-03    -5.25082E+06     99.4192E+06     19.4415E+06     990.769E+03    -15.7116E-03     30.6280E-03    -14.9165E-03     73.6163E-03    -16.1083E-03     31.3027E-03    -14.9558E-03     73.6555E-03
            1624     15.0728E-03     43.1490E-03    -4.74131E+06     51.7520E+06    -2.46703E+06     1.24112E+06    -15.8283E-03     30.7114E-03    -14.8832E-03     65.2696E-03    -16.0354E-03     31.0926E-03    -14.9637E-03     65.2605E-03
            1625     14.1861E-03     43.0926E-03    -3.74987E+06    -2.44590E+06    -10.8258E+06     326.337E+03    -15.9252E-03     30.8397E-03    -14.9145E-03     57.9202E-03    -15.9860E-03     30.9099E-03    -14.9596E-03     57.8916E-03
            1626     13.2998E-03     43.0412E-03    -4.27520E+06    -26.7330E+06    -7.56242E+06    -418.065E+03    -15.8538E-03     30.8088E-03    -14.9551E-03     52.5634E-03    -15.8621E-03     30.7290E-03    -14.9479E-03     52.5286E-03
            1627     12.4131E-03     42.9949E-03    -5.29277E+06    -36.9661E+06    -1.53125E+06    -629.122E+03    -15.7550E-03     30.7415E-03    -14.9865E-03     47.5587E-03    -15.7490E-03     30.5900E-03    -14.9329E-03     47.5259E-03
            1628     11.5267E-03     42.9531E-03    -5.92864E+06    -42.2935E+06    -1.43178E+06    -1.06513E+06    -15.6243E-03     30.6039E-03    -14.9796E-03     43.4236E-03    -15.6058E-03     30.4183E-03    -14.9168E-03     43.3901E-03
            1629     10.6402E-03     42.9142E-03    -7.12206E+06    -45.5700E+06     188.703E+03    -887.602E+03    -15.5133E-03     30.4918E-03    -14.9785E-03     39.5098E-03    -15.4932E-03     30.2841E-03    -14.9011E-03     39.4828E-03
            1630     9.75384E-03     42.8796E-03    -7.82011E+06    -49.0888E+06     1.17256E+06    -957.255E+03    -15.4313E-03     30.4039E-03    -14.9726E-03     35.4521E-03    -15.4077E-03     30.1749E-03    -14.8842E-03     35.4274E-03
            1631     8.86717E-03     42.8482E-03    -8.49030E+06    -52.8004E+06     1.54547E+06    -909.725E+03    -15.3126E-03     30.2764E-03    -14.9638E-03     31.6513E-03    -15.2853E-03     30.0271E-03    -14.8672E-03     31.6299E-03
            1632     7.98052E-03     42.8205E-03    -9.96153E+06    -56.3550E+06     2.64895E+06    -61.8704E+03    -15.2275E-03     30.1878E-03    -14.9603E-03     27.9024E-03    -15.2026E-03     29.9198E-03    -14.8509E-03     27.8939E-03
            1633     7.09399E-03     42.7962E-03    -11.0250E+06    -55.8582E+06     2.52640E+06     682.224E+03    -15.1551E-03     30.0980E-03    -14.9429E-03     24.3777E-03    -15.1350E-03     29.8331E-03    -14.8333E-03     24.3804E-03
            1634     6.20736E-03     42.7749E-03    -11.8088E+06    -56.8456E+06    -732.148E+03     522.955E+03    -15.0641E-03     29.9761E-03    -14.9120E-03     21.0263E-03    -15.0411E-03     29.7115E-03    -14.8162E-03     21.0283E-03
            1635     5.32066E-03     42.7567E-03    -13.1924E+06    -61.2350E+06    -3.72016E+06     212.066E+03    -14.9853E-03     29.8767E-03    -14.8914E-03     17.7357E-03    -14.9580E-03     29.5960E-03    -14.8021E-03     17.7347E-03
            1636     4.43392E-03     42.7417E-03    -14.8062E+06    -65.2910E+06    -6.49730E+06     400.590E+03    -14.9189E-03     29.7942E-03    -14.8753E-03     14.5615E-03    -14.8894E-03     29.4992E-03    -14.7916E-03     14.5638E-03
            1637     3.54718E-03     42.7294E-03    -16.3180E+06    -68.0595E+06    -10.0938E+06     657.556E+03    -14.8583E-03     29.7168E-03    -14.8586E-03     11.5080E-03    -14.8269E-03     29.4152E-03    -14.7867E-03     11.5144E-03
            1638     2.66032E-03     42.7200E-03    -18.0225E+06    -71.3901E+06    -14.4854E+06     447.417E+03    -14.8375E-03     29.6812E-03    -14.8437E-03     8.53471E-03    -14.8033E-03     29.3716E-03    -14.7864E-03     8.53898E-03
            1639     1.77358E-03     42.7134E-03    -19.5423E+06    -74.7167E+06    -17.7034E+06     227.288E+03    -14.8528E-03     29.6807E-03    -14.8280E-03     5.64074E-03    -14.8167E-03     29.3614E-03    -14.7798E-03     5.64272E-03
            1640     886.853E-06     42.7095E-03    -20.5252E+06     -77.226E+06    -20.2529E+06     258.533E+03    -14.8347E-03     29.6272E-03    -14.7926E-03     2.89806E-03    -14.7961E-03     29.3008E-03    -14.7521E-03     2.90093E-03
            1641     16.8456E-03     42.3087E-03    -3.18595E+06     110.409E+06     44.9123E+06    -321.401E+03    -15.1673E-03     30.1879E-03    -15.0206E-03     50.0243E-03    -15.5583E-03     30.8293E-03    -14.9515E-03     50.0760E-03
            1642     15.9591E-03     42.2370E-03    -4.11248E+06     99.1681E+06     14.7756E+06     32.7482E+03    -15.8915E-03     30.7882E-03    -14.8967E-03     73.9770E-03    -16.2765E-03     31.4678E-03    -14.9606E-03     74.0030E-03
            1643     15.0727E-03     42.1718E-03    -3.09483E+06     52.2712E+06    -6.08544E+06     150.523E+03    -15.9559E-03     30.8153E-03    -14.8594E-03     65.4922E-03    -16.1501E-03     31.2017E-03    -14.9611E-03     65.4686E-03
            1644     14.1863E-03     42.1153E-03    -2.36248E+06    -2.10251E+06    -12.4561E+06     394.414E+03    -15.9626E-03     30.8596E-03    -14.8969E-03     57.9427E-03    -16.0145E-03     30.9317E-03    -14.9527E-03     57.9151E-03
            1645     13.2997E-03     42.0642E-03    -1.63197E+06    -26.2865E+06    -6.43051E+06     463.260E+03    -15.8620E-03     30.8100E-03    -14.9480E-03     52.4494E-03    -15.8592E-03     30.7268E-03    -14.9397E-03     52.4261E-03
            1646     12.4133E-03     42.0177E-03    -1.65675E+06    -36.5547E+06     378.199E+03     63.8655E+03    -15.7609E-03     30.7424E-03    -14.9816E-03     47.3830E-03    -15.7400E-03     30.5848E-03    -14.9243E-03     47.3592E-03
            1647     11.5269E-03     41.9759E-03    -3.12549E+06    -42.5764E+06     1.29052E+06     351.241E+03    -15.6802E-03     30.6586E-03    -14.9784E-03     43.1094E-03    -15.6513E-03     30.4636E-03    -14.9056E-03     43.0940E-03
            1648     10.6404E-03     41.9373E-03    -4.56057E+06    -44.8460E+06     2.33839E+06    -213.010E+03    -15.5422E-03     30.5114E-03    -14.9692E-03     39.3532E-03    -15.5134E-03     30.3004E-03    -14.8859E-03     39.3349E-03
            1649     9.75379E-03     41.9024E-03    -5.74908E+06    -49.0359E+06     2.65219E+06    -905.395E+03    -15.4560E-03     30.4144E-03    -14.9584E-03     35.3232E-03    -15.4243E-03     30.1805E-03    -14.8657E-03     35.2992E-03
            1650     8.86741E-03     41.8714E-03    -7.48319E+06    -53.8568E+06     3.00956E+06    -223.319E+03    -15.3459E-03     30.2941E-03    -14.9482E-03     31.4471E-03    -15.3142E-03     30.0359E-03    -14.8442E-03     31.4345E-03
            1651     7.98081E-03     41.8436E-03    -9.08922E+06    -56.5510E+06     2.74851E+06     61.6465E+03    -15.2279E-03     30.1606E-03    -14.9327E-03     27.7684E-03    -15.1985E-03     29.8902E-03    -14.8238E-03     27.7615E-03
            1652     7.09417E-03     41.8193E-03    -10.2446E+06    -56.0845E+06     2.33985E+06    -248.521E+03    -15.1603E-03     30.0709E-03    -14.9106E-03     24.2650E-03    -15.1357E-03     29.8040E-03    -14.8027E-03     24.2557E-03
            1653     6.20759E-03     41.7982E-03    -11.5895E+06    -56.9976E+06    -103.806E+03     270.179E+03    -15.0579E-03     29.9382E-03    -14.8804E-03     20.8941E-03    -15.0344E-03     29.6716E-03    -14.7814E-03     20.8928E-03
            1654     5.32086E-03     41.7801E-03    -13.5047E+06    -60.9039E+06    -3.94595E+06     580.317E+03    -14.9386E-03     29.7927E-03    -14.8541E-03     17.6381E-03    -14.9130E-03     29.5144E-03    -14.7659E-03     17.6419E-03
            1655     4.43408E-03     41.7650E-03    -15.3722E+06    -65.3398E+06    -7.28897E+06     264.772E+03    -14.8810E-03     29.7178E-03    -14.8368E-03     14.4856E-03    -14.8532E-03     29.4246E-03    -14.7562E-03     14.4862E-03
            1656     3.54729E-03     41.7529E-03    -16.8622E+06    -68.3368E+06    -10.1147E+06     511.740E+03    -14.8460E-03     29.6665E-03    -14.8205E-03     11.4381E-03    -14.8169E-03     29.3643E-03    -14.7475E-03     11.4426E-03
            1657     2.66053E-03     41.7436E-03    -18.1352E+06    -70.6632E+06    -14.2407E+06     733.040E+03    -14.8040E-03     29.6028E-03    -14.7988E-03     8.48220E-03    -14.7718E-03     29.2967E-03    -14.7413E-03     8.49018E-03
            1658     1.77365E-03     41.7369E-03    -19.1124E+06    -74.4289E+06    -17.5086E+06     329.571E+03    -14.7754E-03     29.5662E-03    -14.7908E-03     5.62061E-03    -14.7378E-03     29.2474E-03    -14.7428E-03     5.62392E-03
            1659     886.822E-06     41.7330E-03    -19.5566E+06    -76.9184E+06    -18.6101E+06     167.754E+03    -14.7799E-03     29.5824E-03    -14.8025E-03     2.91068E-03    -14.7393E-03     29.2537E-03    -14.7556E-03     2.91236E-03
            1660     16.8463E-03     41.3321E-03    -2.48898E+06     110.850E+06     45.2079E+06    -155.826E+03    -15.2695E-03     30.2916E-03    -15.0222E-03     49.5256E-03    -15.6565E-03     30.9323E-03    -14.9533E-03     49.5781E-03
            1661     15.9595E-03     41.2591E-03    -4.56550E+06     99.1254E+06     15.1915E+06    -719.713E+03    -15.9254E-03     30.8220E-03    -14.8966E-03     73.4134E-03    -16.3118E-03     31.5000E-03    -14.9578E-03     73.4287E-03
            1662     15.0729E-03     41.1949E-03    -6.33618E+06     51.4568E+06    -5.62273E+06    -72.5277E+03    -15.9389E-03     30.8016E-03    -14.8627E-03     65.2806E-03    -16.1487E-03     31.1879E-03    -14.9562E-03     65.2542E-03
            1663     14.1862E-03     41.1378E-03    -6.75974E+06    -1.98286E+06    -12.8207E+06     278.035E+03    -15.9878E-03     30.8821E-03    -14.8943E-03     57.8410E-03    -16.0612E-03     30.9617E-03    -14.9458E-03     57.8117E-03
            1664     13.3001E-03     41.0872E-03    -6.22493E+06    -25.6886E+06    -8.68768E+06    -492.810E+03    -15.8971E-03     30.8285E-03    -14.9315E-03     52.3749E-03    -15.9148E-03     30.7581E-03    -14.9286E-03     52.3392E-03
            1665     12.4135E-03     41.0405E-03    -5.53606E+06    -37.3665E+06    -2.81663E+06    -36.6423E+03    -15.7805E-03     30.7379E-03    -14.9574E-03     47.4113E-03    -15.7731E-03     30.5863E-03    -14.9093E-03     47.3862E-03
            1666     11.5271E-03     40.9988E-03    -4.89385E+06    -42.4958E+06     383.280E+03     506.661E+03    -15.6971E-03     30.6550E-03    -14.9578E-03     43.0465E-03    -15.6757E-03     30.4642E-03    -14.8872E-03     43.0332E-03
            1667     10.6407E-03     40.9602E-03    -4.79995E+06    -43.7046E+06     1.65865E+06    -32.6679E+03    -15.5754E-03     30.5173E-03    -14.9419E-03     39.1991E-03    -15.5485E-03     30.3133E-03    -14.8633E-03     39.1831E-03
            1668     9.75424E-03     40.9255E-03    -5.81413E+06    -49.4887E+06     1.53783E+06    -10.9036E+03    -15.4490E-03     30.3765E-03    -14.9275E-03     35.1929E-03    -15.4153E-03     30.1420E-03    -14.8396E-03     35.1805E-03
            1669     8.86763E-03     40.8943E-03    -7.20402E+06    -54.5585E+06     3.19493E+06     403.468E+03    -15.3698E-03     30.2899E-03    -14.9201E-03     31.2960E-03    -15.3359E-03     30.0275E-03    -14.8146E-03     31.2915E-03
            1670     7.98112E-03     40.8669E-03    -8.42297E+06    -55.6839E+06     2.27914E+06    -20.2809E+03    -15.2512E-03     30.1438E-03    -14.8926E-03     27.6357E-03    -15.2190E-03     29.8774E-03    -14.7882E-03     27.6278E-03
            1671     7.09447E-03     40.8424E-03    -9.65086E+06    -56.1593E+06     1.44766E+06    -495.742E+03    -15.1115E-03     29.9790E-03    -14.8675E-03     24.1616E-03    -15.0826E-03     29.7122E-03    -14.7648E-03     24.1492E-03
            1672     6.20779E-03     40.8215E-03    -11.1097E+06    -58.2978E+06     291.091E+03     235.232E+03    -15.0161E-03     29.8632E-03    -14.8471E-03     20.7556E-03    -14.9889E-03     29.5888E-03    -14.7450E-03     20.7539E-03
            1673     5.32106E-03     40.8036E-03    -12.7752E+06    -60.5357E+06    -2.77297E+06     993.991E+03    -14.9247E-03     29.7451E-03    -14.8205E-03     17.5217E-03    -14.8977E-03     29.4659E-03    -14.7280E-03     17.5308E-03
            1674     4.43427E-03     40.7886E-03    -14.9273E+06    -64.7952E+06    -6.86882E+06     705.038E+03    -14.8480E-03     29.6448E-03    -14.7968E-03     14.4077E-03    -14.8193E-03     29.3530E-03    -14.7156E-03     14.4140E-03
            1675     3.54744E-03     40.7764E-03    -16.9494E+06    -68.5122E+06    -10.4065E+06     300.462E+03    -14.8084E-03     29.5859E-03    -14.7776E-03     11.3937E-03    -14.7790E-03     29.2834E-03    -14.7057E-03     11.3955E-03
            1676     2.66061E-03     40.7671E-03    -18.1506E+06    -70.4571E+06    -14.0370E+06      352.24E+03    -14.7718E-03     29.5268E-03    -14.7549E-03     8.44808E-03    -14.7403E-03     29.2214E-03    -14.6966E-03     8.45116E-03
            1677     1.77376E-03     40.7606E-03    -18.8930E+06    -73.7636E+06    -17.3520E+06     335.265E+03    -14.7203E-03     29.4665E-03    -14.7462E-03     5.57502E-03    -14.6828E-03     29.1504E-03    -14.6986E-03     5.57840E-03
            1678     886.763E-06     40.7566E-03    -19.5439E+06    -76.8094E+06    -19.5146E+06    -199.706E+03    -14.7254E-03     29.4959E-03    -14.7705E-03     2.92897E-03    -14.6836E-03     29.1690E-03    -14.7283E-03     2.92590E-03
            1679     16.8464E-03     40.3537E-03    -2.85713E+06     111.060E+06     46.8563E+06    -133.008E+03    -15.3087E-03     30.3344E-03    -15.0257E-03     49.7814E-03    -15.7014E-03     30.9753E-03    -14.9483E-03     49.8348E-03
            1680     15.9599E-03     40.2829E-03    -5.02140E+06     99.1297E+06     16.5261E+06     214.278E+03    -15.9172E-03     30.8155E-03    -14.8983E-03     73.8832E-03    -16.3092E-03     31.4936E-03    -14.9521E-03     73.9111E-03
            1681     15.0728E-03     40.2171E-03    -5.55634E+06     50.8484E+06    -6.01573E+06     125.706E+03    -16.0176E-03     30.8708E-03    -14.8531E-03     65.4647E-03    -16.2224E-03     31.2538E-03    -14.9489E-03     65.4404E-03
            1682     14.1867E-03     40.1610E-03    -4.30236E+06    -1.29380E+06    -12.3248E+06    -203.365E+03    -16.0410E-03     30.9220E-03    -14.8809E-03     57.7473E-03    -16.1036E-03     31.0005E-03    -14.9345E-03     57.7117E-03
            1683     13.2999E-03     40.1096E-03    -3.60277E+06    -25.3178E+06    -7.31412E+06    -420.354E+03    -15.9604E-03     30.8789E-03    -14.9185E-03     52.1987E-03    -15.9674E-03     30.8045E-03    -14.9131E-03     52.1638E-03
            1684     12.4138E-03     40.0635E-03    -3.74768E+06    -38.3469E+06    -2.35029E+06    -413.346E+03    -15.8282E-03     30.7665E-03    -14.9383E-03     47.1984E-03    -15.8110E-03     30.6067E-03    -14.8890E-03     47.1684E-03
            1685     11.5273E-03     40.0215E-03    -4.19484E+06    -42.7599E+06     1.23607E+06     194.874E+03    -15.7126E-03     30.6501E-03    -14.9375E-03     42.9080E-03    -15.6885E-03     30.4557E-03    -14.8632E-03     42.8907E-03
            1686     10.6410E-03     39.9832E-03    -5.79257E+06    -43.4314E+06     2.93956E+06     823.811E+03    -15.5894E-03     30.5109E-03    -14.9216E-03     38.9830E-03    -15.5696E-03     30.3079E-03    -14.8355E-03     38.9780E-03
            1687     9.75443E-03     39.9486E-03    -7.49920E+06    -49.3403E+06     437.955E+03     480.624E+03    -15.4484E-03     30.3408E-03    -14.8924E-03     35.0608E-03    -15.4217E-03     30.1110E-03    -14.8078E-03     35.0548E-03
            1688     8.86792E-03     39.9175E-03    -7.87856E+06    -54.4376E+06     1.62902E+06    -90.1704E+03    -15.3581E-03     30.2363E-03    -14.8781E-03     31.2224E-03    -15.3254E-03     29.9776E-03    -14.7796E-03     31.2116E-03
            1689     7.98143E-03     39.8900E-03    -8.36733E+06    -55.4183E+06     2.41166E+06    -37.3486E+03    -15.2518E-03     30.1060E-03    -14.8542E-03     27.4641E-03    -15.2198E-03     29.8406E-03    -14.7497E-03     27.4559E-03
            1690     7.09481E-03     39.8659E-03    -10.4053E+06    -56.2387E+06     849.033E+03     233.090E+03    -15.0760E-03     29.9002E-03    -14.8242E-03     24.0101E-03    -15.0498E-03     29.6349E-03    -14.7233E-03     24.0072E-03
            1691     6.20801E-03     39.8448E-03    -12.5895E+06    -58.8461E+06    -1.52861E+06     129.226E+03    -14.9617E-03     29.7610E-03    -14.7992E-03     20.6490E-03    -14.9385E-03     29.4886E-03    -14.7033E-03     20.6460E-03
            1692     5.32128E-03     39.8271E-03    -13.6659E+06    -60.9612E+06    -2.96208E+06     402.771E+03    -14.8949E-03     29.6737E-03    -14.7788E-03     17.3863E-03    -14.8714E-03     29.3939E-03    -14.6854E-03     17.3878E-03
            1693     4.43447E-03     39.8121E-03    -14.4296E+06    -64.1382E+06    -5.80891E+06     798.999E+03    -14.8219E-03     29.5762E-03    -14.7543E-03     14.2996E-03    -14.7933E-03     29.2855E-03    -14.6694E-03     14.3071E-03
            1694     3.54761E-03     39.8001E-03    -15.8167E+06    -68.0120E+06    -9.45493E+06     342.958E+03    -14.7628E-03     29.4945E-03    -14.7318E-03     11.3037E-03    -14.7299E-03     29.1915E-03    -14.6575E-03     11.3060E-03
            1695     2.66071E-03     39.7908E-03    -17.4888E+06    -70.7113E+06    -13.1289E+06     168.229E+03    -14.7210E-03     29.4327E-03    -14.7117E-03     8.35285E-03    -14.6871E-03     29.1238E-03    -14.6495E-03     8.35356E-03
            1696     1.77382E-03     39.7843E-03    -18.9700E+06    -73.3370E+06    -16.6976E+06     403.323E+03    -14.7113E-03     29.4009E-03    -14.6895E-03     5.50993E-03    -14.6758E-03     29.0862E-03    -14.6392E-03     5.51421E-03
            1697     887.000E-06     39.7804E-03    -20.0230E+06    -76.4487E+06    -19.4965E+06     396.108E+03    -14.6946E-03     29.3480E-03    -14.6535E-03     2.91787E-03    -14.6557E-03     29.0236E-03    -14.6111E-03     2.92250E-03
            1698     16.8461E-03     39.3778E-03    -3.05615E+06     110.891E+06     46.8805E+06     103.673E+03    -15.2758E-03     30.3062E-03    -15.0304E-03     49.7598E-03    -15.6696E-03     30.9469E-03    -14.9523E-03     49.8154E-03
            1699     15.9588E-03     39.3046E-03    -5.02060E+06     99.0051E+06     16.3249E+06    -99.7186E+03    -16.1082E-03     31.0052E-03    -14.8971E-03     73.7204E-03    -16.4999E-03     31.6833E-03    -14.9517E-03     73.7426E-03
            1700     15.0732E-03     39.2402E-03    -5.33569E+06     51.3559E+06    -6.05162E+06    -222.615E+03    -16.1415E-03     30.9833E-03    -14.8417E-03     65.1193E-03    -16.3452E-03     31.3679E-03    -14.9387E-03     65.0899E-03
            1701     14.1865E-03     39.1833E-03    -5.37211E+06    -1.03044E+06    -13.1072E+06    -660.014E+03    -16.0815E-03     30.9433E-03    -14.8618E-03     57.6419E-03    -16.1486E-03     31.0256E-03    -14.9180E-03     57.6003E-03
            1702     13.3007E-03     39.1326E-03    -5.01896E+06    -25.5941E+06    -8.51488E+06    -513.864E+03    -16.0056E-03     30.8997E-03    -14.8940E-03     52.0903E-03    -16.0176E-03     30.8276E-03    -14.8922E-03     52.0541E-03
            1703     12.4141E-03     39.0862E-03    -5.01338E+06    -38.4644E+06    -3.65974E+06    -190.360E+03    -15.8678E-03     30.7756E-03    -14.9078E-03     47.1026E-03    -15.8548E-03     30.6189E-03    -14.8631E-03     47.0755E-03
            1704     11.5278E-03     39.0446E-03    -5.41062E+06    -43.7722E+06    -270.451E+03     184.460E+03    -15.7271E-03     30.6298E-03    -14.9027E-03     42.8332E-03    -15.7052E-03     30.4342E-03    -14.8328E-03     42.8158E-03
            1705     10.6413E-03     39.0060E-03    -5.32017E+06    -44.0402E+06     3.78259E+06     1.20138E+06    -15.5881E-03     30.4803E-03    -14.8923E-03     38.8173E-03    -15.5662E-03     30.2723E-03    -14.8018E-03     38.8173E-03
            1706     9.75488E-03     38.9717E-03    -5.99185E+06    -48.0768E+06     2.66171E+06     1.18013E+06    -15.4679E-03     30.3296E-03    -14.8618E-03     34.8345E-03    -15.4386E-03     30.1007E-03    -14.7701E-03     34.8375E-03
            1707     8.86834E-03     38.9406E-03    -7.84375E+06    -53.5182E+06     1.57042E+06    -178.867E+03    -15.3280E-03     30.1634E-03    -14.8353E-03     31.0903E-03    -15.2964E-03     29.9093E-03    -14.7385E-03     31.0785E-03
            1708     7.98172E-03     38.9132E-03    -9.27083E+06    -56.3255E+06     1.88528E+06    -254.087E+03    -15.2165E-03     30.0282E-03    -14.8117E-03     27.3104E-03    -15.1870E-03     29.7603E-03    -14.7072E-03     27.2996E-03
            1709     7.09507E-03     38.8893E-03    -10.2417E+06    -56.7272E+06     2.32091E+06     781.334E+03    -15.0852E-03     29.8703E-03    -14.7851E-03     23.7564E-03    -15.0596E-03     29.6003E-03    -14.6764E-03     23.7605E-03
            1710     6.20838E-03     38.8684E-03    -12.0030E+06    -57.7748E+06    -510.153E+03     515.423E+03    -14.9273E-03     29.6772E-03    -14.7499E-03     20.4654E-03    -14.9042E-03     29.4079E-03    -14.6513E-03     20.4674E-03
            1711     5.32153E-03     38.8505E-03    -13.9645E+06    -61.3050E+06    -3.67872E+06    -400.414E+03    -14.8413E-03     29.5640E-03    -14.7227E-03     17.2518E-03    -14.8178E-03     29.2839E-03    -14.6319E-03     17.2430E-03
            1712     4.43470E-03     38.8358E-03    -15.0682E+06    -64.4411E+06    -6.51523E+06    -163.347E+03    -14.7870E-03     29.4831E-03    -14.6961E-03     14.1602E-03    -14.7600E-03     29.1928E-03    -14.6134E-03     14.1553E-03
            1713     3.54783E-03     38.8237E-03    -16.0128E+06    -67.5312E+06    -9.69796E+06     292.926E+03    -14.7200E-03     29.3892E-03    -14.6692E-03     11.1770E-03    -14.6884E-03     29.0892E-03    -14.5966E-03     11.1787E-03
            1714     2.66091E-03     38.8146E-03    -17.3821E+06    -70.8676E+06    -13.2841E+06     272.644E+03    -14.6723E-03     29.3170E-03    -14.6447E-03     8.24311E-03    -14.6374E-03     29.0073E-03    -14.5831E-03     8.24518E-03
            1715     1.77393E-03     38.8080E-03    -18.4161E+06    -73.2107E+06    -16.6026E+06     374.964E+03    -14.6442E-03     29.2642E-03    -14.6200E-03     5.45292E-03    -14.6063E-03     28.9491E-03    -14.5701E-03     5.45683E-03
            1716     887.021E-06     38.8042E-03    -18.9555E+06    -75.7576E+06    -18.1685E+06     289.617E+03    -14.6206E-03     29.2165E-03    -14.5959E-03     2.87657E-03    -14.5793E-03     28.8921E-03    -14.5494E-03     2.87981E-03
            1717     16.8460E-03     38.3998E-03    -2.61928E+06     111.337E+06     47.9156E+06     292.714E+03    -15.5300E-03     30.5562E-03    -15.0262E-03     49.5019E-03    -15.9227E-03     31.1959E-03    -14.9442E-03     49.5579E-03
            1718     15.9605E-03     38.3275E-03    -4.52810E+06     99.0840E+06     16.6773E+06     9.80322E+03    -16.1482E-03     31.0290E-03    -14.8808E-03     73.3444E-03    -16.5364E-03     31.7046E-03    -14.9345E-03     73.3670E-03
            1719     15.0733E-03     38.2625E-03    -5.41985E+06     51.4946E+06    -6.30043E+06    -426.855E+03    -16.0688E-03     30.8917E-03    -14.8229E-03     65.0719E-03    -16.2723E-03     31.2771E-03    -14.9212E-03     65.0401E-03
            1720     14.1872E-03     38.2063E-03    -4.86045E+06    -834.506E+03    -13.2645E+06    -403.892E+03    -16.1195E-03     30.9619E-03    -14.8424E-03     57.6515E-03    -16.1840E-03     31.0447E-03    -14.9004E-03     57.6132E-03
            1721     13.3005E-03     38.1551E-03    -5.19715E+06    -26.3950E+06    -8.47328E+06     42.5444E+03    -16.0395E-03     30.9141E-03    -14.8746E-03     52.0668E-03    -16.0511E-03     30.8381E-03    -14.8711E-03     52.0377E-03
            1722     12.4144E-03     38.1092E-03    -6.00227E+06    -38.1649E+06    -3.70280E+06     194.637E+03    -15.9222E-03     30.8047E-03    -14.8826E-03     46.9985E-03    -15.9144E-03     30.6510E-03    -14.8371E-03     46.9764E-03
            1723     11.5280E-03     38.0673E-03    -6.33006E+06    -44.2090E+06    -2.20741E+06    -50.4545E+03    -15.7698E-03     30.6326E-03    -14.8628E-03     42.7047E-03    -15.7490E-03     30.4388E-03    -14.8006E-03     42.6844E-03
            1724     10.6417E-03     38.0292E-03    -6.52014E+06    -45.0106E+06     1.75448E+06     234.539E+03    -15.6169E-03     30.4640E-03    -14.8471E-03     38.7203E-03    -15.5966E-03     30.2557E-03    -14.7636E-03     38.7079E-03
            1725     9.75525E-03     37.9946E-03    -6.27589E+06    -47.6194E+06     3.09713E+06     882.640E+03    -15.4792E-03     30.2990E-03    -14.8198E-03     34.6603E-03    -15.4526E-03     30.0720E-03    -14.7262E-03     34.6596E-03
            1726     8.86875E-03     37.9640E-03    -6.98110E+06    -52.4241E+06     3.19402E+06     992.516E+03    -15.3187E-03     30.1105E-03    -14.7918E-03     30.8454E-03    -15.2867E-03     29.8583E-03    -14.6897E-03     30.8487E-03
            1727     7.98210E-03     37.9365E-03    -9.04067E+06    -56.1674E+06     2.15553E+06    -3.40027E+03    -15.1855E-03     29.9458E-03    -14.7603E-03     27.1241E-03    -15.1554E-03     29.6779E-03    -14.6549E-03     27.1166E-03
            1728     7.09554E-03     37.9127E-03    -10.2289E+06    -57.7869E+06     2.68666E+06    -222.730E+03    -15.0709E-03     29.8031E-03    -14.7322E-03     23.5401E-03    -15.0442E-03     29.5271E-03    -14.6202E-03     23.5313E-03
            1729     6.20878E-03     37.8920E-03    -10.9242E+06    -57.2101E+06     1.55684E+06     615.480E+03    -14.9151E-03     29.6103E-03    -14.6952E-03     20.2508E-03    -14.8903E-03     29.3392E-03    -14.5887E-03     20.2541E-03
            1730     5.32190E-03     37.8743E-03    -12.9441E+06    -60.3518E+06    -3.23370E+06     232.662E+03    -14.7958E-03     29.4498E-03    -14.6540E-03     17.0900E-03    -14.7692E-03     29.1724E-03    -14.5639E-03     17.0895E-03
            1731     4.43503E-03     37.8595E-03    -15.3803E+06    -64.9785E+06    -8.10528E+06    -515.762E+03    -14.7314E-03     29.3495E-03    -14.6181E-03     13.9971E-03    -14.7029E-03     29.0592E-03    -14.5421E-03     13.9876E-03
            1732     3.54809E-03     37.8477E-03    -16.6766E+06    -67.7761E+06    -10.7743E+06    -311.805E+03    -14.6639E-03     29.2535E-03    -14.5896E-03     11.0393E-03    -14.6338E-03     28.9548E-03    -14.5210E-03     11.0332E-03
            1733     2.66111E-03     37.8384E-03    -17.3459E+06    -70.9202E+06    -13.4714E+06     29.9650E+03    -14.6048E-03     29.1682E-03    -14.5633E-03     8.16058E-03    -14.5694E-03     28.8585E-03    -14.5027E-03     8.15951E-03
            1734     1.77417E-03     37.8321E-03    -18.0294E+06    -73.1605E+06    -16.4930E+06     142.306E+03    -14.5456E-03     29.0887E-03    -14.5432E-03     5.38406E-03    -14.5059E-03     28.7732E-03    -14.4934E-03     5.38497E-03
            1735     886.956E-06     37.8282E-03    -18.3070E+06    -75.2726E+06    -18.3538E+06     45.2217E+03    -14.5255E-03     29.0750E-03    -14.5494E-03     2.83066E-03    -14.4815E-03     28.7523E-03    -14.5055E-03     2.83075E-03
            1736     16.8470E-03     37.4215E-03    -3.32510E+06     110.647E+06     47.2837E+06    -287.348E+03    -15.5764E-03     30.5920E-03    -15.0156E-03     49.8553E-03    -15.9712E-03     31.2307E-03    -14.9348E-03     49.9041E-03
            1737     15.9599E-03     37.3506E-03    -4.87340E+06     99.0023E+06     16.8042E+06    -3.94021E+03    -16.1189E-03     30.9911E-03    -14.8721E-03     73.7102E-03    -16.5096E-03     31.6671E-03    -14.9246E-03     73.7332E-03
            1738     15.0735E-03     37.2852E-03    -4.53323E+06     52.4743E+06    -5.18821E+06     39.9549E+03    -16.1588E-03     30.9728E-03    -14.8140E-03     65.2822E-03    -16.3613E-03     31.3605E-03    -14.9094E-03     65.2560E-03
            1739     14.1870E-03     37.2288E-03    -5.22246E+06    -1.54394E+06    -13.0207E+06    -63.0959E+03    -16.1790E-03     31.0071E-03    -14.8281E-03     57.5511E-03    -16.2445E-03     31.0863E-03    -14.8834E-03     57.5169E-03
            1740     13.3012E-03     37.1780E-03    -4.82266E+06    -26.7316E+06    -7.86814E+06     417.840E+03    -16.1136E-03     30.9684E-03    -14.8547E-03     51.9343E-03    -16.1237E-03     30.8892E-03    -14.8483E-03     51.9099E-03
            1741     12.4148E-03     37.1317E-03    -4.30839E+06    -37.7897E+06    -3.05910E+06     349.006E+03    -15.9738E-03     30.8277E-03    -14.8539E-03     46.8055E-03    -15.9590E-03     30.6723E-03    -14.8081E-03     46.7853E-03
            1742     11.5286E-03     37.0904E-03    -4.74196E+06    -44.2367E+06    -1.60837E+06     315.649E+03    -15.8286E-03     30.6570E-03    -14.8284E-03     42.5190E-03    -15.8007E-03     30.4599E-03    -14.7654E-03     42.5034E-03
            1743     10.6421E-03     37.0520E-03    -5.63182E+06    -45.0209E+06     2.17105E+06     93.7931E+03    -15.6687E-03     30.4741E-03    -14.8053E-03     38.5586E-03    -15.6445E-03     30.2637E-03    -14.7210E-03     38.5444E-03
            1744     9.75578E-03     37.0178E-03    -6.80625E+06    -48.5946E+06     2.83335E+06     361.520E+03    -15.5111E-03     30.2813E-03    -14.7702E-03     34.4174E-03    -15.4853E-03     30.0506E-03    -14.6757E-03     34.4100E-03
            1745     8.86926E-03     36.9871E-03    -7.75503E+06    -52.2763E+06     3.43682E+06     1.20999E+06    -15.3293E-03     30.0649E-03    -14.7356E-03     30.5650E-03    -15.3016E-03     29.8142E-03    -14.6314E-03     30.5712E-03
            1746     7.98273E-03     36.9600E-03    -8.61118E+06    -54.1430E+06     3.05719E+06     398.184E+03    -15.1434E-03     29.8409E-03    -14.6975E-03     26.9057E-03    -15.1153E-03     29.5811E-03    -14.5912E-03     26.9034E-03
            1747     7.09589E-03     36.9361E-03    -9.97445E+06    -58.1717E+06     1.85907E+06    -952.351E+03    -15.0189E-03     29.6812E-03    -14.6623E-03     23.3709E-03    -14.9892E-03     29.4041E-03    -14.5541E-03     23.3528E-03
            1748     6.20919E-03     36.9157E-03    -11.0945E+06    -58.6197E+06     946.428E+03    -275.897E+03    -14.9130E-03     29.5357E-03    -14.6226E-03     20.0311E-03    -14.8862E-03     29.2586E-03    -14.5168E-03     20.0230E-03
            1749     5.32238E-03     36.8981E-03    -12.1270E+06    -59.5470E+06    -1.92285E+06     808.074E+03    -14.7713E-03     29.3478E-03    -14.5765E-03     16.8734E-03    -14.7437E-03     29.0713E-03    -14.4822E-03     16.8803E-03
            1750     4.43539E-03     36.8835E-03    -13.9373E+06    -64.2191E+06    -7.00428E+06     245.279E+03    -14.6655E-03     29.1974E-03    -14.5320E-03     13.8157E-03    -14.6324E-03     28.9073E-03    -14.4537E-03     13.8161E-03
            1751     3.54843E-03     36.8716E-03    -15.9865E+06    -68.1423E+06    -10.7395E+06    -492.756E+03    -14.5829E-03     29.0809E-03    -14.4980E-03     10.8715E-03    -14.5488E-03     28.7793E-03    -14.4297E-03     10.8631E-03
            1752     2.66138E-03     36.8626E-03    -17.4690E+06    -71.1752E+06    -13.7168E+06    -403.814E+03    -14.5018E-03     28.9744E-03    -14.4725E-03     8.04628E-03    -14.4663E-03     28.6639E-03    -14.4126E-03     8.03963E-03
            1753     1.77418E-03     36.8562E-03    -18.2795E+06    -73.3497E+06    -16.2577E+06    -165.211E+03    -14.4649E-03     28.9188E-03    -14.4539E-03     5.30414E-03    -14.4265E-03     28.6024E-03    -14.4024E-03     5.30110E-03
            1754     887.223E-06     36.8525E-03    -18.9423E+06    -75.1696E+06    -18.2012E+06     235.777E+03    -14.4425E-03     28.8849E-03    -14.4424E-03     2.81881E-03    -14.4019E-03     28.5634E-03    -14.3969E-03     2.82139E-03
            1755     16.8462E-03     36.4454E-03    -2.37065E+06     111.052E+06     46.7832E+06     486.111E+03    -15.5645E-03     30.5776E-03    -15.0131E-03     49.6880E-03    -15.9540E-03     31.2173E-03    -14.9368E-03     49.7461E-03
            1756     15.9597E-03     36.3723E-03    -5.32751E+06     99.5301E+06     16.3455E+06    -10.6875E+03    -16.2907E-03     31.1580E-03    -14.8673E-03     73.5414E-03    -16.6839E-03     31.8382E-03    -14.9222E-03     73.5628E-03
            1757     15.0738E-03     36.3080E-03    -7.16332E+06     52.2794E+06    -5.39751E+06    -515.462E+03    -16.3175E-03     31.1212E-03    -14.8037E-03     64.8840E-03    -16.5321E-03     31.5116E-03    -14.8961E-03     64.8497E-03
            1758     14.1876E-03     36.2514E-03    -5.97906E+06    -1.88757E+06    -12.8165E+06     22.3047E+03    -16.2415E-03     31.0502E-03    -14.8087E-03     57.4018E-03    -16.3103E-03     31.1283E-03    -14.8614E-03     57.3685E-03
            1759     13.3013E-03     36.2006E-03    -5.10759E+06    -26.5532E+06    -8.36517E+06    -326.187E+03    -16.1575E-03     30.9825E-03    -14.8250E-03     51.8178E-03    -16.1683E-03     30.9052E-03    -14.8209E-03     51.7838E-03
            1760     12.4152E-03     36.1546E-03    -4.49539E+06    -38.1936E+06    -3.81892E+06    -106.183E+03    -16.0479E-03     30.8650E-03    -14.8171E-03     46.6707E-03    -16.0321E-03     30.7087E-03    -14.7743E-03     46.6446E-03
            1761     11.5289E-03     36.1131E-03    -4.20956E+06    -44.5894E+06    -390.818E+03     628.894E+03    -15.9031E-03     30.6948E-03    -14.7917E-03     42.2330E-03    -15.8737E-03     30.4933E-03    -14.7229E-03     42.2214E-03
            1762     10.6427E-03     36.0751E-03    -5.12343E+06    -44.4953E+06     2.98653E+06     835.239E+03    -15.7031E-03     30.4602E-03    -14.7570E-03     38.2893E-03    -15.6782E-03     30.2504E-03    -14.6702E-03     38.2848E-03
            1763     9.75633E-03     36.0409E-03    -6.59309E+06    -49.3380E+06     2.60505E+06     896.630E+03    -15.5308E-03     30.2424E-03    -14.7116E-03     34.1631E-03    -15.5024E-03     30.0079E-03    -14.6174E-03     34.1627E-03
            1764     8.86991E-03     36.0105E-03    -7.56845E+06    -51.9099E+06     3.57847E+06     570.487E+03    -15.3334E-03     30.0034E-03    -14.6700E-03     30.3381E-03    -15.3055E-03     29.7539E-03    -14.5658E-03     30.3361E-03
            1765     7.98321E-03     35.9834E-03    -8.02186E+06    -52.7145E+06     2.94476E+06    -138.940E+03    -15.1407E-03     29.7614E-03    -14.6208E-03     26.6494E-03    -15.1115E-03     29.5081E-03    -14.5180E-03     26.6403E-03
            1766     7.09654E-03     35.9599E-03    -9.12594E+06    -57.8508E+06     1.45909E+06    -542.939E+03    -14.9889E-03     29.5671E-03    -14.5782E-03     23.1016E-03    -14.9547E-03     29.2909E-03    -14.4738E-03     23.0888E-03
            1767     6.20971E-03     35.9393E-03    -11.1528E+06    -59.8446E+06     85.4188E+03    -558.132E+03    -14.8600E-03     29.3944E-03    -14.5344E-03     19.7862E-03    -14.8304E-03     29.1125E-03    -14.4310E-03     19.7744E-03
            1768     5.32285E-03     35.9220E-03    -12.7218E+06    -60.2254E+06    -1.70671E+06     143.003E+03    -14.7322E-03     29.2187E-03    -14.4865E-03     16.6426E-03    -14.7068E-03     28.9393E-03    -14.3892E-03     16.6410E-03
            1769     4.43591E-03     35.9074E-03    -13.8458E+06    -63.2081E+06    -6.06389E+06     612.958E+03    -14.5881E-03     29.0227E-03    -14.4346E-03     13.6299E-03    -14.5575E-03     28.7361E-03    -14.3532E-03     13.6351E-03
            1770     3.54881E-03     35.8958E-03    -15.3572E+06    -67.6885E+06    -10.5572E+06     51.8823E+03    -14.4779E-03     28.8725E-03    -14.3946E-03     10.7278E-03    -14.4416E-03     28.5720E-03    -14.3270E-03     10.7265E-03
            1771     2.66162E-03     35.8868E-03    -16.8356E+06    -71.4288E+06    -13.5495E+06    -442.058E+03    -14.4150E-03     28.7831E-03    -14.3680E-03     7.92848E-03    -14.3762E-03     28.4702E-03    -14.3078E-03     7.92137E-03
            1772     1.77451E-03     35.8805E-03    -17.9272E+06    -73.8227E+06    -16.0779E+06    -339.412E+03    -14.3652E-03     28.7110E-03    -14.3458E-03     5.22587E-03    -14.3247E-03     28.3914E-03    -14.2931E-03     5.22058E-03
            1773     887.168E-06     35.8767E-03    -18.6495E+06    -75.2811E+06    -17.8509E+06    -54.6995E+03    -14.3278E-03     28.6651E-03    -14.3373E-03     2.78418E-03    -14.2861E-03     28.3421E-03    -14.2903E-03     2.78301E-03
            1774     16.8465E-03     35.4673E-03    -2.87373E+06     110.790E+06     47.3850E+06    -27.9137E+03    -15.7910E-03     30.8061E-03    -15.0151E-03     49.5305E-03    -16.1829E-03     31.4437E-03    -14.9347E-03     49.5801E-03
            1775     15.9606E-03     35.3948E-03    -3.66221E+06     100.015E+06     16.1206E+06     431.703E+03    -16.4187E-03     31.2697E-03    -14.8509E-03     73.4267E-03    -16.8028E-03     31.9490E-03    -14.9101E-03     73.4524E-03
            1776     15.0740E-03     35.3303E-03    -4.00032E+06     52.2514E+06    -6.06443E+06     183.118E+03    -16.3816E-03     31.1597E-03    -14.7781E-03     64.8739E-03    -16.5789E-03     31.5459E-03    -14.8783E-03     64.8483E-03
            1777     14.1879E-03     35.2740E-03    -4.76992E+06    -2.02000E+06    -13.0049E+06    -214.003E+03    -16.3709E-03     31.1528E-03    -14.7819E-03     57.2968E-03    -16.4331E-03     31.2286E-03    -14.8370E-03     57.2601E-03
            1778     13.3018E-03     35.2233E-03    -4.82445E+06    -26.0740E+06    -8.68868E+06    -82.9138E+03    -16.2414E-03     31.0306E-03    -14.7893E-03     51.6539E-03    -16.2507E-03     30.9554E-03    -14.7879E-03     51.6230E-03
            1779     12.4157E-03     35.1771E-03    -5.47714E+06    -39.0574E+06    -4.14263E+06    -47.5802E+03    -16.1291E-03     30.9056E-03    -14.7764E-03     46.4097E-03    -16.1164E-03     30.7468E-03    -14.7326E-03     46.3842E-03
            1780     11.5297E-03     35.1360E-03    -6.36856E+06    -45.1819E+06    -1.13778E+06     639.988E+03    -15.9369E-03     30.6787E-03    -14.7418E-03     41.9728E-03    -15.9162E-03     30.4783E-03    -14.6727E-03     41.9613E-03
            1781     10.6434E-03     35.0981E-03    -6.66695E+06    -44.1856E+06     1.54152E+06     836.081E+03    -15.7104E-03     30.4049E-03    -14.6945E-03     38.0921E-03    -15.6913E-03     30.2009E-03    -14.6131E-03     38.0877E-03
            1782     9.75696E-03     35.0641E-03    -6.57418E+06    -49.3949E+06     1.62528E+06     703.849E+03    -15.5404E-03     30.1836E-03    -14.6431E-03     33.9541E-03    -15.5103E-03     29.9501E-03    -14.5539E-03     33.9513E-03
            1783     8.87045E-03     35.0338E-03    -7.08714E+06    -50.9471E+06     3.65297E+06     340.871E+03    -15.3558E-03     29.9522E-03    -14.5964E-03     30.0472E-03    -15.3269E-03     29.7067E-03    -14.4939E-03     30.0423E-03
            1784     7.98394E-03     35.0070E-03    -8.46766E+06    -52.1285E+06     2.10124E+06    -384.127E+03    -15.1601E-03     29.6937E-03    -14.5336E-03     26.3686E-03    -15.1328E-03     29.4451E-03    -14.4352E-03     26.3564E-03
            1785     7.09724E-03     34.9835E-03    -9.98925E+06    -58.2783E+06     877.973E+03    -234.165E+03    -14.9714E-03     29.4546E-03    -14.4832E-03     22.8306E-03    -14.9400E-03     29.1783E-03    -14.3798E-03     22.8218E-03
            1786     6.21036E-03     34.9633E-03    -11.6065E+06    -59.5637E+06    -474.352E+03    -136.090E+03    -14.7844E-03     29.2150E-03    -14.4306E-03     19.5449E-03    -14.7566E-03     28.9360E-03    -14.3298E-03     19.5387E-03
            1787     5.32339E-03     34.9459E-03    -13.2128E+06    -60.9941E+06    -3.10713E+06    -498.766E+03    -14.6382E-03     29.0151E-03    -14.3769E-03     16.4052E-03    -14.6121E-03     28.7347E-03    -14.2849E-03     16.3954E-03
            1788     4.43637E-03     34.9318E-03    -14.3637E+06    -63.5056E+06    -6.29273E+06     49.2214E+03    -14.4979E-03     28.8251E-03    -14.3272E-03     13.4136E-03    -14.4691E-03     28.5381E-03    -14.2457E-03     13.4116E-03
            1789     3.54916E-03     34.9202E-03    -15.3651E+06    -66.8415E+06    -10.2823E+06     292.396E+03    -14.3811E-03     28.6643E-03    -14.2831E-03     10.5731E-03    -14.3465E-03     28.3676E-03    -14.2153E-03     10.5749E-03
            1790     2.66197E-03     34.9113E-03    -16.5856E+06    -71.3507E+06    -13.6301E+06    -155.173E+03    -14.3100E-03     28.5617E-03    -14.2517E-03     7.81566E-03    -14.2699E-03     28.2490E-03    -14.1923E-03     7.81227E-03
            1791     1.77465E-03     34.9050E-03    -17.7726E+06    -74.2348E+06    -16.2362E+06    -229.279E+03    -14.2498E-03     28.4780E-03    -14.2282E-03     5.15981E-03    -14.2077E-03     28.1564E-03    -14.1760E-03     5.15596E-03
            1792     887.388E-06     34.9014E-03    -18.6022E+06    -75.5250E+06    -18.1897E+06    -189.384E+03    -14.2196E-03     28.4303E-03    -14.2108E-03     2.74390E-03    -14.1768E-03     28.1066E-03    -14.1652E-03     2.74099E-03
            1793     16.8467E-03     34.4887E-03    -3.36181E+06     110.534E+06      47.677E+06    -280.087E+03    -15.8864E-03     30.9009E-03    -15.0144E-03     49.7329E-03    -16.2815E-03     31.5381E-03    -14.9314E-03     49.7784E-03
            1794     15.9602E-03     34.4178E-03    -6.14544E+06     98.9254E+06     15.6430E+06    -131.988E+03    -16.5630E-03     31.4061E-03    -14.8431E-03     73.3747E-03    -16.9573E-03     32.0844E-03    -14.8995E-03     73.3917E-03
            1795     15.0742E-03     34.3523E-03    -6.84523E+06     52.8297E+06    -4.08143E+06     1.12590E+06    -16.5237E-03     31.2942E-03    -14.7705E-03     64.6245E-03    -16.7388E-03     31.6843E-03    -14.8576E-03     64.6102E-03
            1796     14.1883E-03     34.2967E-03    -7.30038E+06    -990.733E+03    -11.3440E+06     315.617E+03    -16.4689E-03     31.2300E-03    -14.7611E-03     56.8533E-03    -16.5472E-03     31.3118E-03    -14.8058E-03     56.8230E-03
            1797     13.3023E-03     34.2457E-03    -6.96584E+06    -26.3156E+06    -9.56932E+06    -597.223E+03    -16.3259E-03     31.0733E-03    -14.7475E-03     51.4307E-03    -16.3441E-03     31.0011E-03    -14.7470E-03     51.3930E-03
            1798     12.4164E-03     34.1999E-03    -6.10165E+06    -39.6425E+06    -4.25518E+06     178.891E+03    -16.1404E-03     30.8702E-03    -14.7298E-03     46.2589E-03    -16.1295E-03     30.7093E-03    -14.6847E-03     46.2366E-03
            1799     11.5301E-03     34.1588E-03    -5.87004E+06    -45.5872E+06    -917.465E+03     479.302E+03    -15.9849E-03     30.6736E-03    -14.6886E-03     41.7672E-03    -15.9613E-03     30.4699E-03    -14.6186E-03     41.7537E-03
            1800     10.6439E-03     34.1212E-03    -6.11518E+06    -43.9295E+06     1.58594E+06     470.564E+03    -15.7744E-03     30.4044E-03    -14.6300E-03     37.7420E-03    -15.7530E-03     30.2007E-03    -14.5495E-03     37.7329E-03
            1801     9.75760E-03     34.0872E-03    -6.73725E+06    -49.1121E+06     839.942E+03     183.474E+03    -15.5612E-03     30.1265E-03    -14.5654E-03     33.6009E-03    -15.5311E-03     29.8957E-03    -14.4802E-03     33.5915E-03
            1802     8.87125E-03     34.0572E-03    -7.23998E+06    -50.5970E+06     3.37819E+06     33.7040E+03    -15.3609E-03     29.8726E-03    -14.5117E-03     29.7215E-03    -15.3328E-03     29.6294E-03    -14.4110E-03     29.7127E-03
            1803     7.98464E-03     34.0306E-03    -8.41037E+06    -51.9084E+06     3.07955E+06     216.795E+03    -15.1535E-03     29.5988E-03    -14.4453E-03     26.0237E-03    -15.1276E-03     29.3498E-03    -14.3424E-03     26.0193E-03
            1804     7.09790E-03     34.0074E-03    -10.3550E+06    -58.4630E+06     1.19968E+06     52.7009E+03    -14.9488E-03     29.3311E-03    -14.3823E-03     22.5079E-03    -14.9194E-03     29.0539E-03    -14.2765E-03     22.5029E-03
            1805     6.21110E-03     33.9873E-03    -11.8335E+06    -59.1062E+06    -863.068E+03    -332.248E+03    -14.7254E-03     29.0409E-03    -14.3155E-03     19.2500E-03    -14.6989E-03     28.7650E-03    -14.2169E-03     19.2413E-03
            1806     5.32405E-03     33.9703E-03    -13.1143E+06    -60.8491E+06    -3.88251E+06    -639.213E+03    -14.5250E-03     28.7803E-03    -14.2553E-03     16.1510E-03    -14.4976E-03     28.5015E-03    -14.1675E-03     16.1394E-03
            1807     4.43684E-03     33.9561E-03    -14.4934E+06    -64.5331E+06    -6.66949E+06    -558.302E+03    -14.3957E-03     28.6031E-03    -14.2074E-03     13.1745E-03    -14.3655E-03     28.3117E-03    -14.1261E-03     13.1647E-03
            1808     3.54967E-03     33.9448E-03    -15.7219E+06    -66.8491E+06    -9.94978E+06     163.252E+03    -14.2722E-03     28.4339E-03    -14.1617E-03     10.3700E-03    -14.2398E-03     28.1372E-03    -14.0917E-03     10.3702E-03
            1809     2.66227E-03     33.9360E-03    -17.1087E+06    -70.8761E+06    -14.0784E+06     285.918E+03    -14.1684E-03     28.2945E-03    -14.1261E-03     7.68944E-03    -14.1309E-03     27.9856E-03    -14.0690E-03     7.69179E-03
            1810     1.77489E-03     33.9299E-03    -18.3072E+06    -74.3485E+06    -16.7877E+06    -69.7092E+03    -14.1273E-03     28.2328E-03    -14.1054E-03     5.08142E-03    -14.0869E-03     27.9121E-03    -14.0550E-03     5.07966E-03
            1811     887.410E-06     33.9261E-03    -19.0972E+06    -75.6567E+06    -18.4740E+06    -3.48528E+03    -14.1235E-03     28.1857E-03    -14.0622E-03     2.71130E-03    -14.0826E-03     27.8625E-03    -14.0172E-03     2.71080E-03
            1812     16.8463E-03     33.5116E-03    -2.51408E+06     111.146E+06     47.9718E+06     583.638E+03    -16.0435E-03     31.0442E-03    -15.0006E-03     49.2438E-03    -16.4342E-03     31.6814E-03    -14.9183E-03     49.2987E-03
            1813     15.9606E-03     33.4390E-03    -4.68978E+06     98.9084E+06     16.9661E+06     574.044E+03    -16.7044E-03     31.5292E-03    -14.8249E-03     72.7412E-03    -17.0918E-03     32.2019E-03    -14.8766E-03     72.7656E-03
            1814     15.0750E-03     33.3750E-03    -5.51265E+06     52.2005E+06    -5.12859E+06    -29.6609E+03    -16.6216E-03     31.3541E-03    -14.7325E-03     64.2712E-03    -16.8267E-03     31.7398E-03    -14.8258E-03     64.2413E-03
            1815     14.1890E-03     33.3187E-03    -3.32764E+06     161.058E+03    -10.9973E+06     173.246E+03    -16.5332E-03     31.2503E-03    -14.7171E-03     56.7692E-03    -16.5936E-03     31.3313E-03    -14.7675E-03     56.7370E-03
            1816     13.3031E-03     33.2685E-03    -3.28035E+06    -26.5397E+06    -8.15863E+06     285.411E+03    -16.4081E-03     31.1127E-03    -14.7046E-03     51.2136E-03    -16.4094E-03     31.0318E-03    -14.7021E-03     51.1872E-03
            1817     12.4168E-03     33.2226E-03    -4.57512E+06    -39.9738E+06    -3.60283E+06     131.505E+03    -16.2358E-03     30.9131E-03    -14.6772E-03     45.9761E-03    -16.2176E-03     30.7471E-03    -14.6307E-03     45.9531E-03
            1818     11.5310E-03     33.1817E-03    -4.67187E+06    -45.4940E+06     308.694E+03     38.5310E+03    -16.0724E-03     30.6998E-03    -14.6274E-03     41.3506E-03    -16.0445E-03     30.4930E-03    -14.5531E-03     41.3314E-03
            1819     10.6449E-03     33.1440E-03     -5.0283E+06    -44.5483E+06     3.17798E+06     548.643E+03    -15.8294E-03     30.3894E-03    -14.5600E-03     37.2901E-03    -15.8038E-03     30.1786E-03    -14.4723E-03     37.2820E-03
            1820     9.75861E-03     33.1107E-03    -6.17201E+06    -48.0543E+06     2.06453E+06     568.029E+03    -15.5674E-03     30.0490E-03    -14.4816E-03     33.2114E-03    -15.5377E-03     29.8208E-03    -14.3927E-03     33.2070E-03
            1821     8.87203E-03     33.0806E-03    -7.38598E+06    -50.4069E+06     2.93622E+06    -401.085E+03    -15.3356E-03     29.7492E-03    -14.4136E-03     29.4076E-03    -15.3078E-03     29.5077E-03    -14.3151E-03     29.3934E-03
            1822     7.98550E-03     33.0544E-03    -7.97987E+06    -52.8801E+06     2.95437E+06     109.864E+03    -15.1388E-03     29.4795E-03    -14.3407E-03     25.6449E-03    -15.1091E-03     29.2252E-03    -14.2377E-03     25.6392E-03
            1823     7.09879E-03     33.0314E-03    -8.96646E+06    -57.6953E+06     1.62777E+06     554.267E+03    -14.9081E-03     29.1750E-03    -14.2670E-03     22.1262E-03    -14.8734E-03     28.8990E-03    -14.1622E-03     22.1278E-03
            1824     6.21184E-03     33.0116E-03    -11.1343E+06    -58.8018E+06    -467.821E+03    -12.1027E+03    -14.6496E-03     28.8433E-03    -14.1937E-03     18.9028E-03    -14.6205E-03     28.5673E-03    -14.0946E-03     18.8984E-03
            1825     5.32472E-03     32.9948E-03    -13.6167E+06    -60.6845E+06    -4.17474E+06    -235.342E+03    -14.4321E-03     28.5574E-03    -14.1252E-03     15.8672E-03    -14.4069E-03     28.2805E-03    -14.0384E-03     15.8609E-03
            1826     4.43751E-03     32.9808E-03    -15.7878E+06    -64.7858E+06    -8.76874E+06    -445.901E+03    -14.2639E-03     28.3300E-03    -14.0661E-03     12.9601E-03    -14.2367E-03     28.0422E-03    -13.9931E-03     12.9519E-03
            1827     3.55009E-03     32.9696E-03    -17.2222E+06    -67.6874E+06    -11.7117E+06    -277.816E+03    -14.1349E-03     28.1573E-03    -14.0224E-03     10.1867E-03    -14.1062E-03     27.8611E-03    -13.9579E-03     10.1812E-03
            1828     2.66264E-03     32.9610E-03    -17.8837E+06    -70.5467E+06    -14.3943E+06     233.753E+03    -14.0417E-03     28.0306E-03    -13.9889E-03     7.54258E-03    -14.0082E-03     27.7249E-03    -13.9326E-03     7.54429E-03
            1829     1.77509E-03     32.9548E-03    -18.4615E+06     -74.086E+06    -17.4714E+06     96.4609E+03    -13.9870E-03     27.9506E-03    -13.9636E-03     4.99030E-03    -13.9467E-03     27.6325E-03    -13.9168E-03     4.99070E-03
            1830     887.615E-06     32.9512E-03    -18.7141E+06    -75.8005E+06    -18.5977E+06    -186.385E+03    -13.9723E-03     27.9113E-03    -13.9390E-03     2.64408E-03    -13.9291E-03     27.5869E-03    -13.8949E-03     2.64121E-03
            1831     16.8478E-03     32.5333E-03    -2.99962E+06     110.580E+06     47.6398E+06     21.8918E+03    -16.3322E-03     31.3167E-03    -14.9845E-03     49.5305E-03    -16.7239E-03     31.9521E-03    -14.9023E-03     49.5761E-03
            1832     15.9616E-03     32.4614E-03    -3.40591E+06     99.0753E+06     16.3116E+06     272.891E+03    -16.7809E-03     31.5740E-03    -14.7931E-03     72.9148E-03    -17.1601E-03     32.2456E-03    -14.8503E-03     72.9343E-03
            1833     15.0751E-03     32.3971E-03    -3.39836E+06     52.5612E+06    -5.46526E+06     30.8230E+03    -16.6646E-03     31.3613E-03    -14.6967E-03     64.3449E-03    -16.8585E-03     31.7456E-03    -14.7953E-03     64.3157E-03
            1834     14.1893E-03     32.3412E-03    -5.32183E+06    -872.671E+03    -10.4168E+06     474.027E+03    -16.6469E-03     31.3338E-03    -14.6869E-03     56.6159E-03    -16.7163E-03     31.4115E-03    -14.7300E-03     56.5872E-03
            1835     13.3034E-03     32.2909E-03    -6.10745E+06    -26.2428E+06    -7.88919E+06     1.32237E+06    -16.5322E-03     31.1928E-03    -14.6605E-03     50.9253E-03    -16.5483E-03     31.1168E-03    -14.6531E-03     50.9121E-03
            1836     12.4179E-03     32.2452E-03    -6.09187E+06    -38.9937E+06    -3.89924E+06     377.839E+03    -16.3638E-03     30.9775E-03    -14.6137E-03     45.7030E-03    -16.3540E-03     30.8189E-03    -14.5678E-03     45.6831E-03
            1837     11.5319E-03     32.2044E-03    -6.57430E+06    -45.5880E+06    -1.18115E+06    -330.572E+03    -16.1074E-03     30.6554E-03    -14.5480E-03     41.1222E-03    -16.0865E-03     30.4528E-03    -14.4782E-03     41.0984E-03
            1838     10.6457E-03     32.1673E-03    -6.74698E+06    -45.5257E+06     1.13208E+06     131.330E+03    -15.8498E-03     30.3192E-03    -14.4694E-03     37.0487E-03    -15.8283E-03     30.1088E-03    -14.3880E-03     37.0354E-03
            1839     9.75942E-03     32.1340E-03    -6.73440E+06    -47.4556E+06     2.18144E+06     540.587E+03    -15.6039E-03     29.9906E-03    -14.3867E-03     32.8651E-03    -15.5779E-03     29.7659E-03    -14.2972E-03     32.8605E-03
            1840     8.87308E-03     32.1044E-03    -7.72327E+06    -49.4292E+06     2.01834E+06     100.903E+03    -15.3266E-03     29.6276E-03    -14.3009E-03     29.0291E-03    -15.3004E-03     29.3926E-03    -14.2080E-03     29.0215E-03
            1841     7.98640E-03     32.0781E-03    -9.20793E+06    -53.7830E+06     385.215E+03    -515.006E+03    -15.0749E-03     29.2902E-03    -14.2153E-03     25.3131E-03    -15.0461E-03     29.0368E-03    -14.1221E-03     25.2996E-03
            1842     7.09966E-03     32.0556E-03    -9.82648E+06    -58.0260E+06     421.606E+03     213.480E+03    -14.8376E-03     28.9778E-03    -14.1403E-03     21.7788E-03    -14.8049E-03     28.7031E-03    -14.0398E-03     21.7761E-03
            1843     6.21265E-03     32.0361E-03    -10.9382E+06    -58.4112E+06    -279.334E+03     851.916E+03    -14.5769E-03     28.6403E-03    -14.0635E-03     18.5502E-03    -14.5476E-03     28.3657E-03    -13.9643E-03     18.5571E-03
            1844     5.32550E-03     32.0195E-03    -13.1971E+06    -60.5747E+06    -3.86937E+06     731.480E+03    -14.3374E-03     28.3249E-03    -13.9876E-03     15.5357E-03    -14.3106E-03     28.0476E-03    -13.9000E-03     15.5420E-03
            1845     4.43810E-03     32.0058E-03    -15.5137E+06    -64.0609E+06    -8.88725E+06     292.972E+03    -14.1404E-03     28.0601E-03    -13.9197E-03     12.6832E-03    -14.1127E-03     27.7756E-03    -13.8487E-03     12.6845E-03
            1846     3.55061E-03     31.9947E-03    -17.1924E+06    -67.8403E+06    -12.7486E+06    -555.679E+03    -14.0094E-03     27.8774E-03    -13.8679E-03     9.96474E-03    -13.9788E-03     27.5819E-03    -13.8084E-03     9.95576E-03
            1847     2.66306E-03     31.9862E-03    -18.0133E+06    -71.2627E+06    -14.8180E+06    -477.578E+03    -13.9163E-03     27.7466E-03    -13.8302E-03     7.35077E-03    -13.8818E-03     27.4380E-03    -13.7748E-03     7.34332E-03
            1848     1.77544E-03     31.9802E-03    -18.3401E+06    -73.7017E+06    -17.1024E+06     88.8920E+03    -13.8334E-03     27.6314E-03    -13.7981E-03     4.85368E-03    -13.7936E-03     27.3145E-03    -13.7501E-03     4.85401E-03
            1849     887.649E-06     31.9765E-03    -18.8150E+06    -75.9703E+06    -18.8596E+06    -64.5022E+03    -13.7787E-03     27.5701E-03    -13.7914E-03     2.56531E-03    -13.7354E-03     27.2455E-03    -13.7483E-03     2.56403E-03
            1850     16.8464E-03     31.5541E-03    -3.42772E+06     110.127E+06     47.3159E+06    -228.294E+03    -16.4377E-03     31.4163E-03    -14.9785E-03     49.3827E-03    -16.8297E-03     32.0498E-03    -14.8967E-03     49.4235E-03
            1851     15.9611E-03     31.4838E-03    -6.79491E+06     98.5570E+06     16.5333E+06    -298.677E+03    -16.9413E-03     31.7267E-03    -14.7854E-03     72.5417E-03    -17.3360E-03     32.3992E-03    -14.8357E-03     72.5519E-03
            1852     15.0757E-03     31.4191E-03    -8.19855E+06     52.1241E+06    -4.44386E+06     1.38113E+06    -16.8259E-03     31.5086E-03    -14.6828E-03     64.1663E-03    -17.0445E-03     31.8961E-03    -14.7687E-03     64.1536E-03
            1853     14.1901E-03     31.3635E-03    -8.96292E+06    -783.947E+03    -10.5175E+06     1.72605E+06    -16.7883E-03     31.4404E-03    -14.6522E-03     56.3691E-03    -16.8757E-03     31.5237E-03    -14.6906E-03     56.3561E-03
            1854     13.3045E-03     31.3133E-03    -7.94894E+06    -25.0149E+06    -10.0518E+06    -263.860E+03    -16.6526E-03     31.2512E-03    -14.5987E-03     50.7926E-03    -16.6762E-03     31.1870E-03    -14.6011E-03     50.7588E-03
            1855     12.4185E-03     31.2678E-03    -5.65471E+06    -38.8426E+06    -5.71197E+06    -614.888E+03    -16.4408E-03     30.9815E-03    -14.5407E-03     45.5418E-03    -16.4260E-03     30.8253E-03    -14.5047E-03     45.5092E-03
            1856     11.5326E-03     31.2274E-03    -5.20471E+06    -46.0282E+06    -1.30806E+06     290.007E+03    -16.1980E-03     30.6697E-03    -14.4717E-03     40.8167E-03    -16.1692E-03     30.4629E-03    -14.4040E-03     40.8011E-03
            1857     10.6466E-03     31.1903E-03    -6.58525E+06    -45.4969E+06     375.444E+03     243.446E+03    -15.9223E-03     30.3002E-03    -14.3780E-03     36.6808E-03    -15.8987E-03     30.0906E-03    -14.3006E-03     36.6691E-03
            1858     9.76050E-03     31.1574E-03    -7.81754E+06    -47.8388E+06     1.09002E+06     199.875E+03    -15.6496E-03     29.9316E-03    -14.2820E-03     32.4666E-03    -15.6267E-03     29.7080E-03    -14.1958E-03     32.4577E-03
            1859     8.87408E-03     31.1281E-03    -8.67689E+06    -48.7410E+06     1.22548E+06     434.179E+03    -15.3269E-03     29.5094E-03    -14.1825E-03     28.5918E-03    -15.3052E-03     29.2804E-03    -14.0931E-03     28.5887E-03
            1860     7.98744E-03     31.1023E-03    -10.0949E+06    -53.3018E+06    -400.957E+03    -4.08960E+03    -15.0073E-03     29.0945E-03    -14.0872E-03     24.8993E-03    -14.9824E-03     28.8457E-03    -13.9973E-03     24.8925E-03
            1861     7.10050E-03     31.0799E-03    -11.9733E+06    -59.0274E+06    -743.918E+03    -284.403E+03    -14.7522E-03     28.7590E-03    -14.0068E-03     21.3692E-03    -14.7271E-03     28.4840E-03    -13.9076E-03     21.3603E-03
            1862     6.21354E-03     31.0607E-03    -12.9037E+06    -58.6758E+06    -1.25153E+06     301.458E+03    -14.4969E-03     28.4177E-03    -13.9207E-03     18.1346E-03    -14.4757E-03     28.1460E-03    -13.8232E-03     18.1344E-03
            1863     5.32625E-03     31.0445E-03    -13.4869E+06    -60.4933E+06    -3.24585E+06     829.148E+03    -14.2432E-03     28.0826E-03    -13.8394E-03     15.1388E-03    -14.2189E-03     27.8051E-03    -13.7484E-03     15.1464E-03
            1864     4.43883E-03     31.0310E-03    -14.6055E+06    -63.1097E+06    -7.02958E+06     635.162E+03    -14.0385E-03     27.8016E-03    -13.7631E-03     12.3308E-03    -14.0103E-03     27.5179E-03    -13.6856E-03     12.3366E-03
            1865     3.55126E-03     31.0201E-03    -16.1395E+06    -67.1214E+06    -11.9640E+06    -67.7393E+03    -13.8760E-03     27.5709E-03    -13.6949E-03     9.67940E-03    -13.8424E-03     27.2764E-03    -13.6340E-03     9.67675E-03
            1866     2.66355E-03     31.0117E-03    -17.8457E+06    -72.0158E+06    -15.4378E+06    -445.628E+03    -13.7518E-03     27.3979E-03    -13.6461E-03     7.14892E-03    -13.7144E-03     27.0862E-03    -13.5930E-03     7.14192E-03
            1867     1.77575E-03     31.0058E-03    -19.0909E+06    -74.0125E+06    -17.3162E+06    -74.3147E+03    -13.6627E-03     27.2711E-03    -13.6084E-03     4.71711E-03    -13.6259E-03     26.9540E-03    -13.5600E-03     4.71535E-03
            1868     887.976E-06     31.0023E-03    -19.6922E+06    -75.7556E+06    -19.1750E+06     286.780E+03    -13.5889E-03     27.1735E-03    -13.5846E-03     2.47895E-03    -13.5498E-03     26.8516E-03    -13.5421E-03     2.48224E-03
            1869     16.8481E-03     30.5765E-03    -2.38260E+06     110.853E+06     47.6188E+06     518.382E+03    -16.5673E-03     31.5343E-03    -14.9669E-03     49.0446E-03    -16.9538E-03     32.1678E-03    -14.8861E-03     49.0936E-03
            1870     15.9619E-03     30.5050E-03    -4.12297E+06     98.5679E+06     18.3222E+06     773.341E+03    -17.0332E-03     31.8061E-03    -14.7729E-03     72.1014E-03    -17.4153E-03     32.4703E-03    -14.8182E-03     72.1239E-03
            1871     15.0762E-03     30.4415E-03    -5.00312E+06     49.8583E+06    -4.83447E+06     1.18621E+06    -16.9753E-03     31.6295E-03    -14.6542E-03     64.1764E-03    -17.1739E-03     32.0014E-03    -14.7434E-03     64.1603E-03
            1872     14.1904E-03     30.3854E-03    -3.56431E+06     656.022E+03    -9.59592E+06     1.75335E+06    -16.9892E-03     31.5997E-03    -14.6105E-03     56.3912E-03    -17.0527E-03     31.6807E-03    -14.6542E-03     56.3780E-03
            1873     13.3048E-03     30.3358E-03    -4.10484E+06    -22.4816E+06    -7.52507E+06     258.192E+03    -16.8135E-03     31.3657E-03    -14.5522E-03     50.5074E-03    -16.8249E-03     31.3045E-03    -14.5513E-03     50.4801E-03
            1874     12.4193E-03     30.2904E-03    -6.24127E+06    -39.8203E+06    -7.06467E+06    -832.207E+03    -16.5717E-03     31.0440E-03    -14.4723E-03     45.2026E-03    -16.5562E-03     30.8855E-03    -14.4409E-03     45.1673E-03
            1875     11.5336E-03     30.2501E-03    -6.61263E+06    -47.1268E+06    -2.86855E+06     114.496E+03    -16.3337E-03     30.7214E-03    -14.3877E-03     40.3711E-03    -16.3079E-03     30.5132E-03    -14.3241E-03     40.3532E-03
            1876     10.6477E-03     30.2135E-03    -6.40261E+06    -44.9385E+06     525.639E+03     703.356E+03    -16.0092E-03     30.2902E-03    -14.2810E-03     36.1863E-03    -15.9856E-03     30.0828E-03    -14.2039E-03     36.1806E-03
            1877     9.76149E-03     30.1808E-03    -6.91474E+06    -47.7039E+06     904.610E+03     212.304E+03    -15.6747E-03     29.8433E-03    -14.1686E-03     31.9866E-03    -15.6471E-03     29.6192E-03    -14.0849E-03     31.9781E-03
            1878     8.87515E-03     30.1520E-03    -7.78941E+06    -49.3051E+06     2.33516E+06     425.176E+03    -15.3395E-03     29.4027E-03    -14.0632E-03     28.0358E-03    -15.3141E-03     29.1679E-03    -13.9688E-03     28.0327E-03
            1879     7.98850E-03     30.1265E-03    -9.30392E+06    -52.6955E+06     1.56843E+06     969.936E+03    -14.9941E-03     28.9503E-03    -13.9562E-03     24.3327E-03    -14.9690E-03     28.7005E-03    -13.8585E-03     24.3385E-03
            1880     7.10166E-03     30.1045E-03    -11.1581E+06    -58.2525E+06     4.74852E+03     84.5938E+03    -14.6756E-03     28.5328E-03    -13.8572E-03     20.8595E-03    -14.6486E-03     28.2594E-03    -13.7565E-03     20.8555E-03
            1881     6.21447E-03     30.0856E-03    -12.8175E+06    -59.4173E+06    -1.65586E+06    -580.310E+03    -14.3958E-03     28.1551E-03    -13.7593E-03     17.6549E-03    -14.3724E-03     27.8801E-03    -13.6628E-03     17.6434E-03
            1882     5.32721E-03     30.0697E-03    -14.0304E+06    -60.9236E+06    -3.46564E+06    -19.2848E+03    -14.1504E-03     27.8183E-03    -13.6679E-03     14.7038E-03    -14.1279E-03     27.5398E-03    -13.5766E-03     14.7005E-03
            1883     4.43967E-03     30.0564E-03    -15.1592E+06    -62.7621E+06    -7.28043E+06     400.918E+03    -13.9123E-03     27.4892E-03    -13.5769E-03     11.9589E-03    -13.8870E-03     27.2084E-03    -13.5003E-03     11.9617E-03
            1884     3.55196E-03     30.0458E-03    -16.5540E+06    -66.6371E+06    -12.1355E+06     555.100E+03    -13.7087E-03     27.2069E-03    -13.4982E-03     9.36967E-03    -13.6776E-03     26.9156E-03    -13.4382E-03     9.37512E-03
            1885     2.66409E-03     30.0376E-03    -17.9614E+06    -71.7171E+06    -15.5187E+06     268.968E+03    -13.5566E-03     27.0010E-03    -13.4443E-03     6.92900E-03    -13.5201E-03     26.6911E-03    -13.3919E-03     6.93126E-03
            1886     1.77613E-03     30.0319E-03    -19.1095E+06    -74.4853E+06    -17.4325E+06    -101.244E+03    -13.4544E-03     26.8627E-03    -13.4083E-03     4.59070E-03    -13.4169E-03     26.5435E-03    -13.3597E-03     4.58862E-03
            1887     888.034E-06     30.0284E-03    -19.7960E+06    -75.4866E+06    -18.9946E+06     60.1976E+03    -13.3864E-03     26.7766E-03    -13.3902E-03     2.42858E-03    -13.3485E-03     26.4560E-03    -13.3470E-03     2.42894E-03
            1888     16.8468E-03     29.5969E-03    -2.44797E+06     110.117E+06     46.5144E+06    -406.422E+03    -16.5060E-03     31.4614E-03    -14.9554E-03     48.8501E-03    -16.8885E-03     32.0912E-03    -14.8790E-03     48.8868E-03
            1889     15.9620E-03     29.5275E-03    -3.32135E+06     97.5047E+06     14.8805E+06     677.198E+03    -17.0673E-03     31.8177E-03    -14.7504E-03     72.6780E-03    -17.4384E-03     32.4800E-03    -14.8125E-03     72.6986E-03
            1890     15.0760E-03     29.4631E-03    -3.19578E+06     49.9794E+06    -5.61452E+06     1.01672E+06    -17.3768E-03     32.0066E-03    -14.6297E-03     64.1982E-03    -17.5656E-03     32.3777E-03    -14.7256E-03     64.1779E-03
            1891     14.1910E-03     29.4074E-03    -3.12418E+06     355.420E+03    -8.83488E+06     883.810E+03    -17.2826E-03     31.8561E-03    -14.5735E-03     55.8924E-03    -17.3440E-03     31.9333E-03    -14.6137E-03     55.8671E-03
            1892     13.3058E-03     29.3577E-03    -2.72878E+06    -21.4626E+06    -3.94485E+06     2.04858E+06    -17.0163E-03     31.5222E-03    -14.5059E-03     49.7892E-03    -17.0270E-03     31.4585E-03    -14.4906E-03     49.7846E-03
            1893     12.4203E-03     29.3130E-03    -3.65163E+06    -38.4192E+06    -3.54901E+06     1.18631E+06    -16.7277E-03     31.1330E-03    -14.4053E-03     44.5288E-03    -16.7061E-03     30.9723E-03    -14.3621E-03     44.5194E-03
            1894     11.5346E-03     29.2728E-03    -5.10858E+06    -48.1024E+06    -2.31087E+06        -549.863    -16.4300E-03     30.7248E-03    -14.2948E-03     39.8181E-03    -16.3958E-03     30.5084E-03    -14.2292E-03     39.7988E-03
            1895     10.6488E-03     29.2367E-03    -5.63638E+06    -44.9286E+06     1.69025E+06     332.026E+03    -16.0786E-03     30.2540E-03    -14.1754E-03     35.5539E-03    -16.0526E-03     30.0436E-03    -14.0937E-03     35.5435E-03
            1896     9.76278E-03     29.2044E-03    -6.19014E+06    -47.1462E+06     1.50562E+06     366.542E+03    -15.7070E-03     29.7510E-03    -14.0440E-03     31.3791E-03    -15.6773E-03     29.5276E-03    -13.9592E-03     31.3727E-03
            1897     8.87640E-03     29.1758E-03    -7.49153E+06    -50.5048E+06     2.91210E+06     822.976E+03    -15.3475E-03     29.2739E-03    -13.9264E-03     27.4118E-03    -15.3195E-03     29.0316E-03    -13.8278E-03     27.4139E-03
            1898     7.98981E-03     29.1509E-03    -8.73554E+06    -52.1881E+06     2.79164E+06     1.15909E+06    -14.9719E-03     28.7760E-03    -13.8041E-03     23.7079E-03    -14.9464E-03     28.5261E-03    -13.7018E-03     23.7163E-03
            1899     7.10285E-03     29.1293E-03    -9.98430E+06    -56.7816E+06     921.395E+03     461.556E+03    -14.6026E-03     28.2897E-03    -13.6871E-03     20.3007E-03    -14.5731E-03     28.0205E-03    -13.5857E-03     20.3016E-03
            1900     6.21567E-03     29.1108E-03    -11.8601E+06    -59.4701E+06    -1.88561E+06    -212.211E+03    -14.2892E-03     27.8635E-03    -13.5743E-03     17.1719E-03    -14.2605E-03     27.5871E-03    -13.4803E-03     17.1653E-03
            1901     5.32819E-03     29.0951E-03    -13.7331E+06    -61.3523E+06    -4.75293E+06    -449.165E+03    -14.0191E-03     27.4878E-03    -13.4687E-03     14.2531E-03    -13.9926E-03     27.2085E-03    -13.3836E-03     14.2443E-03
            1902     4.44059E-03     29.0823E-03    -15.0542E+06    -63.3537E+06    -7.68301E+06     55.1180E+03    -13.7534E-03     27.1265E-03    -13.3730E-03     11.5567E-03    -13.7261E-03     26.8431E-03    -13.2978E-03     11.5552E-03
            1903     3.55271E-03     29.0719E-03    -16.1186E+06    -66.6403E+06    -11.0822E+06     697.126E+03    -13.5234E-03     26.8161E-03    -13.2927E-03     9.05629E-03    -13.4916E-03     26.5226E-03    -13.2281E-03     9.06362E-03
            1904     2.66469E-03     29.0640E-03    -17.1832E+06    -70.9252E+06    -14.3524E+06     619.528E+03    -13.3514E-03     26.5843E-03    -13.2329E-03     6.69617E-03    -13.3138E-03     26.2756E-03    -13.1769E-03     6.70300E-03
            1905     1.77648E-03     29.0583E-03    -18.2355E+06    -74.2678E+06    -16.9186E+06     122.145E+03    -13.2314E-03     26.4273E-03    -13.1959E-03     4.44604E-03    -13.1905E-03     26.1071E-03    -13.1463E-03     4.44688E-03
            1906     888.282E-06     29.0549E-03    -18.8323E+06    -75.5748E+06    -18.5702E+06    -241.505E+03    -13.1686E-03     26.3611E-03    -13.1925E-03     2.33842E-03    -13.1263E-03     26.0381E-03    -13.1485E-03     2.33491E-03
            1907     16.8486E-03     28.6210E-03    -2.93532E+06     109.549E+06     46.7566E+06     480.897E+03    -16.6687E-03     31.6350E-03    -14.9663E-03     48.7218E-03    -17.0534E-03     32.2626E-03    -14.8871E-03     48.7665E-03
            1908     15.9607E-03     28.5484E-03    -7.06347E+06     97.4809E+06     15.2693E+06     346.752E+03    -17.5948E-03     32.3411E-03    -14.7463E-03     72.3542E-03    -17.9855E-03     33.0085E-03    -14.8011E-03     72.3660E-03
            1909     15.0769E-03     28.4842E-03    -8.13752E+06     50.3951E+06    -5.22258E+06    -79.7354E+03    -17.6802E-03     32.2793E-03    -14.5991E-03     63.1002E-03    -17.8935E-03     32.6578E-03    -14.6865E-03     63.0638E-03
            1910     14.1919E-03     28.4292E-03    -7.00664E+06    -237.512E+03    -10.8705E+06     205.870E+03    -17.4488E-03     31.9596E-03    -14.5107E-03     55.2671E-03    -17.5250E-03     32.0416E-03    -14.5546E-03     55.2326E-03
            1911     13.3068E-03     28.3797E-03    -5.61715E+06    -22.5648E+06    -6.94871E+06     643.372E+03    -17.1918E-03     31.6123E-03    -14.4205E-03     49.3565E-03    -17.2105E-03     31.5512E-03    -14.4144E-03     49.3337E-03
            1912     12.4216E-03     28.3354E-03    -3.98275E+06    -37.2915E+06    -3.91757E+06     1.71263E+06    -16.8776E-03     31.1856E-03    -14.3079E-03     43.9571E-03    -16.8584E-03     31.0312E-03    -14.2677E-03     43.9544E-03
            1913     11.5360E-03     28.2957E-03    -4.13319E+06    -47.0281E+06    -2.19592E+06     1.10313E+06    -16.5152E-03     30.6960E-03    -14.1808E-03     39.2295E-03    -16.4776E-03     30.4831E-03    -14.1176E-03     39.2246E-03
            1914     10.6502E-03     28.2598E-03    -5.41282E+06    -45.4507E+06     1.86204E+06     394.823E+03    -16.1248E-03     30.1745E-03    -14.0497E-03     34.9019E-03    -16.0970E-03     29.9607E-03    -13.9666E-03     34.8924E-03
            1915     9.76415E-03     28.2280E-03    -6.92574E+06    -47.3071E+06     1.74213E+06     1.09368E+06    -15.7348E-03     29.6382E-03    -13.9034E-03     30.6950E-03    -15.7087E-03     29.4145E-03    -13.8160E-03     30.6981E-03
            1916     8.87782E-03     28.2000E-03    -8.27834E+06    -50.5259E+06     2.09472E+06     1.01197E+06    -15.3179E-03     29.0828E-03    -13.7649E-03     26.7729E-03    -15.2926E-03     28.8427E-03    -13.6692E-03     26.7776E-03
            1917     7.99117E-03     28.1754E-03    -9.05211E+06    -51.8389E+06     1.87255E+06     603.193E+03    -14.9127E-03     28.5398E-03    -13.6271E-03     23.0953E-03    -14.8878E-03     28.2934E-03    -13.5295E-03     23.0967E-03
            1918     7.10420E-03     28.1544E-03    -10.1518E+06    -56.3341E+06     642.741E+03     736.092E+03    -14.5400E-03     28.0379E-03    -13.4980E-03     19.7024E-03    -14.5115E-03     27.7716E-03    -13.3984E-03     19.7070E-03
            1919     6.21689E-03     28.1362E-03    -11.8255E+06    -58.7224E+06    -2.03450E+06     413.296E+03    -14.1732E-03     27.5435E-03    -13.3703E-03     16.6163E-03    -14.1453E-03     27.2710E-03    -13.2782E-03     16.6179E-03
            1920     5.32938E-03     28.1210E-03    -13.6142E+06    -61.1933E+06    -5.13791E+06    -208.978E+03    -13.8377E-03     27.0927E-03    -13.2549E-03     13.7652E-03    -13.8102E-03     26.8145E-03    -13.1722E-03     13.7596E-03
            1921     4.44152E-03     28.1084E-03    -15.2182E+06    -64.1274E+06    -7.81680E+06    -241.569E+03    -13.5587E-03     26.7159E-03    -13.1572E-03     11.1491E-03    -13.5309E-03     26.4291E-03    -13.0813E-03     11.1438E-03
            1922     3.55352E-03     28.0984E-03    -16.3874E+06    -67.0495E+06    -10.6649E+06     326.573E+03    -13.3201E-03     26.3943E-03    -13.0742E-03     8.72678E-03    -13.2896E-03     26.0985E-03    -13.0065E-03     8.72940E-03
            1923     2.66525E-03     28.0907E-03    -17.3646E+06    -70.3258E+06    -14.1516E+06     682.314E+03    -13.1327E-03     26.1402E-03    -13.0074E-03     6.45356E-03    -13.0972E-03     25.8344E-03    -12.9510E-03     6.46125E-03
            1924     1.77693E-03     28.0852E-03    -18.2414E+06    -73.6136E+06    -17.0797E+06     387.362E+03    -13.0141E-03     25.9769E-03    -12.9627E-03     4.28996E-03    -12.9740E-03     25.6603E-03    -12.9150E-03     4.29425E-03
            1925     888.428E-06     28.0819E-03    -18.8804E+06    -75.6296E+06    -18.8351E+06     91.2785E+03    -12.9694E-03     25.8897E-03    -12.9203E-03     2.27891E-03    -12.9269E-03     25.5668E-03    -12.8774E-03     2.27972E-03
            1926     16.8450E-03     27.6407E-03    -3.36094E+06     109.554E+06     48.6825E+06     616.920E+03    -17.3090E-03     32.2765E-03    -14.9676E-03     48.1026E-03    -17.6980E-03     32.9014E-03    -14.8782E-03     48.1440E-03
            1927     15.9639E-03     27.5693E-03    -3.67805E+06     98.6801E+06     19.1198E+06     570.992E+03    -18.0420E-03     32.7604E-03    -14.7184E-03     71.8307E-03    -18.4215E-03     33.4218E-03    -14.7606E-03     71.8411E-03
            1928     15.0780E-03     27.5057E-03    -3.75316E+06     50.5407E+06    -6.06317E+06    -38.4973E+03    -17.7692E-03     32.2995E-03    -14.5304E-03     62.9645E-03    -17.9580E-03     32.6720E-03    -14.6286E-03     62.9282E-03
            1929     14.1929E-03     27.4509E-03    -3.71634E+06    -478.829E+03    -12.6984E+06    -194.884E+03    -17.6323E-03     32.0602E-03    -14.4279E-03     54.8928E-03    -17.6883E-03     32.1381E-03    -14.4853E-03     54.8529E-03
            1930     13.3078E-03     27.4017E-03    -4.11757E+06     -23.964E+06    -6.93473E+06     940.530E+03    -17.3522E-03     31.6876E-03    -14.3353E-03     48.8172E-03    -17.3609E-03     31.6167E-03    -14.3293E-03     48.7981E-03
            1931     12.4227E-03     27.3577E-03    -5.83922E+06    -37.5198E+06    -4.16873E+06     1.60136E+06    -17.0234E-03     31.2300E-03    -14.2066E-03     43.3717E-03    -17.0124E-03     31.0772E-03    -14.1646E-03     43.3675E-03
            1932     11.5374E-03     27.3185E-03    -6.12504E+06    -45.4686E+06    -3.57212E+06     1.22772E+06    -16.6355E-03     30.6872E-03    -14.0517E-03     38.6104E-03    -16.6078E-03     30.4867E-03    -13.9948E-03     38.6071E-03
            1933     10.6517E-03     27.2831E-03    -6.43268E+06    -45.9007E+06     539.581E+03     1.06641E+06    -16.1868E-03     30.0899E-03    -13.9030E-03     34.2502E-03    -16.1613E-03     29.8770E-03    -13.8245E-03     34.2496E-03
            1934     9.76574E-03     27.2518E-03    -7.19689E+06    -47.7408E+06     1.76008E+06     1.39332E+06    -15.7400E-03     29.4853E-03    -13.7453E-03     29.9690E-03    -15.7145E-03     29.2597E-03    -13.6568E-03     29.9761E-03
            1935     8.87941E-03     27.2243E-03    -7.99102E+06    -49.2740E+06     2.37113E+06     1.00855E+06    -15.2717E-03     28.8616E-03    -13.5900E-03     26.0690E-03    -15.2470E-03     28.6268E-03    -13.4951E-03     26.0739E-03
            1936     7.99263E-03     27.2003E-03    -9.23433E+06    -51.8090E+06     898.062E+03     386.574E+03    -14.8543E-03     28.2881E-03    -13.4338E-03     22.4285E-03    -14.8289E-03     28.0434E-03    -13.3408E-03     22.4273E-03
            1937     7.10563E-03     27.1796E-03    -10.3308E+06    -56.6936E+06     127.941E+03     664.799E+03    -14.4562E-03     27.7481E-03    -13.2919E-03     19.0325E-03    -14.4273E-03     27.4809E-03    -13.1941E-03     19.0363E-03
            1938     6.21834E-03     27.1620E-03    -11.6747E+06    -57.8680E+06    -1.32753E+06     753.190E+03    -14.0194E-03     27.1746E-03    -13.1552E-03     16.0162E-03    -13.9929E-03     26.9050E-03    -13.0610E-03     16.0223E-03
            1939     5.33056E-03     27.1472E-03    -13.4273E+06    -60.6233E+06    -4.78960E+06     201.947E+03    -13.6414E-03     26.6721E-03    -13.0307E-03     13.2791E-03    -13.6143E-03     26.3960E-03    -12.9473E-03     13.2790E-03
            1940     4.44257E-03     27.1350E-03    -15.1098E+06    -64.3457E+06    -8.31530E+06    -160.632E+03    -13.3466E-03     26.2721E-03    -12.9255E-03     10.7333E-03    -13.3171E-03     25.9847E-03    -12.8519E-03     10.7291E-03
            1941     3.55432E-03     27.1253E-03    -16.6062E+06    -67.6855E+06    -11.4651E+06     48.1952E+03    -13.1020E-03     25.9403E-03    -12.8383E-03     8.37236E-03    -13.0705E-03     25.6428E-03    -12.7734E-03     8.37146E-03
            1942     2.66593E-03     27.1179E-03    -17.6282E+06    -70.2139E+06    -14.4337E+06     485.743E+03    -12.9072E-03     25.6760E-03    -12.7688E-03     6.20052E-03    -12.8727E-03     25.3716E-03    -12.7136E-03     6.20573E-03
            1943     1.77731E-03     27.1125E-03    -18.3414E+06    -72.9031E+06    -16.9075E+06     504.468E+03    -12.7790E-03     25.4998E-03    -12.7207E-03     4.13942E-03    -12.7407E-03     25.1866E-03    -12.6730E-03     4.14527E-03
            1944     888.756E-06     27.1093E-03    -19.0677E+06    -75.3559E+06    -18.4067E+06     329.100E+03    -12.7297E-03     25.4012E-03    -12.6716E-03     2.24849E-03    -12.6891E-03     25.0794E-03    -12.6267E-03     2.25238E-03
            1945     16.8505E-03     26.6612E-03    -2.66050E+06     109.710E+06     48.1884E+06     31.5684E+03    -17.7578E-03     32.6998E-03    -14.9420E-03     48.5355E-03    -18.1416E-03     33.3239E-03    -14.8563E-03     48.5663E-03
            1946     15.9622E-03     26.5905E-03    -4.97372E+06     97.5218E+06     17.8313E+06     193.488E+03    -18.1816E-03     32.8580E-03    -14.6764E-03     71.7333E-03    -18.5624E-03     33.5157E-03    -14.7215E-03     71.7366E-03
            1947     15.0782E-03     26.5268E-03    -5.91334E+06     51.7689E+06    -5.65845E+06     348.350E+03    -18.0857E-03     32.5636E-03    -14.4779E-03     62.5204E-03    -18.2869E-03     32.9440E-03    -14.5727E-03     62.4872E-03
            1948     14.1939E-03     26.4722E-03    -5.93301E+06    -940.078E+03    -13.4534E+06    -225.144E+03    -17.8657E-03     32.2156E-03    -14.3499E-03     54.2004E-03    -17.9302E-03     32.2947E-03    -14.4072E-03     54.1593E-03
            1949     13.3093E-03     26.4237E-03    -5.10902E+06    -25.9573E+06    -8.04851E+06     958.288E+03    -17.5268E-03     31.7626E-03    -14.2357E-03     48.1708E-03    -17.5354E-03     31.6842E-03    -14.2309E-03     48.1518E-03
            1950     12.4242E-03     26.3799E-03    -3.57646E+06    -37.0628E+06    -2.61122E+06     1.96588E+06    -17.1626E-03     31.2557E-03    -14.0931E-03     42.6104E-03    -17.1428E-03     31.0992E-03    -14.0472E-03     42.6109E-03
            1951     11.5390E-03     26.3413E-03    -4.17596E+06    -44.8912E+06    -1.40281E+06     1.73168E+06    -16.7488E-03     30.6709E-03    -13.9221E-03     37.7761E-03    -16.7150E-03     30.4670E-03    -13.8579E-03     37.7794E-03
            1952     10.6534E-03     26.3065E-03    -5.28664E+06    -45.6978E+06     1.40932E+06     1.39016E+06    -16.2513E-03     30.0003E-03    -13.7490E-03     33.4709E-03    -16.2213E-03     29.7853E-03    -13.6680E-03     33.4746E-03
            1953     9.76745E-03     26.2757E-03    -5.80403E+06    -47.6665E+06     1.86127E+06     1.06742E+06    -15.7401E-03     29.3097E-03    -13.5695E-03     29.1932E-03    -15.7077E-03     29.0820E-03    -13.4827E-03     29.1963E-03
            1954     8.88102E-03     26.2488E-03    -6.40537E+06    -48.6352E+06     3.24634E+06     1.03393E+06    -15.2529E-03     28.6528E-03    -13.4000E-03     25.2933E-03    -15.2223E-03     28.4175E-03    -13.3039E-03     25.2986E-03
            1955     7.99436E-03     26.2253E-03    -7.69052E+06    -51.5186E+06     2.19180E+06     951.532E+03    -14.7780E-03     28.0082E-03    -13.2302E-03     21.6740E-03    -14.7470E-03     27.7606E-03    -13.1334E-03     21.6803E-03
            1956     7.10727E-03     26.2052E-03    -9.68473E+06    -56.9447E+06     979.743E+03     859.417E+03    -14.2957E-03     27.3725E-03    -13.0768E-03     18.3481E-03    -14.2644E-03     27.1018E-03    -12.9753E-03     18.3546E-03
            1957     6.21967E-03     26.1882E-03    -11.5007E+06    -57.4350E+06    -610.961E+03     903.274E+03    -13.8430E-03     26.7742E-03    -12.9312E-03     15.4100E-03    -13.8173E-03     26.5055E-03    -12.8343E-03     15.4181E-03
            1958     5.33183E-03     26.1739E-03    -13.0172E+06    -59.7314E+06    -4.57386E+06     422.175E+03    -13.4567E-03     26.2514E-03    -12.7947E-03     12.7471E-03    -13.4291E-03     25.9788E-03    -12.7121E-03     12.7499E-03
            1959     4.44364E-03     26.1620E-03    -14.4572E+06    -64.4578E+06    -8.14109E+06     67.2531E+03    -13.1263E-03     25.8102E-03    -12.6839E-03     10.2808E-03    -13.0937E-03     25.5211E-03    -12.6102E-03     10.2797E-03
            1960     3.55521E-03     26.1527E-03    -15.7701E+06    -67.8355E+06    -11.1853E+06     147.097E+03    -12.8687E-03     25.4625E-03    -12.5937E-03     8.02623E-03    -12.8332E-03     25.1626E-03    -12.5284E-03     8.02668E-03
            1961     2.66656E-03     26.1455E-03    -16.8427E+06    -70.4139E+06    -13.9153E+06     197.362E+03    -12.6801E-03     25.2013E-03    -12.5212E-03     5.93619E-03    -12.6422E-03     24.8940E-03    -12.4642E-03     5.93772E-03
            1962     1.77782E-03     26.1404E-03    -17.4348E+06    -72.4865E+06    -16.1393E+06     362.464E+03    -12.5305E-03     24.9999E-03    -12.4694E-03     3.95391E-03    -12.4894E-03     24.6864E-03    -12.4197E-03     3.95795E-03
            1963     888.843E-06     26.1372E-03    -17.5995E+06    -74.8783E+06    -17.3588E+06     127.114E+03    -12.4539E-03     24.9009E-03    -12.4470E-03     2.17068E-03    -12.4083E-03     24.5778E-03    -12.3997E-03     2.17199E-03
            1964     16.8454E-03     25.6817E-03    -3.39075E+06     109.221E+06     48.0316E+06     825.361E+03    -18.2261E-03     33.1604E-03    -14.9343E-03     48.4021E-03    -18.6133E-03     33.7840E-03    -14.8476E-03     48.4384E-03
            1965     15.9645E-03     25.6109E-03    -6.11870E+06     97.6693E+06     17.2190E+06     336.356E+03    -18.8299E-03     33.4632E-03    -14.6333E-03     70.8247E-03    -19.2152E-03     34.1235E-03    -14.6799E-03     70.8243E-03
            1966     15.0801E-03     25.5476E-03    -6.17303E+06     52.3580E+06    -6.95282E+06    -434.321E+03    -18.3801E-03     32.7777E-03    -14.3976E-03     61.5317E-03    -18.5798E-03     33.1615E-03    -14.4993E-03     61.4868E-03
            1967     14.1953E-03     25.4937E-03    -5.31998E+06    -1.45917E+06    -12.9753E+06     89.0719E+03    -18.0363E-03     32.2947E-03    -14.2584E-03     53.5007E-03    -18.0967E-03     32.3686E-03    -14.3134E-03     53.4634E-03
            1968     13.3106E-03     25.4454E-03    -5.12353E+06    -26.8635E+06    -8.38913E+06     289.474E+03    -17.7187E-03     31.8409E-03    -14.1222E-03     47.4800E-03    -17.7250E-03     31.7580E-03    -14.1178E-03     47.4520E-03
            1969     12.4260E-03     25.4022E-03    -5.20678E+06    -37.9960E+06    -3.94860E+06     1.09217E+06    -17.2753E-03     31.2321E-03    -13.9569E-03     41.8997E-03    -17.2598E-03     31.0747E-03    -13.9140E-03     41.8891E-03
            1970     11.5407E-03     25.3642E-03    -4.41474E+06    -44.3687E+06    -802.447E+03     1.96271E+06    -16.7961E-03     30.5698E-03    -13.7737E-03     37.0460E-03    -16.7647E-03     30.3675E-03    -13.7069E-03     37.0526E-03
            1971     10.6553E-03     25.3299E-03    -4.31667E+06    -44.8978E+06     2.15825E+06     1.40430E+06    -16.2842E-03     29.8664E-03    -13.5822E-03     32.7165E-03    -16.2513E-03     29.6526E-03    -13.5000E-03     32.7208E-03
            1972     9.76927E-03     25.2999E-03    -4.93330E+06    -47.4502E+06     1.64066E+06     1.00081E+06    -15.7660E-03     29.1461E-03    -13.3801E-03     28.4076E-03    -15.7290E-03     28.9184E-03    -13.2959E-03     28.4101E-03
            1973     8.88299E-03     25.2734E-03    -5.86058E+06    -48.7866E+06     3.19381E+06     1.14043E+06    -15.2116E-03     28.4055E-03    -13.1939E-03     24.5289E-03    -15.1778E-03     28.1685E-03    -13.0987E-03     24.5359E-03
            1974     7.99617E-03     25.2507E-03    -7.40559E+06    -51.5638E+06     3.28567E+06     1.70394E+06    -14.6415E-03     27.6581E-03    -13.0165E-03     20.9263E-03    -14.6106E-03     27.4082E-03    -12.9146E-03     20.9425E-03
            1975     7.10882E-03     25.2312E-03    -9.34341E+06    -56.2997E+06     1.81454E+06     1.65047E+06    -14.1260E-03     26.9777E-03    -12.8517E-03     17.6605E-03    -14.0950E-03     26.7084E-03    -12.7474E-03     17.6774E-03
            1976     6.22118E-03     25.2147E-03    -10.9853E+06    -56.8607E+06    -838.221E+03     793.030E+03    -13.6725E-03     26.3641E-03    -12.6916E-03     14.7649E-03    -13.6446E-03     26.0977E-03    -12.5974E-03     14.7718E-03
            1977     5.33315E-03     25.2009E-03    -12.2876E+06    -59.2437E+06    -4.14141E+06     496.587E+03    -13.2523E-03     25.8020E-03    -12.5498E-03     12.1643E-03    -13.2223E-03     25.5302E-03    -12.4668E-03     12.1682E-03
            1978     4.44478E-03     25.1896E-03    -13.9215E+06    -64.3718E+06    -7.69198E+06     480.763E+03    -12.8973E-03     25.3314E-03    -12.4341E-03     9.82498E-03    -12.8627E-03     25.0412E-03    -12.3590E-03     9.82931E-03
            1979     3.55610E-03     25.1805E-03    -15.4887E+06    -67.6442E+06    -10.8819E+06     275.795E+03    -12.6333E-03     24.9718E-03    -12.3385E-03     7.67795E-03    -12.5971E-03     24.6721E-03    -12.2724E-03     7.68015E-03
            1980     2.66728E-03     25.1736E-03    -16.5430E+06    -70.3975E+06    -13.8702E+06     124.829E+03    -12.4370E-03     24.6962E-03    -12.2592E-03     5.65179E-03    -12.3977E-03     24.3885E-03    -12.2025E-03     5.65244E-03
            1981     1.77827E-03     25.1686E-03    -17.2525E+06    -72.4214E+06    -16.1235E+06     108.686E+03    -12.2873E-03     24.4845E-03    -12.1972E-03     3.74340E-03    -12.2453E-03     24.1710E-03    -12.1478E-03     3.74419E-03
            1982     889.213E-06     25.1657E-03    -17.5763E+06    -74.4963E+06    -17.5727E+06     259.219E+03    -12.1760E-03     24.3411E-03    -12.1651E-03     2.05129E-03    -12.1305E-03     24.0202E-03    -12.1194E-03     2.05432E-03
            1983     16.8500E-03     24.7007E-03    -2.66813E+06     109.276E+06     47.1083E+06     575.707E+03    -18.7528E-03     33.6432E-03    -14.8905E-03     47.1858E-03    -19.1320E-03     34.2643E-03    -14.8095E-03     47.2146E-03
            1984     15.9645E-03     24.6303E-03    -3.11752E+06     98.7934E+06     16.5773E+06     446.228E+03    -19.0403E-03     33.6028E-03    -14.5624E-03     69.8090E-03    -19.4070E-03     34.2610E-03    -14.6183E-03     69.8073E-03
            1985     15.0809E-03     24.5688E-03    -4.43898E+06     52.2907E+06    -7.55297E+06     420.738E+03    -18.5928E-03     32.9067E-03    -14.3139E-03     61.1089E-03    -18.7807E-03     33.2864E-03    -14.4211E-03     61.0741E-03
            1986     14.1967E-03     24.5148E-03    -5.36844E+06    -1.56740E+06    -13.5152E+06     338.166E+03    -18.2679E-03     32.4265E-03    -14.1586E-03     53.1412E-03    -18.3265E-03     32.4997E-03    -14.2161E-03     53.1067E-03
            1987     13.3126E-03     24.4672E-03    -5.29712E+06    -27.0765E+06    -9.82796E+06     665.881E+03    -17.8926E-03     31.8904E-03    -13.9978E-03     46.9766E-03    -17.8965E-03     31.8079E-03    -14.0000E-03     46.9536E-03
            1988     12.4276E-03     24.4245E-03    -5.27792E+06    -38.8446E+06    -5.42876E+06     932.308E+03    -17.4128E-03     31.2256E-03    -13.8129E-03     41.2712E-03    -17.3937E-03     31.0657E-03    -13.7760E-03     41.2588E-03
            1989     11.5426E-03     24.3871E-03    -5.51383E+06    -44.4732E+06    -2.24336E+06     1.11978E+06    -16.8664E-03     30.4772E-03    -13.6107E-03     36.3140E-03    -16.8378E-03     30.2776E-03    -13.5495E-03     36.3100E-03
            1990     10.6570E-03     24.3535E-03    -5.69484E+06    -44.2064E+06     1.29956E+06     1.38256E+06    -16.3112E-03     29.7140E-03    -13.4028E-03     31.9277E-03    -16.2846E-03     29.5065E-03    -13.3239E-03     31.9320E-03
            1991     9.77123E-03     24.3240E-03    -6.60063E+06    -47.4259E+06     1.02600E+06     1.33284E+06    -15.7417E-03     28.9272E-03    -13.1855E-03     27.5977E-03    -15.7120E-03     28.7027E-03    -13.1020E-03     27.6048E-03
            1992     8.88482E-03     24.2985E-03    -8.00154E+06    -48.7897E+06     1.99951E+06     1.45096E+06    -15.1132E-03     28.0953E-03    -12.9821E-03     23.7709E-03    -15.0882E-03     27.8630E-03    -12.8898E-03     23.7822E-03
            1993     7.99787E-03     24.2764E-03    -8.89178E+06    -51.9059E+06     2.21446E+06     1.54566E+06    -14.5290E-03     27.3207E-03    -12.7917E-03     20.1729E-03    -14.5033E-03     27.0727E-03    -12.6925E-03     20.1872E-03
            1994     7.11055E-03     24.2576E-03    -9.29737E+06    -55.4482E+06     1.70463E+06     1.54481E+06    -13.9923E-03     26.6064E-03    -12.6141E-03     16.9259E-03    -13.9621E-03     26.3414E-03    -12.5117E-03     16.9415E-03
            1995     6.22274E-03     24.2416E-03    -10.4534E+06    -55.7585E+06    -837.754E+03     933.235E+03    -13.4724E-03     25.9154E-03    -12.4430E-03     14.1026E-03    -13.4434E-03     25.6538E-03    -12.3512E-03     14.1114E-03
            1996     5.33451E-03     24.2284E-03    -12.1378E+06    -59.4589E+06    -4.11943E+06     621.149E+03    -13.0293E-03     25.3268E-03    -12.2976E-03     11.5901E-03    -12.9983E-03     25.0536E-03    -12.2143E-03     11.5957E-03
            1997     4.44589E-03     24.2176E-03    -13.4597E+06    -63.9936E+06    -7.33475E+06     771.120E+03    -12.6830E-03     24.8579E-03    -12.1749E-03     9.34663E-03    -12.6472E-03     24.5684E-03    -12.0993E-03     9.35479E-03
            1998     3.55708E-03     24.2088E-03    -14.7191E+06    -67.2646E+06    -10.4770E+06     503.754E+03    -12.4008E-03     24.4709E-03    -12.0701E-03     7.27946E-03    -12.3619E-03     24.1713E-03    -12.0036E-03     7.28466E-03
            1999     2.66800E-03     24.2022E-03    -15.9600E+06    -70.1925E+06    -13.3872E+06     263.410E+03    -12.1718E-03     24.1577E-03    -11.9859E-03     5.34500E-03    -12.1305E-03     23.8494E-03    -11.9279E-03     5.34749E-03
            2000     1.77878E-03     24.1975E-03    -16.9835E+06    -72.4223E+06    -15.6717E+06     251.580E+03    -12.0164E-03     23.9380E-03    -11.9216E-03     3.56632E-03    -11.9738E-03     23.6235E-03    -11.8703E-03     3.56899E-03
            2001     889.446E-06     24.1946E-03    -17.8015E+06    -74.1420E+06    -17.0916E+06     320.244E+03    -11.9162E-03     23.7827E-03    -11.8665E-03     1.92261E-03    -11.8730E-03     23.4631E-03    -11.8186E-03     1.92643E-03
            2002     16.8489E-03     23.7202E-03    -2.75222E+06     108.564E+06     45.9811E+06    -211.197E+03    -19.0667E-03     33.9170E-03    -14.8502E-03     47.9084E-03    -19.4424E-03     34.5350E-03    -14.7738E-03     47.9233E-03
            2003     15.9662E-03     23.6509E-03    -4.36299E+06     98.2601E+06     16.4440E+06     537.354E+03    -19.2434E-03     33.7561E-03    -14.5127E-03     69.6856E-03    -19.6122E-03     34.4106E-03    -14.5666E-03     69.6819E-03
            2004     15.0820E-03     23.5890E-03    -4.98762E+06     52.1498E+06    -4.89451E+06     1.42056E+06    -18.8804E-03     33.1386E-03    -14.2582E-03     60.4742E-03    -19.0729E-03     33.5127E-03    -14.3510E-03     60.4507E-03
            2005     14.1982E-03     23.5361E-03    -5.71030E+06    -1.40871E+06    -10.5244E+06     1.89688E+06    -18.5364E-03     32.6170E-03    -14.0807E-03     52.4961E-03    -18.6003E-03     32.6862E-03    -14.1230E-03     52.4809E-03
            2006     13.3136E-03     23.4888E-03    -6.99720E+06    -26.2339E+06    -8.48368E+06     922.205E+03    -18.0893E-03     31.9787E-03    -13.8894E-03     46.3279E-03    -18.1041E-03     31.9002E-03    -13.8836E-03     46.3082E-03
            2007     12.4294E-03     23.4468E-03    -6.64764E+06    -39.2238E+06    -5.81858E+06     336.510E+03    -17.5830E-03     31.2570E-03    -13.6740E-03     40.4672E-03    -17.5691E-03     31.0971E-03    -13.6366E-03     40.4472E-03
            2008     11.5444E-03     23.4102E-03    -6.04321E+06    -44.8374E+06    -2.47544E+06     908.995E+03    -16.9790E-03     30.4274E-03    -13.4484E-03     35.4560E-03    -16.9518E-03     30.2267E-03    -13.3870E-03     35.4496E-03
            2009     10.6592E-03     23.3771E-03    -6.31651E+06    -44.2026E+06     556.253E+03     1.13794E+06    -16.3241E-03     29.5416E-03    -13.2175E-03     31.0996E-03    -16.2993E-03     29.3358E-03    -13.1414E-03     31.1011E-03
            2010     9.77313E-03     23.3486E-03    -6.73818E+06    -47.5505E+06     1.39896E+06     1.57494E+06    -15.6767E-03     28.6666E-03    -12.9899E-03     26.7178E-03    -15.6478E-03     28.4409E-03    -12.9042E-03     26.7283E-03
            2011     8.88665E-03     23.3238E-03    -7.32677E+06    -48.3658E+06     2.84418E+06     1.52035E+06    -15.0387E-03     27.8117E-03    -12.7730E-03     22.8794E-03    -15.0120E-03     27.5791E-03    -12.6780E-03     22.8918E-03
            2012     7.99972E-03     23.3024E-03    -8.24387E+06    -51.6949E+06     2.12294E+06     1.11883E+06    -14.4350E-03     26.9983E-03    -12.5632E-03     19.3433E-03    -14.4061E-03     26.7504E-03    -12.4657E-03     19.3523E-03
            2013     7.11230E-03     23.2843E-03    -9.49823E+06    -55.2007E+06     1.07532E+06     1.00156E+06    -13.8262E-03     26.1976E-03    -12.3714E-03     16.1782E-03    -13.7963E-03     25.9349E-03    -12.2722E-03     16.1871E-03
            2014     6.22430E-03     23.2691E-03    -10.6730E+06    -54.9550E+06    -991.180E+03     1.00053E+06    -13.2632E-03     25.4570E-03    -12.1938E-03     13.4643E-03    -13.2362E-03     25.1999E-03    -12.1036E-03     13.4741E-03
            2015     5.33584E-03     23.2564E-03    -11.9258E+06    -59.4711E+06    -4.30148E+06     833.494E+03    -12.8369E-03     24.8769E-03    -12.0400E-03     11.0316E-03    -12.8045E-03     24.6036E-03    -11.9580E-03     11.0401E-03
            2016     4.44714E-03     23.2460E-03    -13.3810E+06    -63.8666E+06    -7.30472E+06     861.748E+03    -12.4723E-03     24.3794E-03    -11.9070E-03     8.85075E-03    -12.4364E-03     24.0903E-03    -11.8315E-03     8.86015E-03
            2017     3.55808E-03     23.2376E-03    -14.7699E+06    -66.7196E+06    -10.8508E+06     881.529E+03    -12.1467E-03     23.9375E-03    -11.7907E-03     6.87698E-03    -12.1083E-03     23.6412E-03    -11.7268E-03     6.88711E-03
            2018     2.66878E-03     23.2313E-03    -15.9506E+06    -69.8242E+06    -13.9748E+06     585.499E+03    -11.8989E-03     23.6000E-03    -11.7011E-03     5.05143E-03    -11.8573E-03     23.2944E-03    -11.6466E-03     5.05811E-03
            2019     1.77927E-03     23.2268E-03    -16.6386E+06    -72.1926E+06    -15.7473E+06     342.832E+03    -11.7270E-03     23.3671E-03    -11.6402E-03     3.36077E-03    -11.6828E-03     23.0533E-03    -11.5901E-03     3.36464E-03
            2020     889.628E-06     23.2241E-03    -16.7679E+06    -73.7222E+06    -16.5831E+06     82.6642E+03    -11.6304E-03     23.2315E-03    -11.6011E-03     1.78141E-03    -11.5834E-03     22.9118E-03    -11.5528E-03     1.78219E-03
            2021     16.8491E-03     22.7386E-03    -3.43131E+06     107.657E+06     46.0288E+06    -230.056E+03    -19.4903E-03     34.3300E-03    -14.8397E-03     46.8822E-03    -19.8649E-03     34.9412E-03    -14.7607E-03     46.8920E-03
            2022     15.9660E-03     22.6702E-03    -5.91178E+06     97.4526E+06     16.7563E+06    -45.7656E+03    -19.6811E-03     34.1592E-03    -14.4782E-03     68.7321E-03    -20.0535E-03     34.8080E-03    -14.5271E-03     68.7164E-03
            2023     15.0831E-03     22.6094E-03    -5.70782E+06     51.3192E+06    -4.08223E+06     1.52025E+06    -19.2575E-03     33.4546E-03    -14.1971E-03     59.8986E-03    -19.4521E-03     33.8230E-03    -14.2837E-03     59.8745E-03
            2024     14.1993E-03     22.5569E-03    -5.06149E+06    -1.30185E+06    -10.1981E+06     2.18781E+06    -18.8736E-03     32.8599E-03    -13.9863E-03     51.7477E-03    -18.9338E-03     32.9271E-03    -14.0281E-03     51.7355E-03
            2025     13.3158E-03     22.5104E-03    -3.59111E+06    -23.9247E+06    -6.28071E+06     1.17290E+06    -18.3468E-03     32.1172E-03    -13.7704E-03     45.4385E-03    -18.3503E-03     32.0413E-03    -13.7619E-03     45.4218E-03
            2026     12.4311E-03     22.4690E-03    -3.62266E+06    -39.7467E+06    -4.72881E+06     246.953E+03    -17.7401E-03     31.2703E-03    -13.5302E-03     39.5702E-03    -17.7112E-03     31.1012E-03    -13.4910E-03     39.5493E-03
            2027     11.5465E-03     22.4332E-03    -4.08874E+06    -45.4565E+06    -1.70998E+06     811.692E+03    -17.0782E-03     30.3615E-03    -13.2833E-03     34.5244E-03    -17.0409E-03     30.1534E-03    -13.2200E-03     34.5169E-03
            2028     10.6610E-03     22.4011E-03    -4.54656E+06    -44.1768E+06     1.56617E+06     1.30134E+06    -16.3443E-03     29.3780E-03    -13.0337E-03     30.1514E-03    -16.3118E-03     29.1680E-03    -12.9552E-03     30.1553E-03
            2029     9.77511E-03     22.3733E-03    -5.21231E+06    -47.8116E+06     1.97676E+06     1.34452E+06    -15.6504E-03     28.4379E-03    -12.7875E-03     25.7659E-03    -15.6141E-03     28.2077E-03    -12.7007E-03     25.7738E-03
            2030     8.88867E-03     22.3493E-03    -5.93339E+06    -47.8930E+06     3.76215E+06     1.47595E+06    -14.9528E-03     27.5091E-03    -12.5562E-03     21.9462E-03    -14.9211E-03     27.2754E-03    -12.4594E-03     21.9583E-03
            2031     8.00161E-03     22.3287E-03    -7.23972E+06    -51.2484E+06     2.70306E+06     1.35757E+06    -14.2647E-03     26.5997E-03    -12.3350E-03     18.5007E-03    -14.2322E-03     26.3517E-03    -12.2366E-03     18.5131E-03
            2032     7.11395E-03     22.3114E-03    -8.77703E+06    -54.9503E+06     1.21872E+06     1.15858E+06    -13.6438E-03     25.7785E-03    -12.1346E-03     15.4273E-03    -13.6109E-03     25.5157E-03    -12.0361E-03     15.4383E-03
            2033     6.22578E-03     22.2969E-03    -10.3262E+06    -54.6965E+06    -1.30129E+06     955.034E+03    -13.1035E-03     25.0488E-03    -11.9454E-03     12.7939E-03    -13.0746E-03     24.7929E-03    -11.8576E-03     12.8033E-03
            2034     5.33726E-03     22.2848E-03    -11.6675E+06    -59.2488E+06    -4.74893E+06     977.434E+03    -12.6416E-03     24.4210E-03    -11.7794E-03     10.4533E-03    -12.6075E-03     24.1490E-03    -11.7004E-03     10.4637E-03
            2035     4.44833E-03     22.2749E-03    -13.0923E+06    -64.0083E+06    -7.37080E+06     1.26597E+06    -12.2343E-03     23.8750E-03    -11.6407E-03     8.37334E-03    -12.1965E-03     23.5849E-03    -11.5658E-03     8.38804E-03
            2036     3.55905E-03     22.2670E-03    -14.7521E+06    -66.1859E+06    -10.8155E+06     1.45208E+06    -11.8913E-03     23.4107E-03    -11.5194E-03     6.50608E-03    -11.8536E-03     23.1170E-03    -11.4561E-03     6.52364E-03
            2037     2.66950E-03     22.2610E-03    -16.1646E+06    -68.9793E+06    -14.3572E+06     1.06478E+06    -11.6373E-03     23.0599E-03    -11.4227E-03     4.78282E-03    -11.5974E-03     22.7594E-03    -11.3710E-03     4.79574E-03
            2038     1.77980E-03     22.2568E-03    -17.1920E+06    -71.7506E+06    -16.5393E+06     610.232E+03    -11.4536E-03     22.8091E-03    -11.3555E-03     3.16809E-03    -11.4117E-03     22.4995E-03    -11.3092E-03     3.17544E-03
            2039     889.972E-06     22.2541E-03    -18.0535E+06    -73.1292E+06    -18.0563E+06     469.712E+03    -11.3110E-03     22.6531E-03    -11.3422E-03     1.69769E-03    -11.2691E-03     22.3404E-03    -11.3002E-03     1.70347E-03
            2040     16.8506E-03     21.7579E-03    -2.05683E+06     108.685E+06     47.7957E+06     705.668E+03    -19.9384E-03     34.7629E-03    -14.8245E-03     46.1040E-03    -20.3069E-03     35.3713E-03    -14.7401E-03     46.1218E-03
            2041     15.9674E-03     21.6894E-03    -5.25225E+06     97.0011E+06     17.7469E+06     1.24350E+06    -20.0062E-03     34.4454E-03    -14.4392E-03     68.1215E-03    -20.3728E-03     35.0862E-03    -14.4835E-03     68.1187E-03
            2042     15.0839E-03     21.6294E-03    -7.15474E+06     50.2177E+06    -5.68801E+06     502.583E+03    -19.6870E-03     33.8101E-03    -14.1231E-03     58.9551E-03    -19.8830E-03     34.1755E-03    -14.2140E-03     58.9156E-03
            2043     14.2010E-03     21.5774E-03    -4.80500E+06    -317.691E+03    -12.9873E+06    -16.3468E+03    -19.2191E-03     33.0900E-03    -13.8710E-03     50.8933E-03    -19.2740E-03     33.1644E-03    -13.9285E-03     50.8521E-03
            2044     13.3170E-03     21.5318E-03    -2.75683E+06    -24.0876E+06    -8.37472E+06     316.351E+03    -18.5906E-03     32.2228E-03    -13.6322E-03     44.5181E-03    -18.5858E-03     32.1470E-03    -13.6351E-03     44.4904E-03
            2045     12.4331E-03     21.4913E-03    -2.46222E+06    -39.5628E+06    -4.30203E+06     1.35342E+06    -17.8799E-03     31.2601E-03    -13.3801E-03     38.5971E-03    -17.8455E-03     31.0889E-03    -13.3407E-03     38.5907E-03
            2046     11.5483E-03     21.4563E-03    -3.30762E+06    -45.7848E+06    -1.34287E+06     1.18512E+06    -17.1495E-03     30.2631E-03    -13.1136E-03     33.5120E-03    -17.1079E-03     30.0512E-03    -13.0492E-03     33.5098E-03
            2047     10.6632E-03     21.4251E-03    -3.81498E+06    -44.3627E+06     2.00153E+06     1.33175E+06    -16.3753E-03     29.2200E-03    -12.8446E-03     29.0777E-03    -16.3392E-03     29.0070E-03    -12.7648E-03     29.0822E-03
            2048     9.77721E-03     21.3982E-03    -4.46997E+06    -47.7352E+06     1.79439E+06     1.65562E+06    -15.5783E-03     28.1571E-03    -12.5788E-03     24.7954E-03    -15.5379E-03     27.9262E-03    -12.4941E-03     24.8075E-03
            2049     8.89065E-03     21.3751E-03    -5.71386E+06    -47.7181E+06     3.14367E+06     1.63439E+06    -14.7990E-03     27.1350E-03    -12.3359E-03     21.0789E-03    -14.7654E-03     26.9025E-03    -12.2427E-03     21.0933E-03
            2050     8.00338E-03     21.3555E-03    -6.75835E+06    -50.7791E+06     2.65272E+06     1.52966E+06    -14.0995E-03     26.2091E-03    -12.1096E-03     17.6769E-03    -14.0651E-03     25.9627E-03    -12.0129E-03     17.6917E-03
            2051     7.11556E-03     21.3390E-03    -7.77580E+06    -54.6556E+06     1.31099E+06     1.36788E+06    -13.4940E-03     25.3947E-03    -11.9007E-03     14.6683E-03    -13.4566E-03     25.1318E-03    -11.8036E-03     14.6822E-03
            2052     6.22737E-03     21.3251E-03    -9.24459E+06    -54.5954E+06    -1.25662E+06     1.50889E+06    -12.9279E-03     24.6293E-03    -11.7014E-03     12.1026E-03    -12.8938E-03     24.3722E-03    -11.6151E-03     12.1193E-03
            2053     5.33864E-03     21.3136E-03    -11.4053E+06    -59.1299E+06    -4.93458E+06     1.71276E+06    -12.4081E-03     23.9376E-03    -11.5294E-03     9.89681E-03    -12.3727E-03     23.6660E-03    -11.4518E-03     9.91682E-03
            2054     4.44945E-03     21.3043E-03    -13.3808E+06    -63.9149E+06    -8.09684E+06     1.80334E+06    -11.9830E-03     23.3704E-03    -11.3873E-03     7.94773E-03    -11.9458E-03     23.0822E-03    -11.3157E-03     7.96946E-03
            2055     3.55996E-03     21.2968E-03    -14.7019E+06    -65.6929E+06    -10.7533E+06     1.85752E+06    -11.6475E-03     22.9151E-03    -11.2677E-03     6.17243E-03    -11.6103E-03     22.6238E-03    -11.2049E-03     6.19528E-03
            2056     2.67022E-03     21.2912E-03    -15.9752E+06    -67.9159E+06    -13.7576E+06     1.78584E+06    -11.3839E-03     22.5552E-03    -11.1713E-03     4.55028E-03    -11.3455E-03     22.2589E-03    -11.1185E-03     4.57255E-03
            2057     1.78026E-03     21.2872E-03    -17.3454E+06    -70.8739E+06    -16.4628E+06     1.42536E+06    -11.1955E-03     22.2986E-03    -11.1031E-03     3.01899E-03    -11.1557E-03     21.9935E-03    -11.0575E-03     3.03689E-03
            2058     890.113E-06     21.2848E-03    -18.2777E+06    -71.8611E+06    -17.9738E+06     957.568E+03    -11.0811E-03     22.1475E-03    -11.0665E-03     1.64017E-03    -11.0423E-03     21.8414E-03    -11.0256E-03     1.65227E-03
            2059     16.8493E-03     20.7759E-03    -3.46941E+06     107.343E+06     47.4820E+06     179.607E+03    -20.4007E-03     35.2160E-03    -14.8153E-03     45.5692E-03    -20.7722E-03     35.8186E-03    -14.7285E-03     45.5745E-03
            2060     15.9674E-03     20.7084E-03    -3.86912E+06     97.3175E+06     17.9265E+06     1.19492E+06    -20.6780E-03     35.0709E-03    -14.3929E-03     67.2544E-03    -21.0355E-03     35.7082E-03    -14.4388E-03     67.2450E-03
            2061     15.0854E-03     20.6487E-03    -2.86889E+06     51.9017E+06    -5.65725E+06     431.807E+03    -20.0847E-03     34.1199E-03    -14.0352E-03     57.8730E-03    -20.2590E-03     34.4847E-03    -14.1346E-03     57.8307E-03
            2062     14.2023E-03     20.5979E-03    -3.63070E+06    -133.560E+03    -13.5010E+06    -634.254E+03    -19.4913E-03     33.2517E-03    -13.7604E-03     49.8897E-03    -19.5382E-03     33.3245E-03    -13.8225E-03     49.8401E-03
            2063     13.3191E-03     20.5529E-03    -4.21171E+06    -25.7760E+06    -9.34102E+06     397.815E+03    -18.7961E-03     32.2976E-03    -13.5015E-03     43.4142E-03    -18.7937E-03     32.2158E-03    -13.5047E-03     43.3875E-03
            2064     12.4350E-03     20.5136E-03    -4.38679E+06    -39.9542E+06    -4.58858E+06     1.49400E+06    -17.9854E-03     31.2148E-03    -13.2294E-03     37.5002E-03    -17.9589E-03     31.0442E-03    -13.1880E-03     37.4959E-03
            2065     11.5505E-03     20.4794E-03    -4.00183E+06    -44.7770E+06    -2.14471E+06     1.35710E+06    -17.1832E-03     30.1208E-03    -12.9376E-03     32.5484E-03    -17.1449E-03     29.9156E-03    -12.8776E-03     32.5488E-03
            2066     10.6652E-03     20.4492E-03    -4.11103E+06    -45.1366E+06     745.130E+03     1.16476E+06    -16.3456E-03     28.9983E-03    -12.6527E-03     28.0907E-03    -16.3077E-03     28.7834E-03    -12.5775E-03     28.0934E-03
            2067     9.77921E-03     20.4235E-03    -4.56890E+06    -47.7569E+06     1.93510E+06     1.85703E+06    -15.4705E-03     27.8512E-03    -12.3807E-03     23.8553E-03    -15.4306E-03     27.6199E-03    -12.2951E-03     23.8704E-03
            2068     8.89240E-03     20.4013E-03    -5.09229E+06    -47.1734E+06     3.30529E+06     1.78740E+06    -14.6634E-03     26.7908E-03    -12.1275E-03     20.1830E-03    -14.6275E-03     26.5599E-03    -12.0352E-03     20.1996E-03
            2069     8.00509E-03     20.3826E-03    -6.12680E+06    -50.6861E+06     2.84987E+06     1.66426E+06    -13.9694E-03     25.8624E-03    -11.8930E-03     16.8183E-03    -13.9322E-03     25.6152E-03    -11.7963E-03     16.8350E-03
            2070     7.11728E-03     20.3668E-03    -7.68921E+06    -54.2693E+06     910.967E+03     1.76470E+06    -13.3013E-03     24.9754E-03    -11.6741E-03     13.9369E-03    -13.2633E-03     24.7149E-03    -11.5797E-03     13.9561E-03
            2071     6.22879E-03     20.3537E-03    -9.15901E+06    -54.7791E+06    -2.08702E+06     1.92026E+06    -12.6860E-03     24.1583E-03    -11.4724E-03     11.5246E-03    -12.6499E-03     23.9014E-03    -11.3901E-03     11.5467E-03
            2072     5.33981E-03     20.3430E-03    -10.2968E+06    -59.2105E+06    -4.19829E+06     2.59815E+06    -12.1856E-03     23.4934E-03    -11.3078E-03     9.41014E-03    -12.1455E-03     23.2187E-03    -11.2280E-03     9.44168E-03
            2073     4.45046E-03     20.3342E-03    -12.0061E+06    -63.1510E+06    -7.14554E+06     2.73798E+06    -11.7595E-03     22.9251E-03    -11.1656E-03     7.55260E-03    -11.7178E-03     22.6374E-03    -11.0924E-03     7.58648E-03
            2074     3.56075E-03     20.3272E-03    -13.9699E+06    -65.1055E+06    -10.7597E+06     2.43261E+06    -11.4129E-03     22.4575E-03    -11.0446E-03     5.87974E-03    -11.3729E-03     22.1680E-03    -10.9838E-03     5.91008E-03
            2075     2.67078E-03     20.3218E-03    -15.3511E+06    -66.9927E+06    -13.3920E+06     2.39143E+06    -11.1533E-03     22.1075E-03    -10.9542E-03     4.33241E-03    -11.1136E-03     21.8143E-03    -10.9018E-03     4.36254E-03
            2076     1.78060E-03     20.3181E-03    -16.2081E+06    -69.1636E+06    -15.2570E+06     1.97214E+06    -10.9823E-03     21.8732E-03    -10.8909E-03     2.87594E-03    -10.9411E-03     21.5732E-03    -10.8434E-03     2.90093E-03
            2077     890.380E-06     20.3158E-03    -16.6301E+06    -69.9552E+06    -16.4818E+06     1.01830E+06    -10.8991E-03     21.7250E-03    -10.8259E-03     1.55827E-03    -10.8570E-03     21.4238E-03    -10.7828E-03     1.57115E-03
            2078     16.8504E-03     19.7933E-03    -2.87295E+06     107.333E+06     47.0474E+06     336.014E+03    -21.0890E-03     35.8805E-03    -14.7915E-03     44.5908E-03    -21.4534E-03     36.4793E-03    -14.7077E-03     44.5919E-03
            2079     15.9691E-03     19.7262E-03    -5.28609E+06     96.9111E+06     16.8779E+06    -264.440E+03    -21.1568E-03     35.4909E-03    -14.3341E-03     65.8259E-03    -21.5142E-03     36.1247E-03    -14.3825E-03     65.7924E-03
            2080     15.0865E-03     19.6683E-03    -6.62785E+06     52.6009E+06    -4.45969E+06     465.237E+03    -20.3572E-03     34.3185E-03    -13.9613E-03     56.7494E-03    -20.5502E-03     34.6877E-03    -14.0503E-03     56.7061E-03
            2081     14.2040E-03     19.6180E-03    -6.59179E+06     762.265E+03    -12.7817E+06     360.211E+03    -19.6907E-03     33.3506E-03    -13.6600E-03     48.9476E-03    -19.7531E-03     33.4294E-03    -13.7154E-03     48.9107E-03
            2082     13.3207E-03     19.5741E-03    -6.09635E+06    -27.4727E+06    -10.7641E+06     127.629E+03    -18.9594E-03     32.3307E-03    -13.3713E-03     42.4665E-03    -18.9608E-03     32.2442E-03    -13.3765E-03     42.4367E-03
            2083     12.4369E-03     19.5359E-03    -4.94423E+06    -40.2213E+06    -5.34104E+06     917.233E+03    -18.0829E-03     31.1615E-03    -13.0786E-03     36.4696E-03    -18.0570E-03     30.9908E-03    -13.0398E-03     36.4582E-03
            2084     11.5523E-03     19.5027E-03    -4.42941E+06    -44.0394E+06    -3.26028E+06     818.845E+03    -17.1592E-03     29.9271E-03    -12.7679E-03     31.5867E-03    -17.1220E-03     29.7273E-03    -12.7140E-03     31.5807E-03
            2085     10.6670E-03     19.4737E-03    -4.45230E+06    -45.9241E+06     196.724E+03     1.24474E+06    -16.2735E-03     28.7506E-03    -12.4771E-03     27.1003E-03    -16.2350E-03     28.5328E-03    -12.4031E-03     27.1045E-03
            2086     9.78095E-03     19.4490E-03    -4.98767E+06    -47.9413E+06     2.17204E+06     1.71716E+06    -15.4151E-03     27.6121E-03    -12.1970E-03     22.8473E-03    -15.3771E-03     27.3799E-03    -12.1094E-03     22.8609E-03
            2087     8.89427E-03     19.4279E-03    -5.80582E+06    -46.6302E+06     3.20869E+06     1.76801E+06    -14.5520E-03     26.4820E-03    -11.9300E-03     19.2480E-03    -14.5203E-03     26.2548E-03    -11.8379E-03     19.2646E-03
            2088     8.00684E-03     19.4099E-03    -6.80756E+06    -50.7901E+06     2.31588E+06     1.88573E+06    -13.7568E-03     25.4462E-03    -11.6894E-03     16.0489E-03    -13.7219E-03     25.2001E-03    -11.5943E-03     16.0687E-03
            2089     7.11870E-03     19.3952E-03    -7.97509E+06    -54.0504E+06     669.955E+03     2.19800E+06    -13.0560E-03     24.5295E-03    -11.4735E-03     13.2937E-03    -13.0193E-03     24.2707E-03    -11.3803E-03     13.3187E-03
            2090     6.22996E-03     19.3829E-03    -9.43482E+06    -54.7903E+06    -2.63159E+06     2.39142E+06    -12.4623E-03     23.7373E-03    -11.2749E-03     10.9930E-03    -12.4268E-03     23.4814E-03    -11.1950E-03     11.0213E-03
            2091     5.34085E-03     19.3726E-03    -10.7717E+06    -59.4461E+06    -5.31697E+06     2.70603E+06    -11.9806E-03     23.0914E-03    -11.1107E-03     8.94494E-03    -11.9409E-03     22.8178E-03    -11.0355E-03     8.97797E-03
            2092     4.45131E-03     19.3644E-03    -11.5825E+06    -62.5058E+06    -6.97624E+06     3.30817E+06    -11.5589E-03     22.5331E-03    -10.9742E-03     7.16087E-03    -11.5163E-03     22.2477E-03    -10.9017E-03     7.20217E-03
            2093     3.56142E-03     19.3579E-03    -12.7070E+06    -64.0294E+06    -9.81242E+06     3.40726E+06    -11.2138E-03     22.0717E-03    -10.8579E-03     5.57358E-03    -11.1704E-03     21.7844E-03    -10.7957E-03     5.61654E-03
            2094     2.67125E-03     19.3529E-03    -14.0294E+06    -65.6375E+06    -12.3647E+06     2.85023E+06    -10.9634E-03     21.7337E-03    -10.7703E-03     4.09888E-03    -10.9205E-03     21.4439E-03    -10.7166E-03     4.13497E-03
            2095     1.78096E-03     19.3493E-03    -14.9435E+06    -67.1370E+06    -13.8546E+06     2.16053E+06    -10.7972E-03     21.5072E-03    -10.7100E-03     2.74656E-03    -10.7546E-03     21.2135E-03    -10.6603E-03     2.77399E-03
            2096     890.492E-06     19.3472E-03    -15.6039E+06    -67.6284E+06    -15.4410E+06     1.33574E+06    -10.7019E-03     21.3608E-03    -10.6589E-03     1.47199E-03    -10.6596E-03     21.0682E-03    -10.6154E-03     1.48898E-03
            2097     16.8509E-03     18.8092E-03    -2.91000E+06     107.103E+06     47.6550E+06     290.969E+03    -21.6352E-03     36.4012E-03    -14.7659E-03     44.0665E-03    -21.9967E-03     36.9943E-03    -14.6787E-03     44.0621E-03
            2098     15.9695E-03     18.7447E-03    -4.73037E+06     96.5281E+06     16.8986E+06     777.929E+03    -21.4963E-03     35.7743E-03    -14.2781E-03     64.8836E-03    -21.8452E-03     36.4002E-03    -14.3267E-03     64.8597E-03
            2099     15.0879E-03     18.6869E-03    -4.93583E+06     52.8647E+06    -6.60878E+06     226.827E+03    -20.7143E-03     34.5813E-03    -13.8670E-03     55.6513E-03    -20.8929E-03     34.9493E-03    -13.9696E-03     55.6036E-03
            2100     14.2054E-03     18.6385E-03    -3.81304E+06     1.08289E+06    -14.0804E+06     28.0306E+03    -19.9176E-03     33.4620E-03    -13.5443E-03     47.8063E-03    -19.9628E-03     33.5383E-03    -13.6108E-03     47.7651E-03
            2101     13.3223E-03     18.5950E-03    -3.50284E+06    -28.2359E+06    -9.19100E+06     804.114E+03    -19.0664E-03     32.3196E-03    -13.2532E-03     41.2824E-03    -19.0549E-03     32.2221E-03    -13.2531E-03     41.2616E-03
            2102     12.4387E-03     18.5583E-03    -4.65735E+06    -40.0366E+06    -3.96530E+06     754.022E+03    -18.1301E-03     31.0761E-03    -12.9460E-03     35.2989E-03    -18.1043E-03     30.9032E-03    -12.9010E-03     35.2858E-03
            2103     11.5541E-03     18.5263E-03    -5.23167E+06    -44.0696E+06    -2.91128E+06     783.856E+03    -17.1457E-03     29.7643E-03    -12.6186E-03     30.4475E-03    -17.1125E-03     29.5645E-03    -12.5616E-03     30.4414E-03
            2104     10.6687E-03     18.4983E-03    -5.64310E+06    -46.4723E+06     139.616E+03     1.08450E+06    -16.1987E-03     28.5152E-03    -12.3165E-03     26.0442E-03    -16.1650E-03     28.2960E-03    -12.2402E-03     26.0468E-03
            2105     9.78271E-03     18.4746E-03    -5.75084E+06    -47.9707E+06     1.56585E+06     1.36109E+06    -15.3131E-03     27.3370E-03    -12.0240E-03     21.8613E-03    -15.2778E-03     27.1065E-03    -11.9382E-03     21.8706E-03
            2106     8.89590E-03     18.4547E-03    -6.26916E+06    -46.8633E+06     2.80523E+06     1.84121E+06    -14.3776E-03     26.1312E-03    -11.7536E-03     18.3666E-03    -14.3471E-03     25.9039E-03    -11.6625E-03     18.3844E-03
            2107     8.00818E-03     18.4379E-03    -7.47089E+06    -50.3928E+06     1.82464E+06     2.02591E+06    -13.5272E-03     25.0412E-03    -11.5140E-03     15.3361E-03    -13.4954E-03     24.7987E-03    -11.4210E-03     15.3579E-03
            2108     7.11982E-03     18.4239E-03    -8.43350E+06    -54.3161E+06     148.157E+03     2.09479E+06    -12.8572E-03     24.1601E-03    -11.3029E-03     12.6605E-03    -12.8216E-03     23.9013E-03    -11.2112E-03     12.6843E-03
            2109     6.23105E-03     18.4123E-03    -9.22877E+06    -54.8100E+06    -2.49699E+06     2.78710E+06    -12.2813E-03     23.3899E-03    -11.1087E-03     10.4095E-03    -12.2448E-03     23.1334E-03    -11.0283E-03     10.4430E-03
            2110     5.34170E-03     18.4027E-03    -10.4076E+06    -59.1326E+06    -6.16470E+06     3.08302E+06    -11.7891E-03     22.7313E-03    -10.9421E-03     8.47290E-03    -11.7468E-03     22.4600E-03    -10.8721E-03     8.51088E-03
            2111     4.45200E-03     18.3951E-03    -11.6203E+06    -62.4704E+06    -7.85888E+06     3.30537E+06    -11.3904E-03     22.2000E-03    -10.8096E-03     6.77032E-03    -11.3468E-03     21.9161E-03    -10.7415E-03     6.81164E-03
            2112     3.56197E-03     18.3889E-03    -12.2666E+06    -62.8131E+06    -9.41151E+06     3.70127E+06    -11.0572E-03     21.7548E-03    -10.6976E-03     5.25288E-03    -11.0140E-03     21.4723E-03    -10.6357E-03     5.29969E-03
            2113     2.67172E-03     18.3843E-03    -12.7711E+06    -63.6276E+06    -11.4630E+06     3.25730E+06    -10.7990E-03     21.4097E-03    -10.6107E-03     3.87645E-03    -10.7541E-03     21.1268E-03    -10.5572E-03     3.91782E-03
            2114     1.78120E-03     18.3810E-03    -13.4515E+06    -65.0284E+06    -12.5234E+06     2.35937E+06    -10.6279E-03     21.1855E-03    -10.5576E-03     2.61687E-03    -10.5828E-03     20.8982E-03    -10.5064E-03     2.64689E-03
            2115     890.640E-06     18.3789E-03    -13.7918E+06    -65.0030E+06    -13.4440E+06     1.37932E+06    -10.5383E-03     21.0679E-03    -10.5296E-03     1.39828E-03    -10.4937E-03     20.7830E-03    -10.4825E-03     1.41585E-03
            2116     16.8513E-03     17.8269E-03    -2.49615E+06     106.752E+06     47.1139E+06     421.288E+03    -22.2949E-03     37.0340E-03    -14.7390E-03     42.7614E-03    -22.6479E-03     37.6205E-03    -14.6546E-03     42.7526E-03
            2117     15.9704E-03     17.7612E-03    -4.22425E+06     96.6446E+06     17.1284E+06     569.492E+03    -21.8629E-03     36.0858E-03    -14.2229E-03     63.2647E-03    -22.2034E-03     36.7048E-03    -14.2713E-03     63.2338E-03
            2118     15.0890E-03     17.7063E-03    -5.57664E+06     53.8743E+06    -6.80552E+06     462.622E+03    -20.9674E-03     34.7537E-03    -13.7863E-03     54.2364E-03    -21.1468E-03     35.1244E-03    -13.8904E-03     54.1908E-03
            2119     14.2069E-03     17.6579E-03    -6.73376E+06     501.776E+03    -15.5257E+06     316.304E+03    -20.1149E-03     33.5565E-03    -13.4416E-03     46.6011E-03    -20.1700E-03     33.6345E-03    -13.5102E-03     46.5637E-03
            2120     13.3242E-03     17.6166E-03    -6.57371E+06    -28.5931E+06    -10.3668E+06     638.991E+03    -19.1124E-03     32.2470E-03    -13.1346E-03     40.1421E-03    -19.1127E-03     32.1526E-03    -13.1354E-03     40.1197E-03
            2121     12.4402E-03     17.5804E-03    -5.27133E+06    -39.5933E+06    -4.47079E+06     835.638E+03    -18.1349E-03     30.9487E-03    -12.8139E-03     34.1794E-03    -18.1112E-03     30.7788E-03    -12.7712E-03     34.1680E-03
            2122     11.5558E-03     17.5500E-03    -5.04446E+06    -44.4982E+06    -2.83221E+06     870.650E+03    -17.1469E-03     29.6247E-03    -12.4778E-03     29.1977E-03    -17.1117E-03     29.4219E-03    -12.4201E-03     29.1931E-03
            2123     10.6704E-03     17.5232E-03    -5.09855E+06    -46.2040E+06    -167.954E+03     846.421E+03    -16.0807E-03     28.2450E-03    -12.1643E-03     24.9937E-03    -16.0438E-03     28.0265E-03    -12.0908E-03     24.9936E-03
            2124     9.78419E-03     17.5006E-03    -5.38856E+06    -48.3044E+06     1.61353E+06     844.158E+03    -15.1021E-03     26.9776E-03    -11.8755E-03     20.9540E-03    -15.0643E-03     26.7446E-03    -11.7896E-03     20.9570E-03
            2125     8.89711E-03     17.4818E-03    -5.69810E+06    -47.4907E+06     3.49394E+06     1.50967E+06    -14.2133E-03     25.8249E-03    -11.6116E-03     17.4722E-03    -14.1799E-03     25.5926E-03    -11.5170E-03     17.4859E-03
            2126     8.00931E-03     17.4661E-03    -6.03097E+06    -50.0677E+06     2.96934E+06     1.97883E+06    -13.4047E-03     24.7758E-03    -11.3710E-03     14.4775E-03    -13.3678E-03     24.5311E-03    -11.2748E-03     14.4989E-03
            2127     7.12093E-03     17.4529E-03    -6.98451E+06    -54.3434E+06     738.322E+03     2.10650E+06    -12.6980E-03     23.8551E-03    -11.1572E-03     11.9500E-03    -12.6559E-03     23.5932E-03    -11.0646E-03     11.9741E-03
            2128     6.23189E-03     17.4420E-03    -8.00531E+06    -55.4573E+06    -2.22272E+06     2.71219E+06    -12.1163E-03     23.0815E-03    -10.9653E-03     9.80625E-03    -12.0731E-03     22.8196E-03    -10.8844E-03     9.83893E-03
            2129     5.34244E-03     17.4332E-03    -8.78587E+06    -58.7387E+06    -4.94074E+06     3.63374E+06    -11.6445E-03     22.4482E-03    -10.8037E-03     7.94082E-03    -11.5964E-03     22.1747E-03    -10.7305E-03     7.98598E-03
            2130     4.45259E-03     17.4259E-03    -9.83290E+06    -61.8644E+06    -6.86379E+06     3.77263E+06    -11.2488E-03     21.9195E-03    -10.6707E-03     6.32182E-03    -11.1985E-03     21.6346E-03    -10.6010E-03     6.36923E-03
            2131     3.56248E-03     17.4203E-03    -10.8164E+06    -61.7957E+06    -8.27190E+06     3.53120E+06    -10.9164E-03     21.4769E-03    -10.5605E-03     4.90105E-03    -10.8691E-03     21.1958E-03    -10.4966E-03     4.94569E-03
            2132     2.67203E-03     17.4159E-03    -11.3246E+06    -61.6519E+06    -9.69741E+06     3.28422E+06    -10.6625E-03     21.1383E-03    -10.4758E-03     3.62993E-03    -10.6158E-03     20.8607E-03    -10.4185E-03     3.67168E-03
            2133     1.78147E-03     17.4128E-03    -11.5965E+06    -62.5688E+06    -10.8745E+06     2.41091E+06    -10.4890E-03     20.9107E-03    -10.4217E-03     2.44609E-03    -10.4407E-03     20.6307E-03    -10.3685E-03     2.47679E-03
            2134     890.721E-06     17.4109E-03    -11.7769E+06    -62.3584E+06    -11.7115E+06     1.24036E+06    -10.4089E-03     20.7997E-03    -10.3908E-03     1.36969E-03    -10.3605E-03     20.5226E-03    -10.3419E-03     1.38547E-03
            2135     16.8518E-03     16.8413E-03    -2.74668E+06     106.448E+06     47.9538E+06     297.291E+03    -22.9737E-03     37.7031E-03    -14.7293E-03     41.6858E-03    -23.3249E-03     38.2834E-03    -14.6399E-03     41.6696E-03
            2136     15.9719E-03     16.7794E-03    -4.70113E+06     96.5777E+06     19.0285E+06     595.543E+03    -22.3084E-03     36.4934E-03    -14.1850E-03     62.1307E-03    -22.6489E-03     37.1050E-03    -14.2231E-03     62.0958E-03
            2137     15.0902E-03     16.7244E-03     -5.3938E+06     53.4271E+06    -6.15392E+06     978.726E+03    -21.2290E-03     34.9456E-03    -13.7166E-03     53.1623E-03    -21.4046E-03     35.3096E-03    -13.8170E-03     53.1223E-03
            2138     14.2082E-03     16.6781E-03    -5.42585E+06     400.322E+03    -13.0123E+06     1.94313E+06    -20.2696E-03     33.6297E-03    -13.3600E-03     45.2072E-03    -20.3196E-03     33.6996E-03    -13.4178E-03     45.1908E-03
            2139     13.3252E-03     16.6377E-03    -6.83775E+06    -27.6232E+06    -9.02597E+06     1.22118E+06    -19.1622E-03     32.1954E-03    -13.0332E-03     38.8383E-03    -19.1659E-03     32.1031E-03    -13.0284E-03     38.8240E-03
            2140     12.4418E-03     16.6030E-03    -7.78430E+06    -39.1427E+06    -5.79430E+06    -137.584E+03    -18.0977E-03     30.7908E-03    -12.6931E-03     33.0818E-03    -18.0845E-03     30.6279E-03    -12.6541E-03     33.0586E-03
            2141     11.5572E-03     16.5736E-03    -6.53149E+06    -44.7749E+06    -3.45934E+06    -274.436E+03    -17.0591E-03     29.4132E-03    -12.3540E-03     28.1126E-03    -17.0296E-03     29.2116E-03    -12.2969E-03     28.0938E-03
            2142     10.6718E-03     16.5484E-03    -5.34352E+06    -46.1963E+06    -723.409E+03    -43.7975E+03    -15.9723E-03     28.0076E-03    -12.0352E-03     23.9128E-03    -15.9356E-03     27.7900E-03    -11.9641E-03     23.9016E-03
            2143     9.78531E-03     16.5270E-03    -4.77246E+06    -48.5662E+06     1.86987E+06     287.336E+03    -14.9650E-03     26.7134E-03    -11.7484E-03     19.9134E-03    -14.9239E-03     26.4776E-03    -11.6617E-03     19.9095E-03
            2144     8.89815E-03     16.5092E-03    -4.59309E+06    -48.2307E+06     4.02736E+06     659.814E+03    -14.1002E-03     25.5852E-03    -11.4850E-03     16.4186E-03    -14.0608E-03     25.3466E-03    -11.3883E-03     16.4216E-03
            2145     8.01041E-03     16.4944E-03    -4.90429E+06    -50.5193E+06     3.74356E+06     1.55471E+06    -13.2922E-03     24.5353E-03    -11.2431E-03     13.5158E-03    -13.2500E-03     24.2855E-03    -11.1440E-03     13.5318E-03
            2146     7.12182E-03     16.4823E-03    -5.79745E+06    -54.4785E+06     1.33645E+06     2.46980E+06    -12.5680E-03     23.5947E-03    -11.0266E-03     11.1507E-03    -12.5207E-03     23.3295E-03    -10.9326E-03     11.1796E-03
            2147     6.23267E-03     16.4721E-03    -7.11348E+06    -55.8848E+06    -1.90465E+06     3.06980E+06    -11.9877E-03     22.8216E-03    -10.8339E-03     9.12045E-03    -11.9399E-03     22.5557E-03    -10.7521E-03     9.15785E-03
            2148     5.34313E-03     16.4638E-03    -8.16816E+06    -58.9271E+06    -4.17151E+06     3.76880E+06    -11.5221E-03     22.1956E-03    -10.6736E-03     7.32431E-03    -11.4717E-03     21.9192E-03    -10.5971E-03     7.37129E-03
            2149     4.45322E-03     16.4571E-03    -8.79073E+06    -60.5263E+06    -5.34128E+06     4.06895E+06    -11.1123E-03     21.6530E-03    -10.5407E-03     5.81232E-03    -11.0609E-03     21.3710E-03    -10.4669E-03     5.86361E-03
            2150     3.56289E-03     16.4518E-03    -9.41334E+06    -60.4593E+06    -6.56446E+06     3.53428E+06    -10.7934E-03     21.2232E-03    -10.4298E-03     4.48635E-03    -10.7434E-03     20.9442E-03    -10.3613E-03     4.53108E-03
            2151     2.67241E-03     16.4478E-03    -9.89504E+06    -59.9569E+06    -7.68467E+06     2.91925E+06    -10.5497E-03     20.8900E-03    -10.3403E-03     3.28072E-03    -10.5012E-03     20.6158E-03    -10.2774E-03     3.31779E-03
            2152     1.78170E-03     16.4449E-03    -10.1242E+06    -60.0727E+06    -8.97248E+06     2.16252E+06    -10.3624E-03     20.6361E-03    -10.2738E-03     2.19250E-03    -10.3130E-03     20.3637E-03    -10.2168E-03     2.22001E-03
            2153     890.873E-06     16.4432E-03    -10.3118E+06    -59.9494E+06    -10.1163E+06     1.26273E+06    -10.2704E-03     20.4879E-03    -10.2175E-03     1.26842E-03    -10.2205E-03     20.2183E-03    -10.1662E-03     1.28452E-03
            2154     16.8514E-03     15.8564E-03    -3.15767E+06     105.531E+06     46.9073E+06    -30.3157E+03    -23.3534E-03     38.0795E-03    -14.7261E-03     40.4737E-03    -23.6992E-03     38.6527E-03    -14.6400E-03     40.4482E-03
            2155     15.9713E-03     15.7958E-03    -5.31388E+06     95.9800E+06     19.2830E+06     339.111E+03    -22.8926E-03     37.0518E-03    -14.1592E-03     60.3961E-03    -23.2295E-03     37.6547E-03    -14.1942E-03     60.3523E-03
            2156     15.0912E-03     15.7427E-03    -5.69879E+06     52.9031E+06    -5.80950E+06     1.76065E+06    -21.6361E-03     35.2936E-03    -13.6575E-03     51.5555E-03    -21.8090E-03     35.6510E-03    -13.7550E-03     51.5242E-03
            2157     14.2095E-03     15.6977E-03    -6.21035E+06    -71.1372E+03    -14.4546E+06     2.20868E+06    -20.4124E-03     33.6821E-03    -13.2696E-03     43.6701E-03    -20.4612E-03     33.7504E-03    -13.3328E-03     43.6576E-03
            2158     13.3270E-03     15.6590E-03    -4.76440E+06    -25.5452E+06    -7.93341E+06     1.77112E+06    -19.1884E-03     32.1231E-03    -12.9347E-03     37.3847E-03    -19.1850E-03     32.0352E-03    -12.9304E-03     37.3782E-03
            2159     12.4429E-03     15.6257E-03    -4.36986E+06    -37.6746E+06    -3.17480E+06     169.102E+03    -18.0385E-03     30.6328E-03    -12.5944E-03     31.8093E-03    -18.0132E-03     30.4676E-03    -12.5493E-03     31.7907E-03
            2160     11.5583E-03     15.5976E-03    -5.46801E+06    -44.7721E+06    -1.77812E+06    -1.08717E+06    -17.0097E-03     29.2610E-03    -12.2513E-03     26.7528E-03    -16.9767E-03     29.0548E-03    -12.1873E-03     26.7240E-03
            2161     10.6728E-03     15.5736E-03    -5.74936E+06    -46.7831E+06    -545.664E+03    -923.529E+03    -15.9687E-03     27.8882E-03    -11.9195E-03     22.3858E-03    -15.9331E-03     27.6677E-03    -11.8460E-03     22.3635E-03
            2162     9.78658E-03     15.5536E-03    -5.45195E+06    -48.5975E+06     441.268E+03    -842.230E+03    -14.9295E-03     26.5432E-03    -11.6137E-03     18.4944E-03    -14.8894E-03     26.3100E-03    -11.5331E-03     18.4762E-03
            2163     8.89942E-03     15.5368E-03    -5.02570E+06    -49.1336E+06     2.18136E+06    -392.633E+03    -13.9755E-03     25.3188E-03    -11.3434E-03     15.1521E-03    -13.9341E-03     25.0789E-03    -11.2539E-03     15.1418E-03
            2164     8.01129E-03     15.5231E-03    -5.23841E+06    -52.1939E+06     3.41003E+06     1.24168E+06    -13.1840E-03     24.2911E-03    -11.1071E-03     12.2926E-03    -13.1404E-03     24.0338E-03    -11.0067E-03     12.3048E-03
            2165     7.12270E-03     15.5118E-03    -6.20563E+06    -54.9324E+06     2.00445E+06     2.76126E+06    -12.4964E-03     23.3833E-03    -10.8869E-03     9.97045E-03    -12.4513E-03     23.1153E-03    -10.7882E-03     10.0032E-03
            2166     6.23355E-03     15.5024E-03    -7.19989E+06    -55.8771E+06    -771.208E+03     3.35519E+06    -11.8725E-03     22.5596E-03    -10.6871E-03     8.07911E-03    -11.8268E-03     22.2922E-03    -10.5995E-03     8.12030E-03
            2167     5.34386E-03     15.4946E-03    -7.82367E+06    -58.7143E+06    -3.07830E+06     3.58267E+06    -11.3762E-03     21.8974E-03    -10.5212E-03     6.44735E-03    -11.3259E-03     21.6199E-03    -10.4401E-03     6.49203E-03
            2168     4.45378E-03     15.4886E-03    -8.03022E+06    -59.4699E+06    -3.90974E+06     3.54032E+06    -10.9910E-03     21.3737E-03    -10.3827E-03     5.04484E-03    -10.9394E-03     21.0938E-03    -10.3044E-03     5.08938E-03
            2169     3.56345E-03     15.4836E-03    -8.02662E+06    -58.7651E+06    -4.82655E+06     3.11460E+06    -10.6657E-03     20.9273E-03    -10.2616E-03     3.84402E-03    -10.6137E-03     20.6522E-03    -10.1889E-03     3.88339E-03
            2170     2.67286E-03     15.4799E-03    -8.12406E+06    -58.3361E+06    -6.15464E+06     2.42794E+06    -10.4018E-03     20.5615E-03    -10.1597E-03     2.77462E-03    -10.3490E-03     20.2906E-03    -10.0941E-03     2.80538E-03
            2171     1.78204E-03     15.4774E-03    -8.45847E+06    -58.1057E+06    -7.09900E+06     1.84954E+06    -10.2134E-03     20.2901E-03    -10.0768E-03     1.85307E-03    -10.1612E-03     20.0224E-03    -10.0158E-03     1.87658E-03
            2172     891.104E-06     15.4756E-03    -8.87824E+06    -57.7280E+06    -8.30868E+06     1.12764E+06    -10.0654E-03     20.0658E-03    -10.0004E-03     1.01548E-03    -10.0142E-03     19.8027E-03    -9.94534E-03     1.02984E-03
            2173     16.8515E-03     14.8713E-03    -1.78737E+06     106.149E+06     48.0868E+06     784.503E+03    -23.8807E-03     38.5965E-03    -14.7157E-03     38.4463E-03    -24.2151E-03     39.1619E-03    -14.6266E-03     38.4266E-03
            2174     15.9727E-03     14.8113E-03    -5.31849E+06     95.2159E+06     18.6714E+06     1.35669E+06    -23.1727E-03     37.2912E-03    -14.1185E-03     58.0945E-03    -23.4993E-03     37.8829E-03    -14.1555E-03     58.0602E-03
            2175     15.0922E-03     14.7610E-03    -8.27512E+06     51.7460E+06    -7.48795E+06     1.72088E+06    -21.9064E-03     35.5004E-03    -13.5940E-03     49.5661E-03    -22.0838E-03     35.8539E-03    -13.6944E-03     49.5334E-03
            2176     14.2106E-03     14.7172E-03    -6.71045E+06     1.29227E+06    -14.1827E+06     1.33523E+06    -20.5698E-03     33.7590E-03    -13.1892E-03     41.9222E-03    -20.6208E-03     33.8320E-03    -13.2522E-03     41.8989E-03
            2177     13.3278E-03     14.6806E-03    -5.15275E+06    -24.6467E+06    -8.61048E+06    -18.8446E+03    -19.2540E-03     32.0890E-03    -12.8349E-03     35.7087E-03    -19.2514E-03     32.0056E-03    -12.8348E-03     35.6798E-03
            2178     12.4443E-03     14.6484E-03    -3.44980E+06    -36.6541E+06    -3.35335E+06    -169.571E+03    -18.1296E-03     30.6102E-03    -12.4807E-03     30.1303E-03    -18.1000E-03     30.4481E-03    -12.4393E-03     30.1080E-03
            2179     11.5597E-03     14.6216E-03    -2.92126E+06    -44.4276E+06    -732.845E+03    -190.969E+03    -17.0705E-03     29.1972E-03    -12.1267E-03     24.8965E-03    -17.0262E-03     28.9869E-03    -12.0617E-03     24.8798E-03
            2180     10.6744E-03     14.5989E-03    -4.10705E+06    -46.7406E+06     707.261E+03    -777.061E+03    -15.9838E-03     27.7668E-03    -11.7830E-03     20.5607E-03    -15.9414E-03     27.5419E-03    -11.7057E-03     20.5408E-03
            2181     9.78806E-03     14.5802E-03    -5.07765E+06    -48.2509E+06     1.25490E+06    -1.35954E+06    -14.9299E-03     26.3915E-03    -11.4616E-03     16.7439E-03    -14.8894E-03     26.1581E-03    -11.3780E-03     16.7193E-03
            2182     8.90067E-03     14.5648E-03    -5.71662E+06    -50.5434E+06     1.56913E+06    -1.09837E+06    -13.9718E-03     25.1432E-03    -11.1714E-03     13.4206E-03    -13.9307E-03     24.8978E-03    -11.0820E-03     13.4014E-03
            2183     8.01276E-03     14.5519E-03    -5.92681E+06    -54.4135E+06     3.20894E+06     594.355E+03    -13.1518E-03     24.0717E-03    -10.9199E-03     10.5899E-03    -13.1080E-03     23.8044E-03    -10.8163E-03     10.5939E-03
            2184     7.12416E-03     14.5415E-03    -5.97773E+06    -55.6849E+06     3.93609E+06     2.24682E+06    -12.4232E-03     23.1116E-03    -10.6884E-03     8.33437E-03    -12.3786E-03     22.8367E-03    -10.5793E-03     8.36066E-03
            2185     6.23489E-03     14.5329E-03    -6.48429E+06    -55.8635E+06     1.90079E+06     3.12616E+06    -11.7520E-03     22.2255E-03    -10.4735E-03     6.57365E-03    -11.7065E-03     21.9531E-03    -10.3736E-03     6.61203E-03
            2186     5.34505E-03     14.5259E-03    -7.21709E+06    -57.8677E+06    -1.26208E+06     3.17765E+06    -11.2094E-03     21.4971E-03    -10.2877E-03     5.15256E-03    -11.1599E-03     21.2202E-03    -10.1996E-03     5.19214E-03
            2187     4.45489E-03     14.5202E-03    -7.54782E+06    -58.4276E+06    -3.57423E+06     2.67130E+06    -10.7953E-03     20.9243E-03    -10.1290E-03     3.94976E-03    -10.7433E-03     20.6485E-03    -10.0512E-03     3.98319E-03
            2188     3.56441E-03     14.5158E-03    -7.56598E+06    -57.5205E+06    -4.66188E+06     2.30259E+06    -10.4347E-03     20.4312E-03    -9.99646E-03     2.95711E-03    -10.3825E-03     20.1614E-03    -9.92540E-03     2.98608E-03
            2189     2.67353E-03     14.5125E-03    -7.64465E+06    -56.8946E+06    -5.93599E+06     1.99023E+06    -10.1509E-03     20.0375E-03    -9.88662E-03     2.13463E-03    -10.0981E-03     19.7728E-03    -9.82272E-03     2.15982E-03
            2190     1.78253E-03     14.5101E-03    -7.72321E+06    -56.6136E+06    -7.10265E+06     1.46684E+06    -9.95173E-03     19.7462E-03    -9.79447E-03     1.41213E-03    -9.89811E-03     19.4848E-03    -9.73669E-03     1.43076E-03
            2191     891.364E-06     14.5087E-03    -7.63448E+06    -55.8034E+06    -7.39454E+06     859.267E+03    -9.78359E-03     19.5013E-03    -9.71773E-03     689.404E-06    -9.73025E-03     19.2447E-03    -9.66272E-03     700.331E-06
            2192     16.8530E-03     13.8850E-03    -3.21323E+06     104.959E+06     49.6061E+06     701.610E+03    -24.5160E-03     39.2354E-03    -14.7194E-03     37.4251E-03    -24.8535E-03     39.7903E-03    -14.6189E-03     37.3991E-03
            2193     15.9730E-03     13.8280E-03    -4.71027E+06     94.2656E+06     18.4515E+06     2.23223E+06    -23.6102E-03     37.6890E-03    -14.0788E-03     56.6400E-03    -23.9254E-03     38.2687E-03    -14.1164E-03     56.6133E-03
            2194     15.0928E-03     13.7782E-03    -4.15114E+06     52.8647E+06    -7.16145E+06     1.68669E+06    -22.2207E-03     35.7437E-03    -13.5231E-03     47.4028E-03    -22.3746E-03     36.0914E-03    -13.6295E-03     47.3690E-03
            2195     14.2119E-03     13.7371E-03    -3.53649E+06     2.54713E+06    -12.4013E+06     149.002E+03    -20.8037E-03     33.9075E-03    -13.1038E-03     39.7283E-03    -20.8406E-03     33.9769E-03    -13.1643E-03     39.6899E-03
            2196     13.3294E-03     13.7017E-03    -3.01737E+06    -24.0709E+06    -7.00510E+06    -71.6081E+03    -19.4984E-03     32.2258E-03    -12.7274E-03     33.6347E-03    -19.4868E-03     32.1384E-03    -12.7231E-03     33.6053E-03
            2197     12.4460E-03     13.6711E-03    -3.72920E+06    -36.2870E+06    -2.86608E+06    -809.132E+03    -18.3066E-03     30.6530E-03    -12.3463E-03     28.1755E-03    -18.2787E-03     30.4913E-03    -12.3026E-03     28.1454E-03
            2198     11.5617E-03     13.6456E-03    -3.32666E+06    -44.7418E+06    -1.56147E+06    -893.002E+03    -17.2049E-03     29.1673E-03    -11.9624E-03     22.9600E-03    -17.1602E-03     28.9565E-03    -11.9005E-03     22.9348E-03
            2199     10.6762E-03     13.6245E-03    -2.47219E+06    -46.4484E+06     2.69390E+06    -356.870E+03    -16.1207E-03     27.7232E-03    -11.6025E-03     18.4149E-03    -16.0729E-03     27.4940E-03    -11.5181E-03     18.4008E-03
            2200     9.78987E-03     13.6070E-03    -3.50998E+06    -47.7223E+06     4.70177E+06    -630.602E+03    -15.0885E-03     26.3446E-03    -11.2561E-03     14.4170E-03    -15.0456E-03     26.1062E-03    -11.1583E-03     14.4021E-03
            2201     8.90303E-03     13.5927E-03    -5.14598E+06    -51.4535E+06     3.90940E+06    -810.717E+03    -14.0847E-03     25.0113E-03    -10.9266E-03     11.0474E-03    -14.0426E-03     24.7570E-03    -10.8250E-03     11.0321E-03
            2202     8.01506E-03     13.5811E-03    -6.27285E+06    -55.9691E+06     3.50462E+06    -304.331E+03    -13.1332E-03     23.7652E-03    -10.6320E-03     8.44793E-03    -13.0891E-03     23.4900E-03    -10.5242E-03     8.44055E-03
            2203     7.12634E-03     13.5715E-03    -6.70947E+06    -57.1485E+06     4.41994E+06     1.05828E+06    -12.3041E-03     22.6768E-03    -10.3727E-03     6.33204E-03    -12.2616E-03     22.3948E-03    -10.2580E-03     6.34320E-03
            2204     6.23700E-03     13.5639E-03    -7.15056E+06    -56.2420E+06     3.14356E+06     2.51372E+06    -11.5729E-03     21.7065E-03    -10.1336E-03     4.74228E-03    -11.5319E-03     21.4313E-03    -10.0260E-03     4.77293E-03
            2205     5.34711E-03     13.5576E-03    -7.87945E+06    -56.8172E+06    -850.528E+03     2.78478E+06    -10.9453E-03     20.8643E-03    -9.91898E-03     3.62690E-03    -10.9012E-03     20.5930E-03    -9.82942E-03     3.66157E-03
            2206     4.45663E-03     13.5525E-03    -8.61750E+06    -57.1410E+06    -4.63198E+06     2.14916E+06    -10.4301E-03     20.1709E-03    -9.74088E-03     2.73355E-03    -10.3837E-03     19.9045E-03    -9.66869E-03     2.76039E-03
            2207     3.56572E-03     13.5485E-03    -8.99917E+06    -56.7524E+06    -6.58342E+06     1.62714E+06    -10.0427E-03     19.6453E-03    -9.60261E-03     2.00937E-03    -9.99593E-03     19.3842E-03    -9.54019E-03     2.02974E-03
            2208     2.67462E-03     13.5456E-03    -8.96133E+06    -55.8809E+06    -7.37268E+06     1.35290E+06    -9.75437E-03     19.2498E-03    -9.49543E-03     1.46409E-03    -9.70753E-03     18.9942E-03    -9.43827E-03     1.48114E-03
            2209     1.78322E-03     13.5435E-03    -8.57782E+06    -55.3317E+06    -8.33167E+06     886.596E+03    -9.53828E-03     18.9507E-03    -9.41246E-03     949.848E-06    -9.48901E-03     18.6988E-03    -9.36145E-03     961.041E-06
            2210     891.626E-06     13.5424E-03    -7.96311E+06    -54.5788E+06    -8.08006E+06     382.562E+03    -9.41363E-03     18.7602E-03    -9.34660E-03     409.055E-06    -9.36272E-03     18.5112E-03    -9.29631E-03     413.878E-06
            2211     16.8506E-03     12.8989E-03    -3.91840E+06     104.179E+06     50.4873E+06     607.412E+03    -25.2887E-03     40.0220E-03    -14.7333E-03     35.6240E-03    -25.6253E-03     40.5681E-03    -14.6262E-03     35.5896E-03
            2212     15.9736E-03     12.8425E-03    -5.60985E+06     92.9866E+06     18.7949E+06     447.966E+03    -24.4241E-03     38.4685E-03    -14.0444E-03     53.7360E-03    -24.7348E-03     39.0350E-03    -14.0771E-03     53.6795E-03
            2213     15.0946E-03     12.7959E-03    -5.11696E+06     53.9235E+06    -6.35328E+06     1.99918E+06    -22.4806E-03     35.9310E-03    -13.4503E-03     44.8051E-03    -22.6363E-03     36.2784E-03    -13.5529E-03     44.7752E-03
            2214     14.2131E-03     12.7564E-03    -6.45878E+06     4.70816E+06    -13.3010E+06     1.14051E+06    -21.0990E-03     34.0970E-03    -12.9980E-03     37.7459E-03    -21.1495E-03     34.1799E-03    -13.0620E-03     37.7208E-03
            2215     13.3313E-03     12.7226E-03    -6.68287E+06    -23.7332E+06    -10.3333E+06    -904.594E+03    -19.9095E-03     32.4891E-03    -12.5796E-03     31.5714E-03    -19.9102E-03     32.4118E-03    -12.5871E-03     31.5317E-03
            2216     12.4481E-03     12.6939E-03    -4.81913E+06    -35.3330E+06    -3.49168E+06    -1.36360E+06    -18.6853E-03     30.8519E-03    -12.1667E-03     25.9764E-03    -18.6621E-03     30.6964E-03    -12.1259E-03     25.9396E-03
            2217     11.5638E-03     12.6695E-03    -4.23686E+06    -45.4448E+06    -1.64861E+06    -1.73301E+06    -17.6035E-03     29.3450E-03    -11.7415E-03     20.3875E-03    -17.5614E-03     29.1314E-03    -11.6777E-03     20.3518E-03
            2218     10.6790E-03     12.6500E-03    -4.41528E+06    -47.4697E+06     3.21128E+06    -932.982E+03    -16.4702E-03     27.8043E-03    -11.3341E-03     15.5568E-03    -16.4309E-03     27.5716E-03    -11.2428E-03     15.5355E-03
            2219     9.79331E-03     12.6336E-03    -4.34025E+06    -47.1039E+06     5.54540E+06    -405.885E+03    -15.2877E-03     26.2203E-03    -10.9326E-03     11.5949E-03    -15.2507E-03     25.9846E-03    -10.8303E-03     11.5832E-03
            2220     8.90629E-03     12.6209E-03     -5.1292E+06    -51.9513E+06     5.32288E+06    -375.414E+03    -14.1359E-03     24.6949E-03    -10.5590E-03     8.35781E-03    -14.0948E-03     24.4358E-03    -10.4496E-03     8.34837E-03
            2221     8.01844E-03     12.6105E-03    -6.94135E+06    -56.6437E+06     4.28297E+06     121.796E+03    -13.0430E-03     23.2643E-03    -10.2213E-03     6.01732E-03    -13.0023E-03     22.9855E-03    -10.1077E-03     6.01569E-03
            2222     7.12971E-03     12.6021E-03    -9.04554E+06    -58.3117E+06     2.32689E+06     558.955E+03    -12.0664E-03     21.9840E-03    -9.91760E-03     4.25209E-03    -12.0307E-03     21.7025E-03    -9.80830E-03     4.25706E-03
            2223     6.24013E-03     12.5954E-03    -10.0867E+06    -57.0766E+06     969.368E+03     1.34617E+06    -11.2331E-03     20.8866E-03    -9.65353E-03     3.00404E-03    -11.2023E-03     20.6146E-03    -9.55130E-03     3.01983E-03
            2224     5.34981E-03     12.5900E-03    -10.3239E+06    -56.1021E+06    -2.22716E+06     1.92525E+06    -10.5235E-03     19.9455E-03    -9.42200E-03     2.19229E-03    -10.4907E-03     19.6833E-03    -9.33681E-03     2.21603E-03
            2225     4.45893E-03     12.5856E-03    -10.4810E+06    -56.0368E+06    -5.83861E+06     1.68484E+06    -9.94532E-03     19.1785E-03    -9.23322E-03     1.57925E-03    -9.90809E-03     18.9221E-03    -9.16597E-03     1.60023E-03
            2226     3.56761E-03     12.5822E-03    -10.6326E+06    -55.8700E+06    -8.32885E+06     1.06727E+06    -9.51848E-03     18.6092E-03    -9.09072E-03     1.13035E-03    -9.47863E-03     18.3574E-03    -9.03594E-03     1.14359E-03
            2227     2.67591E-03     12.5796E-03    -10.5386E+06    -55.2128E+06    -9.33890E+06     544.164E+03    -9.21987E-03     18.2089E-03    -8.98907E-03     802.652E-06    -9.17902E-03     17.9618E-03    -8.94043E-03     809.326E-06
            2228     1.78405E-03     12.5779E-03    -10.2204E+06    -54.5043E+06    -9.87115E+06     272.035E+03    -9.01398E-03     17.9350E-03    -8.92100E-03     497.991E-06    -8.97188E-03     17.6918E-03    -8.87651E-03     501.290E-06
            2229     892.075E-06     12.5767E-03    -10.0017E+06    -54.1598E+06    -10.0918E+06     98.0874E+03    -8.91621E-03     17.7905E-03    -8.87431E-03     177.327E-06    -8.87317E-03     17.5494E-03    -8.83174E-03     178.497E-06
            2230     16.8524E-03     11.9099E-03    -2.72143E+06     104.903E+06     52.9231E+06     770.596E+03    -26.0849E-03     40.8059E-03    -14.7209E-03     33.3820E-03    -26.4129E-03     41.3433E-03    -14.6045E-03     33.3445E-03
            2231     15.9754E-03     11.8568E-03    -4.72470E+06     92.5422E+06     19.2324E+06     712.542E+03    -24.7832E-03     38.7715E-03    -13.9883E-03     50.5771E-03    -25.0800E-03     39.3244E-03    -14.0195E-03     50.5205E-03
            2232     15.0952E-03     11.8139E-03    -5.41393E+06     52.1348E+06    -8.63818E+06     1.04716E+06    -22.9582E-03     36.3111E-03    -13.3529E-03     42.3604E-03    -23.1045E-03     36.6484E-03    -13.4639E-03     42.3170E-03
            2233     14.2149E-03     11.7750E-03    -3.34481E+06     6.89503E+06    -8.91372E+06     1.96964E+06    -21.6959E-03     34.5776E-03    -12.8817E-03     35.3470E-03    -21.7376E-03     34.6578E-03    -12.9314E-03     35.3322E-03
            2234     13.3332E-03     11.7436E-03    -4.20697E+06    -21.5313E+06    -5.95913E+06     357.638E+03    -20.5861E-03     32.9966E-03    -12.4105E-03     28.6682E-03    -20.5822E-03     32.9187E-03    -12.4029E-03     28.6444E-03
            2235     12.4509E-03     11.7159E-03    -6.98314E+06    -35.1553E+06    -3.43141E+06    -1.51480E+06    -19.4029E-03     31.3225E-03    -11.9196E-03     22.9231E-03    -19.3898E-03     31.1698E-03    -11.8756E-03     22.8844E-03
            2236     11.5678E-03     11.6934E-03    -7.88161E+06    -45.1709E+06    -2.37348E+06    -1.76802E+06    -18.1443E-03     29.5657E-03    -11.4213E-03     17.2770E-03    -18.1190E-03     29.3590E-03    -11.3563E-03     17.2411E-03
            2237     10.6834E-03     11.6751E-03    -7.39396E+06    -48.1783E+06     1.50870E+06    -2.48708E+06    -16.7585E-03     27.7036E-03    -10.9450E-03     12.5527E-03    -16.7301E-03     27.4736E-03    -10.8569E-03     12.5117E-03
            2238     9.79762E-03     11.6608E-03    -6.51109E+06    -47.9546E+06     4.64194E+06    -1.83451E+06    -15.3376E-03     25.8313E-03    -10.4937E-03     8.83869E-03    -15.3086E-03     25.5956E-03    -10.3915E-03     8.80893E-03
            2239     8.91083E-03     11.6493E-03    -6.74382E+06    -53.1291E+06     5.65905E+06    -114.480E+03    -14.0060E-03     24.0902E-03    -10.0842E-03     5.87730E-03    -13.9716E-03     23.8269E-03    -9.96910E-03     5.87155E-03
            2240     8.02287E-03     11.6407E-03    -8.54184E+06    -57.1388E+06     5.25925E+06     1.04842E+06    -12.7509E-03     22.4680E-03    -9.71718E-03     3.91643E-03    -12.7187E-03     22.1875E-03    -9.59565E-03     3.92701E-03
            2241     7.13368E-03     11.6335E-03    -10.5149E+06    -57.8591E+06     989.003E+03     892.679E+03    -11.6611E-03     21.0397E-03    -9.37858E-03     2.63894E-03    -11.6314E-03     20.7644E-03    -9.27449E-03     2.64843E-03
            2242     6.24366E-03     11.6280E-03    -11.9153E+06    -57.6215E+06    -2.30222E+06     380.038E+03    -10.7741E-03     19.8654E-03    -9.09127E-03     1.70289E-03    -10.7469E-03     19.5980E-03    -9.00195E-03     1.70636E-03
            2243     5.35295E-03     11.6234E-03    -12.4495E+06    -56.0692E+06    -4.45643E+06     607.167E+03    -10.0241E-03     18.8758E-03    -8.85168E-03     1.09623E-03    -9.99866E-03     18.6200E-03    -8.77461E-03     1.10306E-03
            2244     4.46160E-03     11.6199E-03    -12.5105E+06    -55.4225E+06    -7.33294E+06     728.699E+03    -9.41198E-03     18.0666E-03    -8.65466E-03     712.519E-06    -9.38362E-03     17.8184E-03    -8.59282E-03     721.213E-06
            2245     3.56975E-03     11.6169E-03    -12.4830E+06    -55.0267E+06    -9.74751E+06     428.114E+03    -8.94711E-03     17.4518E-03    -8.50473E-03     473.536E-06    -8.91567E-03     17.2090E-03    -8.45558E-03     478.573E-06
            2246     2.67757E-03     11.6148E-03    -12.5194E+06    -54.7798E+06    -11.5020E+06     31.4129E+03    -8.62241E-03     17.0217E-03    -8.39929E-03     310.892E-06    -8.58897E-03     16.7827E-03    -8.35921E-03     310.964E-06
            2247     1.78516E-03     11.6131E-03    -12.5448E+06    -54.3692E+06    -12.2305E+06    -44.7714E+03    -8.41703E-03     16.7524E-03    -8.33542E-03     163.421E-06    -8.38333E-03     16.5167E-03    -8.29954E-03     162.645E-06
            2248     892.563E-06     11.6123E-03    -12.5242E+06    -54.0931E+06    -12.4151E+06     8.55981E+03    -8.33924E-03     16.6248E-03    -8.28556E-03     42.1781E-06    -8.30555E-03     16.3911E-03    -8.25104E-03     42.1867E-06
            2249     16.8533E-03     10.9217E-03    -3.10536E+06     103.794E+06     53.4440E+06     499.984E+03    -26.6688E-03     41.3756E-03    -14.7068E-03     32.2267E-03    -26.9921E-03     41.9015E-03    -14.5856E-03     32.1809E-03
            2250     15.9749E-03     10.8717E-03    -4.75966E+06     93.0189E+06     22.8244E+06     1.07836E+06    -25.4309E-03     39.3803E-03    -13.9494E-03     48.0604E-03    -25.7256E-03     39.9222E-03    -13.9632E-03     48.0038E-03
            2251     15.0973E-03     10.8300E-03    -5.29171E+06     52.6027E+06    -7.25054E+06     188.509E+03    -23.9726E-03     37.2199E-03    -13.2472E-03     39.5256E-03    -24.1162E-03     37.5526E-03    -13.3521E-03     39.4682E-03
            2252     14.2175E-03     10.7939E-03    -4.20961E+06     5.71394E+06    -10.7343E+06    -78.5534E+03    -22.7580E-03     35.4471E-03    -12.6891E-03     32.5357E-03    -22.7969E-03     35.5226E-03    -12.7450E-03     32.4932E-03
            2253     13.3371E-03     10.7631E-03    -1.97059E+06    -20.3036E+06    -2.52480E+06     1.65813E+06    -21.5409E-03     33.6951E-03    -12.1541E-03     25.4599E-03    -21.5308E-03     33.6133E-03    -12.1345E-03     25.4524E-03
            2254     12.4556E-03     10.7379E-03    -2.44249E+06    -33.4112E+06     2.24383E+06     1.00345E+06    -20.1068E-03     31.6970E-03    -11.5902E-03     19.5459E-03    -20.0806E-03     31.5371E-03    -11.5270E-03     19.5398E-03
            2255     11.5727E-03     10.7167E-03    -4.40237E+06    -43.5693E+06     1.59404E+06    -1.73140E+06    -18.4761E-03     29.4935E-03    -11.0175E-03     14.1870E-03    -18.4407E-03     29.2833E-03    -10.9399E-03     14.1521E-03
            2256     10.6885E-03     10.7009E-03    -5.76110E+06    -48.1187E+06     3.13804E+06    -2.79726E+06    -16.7762E-03     27.2606E-03    -10.4844E-03     9.77331E-03    -16.7416E-03     27.0257E-03    -10.3906E-03     9.72883E-03
            2257     9.80289E-03     10.6881E-03    -7.93349E+06    -49.9859E+06     5.08697E+06    -2.08927E+06    -15.0958E-03     25.0976E-03    -10.0018E-03     6.53809E-03    -15.0714E-03     24.8528E-03    -9.89234E-03     6.50546E-03
            2258     8.91574E-03     10.6788E-03    -9.76142E+06    -54.9199E+06     5.37938E+06    -411.518E+03    -13.5776E-03     23.1507E-03    -9.57303E-03     4.15056E-03    -13.5552E-03     22.8830E-03    -9.45235E-03     4.14132E-03
            2259     8.02718E-03     10.6716E-03    -10.6226E+06    -57.7222E+06     4.98461E+06     810.030E+03    -12.2764E-03     21.4707E-03    -9.19434E-03     2.60290E-03    -12.2533E-03     21.1906E-03    -9.07031E-03     2.61061E-03
            2260     7.13765E-03     10.6660E-03    -11.5740E+06    -56.8995E+06     1.01457E+06     872.053E+03    -11.1753E-03     20.0222E-03    -8.84685E-03     1.64654E-03    -11.1524E-03     19.7532E-03    -8.74249E-03     1.65586E-03
            2261     6.24721E-03     10.6614E-03    -12.7901E+06    -57.1349E+06    -4.14521E+06     183.567E+03    -10.2610E-03     18.8065E-03    -8.54550E-03     979.332E-06    -10.2362E-03     18.5455E-03    -8.46483E-03     980.309E-06
            2262     5.35603E-03     10.6580E-03    -13.8600E+06    -56.2866E+06    -7.17970E+06    -256.164E+03    -9.50402E-03     17.8036E-03    -8.29960E-03     609.707E-06    -9.48139E-03     17.5528E-03    -8.23378E-03     605.403E-06
            2263     4.46420E-03     10.6551E-03    -14.4003E+06    -55.2757E+06    -9.35560E+06    -246.198E+03    -8.89658E-03     16.9973E-03    -8.10069E-03     410.287E-06    -8.87494E-03     16.7554E-03    -8.04644E-03     406.395E-06
            2264     3.57191E-03     10.6529E-03    -14.6764E+06    -54.7787E+06    -11.5414E+06    -224.701E+03    -8.42475E-03     16.3682E-03    -7.94340E-03     282.490E-06    -8.40204E-03     16.1323E-03    -7.90040E-03     279.084E-06
            2265     2.67920E-03     10.6510E-03    -14.9119E+06    -54.6537E+06    -13.5845E+06    -175.300E+03    -8.07667E-03     15.9039E-03    -7.82722E-03     196.188E-06    -8.05234E-03     15.6720E-03    -7.79427E-03     193.583E-06
            2266     1.78622E-03     10.6498E-03    -15.1288E+06    -54.5565E+06    -14.8417E+06    -145.092E+03    -7.85437E-03     15.6059E-03    -7.75158E-03     100.143E-06    -7.82952E-03     15.3768E-03    -7.72474E-03     98.0457E-06
            2267     893.170E-06     10.6489E-03    -15.0007E+06    -54.1572E+06    -15.0296E+06    -151.552E+03    -7.76112E-03     15.4470E-03    -7.68585E-03     40.1341E-06    -7.73589E-03     15.2203E-03    -7.66072E-03     38.0561E-06
            2268     16.8514E-03     9.93270E-03    -2.93228E+06     103.026E+06     53.8981E+06     303.522E+03    -27.4793E-03     42.1754E-03    -14.6961E-03     29.5439E-03    -27.7952E-03     42.6905E-03    -14.5717E-03     29.4891E-03
            2269     15.9771E-03     9.88437E-03    -5.98215E+06     92.5338E+06     25.5684E+06     1.10424E+06    -26.6048E-03     40.4975E-03    -13.8927E-03     44.8157E-03    -26.9012E-03     41.0272E-03    -13.8904E-03     44.7516E-03
            2270     15.0991E-03     9.84599E-03    -8.44374E+06     54.8062E+06    -6.04031E+06     1.32396E+06    -25.2909E-03     38.3912E-03    -13.1003E-03     36.4932E-03    -25.4506E-03     38.7332E-03    -13.1977E-03     36.4466E-03
            2271     14.2211E-03     9.81076E-03    -9.94548E+06     6.15965E+06    -14.6603E+06    -629.767E+03    -24.0172E-03     36.4460E-03    -12.4289E-03     29.5744E-03    -24.0768E-03     36.5350E-03    -12.4967E-03     29.5236E-03
            2272     13.3418E-03     9.78264E-03    -9.24100E+06    -22.2036E+06    -7.65593E+06    -1.03066E+06    -22.4254E-03     34.2276E-03    -11.8021E-03     22.4859E-03    -22.4396E-03     34.1525E-03    -11.7948E-03     22.4440E-03
            2273     12.4610E-03     9.75891E-03    -5.77305E+06    -31.2910E+06     1.49298E+06    -414.607E+03    -20.4811E-03     31.6576E-03    -11.1765E-03     16.6120E-03    -20.4724E-03     31.5131E-03    -11.1153E-03     16.5884E-03
            2274     11.5785E-03     9.74092E-03    -3.98321E+06    -41.8145E+06     3.68622E+06    -1.15730E+06    -18.4029E-03     28.9711E-03    -10.5682E-03     11.5602E-03    -18.3704E-03     28.7654E-03    -10.4833E-03     11.5336E-03
            2275     10.6941E-03     9.72676E-03    -5.64281E+06    -48.5994E+06     4.63630E+06    -1.39354E+06    -16.3606E-03     26.3783E-03    -10.0176E-03     7.73166E-03    -16.3267E-03     26.1384E-03    -9.91580E-03     7.70594E-03
            2276     9.80782E-03     9.71686E-03    -8.05185E+06    -51.1335E+06     6.69469E+06    -817.704E+03    -14.4954E-03     24.0352E-03    -9.53974E-03     5.10564E-03    -14.4721E-03     23.7824E-03    -9.42045E-03     5.08987E-03
            2277     8.91989E-03     9.70908E-03    -10.4504E+06    -56.2293E+06     5.87939E+06    -291.129E+03    -12.9456E-03     22.0666E-03    -9.12097E-03     3.29192E-03    -12.9254E-03     21.7926E-03    -8.99489E-03     3.28453E-03
            2278     8.03098E-03     9.70371E-03    -12.4011E+06    -58.0959E+06     3.87050E+06     84.1844E+03    -11.6876E-03     20.4388E-03    -8.75113E-03     2.14772E-03    -11.6713E-03     20.1610E-03    -8.62956E-03     2.14621E-03
            2279     7.14095E-03     9.69926E-03    -13.5333E+06    -56.5314E+06     70.8327E+03     117.104E+03    -10.6139E-03     19.0337E-03    -8.41990E-03     1.56007E-03    -10.5999E-03     18.7708E-03    -8.31795E-03     1.55971E-03
            2280     6.25002E-03     9.69610E-03    -14.3254E+06    -56.4068E+06    -4.98575E+06    -111.259E+03    -9.72624E-03     17.8611E-03    -8.13490E-03     1.18182E-03    -9.70900E-03     17.6073E-03    -8.05726E-03     1.17901E-03
            2281     5.35829E-03     9.69341E-03    -15.0631E+06    -56.1267E+06    -8.89944E+06    -558.778E+03    -9.03206E-03     16.9323E-03    -7.90026E-03     981.044E-06    -9.01320E-03     16.6866E-03    -7.84153E-03     972.824E-06
            2282     4.46607E-03     9.69139E-03    -15.7717E+06    -55.4537E+06    -11.3190E+06    -772.726E+03    -8.49087E-03     16.2003E-03    -7.70945E-03     829.297E-06    -8.47300E-03     15.9624E-03    -7.66276E-03     818.583E-06
            2283     3.57338E-03     9.68964E-03    -16.3895E+06    -55.0597E+06    -13.3857E+06    -605.958E+03    -8.05326E-03     15.6067E-03    -7.55340E-03     682.496E-06    -8.03604E-03     15.3746E-03    -7.51673E-03     674.126E-06
            2284     2.68037E-03     9.68837E-03    -16.8463E+06    -54.8964E+06    -15.2539E+06    -355.799E+03    -7.71545E-03     15.1457E-03    -7.43022E-03     538.574E-06    -7.69802E-03     14.9178E-03    -7.40246E-03     533.602E-06
            2285     1.78709E-03     9.68730E-03    -17.0183E+06    -54.6853E+06    -16.5600E+06    -272.186E+03    -7.47254E-03     14.8130E-03    -7.34051E-03     365.492E-06    -7.45445E-03     14.5885E-03    -7.31934E-03     361.734E-06
            2286     893.587E-06     9.68672E-03    -17.1578E+06    -54.4101E+06    -17.0241E+06    -234.198E+03    -7.33109E-03     14.6074E-03    -7.27627E-03     206.402E-06    -7.31337E-03     14.3854E-03    -7.25762E-03     203.231E-06
            2287     16.8547E-03     8.94281E-03    -2.40524E+06     102.155E+06     53.1171E+06     911.088E+03    -28.5618E-03     43.2190E-03    -14.6572E-03     27.9514E-03    -28.8678E-03     43.7251E-03    -14.5362E-03     27.8968E-03
            2288     15.9776E-03     8.89672E-03    -5.85541E+06     90.7296E+06     23.7128E+06     2.76662E+06    -28.0851E-03     41.8611E-03    -13.7760E-03     42.0870E-03    -28.3684E-03     42.3771E-03    -13.7805E-03     42.0354E-03
            2289     15.1026E-03     8.85976E-03    -8.41423E+06     56.6417E+06    -4.53833E+06     2.83202E+06    -26.7753E-03     39.6747E-03    -12.8994E-03     33.1072E-03    -26.9352E-03     40.0191E-03    -12.9920E-03     33.0760E-03
            2290     14.2256E-03     8.82721E-03    -9.56238E+06     9.34854E+06    -11.9956E+06     921.309E+03    -25.0267E-03     37.1651E-03    -12.1384E-03     26.2384E-03    -25.0901E-03     37.2626E-03    -12.1980E-03     26.2073E-03
            2291     13.3471E-03     8.80119E-03    -10.7690E+06    -21.4451E+06    -9.23138E+06    -1.94580E+06    -22.8198E-03     34.2481E-03    -11.4283E-03     19.4560E-03    -22.8388E-03     34.1797E-03    -11.4277E-03     19.4033E-03
            2292     12.4665E-03     8.78078E-03    -11.7833E+06    -31.4984E+06    -2.70501E+06    -3.21429E+06    -20.3058E-03     31.0674E-03    -10.7616E-03     14.1744E-03    -20.3200E-03     30.9359E-03    -10.7123E-03     14.1160E-03
            2293     11.5835E-03     8.76527E-03    -11.9398E+06    -42.2766E+06     116.894E+03    -1.97579E+06    -17.8064E-03     27.9623E-03    -10.1559E-03     9.83644E-03    -17.8074E-03     27.7707E-03    -10.0767E-03     9.80033E-03
            2294     10.6984E-03     8.75435E-03    -11.6935E+06    -48.7543E+06     1.28163E+06    -1.25600E+06    -15.5469E-03     25.1728E-03    -9.62593E-03     6.73491E-03    -15.5379E-03     24.9456E-03    -9.53187E-03     6.71176E-03
            2295     9.81131E-03     8.74628E-03    -11.8367E+06    -52.0914E+06     4.62212E+06    -913.311E+03    -13.6637E-03     22.8545E-03    -9.19078E-03     4.69054E-03    -13.6549E-03     22.6054E-03    -9.07497E-03     4.67399E-03
            2296     8.92297E-03     8.74072E-03    -12.4535E+06    -56.5747E+06     5.32932E+06    -331.138E+03    -12.1656E-03     20.9870E-03    -8.82145E-03     3.45766E-03    -12.1541E-03     20.7151E-03    -8.69471E-03     3.45001E-03
            2297     8.03319E-03     8.73654E-03    -13.4515E+06    -57.9598E+06     2.27989E+06    -522.541E+03    -10.9662E-03     19.4604E-03    -8.49426E-03     2.78124E-03    -10.9531E-03     19.1872E-03    -8.37931E-03     2.77204E-03
            2298     7.14251E-03     8.73370E-03    -14.4771E+06    -56.5264E+06    -1.55336E+06    -740.195E+03    -10.0164E-03     18.2304E-03    -8.21403E-03     2.48616E-03    -10.0048E-03     17.9713E-03    -8.11884E-03     2.47480E-03
            2299     6.25101E-03     8.73133E-03    -15.2784E+06    -56.1983E+06    -5.72120E+06    -846.158E+03    -9.28857E-03     17.2669E-03    -7.97829E-03     2.25621E-03    -9.27537E-03     17.0165E-03    -7.90325E-03     2.24392E-03
            2300     5.35904E-03     8.72967E-03    -15.8431E+06    -55.9522E+06    -9.31437E+06    -991.566E+03    -8.72158E-03     16.5027E-03    -7.78110E-03     2.08307E-03    -8.70630E-03     16.2596E-03    -7.72357E-03     2.06923E-03
            2301     4.46653E-03     8.72808E-03    -16.4077E+06    -55.7478E+06    -12.1825E+06    -997.136E+03    -8.27756E-03     15.8943E-03    -7.61674E-03     1.87994E-03    -8.26121E-03     15.6571E-03    -7.57303E-03     1.86629E-03
            2302     3.57374E-03     8.72705E-03    -16.9991E+06    -55.5937E+06    -14.3253E+06    -791.541E+03    -7.92553E-03     15.4056E-03    -7.48012E-03     1.60317E-03    -7.90923E-03     15.1732E-03    -7.44649E-03     1.59237E-03
            2303     2.68058E-03     8.72604E-03    -17.4286E+06    -55.2696E+06    -15.8498E+06    -584.305E+03    -7.63242E-03     15.0018E-03    -7.36935E-03     1.30739E-03    -7.61651E-03     14.7738E-03    -7.34319E-03     1.29944E-03
            2304     1.78722E-03     8.72544E-03    -17.5976E+06    -54.9415E+06    -16.9365E+06    -438.953E+03    -7.40775E-03     14.6946E-03    -7.28688E-03     933.137E-06    -7.39166E-03     14.4702E-03    -7.26638E-03     927.225E-06
            2305     893.643E-06     8.72498E-03    -17.7595E+06    -54.8098E+06    -17.5782E+06    -144.338E+03    -7.27991E-03     14.5036E-03    -7.22372E-03     535.764E-06    -7.26382E-03     14.2814E-03    -7.20639E-03     533.748E-06
            2306     16.8519E-03     7.95168E-03    -3.29963E+06     100.299E+06     53.4591E+06     1.26392E+06    -29.9703E-03     44.5838E-03    -14.6134E-03     26.9816E-03    -30.2755E-03     45.0782E-03    -14.4868E-03     26.9212E-03
            2307     15.9810E-03     7.90649E-03    -6.08152E+06     88.9320E+06     23.8651E+06     2.69470E+06    -30.0259E-03     43.6589E-03    -13.6330E-03     38.8927E-03    -30.3015E-03     44.1596E-03    -13.6338E-03     38.8286E-03
            2308     15.1064E-03     7.87266E-03    -6.12922E+06     57.3561E+06     30.8203E+03     3.76478E+06    -28.0097E-03     40.6776E-03    -12.6679E-03     29.3264E-03    -28.1611E-03     41.0110E-03    -12.7420E-03     29.3044E-03
            2309     14.2305E-03     7.84274E-03    -6.98932E+06     13.3009E+06    -5.48191E+06     2.39635E+06    -25.3479E-03     37.1938E-03    -11.8459E-03     22.8978E-03    -25.4106E-03     37.2951E-03    -11.8825E-03     22.8874E-03
            2310     13.3519E-03     7.82046E-03    -7.95196E+06    -17.8424E+06    -5.65633E+06    -1.02310E+06    -22.4517E-03     33.5526E-03    -11.1009E-03     16.8221E-03    -22.4655E-03     33.4915E-03    -11.0918E-03     16.7836E-03
            2311     12.4707E-03     7.80316E-03    -9.51325E+06    -32.6127E+06     -175.35E+03    -2.12967E+06    -19.4691E-03     29.9247E-03    -10.4557E-03     12.2602E-03    -19.4732E-03     29.7801E-03    -10.3955E-03     12.2174E-03
            2312     11.5868E-03     7.79127E-03    -12.2295E+06    -42.9434E+06     2.14089E+06    -1.81224E+06    -16.7264E-03     26.6264E-03    -9.90005E-03     8.85917E-03    -16.7306E-03     26.4287E-03    -9.80934E-03     8.82631E-03
            2313     10.7007E-03     7.78274E-03    -13.7914E+06    -48.3526E+06     1.63375E+06    -2.49789E+06    -14.4610E-03     23.8911E-03    -9.43018E-03     6.67050E-03    -14.4635E-03     23.6684E-03    -9.33190E-03     6.63199E-03
            2314     9.81293E-03     7.77719E-03    -13.9498E+06    -53.3621E+06     3.26489E+06    -2.39716E+06    -12.6425E-03     21.7084E-03    -9.06593E-03     5.44009E-03    -12.6405E-03     21.4580E-03    -8.95200E-03     5.40481E-03
            2315     8.92340E-03     7.77309E-03    -14.1860E+06    -56.9336E+06     4.30246E+06    -1.65986E+06    -11.2670E-03     20.0466E-03    -8.77960E-03     4.81827E-03    -11.2622E-03     19.7769E-03    -8.65497E-03     4.79374E-03
            2316     8.03298E-03     7.77057E-03    -14.6145E+06    -57.6661E+06     1.39558E+06    -1.61536E+06    -10.2792E-03     18.8135E-03    -8.53431E-03     4.42912E-03    -10.2712E-03     18.5448E-03    -8.42252E-03     4.40595E-03
            2317     7.14168E-03     7.76850E-03    -14.9525E+06    -56.7001E+06    -2.34931E+06    -1.82849E+06    -9.56719E-03     17.8971E-03    -8.32991E-03     4.21822E-03    -9.55665E-03     17.6390E-03    -8.23776E-03     4.19286E-03
            2318     6.24997E-03     7.76709E-03    -15.1667E+06    -56.3781E+06    -5.93574E+06    -1.78691E+06    -9.05502E-03     17.2165E-03    -8.16150E-03     3.96635E-03    -9.04073E-03     16.9655E-03    -8.08744E-03     3.94193E-03
            2319     5.35776E-03     7.76587E-03    -15.5953E+06    -56.3079E+06    -9.11495E+06    -1.61355E+06    -8.65540E-03     16.6772E-03    -8.02181E-03     3.68097E-03    -8.63868E-03     16.4317E-03    -7.96313E-03     3.65908E-03
            2320     4.46528E-03     7.76499E-03    -16.0780E+06    -56.1890E+06    -11.6152E+06    -1.35075E+06    -8.33730E-03     16.2450E-03    -7.90770E-03     3.33120E-03    -8.31951E-03     16.0043E-03    -7.86099E-03     3.31297E-03
            2321     3.57249E-03     7.76413E-03    -16.3127E+06    -56.1262E+06    -13.6511E+06    -1.15739E+06    -8.10377E-03     15.9172E-03    -7.81342E-03     2.84200E-03    -8.08426E-03     15.6801E-03    -7.77664E-03     2.82649E-03
            2322     2.67961E-03     7.76367E-03    -16.3590E+06    -55.7629E+06    -14.9219E+06    -925.259E+03    -7.91223E-03     15.6496E-03    -7.73739E-03     2.25341E-03    -7.89162E-03     15.4162E-03    -7.70743E-03     2.24107E-03
            2323     1.78645E-03     7.76316E-03    -16.4985E+06    -55.5471E+06    -15.9243E+06    -584.370E+03    -7.76002E-03     15.4407E-03    -7.68071E-03     1.58564E-03    -7.73903E-03     15.2102E-03    -7.65587E-03     1.57784E-03
            2324     893.289E-06     7.76298E-03    -16.5785E+06    -55.3449E+06    -16.3571E+06    -171.915E+03    -7.68342E-03     15.3135E-03    -7.63012E-03     903.660E-06    -7.66243E-03     15.0851E-03    -7.60762E-03     901.319E-06
            2325     16.8561E-03     6.95749E-03    -2.89045E+06     99.5721E+06     55.7646E+06     1.62737E+06    -31.7510E-03     46.2793E-03    -14.5283E-03     25.5101E-03    -32.0518E-03     46.7617E-03    -14.3897E-03     25.4458E-03
            2326     15.9834E-03     6.91487E-03    -5.16843E+06     87.4423E+06     24.5702E+06     2.69042E+06    -31.2745E-03     44.7246E-03    -13.4500E-03     35.3308E-03    -31.5364E-03     45.2075E-03    -13.4465E-03     35.2611E-03
            2327     15.1111E-03     6.88426E-03    -6.98254E+06     56.5833E+06     1.73199E+06     3.71399E+06    -28.4374E-03     40.8671E-03    -12.4296E-03     25.5538E-03    -28.5892E-03     41.1903E-03    -12.4929E-03     25.5322E-03
            2328     14.2348E-03     6.85926E-03    -7.16027E+06     17.7563E+06     1.18655E+06     2.66045E+06    -24.7656E-03     36.3770E-03    -11.6114E-03     20.0614E-03    -24.8425E-03     36.4884E-03    -11.6208E-03     20.0584E-03
            2329     13.3553E-03     6.84032E-03    -8.09518E+06    -15.1127E+06    -527.411E+03     156.130E+03    -21.2397E-03     32.1415E-03    -10.9018E-03     15.0358E-03    -21.2645E-03     32.0856E-03    -10.8708E-03     15.0157E-03
            2330     12.4730E-03     6.82730E-03    -10.3068E+06    -33.2364E+06     4.17283E+06    -515.583E+03    -17.9910E-03     28.3284E-03    -10.3375E-03     11.4625E-03    -18.0041E-03     28.1751E-03    -10.2535E-03     11.4426E-03
            2331     11.5877E-03     6.81844E-03    -11.2404E+06    -41.3049E+06     6.96553E+06    -1.83988E+06    -15.2241E-03     25.1052E-03    -9.88119E-03     9.23686E-03    -15.2326E-03     24.9072E-03    -9.77017E-03     9.20485E-03
            2332     10.7003E-03     6.81260E-03    -11.3363E+06    -47.6921E+06     7.00154E+06    -3.62362E+06    -13.1020E-03     22.6309E-03    -9.52888E-03     8.03555E-03    -13.1011E-03     22.4002E-03    -9.40828E-03     7.98326E-03
            2333     9.81105E-03     6.80899E-03    -12.3117E+06    -54.9083E+06     6.87967E+06    -3.49502E+06    -11.5785E-03     20.8557E-03    -9.27711E-03     7.42631E-03    -11.5714E-03     20.5900E-03    -9.14524E-03     7.37729E-03
            2334     8.92079E-03     6.80648E-03    -13.5428E+06    -57.4883E+06     4.75501E+06    -2.80409E+06    -10.5270E-03     19.6112E-03    -9.08412E-03     7.09645E-03    -10.5190E-03     19.3372E-03    -8.95735E-03     7.05740E-03
            2335     8.02967E-03     6.80469E-03    -14.4089E+06    -57.5184E+06     1.36691E+06    -2.95273E+06    -9.85765E-03     18.7911E-03    -8.93342E-03     6.77213E-03    -9.84877E-03     18.5229E-03    -8.82229E-03     6.73183E-03
            2336     7.13824E-03     6.80350E-03    -14.7972E+06    -56.9175E+06    -1.98243E+06    -3.34833E+06    -9.42424E-03     18.2401E-03    -8.81589E-03     6.46405E-03    -9.41318E-03     17.9802E-03    -8.72181E-03     6.41914E-03
            2337     6.24635E-03     6.80242E-03    -14.7976E+06    -57.1866E+06    -5.56072E+06    -3.15660E+06    -9.13016E-03     17.8514E-03    -8.72128E-03     6.03088E-03    -9.11343E-03     17.5953E-03    -8.64470E-03     5.98883E-03
            2338     5.35435E-03     6.80172E-03    -14.5841E+06    -57.0924E+06    -7.94138E+06    -2.57145E+06    -8.92646E-03     17.5746E-03    -8.64815E-03     5.45811E-03    -8.90528E-03     17.3220E-03    -8.58392E-03     5.42390E-03
            2339     4.46213E-03     6.80103E-03    -14.4164E+06    -56.9081E+06    -9.88352E+06    -2.19784E+06    -8.76756E-03     17.3575E-03    -8.58989E-03     4.80982E-03    -8.74295E-03     17.1083E-03    -8.53589E-03     4.78070E-03
            2340     3.56983E-03     6.80053E-03    -14.2408E+06    -56.7874E+06    -11.5250E+06    -1.90560E+06    -8.65244E-03     17.1968E-03    -8.54432E-03     4.01097E-03    -8.62472E-03     16.9503E-03    -8.49895E-03     3.98582E-03
            2341     2.67740E-03     6.80006E-03    -14.0473E+06    -56.7191E+06    -12.7742E+06    -1.42097E+06    -8.57791E-03     17.0865E-03    -8.50857E-03     3.10041E-03    -8.54748E-03     16.8418E-03    -8.46983E-03     3.08169E-03
            2342     1.78504E-03     6.79989E-03    -13.8748E+06    -56.4449E+06    -13.4271E+06    -800.502E+03    -8.52014E-03     17.0009E-03    -8.48074E-03     2.14997E-03    -8.48836E-03     16.7584E-03    -8.44591E-03     2.13939E-03
            2343     892.481E-06     6.79962E-03    -13.7557E+06    -55.9672E+06    -13.5679E+06    -388.215E+03    -8.47470E-03     16.9353E-03    -8.46058E-03     1.19421E-03    -8.44273E-03     16.6956E-03    -8.42732E-03     1.18907E-03
            2344     16.8574E-03     5.96399E-03    -3.26323E+06     97.4891E+06     56.3898E+06     1.14329E+06    -33.3901E-03     47.8168E-03    -14.4267E-03     25.4165E-03    -33.6866E-03     48.2844E-03    -14.2814E-03     25.3390E-03
            2345     15.9875E-03     5.92169E-03    -4.90355E+06     85.5210E+06     26.0515E+06     4.11685E+06    -31.6349E-03     44.9259E-03    -13.2909E-03     32.5541E-03    -31.8853E-03     45.3873E-03    -13.2776E-03     32.5043E-03
            2346     15.1139E-03     5.89678E-03    -7.72657E+06     56.8951E+06     5.09999E+06     5.14921E+06    -27.6012E-03     39.8825E-03    -12.2812E-03     22.3632E-03    -27.7560E-03     40.1974E-03    -12.3270E-03     22.3676E-03
            2347     14.2369E-03     5.87646E-03    -11.1654E+06     21.2410E+06     4.50508E+06     3.53054E+06    -23.1896E-03     34.7150E-03    -11.5254E-03     18.3139E-03    -23.2939E-03     34.8423E-03    -11.5174E-03     18.3280E-03
            2348     13.3559E-03     5.86236E-03    -13.9459E+06    -12.9590E+06     1.48688E+06     1.49737E+06    -19.1987E-03     30.1231E-03    -10.9244E-03     14.8548E-03    -19.2578E-03     30.0826E-03    -10.8779E-03     14.8561E-03
            2349     12.4714E-03     5.85299E-03    -14.4702E+06    -31.3120E+06     5.25571E+06    -1.35465E+06    -15.9636E-03     26.4595E-03    -10.4959E-03     12.6763E-03    -16.0016E-03     26.3199E-03    -10.4032E-03     12.6480E-03
            2350     11.5845E-03     5.84722E-03    -13.8619E+06    -39.2737E+06     8.23147E+06    -3.95439E+06    -13.5098E-03     23.7004E-03    -10.1905E-03     11.4950E-03    -13.5362E-03     23.5144E-03    -10.0723E-03     11.4371E-03
            2351     10.6955E-03     5.84372E-03    -14.4656E+06    -47.8934E+06     9.12679E+06    -4.50855E+06    -11.8447E-03     21.8371E-03    -9.99239E-03     10.9143E-03    -11.8623E-03     21.6069E-03    -9.85633E-03     10.8514E-03
            2352     9.80540E-03     5.84132E-03    -15.3357E+06    -55.5884E+06     8.68101E+06    -4.67495E+06    -10.8517E-03     20.7187E-03    -9.86698E-03     10.4208E-03    -10.8614E-03     20.4514E-03    -9.72073E-03     10.3570E-03
            2353     8.91461E-03     5.83986E-03    -14.9069E+06    -58.1325E+06     5.59743E+06    -5.02884E+06    -10.2533E-03     20.0246E-03    -9.77126E-03     9.96367E-03    -10.2524E-03     19.7481E-03    -9.63737E-03     9.89617E-03
            2354     8.02344E-03     5.83857E-03    -13.6983E+06    -57.6186E+06     2.11164E+06    -5.08230E+06    -9.90754E-03     19.6099E-03    -9.70240E-03     9.39379E-03    -9.89606E-03     19.3391E-03    -9.58843E-03     9.32619E-03
            2355     7.13200E-03     5.83766E-03    -13.0620E+06    -57.5907E+06    -952.320E+03    -4.98540E+06    -9.73362E-03     19.3918E-03    -9.65815E-03     8.68377E-03    -9.71443E-03     19.1245E-03    -9.56046E-03     8.61787E-03
            2356     6.24058E-03     5.83688E-03    -12.8785E+06    -58.2750E+06    -4.31888E+06    -4.70259E+06    -9.64650E-03     19.2722E-03    -9.62567E-03     7.88603E-03    -9.62041E-03     19.0059E-03    -9.54409E-03     7.82413E-03
            2357     5.34904E-03     5.83622E-03    -12.3839E+06    -58.4046E+06    -6.43004E+06    -4.23947E+06    -9.61297E-03     19.2169E-03    -9.60390E-03     6.94804E-03    -9.58109E-03     18.9523E-03    -9.53341E-03     6.89240E-03
            2358     4.45756E-03     5.83571E-03    -11.6400E+06    -58.0481E+06    -7.55464E+06    -3.52761E+06    -9.59452E-03     19.1828E-03    -9.58829E-03     5.94176E-03    -9.55777E-03     18.9205E-03    -9.52502E-03     5.89553E-03
            2359     3.56604E-03     5.83520E-03    -11.2165E+06    -58.0236E+06    -8.81743E+06    -2.77833E+06    -9.56920E-03     19.1452E-03    -9.57595E-03     4.84588E-03    -9.52850E-03     18.8841E-03    -9.51964E-03     4.80950E-03
            2360     2.67454E-03     5.83490E-03    -11.0025E+06    -58.1214E+06    -9.85817E+06    -2.07519E+06    -9.56068E-03     19.1294E-03    -9.56877E-03     3.68688E-03    -9.51722E-03     18.8691E-03    -9.51783E-03     3.65974E-03
            2361     1.78296E-03     5.83458E-03    -10.6767E+06    -57.7950E+06    -10.2180E+06    -1.27220E+06    -9.56623E-03     19.1304E-03    -9.56421E-03     2.51192E-03    -9.52117E-03     18.8719E-03    -9.51602E-03     2.49528E-03
            2362     891.554E-06     5.83452E-03    -10.2821E+06    -56.8251E+06    -10.3257E+06    -511.778E+03    -9.55949E-03     19.1201E-03    -9.56065E-03     1.37494E-03    -9.51362E-03     18.8664E-03    -9.51497E-03     1.36818E-03
            2363     16.8585E-03     4.96527E-03    -3.43680E+06     95.0203E+06     56.7736E+06     1.01037E+06    -34.2527E-03     48.6418E-03    -14.3891E-03     24.7720E-03    -34.5419E-03     49.0917E-03    -14.2380E-03     24.6900E-03
            2364     15.9890E-03     4.93030E-03    -6.77588E+06     80.8946E+06     24.3423E+06     4.09160E+06    -30.9800E-03     44.2200E-03    -13.2400E-03     29.5296E-03    -31.2201E-03     44.6532E-03    -13.2258E-03     29.4881E-03
            2365     15.1143E-03     4.91030E-03    -9.03910E+06     56.5845E+06     7.27589E+06     8.33896E+06    -25.4988E-03     37.8178E-03    -12.3189E-03     20.2651E-03    -25.6571E-03     38.1242E-03    -12.3515E-03     20.3222E-03
            2366     14.2350E-03     4.89596E-03    -13.8605E+06     25.8470E+06     11.5064E+06     7.27713E+06    -20.4567E-03     32.1881E-03    -11.7313E-03     17.9644E-03    -20.5893E-03     32.3302E-03    -11.6912E-03     18.0338E-03
            2367     13.3513E-03     4.88661E-03    -16.8254E+06    -7.50653E+06     7.74803E+06     645.991E+03    -16.5732E-03     27.8846E-03    -11.3114E-03     16.5810E-03    -16.6629E-03     27.8657E-03    -11.2373E-03     16.5754E-03
            2368     12.4647E-03     4.88054E-03    -15.7297E+06    -28.0795E+06     8.66727E+06    -4.75864E+06    -13.8869E-03     24.9456E-03    -11.0587E-03     15.6167E-03    -13.9406E-03     24.8188E-03    -10.9518E-03     15.5468E-03
            2369     11.5758E-03     4.87726E-03    -15.1753E+06    -39.5111E+06     10.3814E+06    -5.70022E+06    -12.2100E-03     23.1303E-03    -10.9203E-03     14.8441E-03    -12.2456E-03     22.9418E-03    -10.7891E-03     14.7649E-03
            2370     10.6860E-03     4.87499E-03    -15.6252E+06    -47.9964E+06     11.2424E+06    -5.92987E+06    -11.2937E-03     22.1484E-03    -10.8548E-03     14.2466E-03    -11.3199E-03     21.9162E-03    -10.7063E-03     14.1660E-03
            2371     9.79564E-03     4.87339E-03    -15.3251E+06    -55.0724E+06     9.91237E+06    -7.35537E+06    -10.8475E-03     21.6694E-03    -10.8218E-03     13.4321E-03    -10.8596E-03     21.4028E-03    -10.6702E-03     13.3342E-03
            2372     8.90509E-03     4.87221E-03    -14.3444E+06    -58.5006E+06     6.30213E+06    -8.52422E+06    -10.6670E-03     21.4633E-03    -10.7963E-03     12.5142E-03    -10.6637E-03     21.1830E-03    -10.6592E-03     12.4019E-03
            2373     8.01445E-03     4.87118E-03    -12.8427E+06    -58.8161E+06     2.48744E+06    -8.58964E+06    -10.6004E-03     21.3778E-03    -10.7773E-03     11.4481E-03    -10.5835E-03     21.0991E-03    -10.6610E-03     11.3354E-03
            2374     7.12383E-03     4.87030E-03    -10.8828E+06    -59.3379E+06    -526.198E+03    -7.57182E+06    -10.5935E-03     21.3626E-03    -10.7691E-03     10.2501E-03    -10.5615E-03     21.0828E-03    -10.6699E-03     10.1510E-03
            2375     6.23317E-03     4.86951E-03    -9.36926E+06    -59.7535E+06    -3.00238E+06    -6.50007E+06    -10.6337E-03     21.4003E-03    -10.7665E-03     9.02561E-03    -10.5899E-03     21.1196E-03    -10.6813E-03     8.94066E-03
            2376     5.34264E-03     4.86885E-03    -8.64397E+06    -60.1198E+06    -4.97327E+06    -5.71406E+06    -10.6830E-03     21.4490E-03    -10.7659E-03     7.75217E-03    -10.6321E-03     21.1682E-03    -10.6911E-03     7.67760E-03
            2377     4.45213E-03     4.86823E-03    -8.30938E+06    -59.9645E+06    -5.63579E+06    -4.74565E+06    -10.7164E-03     21.4852E-03    -10.7689E-03     6.47179E-03    -10.6630E-03     21.2057E-03    -10.6981E-03     6.40991E-03
            2378     3.56168E-03     4.86783E-03    -7.94944E+06    -59.8463E+06    -6.07675E+06    -3.64503E+06    -10.7375E-03     21.5084E-03    -10.7709E-03     5.18787E-03    -10.6818E-03     21.2295E-03    -10.7030E-03     5.14035E-03
            2379     2.67122E-03     4.86740E-03    -7.75449E+06    -59.8966E+06    -6.72929E+06    -2.61964E+06    -10.7499E-03     21.5216E-03    -10.7717E-03     3.89794E-03    -10.6922E-03     21.2431E-03    -10.7072E-03     3.86377E-03
            2380     1.78085E-03     4.86719E-03    -7.68798E+06    -59.6619E+06    -7.23777E+06    -1.66444E+06    -10.7583E-03     21.5319E-03    -10.7736E-03     2.61877E-03    -10.6999E-03     21.2553E-03    -10.7121E-03     2.59707E-03
            2381     890.338E-06     4.86695E-03    -7.63402E+06    -58.1462E+06    -7.40926E+06    -797.152E+03    -10.7713E-03     21.5445E-03    -10.7732E-03     1.42429E-03    -10.7146E-03     21.2761E-03    -10.7148E-03     1.41387E-03
            2382     16.8588E-03     3.96870E-03    -2.93634E+06     92.3064E+06     56.9127E+06     2.82901E+06    -33.8048E-03     48.2805E-03    -14.4757E-03     23.9172E-03    -34.0797E-03     48.7080E-03    -14.3207E-03     23.8652E-03
            2383     15.9869E-03     3.93896E-03    -9.62138E+06     75.7261E+06     26.7860E+06     7.10305E+06    -28.4407E-03     41.8728E-03    -13.4322E-03     26.7668E-03    -28.6784E-03     42.2682E-03    -13.3941E-03     26.7830E-03
            2384     15.1103E-03     3.92700E-03    -14.5961E+06     55.2558E+06     9.25639E+06     9.78582E+06    -21.9468E-03     34.6380E-03    -12.6912E-03     20.0978E-03    -22.1286E-03     34.9379E-03    -12.7039E-03     20.1877E-03
            2385     14.2271E-03     3.91848E-03    -14.3194E+06     33.1217E+06     16.3076E+06     6.73956E+06    -17.1344E-03     29.4631E-03    -12.3287E-03     20.5167E-03    -17.2852E-03     29.6337E-03    -12.2745E-03     20.5861E-03
            2386     13.3406E-03     3.91288E-03    -13.1930E+06     1.09681E+06     16.2816E+06    -1.21841E+06    -14.2952E-03     26.4347E-03    -12.1395E-03     20.2510E-03    -14.3909E-03     26.4404E-03    -12.0405E-03     20.2248E-03
            2387     12.4519E-03     3.90928E-03    -14.5777E+06    -25.9333E+06     12.6420E+06    -6.83911E+06    -12.7620E-03     24.8131E-03    -12.0511E-03     19.3581E-03    -12.8183E-03     24.6889E-03    -11.9291E-03     19.2632E-03
            2388     11.5626E-03     3.90704E-03    -14.4671E+06    -40.5553E+06     10.3512E+06    -8.45550E+06    -12.0839E-03     24.1014E-03    -12.0175E-03     18.0740E-03    -12.1141E-03     23.9063E-03    -11.8860E-03     17.9602E-03
            2389     10.6729E-03     3.90523E-03    -12.1727E+06    -47.3639E+06     9.63455E+06    -9.38005E+06    -11.8238E-03     23.8343E-03    -12.0105E-03     16.6852E-03    -11.8311E-03     23.6022E-03    -11.8760E-03     16.5607E-03
            2390     9.78327E-03     3.90386E-03    -10.0592E+06    -54.6328E+06     6.18845E+06    -10.6874E+06    -11.7745E-03     23.7796E-03    -12.0051E-03     15.1585E-03    -11.7554E-03     23.5127E-03    -11.8803E-03     15.0180E-03
            2391     8.89363E-03     3.90264E-03     -8.6122E+06    -59.0377E+06     1.99380E+06    -11.4522E+06    -11.8219E-03     23.8182E-03    -11.9964E-03     13.6086E-03    -11.7828E-03     23.5331E-03    -11.8883E-03     13.4588E-03
            2392     8.00414E-03     3.90156E-03    -7.58093E+06    -60.7999E+06    -1.38949E+06    -11.2820E+06    -11.8729E-03     23.8601E-03    -11.9872E-03     12.0558E-03    -11.8211E-03     23.5694E-03    -11.8950E-03     11.9087E-03
            2393     7.11469E-03     3.90068E-03    -6.72528E+06    -62.2898E+06    -3.38051E+06    -10.0656E+06    -11.9150E-03     23.8978E-03    -11.9828E-03     10.5418E-03    -11.8537E-03     23.6012E-03    -11.8996E-03     10.4107E-03
            2394     6.22531E-03     3.89981E-03    -5.71049E+06    -62.3629E+06    -4.00605E+06    -8.20449E+06    -11.9454E-03     23.9264E-03    -11.9810E-03     9.07449E-03    -11.8780E-03     23.6288E-03    -11.9023E-03     8.96765E-03
            2395     5.33596E-03     3.89905E-03    -4.97472E+06    -62.4709E+06    -4.63413E+06    -6.49081E+06    -11.9652E-03     23.9430E-03    -11.9779E-03     7.63889E-03    -11.8929E-03     23.6447E-03    -11.9032E-03     7.55437E-03
            2396     4.44662E-03     3.89849E-03    -4.73033E+06    -62.2552E+06    -4.54486E+06    -5.19458E+06    -11.9756E-03     23.9528E-03    -11.9772E-03     6.28398E-03    -11.9026E-03     23.6550E-03    -11.9028E-03     6.21637E-03
            2397     3.55729E-03     3.89793E-03    -4.84829E+06    -62.1536E+06    -4.24080E+06    -4.05316E+06    -11.9834E-03     23.9597E-03    -11.9762E-03     4.96942E-03    -11.9115E-03     23.6621E-03    -11.9003E-03     4.91668E-03
            2398     2.66801E-03     3.89762E-03    -5.02695E+06    -62.0769E+06    -4.44722E+06    -2.79703E+06    -11.9769E-03     23.9485E-03    -11.9716E-03     3.69813E-03    -11.9057E-03     23.6519E-03    -11.8965E-03     3.66169E-03
            2399     1.77863E-03     3.89728E-03    -5.28703E+06    -61.5204E+06    -4.83568E+06    -1.76064E+06    -11.9670E-03     23.9331E-03    -11.9661E-03     2.48251E-03    -11.8974E-03     23.6403E-03    -11.8934E-03     2.45955E-03
            2400     889.385E-06     3.89719E-03    -5.62562E+06    -59.9390E+06    -5.37466E+06    -1.02601E+06    -11.9587E-03     23.9186E-03    -11.9599E-03     1.34816E-03    -11.8922E-03     23.6353E-03    -11.8917E-03     1.33491E-03
            2401     16.8538E-03     2.97160E-03    -5.24910E+06     86.5455E+06     54.7510E+06     5.08553E+06    -31.3247E-03     46.1530E-03    -14.8283E-03     23.9780E-03    -31.5900E-03     46.5488E-03    -14.6724E-03     23.9711E-03
            2402     15.9804E-03     2.95199E-03    -9.79804E+06     72.5144E+06     38.5744E+06     10.7324E+06    -23.9404E-03     37.9962E-03    -14.0558E-03     26.5756E-03    -24.1786E-03     38.3461E-03    -13.9539E-03     26.6629E-03
            2403     15.0973E-03     2.94781E-03    -11.6143E+06     59.5919E+06     22.0633E+06     8.70585E+06    -17.8897E-03     31.4704E-03    -13.5807E-03     23.5779E-03    -18.0773E-03     31.7647E-03    -13.5400E-03     23.6669E-03
            2404     14.2110E-03     2.94328E-03    -10.5630E+06     39.9801E+06     15.8119E+06     1.69998E+06    -15.1077E-03     28.4895E-03    -13.3818E-03     24.9504E-03    -15.2473E-03     28.6877E-03    -13.3454E-03     24.9598E-03
            2405     13.3229E-03     2.93969E-03    -9.52746E+06     6.24552E+06     11.9202E+06    -2.51305E+06    -13.9377E-03     27.2597E-03    -13.3220E-03     23.6068E-03    -14.0150E-03     27.2906E-03    -13.2576E-03     23.5666E-03
            2406     12.4347E-03     2.93703E-03    -10.1305E+06    -22.4529E+06     4.33395E+06    -6.66814E+06    -13.5358E-03     26.8210E-03    -13.2852E-03     21.2825E-03    -13.5622E-03     26.7189E-03    -13.2163E-03     21.1913E-03
            2407     11.5463E-03     2.93477E-03    -10.3067E+06    -39.3295E+06    -2.19718E+06    -11.3701E+06    -13.4298E-03     26.6820E-03    -13.2522E-03     18.8585E-03    -13.4224E-03     26.5045E-03    -13.1912E-03     18.7081E-03
            2408     10.6583E-03     2.93317E-03    -8.74503E+06    -48.0188E+06    -5.24516E+06    -13.0316E+06    -13.4175E-03     26.6434E-03    -13.2259E-03     16.5938E-03    -13.3849E-03     26.4242E-03    -13.1698E-03     16.4228E-03
            2409     9.77014E-03     2.93163E-03    -7.00397E+06    -55.2132E+06    -9.47405E+06    -12.8750E+06    -13.4354E-03     26.6255E-03    -13.1901E-03     14.5024E-03    -13.3772E-03     26.3738E-03    -13.1473E-03     14.3341E-03
            2410     8.88221E-03     2.93042E-03    -6.08878E+06    -60.5925E+06    -12.3108E+06    -12.6100E+06    -13.4292E-03     26.5870E-03    -13.1578E-03     12.6096E-03    -13.3544E-03     26.3110E-03    -13.1227E-03     12.4452E-03
            2411     7.99413E-03     2.92932E-03    -5.87540E+06    -63.3751E+06    -13.1758E+06    -11.5457E+06    -13.4028E-03     26.5337E-03    -13.1309E-03     10.9037E-03    -13.3215E-03     26.2446E-03    -13.0964E-03     10.7534E-03
            2412     7.10611E-03     2.92841E-03    -6.12893E+06    -65.5125E+06    -12.9902E+06    -10.0521E+06    -13.3663E-03     26.4739E-03    -13.1076E-03     9.35555E-03    -13.2833E-03     26.1741E-03    -13.0687E-03     9.22475E-03
            2413     6.21803E-03     2.92756E-03    -6.52702E+06    -65.7483E+06    -11.8229E+06    -8.32310E+06    -13.2908E-03     26.3781E-03    -13.0874E-03     7.95407E-03    -13.2111E-03     26.0760E-03    -13.0417E-03     7.84581E-03
            2414     5.32985E-03     2.92689E-03    -6.52562E+06    -65.3276E+06    -10.5602E+06    -6.53882E+06    -13.2203E-03     26.2896E-03    -13.0694E-03     6.64351E-03    -13.1430E-03     25.9878E-03    -13.0180E-03     6.55847E-03
            2415     4.44164E-03     2.92627E-03    -6.27392E+06    -64.7667E+06    -9.07962E+06    -5.00680E+06    -13.1680E-03     26.2227E-03    -13.0547E-03     5.41468E-03    -13.0924E-03     25.9211E-03    -12.9971E-03     5.34956E-03
            2416     3.55339E-03     2.92583E-03    -6.25600E+06    -64.5008E+06    -7.80227E+06    -3.69190E+06    -13.1153E-03     26.1578E-03    -13.0425E-03     4.25339E-03    -13.0419E-03     25.8557E-03    -12.9789E-03     4.20537E-03
            2417     2.66506E-03     2.92545E-03    -6.41086E+06    -64.2600E+06    -7.00770E+06    -2.66952E+06    -13.0767E-03     26.1075E-03    -13.0308E-03     3.15358E-03    -13.0055E-03     25.8057E-03    -12.9634E-03     3.11887E-03
            2418     1.77677E-03     2.92527E-03    -6.35781E+06    -63.2863E+06    -6.52508E+06    -1.81994E+06    -13.0447E-03     26.0626E-03    -13.0179E-03     2.11662E-03    -12.9753E-03     25.7649E-03    -12.9495E-03     2.09293E-03
            2419     888.344E-06     2.92502E-03    -6.17923E+06    -61.9218E+06    -6.19603E+06    -1.09859E+06    -13.0078E-03     26.0212E-03    -13.0134E-03     1.14946E-03    -12.9399E-03     25.7300E-03    -12.9456E-03     1.13504E-03
            2420     16.8423E-03     1.97716E-03    -5.97091E+06     80.8426E+06     52.9150E+06     6.19607E+06    -26.4979E-03     42.1582E-03    -15.6604E-03     26.4753E-03    -26.7460E-03     42.5196E-03    -15.5043E-03     26.5052E-03
            2421     15.9611E-03     1.97153E-03    -4.87211E+06     72.2330E+06     47.2099E+06     6.80164E+06    -19.9401E-03     35.1448E-03    -15.2047E-03     29.1793E-03    -20.1549E-03     35.4623E-03    -15.0663E-03     29.2359E-03
            2422     15.0752E-03     1.97041E-03    -393.976E+03     65.7671E+06     30.1460E+06     4.47701E+06    -16.8644E-03     31.7771E-03    -14.9127E-03     27.5395E-03    -17.0127E-03     32.0698E-03    -14.8568E-03     27.5819E-03
            2423     14.1888E-03     1.96724E-03     87.2599E+03     43.6580E+06     7.58731E+06     1.41681E+06    -16.4851E-03     31.1904E-03    -14.7053E-03     25.7846E-03    -16.5626E-03     31.4009E-03    -14.7308E-03     25.7939E-03
            2424     13.3030E-03     1.96395E-03    -2.18044E+06     8.91554E+06    -3.46751E+06    -2.04979E+06    -16.2148E-03     30.8032E-03    -14.5884E-03     21.8866E-03    -16.2356E-03     30.8576E-03    -14.6155E-03     21.8544E-03
            2425     12.4173E-03     1.96132E-03    -2.60393E+06    -17.5394E+06    -10.8810E+06    -6.48326E+06    -15.8995E-03     30.3838E-03    -14.4843E-03     18.3419E-03    -15.8725E-03     30.3165E-03    -14.5095E-03     18.2543E-03
            2426     11.5315E-03     1.95944E-03    -3.04695E+06    -36.6310E+06    -18.6230E+06    -10.6638E+06    -15.6595E-03     30.0365E-03    -14.3770E-03     15.4972E-03    -15.5954E-03     29.8853E-03    -14.4126E-03     15.3567E-03
            2427     10.6453E-03     1.95778E-03    -4.81769E+06    -49.5115E+06    -22.4505E+06    -12.3954E+06    -15.4374E-03     29.7256E-03    -14.2882E-03     13.1497E-03    -15.3576E-03     29.5179E-03    -14.3217E-03     12.9875E-03
            2428     9.75921E-03     1.95652E-03    -6.47589E+06    -57.1659E+06    -25.3418E+06    -11.7562E+06    -15.2047E-03     29.4070E-03    -14.2023E-03     11.2192E-03    -15.1178E-03     29.1675E-03    -14.2367E-03     11.0658E-03
            2429     8.87266E-03     1.95544E-03    -8.02878E+06    -62.8890E+06    -27.0720E+06    -10.5193E+06    -14.9914E-03     29.1169E-03    -14.1255E-03     9.59641E-03    -14.9014E-03     28.8535E-03    -14.1580E-03     9.45930E-03
            2430     7.98604E-03     1.95456E-03    -9.63812E+06    -66.2698E+06    -26.3663E+06    -9.22348E+06    -14.7914E-03     28.8548E-03    -14.0634E-03     8.19736E-03    -14.7054E-03     28.5757E-03    -14.0852E-03     8.07726E-03
            2431     7.09920E-03     1.95373E-03    -10.8974E+06    -68.2475E+06    -24.4707E+06    -7.86074E+06    -14.5943E-03     28.6055E-03    -14.0112E-03     6.96700E-03    -14.5145E-03     28.3156E-03    -14.0188E-03     6.86471E-03
            2432     6.21217E-03     1.95316E-03    -11.6787E+06    -68.6503E+06    -22.3827E+06    -6.60979E+06    -14.4126E-03     28.3771E-03    -13.9645E-03     5.88121E-03    -14.3391E-03     28.0832E-03    -13.9599E-03     5.79525E-03
            2433     5.32500E-03     1.95256E-03    -12.1549E+06    -67.9624E+06    -20.1421E+06    -5.39323E+06    -14.2526E-03     28.1772E-03    -13.9246E-03     4.90475E-03    -14.1857E-03     27.8843E-03    -13.9092E-03     4.83466E-03
            2434     4.43770E-03     1.95210E-03    -12.4100E+06    -67.2457E+06    -18.0325E+06    -4.15127E+06    -14.1183E-03     28.0102E-03    -13.8919E-03     3.97680E-03    -14.0567E-03     27.7181E-03    -13.8666E-03     3.92285E-03
            2435     3.55027E-03     1.95173E-03    -12.3786E+06    -66.5638E+06    -15.9887E+06    -3.03033E+06    -14.0097E-03     27.8764E-03    -13.8667E-03     3.10566E-03    -13.9519E-03     27.5848E-03    -13.8322E-03     3.06627E-03
            2436     2.66278E-03     1.95147E-03    -12.1551E+06    -65.9444E+06    -14.4149E+06    -2.24824E+06    -13.9309E-03     27.7773E-03    -13.8465E-03     2.29734E-03    -13.8752E-03     27.4861E-03    -13.8053E-03     2.26818E-03
            2437     1.77521E-03     1.95125E-03    -11.9477E+06    -64.9691E+06    -13.0728E+06    -1.71704E+06    -13.8741E-03     27.7046E-03    -13.8304E-03     1.53751E-03    -13.8208E-03     27.4161E-03    -13.7843E-03     1.51526E-03
            2438     887.663E-06     1.95121E-03    -11.9085E+06    -63.9919E+06    -12.0199E+06    -1.13498E+06    -13.8297E-03     27.6506E-03    -13.8209E-03     824.155E-06    -13.7790E-03     27.3659E-03    -13.7710E-03     809.279E-06
            2439     16.8154E-03     990.163E-06    -557.787E+03     80.2092E+06     56.0466E+06     3.70252E+06    -23.9004E-03     40.9774E-03    -17.0769E-03     30.9805E-03    -24.1153E-03     41.3123E-03    -16.9122E-03     30.9977E-03
            2440     15.9331E-03     991.170E-06     400.848E+03     74.1356E+06     44.6500E+06     782.075E+03    -22.1707E-03     38.8384E-03    -16.6677E-03     27.9503E-03    -22.3485E-03     39.1506E-03    -16.5526E-03     27.9441E-03
            2441     15.0503E-03     989.567E-06     1.84678E+06     64.5343E+06     20.0828E+06     1.11576E+06    -21.2814E-03     37.5193E-03    -16.2379E-03     22.1601E-03    -21.3978E-03     37.8124E-03    -16.2337E-03     22.1664E-03
            2442     14.1693E-03     985.763E-06     3.19154E+06     45.2071E+06    -4.91166E+06     3.12354E+06    -20.4296E-03     36.2721E-03    -15.8425E-03     17.1214E-03    -20.4734E-03     36.5016E-03    -15.9373E-03     17.1567E-03
            2443     13.2880E-03     983.550E-06     3.69192E+06     14.2134E+06    -18.0960E+06    -378.163E+03    -19.3123E-03     34.8695E-03    -15.5571E-03     13.1726E-03    -19.2889E-03     34.9619E-03    -15.6736E-03     13.1643E-03
            2444     12.4051E-03     981.998E-06     2.84042E+06    -14.4794E+06    -24.5896E+06    -4.60474E+06    -18.3448E-03     33.6899E-03    -15.3452E-03     10.6045E-03    -18.2743E-03     33.6494E-03    -15.4513E-03     10.5428E-03
            2445     11.5211E-03     980.631E-06     586.572E+03    -34.9435E+06    -30.4377E+06    -6.14786E+06    -17.6016E-03     32.7628E-03    -15.1611E-03     8.68742E-03    -17.5041E-03     32.6315E-03    -15.2635E-03     8.60642E-03
            2446     10.6369E-03     979.685E-06    -2.78044E+06    -50.0954E+06    -32.7681E+06    -7.10298E+06    -16.9967E-03     32.0118E-03    -15.0150E-03     7.22833E-03    -16.8906E-03     31.8129E-03    -15.1022E-03     7.13538E-03
            2447     9.75180E-03     978.949E-06    -6.33523E+06    -59.4549E+06    -33.4033E+06    -6.89395E+06    -16.4938E-03     31.3844E-03    -14.8906E-03     6.09637E-03    -16.3909E-03     31.1448E-03    -14.9622E-03     6.00641E-03
            2448     8.86649E-03     978.310E-06    -9.25520E+06    -65.0605E+06    -33.7396E+06    -5.79222E+06    -16.0820E-03     30.8607E-03    -14.7787E-03     5.17612E-03    -15.9851E-03     30.5977E-03    -14.8396E-03     5.10061E-03
            2449     7.98074E-03     977.773E-06    -11.6182E+06    -68.2936E+06    -32.9456E+06    -4.88244E+06    -15.7253E-03     30.4081E-03    -14.6829E-03     4.40093E-03    -15.6366E-03     30.1313E-03    -14.7317E-03     4.33732E-03
            2450     7.09469E-03     977.381E-06    -13.5236E+06    -70.0200E+06    -31.0220E+06    -4.31537E+06    -15.4177E-03     30.0210E-03    -14.6034E-03     3.72852E-03    -15.3388E-03     29.7355E-03    -14.6373E-03     3.67236E-03
            2451     6.20838E-03     977.005E-06    -14.8687E+06    -70.4477E+06    -28.8122E+06    -3.81339E+06    -15.1620E-03     29.6965E-03    -14.5345E-03     3.13764E-03    -15.0924E-03     29.4075E-03    -14.5549E-03     3.08807E-03
            2452     5.32188E-03     976.711E-06    -15.7836E+06    -69.9038E+06    -26.3710E+06    -3.08265E+06    -14.9355E-03     29.4115E-03    -14.4761E-03     2.60521E-03    -14.8748E-03     29.1231E-03    -14.4837E-03     2.56516E-03
            2453     4.43515E-03     976.442E-06    -16.5026E+06    -68.9309E+06    -23.9616E+06    -2.33876E+06    -14.7395E-03     29.1682E-03    -14.4287E-03     2.10154E-03    -14.6873E-03     28.8822E-03    -14.4247E-03     2.07115E-03
            2454     3.54831E-03     976.234E-06    -16.9608E+06    -68.0116E+06    -21.9518E+06    -1.83320E+06    -14.5890E-03     28.9800E-03    -14.3910E-03     1.63312E-03    -14.5433E-03     28.6963E-03    -14.3775E-03     1.60931E-03
            2455     2.66133E-03     976.091E-06    -17.0869E+06    -67.1521E+06    -20.4039E+06    -1.38910E+06    -14.4741E-03     28.8358E-03    -14.3617E-03     1.20757E-03    -14.4326E-03     28.5544E-03    -14.3416E-03     1.18953E-03
            2456     1.77427E-03     975.986E-06    -17.2435E+06    -66.1589E+06    -18.7901E+06    -995.905E+03    -14.3929E-03     28.7363E-03    -14.3434E-03     802.524E-06    -14.3560E-03     28.4578E-03    -14.3164E-03     789.738E-06
            2457     887.119E-06     975.908E-06    -17.6026E+06    -65.6954E+06    -17.9729E+06    -627.475E+03    -14.3449E-03     28.6775E-03    -14.3326E-03     432.620E-06    -14.3113E-03     28.4011E-03    -14.3017E-03     425.087E-06


