********************************************************************************
Field Output Report, written Wed May 29 01:37:58 2024

Source 1
---------

   ODB: G:/Abaqus_calc_2019/1740/Vel_5/odb/zeides_2a_8_red_1500_cal_0_vel_5_fric_050.odb
   Step: Step-1
   Frame: Increment  21586283: Step Time =    2.445

Loc 1 : Nodal values from source 1

Output sorted by column "Nodal Label".

Field Output reported at nodes for region: DIE_2A_8_D0_36-1.Region_1
   Computation algorithm: EXTRAPOLATE_COMPUTE_AVERAGE
   Averaged at nodes
   Averaging regions: ODB_REGIONS

      Node Label     COORD.COOR1     COORD.COOR2
                          @Loc 1          @Loc 1
-------------------------------------------------
               1     16.3673E-03     162.587E-03


Field Output reported at nodes for region: DIE_2A_8_D0_36-1.Region_2
   Computation algorithm: EXTRAPOLATE_COMPUTE_AVERAGE
   Averaged at nodes
   Averaging regions: ODB_REGIONS

      Node Label     COORD.COOR1     COORD.COOR2
                          @Loc 1          @Loc 1
-------------------------------------------------
               1     16.3673E-03     162.587E-03


Field Output reported at nodes for part: WIRE-1
   Computation algorithm: EXTRAPOLATE_COMPUTE_AVERAGE
   Averaged at nodes
   Averaging regions: ODB_REGIONS

      Node Label     COORD.COOR1     COORD.COOR2           S.S11           S.S22           S.S33           S.S12         PE.PE11         PE.PE22         PE.PE33         PE.PE12         LE.LE11         LE.LE22         LE.LE33         LE.LE12
                          @Loc 1          @Loc 1          @Loc 1          @Loc 1          @Loc 1          @Loc 1          @Loc 1          @Loc 1          @Loc 1          @Loc 1          @Loc 1          @Loc 1          @Loc 1          @Loc 1
-------------------------------------------------------------------------------------------------------------------------------------------------------------------------------------------------------------------------------------------------
               1    -1.66094E-06     75.6147E-03    -121.435E+06    -241.576E+06    -121.351E+06      3.7285E+03    -162.724E-03     326.962E-03    -164.238E-03     2.83277E-03    -162.791E-03     326.112E-03    -164.319E-03     2.83755E-03
               2     15.3033E-03     76.4615E-03    -1.35668E+06     86.8993E+06     88.9624E+06    -149.644E+03    -160.573E-03     323.247E-03    -162.674E-03     29.6195E-03    -160.951E-03     323.670E-03    -162.353E-03     27.2109E-03
               3     15.3110E-03     152.693E-03    -23.7915E+06    -54.1109E+06    -9.19583E+06     34.6066E+06    -138.842E-03     300.689E-03    -161.847E-03     4.63279E-03    -138.868E-03     300.478E-03    -161.780E-03     4.57574E-03
               4    -5.76455E-06     151.493E-03     21.8988E+06    -6.77552E+06     17.2944E+06    -2.93418E+06    -168.995E-03     340.342E-03    -171.347E-03    -4.50495E-03    -168.891E-03     340.273E-03    -171.282E-03    -4.65461E-03
               5    -133.704E-09    -1.95677E-15    -63.5373E+06    -211.888E+06    -63.6120E+06     2.29861E+06    -148.641E-03     297.728E-03    -149.088E-03     524.324E-06    -148.534E-03     296.854E-03    -149.006E-03     571.428E-06
               6     15.2124E-03    -1.95677E-15     1.08153E+06     105.048E+06     101.149E+06    -3.32576E+06    -232.093E-03     397.253E-03    -165.160E-03     79.6217E-03    -232.760E-03     398.007E-03    -164.808E-03     75.4332E-03
               7     763.575E-06     75.6184E-03    -118.172E+06    -234.570E+06    -116.339E+06     871.697E+03    -162.772E-03     326.526E-03    -163.755E-03     4.48162E-03    -162.845E-03     325.695E-03    -163.825E-03     4.53982E-03
               8     1.52921E-03     75.6301E-03    -110.111E+06    -217.607E+06    -103.440E+06     424.236E+03    -162.398E-03     325.511E-03    -163.112E-03     8.90936E-03    -162.479E-03     324.729E-03    -163.154E-03     9.00790E-03
               9     2.29443E-03     75.6457E-03    -104.290E+06    -203.671E+06    -88.4134E+06    -32.7130E+03    -161.952E-03     324.790E-03    -162.838E-03     14.6301E-03    -162.048E-03     324.049E-03    -162.833E-03     14.7252E-03
              10     3.06032E-03     75.6675E-03    -101.375E+06    -192.905E+06    -74.3634E+06    -1.50871E+06    -162.007E-03     324.673E-03    -162.667E-03     19.2193E-03    -162.127E-03     323.964E-03    -162.612E-03     19.2505E-03
              11     3.82502E-03     75.6907E-03    -93.5983E+06    -169.711E+06    -56.6334E+06    -1.71117E+06    -162.352E-03     324.964E-03    -162.612E-03     23.2427E-03    -162.494E-03     324.335E-03    -162.513E-03     23.2643E-03
              12     4.59035E-03     75.7247E-03    -84.8510E+06    -145.810E+06    -37.8798E+06     354.931E+03    -163.118E-03     325.794E-03    -162.676E-03     27.5484E-03    -163.279E-03     325.247E-03    -162.531E-03     27.6135E-03
              13     5.35418E-03     75.7646E-03    -79.3419E+06    -129.695E+06    -24.0843E+06     85.0937E+03    -163.466E-03     326.268E-03    -162.802E-03     31.4102E-03    -163.648E-03     325.778E-03    -162.619E-03     31.3876E-03
              14     6.11864E-03     75.8069E-03    -73.1634E+06    -114.150E+06    -12.3961E+06    -73.4420E+03    -162.938E-03     325.818E-03    -162.880E-03     34.5255E-03    -163.136E-03     325.387E-03    -162.671E-03     34.3241E-03
              15     6.88390E-03     75.8517E-03    -68.6068E+06    -99.3190E+06    -3.28661E+06    -297.975E+03    -162.593E-03     325.474E-03    -162.881E-03     38.1791E-03    -162.811E-03     325.105E-03    -162.654E-03     37.8369E-03
              16     7.64912E-03     75.9038E-03    -62.9371E+06    -79.2016E+06     6.94814E+06     540.745E+03    -162.646E-03     325.504E-03    -162.858E-03     41.8370E-03    -162.889E-03     325.222E-03    -162.617E-03     41.3697E-03
              17     8.41449E-03     75.9577E-03    -55.4074E+06    -53.8348E+06     18.6142E+06     2.73881E+06    -162.562E-03     325.395E-03    -162.833E-03     44.0255E-03    -162.835E-03     325.226E-03    -162.581E-03     43.3461E-03
              18     9.18011E-03     76.0135E-03    -51.1762E+06    -28.7509E+06     27.7859E+06     2.25797E+06    -162.790E-03     325.600E-03    -162.810E-03     46.5165E-03    -163.107E-03     325.552E-03    -162.555E-03     45.6157E-03
              19     9.94492E-03     76.0753E-03    -45.9651E+06    -6.58975E+06     35.6429E+06    -1.26034E+06    -163.023E-03     325.826E-03    -162.803E-03     48.2402E-03    -163.376E-03     325.889E-03    -162.548E-03     47.0331E-03
              20     10.7089E-03     76.1371E-03    -37.4651E+06     22.7509E+06     44.8408E+06    -2.27239E+06    -162.532E-03     325.312E-03    -162.780E-03     49.7564E-03    -162.921E-03     325.519E-03    -162.534E-03     48.2387E-03
              21     11.4752E-03     76.1998E-03    -28.9838E+06     58.0569E+06     58.1753E+06    -128.148E+03    -162.201E-03     324.945E-03    -162.744E-03     50.6022E-03    -162.642E-03     325.320E-03    -162.495E-03     48.8109E-03
              22     12.2410E-03     76.2620E-03    -21.1367E+06     77.9176E+06     69.7397E+06     883.089E+03    -162.338E-03     325.062E-03    -162.723E-03     50.2744E-03    -162.809E-03     325.532E-03    -162.457E-03     48.1753E-03
              23     13.0054E-03     76.3225E-03    -14.1107E+06     86.7364E+06     78.0274E+06     200.762E+03    -162.420E-03     325.137E-03    -162.718E-03     49.3150E-03    -162.899E-03     325.648E-03    -162.433E-03     46.9446E-03
              24     13.7714E-03     76.3765E-03    -8.68855E+06     92.5525E+06     86.0034E+06    -373.351E+03    -162.249E-03     324.972E-03    -162.724E-03     44.6167E-03    -162.735E-03     325.507E-03    -162.415E-03     41.8914E-03
              25     14.5363E-03     76.4236E-03    -3.82437E+06     90.0559E+06     89.3410E+06    -305.892E+03    -161.323E-03     324.024E-03    -162.702E-03     35.3031E-03    -161.755E-03     324.504E-03    -162.380E-03     32.6225E-03
              26     15.3034E-03     77.7672E-03    -2.40055E+06     86.8011E+06     89.0559E+06     264.824E+03    -161.460E-03     324.096E-03    -162.637E-03     27.1713E-03    -161.832E-03     324.510E-03    -162.314E-03     24.8129E-03
              27     15.3035E-03     79.0786E-03    -2.04191E+06     87.6604E+06     90.2477E+06     211.657E+03    -162.646E-03     325.266E-03    -162.620E-03     23.7371E-03    -163.007E-03     325.669E-03    -162.293E-03     21.4523E-03
              28     15.3026E-03     80.3952E-03    -2.50389E+06     88.3107E+06     90.8682E+06    -74.3921E+03    -161.491E-03     324.170E-03    -162.679E-03     25.0495E-03    -161.861E-03     324.581E-03    -162.349E-03     22.7528E-03
              29     15.3028E-03     81.7059E-03    -2.62983E+06     88.0549E+06     89.1459E+06    -157.568E+03    -160.410E-03     323.114E-03    -162.703E-03     28.4400E-03    -160.791E-03     323.539E-03    -162.382E-03     26.0620E-03
              30     15.3031E-03     83.0152E-03    -2.42822E+06     87.9895E+06     88.7236E+06     341.834E+03    -160.854E-03     323.523E-03    -162.669E-03     28.3437E-03    -161.231E-03     323.946E-03    -162.349E-03     25.9912E-03
              31     15.3035E-03     84.3266E-03    -2.68059E+06     88.0774E+06     89.4173E+06    -171.818E+03    -161.405E-03     324.036E-03    -162.631E-03     27.5768E-03    -161.778E-03     324.454E-03    -162.308E-03     25.2788E-03
              32     15.3040E-03     85.6373E-03    -1.83558E+06     87.6725E+06     89.9899E+06    -163.167E+03    -161.708E-03     324.332E-03    -162.624E-03     25.6105E-03    -162.071E-03     324.739E-03    -162.299E-03     23.3384E-03
              33     15.3026E-03     86.9487E-03    -2.10338E+06     88.5404E+06     89.6737E+06     501.059E+03    -162.825E-03     325.452E-03    -162.627E-03     25.0749E-03    -163.192E-03     325.866E-03    -162.304E-03     22.7518E-03
              34     15.3028E-03     88.2628E-03    -2.77213E+06      88.618E+06     88.5995E+06    -348.563E+03    -163.520E-03     326.151E-03    -162.631E-03     24.9930E-03    -163.888E-03     326.567E-03    -162.312E-03     22.6618E-03
              35     15.3023E-03     89.5798E-03    -1.88511E+06     87.2437E+06     88.4657E+06    -166.977E+03    -162.136E-03     324.790E-03    -162.655E-03     27.1971E-03    -162.503E-03     325.205E-03    -162.336E-03     24.8762E-03
              36     15.3039E-03     90.8905E-03    -2.51934E+06     88.2099E+06     88.8812E+06     611.492E+03    -161.899E-03     324.527E-03    -162.627E-03     29.3380E-03    -162.282E-03     324.956E-03    -162.307E-03     26.9717E-03
              37     15.3033E-03     92.2019E-03    -2.54067E+06     90.6280E+06     91.0788E+06     672.991E+03    -162.661E-03     325.244E-03    -162.583E-03     26.8288E-03    -163.040E-03     325.671E-03    -162.255E-03     24.5087E-03
              38     15.3048E-03     93.5150E-03    -2.04100E+06     92.5417E+06     93.3540E+06     439.750E+03    -162.458E-03     325.032E-03    -162.574E-03     26.6689E-03    -162.842E-03     325.467E-03    -162.238E-03     24.3181E-03
              39     15.3037E-03     94.8293E-03    -2.56970E+06     92.7117E+06     92.3251E+06    -257.227E+03    -162.442E-03     325.027E-03    -162.584E-03     26.9616E-03    -162.832E-03     325.468E-03    -162.253E-03     24.5538E-03
              40     15.3035E-03     96.1414E-03      -2.615E+06     90.6738E+06     89.9621E+06    -844.488E+03    -161.726E-03     324.350E-03    -162.624E-03     26.5440E-03    -162.106E-03     324.782E-03    -162.302E-03     24.1666E-03
              41     15.3032E-03     97.4520E-03    -1.42727E+06     88.7886E+06     90.8629E+06    -253.216E+03    -161.294E-03     323.965E-03    -162.671E-03     26.7822E-03    -161.671E-03     324.389E-03    -162.343E-03     24.3693E-03
              42     15.3022E-03     98.7640E-03    -2.04013E+06     91.4504E+06     92.7563E+06     1.27812E+06    -161.953E-03     324.637E-03    -162.684E-03     26.9333E-03    -162.341E-03     325.073E-03    -162.350E-03     24.5183E-03
              43     15.3031E-03     100.075E-03     8.69875E+03     94.5310E+06     93.2560E+06     618.186E+03    -162.015E-03     324.685E-03    -162.670E-03     26.5775E-03    -162.392E-03     325.127E-03    -162.341E-03     24.2113E-03
              44     15.3028E-03     101.389E-03    -1.45378E+06     91.7996E+06     92.4330E+06    -1.56251E+06    -161.140E-03     323.827E-03    -162.687E-03     27.5868E-03    -161.516E-03     324.255E-03    -162.356E-03     25.2701E-03
              45     15.3030E-03     102.702E-03     643.038E+03     90.4037E+06     94.1990E+06     3.08645E+06    -161.005E-03     323.722E-03    -162.717E-03     30.5062E-03    -161.345E-03     324.107E-03    -162.378E-03     28.0984E-03
              46     15.3019E-03     104.012E-03    -8.20361E+06     94.4683E+06     86.0298E+06    -1.01218E+06    -164.106E-03     326.802E-03    -162.696E-03     27.7837E-03    -164.317E-03     327.032E-03    -162.391E-03     25.2036E-03
              47     15.2984E-03     105.324E-03    -19.5317E+06     92.9529E+06     79.8386E+06     745.111E+03    -164.491E-03     327.202E-03    -162.711E-03     22.7342E-03    -164.739E-03     327.439E-03    -162.418E-03     20.6065E-03
              48     15.3041E-03     106.640E-03    -5.19526E+06     95.0073E+06     90.7374E+06     1.55110E+06    -160.662E-03     323.411E-03    -162.748E-03     24.4337E-03    -161.024E-03     323.822E-03    -162.425E-03     22.3778E-03
              49     15.3015E-03     107.950E-03     5.91169E+06     104.832E+06     98.4507E+06     195.536E+03    -159.724E-03     322.420E-03    -162.696E-03     27.8313E-03    -160.092E-03     322.896E-03    -162.364E-03     25.4947E-03
              50     15.3061E-03     109.258E-03     6.06065E+06     109.890E+06     98.5479E+06     2.32540E+06    -160.764E-03     323.337E-03    -162.572E-03     27.7023E-03    -161.141E-03     323.840E-03    -162.248E-03     25.3942E-03
              51     15.3049E-03     110.571E-03     444.178E+03     110.927E+06     95.8148E+06    -898.407E+03    -161.117E-03     323.620E-03    -162.502E-03     25.6644E-03    -161.517E-03     324.137E-03    -162.185E-03     23.3000E-03
              52     15.3059E-03     111.882E-03    -2.84327E+06     112.990E+06     95.0389E+06     1.72836E+06    -160.068E-03     322.580E-03    -162.511E-03     26.0419E-03    -160.490E-03     323.117E-03    -162.196E-03     23.6852E-03
              53     15.3060E-03     113.190E-03    -2.71494E+06     116.035E+06     93.5298E+06     75.1887E+03    -159.722E-03     322.205E-03    -162.483E-03     27.7537E-03    -160.152E-03     322.766E-03    -162.180E-03     25.3369E-03
              54     15.3062E-03     114.502E-03    -2.29128E+06     116.228E+06     92.3797E+06     410.440E+03    -161.009E-03     323.431E-03    -162.423E-03     28.5363E-03    -161.439E-03     323.998E-03    -162.126E-03     26.0829E-03
              55     15.3070E-03     115.811E-03    -2.47599E+06     117.358E+06     93.5242E+06     718.586E+03    -161.251E-03     323.636E-03    -162.385E-03     26.9559E-03    -161.678E-03     324.199E-03    -162.084E-03     24.5598E-03
              56     15.3074E-03     117.122E-03    -2.05788E+06     119.555E+06     93.0977E+06     492.230E+03    -160.033E-03     322.404E-03    -162.371E-03     25.7291E-03    -160.454E-03     322.972E-03    -162.076E-03     23.3973E-03
              57     15.3081E-03     118.431E-03    -2.72056E+06     121.147E+06     90.7530E+06       815.8E+03    -159.967E-03     322.289E-03    -162.321E-03     27.0302E-03    -160.399E-03     322.877E-03    -162.039E-03     24.6274E-03
              58     15.3086E-03     119.740E-03    -1.91207E+06     123.988E+06     90.4623E+06     809.976E+03    -160.570E-03     322.835E-03    -162.265E-03     26.0784E-03    -160.998E-03     323.434E-03    -161.990E-03     23.6773E-03
              59     15.3090E-03     121.053E-03    -2.65937E+06     125.103E+06     89.7908E+06    -159.337E+03    -159.735E-03     321.998E-03    -162.263E-03     27.0935E-03    -160.173E-03     322.610E-03    -161.991E-03     24.6495E-03
              60     15.3089E-03     122.360E-03    -2.48806E+06     122.885E+06     88.0271E+06    -678.541E+03    -159.987E-03     322.219E-03    -162.233E-03     28.1120E-03    -160.423E-03     322.828E-03    -161.967E-03     25.6136E-03
              61     15.3098E-03     123.667E-03    -2.50389E+06     119.790E+06     86.0406E+06    -526.054E+03    -160.695E-03     322.870E-03    -162.176E-03     25.2427E-03    -161.109E-03     323.451E-03    -161.915E-03     22.8572E-03
              62     15.3101E-03     124.980E-03    -2.25175E+06     115.895E+06     84.1423E+06    -1.69620E+06    -159.615E-03     321.775E-03    -162.160E-03     24.9284E-03    -160.018E-03     322.338E-03    -161.904E-03     22.5499E-03
              63     15.3109E-03     126.286E-03    -1.09051E+06     112.116E+06     82.7177E+06    -1.15379E+06    -158.838E-03     320.974E-03    -162.136E-03     26.9680E-03    -159.237E-03     321.527E-03    -161.884E-03     24.5314E-03
              64     15.3114E-03     127.595E-03    -2.64395E+06     109.345E+06     82.1909E+06    -809.944E+03    -159.211E-03     321.308E-03    -162.097E-03     27.8846E-03    -159.617E-03     321.855E-03    -161.841E-03     25.4266E-03
              65     15.3115E-03     128.906E-03    -3.00896E+06     101.737E+06     78.9955E+06    -3.68353E+06    -160.497E-03     322.553E-03    -162.056E-03     28.5651E-03    -160.894E-03     323.072E-03    -161.804E-03     26.0022E-03
              66     15.3111E-03     130.213E-03    -1.68148E+06     88.1059E+06     72.5456E+06    -3.84714E+06    -161.478E-03     323.489E-03    -162.011E-03     26.9066E-03    -161.832E-03     323.939E-03    -161.773E-03     24.3975E-03
              67     15.3123E-03     131.526E-03    -1.98874E+06     76.7308E+06     68.4676E+06    -2.51618E+06    -160.909E-03     322.893E-03    -161.984E-03     26.8612E-03    -161.237E-03     323.288E-03    -161.750E-03     24.4355E-03
              68     15.3126E-03     132.834E-03    -2.16398E+06     67.1335E+06     67.1727E+06    -2.95879E+06    -160.797E-03     322.739E-03    -161.942E-03     27.6025E-03    -161.112E-03     323.090E-03    -161.700E-03     25.1751E-03
              69     15.3139E-03     134.143E-03    -1.99438E+06     53.3001E+06     65.7845E+06    -5.45475E+06    -161.308E-03     323.195E-03    -161.887E-03     27.2842E-03    -161.597E-03     323.476E-03    -161.633E-03     24.8386E-03
              70     15.3143E-03     135.456E-03    -2.21687E+06     31.8769E+06     61.8279E+06    -7.13081E+06    -162.320E-03     324.150E-03    -161.829E-03     29.3609E-03    -162.585E-03     324.340E-03    -161.563E-03     26.7966E-03
              71     15.3149E-03     136.769E-03    -1.36262E+06     8.34149E+06     57.5741E+06    -6.38416E+06    -164.661E-03     326.403E-03    -161.742E-03     31.6166E-03    -164.890E-03     326.490E-03    -161.465E-03     28.9863E-03
              72     15.3157E-03     138.085E-03    -618.068E+03    -10.1673E+06     53.5606E+06    -5.18480E+06    -168.193E-03     329.813E-03    -161.620E-03     31.8596E-03    -168.382E-03     329.809E-03    -161.337E-03     29.2499E-03
              73     15.3158E-03     139.405E-03    -3.42982E+06    -29.2872E+06     46.7010E+06    -5.39886E+06    -171.342E-03     332.863E-03    -161.521E-03     30.4646E-03    -171.500E-03     332.769E-03    -161.240E-03     27.8911E-03
              74     15.3158E-03     140.730E-03    -536.851E+03    -50.0717E+06     41.3024E+06    -6.02303E+06    -172.227E-03     333.716E-03    -161.489E-03     31.4213E-03    -172.335E-03     333.525E-03    -161.209E-03     28.8212E-03
              75     15.3163E-03     142.056E-03    -133.064E+03    -71.3096E+06     35.4764E+06    -6.31755E+06    -173.234E-03     334.688E-03    -161.454E-03     35.3613E-03    -173.317E-03     334.414E-03    -161.173E-03     32.6582E-03
              76     15.3161E-03     143.382E-03     -886.29E+03    -96.9749E+06     28.8424E+06    -8.21457E+06    -176.751E-03     338.108E-03    -161.357E-03     37.7604E-03    -176.796E-03     337.722E-03    -161.071E-03     34.9957E-03
              77     15.3169E-03     144.714E-03     748.172E+03    -123.927E+06      23.836E+06    -6.84453E+06    -180.937E-03     342.177E-03    -161.240E-03     37.8500E-03    -180.921E-03     341.655E-03    -160.942E-03     35.1451E-03
              78     15.3170E-03     146.051E-03    -941.724E+03    -146.623E+06     19.5408E+06    -5.80834E+06    -184.205E-03     345.341E-03    -161.135E-03     38.7531E-03    -184.157E-03     344.712E-03    -160.824E-03     36.0948E-03
              79     15.3183E-03     147.392E-03     7.39594E+06    -147.020E+06     16.3143E+06     3.79313E+06    -186.538E-03     347.500E-03    -160.961E-03     41.6863E-03    -186.437E-03     346.856E-03    -160.677E-03     39.3333E-03
              80     15.3211E-03     148.737E-03    -7.73914E+06    -136.975E+06     13.8356E+06     291.772E+03    -187.609E-03     348.443E-03    -160.834E-03     42.8832E-03    -187.575E-03     347.856E-03    -160.555E-03     40.8388E-03
              81     15.3199E-03     150.082E-03     4.40059E+06    -137.000E+06     22.3406E+06      136.25E+03    -183.205E-03     344.029E-03    -160.824E-03     45.3106E-03    -183.079E-03     343.367E-03    -160.520E-03     44.0972E-03
              82     15.3285E-03     151.413E-03     6.78443E+06    -95.7455E+06     10.8827E+06     24.5384E+06    -158.748E-03     320.081E-03    -161.332E-03     26.6621E-03    -158.606E-03     319.597E-03    -161.149E-03     26.4424E-03
              83     14.5066E-03     152.628E-03    -49.0975E+06     25.9428E+06    -688.642E+03     20.3745E+06    -138.256E-03     300.626E-03    -162.370E-03    -5.03819E-03    -138.535E-03     300.840E-03    -162.340E-03    -5.00571E-03
              84     13.7094E-03     152.532E-03    -67.4316E+06     33.1791E+06     9.34755E+06    -12.5878E+06    -138.583E-03     302.097E-03    -163.513E-03    -28.6885E-03    -138.980E-03     302.363E-03    -163.417E-03    -28.7589E-03
              85     12.9227E-03     152.433E-03    -49.7996E+06    -22.9158E+06     19.7476E+06    -21.3933E+06    -140.287E-03     304.886E-03    -164.600E-03    -50.5496E-03    -140.535E-03     304.830E-03    -164.395E-03    -50.7094E-03
              86     12.1456E-03     152.333E-03    -37.4397E+06    -2.45288E+06     29.5284E+06    -10.8062E+06    -141.781E-03     307.283E-03    -165.503E-03    -61.7089E-03    -142.015E-03     307.293E-03    -165.297E-03    -61.7575E-03
              87     11.3725E-03     152.238E-03    -33.2067E+06     943.440E+03     33.6828E+06    -12.4515E+06    -144.001E-03     310.378E-03    -166.377E-03    -66.8249E-03    -144.226E-03     310.390E-03    -166.161E-03    -66.9099E-03
              88     10.6021E-03     152.147E-03    -27.2567E+06    -5.19343E+06     37.4146E+06    -12.5302E+06    -147.450E-03     314.639E-03    -167.189E-03    -69.3660E-03    -147.641E-03     314.602E-03    -166.955E-03    -69.4765E-03
              89     9.83593E-03     152.061E-03    -23.2843E+06    -6.92633E+06     42.1977E+06    -7.72087E+06    -151.175E-03     319.058E-03    -167.883E-03    -69.8230E-03    -151.351E-03     318.998E-03    -167.629E-03    -69.8847E-03
              90     9.07265E-03     151.981E-03    -23.0932E+06     1.07132E+06     48.2222E+06    -6.94216E+06    -154.251E-03     322.712E-03    -168.461E-03    -68.4562E-03    -154.445E-03     322.680E-03    -168.188E-03    -68.5230E-03
              91     8.31099E-03     151.905E-03    -20.2192E+06     4.74691E+06     48.7739E+06    -12.5774E+06    -156.816E-03     325.750E-03    -168.934E-03    -65.9020E-03    -157.001E-03     325.729E-03    -168.668E-03    -66.0710E-03
              92     7.55135E-03     151.835E-03    -12.9851E+06    -5.40282E+06     48.5479E+06    -14.4024E+06    -159.548E-03     328.889E-03    -169.341E-03    -62.7128E-03    -159.680E-03     328.804E-03    -169.072E-03    -62.9392E-03
              93     6.79318E-03     151.773E-03    -7.04186E+06    -7.02166E+06     50.9664E+06    -10.0791E+06    -162.090E-03     331.745E-03    -169.655E-03    -58.6685E-03    -162.192E-03     331.638E-03    -169.380E-03    -58.8676E-03
              94     6.03645E-03     151.716E-03    -2.57476E+06     3.08496E+06     51.5396E+06    -10.7124E+06    -164.190E-03     334.038E-03    -169.849E-03    -54.0457E-03    -164.284E-03     333.972E-03    -169.592E-03    -54.2771E-03
              95     5.28078E-03     151.666E-03     4.41747E+06    -2.19749E+06     52.7621E+06     -13.912E+06    -166.037E-03     336.010E-03    -169.973E-03    -48.6368E-03    -166.090E-03     335.904E-03    -169.713E-03    -48.9448E-03
              96     4.52611E-03     151.623E-03     11.6060E+06    -7.30385E+06     55.4936E+06    -11.3029E+06    -167.158E-03     337.203E-03    -170.044E-03    -42.5922E-03    -167.172E-03     337.056E-03    -169.773E-03    -42.8800E-03
              97     3.77108E-03     151.586E-03     15.3294E+06    -2.81406E+06     53.4523E+06    -7.92565E+06    -167.852E-03     337.931E-03    -170.078E-03    -36.2267E-03    -167.852E-03     337.805E-03    -169.829E-03    -36.4714E-03
              98     3.01638E-03     151.556E-03     16.4848E+06    -1.62581E+06     47.1854E+06    -7.62667E+06    -168.634E-03     338.733E-03    -170.099E-03    -29.3603E-03    -168.622E-03     338.620E-03    -169.884E-03    -29.6124E-03
              99     2.26258E-03     151.532E-03     17.3799E+06    -2.80243E+06     39.1146E+06    -7.66176E+06    -169.221E-03     339.321E-03    -170.101E-03    -22.2474E-03    -169.191E-03     339.215E-03    -169.926E-03    -22.4902E-03
             100     1.50793E-03     151.516E-03     18.6769E+06    -4.60537E+06     29.0732E+06    -6.50991E+06    -169.573E-03     339.686E-03    -170.112E-03    -14.9088E-03    -169.521E-03     339.584E-03    -169.987E-03    -15.1107E-03
             101     753.291E-06     151.503E-03     20.5627E+06    -6.64741E+06     20.3931E+06    -4.23728E+06    -169.352E-03     340.089E-03    -170.737E-03    -7.85827E-03    -169.267E-03     340.002E-03    -170.656E-03    -8.02004E-03
             102     4.01685E-06     150.159E-03    -146.848E+03    -15.0269E+06     356.054E+03    -3.28035E+06    -163.967E-03     327.230E-03    -163.263E-03    -752.266E-06    -163.935E-03     327.170E-03    -163.239E-03    -903.380E-06
             103    -1.10174E-06     148.866E-03    -43.9617E+06    -38.3820E+06    -41.5195E+06    -5.78108E+06    -153.964E-03     306.727E-03    -152.762E-03     2.04425E-03    -154.061E-03     306.668E-03    -152.851E-03     1.94942E-03
             104     49.8247E-09     147.587E-03    -94.5696E+06    -71.4277E+06    -94.1207E+06    -7.15662E+06    -148.391E-03     296.733E-03    -148.342E-03     1.26463E-03    -148.622E-03     296.658E-03    -148.572E-03     1.28629E-03
             105     1.08534E-06     146.317E-03    -145.297E+06    -104.406E+06    -144.759E+06    -5.68276E+06    -149.184E-03     295.180E-03    -145.997E-03     2.03278E-03    -149.544E-03     295.088E-03    -146.358E-03     2.13406E-03
             106     2.72175E-06     145.042E-03    -168.950E+06    -129.214E+06    -172.096E+06    -3.72534E+06    -151.712E-03     299.158E-03    -147.446E-03     3.73721E-03    -152.114E-03     299.016E-03    -147.874E-03     3.84864E-03
             107     36.5859E-09     143.757E-03    -159.910E+06    -144.835E+06    -159.984E+06    -2.42927E+06    -152.118E-03     304.595E-03    -152.477E-03     5.75033E-03    -152.471E-03     304.345E-03    -152.835E-03     5.80309E-03
             108    -3.36257E-06     142.468E-03    -132.742E+06    -154.562E+06    -130.704E+06    -1.88593E+06    -152.085E-03     308.633E-03    -156.547E-03     5.09048E-03    -152.331E-03     308.251E-03    -156.784E-03     5.12076E-03
             109    -190.391E-09     141.175E-03    -106.309E+06    -157.702E+06    -107.644E+06     399.523E+03    -154.255E-03     311.522E-03    -157.267E-03     3.99676E-03    -154.399E-03     311.052E-03    -157.422E-03     4.06559E-03
             110    -922.658E-09     139.881E-03    -97.5754E+06    -155.032E+06    -97.4886E+06     373.939E+03    -157.341E-03     314.439E-03    -157.099E-03     2.63900E-03    -157.460E-03     313.956E-03    -157.220E-03     2.75139E-03
             111     2.39861E-06     138.582E-03    -103.002E+06    -159.651E+06    -103.297E+06    -1.92910E+06    -158.776E-03     317.228E-03    -158.453E-03     3.51731E-03    -158.904E-03     316.741E-03    -158.588E-03     3.57149E-03
             112    -3.39509E-06     137.275E-03    -108.438E+06    -169.280E+06    -107.841E+06    -1.80179E+06    -158.616E-03     318.824E-03    -160.208E-03     5.41132E-03    -158.748E-03     318.306E-03    -160.345E-03     5.40516E-03
             113     1.93196E-06     135.968E-03    -110.413E+06    -174.633E+06    -110.514E+06    -987.725E+03    -159.982E-03     319.636E-03    -159.654E-03     6.59978E-03    -160.112E-03     319.099E-03    -159.793E-03     6.56156E-03
             114    -2.67654E-09     134.666E-03    -116.550E+06    -185.491E+06    -116.106E+06    -2.51955E+06    -161.348E-03     320.738E-03    -159.390E-03     5.94416E-03    -161.484E-03     320.161E-03    -159.532E-03     5.90137E-03
             115     1.04479E-06     133.361E-03    -121.358E+06    -201.644E+06    -122.013E+06    -1.93194E+06    -161.532E-03     321.385E-03    -159.853E-03     3.06765E-03    -161.662E-03     320.742E-03    -159.995E-03     3.13055E-03
             116     462.649E-09     132.055E-03    -123.212E+06    -204.472E+06    -123.834E+06     632.125E+03    -160.691E-03     321.326E-03    -160.635E-03     2.89481E-03    -160.823E-03     320.674E-03    -160.779E-03     2.99228E-03
             117    -1.90741E-06     130.748E-03    -128.993E+06    -206.751E+06    -128.120E+06    -1.30117E+06    -159.555E-03     321.927E-03    -162.372E-03     2.84423E-03    -159.704E-03     321.279E-03    -162.526E-03     2.90030E-03
             118    -975.078E-09     129.440E-03    -131.742E+06    -213.829E+06    -132.535E+06    -2.08310E+06    -160.854E-03     323.971E-03    -163.117E-03     2.24627E-03    -161.002E-03     323.298E-03    -163.279E-03     2.28647E-03
             119     367.760E-09     128.129E-03    -133.516E+06    -215.754E+06    -133.472E+06    -701.608E+03    -163.028E-03     326.675E-03    -163.647E-03     2.49730E-03    -163.182E-03     325.995E-03    -163.808E-03     2.53638E-03
             120    -720.492E-09     126.811E-03    -135.119E+06    -218.917E+06    -135.142E+06    -186.897E+03    -164.055E-03     328.489E-03    -164.433E-03     2.71495E-03    -164.210E-03     327.797E-03    -164.596E-03     2.74123E-03
             121     480.459E-09     125.495E-03    -134.176E+06    -220.314E+06    -134.008E+06    -290.226E+03    -164.488E-03     328.669E-03    -164.181E-03     2.89285E-03    -164.639E-03     327.967E-03    -164.337E-03     2.91787E-03
             122     215.396E-09     124.178E-03    -134.705E+06    -223.333E+06    -134.991E+06    -1.22667E+06    -164.145E-03     328.276E-03    -164.130E-03     3.26735E-03    -164.293E-03     327.561E-03    -164.286E-03     3.27564E-03
             123    -906.230E-09     122.865E-03    -134.604E+06    -228.094E+06    -134.730E+06    -700.258E+03    -163.742E-03     328.493E-03    -164.751E-03     2.04048E-03    -163.881E-03     327.755E-03    -164.899E-03     2.09168E-03
             124     39.8504E-09     121.547E-03    -132.827E+06    -229.727E+06    -132.786E+06    -19.5974E+03    -164.142E-03     328.713E-03    -164.571E-03     2.07519E-03    -164.274E-03     327.960E-03    -164.709E-03     2.12316E-03
             125     158.866E-09     120.229E-03    -129.569E+06    -230.451E+06    -129.444E+06    -284.272E+03    -164.556E-03     328.032E-03    -163.476E-03     2.59942E-03    -164.676E-03     327.266E-03    -163.601E-03     2.62211E-03
             126     1.28070E-06     118.917E-03    -127.856E+06    -235.025E+06    -127.832E+06    -1.35336E+06    -164.314E-03     327.685E-03    -163.371E-03     2.78099E-03    -164.421E-03     326.890E-03    -163.484E-03     2.82609E-03
             127    -1.29049E-06     117.601E-03    -126.852E+06    -241.026E+06    -127.037E+06    -941.910E+03    -163.917E-03     328.141E-03    -164.225E-03     2.80817E-03    -164.011E-03     327.314E-03    -164.326E-03     2.84876E-03
             128     815.108E-09     116.283E-03    -123.382E+06    -242.798E+06    -123.169E+06     187.129E+03    -163.563E-03     327.822E-03    -164.259E-03     3.47288E-03    -163.641E-03     326.976E-03    -164.344E-03     3.48380E-03
             129    -1.41997E-06     114.970E-03    -122.741E+06    -243.273E+06    -122.739E+06    -492.939E+03    -163.359E-03     327.273E-03    -163.914E-03     3.33613E-03    -163.433E-03     326.424E-03    -163.997E-03     3.33409E-03
             130     1.15671E-06     113.656E-03    -127.191E+06    -247.356E+06    -127.404E+06    -1.05400E+06    -163.707E-03     326.990E-03    -163.283E-03     3.14155E-03    -163.790E-03     326.134E-03    -163.377E-03     3.15857E-03
             131    -268.672E-09     112.340E-03    -125.296E+06    -250.328E+06    -125.801E+06    -214.601E+03    -163.750E-03     327.128E-03    -163.378E-03     4.04615E-03    -163.822E-03     326.251E-03    -163.462E-03     4.05017E-03
             132    -78.3257E-09     111.030E-03    -122.972E+06    -246.054E+06      -123.3E+06     2.08502E+06    -163.128E-03     326.196E-03    -163.068E-03     1.63484E-03    -163.199E-03     325.332E-03    -163.149E-03     1.71850E-03
             133     501.036E-09     109.716E-03    -121.828E+06    -236.640E+06    -120.691E+06     1.58006E+06    -162.506E-03     324.896E-03    -162.390E-03     2.99032E-03    -162.588E-03     324.074E-03    -162.474E-03     3.03832E-03
             134    -754.665E-09     108.406E-03    -122.095E+06    -236.683E+06    -121.604E+06    -1.59471E+06    -162.541E-03     325.498E-03    -162.958E-03     4.00529E-03    -162.620E-03     324.678E-03    -163.045E-03     3.99928E-03
             135     351.809E-09     107.091E-03    -122.981E+06    -242.927E+06    -124.351E+06    -547.445E+03    -162.432E-03     325.374E-03    -162.942E-03     2.43021E-03    -162.502E-03     324.529E-03    -163.034E-03     2.48439E-03
             136    -762.889E-09     105.785E-03    -120.309E+06    -242.455E+06    -119.575E+06     466.077E+03    -161.937E-03     324.559E-03    -162.623E-03     2.64623E-03    -162.002E-03     323.706E-03    -162.695E-03     2.68784E-03
             137     110.736E-09     104.468E-03    -121.655E+06    -241.659E+06    -120.696E+06     41.6386E+03    -162.300E-03     324.667E-03    -162.366E-03     4.13149E-03    -162.372E-03     323.821E-03    -162.443E-03     4.13161E-03
             138     421.389E-09     103.160E-03    -119.072E+06    -238.453E+06    -120.023E+06     1.21562E+06    -162.620E-03     325.303E-03    -162.683E-03     5.14830E-03    -162.685E-03     324.467E-03    -162.764E-03     5.13481E-03
             139    -1.08950E-06     101.846E-03    -115.213E+06    -234.812E+06    -117.605E+06     294.917E+03    -161.730E-03     324.757E-03    -163.027E-03     3.88560E-03    -161.784E-03     323.930E-03    -163.107E-03     3.88088E-03
             140    -274.615E-09     100.537E-03    -118.127E+06    -235.651E+06    -118.933E+06    -431.257E+03    -161.633E-03     323.633E-03    -162.000E-03     3.26822E-03    -161.697E-03     322.809E-03    -162.082E-03     3.26352E-03
             141     1.04449E-06     99.2297E-03    -120.444E+06    -234.264E+06    -117.981E+06     802.610E+03    -162.581E-03     324.501E-03    -161.920E-03     3.44976E-03    -162.660E-03     323.686E-03    -161.995E-03     3.52085E-03
             142    -803.354E-09     97.9163E-03    -114.094E+06    -232.601E+06    -120.179E+06    -135.369E+03    -162.751E-03     325.715E-03    -162.964E-03     3.61742E-03    -162.796E-03     324.901E-03    -163.062E-03     3.68635E-03
             143     149.198E-09     96.6023E-03    -119.464E+06    -235.385E+06    -119.699E+06     115.575E+03    -162.881E-03     325.987E-03    -163.106E-03     3.16998E-03    -162.950E-03     325.167E-03    -163.190E-03     3.17560E-03
             144     133.005E-09     95.2941E-03    -124.935E+06    -234.337E+06    -116.682E+06     243.960E+03    -163.175E-03     326.087E-03    -162.912E-03     2.04475E-03    -163.278E-03     325.274E-03    -162.974E-03     2.10942E-03
             145     46.0444E-09     93.9778E-03    -121.686E+06    -235.282E+06    -122.191E+06    -1.39008E+06    -162.436E-03     324.806E-03    -162.371E-03     960.648E-06    -162.514E-03     323.991E-03    -162.464E-03     1.02830E-03
             146    -149.309E-09     92.6719E-03    -114.059E+06    -235.678E+06    -115.797E+06     1.52181E+06    -161.948E-03     324.722E-03    -162.774E-03     2.36652E-03    -161.997E-03     323.883E-03    -162.846E-03     2.45981E-03
             147    -1.04702E-06     91.3565E-03    -117.361E+06    -233.552E+06    -115.633E+06    -902.170E+03    -162.904E-03     326.232E-03    -163.329E-03     1.88835E-03    -162.974E-03     325.409E-03    -163.398E-03     1.97747E-03
             148     1.59679E-06     90.0433E-03    -119.777E+06    -239.931E+06    -119.465E+06    -2.04639E+06    -163.062E-03     325.332E-03    -162.270E-03     2.25020E-03    -163.130E-03     324.484E-03    -162.346E-03     2.28155E-03
             149    -949.175E-09     88.7322E-03    -110.071E+06    -243.293E+06    -111.053E+06     380.226E+03    -162.407E-03     324.749E-03    -162.342E-03     4.00975E-03    -162.435E-03     323.858E-03    -162.385E-03     4.06052E-03
             150     369.447E-09     87.4210E-03    -115.057E+06    -241.291E+06    -116.408E+06     471.288E+03    -162.992E-03     326.362E-03    -163.371E-03     4.15265E-03    -163.040E-03     325.496E-03    -163.436E-03     4.18667E-03
             151    -404.272E-09     86.1057E-03    -120.272E+06    -235.664E+06    -119.369E+06     2.21277E+06    -162.821E-03     326.206E-03    -163.385E-03     3.28190E-03    -162.900E-03     325.380E-03    -163.465E-03     3.30300E-03
             152    -430.985E-09     84.7949E-03    -119.665E+06    -230.153E+06    -118.458E+06     130.654E+03    -162.144E-03     324.628E-03    -162.484E-03     2.83434E-03    -162.229E-03     323.827E-03    -162.569E-03     2.85079E-03
             153     744.144E-09     83.4859E-03    -118.632E+06    -230.616E+06    -118.441E+06    -716.540E+03    -161.855E-03     324.141E-03    -162.286E-03     2.87804E-03    -161.935E-03     323.336E-03    -162.372E-03     2.91501E-03
             154    -1.73099E-06     82.1745E-03    -118.044E+06    -231.176E+06    -117.734E+06     363.257E+03    -162.288E-03     325.306E-03    -163.018E-03     3.38255E-03    -162.365E-03     324.495E-03    -163.100E-03     3.43881E-03
             155     1.58648E-06     80.8616E-03    -114.232E+06    -233.421E+06    -113.922E+06    -1.43055E+06    -163.557E-03     326.748E-03    -163.191E-03     3.07734E-03    -163.616E-03     325.916E-03    -163.257E-03     3.11179E-03
             156    -897.333E-09     79.5469E-03    -113.712E+06    -239.007E+06    -116.317E+06    -807.656E+03    -162.316E-03     324.144E-03    -161.828E-03     2.10519E-03    -162.360E-03     323.286E-03    -161.898E-03     2.10149E-03
             157     913.378E-09     78.2399E-03    -119.619E+06    -238.055E+06    -120.697E+06     1.67092E+06    -162.066E-03     322.844E-03    -160.778E-03     4.37654E-03    -162.132E-03     322.006E-03    -160.863E-03     4.40391E-03
             158     1.00384E-06     76.9305E-03    -117.177E+06    -235.789E+06    -114.900E+06    -1.00178E+06    -163.636E-03     326.444E-03    -162.808E-03     5.03836E-03    -163.700E-03     325.606E-03    -162.870E-03     5.02676E-03
             159    -19.3512E-09     74.3005E-03    -117.457E+06    -233.132E+06    -116.059E+06     3.61342E+06    -161.474E-03     324.371E-03    -162.897E-03     2.77226E-03    -161.541E-03     323.549E-03    -162.969E-03     2.88008E-03
             160    -486.925E-09     72.9951E-03    -109.001E+06    -224.715E+06    -109.231E+06    -1.20483E+06    -162.472E-03     325.235E-03    -162.762E-03     4.15021E-03    -162.519E-03     324.433E-03    -162.825E-03     4.16875E-03
             161     516.404E-09     71.6779E-03    -123.536E+06    -234.396E+06    -123.525E+06    -2.88138E+06    -163.490E-03     326.745E-03    -163.255E-03     2.70943E-03    -163.574E-03     325.937E-03    -163.354E-03     2.68632E-03
             162    -211.882E-09     70.3675E-03    -123.615E+06    -242.161E+06    -124.469E+06    -99.6714E+03    -162.701E-03     325.412E-03    -162.711E-03     2.71485E-03    -162.773E-03     324.567E-03    -162.803E-03     2.77048E-03
             163    -143.427E-09     69.0534E-03    -112.428E+06    -239.279E+06    -113.211E+06     1.32806E+06    -162.702E-03     325.385E-03    -162.683E-03     4.14476E-03    -162.737E-03     324.523E-03    -162.739E-03     4.20891E-03
             164     486.392E-09     67.7428E-03    -110.787E+06    -238.551E+06    -109.758E+06    -262.327E+03    -162.719E-03     325.438E-03    -162.719E-03     3.26097E-03    -162.751E-03     324.572E-03    -162.761E-03     3.27790E-03
             165    -851.370E-09     66.4312E-03    -118.140E+06    -243.063E+06    -117.983E+06    -1.00265E+06    -162.337E-03     325.018E-03    -162.681E-03     3.34367E-03    -162.387E-03     324.152E-03    -162.747E-03     3.33243E-03
             166     659.822E-09     65.1207E-03    -126.546E+06    -246.531E+06    -125.764E+06    -1.31679E+06    -163.353E-03     326.076E-03    -162.722E-03     3.42005E-03    -163.429E-03     325.216E-03    -162.810E-03     3.41994E-03
             167     472.400E-09     63.8043E-03    -112.739E+06    -242.741E+06    -114.588E+06     2.38241E+06    -163.307E-03     326.275E-03    -162.968E-03     3.58232E-03    -163.336E-03     325.396E-03    -163.026E-03     3.65884E-03
             168    -1.13835E-06     62.4952E-03    -111.218E+06    -233.247E+06    -108.866E+06     2.12295E+06    -162.676E-03     326.226E-03    -163.549E-03     3.76035E-03    -162.719E-03     325.382E-03    -163.594E-03     3.81892E-03
             169     457.883E-09     61.1782E-03    -116.679E+06    -230.062E+06    -118.640E+06    -521.249E+03    -162.924E-03     325.851E-03    -162.927E-03     3.19317E-03    -162.984E-03     325.046E-03    -163.018E-03     3.20467E-03
             170     166.657E-09     59.8692E-03    -117.576E+06    -228.899E+06    -116.632E+06     148.075E+03    -163.229E-03     325.465E-03    -162.236E-03     3.61490E-03    -163.299E-03     324.665E-03    -162.316E-03     3.65221E-03
             171     705.743E-09     58.5567E-03    -124.256E+06    -236.495E+06    -124.366E+06    -3.05520E+06    -163.132E-03     325.636E-03    -162.504E-03     3.04549E-03    -163.213E-03     324.819E-03    -162.603E-03     3.03798E-03
             172    -649.183E-09     57.2441E-03    -115.162E+06    -237.816E+06    -118.501E+06     2.24408E+06    -162.619E-03     325.542E-03    -162.924E-03     3.09033E-03    -162.662E-03     324.697E-03    -163.004E-03     3.14218E-03
             173     63.8792E-09     55.9333E-03    -112.508E+06    -230.427E+06    -109.858E+06     1.52469E+06    -163.206E-03     326.497E-03    -163.291E-03     3.03928E-03    -163.259E-03     325.672E-03    -163.343E-03     3.13794E-03
             174     387.685E-09     54.6175E-03    -119.831E+06    -234.674E+06    -119.425E+06    -3.07487E+06    -163.294E-03     326.604E-03    -163.310E-03     2.90114E-03    -163.366E-03     325.781E-03    -163.393E-03     2.89736E-03
             175    -886.088E-09     53.3048E-03    -116.315E+06    -239.618E+06    -116.868E+06     255.320E+03    -162.615E-03     325.773E-03    -163.158E-03     3.80775E-03    -162.667E-03     324.917E-03    -163.226E-03     3.83763E-03
             176     521.096E-09     51.9918E-03    -118.273E+06    -235.527E+06    -117.887E+06     841.105E+03    -162.840E-03     325.816E-03    -162.976E-03     3.38171E-03    -162.907E-03     324.983E-03    -163.052E-03     3.43399E-03
             177    -384.112E-09     50.6828E-03    -122.323E+06    -236.283E+06    -122.822E+06    -918.307E+03    -162.839E-03     325.489E-03    -162.650E-03     2.05674E-03    -162.919E-03     324.665E-03    -162.744E-03     2.08228E-03
             178     512.622E-09     49.3688E-03    -108.828E+06    -233.307E+06    -109.971E+06     2.09343E+06    -162.403E-03     324.787E-03    -162.384E-03     2.52179E-03    -162.439E-03     323.938E-03    -162.438E-03     2.57283E-03
             179    -643.338E-09     48.0585E-03    -115.488E+06    -231.667E+06    -112.668E+06    -1.08307E+06    -162.558E-03     325.485E-03    -162.927E-03     4.67594E-03    -162.626E-03     324.659E-03    -162.987E-03     4.66852E-03
             180     209.557E-09     46.7427E-03    -120.320E+06    -235.969E+06    -122.547E+06    -709.317E+03    -163.268E-03     326.751E-03    -163.484E-03     3.93686E-03    -163.338E-03     325.924E-03    -163.580E-03     3.99990E-03
             181    -155.260E-09     45.4332E-03    -114.016E+06    -237.063E+06    -113.362E+06     221.361E+03    -163.038E-03     326.004E-03    -162.966E-03     2.23956E-03    -163.088E-03     325.149E-03    -163.024E-03     2.26457E-03
             182     197.094E-09     44.1190E-03    -122.920E+06    -242.836E+06    -122.139E+06    -1.99633E+06    -163.273E-03     325.952E-03    -162.679E-03     3.71706E-03    -163.347E-03     325.093E-03    -162.759E-03     3.67295E-03
             183     652.288E-09     42.8055E-03    -123.641E+06    -237.254E+06    -124.024E+06     3.38964E+06    -163.906E-03     327.115E-03    -163.209E-03     4.11479E-03    -163.990E-03     326.288E-03    -163.306E-03     4.16934E-03
             184    -465.141E-09     41.4908E-03    -115.289E+06    -224.634E+06    -115.070E+06     1.48329E+06    -163.545E-03     327.355E-03    -163.810E-03     3.18727E-03    -163.619E-03     326.567E-03    -163.893E-03     3.23995E-03
             185    -144.270E-09     40.1796E-03    -120.928E+06    -230.620E+06    -121.882E+06    -3.17551E+06    -164.095E-03     328.271E-03    -164.176E-03     2.75048E-03    -164.178E-03     327.471E-03    -164.276E-03     2.73050E-03
             186     600.656E-09     38.8585E-03    -127.978E+06    -238.536E+06    -127.816E+06     22.8785E+03    -165.147E-03     329.508E-03    -164.361E-03     3.46853E-03    -165.243E-03     328.687E-03    -164.469E-03     3.49420E-03
             187     117.525E-09     37.5428E-03    -125.281E+06    -235.686E+06    -123.849E+06     1.23790E+06    -164.373E-03     328.424E-03    -164.050E-03     2.79675E-03    -164.464E-03     327.607E-03    -164.146E-03     2.78542E-03
             188    -354.514E-09     36.2285E-03    -118.437E+06    -230.815E+06    -120.216E+06     1.19411E+06    -163.758E-03     328.164E-03    -164.406E-03     4.11441E-03    -163.826E-03     327.355E-03    -164.500E-03     4.16505E-03
             189    -444.389E-09     34.9106E-03    -115.115E+06    -226.282E+06    -115.950E+06    -457.217E+03    -165.695E-03     331.868E-03    -166.173E-03     5.06023E-03    -165.759E-03     331.070E-03    -166.257E-03     5.16612E-03
             190     471.532E-09     33.5870E-03    -113.524E+06    -233.915E+06    -113.867E+06    -2.21531E+06    -166.155E-03     332.066E-03    -165.911E-03     2.59388E-03    -166.202E-03     331.225E-03    -165.976E-03     2.59342E-03
             191    -155.798E-09     32.2691E-03    -111.984E+06    -232.416E+06    -112.785E+06     2.72613E+06    -164.560E-03     328.706E-03    -164.146E-03     3.18401E-03    -164.605E-03     327.869E-03    -164.211E-03     3.23469E-03
             192     436.675E-09     30.9555E-03    -124.265E+06    -231.909E+06    -121.530E+06    -2.12456E+06    -165.031E-03     329.791E-03    -164.761E-03     4.51848E-03    -165.127E-03     328.986E-03    -164.852E-03     4.46609E-03
             193    -306.646E-09     29.6354E-03    -115.751E+06    -235.914E+06    -117.321E+06     625.872E+03    -166.331E-03     332.893E-03    -166.562E-03     4.18067E-03    -166.386E-03     332.049E-03    -166.639E-03     4.20106E-03
             194    -214.545E-09     28.3088E-03    -115.249E+06    -233.996E+06    -112.630E+06    -252.191E+03    -165.353E-03     332.314E-03    -166.961E-03     3.76284E-03    -165.417E-03     331.472E-03    -167.018E-03     3.83200E-03
             195    -1.71313E-06     26.9937E-03    -117.694E+06    -241.073E+06    -122.277E+06    -1.98120E+06    -165.206E-03     331.112E-03    -165.906E-03     3.85845E-03    -165.256E-03     330.254E-03    -165.998E-03     3.87581E-03
             196     2.50191E-06     25.6705E-03    -107.994E+06    -238.981E+06    -106.633E+06     2.49984E+06    -167.392E-03     332.579E-03    -165.187E-03     4.33971E-03    -167.416E-03     331.695E-03    -165.217E-03     4.36157E-03
             197     49.5355E-09     24.3516E-03    -118.313E+06    -240.776E+06    -115.160E+06    -3.18816E+06    -166.960E-03     332.720E-03    -165.760E-03     3.93302E-03    -167.019E-03     331.852E-03    -165.815E-03     3.84620E-03
             198    -774.608E-09     23.0281E-03    -118.894E+06    -242.273E+06    -120.374E+06     2.29540E+06    -164.663E-03     330.250E-03    -165.586E-03     3.24620E-03    -164.718E-03     329.384E-03    -165.664E-03     3.27127E-03
             199     50.7136E-09     21.7131E-03    -111.330E+06    -231.819E+06    -109.510E+06     2.17113E+06    -164.281E-03     329.353E-03    -165.072E-03     4.48697E-03    -164.331E-03     328.514E-03    -165.122E-03     4.52363E-03
             200    -544.022E-09     20.3962E-03    -120.112E+06    -237.276E+06    -118.792E+06    -3.76375E+06    -164.276E-03     328.674E-03    -164.399E-03     3.11308E-03    -164.351E-03     327.834E-03    -164.474E-03     3.00754E-03
             201     847.158E-09     19.0796E-03    -119.518E+06    -243.583E+06    -121.666E+06     634.279E+03    -162.440E-03     324.638E-03    -162.198E-03     2.78199E-03    -162.500E-03     323.767E-03    -162.280E-03     2.77950E-03
             202    -814.892E-09     17.7739E-03    -113.671E+06    -233.380E+06    -114.492E+06     2.89685E+06    -159.804E-03     319.938E-03    -160.134E-03     2.95821E-03    -159.860E-03     319.096E-03    -160.203E-03     2.99913E-03
             203     251.054E-09     16.4723E-03    -109.586E+06    -231.232E+06    -108.943E+06    -1.95617E+06    -157.272E-03     315.147E-03    -157.876E-03     1.81177E-03    -157.316E-03     314.302E-03    -157.926E-03     1.73386E-03
             204    -623.612E-09     15.1766E-03    -109.470E+06    -235.640E+06    -115.680E+06    -155.208E+03    -153.590E-03     308.148E-03    -154.558E-03     1.44229E-03    -153.620E-03     307.294E-03    -154.636E-03     1.40143E-03
             205    -570.073E-09     13.8934E-03    -115.936E+06    -232.018E+06    -114.679E+06     1.63503E+06    -149.771E-03     300.059E-03    -150.289E-03     648.840E-06    -149.838E-03     299.235E-03    -150.358E-03     616.304E-06
             206     968.110E-09     12.6198E-03    -113.280E+06    -229.993E+06    -110.573E+06    -662.307E+03    -146.649E-03     292.482E-03    -145.832E-03     516.466E-06    -146.710E-03     291.660E-03    -145.887E-03     423.515E-06
             207    -81.9433E-09     11.3554E-03    -112.989E+06    -230.968E+06    -110.864E+06    -403.913E+03    -142.956E-03     285.249E-03    -142.294E-03     190.750E-06    -143.010E-03     284.422E-03    -142.349E-03     82.8139E-06
             208     229.932E-09     10.1005E-03    -112.095E+06    -232.781E+06    -111.753E+06    -380.987E+03    -139.913E-03     279.746E-03    -139.833E-03     673.682E-06    -139.959E-03     278.906E-03    -139.892E-03     566.574E-06
             209    -270.721E-09     8.84923E-03    -110.043E+06    -233.834E+06    -109.804E+06     536.486E+03    -138.819E-03     277.893E-03    -139.074E-03     1.54959E-03    -138.861E-03     277.047E-03    -139.125E-03     1.47347E-03
             210    -102.981E-09     7.59897E-03    -104.331E+06    -234.276E+06    -104.822E+06    -617.496E+03    -139.491E-03     279.230E-03    -139.739E-03     1.76646E-03    -139.512E-03     278.365E-03    -139.772E-03     1.68271E-03
             211     68.0244E-09     6.34488E-03    -96.0502E+06    -234.116E+06    -95.5890E+06     730.784E+03    -141.367E-03     282.688E-03    -141.321E-03     1.92105E-03    -141.359E-03     281.795E-03    -141.320E-03     1.85104E-03
             212     27.7091E-09     5.08537E-03    -84.8302E+06    -229.002E+06    -83.7641E+06     1.45424E+06    -143.436E-03     286.956E-03    -143.520E-03     1.84572E-03    -143.399E-03     286.058E-03    -143.484E-03     1.78680E-03
             213    -255.004E-09     3.82038E-03    -73.5148E+06    -221.386E+06    -74.1036E+06     1.59524E+06    -145.442E-03     291.233E-03    -145.790E-03     1.68405E-03    -145.372E-03     290.348E-03    -145.733E-03     1.65198E-03
             214    -79.9867E-09     2.55011E-03    -66.4515E+06    -216.060E+06    -66.1521E+06     808.368E+03    -147.225E-03     294.849E-03    -147.625E-03     1.11550E-03    -147.129E-03     293.970E-03    -147.546E-03     1.08585E-03
             215    -232.319E-09     1.27584E-03    -63.9936E+06    -213.463E+06    -63.8494E+06     432.973E+03    -148.301E-03     297.016E-03    -148.715E-03     591.792E-06    -148.195E-03     296.138E-03    -148.632E-03     584.288E-06
             216     775.272E-06    -1.95677E-15    -63.4975E+06    -212.028E+06    -62.5206E+06     500.004E+03    -148.860E-03     297.872E-03    -149.012E-03     677.926E-06    -148.762E-03     296.991E-03    -148.925E-03     690.434E-06
             217     1.55079E-03    -1.95677E-15    -62.8330E+06    -211.162E+06    -59.9118E+06     312.839E+03    -149.214E-03     298.212E-03    -148.998E-03     1.02101E-03    -149.125E-03     297.325E-03    -148.900E-03     1.00078E-03
             218     2.32565E-03    -1.95677E-15    -61.7514E+06    -208.645E+06    -56.3095E+06     881.070E+03    -149.559E-03     298.700E-03    -149.141E-03     1.56298E-03    -149.475E-03     297.820E-03    -149.030E-03     1.53036E-03
             219     3.10042E-03    -1.95677E-15    -61.1660E+06    -201.327E+06    -53.7271E+06     1.04659E+06    -150.054E-03     299.369E-03    -149.314E-03     2.05499E-03    -149.986E-03     298.525E-03    -149.202E-03     2.01003E-03
             220     3.87476E-03    -1.95677E-15    -60.5267E+06    -188.017E+06    -52.7960E+06     572.966E+03    -150.683E-03     300.200E-03    -149.518E-03     2.46326E-03    -150.633E-03     299.422E-03    -149.421E-03     2.38468E-03
             221     4.64841E-03    -1.95677E-15    -59.5419E+06    -171.918E+06    -51.7591E+06     350.269E+03    -151.454E-03     301.218E-03    -149.764E-03     3.13370E-03    -151.425E-03     300.518E-03    -149.687E-03     3.03523E-03
             222     5.42125E-03    -1.95677E-15    -58.8244E+06    -154.419E+06    -50.8510E+06     393.213E+03    -152.481E-03     302.544E-03    -150.063E-03     3.78705E-03    -152.477E-03     301.930E-03    -150.008E-03     3.67657E-03
             223     6.19368E-03    -1.95677E-15    -57.2000E+06    -135.004E+06    -50.3210E+06    -1.47698E+06    -153.753E-03     304.175E-03    -150.422E-03     4.26863E-03    -153.770E-03     303.655E-03    -150.395E-03     4.10108E-03
             224     6.96435E-03    -1.95677E-15    -54.0668E+06    -111.271E+06    -48.9705E+06    -2.46411E+06    -155.185E-03     306.028E-03    -150.843E-03     5.06629E-03    -155.222E-03     305.620E-03    -150.848E-03     4.85715E-03
             225     7.73418E-03    -1.95677E-15    -49.5271E+06    -85.7316E+06    -48.6591E+06    -4.48153E+06    -156.919E-03     308.241E-03    -151.322E-03     5.98464E-03    -156.971E-03     307.955E-03    -151.369E-03     5.72465E-03
             226     8.50253E-03    -1.95677E-15    -42.6551E+06    -57.6849E+06    -48.4868E+06    -7.40638E+06    -159.064E-03     310.940E-03    -151.875E-03     6.61625E-03    -159.125E-03     310.785E-03    -151.972E-03     6.26796E-03
             227     9.26925E-03    -1.95677E-15    -34.3835E+06    -18.7861E+06    -45.1705E+06    -7.69571E+06    -161.703E-03     314.228E-03    -152.525E-03     7.52130E-03    -161.783E-03     314.251E-03    -152.674E-03     7.11651E-03
             228     10.0330E-03    -1.95677E-15    -28.7213E+06     22.0684E+06    -37.8767E+06    -3.61736E+06    -165.017E-03     318.334E-03    -153.317E-03     9.13376E-03    -165.139E-03     318.542E-03    -153.496E-03     8.73511E-03
             229     10.7939E-03    -1.95677E-15    -26.0555E+06     47.8103E+06    -18.1556E+06    -870.266E+03    -169.150E-03     323.495E-03    -154.345E-03     11.3177E-03    -169.328E-03     323.804E-03    -154.468E-03     10.8797E-03
             230     11.5513E-03    -1.95677E-15    -23.4596E+06     62.1120E+06     7.79970E+06     67.1907E+03    -174.427E-03     330.032E-03    -155.605E-03     14.5740E-03    -174.655E-03     330.376E-03    -155.622E-03     14.0320E-03
             231     12.3030E-03    -1.95677E-15    -19.3604E+06     74.9417E+06     26.4856E+06    -724.212E+03    -181.306E-03     338.365E-03    -157.059E-03     21.0144E-03    -181.568E-03     338.748E-03    -157.007E-03     20.3033E-03
             232     13.0465E-03    -1.95677E-15    -12.8876E+06     87.0455E+06     50.9727E+06    -1.68468E+06    -190.044E-03     348.873E-03    -158.828E-03     32.3895E-03    -190.350E-03     349.294E-03    -158.681E-03     31.3588E-03
             233     13.7810E-03    -1.95677E-15    -8.47667E+06     93.9673E+06     79.7590E+06     1.02880E+06    -201.988E-03     362.993E-03    -161.005E-03     48.0159E-03    -202.388E-03     363.466E-03    -160.730E-03     46.2839E-03
             234     14.5067E-03    -1.95677E-15    -3.38153E+06     100.211E+06     96.3476E+06    -265.700E+03    -220.588E-03     384.265E-03    -163.676E-03     68.1343E-03    -221.153E-03     384.897E-03    -163.335E-03     64.9245E-03
             235     15.2676E-03     1.43570E-03    -2.10191E+06     103.696E+06     97.0829E+06    -1.99176E+06    -223.248E-03     387.271E-03    -164.023E-03     72.3243E-03    -223.904E-03     388.008E-03    -163.685E-03     68.1540E-03
             236     15.2928E-03     2.82507E-03    -3.81274E+06     102.506E+06     96.1933E+06    -1.54595E+06    -208.951E-03     371.431E-03    -162.480E-03     58.1348E-03    -209.554E-03     372.105E-03    -162.142E-03     54.1278E-03
             237     15.3005E-03     4.19018E-03    -2.38599E+06     97.1290E+06     97.9875E+06    -2.49225E+06    -200.218E-03     362.224E-03    -162.006E-03     45.6487E-03    -200.743E-03     362.800E-03    -161.653E-03     41.8824E-03
             238     15.3016E-03     5.54612E-03    -1.97923E+06     90.2067E+06     94.8662E+06    -1.13408E+06    -193.569E-03     355.548E-03    -161.979E-03     38.8511E-03    -194.041E-03     356.057E-03    -161.632E-03     35.3456E-03
             239     15.3025E-03     6.89321E-03    -2.27512E+06     89.4008E+06     91.3498E+06     728.342E+03    -187.513E-03     349.574E-03    -162.061E-03     36.6084E-03    -187.961E-03     350.067E-03    -161.731E-03     33.3394E-03
             240     15.3027E-03     8.23332E-03    -2.39655E+06     90.0826E+06     90.7807E+06    -26.7883E+03    -182.690E-03     344.856E-03    -162.167E-03     34.3563E-03    -183.126E-03     345.341E-03    -161.840E-03     31.2137E-03
             241     15.3020E-03     9.56888E-03    -2.72029E+06     89.0852E+06     90.7870E+06    -106.339E+03    -178.130E-03     340.423E-03    -162.293E-03     32.7348E-03    -178.554E-03     340.890E-03    -161.964E-03     29.7614E-03
             242     15.3025E-03     10.8971E-03    -2.43999E+06     88.4328E+06     89.5005E+06     85.5308E+03    -173.547E-03     335.938E-03    -162.391E-03     31.8185E-03    -173.957E-03     336.394E-03    -162.068E-03     29.0047E-03
             243     15.3029E-03     12.2203E-03    -1.95307E+06     88.3341E+06     89.1831E+06    -628.462E+03    -170.037E-03     332.489E-03    -162.451E-03     31.1197E-03    -170.436E-03     332.935E-03    -162.131E-03     28.4299E-03
             244     15.3032E-03     13.5412E-03    -2.26921E+06     88.1237E+06     90.0978E+06     214.046E+03    -167.230E-03     329.760E-03    -162.530E-03     29.3230E-03    -167.622E-03     330.196E-03    -162.204E-03     26.7413E-03
             245     15.3020E-03     14.8568E-03    -2.68105E+06     87.8690E+06     89.2886E+06    -316.324E+03    -164.244E-03     326.870E-03    -162.626E-03     28.1743E-03    -164.631E-03     327.301E-03    -162.303E-03     25.6598E-03
             246     15.3027E-03     16.1694E-03    -2.48574E+06     86.9402E+06     87.2834E+06    -42.7345E+03    -161.684E-03     324.355E-03    -162.672E-03     28.5538E-03    -162.061E-03     324.779E-03    -162.358E-03     26.1562E-03
             247     15.3033E-03     17.4796E-03    -2.83785E+06     87.4677E+06     88.2491E+06     416.925E+03    -160.276E-03     322.963E-03    -162.687E-03     27.8961E-03    -160.654E-03     323.386E-03    -162.369E-03     25.5429E-03
             248     15.3029E-03     18.7885E-03    -3.07470E+06     87.7368E+06     88.9476E+06    -112.142E+03    -159.485E-03     322.193E-03    -162.708E-03     27.0111E-03    -159.864E-03     322.615E-03    -162.386E-03     24.6546E-03
             249     15.3032E-03     20.0969E-03    -2.41276E+06     88.0422E+06     88.3693E+06     417.141E+03    -158.535E-03     321.260E-03    -162.724E-03     26.7338E-03    -158.908E-03     321.680E-03    -162.407E-03     24.4176E-03
             250     15.3032E-03     21.4039E-03    -2.22523E+06     89.8135E+06     90.0965E+06     346.293E+03    -158.317E-03     321.062E-03    -162.745E-03     26.7294E-03    -158.694E-03     321.488E-03    -162.422E-03     24.4235E-03
             251     15.3023E-03     22.7120E-03    -2.37597E+06     90.0522E+06     90.5794E+06    -405.319E+03    -158.354E-03     321.111E-03    -162.757E-03     26.4560E-03    -158.731E-03     321.537E-03    -162.432E-03     24.1459E-03
             252     15.3034E-03     24.0182E-03    -2.66537E+06     88.0963E+06     89.7328E+06    -574.824E+03    -158.187E-03     320.949E-03    -162.762E-03     26.0783E-03    -158.560E-03     321.365E-03    -162.437E-03     23.7762E-03
             253     15.3020E-03     25.3266E-03    -2.55831E+06     87.5117E+06     89.9233E+06     180.161E+03    -158.686E-03     321.445E-03    -162.759E-03     26.3573E-03    -159.057E-03     321.857E-03    -162.433E-03     24.0857E-03
             254     15.3033E-03     26.6346E-03    -1.39790E+06     88.3061E+06     89.4165E+06     212.224E+03    -158.694E-03     321.436E-03    -162.742E-03     26.3264E-03    -159.060E-03     321.851E-03    -162.421E-03     24.0513E-03
             255     15.3029E-03     27.9426E-03    -1.85902E+06     88.2426E+06     89.4546E+06    -79.9843E+03    -158.823E-03     321.557E-03    -162.735E-03     26.3435E-03    -159.191E-03     321.972E-03    -162.413E-03     24.0628E-03
             256     15.3027E-03     29.2513E-03    -2.48204E+06     88.4616E+06     89.5324E+06     164.901E+03    -159.502E-03     322.228E-03    -162.726E-03     26.3357E-03    -159.873E-03     322.644E-03    -162.403E-03     24.0592E-03
             257     15.3030E-03     30.5603E-03    -2.15214E+06     89.2035E+06     88.9173E+06     454.076E+03    -159.441E-03     322.155E-03    -162.714E-03     25.8804E-03    -159.810E-03     322.574E-03    -162.395E-03     23.6121E-03
             258     15.3032E-03     31.8690E-03    -2.36121E+06     89.5351E+06     89.1297E+06    -250.877E+03    -159.188E-03     321.897E-03    -162.709E-03     25.8984E-03    -159.558E-03     322.318E-03    -162.390E-03     23.6185E-03
             259     15.3032E-03     33.1778E-03    -2.43072E+06     88.6246E+06     89.5383E+06    -223.659E+03    -159.245E-03     321.947E-03    -162.702E-03     26.5878E-03    -159.617E-03     322.365E-03    -162.379E-03     24.3066E-03
             260     15.3036E-03     34.4876E-03    -2.29055E+06     89.1973E+06     89.9168E+06     550.524E+03    -159.561E-03     322.247E-03    -162.686E-03     26.9628E-03    -159.934E-03     322.668E-03    -162.362E-03     24.6775E-03
             261     15.3033E-03     35.7958E-03    -1.82472E+06     89.9303E+06     90.1974E+06    -49.1082E+03    -160.174E-03     322.850E-03    -162.676E-03     26.3525E-03    -160.547E-03     323.274E-03    -162.353E-03     24.0190E-03
             262     15.3030E-03     37.1069E-03    -2.41301E+06     89.4853E+06     89.7428E+06    -44.6738E+03    -160.831E-03     323.495E-03    -162.664E-03     26.3799E-03    -161.204E-03     323.917E-03    -162.342E-03     24.0585E-03
             263     15.3035E-03     38.4171E-03    -2.06812E+06     90.3035E+06     89.1844E+06     276.485E+03    -160.923E-03     323.561E-03    -162.638E-03     26.3244E-03    -161.295E-03     323.988E-03    -162.320E-03     24.0100E-03
             264     15.3039E-03     39.7287E-03    -2.50999E+06     89.6244E+06     89.3464E+06    -478.119E+03    -160.676E-03     323.314E-03    -162.639E-03     25.7564E-03    -161.048E-03     323.737E-03    -162.318E-03     23.4342E-03
             265     15.3031E-03     41.0382E-03    -2.40192E+06     87.7330E+06     89.4474E+06    -210.583E+03    -160.940E-03     323.578E-03    -162.638E-03     25.4021E-03    -161.306E-03     323.988E-03    -162.314E-03     23.1182E-03
             266     15.3042E-03     42.3478E-03    -2.25365E+06     88.2528E+06     89.8664E+06     142.441E+03    -161.270E-03     323.899E-03    -162.629E-03     24.7484E-03    -161.634E-03     324.308E-03    -162.305E-03     22.4757E-03
             267     15.3029E-03     43.6632E-03    -1.84018E+06     89.0109E+06     89.9943E+06    -25.2245E+03    -160.715E-03     323.379E-03    -162.664E-03     25.9130E-03    -161.086E-03     323.799E-03    -162.341E-03     23.5710E-03
             268     15.3031E-03     44.9721E-03    -2.18232E+06     89.1371E+06     88.5077E+06     472.969E+03    -160.227E-03     322.913E-03    -162.686E-03     27.8112E-03    -160.605E-03     323.343E-03    -162.370E-03     25.4401E-03
             269     15.3031E-03     46.2813E-03    -3.11163E+06     89.8919E+06     89.6635E+06     89.0672E+03    -161.001E-03     323.680E-03    -162.679E-03     27.4117E-03    -161.383E-03     324.110E-03    -162.356E-03     25.0560E-03
             270     15.3026E-03     47.5945E-03    -2.70907E+06     88.5882E+06     90.0807E+06    -477.618E+03    -161.642E-03     324.323E-03    -162.681E-03     26.6213E-03    -162.017E-03     324.742E-03    -162.355E-03     24.2773E-03
             271     15.3026E-03     48.9043E-03    -1.77425E+06     88.2965E+06     89.7231E+06     476.584E+03    -161.630E-03     324.300E-03    -162.669E-03     25.7614E-03    -161.995E-03     324.711E-03    -162.346E-03     23.4837E-03
             272     15.3035E-03     50.2144E-03    -2.19359E+06     89.8163E+06     90.6014E+06     47.8894E+03    -162.380E-03     325.023E-03    -162.643E-03     24.6641E-03    -162.747E-03     325.438E-03    -162.317E-03     22.3842E-03
             273     15.3023E-03     51.5313E-03    -2.62459E+06     88.6880E+06     89.4227E+06    -799.448E+03    -162.210E-03     324.869E-03    -162.660E-03     25.5325E-03    -162.580E-03     325.286E-03    -162.337E-03     23.1988E-03
             274     15.3030E-03     52.8442E-03    -2.40709E+06     86.8578E+06     87.4901E+06     91.4029E+03    -160.997E-03     323.678E-03    -162.681E-03     28.6974E-03    -161.374E-03     324.101E-03    -162.366E-03     26.3157E-03
             275     15.3030E-03     54.1532E-03    -2.13700E+06     87.6163E+06     88.4595E+06     23.3996E+03    -162.013E-03     324.658E-03    -162.646E-03     28.2808E-03    -162.389E-03     325.081E-03    -162.327E-03     25.9036E-03
             276     15.3030E-03     55.4648E-03    -1.68218E+06     88.0738E+06     90.2053E+06    -372.572E+03    -162.930E-03     325.559E-03    -162.629E-03     24.8633E-03    -163.293E-03     325.967E-03    -162.303E-03     22.5525E-03
             277     15.3029E-03     56.7798E-03    -2.42858E+06     86.2856E+06     89.5777E+06    -262.061E+03    -161.934E-03     324.583E-03    -162.649E-03     25.8595E-03    -162.302E-03     324.988E-03    -162.323E-03     23.5427E-03
             278     15.3034E-03     58.0915E-03    -2.59391E+06     85.9804E+06     88.2838E+06     28.2615E+03    -161.589E-03     324.221E-03    -162.632E-03     28.4605E-03    -161.965E-03     324.637E-03    -162.312E-03     26.1021E-03
             279     15.3038E-03     59.4048E-03    -2.02441E+06     87.3335E+06     89.1988E+06     534.521E+03    -161.602E-03     324.229E-03    -162.627E-03     27.9457E-03    -161.978E-03     324.649E-03    -162.305E-03     25.5700E-03
             280     15.3030E-03     60.7147E-03    -2.39830E+06     88.4315E+06     91.3165E+06     408.275E+03    -161.181E-03     323.854E-03    -162.672E-03     26.6541E-03    -161.560E-03     324.274E-03    -162.341E-03     24.2925E-03
             281     15.3026E-03     62.0251E-03    -2.40716E+06     88.1171E+06     90.3169E+06    -337.290E+03    -161.633E-03     324.318E-03    -162.686E-03     27.7546E-03    -162.013E-03     324.741E-03    -162.358E-03     25.3690E-03
             282     15.3024E-03     63.3404E-03    -2.30640E+06     86.8264E+06     87.9792E+06    -524.710E+03    -162.722E-03     325.372E-03    -162.650E-03     28.4008E-03    -163.096E-03     325.791E-03    -162.333E-03     26.0258E-03
             283     15.3031E-03     64.6500E-03    -2.12869E+06     86.2766E+06     87.8384E+06     61.0325E+03    -162.321E-03     324.954E-03    -162.632E-03     25.9399E-03    -162.681E-03     325.357E-03    -162.315E-03     23.6965E-03
             284     15.3036E-03     65.9630E-03    -1.94036E+06     85.8759E+06     89.0809E+06    -153.647E+03    -161.581E-03     324.227E-03    -162.646E-03     25.9220E-03    -161.944E-03     324.629E-03    -162.322E-03     23.6360E-03
             285     15.3027E-03     67.2763E-03    -2.81273E+06     85.5320E+06     88.9685E+06     169.576E+03    -162.071E-03     324.713E-03    -162.642E-03     28.0428E-03    -162.449E-03     325.126E-03    -162.317E-03     25.6426E-03
             286     15.3036E-03     68.5884E-03    -2.46706E+06     86.7896E+06     89.1563E+06     345.597E+03    -162.154E-03     324.782E-03    -162.628E-03     27.5679E-03    -162.530E-03     325.198E-03    -162.304E-03     25.1942E-03
             287     15.3033E-03     69.8999E-03    -1.85051E+06     87.4576E+06     89.4281E+06    -269.480E+03    -161.652E-03     324.279E-03    -162.627E-03     26.7780E-03    -162.022E-03     324.694E-03    -162.304E-03     24.4313E-03
             288     15.3037E-03     71.2117E-03    -2.06328E+06     86.9425E+06     89.0251E+06    -156.939E+03    -161.564E-03     324.191E-03    -162.627E-03     27.0055E-03    -161.935E-03     324.605E-03    -162.305E-03     24.6512E-03
             289     15.3033E-03     72.5236E-03    -2.00090E+06     87.8075E+06     89.5108E+06     394.151E+03    -161.841E-03     324.470E-03    -162.629E-03     26.2037E-03    -162.212E-03     324.886E-03    -162.306E-03     23.8520E-03
             290     15.3032E-03     73.8338E-03    -2.81493E+06     88.7231E+06     89.6689E+06     252.955E+03    -161.922E-03     324.567E-03    -162.645E-03     25.5800E-03    -162.295E-03     324.986E-03    -162.322E-03     23.2495E-03
             291     15.3026E-03     75.1493E-03    -2.85230E+06     87.8604E+06     88.9769E+06    -566.047E+03    -161.352E-03     324.020E-03    -162.668E-03     28.1682E-03    -161.733E-03     324.445E-03    -162.346E-03     25.7816E-03
             292     763.692E-06     76.9344E-03    -116.241E+06    -233.566E+06    -114.230E+06    -1.45477E+06    -163.164E-03     326.087E-03    -162.923E-03     6.63858E-03    -163.233E-03     325.254E-03    -162.986E-03     6.65075E-03
             293     1.52757E-03     76.9413E-03    -108.933E+06    -218.315E+06    -103.119E+06    -599.044E+03    -162.287E-03     325.193E-03    -162.906E-03     10.2887E-03    -162.361E-03     324.405E-03    -162.947E-03     10.3510E-03
             294     2.29454E-03     76.9552E-03    -103.933E+06    -203.160E+06    -87.9189E+06     21.0878E+03    -161.857E-03     324.523E-03    -162.666E-03     14.4894E-03    -161.952E-03     323.783E-03    -162.661E-03     14.5773E-03
             295     3.06074E-03     76.9772E-03    -100.254E+06    -191.506E+06    -72.3586E+06    -661.208E+03    -162.328E-03     324.897E-03    -162.569E-03     17.8715E-03    -162.447E-03     324.190E-03    -162.508E-03     17.9220E-03
             296     3.82611E-03     77.0034E-03    -92.8094E+06    -168.720E+06    -54.1415E+06    -694.658E+03    -163.208E-03     325.865E-03    -162.657E-03     22.0231E-03    -163.351E-03     325.236E-03    -162.549E-03     22.0570E-03
             297     4.58914E-03     77.0380E-03    -85.8773E+06    -147.717E+06    -39.3515E+06    -1.06701E+06    -163.115E-03     325.899E-03    -162.784E-03     27.0024E-03    -163.277E-03     325.347E-03    -162.643E-03     27.0085E-03
             298     5.35434E-03     77.0769E-03    -76.4021E+06    -130.962E+06    -24.1214E+06    -265.915E+03    -162.464E-03     325.292E-03    -162.828E-03     31.2980E-03    -162.630E-03     324.792E-03    -162.648E-03     31.2308E-03
             299     6.11977E-03     77.1190E-03    -68.0208E+06    -116.057E+06    -10.4219E+06     2.00328E+06    -162.594E-03     325.414E-03    -162.820E-03     34.6612E-03    -162.766E-03     324.963E-03    -162.605E-03     34.4771E-03
             300     6.88464E-03     77.1638E-03    -61.8324E+06    -98.2308E+06     833.416E+03     2.24449E+06    -162.839E-03     325.661E-03    -162.821E-03     38.1277E-03    -163.032E-03     325.282E-03    -162.585E-03     37.8032E-03
             301     7.64978E-03     77.2154E-03    -55.4771E+06    -80.3000E+06     10.1375E+06     1.03287E+06    -162.759E-03     325.578E-03    -162.819E-03     41.4934E-03    -162.968E-03     325.276E-03    -162.572E-03     41.0154E-03
             302     8.41516E-03     77.2693E-03    -46.8593E+06    -55.3446E+06     21.3335E+06     265.491E+03    -162.892E-03     325.705E-03    -162.813E-03     43.3374E-03    -163.125E-03     325.513E-03    -162.558E-03     42.6059E-03
             303     9.17971E-03     77.3265E-03    -38.6416E+06    -27.4662E+06     33.3051E+06     1.42880E+06    -162.930E-03     325.743E-03    -162.813E-03     46.3949E-03    -163.195E-03     325.677E-03    -162.550E-03     45.4641E-03
             304     9.94391E-03     77.3888E-03    -32.4379E+06    -3.83413E+06     44.1950E+06     2.61853E+06    -162.524E-03     325.324E-03    -162.801E-03     48.8747E-03    -162.827E-03     325.370E-03    -162.527E-03     47.7217E-03
             305     10.7106E-03     77.4476E-03    -30.0759E+06     24.9720E+06     52.6578E+06     465.753E+03    -162.342E-03     325.097E-03    -162.755E-03     50.5302E-03    -162.708E-03     325.292E-03    -162.485E-03     49.0790E-03
             306     11.4759E-03     77.5119E-03    -26.8542E+06     55.7471E+06     59.6227E+06    -1.42169E+06    -162.340E-03     325.040E-03    -162.700E-03     50.9445E-03    -162.765E-03     325.395E-03    -162.444E-03     49.2043E-03
             307     12.2413E-03     77.5734E-03    -19.0637E+06     77.6922E+06     68.3662E+06    -1.00453E+06    -161.713E-03     324.364E-03    -162.651E-03     49.2257E-03    -162.165E-03     324.826E-03    -162.394E-03     47.1695E-03
             308     13.0091E-03     77.6330E-03    -13.6075E+06     86.6233E+06     76.4178E+06    -233.217E+03    -161.503E-03     324.109E-03    -162.606E-03     48.4123E-03    -161.972E-03     324.615E-03    -162.330E-03     46.0818E-03
             309     13.7738E-03     77.6909E-03    -9.60279E+06     92.3878E+06     85.4960E+06     292.501E+03    -162.594E-03     325.202E-03    -162.608E-03     45.1014E-03    -163.085E-03     325.739E-03    -162.301E-03     42.3735E-03
             310     14.5371E-03     77.7379E-03    -4.75739E+06     90.6432E+06     89.7989E+06     443.583E+03    -162.417E-03     325.051E-03    -162.634E-03     34.5286E-03    -162.855E-03     325.533E-03    -162.309E-03     31.8471E-03
             311     766.710E-06     78.2455E-03    -118.367E+06    -230.099E+06    -115.060E+06     369.199E+03    -162.271E-03     323.557E-03    -161.286E-03     6.23435E-03    -162.355E-03     322.746E-03    -161.356E-03     6.27786E-03
             312     1.53263E-03     78.2527E-03    -115.568E+06    -219.067E+06    -103.933E+06    -854.540E+03    -162.979E-03     325.034E-03    -162.055E-03     10.0519E-03    -163.085E-03     324.254E-03    -162.089E-03     10.1226E-03
             313     2.29535E-03     78.2671E-03    -108.426E+06    -206.318E+06     -87.721E+06    -553.279E+03    -163.350E-03     325.849E-03    -162.499E-03     13.8782E-03    -163.463E-03     325.100E-03    -162.481E-03     13.9620E-03
             314     3.05912E-03     78.2884E-03    -96.7561E+06    -188.739E+06    -66.6428E+06    -238.550E+03    -163.139E-03     325.908E-03    -162.770E-03     18.0255E-03    -163.252E-03     325.202E-03    -162.689E-03     18.0972E-03
             315     3.82275E-03     78.3172E-03    -91.1773E+06    -169.929E+06    -53.8396E+06    -539.209E+03    -162.872E-03     325.732E-03    -162.861E-03     22.9495E-03    -163.006E-03     325.096E-03    -162.751E-03     22.9624E-03
             316     4.58825E-03     78.3506E-03    -85.7027E+06    -147.204E+06    -40.8509E+06    -463.450E+03    -162.408E-03     325.264E-03    -162.856E-03     27.4738E-03    -162.569E-03     324.717E-03    -162.723E-03     27.4495E-03
             317     5.35410E-03     78.3865E-03    -77.7272E+06    -130.584E+06    -24.8562E+06    -438.550E+03    -162.111E-03     324.926E-03    -162.815E-03     31.3839E-03    -162.283E-03     324.430E-03    -162.637E-03     31.3155E-03
             318     6.12016E-03     78.4308E-03    -71.1368E+06    -120.074E+06    -13.1508E+06    -417.384E+03    -162.452E-03     325.228E-03    -162.776E-03     34.7649E-03    -162.630E-03     324.765E-03    -162.564E-03     34.5608E-03
             319     6.88484E-03     78.4768E-03    -61.8774E+06    -98.4010E+06     561.792E+03     1.64246E+06    -162.940E-03     325.722E-03    -162.782E-03     37.7052E-03    -163.132E-03     325.343E-03    -162.547E-03     37.3728E-03
             320     7.64965E-03     78.5270E-03    -53.5557E+06    -76.8855E+06     12.5195E+06     1.00537E+06    -162.936E-03     325.740E-03    -162.803E-03     41.1785E-03    -163.145E-03     325.449E-03    -162.552E-03     40.6771E-03
             321     8.41411E-03     78.5824E-03    -47.9340E+06    -55.1972E+06     20.6500E+06    -1.12035E+06    -162.845E-03     325.644E-03    -162.798E-03     44.2850E-03    -163.083E-03     325.455E-03    -162.546E-03     43.5482E-03
             322     9.17905E-03     78.6389E-03    -41.3028E+06    -31.2305E+06     30.5164E+06    -145.744E+03    -162.573E-03     325.352E-03    -162.779E-03     46.8721E-03    -162.841E-03     325.275E-03    -162.521E-03     45.9312E-03
             323     9.94656E-03     78.6986E-03    -35.4847E+06    -6.24340E+06     41.1032E+06     2.46358E+06    -162.393E-03     325.141E-03    -162.747E-03     48.4715E-03    -162.703E-03     325.183E-03    -162.481E-03     47.3217E-03
             324     10.7115E-03     78.7603E-03    -28.6774E+06     28.7698E+06     52.5086E+06     2.84399E+06    -162.663E-03     325.377E-03    -162.713E-03     49.2801E-03    -163.026E-03     325.587E-03    -162.451E-03     47.8580E-03
             325     11.4763E-03     78.8242E-03    -22.6400E+06     60.0367E+06     61.7692E+06     316.101E+03    -162.457E-03     325.141E-03    -162.685E-03     49.3381E-03    -162.867E-03     325.505E-03    -162.430E-03     47.6262E-03
             326     12.2418E-03     78.8850E-03    -20.4295E+06     76.2934E+06     65.6106E+06    -528.793E+03    -162.029E-03     324.674E-03    -162.644E-03     47.3340E-03    -162.474E-03     325.126E-03    -162.397E-03     45.3299E-03
             327     13.0067E-03     78.9419E-03    -15.9454E+06     84.5065E+06     73.6774E+06     353.472E+03    -161.804E-03     324.427E-03    -162.623E-03     45.8027E-03    -162.264E-03     324.917E-03    -162.354E-03     43.5566E-03
             328     13.7744E-03     79.0029E-03    -10.3799E+06     92.3073E+06     85.8422E+06     785.143E+03    -161.688E-03     324.310E-03    -162.623E-03     42.4659E-03    -162.171E-03     324.835E-03    -162.312E-03     39.8231E-03
             329     14.5403E-03     79.0528E-03    -4.76079E+06     91.2028E+06     90.9095E+06     433.917E+03    -162.179E-03     324.801E-03    -162.622E-03     31.4551E-03    -162.607E-03     325.272E-03    -162.293E-03     28.8343E-03
             330     766.026E-06     79.5518E-03    -113.667E+06    -229.902E+06    -113.109E+06    -149.392E+03    -162.338E-03     324.335E-03    -161.997E-03     4.00971E-03    -162.402E-03     323.515E-03    -162.064E-03     4.04320E-03
             331     1.53018E-03     79.5650E-03    -111.859E+06    -216.292E+06    -102.512E+06    -854.018E+03    -162.632E-03     324.919E-03    -162.287E-03     8.35858E-03    -162.725E-03     324.145E-03    -162.324E-03     8.42046E-03
             332     2.29464E-03     79.5811E-03    -106.189E+06    -205.096E+06    -87.0945E+06    -1.06044E+06    -163.003E-03     325.525E-03    -162.522E-03     13.9801E-03    -163.108E-03     324.777E-03    -162.506E-03     14.0541E-03
             333     3.05868E-03     79.6016E-03    -99.4339E+06    -192.577E+06    -71.1558E+06     667.639E+03    -163.027E-03     325.733E-03    -162.706E-03     20.0616E-03    -163.142E-03     325.017E-03    -162.638E-03     20.1512E-03
             334     3.82451E-03     79.6290E-03    -92.7992E+06    -169.930E+06    -54.7381E+06     614.464E+03    -162.675E-03     325.458E-03    -162.783E-03     24.4753E-03    -162.815E-03     324.824E-03    -162.676E-03     24.5216E-03
             335     4.59019E-03     79.6608E-03    -85.8060E+06    -145.711E+06    -39.2509E+06     367.213E+03    -162.404E-03     325.183E-03    -162.779E-03     27.7023E-03    -162.570E-03     324.641E-03    -162.640E-03     27.7008E-03
             336     5.35493E-03     79.6995E-03    -78.7854E+06    -130.715E+06    -25.1719E+06     1.21705E+06    -162.500E-03     325.270E-03    -162.770E-03     31.3520E-03    -162.677E-03     324.776E-03    -162.592E-03     31.3072E-03
             337     6.11932E-03     79.7410E-03    -72.7974E+06    -119.130E+06    -13.5691E+06     446.632E+03    -162.625E-03     325.397E-03    -162.772E-03     35.0619E-03    -162.812E-03     324.942E-03    -162.562E-03     34.8831E-03
             338     6.88506E-03     79.7899E-03    -66.5250E+06    -100.872E+06    -3.56987E+06    -661.465E+03    -162.750E-03     325.519E-03    -162.770E-03     38.0081E-03    -162.955E-03     325.141E-03    -162.545E-03     37.6522E-03
             339     7.64964E-03     79.8392E-03    -59.7271E+06    -76.5434E+06     7.21719E+06     280.916E+03    -162.585E-03     325.343E-03    -162.759E-03     41.0826E-03    -162.817E-03     325.071E-03    -162.525E-03     40.5758E-03
             340     8.41577E-03     79.8938E-03    -55.4513E+06    -55.3676E+06     16.9499E+06     2.17181E+06    -162.409E-03     325.142E-03    -162.733E-03     44.6966E-03    -162.677E-03     324.968E-03    -162.487E-03     44.0252E-03
             341     9.18159E-03     79.9512E-03    -50.0742E+06    -32.4440E+06     26.5632E+06     2.25140E+06    -162.886E-03     325.603E-03    -162.717E-03     46.6308E-03    -163.191E-03     325.538E-03    -162.464E-03     45.7237E-03
             342     9.94474E-03     80.0099E-03    -42.0831E+06    -4.09926E+06     36.3523E+06    -1.13066E+06    -163.255E-03     325.980E-03    -162.725E-03     47.9908E-03    -163.594E-03     326.049E-03    -162.476E-03     46.7850E-03
             343     10.7095E-03     80.0740E-03    -34.4786E+06     28.0126E+06     46.4733E+06    -2.42942E+06    -162.894E-03     325.625E-03    -162.731E-03     48.9509E-03    -163.275E-03     325.848E-03    -162.489E-03     47.4601E-03
             344     11.4751E-03     80.1350E-03    -27.6680E+06     59.3160E+06     58.6704E+06     416.234E+03    -162.405E-03     325.127E-03    -162.722E-03     48.6876E-03    -162.835E-03     325.499E-03    -162.474E-03     46.9472E-03
             345     12.2410E-03     80.1970E-03    -21.9424E+06     76.9739E+06     68.0689E+06     1.33230E+06    -162.731E-03     325.451E-03    -162.721E-03     47.3040E-03    -163.190E-03     325.908E-03    -162.460E-03     45.2878E-03
             346     13.0059E-03     80.2556E-03    -16.1566E+06     84.9024E+06     76.2306E+06     92.0405E+03    -162.859E-03     325.607E-03    -162.748E-03     45.2632E-03    -163.325E-03     326.095E-03    -162.466E-03     42.9904E-03
             347     13.7690E-03     80.3129E-03    -10.4849E+06     92.2534E+06     86.4583E+06     253.080E+03    -161.495E-03     324.253E-03    -162.758E-03     41.4173E-03    -161.975E-03     324.773E-03    -162.444E-03     38.7878E-03
             348     14.5363E-03     80.3623E-03    -5.38790E+06     90.9564E+06     91.0483E+06      365.08E+03    -160.989E-03     323.702E-03    -162.714E-03     31.6839E-03    -161.419E-03     324.172E-03    -162.383E-03     29.0917E-03
             349     762.437E-06     80.8652E-03    -114.058E+06    -228.118E+06    -112.837E+06    -1.21552E+06    -163.011E-03     326.138E-03    -163.127E-03     5.57779E-03    -163.081E-03     325.327E-03    -163.195E-03     5.61400E-03
             350     1.52846E-03     80.8756E-03    -109.920E+06    -215.857E+06    -103.634E+06    -56.2283E+03    -162.050E-03     324.930E-03    -162.880E-03     9.87537E-03    -162.133E-03     324.157E-03    -162.925E-03     9.95400E-03
             351     2.29546E-03     80.8912E-03    -106.700E+06    -206.021E+06    -89.9630E+06     539.702E+03    -161.912E-03     324.523E-03    -162.611E-03     14.2854E-03    -162.014E-03     323.776E-03    -162.607E-03     14.3856E-03
             352     3.06182E-03     80.9136E-03    -102.625E+06    -196.367E+06    -74.6396E+06     193.386E+03    -162.392E-03     324.936E-03    -162.543E-03     19.0464E-03    -162.512E-03     324.211E-03    -162.483E-03     19.1278E-03
             353     3.82541E-03     80.9412E-03    -92.4368E+06    -170.296E+06    -54.7028E+06     1.61550E+06    -162.654E-03     325.243E-03    -162.589E-03     23.4232E-03    -162.791E-03     324.606E-03    -162.482E-03     23.5193E-03
             354     4.58917E-03     80.9733E-03    -84.9712E+06    -144.126E+06    -37.6759E+06     1.68102E+06    -162.823E-03     325.476E-03    -162.654E-03     27.6674E-03    -162.988E-03     324.938E-03    -162.510E-03     27.7006E-03
             355     5.35460E-03     81.0102E-03    -79.7735E+06    -131.767E+06    -26.0801E+06     1.12622E+06    -163.037E-03     325.763E-03    -162.726E-03     31.4511E-03    -163.216E-03     325.267E-03    -162.549E-03     31.3964E-03
             356     6.12016E-03     81.0543E-03    -71.4994E+06    -118.233E+06    -13.8318E+06     1.77303E+06    -162.796E-03     325.573E-03    -162.777E-03     34.5568E-03    -162.978E-03     325.121E-03    -162.571E-03     34.3825E-03
             357     6.88444E-03     81.1005E-03    -63.7716E+06    -100.405E+06    -1.96636E+06     647.786E+03    -162.302E-03     325.070E-03    -162.768E-03     38.0757E-03    -162.497E-03     324.688E-03    -162.540E-03     37.7195E-03
             358     7.65047E-03     81.1518E-03    -59.4789E+06    -78.5088E+06     6.94280E+06     1.32461E+06    -162.374E-03     325.094E-03    -162.720E-03     41.0111E-03    -162.602E-03     324.813E-03    -162.486E-03     40.5054E-03
             359     8.41553E-03     81.2035E-03    -51.1513E+06    -55.2055E+06     18.8456E+06     754.057E+03    -162.758E-03     325.463E-03    -162.705E-03     43.9970E-03    -163.008E-03     325.281E-03    -162.457E-03     43.2906E-03
             360     9.18042E-03     81.2643E-03    -40.3485E+06    -31.2412E+06     30.5362E+06    -1.08718E+06    -163.109E-03     325.824E-03    -162.715E-03     46.5462E-03    -163.373E-03     325.746E-03    -162.459E-03     45.5943E-03
             361     9.94556E-03     81.3243E-03    -33.6679E+06    -1.37185E+06     40.0933E+06    -404.107E+03    -163.190E-03     325.916E-03    -162.726E-03     48.5593E-03    -163.496E-03     325.981E-03    -162.475E-03     47.3699E-03
             362     10.7103E-03     81.3857E-03    -30.5166E+06     27.0814E+06     50.5207E+06     624.719E+03    -163.044E-03     325.788E-03    -162.744E-03     50.0699E-03    -163.411E-03     325.996E-03    -162.486E-03     48.6147E-03
             363     11.4754E-03     81.4474E-03    -27.1400E+06     56.6810E+06     61.3381E+06     464.543E+03    -163.115E-03     325.876E-03    -162.761E-03     49.6549E-03    -163.547E-03     326.235E-03    -162.497E-03     47.8806E-03
             364     12.2398E-03     81.5095E-03    -20.8415E+06     78.0672E+06     69.9429E+06    -71.9322E+03    -163.184E-03     325.967E-03    -162.783E-03     48.6009E-03    -163.648E-03     326.431E-03    -162.516E-03     46.5132E-03
             365     13.0038E-03     81.5706E-03    -15.0843E+06     85.3279E+06     77.2964E+06     21.0969E+03    -162.678E-03     325.488E-03    -162.810E-03     46.4006E-03    -163.149E-03     325.984E-03    -162.525E-03     44.0613E-03
             366     13.7703E-03     81.6243E-03    -10.4000E+06     92.0992E+06     86.7581E+06     504.136E+03    -161.602E-03     324.414E-03    -162.811E-03     42.8892E-03    -162.092E-03     324.942E-03    -162.496E-03     40.1941E-03
             367     14.5360E-03     81.6719E-03    -5.24812E+06      91.408E+06     90.5081E+06     542.218E+03    -160.699E-03     323.452E-03    -162.753E-03     34.5970E-03    -161.142E-03     323.938E-03    -162.425E-03     31.9364E-03
             368     766.299E-06     82.1789E-03    -116.889E+06    -226.202E+06    -113.455E+06    -54.8931E+03    -162.389E-03     325.207E-03    -162.818E-03     5.78476E-03    -162.475E-03     324.410E-03    -162.887E-03     5.83207E-03
             369     1.53007E-03     82.1867E-03    -113.405E+06    -217.223E+06    -102.961E+06    -115.899E+03    -162.584E-03     325.217E-03    -162.633E-03     10.1598E-03    -162.683E-03     324.442E-03    -162.669E-03     10.2356E-03
             370     2.29422E-03     82.2014E-03    -108.303E+06    -207.314E+06    -89.5386E+06     461.631E+03    -162.602E-03     325.271E-03    -162.669E-03     14.3132E-03    -162.711E-03     324.520E-03    -162.659E-03     14.4193E-03
             371     3.05841E-03     82.2250E-03    -101.125E+06    -193.674E+06    -72.7002E+06     271.228E+03    -162.236E-03     324.909E-03    -162.673E-03     18.1303E-03    -162.356E-03     324.193E-03    -162.609E-03     18.2071E-03
             372     3.82528E-03     82.2518E-03    -93.9863E+06    -172.353E+06    -57.7599E+06    -407.612E+03    -162.042E-03     324.651E-03    -162.608E-03     22.6032E-03    -162.180E-03     324.010E-03    -162.511E-03     22.6638E-03
             373     4.59174E-03     82.2854E-03    -86.8653E+06    -147.144E+06    -43.2392E+06     1.77448E+06    -162.657E-03     325.246E-03    -162.589E-03     27.5741E-03    -162.819E-03     324.703E-03    -162.466E-03     27.6316E-03
             374     5.35530E-03     82.3237E-03    -77.2720E+06    -129.733E+06    -24.4894E+06     1.57590E+06    -163.019E-03     325.694E-03    -162.675E-03     31.7049E-03    -163.192E-03     325.203E-03    -162.497E-03     31.6418E-03
             375     6.11852E-03     82.3667E-03    -68.9606E+06    -119.366E+06    -11.9589E+06    -549.925E+03    -162.531E-03     325.250E-03    -162.720E-03     35.2107E-03    -162.701E-03     324.787E-03    -162.506E-03     34.9885E-03
             376     6.88524E-03     82.4107E-03    -64.0586E+06    -100.928E+06    -2.36965E+06     2.91175E+06    -162.411E-03     325.108E-03    -162.697E-03     38.9268E-03    -162.605E-03     324.723E-03    -162.469E-03     38.6339E-03
             377     7.65082E-03     82.4630E-03    -56.1096E+06    -74.0121E+06     11.8496E+06     2.00046E+06    -162.930E-03     325.631E-03    -162.701E-03     41.4825E-03    -163.156E-03     325.360E-03    -162.453E-03     40.9798E-03
             378     8.41543E-03     82.5170E-03    -47.1977E+06    -53.0714E+06     21.7173E+06    -2.92945E+06    -163.178E-03     325.902E-03    -162.724E-03     44.1041E-03    -163.416E-03     325.722E-03    -162.470E-03     43.3432E-03
             379     9.18007E-03     82.5762E-03    -44.0809E+06    -33.8952E+06     27.6334E+06    -2.36523E+06    -162.854E-03     325.584E-03    -162.730E-03     46.8931E-03    -163.128E-03     325.501E-03    -162.479E-03     45.9368E-03
             380     9.94569E-03     82.6358E-03    -42.3374E+06    -5.02191E+06     36.9658E+06     1.00959E+06    -162.751E-03     325.472E-03    -162.722E-03     48.2725E-03    -163.091E-03     325.537E-03    -162.468E-03     47.0823E-03
             381     10.7113E-03     82.6986E-03    -34.4449E+06     27.6287E+06     50.1268E+06     1.74690E+06    -163.119E-03     325.849E-03    -162.730E-03     49.4027E-03    -163.509E-03     326.070E-03    -162.470E-03     47.9043E-03
             382     11.4754E-03     82.7613E-03    -24.5089E+06     58.6355E+06     63.1316E+06     162.479E+03    -163.334E-03     326.092E-03    -162.759E-03     49.9013E-03    -163.762E-03     326.458E-03    -162.493E-03     48.0683E-03
             383     12.2395E-03     82.8237E-03    -19.1558E+06     77.7779E+06     70.2863E+06     165.276E+03    -162.932E-03     325.709E-03    -162.776E-03     49.4514E-03    -163.393E-03     326.174E-03    -162.510E-03     47.3321E-03
             384     13.0056E-03     82.8821E-03    -15.2950E+06     85.4366E+06     76.5380E+06     806.804E+03    -162.079E-03     324.853E-03    -162.775E-03     46.7927E-03    -162.551E-03     325.353E-03    -162.494E-03     44.4573E-03
             385     13.7708E-03     82.9358E-03    -10.3631E+06     92.2704E+06     85.6052E+06     696.121E+03    -161.458E-03     324.213E-03    -162.754E-03     42.7235E-03    -161.945E-03     324.741E-03    -162.445E-03     40.0487E-03
             386     14.5370E-03     82.9832E-03    -4.89814E+06     91.3201E+06     89.3976E+06     439.762E+03    -161.067E-03     323.771E-03    -162.704E-03     34.4878E-03    -161.504E-03     324.255E-03    -162.382E-03     31.8376E-03
             387     764.319E-06     83.4884E-03    -115.685E+06    -228.422E+06    -112.180E+06     701.818E+03    -162.152E-03     324.412E-03    -162.259E-03     5.04896E-03    -162.232E-03     323.601E-03    -162.321E-03     5.11473E-03
             388     1.53061E-03     83.4986E-03    -111.824E+06    -218.515E+06    -100.306E+06     2.09381E+06    -162.799E-03     325.163E-03    -162.365E-03     10.0669E-03    -162.892E-03     324.375E-03    -162.387E-03     10.1670E-03
             389     2.29469E-03     83.5153E-03    -106.579E+06    -204.801E+06    -86.1477E+06     1.51403E+06    -163.037E-03     325.641E-03    -162.604E-03     15.0458E-03    -163.145E-03     324.894E-03    -162.583E-03     15.1618E-03
             390     3.05987E-03     83.5360E-03    -101.411E+06    -192.447E+06    -73.9596E+06    -605.243E+03    -162.767E-03     325.497E-03    -162.730E-03     18.8385E-03    -162.888E-03     324.790E-03    -162.674E-03     18.8847E-03
             391     3.82433E-03     83.5620E-03    -94.3269E+06    -170.683E+06    -59.1469E+06    -2.75053E+06    -162.488E-03     325.240E-03    -162.752E-03     22.4091E-03    -162.629E-03     324.611E-03    -162.663E-03     22.4032E-03
             392     4.58905E-03     83.5963E-03    -86.7180E+06    -148.733E+06    -43.2269E+06    -1.34447E+06    -161.971E-03     324.679E-03    -162.708E-03     26.8098E-03    -162.130E-03     324.128E-03    -162.583E-03     26.8302E-03
             393     5.35494E-03     83.6369E-03    -79.5161E+06    -133.868E+06    -28.3651E+06     1.29911E+06    -161.412E-03     324.017E-03    -162.605E-03     31.4529E-03    -161.584E-03     323.514E-03    -162.437E-03     31.3860E-03
             394     6.12258E-03     83.6762E-03    -71.9448E+06    -117.125E+06    -12.1359E+06     1.90070E+06    -162.178E-03     324.717E-03    -162.539E-03     36.0993E-03    -162.366E-03     324.268E-03    -162.325E-03     35.9399E-03
             395     6.88675E-03     83.7234E-03    -65.7114E+06    -96.3263E+06     16.5474E+03     1.50717E+06    -163.359E-03     325.931E-03    -162.572E-03     39.4383E-03    -163.570E-03     325.567E-03    -162.337E-03     39.1593E-03
             396     7.65038E-03     83.7757E-03    -57.6115E+06    -75.6178E+06     9.90132E+06     194.965E+03    -163.470E-03     326.122E-03    -162.652E-03     41.9719E-03    -163.698E-03     325.849E-03    -162.409E-03     41.4544E-03
             397     8.41504E-03     83.8300E-03    -53.5053E+06    -54.0630E+06     19.2228E+06     1.68845E+06    -163.326E-03     326.042E-03    -162.715E-03     44.4340E-03    -163.591E-03     325.869E-03    -162.463E-03     43.7380E-03
             398     9.18055E-03     83.8875E-03    -52.9888E+06    -32.2042E+06     26.8070E+06     1.81947E+06    -163.219E-03     325.973E-03    -162.754E-03     46.2315E-03    -163.540E-03     325.914E-03    -162.497E-03     45.2940E-03
             399     9.94536E-03     83.9484E-03    -45.0242E+06    -4.64785E+06     37.1049E+06    -1.73926E+06    -163.019E-03     325.790E-03    -162.771E-03     47.7601E-03    -163.376E-03     325.862E-03    -162.513E-03     46.4860E-03
             400     10.7095E-03     84.0111E-03    -32.9456E+06     27.9834E+06     49.3869E+06    -3.52061E+06    -162.723E-03     325.486E-03    -162.763E-03     49.2557E-03    -163.106E-03     325.709E-03    -162.509E-03     47.6756E-03
             401     11.4751E-03     84.0745E-03    -26.4694E+06     56.6497E+06     59.6027E+06    -931.491E+03    -162.311E-03     325.048E-03    -162.737E-03     50.2800E-03    -162.740E-03     325.411E-03    -162.482E-03     48.4552E-03
             402     12.2411E-03     84.1361E-03    -21.6149E+06     74.9405E+06     68.4916E+06     2.18126E+06    -162.113E-03     324.820E-03    -162.707E-03     49.8510E-03    -162.577E-03     325.275E-03    -162.442E-03     47.8005E-03
             403     13.0058E-03     84.1942E-03    -15.8235E+06     85.3201E+06      76.431E+06     2.02259E+06    -162.049E-03     324.734E-03    -162.685E-03     47.0625E-03    -162.520E-03     325.230E-03    -162.403E-03     44.8026E-03
             404     13.7720E-03     84.2470E-03    -10.0856E+06     93.8551E+06     85.6587E+06     707.427E+03    -161.780E-03     324.454E-03    -162.674E-03     42.8017E-03    -162.266E-03     324.988E-03    -162.367E-03     40.1502E-03
             405     14.5379E-03     84.2942E-03    -5.15848E+06     91.7079E+06     89.5667E+06    -328.746E+03    -161.497E-03     324.147E-03    -162.650E-03     34.2220E-03    -161.933E-03     324.631E-03    -162.328E-03     31.5864E-03
             406     766.187E-06     84.7995E-03    -117.486E+06    -231.131E+06    -114.275E+06     400.235E+03    -162.484E-03     324.983E-03    -162.498E-03     5.06746E-03    -162.565E-03     324.164E-03    -162.564E-03     5.10689E-03
             407     1.52986E-03     84.8096E-03    -112.749E+06    -221.899E+06    -104.815E+06     1.31048E+06    -162.708E-03     325.269E-03    -162.561E-03     9.61625E-03    -162.794E-03     324.472E-03    -162.600E-03     9.69491E-03
             408     2.29548E-03     84.8272E-03    -106.739E+06    -205.812E+06    -89.4568E+06     2.00890E+06    -162.709E-03     325.369E-03    -162.660E-03     13.7953E-03    -162.812E-03     324.622E-03    -162.654E-03     13.9158E-03
             409     3.05968E-03     84.8481E-03    -99.6577E+06    -187.755E+06    -71.6814E+06    -362.598E+03    -162.935E-03     325.692E-03    -162.757E-03     18.0091E-03    -163.057E-03     325.002E-03    -162.699E-03     18.0801E-03
             410     3.82367E-03     84.8759E-03    -94.3252E+06    -169.281E+06    -57.5996E+06    -2.32251E+06    -162.612E-03     325.421E-03    -162.809E-03     22.9788E-03    -162.756E-03     324.796E-03    -162.714E-03     23.0041E-03
             411     4.58841E-03     84.9074E-03    -86.3704E+06    -152.130E+06    -41.2256E+06    -1.21854E+06    -161.533E-03     324.274E-03    -162.741E-03     27.6352E-03    -161.690E-03     323.703E-03    -162.601E-03     27.6207E-03
             412     5.35639E-03     84.9430E-03    -79.4487E+06    -135.602E+06    -27.0649E+06     1.29136E+06    -161.208E-03     323.789E-03    -162.581E-03     30.9683E-03    -161.379E-03     323.275E-03    -162.405E-03     30.9052E-03
             413     6.12245E-03     84.9865E-03    -73.1721E+06    -117.430E+06    -12.8683E+06     3.19331E+06    -162.208E-03     324.707E-03    -162.499E-03     35.0794E-03    -162.399E-03     324.259E-03    -162.287E-03     34.9738E-03
             414     6.88657E-03     85.0392E-03    -66.1391E+06    -96.4230E+06     499.626E+03     1.43720E+06    -163.253E-03     325.793E-03    -162.540E-03     38.7039E-03    -163.468E-03     325.430E-03    -162.302E-03     38.3990E-03
             415     7.65145E-03     85.0862E-03    -62.7905E+06    -79.6790E+06     7.60705E+06     461.057E+03    -163.765E-03     326.399E-03    -162.634E-03     41.3346E-03    -164.010E-03     326.116E-03    -162.389E-03     40.8078E-03
             416     8.41633E-03     85.1442E-03    -53.4791E+06    -54.4563E+06     20.7195E+06     2.26802E+06    -163.690E-03     326.428E-03    -162.738E-03     43.5151E-03    -163.957E-03     326.251E-03    -162.478E-03     42.7986E-03
             417     9.17947E-03     85.2002E-03    -43.2337E+06    -24.8484E+06     34.0695E+06     1.55052E+06    -163.199E-03     325.994E-03    -162.795E-03     45.9812E-03    -163.494E-03     325.948E-03    -162.526E-03     45.0232E-03
             418     9.94367E-03     85.2620E-03    -36.3894E+06     3.45182E+06     43.3163E+06    -2.31869E+06    -162.630E-03     325.416E-03    -162.786E-03     49.1542E-03    -162.964E-03     325.508E-03    -162.522E-03     47.9065E-03
             419     10.7098E-03     85.3223E-03    -32.5071E+06     23.5599E+06     50.0081E+06    -2.94236E+06    -162.155E-03     324.896E-03    -162.741E-03     51.0799E-03    -162.529E-03     325.094E-03    -162.478E-03     49.5691E-03
             420     11.4758E-03     85.3859E-03    -29.0779E+06     49.6753E+06     57.6238E+06     368.017E+03    -161.673E-03     324.341E-03    -162.668E-03     51.2975E-03    -162.101E-03     324.674E-03    -162.409E-03     49.5445E-03
             421     12.2421E-03     85.4462E-03    -22.2462E+06     74.8187E+06     66.7613E+06     1.56229E+06    -161.597E-03     324.190E-03    -162.593E-03     50.5693E-03    -162.061E-03     324.647E-03    -162.335E-03     48.5369E-03
             422     13.0088E-03     85.5071E-03    -15.8081E+06     84.9378E+06     75.7589E+06     1.25957E+06    -162.238E-03     324.808E-03    -162.570E-03     47.5616E-03    -162.708E-03     325.303E-03    -162.291E-03     45.2987E-03
             423     13.7734E-03     85.5585E-03    -9.15162E+06     95.3041E+06     87.4386E+06     440.613E+03    -162.674E-03     325.277E-03    -162.603E-03     42.3313E-03    -163.158E-03     325.813E-03    -162.291E-03     39.6656E-03
             424     14.5384E-03     85.6068E-03    -3.73603E+06     93.3404E+06     91.5379E+06    -413.606E+03    -162.204E-03     324.831E-03    -162.627E-03     32.8164E-03    -162.634E-03     325.313E-03    -162.299E-03     30.1876E-03
             425     763.676E-06     86.1112E-03    -119.108E+06    -231.637E+06    -116.408E+06     562.652E+03    -162.926E-03     326.163E-03    -163.237E-03     5.31094E-03    -163.011E-03     325.347E-03    -163.310E-03     5.33501E-03
             426     1.52893E-03     86.1227E-03    -114.609E+06    -221.614E+06    -106.883E+06    -1.30245E+06    -162.751E-03     325.791E-03    -163.040E-03     9.25743E-03    -162.845E-03     325.001E-03    -163.087E-03     9.32077E-03
             427     2.29324E-03     86.1378E-03    -108.123E+06    -208.775E+06    -92.1590E+06    -536.410E+03    -162.093E-03     324.982E-03    -162.889E-03     14.0368E-03    -162.195E-03     324.226E-03    -162.890E-03     14.1548E-03
             428     3.05866E-03     86.1615E-03    -100.145E+06    -186.818E+06    -71.5145E+06     1.75949E+06    -161.642E-03     324.336E-03    -162.694E-03     19.6882E-03    -161.767E-03     323.650E-03    -162.636E-03     19.8554E-03
             429     3.82466E-03     86.1866E-03    -93.9959E+06    -166.024E+06    -52.7362E+06     1.48251E+06    -161.935E-03     324.500E-03    -162.565E-03     24.5879E-03    -162.089E-03     323.884E-03    -162.452E-03     24.7018E-03
             430     4.59172E-03     86.2173E-03    -88.9835E+06    -155.046E+06    -40.6615E+06    -727.827E+03    -162.743E-03     325.306E-03    -162.564E-03     27.4959E-03    -162.911E-03     324.726E-03    -162.413E-03     27.4096E-03
             431     5.35534E-03     86.2538E-03    -78.2219E+06    -136.818E+06    -25.1129E+06    -672.511E+03    -163.216E-03     325.877E-03    -162.660E-03     30.1899E-03    -163.384E-03     325.354E-03    -162.474E-03     30.0272E-03
             432     6.11917E-03     86.2991E-03    -68.0105E+06    -119.250E+06    -10.3235E+06    -69.6129E+03    -162.793E-03     325.532E-03    -162.739E-03     33.8661E-03    -162.961E-03     325.065E-03    -162.519E-03     33.6751E-03
             433     6.88657E-03     86.3473E-03    -61.2782E+06    -99.7102E+06     1.89173E+06     2.42533E+06    -162.665E-03     325.421E-03    -162.757E-03     37.0577E-03    -162.852E-03     325.032E-03    -162.514E-03     36.7594E-03
             434     7.65079E-03     86.4032E-03    -52.0164E+06    -75.2874E+06     15.8528E+06     2.84767E+06    -163.095E-03     325.877E-03    -162.782E-03     39.7479E-03    -163.304E-03     325.588E-03    -162.518E-03     39.2547E-03
             435     8.41327E-03     86.4559E-03    -44.2151E+06    -54.5312E+06     24.7079E+06    -667.424E+03    -162.789E-03     325.579E-03    -162.790E-03     43.3852E-03    -163.015E-03     325.382E-03    -162.523E-03     42.6374E-03
             436     9.17976E-03     86.5137E-03    -37.3562E+06    -23.6099E+06     34.7273E+06    -1.44489E+06    -162.163E-03     324.908E-03    -162.744E-03     47.2038E-03    -162.429E-03     324.856E-03    -162.482E-03     46.2582E-03
             437     9.94675E-03     86.5719E-03    -31.0212E+06     4.24809E+06     46.3090E+06     585.779E+03    -162.021E-03     324.704E-03    -162.683E-03     50.0158E-03    -162.331E-03     324.785E-03    -162.413E-03     48.8605E-03
             438     10.7124E-03     86.6347E-03    -29.3181E+06     20.6380E+06     52.6058E+06     3.41884E+06    -162.135E-03     324.761E-03    -162.626E-03     51.1080E-03    -162.492E-03     324.934E-03    -162.351E-03     49.6983E-03
             439     11.4779E-03     86.6960E-03    -26.4973E+06     49.3409E+06     59.4701E+06     2.06690E+06    -162.159E-03     324.728E-03    -162.569E-03     50.4706E-03    -162.573E-03     325.051E-03    -162.305E-03     48.7507E-03
             440     12.2440E-03     86.7574E-03    -20.9011E+06     74.7370E+06     66.8000E+06     617.909E+03    -162.324E-03     324.857E-03    -162.533E-03     49.0814E-03    -162.775E-03     325.306E-03    -162.277E-03     47.0671E-03
             441     13.0091E-03     86.8181E-03    -15.3147E+06     86.6719E+06     76.1937E+06     322.209E+03    -162.367E-03     324.910E-03    -162.542E-03     45.4583E-03    -162.832E-03     325.406E-03    -162.265E-03     43.1916E-03
             442     13.7740E-03     86.8737E-03    -10.0446E+06     95.8832E+06     87.6224E+06    -654.359E+03    -162.500E-03     325.081E-03    -162.581E-03     41.6416E-03    -162.991E-03     325.622E-03    -162.267E-03     38.9354E-03
             443     14.5375E-03     86.9195E-03    -4.79750E+06     93.3048E+06     91.2208E+06     232.661E+03    -162.799E-03     325.415E-03    -162.616E-03     32.7555E-03    -163.238E-03     325.903E-03    -162.288E-03     30.0835E-03
             444     764.437E-06     87.4252E-03    -114.084E+06    -231.420E+06    -113.105E+06     273.581E+03    -162.832E-03     326.018E-03    -163.186E-03     6.52855E-03    -162.897E-03     325.192E-03    -163.251E-03     6.57430E-03
             445     1.52847E-03     87.4352E-03    -111.483E+06    -217.058E+06    -102.694E+06    -1.11955E+06    -162.495E-03     325.419E-03    -162.924E-03     10.9008E-03    -162.586E-03     324.641E-03    -162.961E-03     10.9560E-03
             446     2.29422E-03     87.4497E-03    -106.471E+06    -207.121E+06    -88.0529E+06    -3.39062E+06    -161.815E-03     324.541E-03    -162.726E-03     14.6005E-03    -161.918E-03     323.786E-03    -162.711E-03     14.6036E-03
             447     3.06162E-03     87.4685E-03    -99.3914E+06    -190.320E+06    -71.4067E+06    -1.66110E+06    -161.376E-03     323.872E-03    -162.496E-03     18.7280E-03    -161.494E-03     323.169E-03    -162.433E-03     18.7667E-03
             448     3.82866E-03     87.4969E-03    -90.6847E+06    -168.547E+06    -50.8256E+06     2.70161E+06    -162.293E-03     324.710E-03    -162.417E-03     22.8985E-03    -162.430E-03     324.074E-03    -162.295E-03     23.0154E-03
             449     4.59071E-03     87.5311E-03    -81.6400E+06    -149.109E+06    -32.7642E+06     678.136E+03    -163.702E-03     326.263E-03    -162.562E-03     26.6474E-03    -163.851E-03     325.689E-03    -162.391E-03     26.6390E-03
             450     5.35380E-03     87.5687E-03    -74.4054E+06    -135.518E+06    -22.5159E+06    -2.76246E+06    -164.225E-03     327.011E-03    -162.787E-03     30.7777E-03    -164.379E-03     326.486E-03    -162.595E-03     30.5944E-03
             451     6.11845E-03     87.6108E-03    -67.3789E+06    -120.850E+06    -11.3362E+06     311.911E+03    -163.932E-03     326.904E-03    -162.972E-03     34.4583E-03    -164.094E-03     326.430E-03    -162.756E-03     34.2393E-03
             452     6.88091E-03     87.6599E-03    -59.5129E+06    -97.9545E+06     2.94694E+06     1.91509E+06    -162.602E-03     325.631E-03    -163.029E-03     37.7435E-03    -162.785E-03     325.247E-03    -162.786E-03     37.4360E-03
             453     7.64709E-03     87.7141E-03    -51.5895E+06    -77.3587E+06     13.3865E+06     351.185E+03    -161.020E-03     323.930E-03    -162.911E-03     41.3130E-03    -161.219E-03     323.633E-03    -162.657E-03     40.8178E-03
             454     8.41628E-03     87.7669E-03    -46.3658E+06    -55.8090E+06     21.3169E+06     1.17621E+06    -161.177E-03     323.906E-03    -162.729E-03     45.1970E-03    -161.404E-03     323.709E-03    -162.475E-03     44.5522E-03
             455     9.18205E-03     87.8238E-03    -41.4874E+06    -24.9454E+06     31.5766E+06     1.60922E+06    -162.182E-03     324.802E-03    -162.620E-03     47.2973E-03    -162.461E-03     324.754E-03    -162.366E-03     46.4115E-03
             456     9.94720E-03     87.8829E-03    -37.9458E+06    -2.13174E+06     40.0627E+06     2.64952E+06    -162.425E-03     325.008E-03    -162.583E-03     48.2527E-03    -162.751E-03     325.075E-03    -162.324E-03     47.1028E-03
             457     10.7127E-03     87.9464E-03    -32.9916E+06     20.9303E+06     49.1772E+06     4.00139E+06    -162.389E-03     324.950E-03    -162.561E-03     49.1342E-03    -162.756E-03     325.132E-03    -162.298E-03     47.7333E-03
             458     11.4782E-03     88.0075E-03    -26.4616E+06     54.8394E+06     60.6662E+06     2.67564E+06    -162.891E-03     325.445E-03    -162.555E-03     49.0699E-03    -163.312E-03     325.792E-03    -162.292E-03     47.3517E-03
             459     12.2421E-03     88.0707E-03    -21.6388E+06     75.5302E+06     68.2511E+06    -54.9128E+03    -163.226E-03     325.808E-03    -162.582E-03     48.1662E-03    -163.685E-03     326.260E-03    -162.319E-03     46.1113E-03
             460     13.0060E-03     88.1310E-03    -14.8162E+06     87.5564E+06     76.4296E+06    -864.359E+03    -162.366E-03     324.976E-03    -162.611E-03     44.5102E-03    -162.829E-03     325.476E-03    -162.334E-03     42.1914E-03
             461     13.7731E-03     88.1827E-03    -9.88030E+06     96.0342E+06     86.0526E+06     637.234E+03    -161.656E-03     324.272E-03    -162.616E-03     41.2143E-03    -162.142E-03     324.814E-03    -162.310E-03     38.5293E-03
             462     14.5401E-03     88.2347E-03    -5.64769E+06     92.6223E+06     89.4152E+06     440.655E+03    -162.608E-03     325.230E-03    -162.623E-03     32.8538E-03    -163.045E-03     325.717E-03    -162.302E-03     30.2066E-03
             463     765.261E-06     88.7372E-03    -111.164E+06    -232.566E+06    -109.914E+06     925.709E+03    -162.294E-03     324.611E-03    -162.317E-03     5.94362E-03    -162.347E-03     323.770E-03    -162.368E-03     6.01079E-03
             464     1.53131E-03     88.7460E-03    -110.219E+06    -215.019E+06    -100.867E+06     1.21267E+06    -162.189E-03     324.485E-03    -162.296E-03     10.1298E-03    -162.279E-03     323.713E-03    -162.329E-03     10.2039E-03
             465     2.29599E-03     88.7609E-03    -105.262E+06    -203.432E+06    -84.2330E+06    -653.639E+03    -162.691E-03     325.086E-03    -162.394E-03     13.6069E-03    -162.799E-03     324.342E-03    -162.368E-03     13.6414E-03
             466     3.05942E-03     88.7785E-03    -102.461E+06    -191.160E+06    -72.1411E+06    -1.95850E+06    -163.361E-03     325.961E-03    -162.600E-03     17.2046E-03    -163.492E-03     325.259E-03    -162.535E-03     17.2389E-03
             467     3.82272E-03     88.8086E-03    -94.8162E+06    -171.810E+06    -56.5454E+06    -537.565E+03    -163.029E-03     325.808E-03    -162.779E-03     21.3280E-03    -163.174E-03     325.170E-03    -162.675E-03     21.4049E-03
             468     4.58985E-03     88.8435E-03    -81.8552E+06    -148.199E+06    -35.5411E+06    -294.602E+03    -162.564E-03     325.411E-03    -162.847E-03     25.9386E-03    -162.711E-03     324.844E-03    -162.691E-03     25.9830E-03
             469     5.35515E-03     88.8830E-03     -75.463E+06    -133.318E+06    -22.3598E+06    -283.374E+03    -163.204E-03     326.090E-03    -162.886E-03     31.3277E-03    -163.365E-03     325.575E-03    -162.695E-03     31.2748E-03
             470     6.11760E-03     88.9260E-03    -70.6742E+06    -123.692E+06    -14.2120E+06     841.949E+03    -163.406E-03     326.358E-03    -162.952E-03     36.3119E-03    -163.574E-03     325.877E-03    -162.741E-03     36.1505E-03
             471     6.88262E-03     88.9741E-03    -60.4653E+06    -98.1510E+06    -1.60692E+06    -390.326E+03    -161.915E-03     324.837E-03    -162.922E-03     40.1468E-03    -162.098E-03     324.461E-03    -162.700E-03     39.7927E-03
             472     7.65009E-03     89.0190E-03    -54.5445E+06    -76.7475E+06     9.82459E+06     781.596E+03    -161.073E-03     323.852E-03    -162.779E-03     43.3822E-03    -161.282E-03     323.567E-03    -162.540E-03     42.9152E-03
             473     8.41676E-03     89.0764E-03    -52.8142E+06    -58.9039E+06     17.3576E+06     3.05636E+06    -161.951E-03     324.602E-03    -162.652E-03     45.1039E-03    -162.199E-03     324.404E-03    -162.403E-03     44.4994E-03
             474     9.18236E-03     89.1361E-03    -45.8950E+06    -28.1799E+06     28.3773E+06     3.38489E+06    -162.715E-03     325.323E-03    -162.608E-03     45.4864E-03    -163.007E-03     325.271E-03    -162.359E-03     44.5756E-03
             475     9.94648E-03     89.1962E-03    -37.7077E+06    -3.20454E+06     39.9491E+06     4.18568E+06    -162.766E-03     325.382E-03    -162.615E-03     46.9101E-03    -163.091E-03     325.445E-03    -162.356E-03     45.7266E-03
             476     10.7118E-03     89.2559E-03    -31.6617E+06     21.8613E+06     50.5491E+06     2.84442E+06    -162.718E-03     325.339E-03    -162.621E-03     48.6953E-03    -163.083E-03     325.522E-03    -162.354E-03     47.2555E-03
             477     11.4768E-03     89.3215E-03    -24.9984E+06     57.6207E+06     60.1684E+06     726.405E+03    -162.835E-03     325.442E-03    -162.608E-03     49.7922E-03    -163.255E-03     325.804E-03    -162.354E-03     48.0244E-03
             478     12.2415E-03     89.3841E-03    -18.3545E+06     79.6982E+06     68.7648E+06    -102.245E+03    -162.620E-03     325.230E-03    -162.609E-03     49.3438E-03    -163.077E-03     325.705E-03    -162.355E-03     47.2179E-03
             479     13.0074E-03     89.4432E-03    -14.4688E+06     86.5111E+06     75.6605E+06     176.509E+03    -162.421E-03     325.043E-03    -162.622E-03     46.1688E-03    -162.891E-03     325.549E-03    -162.348E-03     43.7906E-03
             480     13.7715E-03     89.4940E-03    -9.37069E+06     95.4982E+06     84.3827E+06     934.109E+03    -162.368E-03     325.008E-03    -162.640E-03     42.3999E-03    -162.853E-03     325.554E-03    -162.343E-03     39.6964E-03
             481     14.5364E-03     89.5454E-03    -3.85469E+06     93.2894E+06     89.3676E+06     545.146E+03    -162.177E-03     324.833E-03    -162.656E-03     34.1679E-03    -162.609E-03     325.323E-03    -162.339E-03     31.5397E-03
             482     765.385E-06     90.0469E-03    -117.931E+06    -232.268E+06    -115.705E+06    -1.31254E+06    -162.694E-03     325.110E-03    -162.416E-03     3.69828E-03    -162.773E-03     324.289E-03    -162.487E-03     3.76994E-03
             483     1.53012E-03     90.0563E-03    -111.726E+06    -216.741E+06    -103.017E+06     564.606E+03    -162.339E-03     324.884E-03    -162.546E-03     7.36374E-03    -162.431E-03     324.110E-03    -162.584E-03     7.48636E-03
             484     2.29584E-03     90.0715E-03    -106.719E+06    -204.591E+06    -86.9327E+06     2.20676E+06    -162.949E-03     325.572E-03    -162.623E-03     12.6301E-03    -163.058E-03     324.829E-03    -162.606E-03     12.7814E-03
             485     3.05944E-03     90.0955E-03    -101.212E+06    -188.470E+06    -70.8971E+06     851.824E+03    -163.770E-03     326.630E-03    -162.860E-03     18.5994E-03    -163.900E-03     325.937E-03    -162.794E-03     18.7366E-03
             486     3.82263E-03     90.1218E-03    -91.7968E+06    -168.222E+06    -54.4591E+06    -1.18595E+06    -163.279E-03     326.328E-03    -163.049E-03     23.3110E-03    -163.418E-03     325.701E-03    -162.944E-03     23.3609E-03
             487     4.58645E-03     90.1534E-03    -85.9164E+06    -152.844E+06    -40.1965E+06     184.521E+03    -162.313E-03     325.370E-03    -163.057E-03     27.7965E-03    -162.467E-03     324.793E-03    -162.912E-03     27.8442E-03
             488     5.35292E-03     90.1940E-03    -80.7267E+06    -136.346E+06    -26.9217E+06     2.21647E+06    -161.831E-03     324.782E-03    -162.951E-03     32.0221E-03    -162.005E-03     324.263E-03    -162.771E-03     32.0808E-03
             489     6.12018E-03     90.2396E-03    -73.0118E+06    -122.201E+06    -15.7940E+06    -1.65965E+06    -161.281E-03     324.077E-03    -162.796E-03     35.3021E-03    -161.462E-03     323.610E-03    -162.592E-03     35.1148E-03
             490     6.88726E-03     90.2815E-03    -65.8060E+06    -103.408E+06    -7.46899E+06    -3.74757E+06    -161.693E-03     324.336E-03    -162.643E-03     38.2395E-03    -161.888E-03     323.952E-03    -162.435E-03     37.7850E-03
             491     7.65254E-03     90.3315E-03    -59.7417E+06    -78.6428E+06     4.97858E+06     3.12850E+06    -163.103E-03     325.722E-03    -162.619E-03     41.7490E-03    -163.329E-03     325.442E-03    -162.393E-03     41.2994E-03
             492     8.41519E-03     90.3891E-03    -51.8805E+06    -54.6908E+06     20.5224E+06     3.65742E+06    -163.403E-03     326.094E-03    -162.691E-03     44.5276E-03    -163.659E-03     325.912E-03    -162.434E-03     43.9001E-03
             493     9.17933E-03     90.4477E-03    -45.3135E+06    -28.7220E+06     29.9355E+06     269.064E+03    -162.658E-03     325.365E-03    -162.707E-03     45.6810E-03    -162.951E-03     325.308E-03    -162.450E-03     44.7046E-03
             494     9.94616E-03     90.5072E-03    -38.0364E+06    -5.72178E+06     38.3838E+06     1.13602E+06    -162.511E-03     325.194E-03    -162.683E-03     47.4439E-03    -162.832E-03     325.249E-03    -162.428E-03     46.2208E-03
             495     10.7109E-03     90.5697E-03    -27.4248E+06     22.9746E+06     51.0486E+06     1.93655E+06    -162.752E-03     325.423E-03    -162.671E-03     49.5587E-03    -163.101E-03     325.608E-03    -162.409E-03     48.0771E-03
             496     11.4760E-03     90.6326E-03    -21.5748E+06     60.0676E+06     60.5136E+06     1.70885E+06    -162.273E-03     324.906E-03    -162.633E-03     50.4649E-03    -162.681E-03     325.275E-03    -162.386E-03     48.7248E-03
             497     12.2425E-03     90.6961E-03    -19.1051E+06     79.2772E+06     65.7810E+06     2.00812E+06    -161.693E-03     324.272E-03    -162.579E-03     49.2794E-03    -162.143E-03     324.745E-03    -162.337E-03     47.2601E-03
             498     13.0083E-03     90.7538E-03    -15.0521E+06     85.9424E+06     74.6668E+06     2.16714E+06    -162.085E-03     324.649E-03    -162.564E-03     46.9979E-03    -162.554E-03     325.152E-03    -162.293E-03     44.7022E-03
             499     13.7734E-03     90.8101E-03    -9.65225E+06     96.1471E+06     86.4087E+06     459.066E+03    -162.751E-03     325.347E-03    -162.596E-03     44.2201E-03    -163.248E-03     325.900E-03    -162.289E-03     41.4951E-03
             500     14.5377E-03     90.8566E-03    -4.72842E+06     94.1538E+06     90.3560E+06     178.536E+03    -162.423E-03     325.048E-03    -162.625E-03     36.0088E-03    -162.871E-03     325.551E-03    -162.303E-03     33.3190E-03
             501     763.303E-06     91.3604E-03    -116.097E+06    -227.742E+06    -113.254E+06    -2.05547E+06    -162.857E-03     326.031E-03    -163.174E-03     4.39358E-03    -162.937E-03     325.227E-03    -163.242E-03     4.47349E-03
             502     1.52813E-03     91.3680E-03    -112.975E+06    -218.797E+06    -105.822E+06    -2.63108E+06    -162.877E-03     325.885E-03    -163.008E-03     9.26754E-03    -162.969E-03     325.107E-03    -163.056E-03     9.35558E-03
             503     2.29231E-03     91.3838E-03    -106.681E+06    -207.673E+06    -91.4832E+06    -206.311E+03    -162.787E-03     325.780E-03    -162.993E-03     14.4883E-03    -162.884E-03     325.027E-03    -162.995E-03     14.6422E-03
             504     3.05845E-03     91.4073E-03    -97.8940E+06    -187.324E+06    -71.0432E+06     1.74638E+06    -162.569E-03     325.545E-03    -162.976E-03     19.3751E-03    -162.683E-03     324.853E-03    -162.917E-03     19.5444E-03
             505     3.82434E-03     91.4358E-03    -92.6348E+06    -169.138E+06    -54.4480E+06     910.744E+03    -162.825E-03     325.794E-03    -162.970E-03     23.1386E-03    -162.966E-03     325.164E-03    -162.862E-03     23.1998E-03
             506     4.58967E-03     91.4654E-03    -87.5971E+06    -153.788E+06    -41.1286E+06     1.19684E+06    -162.812E-03     325.797E-03    -162.985E-03     28.0029E-03    -162.971E-03     325.219E-03    -162.841E-03     28.0477E-03
             507     5.35334E-03     91.5065E-03    -79.4553E+06    -134.760E+06    -27.0419E+06     1.05491E+06    -161.707E-03     324.623E-03    -162.916E-03     31.8182E-03    -161.878E-03     324.112E-03    -162.741E-03     31.7974E-03
             508     6.11986E-03     91.5450E-03    -71.7842E+06    -118.466E+06    -13.9909E+06    -1.04828E+06    -161.338E-03     324.107E-03    -162.769E-03     33.6929E-03    -161.521E-03     323.656E-03    -162.563E-03     33.4401E-03
             509     6.88634E-03     91.5934E-03    -71.2642E+06    -104.185E+06    -7.45249E+06    -1.13108E+06    -162.671E-03     325.360E-03    -162.688E-03     36.3812E-03    -162.892E-03     324.979E-03    -162.471E-03     35.9497E-03
             510     7.64960E-03     91.6452E-03    -65.9824E+06    -81.3451E+06     1.55537E+06    -295.009E+03    -163.324E-03     326.040E-03    -162.717E-03     40.1284E-03    -163.573E-03     325.762E-03    -162.495E-03     39.5807E-03
             511     8.41510E-03     91.7026E-03    -52.1367E+06    -52.7208E+06     18.9357E+06     63.6899E+03    -162.469E-03     325.217E-03    -162.748E-03     44.0538E-03    -162.727E-03     325.048E-03    -162.501E-03     43.3596E-03
             512     9.18098E-03     91.7591E-03    -46.8033E+06    -30.2158E+06     28.0815E+06     978.823E+03    -162.351E-03     325.060E-03    -162.709E-03     47.3118E-03    -162.644E-03     324.998E-03    -162.457E-03     46.4090E-03
             513     9.94514E-03     91.8189E-03    -43.4775E+06    -6.87035E+06     34.1522E+06     711.697E+03    -162.832E-03     325.505E-03    -162.674E-03     48.9909E-03    -163.170E-03     325.566E-03    -162.430E-03     47.8181E-03
             514     10.7112E-03     91.8813E-03    -37.6560E+06     23.3810E+06     44.2657E+06    -546.120E+03    -162.513E-03     325.169E-03    -162.657E-03     49.9626E-03    -162.901E-03     325.379E-03    -162.414E-03     48.4976E-03
             515     11.4767E-03     91.9451E-03    -30.0526E+06     56.6111E+06     56.9581E+06     1.78448E+06    -161.943E-03     324.563E-03    -162.621E-03     50.1688E-03    -162.378E-03     324.928E-03    -162.374E-03     48.4859E-03
             516     12.2423E-03     92.0052E-03    -22.3378E+06     79.4359E+06     66.8758E+06     2.84608E+06    -161.575E-03     324.140E-03    -162.565E-03     48.9603E-03    -162.040E-03     324.614E-03    -162.313E-03     46.9985E-03
             517     13.0086E-03     92.0663E-03    -16.6411E+06     87.9945E+06     74.1212E+06     948.855E+03    -161.642E-03     324.165E-03    -162.522E-03     47.1537E-03    -162.119E-03     324.679E-03    -162.255E-03     44.8734E-03
             518     13.7746E-03     92.1209E-03    -10.4610E+06     95.0870E+06     85.6427E+06     276.050E+03    -162.286E-03     324.820E-03    -162.534E-03     43.7796E-03    -162.780E-03     325.366E-03    -162.229E-03     41.0831E-03
             519     14.5401E-03     92.1717E-03    -5.00079E+06     94.9909E+06     91.6714E+06     327.580E+03    -162.694E-03     325.263E-03    -162.569E-03     34.2525E-03    -163.138E-03     325.761E-03    -162.241E-03     31.6002E-03
             520     765.968E-06     92.6715E-03    -113.239E+06    -227.315E+06    -111.011E+06     1.60628E+06    -162.361E-03     325.003E-03    -162.642E-03     5.35655E-03    -162.430E-03     324.194E-03    -162.703E-03     5.43827E-03
             521     1.53047E-03     92.6816E-03    -112.765E+06    -217.116E+06    -101.913E+06     511.391E+03    -163.106E-03     325.755E-03    -162.649E-03     10.9415E-03    -163.205E-03     324.979E-03    -162.680E-03     11.0203E-03
             522     2.29493E-03     92.6967E-03    -108.871E+06    -209.445E+06    -90.3491E+06    -655.184E+03    -163.136E-03     325.998E-03    -162.861E-03     15.5229E-03    -163.245E-03     325.238E-03    -162.851E-03     15.6243E-03
             523     3.05875E-03     92.7190E-03    -102.024E+06    -193.245E+06    -75.7594E+06     1.42348E+06    -162.505E-03     325.410E-03    -162.905E-03     19.6898E-03    -162.625E-03     324.702E-03    -162.856E-03     19.8199E-03
             524     3.82392E-03     92.7462E-03    -95.9235E+06    -169.810E+06    -59.1683E+06     2.48506E+06    -162.489E-03     325.354E-03    -162.865E-03     23.6402E-03    -162.639E-03     324.732E-03    -162.775E-03     23.7262E-03
             525     4.58772E-03     92.7803E-03    -89.4293E+06    -150.097E+06    -42.8370E+06     974.161E+03    -162.556E-03     325.409E-03    -162.853E-03     27.1727E-03    -162.728E-03     324.856E-03    -162.720E-03     27.1810E-03
             526     5.35459E-03     92.8150E-03    -81.3436E+06    -134.236E+06    -27.0898E+06     396.909E+03    -162.430E-03     325.278E-03    -162.848E-03     30.6785E-03    -162.614E-03     324.775E-03    -162.671E-03     30.5746E-03
             527     6.11975E-03     92.8577E-03    -73.7408E+06    -119.313E+06    -13.3393E+06     1.57393E+06    -163.024E-03     325.890E-03    -162.866E-03     34.0215E-03    -163.217E-03     325.436E-03    -162.653E-03     33.8197E-03
             528     6.88279E-03     92.9055E-03    -65.0593E+06    -97.1566E+06    -436.370E+03     1.19790E+06    -163.135E-03     326.041E-03    -162.906E-03     37.5588E-03    -163.343E-03     325.674E-03    -162.673E-03     37.2396E-03
             529     7.64843E-03     92.9590E-03    -57.4008E+06    -76.6687E+06     7.59682E+06    -2.55688E+06    -162.276E-03     325.155E-03    -162.879E-03     40.8379E-03    -162.500E-03     324.881E-03    -162.646E-03     40.2372E-03
             530     8.41429E-03     93.0109E-03    -52.9614E+06    -61.2074E+06     13.4143E+06    -2.44022E+06    -161.618E-03     324.400E-03    -162.782E-03     43.5071E-03    -161.861E-03     324.199E-03    -162.549E-03     42.7410E-03
             531     9.18170E-03     93.0695E-03    -46.1937E+06    -35.8997E+06     25.8431E+06     1.15437E+06    -162.031E-03     324.730E-03    -162.699E-03     46.9610E-03    -162.307E-03     324.640E-03    -162.451E-03     46.1096E-03
             532     9.94716E-03     93.1336E-03    -38.9055E+06    -5.58163E+06     38.4712E+06     2.55644E+06    -162.622E-03     325.283E-03    -162.660E-03     48.5682E-03    -162.944E-03     325.335E-03    -162.404E-03     47.4539E-03
             533     10.7107E-03     93.1924E-03    -34.5364E+06     25.9303E+06     48.9232E+06     2.67031E+06    -162.356E-03     324.989E-03    -162.634E-03     49.7995E-03    -162.738E-03     325.199E-03    -162.377E-03     48.3946E-03
             534     11.4770E-03     93.2558E-03    -31.3506E+06     55.9754E+06     57.6851E+06     793.470E+03    -162.021E-03     324.610E-03    -162.589E-03     50.4612E-03    -162.464E-03     324.973E-03    -162.336E-03     48.7657E-03
             535     12.2428E-03     93.3172E-03    -24.2258E+06     79.1023E+06     66.6840E+06    -622.653E+03    -161.666E-03     324.203E-03    -162.537E-03     48.9048E-03    -162.140E-03     324.678E-03    -162.283E-03     46.8857E-03
             536     13.0087E-03     93.3758E-03    -16.4637E+06     88.4804E+06     74.6644E+06    -602.842E+03    -161.792E-03     324.294E-03    -162.502E-03     48.0183E-03    -162.271E-03     324.813E-03    -162.233E-03     45.7074E-03
             537     13.7741E-03     93.4338E-03    -10.5484E+06     94.1203E+06     84.2862E+06    -394.336E+03    -162.430E-03     324.945E-03    -162.515E-03     44.4728E-03    -162.923E-03     325.490E-03    -162.215E-03     41.7600E-03
             538     14.5383E-03     93.4844E-03    -4.79626E+06     95.5430E+06     92.0824E+06     376.732E+03    -162.546E-03     325.103E-03    -162.557E-03     34.0076E-03    -162.992E-03     325.603E-03    -162.228E-03     31.3459E-03
             539     765.063E-06     93.9827E-03    -120.379E+06    -231.367E+06    -118.889E+06     38.9251E+03    -162.560E-03     324.997E-03    -162.438E-03     3.84825E-03    -162.647E-03     324.191E-03    -162.522E-03     3.90966E-03
             540     1.53026E-03     93.9925E-03    -114.660E+06    -218.650E+06    -104.962E+06     2.79667E+06    -162.666E-03     325.235E-03    -162.569E-03     9.47968E-03    -162.768E-03     324.459E-03    -162.611E-03     9.57297E-03
             541     2.29420E-03     94.0110E-03    -110.132E+06    -208.052E+06    -88.6090E+06      2.1449E+06    -162.690E-03     325.363E-03    -162.673E-03     14.4854E-03    -162.810E-03     324.610E-03    -162.654E-03     14.5756E-03
             542     3.05947E-03     94.0297E-03    -104.190E+06    -195.713E+06    -75.1612E+06     461.406E+03    -162.735E-03     325.468E-03    -162.733E-03     19.5008E-03    -162.864E-03     324.750E-03    -162.674E-03     19.5633E-03
             543     3.82442E-03     94.0590E-03    -95.0270E+06    -171.675E+06    -59.1822E+06     2.39715E+06    -162.579E-03     325.335E-03    -162.756E-03     24.1305E-03    -162.722E-03     324.703E-03    -162.665E-03     24.2045E-03
             544     4.59081E-03     94.0912E-03    -87.8426E+06    -148.617E+06    -41.1767E+06     3.43036E+06    -162.648E-03     325.428E-03    -162.780E-03     26.9630E-03    -162.817E-03     324.877E-03    -162.643E-03     26.9946E-03
             545     5.35440E-03     94.1272E-03    -80.3735E+06    -133.946E+06    -25.2954E+06     1.81764E+06    -163.172E-03     326.017E-03    -162.846E-03     30.6374E-03    -163.353E-03     325.511E-03    -162.661E-03     30.5682E-03
             546     6.11803E-03     94.1715E-03    -73.0771E+06    -121.035E+06    -13.7460E+06     1.38891E+06    -163.260E-03     326.179E-03    -162.918E-03     35.2195E-03    -163.446E-03     325.715E-03    -162.706E-03     35.0498E-03
             547     6.88323E-03     94.2190E-03    -62.8788E+06    -96.2784E+06     124.595E+03    -106.462E+03    -162.613E-03     325.545E-03    -162.933E-03     39.0185E-03    -162.812E-03     325.179E-03    -162.701E-03     38.6928E-03
             548     7.64889E-03     94.2684E-03    -55.9070E+06    -75.6983E+06     9.76457E+06    -1.91792E+06    -162.150E-03     325.024E-03    -162.874E-03     41.7431E-03    -162.370E-03     324.749E-03    -162.634E-03     41.1844E-03
             549     8.41510E-03     94.3226E-03    -53.3894E+06    -61.9445E+06     15.4254E+06    -923.989E+03    -162.480E-03     325.292E-03    -162.812E-03     43.9255E-03    -162.728E-03     325.086E-03    -162.568E-03     43.1780E-03
             550     9.17897E-03     94.3800E-03    -44.1634E+06    -36.0478E+06     28.9921E+06    -123.885E+03    -162.141E-03     324.912E-03    -162.771E-03     46.7228E-03    -162.413E-03     324.815E-03    -162.510E-03     45.8206E-03
             551     9.94524E-03     94.4445E-03    -36.2398E+06    -8.11600E+06     40.0458E+06     766.629E+03    -161.353E-03     324.032E-03    -162.680E-03     48.4661E-03    -161.658E-03     324.064E-03    -162.415E-03     47.3552E-03
             552     10.7131E-03     94.5038E-03    -30.8494E+06     24.0590E+06     49.4022E+06     2.42888E+06    -161.801E-03     324.378E-03    -162.576E-03     50.1863E-03    -162.162E-03     324.571E-03    -162.319E-03     48.8021E-03
             553     11.4778E-03     94.5678E-03    -23.8416E+06     60.6794E+06     61.8876E+06     2.29468E+06    -162.222E-03     324.745E-03    -162.523E-03     50.8739E-03    -162.642E-03     325.117E-03    -162.267E-03     49.1766E-03
             554     12.2432E-03     94.6280E-03    -20.0769E+06     79.8502E+06     69.3202E+06     252.912E+03    -162.315E-03     324.818E-03    -162.503E-03     48.8041E-03    -162.772E-03     325.286E-03    -162.243E-03     46.7961E-03
             555     13.0096E-03     94.6862E-03    -15.9627E+06     87.0259E+06     76.7303E+06    -1.40840E+06    -162.569E-03     325.087E-03    -162.519E-03     47.4673E-03    -163.045E-03     325.593E-03    -162.238E-03     45.1490E-03
             556     13.7744E-03     94.7482E-03    -10.6288E+06     95.0943E+06     87.0993E+06    -916.965E+03    -162.409E-03     324.965E-03    -162.555E-03     43.7043E-03    -162.907E-03     325.510E-03    -162.242E-03     40.9773E-03
             557     14.5402E-03     94.7954E-03    -5.29918E+06     95.6313E+06     92.3615E+06    -44.3837E+03    -162.328E-03     324.908E-03    -162.579E-03     33.4318E-03    -162.777E-03     325.409E-03    -162.249E-03     30.7426E-03
             558     764.000E-06     95.2938E-03    -121.771E+06    -230.975E+06    -115.780E+06    -577.341E+03    -163.084E-03     326.056E-03    -162.972E-03     4.92447E-03    -163.182E-03     325.249E-03    -163.040E-03     4.97042E-03
             559     1.52836E-03     95.3056E-03    -116.010E+06    -222.473E+06    -109.329E+06    -664.556E+03    -162.603E-03     325.565E-03    -162.962E-03     9.39769E-03    -162.700E-03     324.777E-03    -163.018E-03     9.44914E-03
             560     2.29545E-03     95.3197E-03    -108.929E+06    -208.785E+06    -91.7626E+06     1.33727E+06    -162.298E-03     325.145E-03    -162.848E-03     13.3559E-03    -162.406E-03     324.392E-03    -162.846E-03     13.4671E-03
             561     3.06035E-03     95.3435E-03    -104.245E+06    -194.597E+06    -73.1642E+06     2.02761E+06    -162.494E-03     325.296E-03    -162.802E-03     17.8541E-03    -162.628E-03     324.581E-03    -162.734E-03     17.9586E-03
             562     3.82477E-03     95.3696E-03    -98.8436E+06    -175.081E+06    -58.4898E+06     829.243E+03    -162.515E-03     325.307E-03    -162.792E-03     22.4368E-03    -162.673E-03     324.662E-03    -162.687E-03     22.4894E-03
             563     4.58873E-03     95.4034E-03    -88.0249E+06    -150.466E+06    -41.8316E+06     1.19860E+06    -162.655E-03     325.451E-03    -162.796E-03     26.6712E-03    -162.821E-03     324.892E-03    -162.660E-03     26.6753E-03
             564     5.35388E-03     95.4410E-03    -78.6485E+06    -133.318E+06    -26.3509E+06     1.90669E+06    -162.782E-03     325.606E-03    -162.824E-03     31.3237E-03    -162.953E-03     325.101E-03    -162.649E-03     31.2684E-03
             565     6.11922E-03     95.4838E-03    -70.9173E+06    -119.570E+06    -13.2434E+06     988.888E+03    -162.509E-03     325.340E-03    -162.831E-03     36.0286E-03    -162.688E-03     324.881E-03    -162.621E-03     35.8472E-03
             566     6.88503E-03     95.5296E-03    -63.2940E+06    -96.1473E+06     338.470E+03      744.58E+03    -162.427E-03     325.230E-03    -162.803E-03     39.1504E-03    -162.630E-03     324.866E-03    -162.570E-03     38.7906E-03
             567     7.65027E-03     95.5808E-03    -55.7252E+06    -77.4483E+06     12.3227E+06     809.144E+03    -162.734E-03     325.523E-03    -162.789E-03     41.7560E-03    -162.952E-03     325.233E-03    -162.534E-03     41.2532E-03
             568     8.41439E-03     95.6342E-03    -50.4664E+06    -60.2889E+06     20.0112E+06     1.03812E+06    -162.869E-03     325.649E-03    -162.781E-03     45.0557E-03    -163.110E-03     325.439E-03    -162.520E-03     44.3794E-03
             569     9.17963E-03     95.6946E-03    -44.8756E+06    -32.0514E+06     29.6931E+06    -157.672E+03    -162.006E-03     324.741E-03    -162.735E-03     47.4899E-03    -162.290E-03     324.666E-03    -162.475E-03     46.5650E-03
             570     9.94646E-03     95.7497E-03    -37.6243E+06    -9.86245E+06     38.8371E+06    -2.38016E+06    -161.371E-03     324.011E-03    -162.639E-03     49.8217E-03    -161.682E-03     324.041E-03    -162.376E-03     48.6461E-03
             571     10.7126E-03     95.8164E-03    -30.2077E+06     21.3585E+06     48.3314E+06    -2.64739E+06    -161.850E-03     324.388E-03    -162.538E-03     50.6620E-03    -162.202E-03     324.568E-03    -162.283E-03     49.2291E-03
             572     11.4789E-03     95.8782E-03    -21.8483E+06     58.0123E+06     62.5439E+06     56.1749E+03    -162.300E-03     324.799E-03    -162.499E-03     49.5506E-03    -162.706E-03     325.152E-03    -162.238E-03     47.8218E-03
             573     12.2447E-03     95.9409E-03    -15.6896E+06     80.1309E+06     73.0799E+06     3.49429E+06    -163.004E-03     325.516E-03    -162.512E-03     48.6541E-03    -163.447E-03     325.976E-03    -162.240E-03     46.6556E-03
             574     13.0067E-03     96.0008E-03    -12.9678E+06     90.7133E+06     80.9789E+06     3.12207E+06    -163.378E-03     325.949E-03    -162.571E-03     47.1916E-03    -163.853E-03     326.465E-03    -162.279E-03     44.8932E-03
             575     13.7722E-03     96.0580E-03    -10.5732E+06     96.7019E+06     89.7895E+06     268.844E+03    -162.628E-03     325.263E-03    -162.635E-03     42.9637E-03    -163.130E-03     325.810E-03    -162.311E-03     40.2496E-03
             576     14.5373E-03     96.1091E-03    -5.65043E+06     95.4852E+06     91.9620E+06    -1.05916E+06    -161.909E-03     324.548E-03    -162.639E-03     32.9608E-03    -162.354E-03     325.045E-03    -162.310E-03     30.2944E-03
             577     765.082E-06     96.6088E-03    -116.984E+06    -228.972E+06    -114.241E+06     167.624E+03    -162.972E-03     326.042E-03    -163.070E-03     5.39152E-03    -163.051E-03     325.236E-03    -163.140E-03     5.42824E-03
             578     1.52949E-03     96.6173E-03    -113.968E+06    -220.236E+06    -104.302E+06    -1.05306E+06    -163.052E-03     326.110E-03    -163.057E-03     9.62694E-03    -163.150E-03     325.324E-03    -163.094E-03     9.67459E-03
             579     2.29214E-03     96.6324E-03    -110.546E+06    -212.466E+06    -92.8043E+06    -1.60703E+06    -162.807E-03     325.874E-03    -163.068E-03     13.9961E-03    -162.916E-03     325.106E-03    -163.063E-03     14.0555E-03
             580     3.05740E-03     96.6545E-03    -101.587E+06    -197.945E+06    -73.7335E+06     1.10621E+06    -162.266E-03     325.273E-03    -163.007E-03     18.3204E-03    -162.380E-03     324.538E-03    -162.942E-03     18.4179E-03
             581     3.82332E-03     96.6817E-03    -92.0008E+06    -173.184E+06    -54.2443E+06     1.88723E+06    -162.086E-03     324.980E-03    -162.894E-03     23.2613E-03    -162.218E-03     324.328E-03    -162.781E-03     23.3646E-03
             582     4.58945E-03     96.7150E-03    -85.5114E+06    -149.904E+06    -40.5874E+06     704.964E+03    -162.195E-03     324.989E-03    -162.794E-03     27.9607E-03    -162.351E-03     324.427E-03    -162.656E-03     27.9945E-03
             583     5.35481E-03     96.7525E-03    -78.2348E+06    -134.565E+06    -26.6444E+06     1.02881E+06    -162.091E-03     324.826E-03    -162.736E-03     31.6217E-03    -162.257E-03     324.315E-03    -162.560E-03     31.5669E-03
             584     6.12076E-03     96.7942E-03    -70.2825E+06    -119.143E+06    -11.7967E+06     1.38096E+06    -162.281E-03     324.980E-03    -162.699E-03     35.6454E-03    -162.458E-03     324.519E-03    -162.484E-03     35.5011E-03
             585     6.88544E-03     96.8423E-03    -62.6696E+06    -97.3332E+06     1.61692E+06     1.87799E+06    -162.645E-03     325.332E-03    -162.687E-03     38.7796E-03    -162.844E-03     324.958E-03    -162.447E-03     38.4538E-03
             586     7.65038E-03     96.8921E-03    -55.4767E+06    -77.8942E+06     12.5860E+06     2.21401E+06    -162.716E-03     325.406E-03    -162.690E-03     41.9593E-03    -162.935E-03     325.115E-03    -162.434E-03     41.4537E-03
             587     8.41591E-03     96.9479E-03    -49.1480E+06    -58.7867E+06     21.5272E+06     1.01896E+06    -162.338E-03     325.007E-03    -162.669E-03     45.1254E-03    -162.577E-03     324.800E-03    -162.404E-03     44.4463E-03
             588     9.18226E-03     97.0031E-03    -42.7484E+06    -29.9678E+06     31.4306E+06     223.853E+03    -162.105E-03     324.718E-03    -162.613E-03     46.6249E-03    -162.384E-03     324.648E-03    -162.351E-03     45.6978E-03
             589     9.94775E-03     97.0619E-03    -38.3929E+06    -3.80604E+06     41.2327E+06    -2.16330E+06    -162.536E-03     325.114E-03    -162.578E-03     49.2984E-03    -162.866E-03     325.175E-03    -162.311E-03     48.0702E-03
             590     10.7125E-03     97.1271E-03    -34.9055E+06     21.5670E+06     48.8351E+06    -4.79645E+06    -162.606E-03     325.165E-03    -162.559E-03     50.3500E-03    -162.986E-03     325.355E-03    -162.295E-03     48.8280E-03
             591     11.4775E-03     97.1898E-03    -29.6491E+06     49.0455E+06     57.9898E+06    -1.88649E+06    -162.596E-03     325.145E-03    -162.549E-03     49.4075E-03    -163.024E-03     325.473E-03    -162.287E-03     47.6185E-03
             592     12.2420E-03     97.2532E-03    -23.0705E+06     76.2966E+06     68.5245E+06     1.51214E+06    -162.765E-03     325.321E-03    -162.555E-03     48.9933E-03    -163.237E-03     325.782E-03    -162.290E-03     46.9387E-03
             593     13.0091E-03     97.3152E-03    -14.6799E+06     94.1796E+06     79.4624E+06     3.74617E+06    -163.052E-03     325.644E-03    -162.591E-03     48.0182E-03    -163.543E-03     326.186E-03    -162.309E-03     45.7068E-03
             594     13.7720E-03     97.3721E-03    -7.62312E+06     100.116E+06     90.5214E+06     2.61319E+06    -163.050E-03     325.709E-03    -162.659E-03     43.8824E-03    -163.547E-03     326.272E-03    -162.340E-03     41.1838E-03
             595     14.5372E-03     97.4201E-03    -3.31273E+06     95.4790E+06     93.1651E+06    -232.975E+03    -162.002E-03     324.684E-03    -162.682E-03     33.4397E-03    -162.441E-03     325.180E-03    -162.350E-03     30.7517E-03
             596     764.154E-06     97.9206E-03    -115.841E+06    -229.416E+06    -116.012E+06     292.533E+03    -162.604E-03     325.454E-03    -162.850E-03     5.54171E-03    -162.675E-03     324.647E-03    -162.929E-03     5.62406E-03
             597     1.52910E-03     97.9302E-03    -113.541E+06    -219.627E+06    -102.813E+06     774.681E+03    -162.515E-03     325.235E-03    -162.720E-03     10.5998E-03    -162.613E-03     324.449E-03    -162.751E-03     10.7065E-03
             598     2.29495E-03     97.9462E-03    -106.927E+06    -208.486E+06    -87.1189E+06    -51.6760E+03    -162.614E-03     325.330E-03    -162.716E-03     16.2100E-03    -162.719E-03     324.568E-03    -162.694E-03     16.3110E-03
             599     3.05930E-03     97.9657E-03    -99.9497E+06    -198.891E+06    -72.9781E+06    -419.227E+03    -162.565E-03     325.298E-03    -162.733E-03     20.5479E-03    -162.671E-03     324.555E-03    -162.665E-03     20.6281E-03
             600     3.82485E-03     97.9922E-03    -91.8477E+06    -175.616E+06    -56.2186E+06     1.51216E+06    -162.333E-03     325.049E-03    -162.716E-03     24.6123E-03    -162.458E-03     324.388E-03    -162.610E-03     24.7233E-03
             601     4.58985E-03     98.0264E-03    -84.4598E+06    -149.829E+06    -38.6969E+06     1.88012E+06    -162.178E-03     324.856E-03    -162.679E-03     28.0164E-03    -162.331E-03     324.290E-03    -162.533E-03     28.0807E-03
             602     5.35549E-03     98.0631E-03    -77.4182E+06    -135.442E+06    -24.1758E+06     490.341E+03    -162.260E-03     324.913E-03    -162.653E-03     31.0786E-03    -162.426E-03     324.393E-03    -162.465E-03     31.0012E-03
             603     6.12054E-03     98.1055E-03    -70.1915E+06    -122.349E+06    -11.9821E+06     1.58145E+06    -162.285E-03     324.917E-03    -162.632E-03     35.1775E-03    -162.455E-03     324.439E-03    -162.413E-03     35.0469E-03
             604     6.88620E-03     98.1542E-03    -62.5725E+06    -100.609E+06     414.270E+03     2.44026E+06    -162.317E-03     324.922E-03    -162.605E-03     38.8936E-03    -162.508E-03     324.533E-03    -162.367E-03     38.6238E-03
             605     7.65147E-03     98.2038E-03    -55.6600E+06     -75.984E+06     11.8665E+06     1.61608E+06    -162.487E-03     325.071E-03    -162.583E-03     41.9851E-03    -162.709E-03     324.791E-03    -162.333E-03     41.4654E-03
             606     8.41711E-03     98.2583E-03    -49.2141E+06    -54.6831E+06     22.9034E+06     1.12012E+06    -162.700E-03     325.285E-03    -162.585E-03     43.8560E-03    -162.948E-03     325.097E-03    -162.320E-03     43.1486E-03
             607     9.18228E-03     98.3141E-03    -44.0872E+06    -31.6200E+06     32.2713E+06     1.35382E+06    -163.184E-03     325.792E-03    -162.608E-03     44.8571E-03    -163.468E-03     325.714E-03    -162.337E-03     43.9202E-03
             608     9.94673E-03     98.3752E-03    -39.8174E+06     2.21194E+06     42.9674E+06     1.35162E+06    -163.270E-03     325.914E-03    -162.644E-03     47.0799E-03    -163.617E-03     326.002E-03    -162.374E-03     45.8796E-03
             609     10.7118E-03     98.4387E-03    -35.6597E+06     24.7658E+06     52.2371E+06    -1.14766E+06    -162.793E-03     325.464E-03    -162.671E-03     48.4052E-03    -163.186E-03     325.667E-03    -162.394E-03     46.8888E-03
             610     11.4771E-03     98.5021E-03    -31.0134E+06     42.6995E+06     57.1105E+06    -2.10109E+06    -162.615E-03     325.273E-03    -162.658E-03     49.0158E-03    -163.040E-03     325.574E-03    -162.390E-03     47.1897E-03
             611     12.2425E-03     98.5661E-03    -24.2615E+06     75.2348E+06     65.8999E+06    -1.17145E+06    -162.504E-03     325.139E-03    -162.635E-03     48.3745E-03    -162.976E-03     325.601E-03    -162.380E-03     46.2663E-03
             612     13.0066E-03     98.6254E-03    -17.2945E+06     92.9825E+06     75.5621E+06    -1.08827E+06    -162.320E-03     324.955E-03    -162.635E-03     47.2451E-03    -162.817E-03     325.502E-03    -162.367E-03     44.8373E-03
             613     13.7733E-03     98.6877E-03    -10.0124E+06     99.1126E+06     87.5290E+06     938.759E+03    -162.337E-03     325.002E-03    -162.665E-03     42.9820E-03    -162.840E-03     325.568E-03    -162.356E-03     40.2261E-03
             614     14.5372E-03     98.7318E-03    -3.94464E+06     96.5970E+06     94.1901E+06     2.01195E+06    -162.166E-03     324.854E-03    -162.688E-03     32.6880E-03    -162.612E-03     325.356E-03    -162.352E-03     29.9927E-03
             615     765.361E-06     99.2321E-03    -118.169E+06    -230.661E+06    -114.518E+06     402.619E+03    -162.404E-03     324.492E-03    -162.088E-03     5.48206E-03    -162.487E-03     323.681E-03    -162.155E-03     5.57232E-03
             616     1.53101E-03     99.2406E-03    -113.859E+06    -222.012E+06    -105.059E+06     561.265E+03    -162.080E-03     324.321E-03    -162.241E-03     9.83847E-03    -162.173E-03     323.527E-03    -162.279E-03     9.97562E-03
             617     2.29641E-03     99.2560E-03    -105.158E+06    -207.185E+06    -86.1857E+06     1.41779E+06    -162.145E-03     324.399E-03    -162.254E-03     14.5394E-03    -162.244E-03     323.639E-03    -162.232E-03     14.6999E-03
             618     3.06206E-03     99.2783E-03    -98.7623E+06    -197.304E+06    -69.4861E+06     153.980E+03    -162.737E-03     325.095E-03    -162.358E-03     18.9858E-03    -162.845E-03     324.353E-03    -162.276E-03     19.0891E-03
             619     3.82540E-03     99.3043E-03    -94.9921E+06    -179.369E+06    -57.5937E+06    -555.710E+03    -162.699E-03     325.168E-03    -162.469E-03     23.4672E-03    -162.833E-03     324.495E-03    -162.359E-03     23.5206E-03
             620     4.59061E-03     99.3373E-03    -85.2514E+06    -151.681E+06    -39.4051E+06     479.759E+03    -162.331E-03     324.850E-03    -162.518E-03     28.2652E-03    -162.485E-03     324.277E-03    -162.372E-03     28.2959E-03
             621     5.35550E-03     99.3747E-03    -76.7043E+06    -135.449E+06    -23.7762E+06     1.25387E+06    -162.662E-03     325.215E-03    -162.553E-03     31.9771E-03    -162.825E-03     324.694E-03    -162.364E-03     31.9062E-03
             622     6.12061E-03     99.4172E-03     -70.695E+06    -123.039E+06    -12.4895E+06     2.16940E+06    -162.571E-03     325.158E-03    -162.587E-03     34.8897E-03    -162.744E-03     324.679E-03    -162.368E-03     34.7224E-03
             623     6.88652E-03     99.4634E-03    -63.5582E+06    -101.356E+06    -113.867E+03     1.77372E+06    -162.166E-03     324.742E-03    -162.576E-03     38.2516E-03    -162.359E-03     324.350E-03    -162.337E-03     37.9678E-03
             624     7.65244E-03     99.5164E-03    -55.8637E+06    -76.8931E+06     11.9031E+06     1.32118E+06    -162.513E-03     325.067E-03    -162.554E-03     41.1655E-03    -162.733E-03     324.781E-03    -162.302E-03     40.6674E-03
             625     8.41681E-03     99.5696E-03    -49.2930E+06    -55.0108E+06     23.1295E+06     2.70831E+06    -163.432E-03     326.025E-03    -162.593E-03     43.8255E-03    -163.680E-03     325.836E-03    -162.326E-03     43.1342E-03
             626     9.18035E-03     99.6290E-03    -45.1537E+06    -32.3193E+06     32.3829E+06     3.41527E+06    -164.033E-03     326.715E-03    -162.682E-03     45.7242E-03    -164.324E-03     326.636E-03    -162.407E-03     44.7903E-03
             627     9.94413E-03     99.6875E-03    -40.2718E+06     1.40234E+06     42.4886E+06     4.18933E+06    -163.655E-03     326.410E-03    -162.755E-03     47.5859E-03    -164.004E-03     326.498E-03    -162.486E-03     46.4084E-03
             628     10.7090E-03     99.7512E-03    -35.0232E+06     29.5609E+06     53.8931E+06     4.68391E+06    -163.128E-03     325.928E-03    -162.800E-03     48.8538E-03    -163.528E-03     326.152E-03    -162.522E-03     47.4137E-03
             629     11.4743E-03     99.8133E-03    -31.5013E+06     48.9689E+06     60.1030E+06     -1.0549E+06    -162.961E-03     325.769E-03    -162.808E-03     48.7293E-03    -163.402E-03     326.098E-03    -162.533E-03     46.9106E-03
             630     12.2397E-03     99.8784E-03    -25.2538E+06     74.5783E+06      63.953E+06    -5.51881E+06    -162.580E-03     325.358E-03    -162.778E-03     47.1437E-03    -163.052E-03     325.820E-03    -162.530E-03     44.9557E-03
             631     13.0057E-03     99.9383E-03    -17.1131E+06     88.8368E+06     74.7000E+06    -2.84745E+06    -161.696E-03     324.460E-03    -162.764E-03     45.8168E-03    -162.178E-03     324.980E-03    -162.495E-03     43.4436E-03
             632     13.7706E-03     99.9972E-03    -11.3731E+06     96.3217E+06     88.0470E+06     370.763E+03    -161.004E-03     323.745E-03    -162.741E-03     42.6086E-03    -161.503E-03     324.291E-03    -162.424E-03     39.9503E-03
             633     14.5380E-03     100.046E-03    -4.69265E+06     97.1688E+06     93.1434E+06     1.05953E+06    -161.456E-03     324.150E-03    -162.693E-03     32.8136E-03    -161.902E-03     324.653E-03    -162.362E-03     30.1631E-03
             634     765.717E-06     100.542E-03    -116.093E+06    -230.851E+06    -114.107E+06    -251.523E+03    -162.060E-03     324.088E-03    -162.028E-03     5.01827E-03    -162.133E-03     323.272E-03    -162.095E-03     5.06088E-03
             635     1.53016E-03     100.551E-03    -113.391E+06    -222.588E+06    -104.429E+06    -383.199E+03    -162.493E-03     324.656E-03    -162.163E-03     8.86430E-03    -162.585E-03     323.859E-03    -162.198E-03     8.95569E-03
             636     2.29518E-03     100.566E-03    -108.823E+06    -211.981E+06    -90.1986E+06     253.953E+03    -162.357E-03     324.674E-03    -162.317E-03     13.6038E-03    -162.463E-03     323.902E-03    -162.303E-03     13.7211E-03
             637     3.06003E-03     100.589E-03    -100.967E+06    -198.909E+06    -71.1791E+06     651.458E+03    -162.233E-03     324.620E-03    -162.386E-03     18.4148E-03    -162.347E-03     323.875E-03    -162.307E-03     18.5418E-03
             638     3.82608E-03     100.617E-03    -93.4996E+06    -176.777E+06    -54.9505E+06    -269.498E+03    -162.233E-03     324.637E-03    -162.404E-03     22.3700E-03    -162.367E-03     323.971E-03    -162.287E-03     22.4371E-03
             639     4.59166E-03     100.646E-03    -86.0189E+06    -151.928E+06    -40.0801E+06     536.421E+03    -162.288E-03     324.701E-03    -162.413E-03     27.5075E-03    -162.445E-03     324.130E-03    -162.269E-03     27.5384E-03
             640     5.35720E-03     100.688E-03    -78.3441E+06    -137.817E+06    -25.3659E+06     1.52211E+06    -162.530E-03     324.982E-03    -162.452E-03     31.9590E-03    -162.695E-03     324.453E-03    -162.265E-03     31.9027E-03
             641     6.12133E-03     100.729E-03    -70.3630E+06    -122.389E+06    -12.0298E+06     1.53902E+06    -162.870E-03     325.380E-03    -162.510E-03     35.0274E-03    -163.044E-03     324.905E-03    -162.290E-03     34.8078E-03
             642     6.88570E-03     100.775E-03    -62.9184E+06    -99.7330E+06     1.24325E+06     1.34579E+06    -162.981E-03     325.552E-03    -162.571E-03     38.5238E-03    -163.178E-03     325.168E-03    -162.329E-03     38.1747E-03
             643     7.65085E-03     100.826E-03    -57.0537E+06    -78.7221E+06     12.2399E+06     1.75250E+06    -163.011E-03     325.630E-03    -162.619E-03     41.2181E-03    -163.235E-03     325.337E-03    -162.361E-03     40.7212E-03
             644     8.41649E-03     100.883E-03    -51.1555E+06    -58.5717E+06     21.2815E+06     2.95234E+06    -163.107E-03     325.761E-03    -162.654E-03     44.1013E-03    -163.356E-03     325.559E-03    -162.389E-03     43.4276E-03
             645     9.18116E-03     100.943E-03    -43.2641E+06    -33.7500E+06     32.0746E+06     3.69752E+06    -163.262E-03     325.952E-03    -162.689E-03     47.1629E-03    -163.542E-03     325.865E-03    -162.417E-03     46.2516E-03
             646     9.94558E-03     101.002E-03    -35.3727E+06    -3.09343E+06     43.0017E+06     5.80482E+06    -163.588E-03     326.315E-03    -162.727E-03     49.7526E-03    -163.908E-03     326.374E-03    -162.456E-03     48.5992E-03
             647     10.7100E-03     101.064E-03    -30.4159E+06     30.7163E+06     53.0370E+06     7.76609E+06    -163.821E-03     326.594E-03    -162.773E-03     51.7074E-03    -164.202E-03     326.822E-03    -162.508E-03     50.3087E-03
             648     11.4735E-03     101.128E-03    -26.3733E+06     64.4739E+06     65.3115E+06     3.70282E+06    -163.554E-03     326.380E-03    -162.826E-03     52.0118E-03    -164.004E-03     326.775E-03    -162.555E-03     50.2741E-03
             649     12.2372E-03     101.191E-03    -23.3074E+06     80.2331E+06     70.9942E+06    -3.78479E+06    -162.911E-03     325.756E-03    -162.845E-03     50.7818E-03    -163.401E-03     326.242E-03    -162.573E-03     48.6025E-03
             650     13.0024E-03     101.249E-03    -19.1098E+06     82.3826E+06     72.7693E+06    -4.61015E+06    -162.214E-03     325.042E-03    -162.827E-03     47.7796E-03    -162.698E-03     325.539E-03    -162.555E-03     45.3776E-03
             651     13.7707E-03     101.306E-03    -11.3883E+06     93.9494E+06     84.8099E+06    -967.471E+03    -160.927E-03     323.724E-03    -162.796E-03     42.3725E-03    -161.417E-03     324.260E-03    -162.492E-03     39.7068E-03
             652     14.5370E-03     101.356E-03    -4.26910E+06     96.6546E+06     93.2024E+06    -640.005E+03    -160.580E-03     323.313E-03    -162.733E-03     33.3641E-03    -161.022E-03     323.813E-03    -162.401E-03     30.7262E-03
             653     765.138E-06     101.853E-03    -115.727E+06    -231.564E+06    -114.258E+06     667.856E+03    -162.069E-03     324.783E-03    -162.713E-03     5.34879E-03    -162.141E-03     323.963E-03    -162.781E-03     5.39517E-03
             654     1.53051E-03     101.863E-03    -113.625E+06    -222.476E+06    -103.386E+06     842.330E+03    -162.428E-03     324.862E-03    -162.433E-03     8.99085E-03    -162.523E-03     324.063E-03    -162.463E-03     9.09502E-03
             655     2.29496E-03     101.878E-03    -109.425E+06    -213.455E+06    -89.9005E+06     484.901E+03    -162.391E-03     324.873E-03    -162.482E-03     14.0844E-03    -162.498E-03     324.095E-03    -162.463E-03     14.1824E-03
             656     3.06049E-03     101.899E-03    -101.188E+06    -200.048E+06    -72.2983E+06     829.571E+03    -162.064E-03     324.551E-03    -162.487E-03     18.6619E-03    -162.176E-03     323.803E-03    -162.412E-03     18.7458E-03
             657     3.82596E-03     101.926E-03    -92.0031E+06    -174.924E+06    -53.3994E+06     1.04652E+06    -161.997E-03     324.446E-03    -162.448E-03     22.3324E-03    -162.129E-03     323.785E-03    -162.328E-03     22.3925E-03
             658     4.59070E-03     101.959E-03    -86.5125E+06    -152.896E+06    -39.3688E+06     869.198E+03    -162.314E-03     324.749E-03    -162.434E-03     27.2248E-03    -162.474E-03     324.172E-03    -162.284E-03     27.2371E-03
             659     5.35574E-03     101.997E-03    -79.6245E+06    -139.713E+06    -25.6485E+06     1.11286E+06    -162.310E-03     324.768E-03    -162.458E-03     31.2841E-03    -162.479E-03     324.233E-03    -162.268E-03     31.2133E-03
             660     6.12250E-03     102.041E-03    -72.0947E+06    -122.770E+06    -12.7849E+06     894.901E+03    -162.592E-03     325.074E-03    -162.482E-03     34.6461E-03    -162.772E-03     324.600E-03    -162.264E-03     34.4541E-03
             661     6.88716E-03     102.088E-03    -64.2218E+06    -100.827E+06     8.90831E+03     1.69025E+06    -163.404E-03     325.955E-03    -162.551E-03     38.7383E-03    -163.604E-03     325.569E-03    -162.312E-03     38.4157E-03
             662     7.65077E-03     102.139E-03    -56.7559E+06    -79.0268E+06     12.2846E+06     2.53091E+06    -163.676E-03     326.333E-03    -162.657E-03     41.9898E-03    -163.899E-03     326.038E-03    -162.399E-03     41.4937E-03
             663     8.41450E-03     102.195E-03    -50.0394E+06    -59.6133E+06     21.5916E+06     2.09107E+06    -162.788E-03     325.494E-03    -162.706E-03     44.0635E-03    -163.032E-03     325.286E-03    -162.439E-03     43.3623E-03
             664     9.18122E-03     102.253E-03    -41.4412E+06    -34.2396E+06     32.2423E+06     1.39149E+06    -162.201E-03     324.879E-03    -162.678E-03     47.0390E-03    -162.469E-03     324.785E-03    -162.407E-03     46.1255E-03
             665     9.94742E-03     102.316E-03    -32.4565E+06    -8.20382E+06     42.8025E+06     1.55056E+06    -162.868E-03     325.517E-03    -162.649E-03     49.5758E-03    -163.163E-03     325.543E-03    -162.376E-03     48.4107E-03
             666     10.7116E-03     102.377E-03    -22.2082E+06     27.8244E+06     55.2561E+06     3.25233E+06    -163.327E-03     325.982E-03    -162.656E-03     51.8849E-03    -163.665E-03     326.180E-03    -162.388E-03     50.4467E-03
             667     11.4765E-03     102.443E-03    -12.5889E+06     69.2247E+06     71.3621E+06     5.72759E+06    -162.952E-03     325.629E-03    -162.676E-03     52.8464E-03    -163.349E-03     326.019E-03    -162.402E-03     51.1501E-03
             668     12.2428E-03     102.503E-03    -8.39984E+06     88.8971E+06     83.6183E+06     6.10174E+06    -162.690E-03     325.389E-03    -162.698E-03     52.6351E-03    -163.135E-03     325.876E-03    -162.397E-03     50.6602E-03
             669     13.0071E-03     102.565E-03    -12.6041E+06     85.3491E+06     82.1020E+06     970.452E+03    -163.159E-03     325.867E-03    -162.708E-03     51.4614E-03    -163.638E-03     326.367E-03    -162.403E-03     49.1094E-03
             670     13.7682E-03     102.618E-03    -12.5928E+06     90.0828E+06     83.4380E+06    -4.15697E+06    -162.743E-03     325.467E-03    -162.725E-03     45.0954E-03    -163.241E-03     325.998E-03    -162.420E-03     42.1118E-03
             671     14.5358E-03     102.664E-03    -3.41263E+06     96.8687E+06     92.6373E+06    -1.09588E+06    -161.464E-03     324.193E-03    -162.729E-03     35.6288E-03    -161.886E-03     324.675E-03    -162.401E-03     32.7279E-03
             672     764.240E-06     103.164E-03    -118.393E+06    -234.344E+06    -116.223E+06     1.13177E+06    -162.552E-03     325.198E-03    -162.645E-03     6.24804E-03    -162.630E-03     324.371E-03    -162.715E-03     6.27791E-03
             673     1.52918E-03     103.174E-03    -114.393E+06    -223.878E+06    -104.482E+06     1.74457E+06    -162.437E-03     325.038E-03    -162.600E-03     9.32815E-03    -162.533E-03     324.235E-03    -162.632E-03     9.42496E-03
             674     2.29531E-03     103.189E-03    -108.735E+06    -213.016E+06    -88.8075E+06     1.86464E+06    -162.371E-03     324.965E-03    -162.594E-03     13.6378E-03    -162.477E-03     324.187E-03    -162.572E-03     13.7464E-03
             675     3.05994E-03     103.211E-03    -103.333E+06    -200.332E+06    -73.7404E+06     1.04075E+06    -162.146E-03     324.719E-03    -162.573E-03     17.7770E-03    -162.267E-03     323.975E-03    -162.501E-03     17.8427E-03
             676     3.82526E-03     103.236E-03    -95.1804E+06    -177.301E+06    -56.2726E+06     1.12459E+06    -162.014E-03     324.541E-03    -162.527E-03     22.4304E-03    -162.154E-03     323.877E-03    -162.413E-03     22.4660E-03
             677     4.59136E-03     103.270E-03    -86.2922E+06    -153.489E+06    -38.4008E+06     1.36928E+06    -162.298E-03     324.809E-03    -162.511E-03     27.4121E-03    -162.457E-03     324.229E-03    -162.355E-03     27.4205E-03
             678     5.35649E-03     103.309E-03     -78.657E+06    -138.107E+06    -24.1525E+06     766.728E+03    -162.622E-03     325.164E-03    -162.542E-03     30.9938E-03    -162.790E-03     324.633E-03    -162.349E-03     30.9147E-03
             679     6.12046E-03     103.351E-03    -70.7162E+06    -123.632E+06    -11.4531E+06     657.755E+03    -162.806E-03     325.399E-03    -162.593E-03     34.1300E-03    -162.979E-03     324.915E-03    -162.368E-03     33.9623E-03
             680     6.88620E-03     103.400E-03    -63.0749E+06    -103.247E+06     148.482E+03     1.45195E+06    -162.926E-03     325.561E-03    -162.635E-03     37.8754E-03    -163.114E-03     325.159E-03    -162.393E-03     37.6033E-03
             681     7.65098E-03     103.454E-03    -55.0631E+06    -80.2223E+06     11.6336E+06     1.39749E+06    -162.895E-03     325.559E-03    -162.664E-03     41.6813E-03    -163.105E-03     325.255E-03    -162.410E-03     41.1955E-03
             682     8.41602E-03     103.507E-03    -47.1263E+06    -58.6649E+06     23.1853E+06     841.880E+03    -162.727E-03     325.405E-03    -162.678E-03     44.3195E-03    -162.961E-03     325.196E-03    -162.409E-03     43.5718E-03
             683     9.18071E-03     103.563E-03    -40.0127E+06    -32.8895E+06     34.1860E+06     461.639E+03    -162.588E-03     325.254E-03    -162.667E-03     47.6882E-03    -162.854E-03     325.163E-03    -162.390E-03     46.7601E-03
             684     9.94603E-03     103.627E-03    -34.4991E+06    -5.63645E+06     44.5241E+06    -2.04719E+06    -162.421E-03     325.061E-03    -162.640E-03     49.7259E-03    -162.730E-03     325.099E-03    -162.359E-03     48.5556E-03
             685     10.7123E-03     103.689E-03    -28.7749E+06     23.6788E+06     53.9280E+06    -3.55533E+06    -162.159E-03     324.753E-03    -162.594E-03     50.8011E-03    -162.518E-03     324.937E-03    -162.317E-03     49.3150E-03
             686     11.4784E-03     103.754E-03    -21.4644E+06     57.7955E+06     65.2027E+06     2.68400E+06    -162.251E-03     324.802E-03    -162.551E-03     51.1298E-03    -162.664E-03     325.155E-03    -162.277E-03     49.3916E-03
             687     12.2433E-03     103.815E-03    -16.6619E+06     85.8105E+06     77.5500E+06     9.91606E+06    -162.341E-03     324.883E-03    -162.541E-03     49.4620E-03    -162.807E-03     325.369E-03    -162.254E-03     47.5342E-03
             688     13.0102E-03     103.877E-03    -10.0846E+06     98.7408E+06     89.0873E+06     7.67575E+06    -162.052E-03     324.601E-03    -162.549E-03     48.7629E-03    -162.540E-03     325.145E-03    -162.232E-03     46.5426E-03
             689     13.7773E-03     103.935E-03    -8.22812E+06     95.5125E+06     92.7718E+06     2.66507E+06    -163.514E-03     326.099E-03    -162.585E-03     45.2415E-03    -163.932E-03     326.550E-03    -162.248E-03     42.3938E-03
             690     14.5375E-03     103.976E-03    -9.89932E+06     92.3464E+06     88.3039E+06     304.875E+03    -164.611E-03     327.267E-03    -162.656E-03     34.8638E-03    -164.891E-03     327.557E-03    -162.334E-03     31.9483E-03
             691     765.767E-06     104.477E-03    -119.649E+06    -236.377E+06    -116.550E+06     399.141E+03    -162.325E-03     324.684E-03    -162.359E-03     6.03916E-03    -162.405E-03     323.850E-03    -162.426E-03     6.05842E-03
             692     1.53040E-03     104.485E-03    -115.807E+06    -225.884E+06    -106.310E+06     697.732E+03    -162.607E-03     325.030E-03    -162.423E-03     10.4247E-03    -162.703E-03     324.222E-03    -162.459E-03     10.4634E-03
             693     2.29393E-03     104.501E-03    -109.010E+06    -213.204E+06    -89.7839E+06      906.65E+03    -162.691E-03     325.249E-03    -162.558E-03     14.5865E-03    -162.796E-03     324.471E-03    -162.540E-03     14.6540E-03
             694     3.05959E-03     104.521E-03    -102.776E+06    -199.886E+06    -73.1646E+06     445.763E+03    -162.493E-03     325.128E-03    -162.635E-03     18.0613E-03    -162.612E-03     324.385E-03    -162.562E-03     18.1222E-03
             695     3.82526E-03     104.547E-03    -95.5332E+06    -178.490E+06    -56.6880E+06     425.407E+03    -162.594E-03     325.261E-03    -162.667E-03     22.1939E-03    -162.733E-03     324.592E-03    -162.553E-03     22.2450E-03
             696     4.58988E-03     104.581E-03    -85.8713E+06    -153.697E+06    -38.7010E+06     563.976E+03    -162.552E-03     325.252E-03    -162.701E-03     26.2211E-03    -162.707E-03     324.670E-03    -162.547E-03     26.2559E-03
             697     5.35505E-03     104.620E-03    -78.0749E+06    -136.828E+06    -23.6466E+06     202.346E+03    -162.678E-03     325.410E-03    -162.732E-03     30.2594E-03    -162.845E-03     324.883E-03    -162.538E-03     30.2114E-03
             698     6.12031E-03     104.664E-03    -69.5559E+06    -124.637E+06    -10.5799E+06    -32.8315E+03    -163.057E-03     325.839E-03    -162.782E-03     34.1138E-03    -163.224E-03     325.348E-03    -162.553E-03     33.9229E-03
             699     6.88390E-03     104.712E-03    -61.0831E+06    -103.978E+06     1.57614E+06     433.713E+03    -162.457E-03     325.252E-03    -162.795E-03     37.5186E-03    -162.637E-03     324.841E-03    -162.547E-03     37.1983E-03
             700     7.65043E-03     104.764E-03    -53.7597E+06    -79.7908E+06     12.7642E+06     122.378E+03    -161.631E-03     324.353E-03    -162.722E-03     40.9841E-03    -161.836E-03     324.047E-03    -162.464E-03     40.5024E-03
             701     8.41703E-03     104.819E-03    -46.9563E+06    -58.7173E+06     23.6011E+06    -537.118E+03    -162.231E-03     324.880E-03    -162.649E-03     44.0683E-03    -162.464E-03     324.669E-03    -162.377E-03     43.3297E-03
             702     9.18193E-03     104.876E-03    -40.5189E+06    -33.9772E+06     34.6901E+06     707.889E+03    -163.058E-03     325.699E-03    -162.641E-03     47.3458E-03    -163.326E-03     325.602E-03    -162.359E-03     46.4209E-03
             703     9.94680E-03     104.938E-03    -36.1881E+06    -1.35604E+06     45.8685E+06     1.53048E+06    -162.742E-03     325.389E-03    -162.647E-03     49.1602E-03    -163.068E-03     325.449E-03    -162.363E-03     48.0206E-03
             704     10.7122E-03     105.001E-03    -35.2375E+06     23.5685E+06     53.4861E+06     1.10578E+06    -162.228E-03     324.852E-03    -162.624E-03     49.2477E-03    -162.619E-03     325.046E-03    -162.340E-03     47.7931E-03
             705     11.4783E-03     105.064E-03    -33.4823E+06     44.7224E+06     58.0902E+06     2.88808E+06    -162.171E-03     324.749E-03    -162.578E-03     49.4433E-03    -162.613E-03     325.062E-03    -162.304E-03     47.6953E-03
             706     12.2435E-03     105.129E-03    -26.2854E+06     81.1988E+06     67.3947E+06     5.49202E+06    -162.404E-03     324.945E-03    -162.540E-03     47.9240E-03    -162.896E-03     325.436E-03    -162.283E-03     45.9054E-03
             707     13.0073E-03     105.185E-03    -15.0310E+06     104.232E+06     80.4307E+06     5.81277E+06    -162.386E-03     324.937E-03    -162.551E-03     44.8054E-03    -162.887E-03     325.521E-03    -162.278E-03     42.5095E-03
             708     13.7747E-03     105.244E-03    -10.3485E+06     101.760E+06     89.7271E+06     3.71950E+06    -163.142E-03     325.755E-03    -162.613E-03     41.0325E-03    -163.551E-03     326.222E-03    -162.297E-03     38.4639E-03
             709     14.5392E-03     105.301E-03    -15.7459E+06     94.2994E+06     85.9801E+06     1.15411E+06    -164.294E-03     326.978E-03    -162.684E-03     30.7130E-03    -164.582E-03     327.268E-03    -162.368E-03     28.2972E-03
             710     764.577E-06     105.784E-03    -119.102E+06    -237.785E+06    -116.336E+06     744.003E+03    -162.130E-03     324.594E-03    -162.464E-03     5.28826E-03    -162.206E-03     323.751E-03    -162.528E-03     5.32750E-03
             711     1.53068E-03     105.797E-03    -116.051E+06    -226.422E+06    -106.568E+06     722.465E+03    -162.471E-03     324.830E-03    -162.359E-03     9.93706E-03    -162.568E-03     324.020E-03    -162.395E-03     9.99738E-03
             712     2.29631E-03     105.812E-03    -110.214E+06    -212.992E+06    -90.2568E+06    -37.1618E+03    -162.694E-03     325.184E-03    -162.490E-03     13.8274E-03    -162.805E-03     324.410E-03    -162.473E-03     13.9181E-03
             713     3.06031E-03     105.833E-03    -101.107E+06    -199.386E+06    -71.0029E+06    -534.386E+03    -163.080E-03     325.739E-03    -162.659E-03     18.0886E-03    -163.194E-03     324.993E-03    -162.579E-03     18.1714E-03
             714     3.82384E-03     105.860E-03    -93.4712E+06    -177.766E+06    -54.8774E+06    -169.126E+03    -163.342E-03     326.160E-03    -162.818E-03     22.6957E-03    -163.474E-03     325.489E-03    -162.700E-03     22.7601E-03
             715     4.58810E-03     105.894E-03    -86.2130E+06    -152.951E+06    -39.4163E+06    -357.624E+03    -163.066E-03     325.990E-03    -162.924E-03     26.6210E-03    -163.223E-03     325.413E-03    -162.775E-03     26.6400E-03
             716     5.35338E-03     105.931E-03    -77.9888E+06    -136.021E+06    -24.1253E+06    -494.768E+03    -162.612E-03     325.569E-03    -162.957E-03     30.8721E-03    -162.779E-03     325.047E-03    -162.768E-03     30.8159E-03
             717     6.11813E-03     105.978E-03    -70.8990E+06    -124.210E+06    -11.4289E+06    -140.706E+03    -162.312E-03     325.242E-03    -162.930E-03     34.9438E-03    -162.486E-03     324.756E-03    -162.704E-03     34.7499E-03
             718     6.88415E-03     106.023E-03    -63.6675E+06    -104.714E+06     796.725E+03    -694.795E+03    -162.250E-03     325.123E-03    -162.873E-03     37.9358E-03    -162.442E-03     324.715E-03    -162.625E-03     37.5710E-03
             719     7.64965E-03     106.073E-03    -56.2720E+06    -80.3863E+06     12.1366E+06    -719.150E+03    -162.052E-03     324.856E-03    -162.804E-03     40.4803E-03    -162.269E-03     324.552E-03    -162.545E-03     39.9713E-03
             720     8.41582E-03     106.128E-03    -49.4442E+06    -59.0303E+06     22.5646E+06    -84.5020E+03    -162.180E-03     324.921E-03    -162.741E-03     43.5157E-03    -162.421E-03     324.712E-03    -162.471E-03     42.8140E-03
             721     9.18134E-03     106.190E-03    -43.8114E+06    -36.5490E+06     32.3421E+06     1.04069E+06    -162.808E-03     325.522E-03    -162.714E-03     45.8397E-03    -163.084E-03     325.419E-03    -162.436E-03     44.9140E-03
             722     9.94603E-03     106.250E-03    -37.6901E+06    -4.70545E+06     42.7673E+06     3.60417E+06    -163.080E-03     325.796E-03    -162.717E-03     47.2483E-03    -163.405E-03     325.847E-03    -162.441E-03     46.0906E-03
             723     10.7109E-03     106.313E-03    -31.2662E+06     20.6506E+06     52.6487E+06     7.67014E+06    -162.976E-03     325.708E-03    -162.732E-03     47.9275E-03    -163.342E-03     325.884E-03    -162.454E-03     46.5041E-03
             724     11.4751E-03     106.375E-03    -26.1097E+06     45.3030E+06     60.1725E+06     6.00653E+06    -162.413E-03     325.131E-03    -162.718E-03     48.1160E-03    -162.823E-03     325.434E-03    -162.445E-03     46.3629E-03
             725     12.2417E-03     106.440E-03    -19.9139E+06     83.3165E+06     68.2031E+06     986.626E+03    -162.395E-03     325.067E-03    -162.672E-03     47.5543E-03    -162.860E-03     325.559E-03    -162.423E-03     45.4633E-03
             726     13.0075E-03     106.501E-03    -16.5559E+06     100.814E+06     77.3004E+06     1.34320E+06    -163.609E-03     326.317E-03    -162.708E-03     45.4573E-03    -164.105E-03     326.887E-03    -162.443E-03     43.1078E-03
             727     13.7670E-03     106.558E-03    -11.3658E+06     102.223E+06     87.3901E+06     4.27786E+06    -162.931E-03     325.720E-03    -162.788E-03     42.6358E-03    -163.417E-03     326.274E-03    -162.483E-03     40.1237E-03
             728     14.5333E-03     106.611E-03    -5.40868E+06     99.4584E+06     91.8792E+06     3.73695E+06    -161.082E-03     323.864E-03    -162.782E-03     32.6114E-03    -161.495E-03     324.341E-03    -162.459E-03     30.3001E-03
             729     765.603E-06     107.097E-03    -121.489E+06    -238.952E+06    -119.851E+06    -139.541E+03    -162.598E-03     325.433E-03    -162.835E-03     5.00398E-03    -162.679E-03     324.593E-03    -162.912E-03     5.07521E-03
             730     1.52917E-03     107.107E-03    -117.348E+06    -227.104E+06    -108.215E+06     433.176E+03    -162.566E-03     325.283E-03    -162.717E-03     9.41378E-03    -162.666E-03     324.474E-03    -162.758E-03     9.52527E-03
             731     2.29391E-03     107.124E-03    -111.219E+06    -211.967E+06    -91.6946E+06     365.384E+03    -162.567E-03     325.288E-03    -162.722E-03     13.3194E-03    -162.682E-03     324.522E-03    -162.711E-03     13.4432E-03
             732     3.05938E-03     107.145E-03    -102.818E+06    -198.547E+06    -72.2202E+06    -349.134E+03    -162.916E-03     325.712E-03    -162.796E-03     18.1437E-03    -163.038E-03     324.974E-03    -162.720E-03     18.2561E-03
             733     3.82411E-03     107.174E-03    -94.6782E+06    -177.747E+06    -55.5060E+06    -993.342E+03    -163.014E-03     325.896E-03    -162.881E-03     23.2975E-03    -163.152E-03     325.227E-03    -162.764E-03     23.3649E-03
             734     4.58881E-03     107.206E-03    -87.9621E+06    -153.305E+06    -40.9165E+06    -230.131E+03    -163.051E-03     325.991E-03    -162.940E-03     28.0844E-03    -163.214E-03     325.416E-03    -162.795E-03     28.0955E-03
             735     5.35247E-03     107.245E-03    -79.8295E+06    -136.050E+06    -25.2496E+06    -208.659E+03    -162.733E-03     325.709E-03    -162.975E-03     32.2591E-03    -162.909E-03     325.191E-03    -162.788E-03     32.1661E-03
             736     6.11880E-03     107.286E-03    -72.1440E+06    -123.859E+06    -12.2697E+06    -697.448E+03    -162.330E-03     325.282E-03    -162.952E-03     35.7378E-03    -162.510E-03     324.802E-03    -162.729E-03     35.5251E-03
             737     6.88492E-03     107.336E-03    -65.1096E+06    -104.682E+06    -585.577E+03    -1.09763E+06    -162.677E-03     325.591E-03    -162.914E-03     37.7429E-03    -162.875E-03     325.188E-03    -162.671E-03     37.3726E-03
             738     7.64918E-03     107.386E-03    -58.2863E+06    -81.1507E+06     10.4316E+06    -678.624E+03    -163.061E-03     325.975E-03    -162.913E-03     39.6236E-03    -163.286E-03     325.674E-03    -162.659E-03     39.0676E-03
             739     8.41345E-03     107.440E-03    -52.1966E+06    -60.6412E+06     19.7309E+06     831.776E+03    -163.005E-03     325.928E-03    -162.923E-03     43.1815E-03    -163.254E-03     325.719E-03    -162.661E-03     42.4795E-03
             740     9.17889E-03     107.501E-03    -45.8028E+06    -37.9419E+06     29.3225E+06     1.38971E+06    -162.804E-03     325.720E-03    -162.916E-03     45.1344E-03    -163.083E-03     325.616E-03    -162.648E-03     44.2137E-03
             741     9.94419E-03     107.563E-03    -39.1073E+06     -9.7791E+06     38.6026E+06     2.15757E+06    -162.742E-03     325.632E-03    -162.890E-03     46.5381E-03    -163.060E-03     325.664E-03    -162.626E-03     45.3631E-03
             742     10.7088E-03     107.626E-03    -30.7795E+06     14.8405E+06     47.7947E+06     3.55992E+06    -162.866E-03     325.736E-03    -162.871E-03     48.1381E-03    -163.213E-03     325.889E-03    -162.609E-03     46.6824E-03
             743     11.4743E-03     107.688E-03    -22.0121E+06     48.9993E+06     61.5300E+06     5.70201E+06    -162.885E-03     325.753E-03    -162.868E-03     48.2947E-03    -163.280E-03     326.066E-03    -162.600E-03     46.5622E-03
             744     12.2386E-03     107.750E-03    -18.1864E+06     86.6408E+06     73.3694E+06     5.70567E+06    -162.537E-03     325.391E-03    -162.853E-03     48.4393E-03    -163.005E-03     325.889E-03    -162.586E-03     46.4382E-03
             745     13.0028E-03     107.815E-03    -15.6989E+06     100.334E+06     81.9395E+06     3.89010E+06    -162.104E-03     324.945E-03    -162.842E-03     48.0504E-03    -162.606E-03     325.510E-03    -162.555E-03     45.7845E-03
             746     13.7711E-03     107.874E-03    -9.36804E+06     100.059E+06     90.2924E+06     4.96813E+06    -161.471E-03     324.293E-03    -162.822E-03     44.5728E-03    -161.974E-03     324.856E-03    -162.502E-03     41.9383E-03
             747     14.5372E-03     107.917E-03     110.409E+03     101.070E+06     95.7226E+06     3.41765E+06    -160.356E-03     323.105E-03    -162.749E-03     34.7310E-03    -160.791E-03     323.621E-03    -162.417E-03     32.1204E-03
             748     763.456E-06     108.409E-03    -120.689E+06    -237.874E+06    -117.623E+06    -1.22074E+06    -162.583E-03     325.429E-03    -162.845E-03     6.34768E-03    -162.665E-03     324.590E-03    -162.914E-03     6.37621E-03
             749     1.52926E-03     108.420E-03    -116.511E+06    -228.042E+06    -108.151E+06    -582.972E+03    -162.727E-03     325.466E-03    -162.739E-03     10.9938E-03    -162.821E-03     324.651E-03    -162.781E-03     11.0656E-03
             750     2.29442E-03     108.435E-03    -110.841E+06    -210.828E+06    -94.1168E+06    -435.695E+03    -163.023E-03     325.836E-03    -162.814E-03     15.2140E-03    -163.134E-03     325.079E-03    -162.818E-03     15.3012E-03
             751     3.05861E-03     108.458E-03    -104.113E+06    -198.401E+06    -75.4119E+06    -355.600E+03    -162.937E-03     325.864E-03    -162.927E-03     18.5757E-03    -163.061E-03     325.133E-03    -162.865E-03     18.6669E-03
             752     3.82405E-03     108.485E-03    -96.9640E+06    -178.095E+06    -57.2926E+06    -685.452E+03    -162.440E-03     325.384E-03    -162.944E-03     22.5496E-03    -162.586E-03     324.720E-03    -162.831E-03     22.6030E-03
             753     4.58927E-03     108.519E-03    -90.0324E+06    -154.423E+06    -42.0488E+06    -678.909E+03    -162.334E-03     325.224E-03    -162.890E-03     27.5953E-03    -162.505E-03     324.649E-03    -162.746E-03     27.5961E-03
             754     5.35525E-03     108.557E-03    -81.7696E+06    -136.341E+06    -27.0803E+06    -370.684E+03    -162.836E-03     325.718E-03    -162.881E-03     31.5854E-03    -163.019E-03     325.204E-03    -162.700E-03     31.4964E-03
             755     6.11914E-03     108.599E-03    -73.1238E+06    -122.789E+06    -13.7972E+06    -951.339E+03    -163.307E-03     326.241E-03    -162.934E-03     35.1424E-03    -163.492E-03     325.770E-03    -162.719E-03     34.9286E-03
             756     6.88239E-03     108.648E-03    -66.2230E+06    -104.425E+06    -2.57018E+06     -707.33E+03    -163.281E-03     326.268E-03    -162.987E-03     38.0001E-03    -163.482E-03     325.871E-03    -162.753E-03     37.6298E-03
             757     7.64771E-03     108.698E-03    -59.5016E+06    -81.8218E+06     8.42502E+06    -77.9438E+03    -163.598E-03     326.634E-03    -163.036E-03     40.4203E-03    -163.826E-03     326.335E-03    -162.789E-03     39.8660E-03
             758     8.41229E-03     108.754E-03    -52.3398E+06    -62.0585E+06     18.1741E+06     23.8776E+03    -163.788E-03     326.881E-03    -163.094E-03     43.5292E-03    -164.034E-03     326.668E-03    -162.837E-03     42.8092E-03
             759     9.17604E-03     108.813E-03    -45.3466E+06    -39.5377E+06     27.9054E+06     731.067E+03    -163.050E-03     326.165E-03    -163.114E-03     45.7109E-03    -163.323E-03     326.055E-03    -162.852E-03     44.7909E-03
             760     9.94138E-03     108.874E-03    -38.6509E+06    -9.84659E+06     38.7761E+06     819.636E+03    -162.413E-03     325.486E-03    -163.073E-03     47.4147E-03    -162.728E-03     325.517E-03    -162.809E-03     46.2445E-03
             761     10.7079E-03     108.938E-03    -32.6952E+06     12.6410E+06     48.1673E+06     365.545E+03    -162.453E-03     325.474E-03    -163.020E-03     48.7397E-03    -162.806E-03     325.616E-03    -162.751E-03     47.2821E-03
             762     11.4726E-03     109.002E-03    -27.3014E+06     40.5322E+06     58.1028E+06     3.69850E+06    -162.580E-03     325.558E-03    -162.978E-03     49.0888E-03    -162.979E-03     325.836E-03    -162.707E-03     47.4155E-03
             763     12.2374E-03     109.064E-03    -20.5532E+06     84.3949E+06     70.9145E+06     9.39278E+06    -161.722E-03     324.633E-03    -162.911E-03     49.6425E-03    -162.191E-03     325.124E-03    -162.649E-03     47.7779E-03
             764     13.0048E-03     109.125E-03    -13.2944E+06     102.841E+06     83.0731E+06     9.80826E+06    -160.387E-03     323.210E-03    -162.823E-03     49.6143E-03    -160.887E-03     323.787E-03    -162.538E-03     47.4644E-03
             765     13.7711E-03     109.182E-03    -7.32226E+06     101.770E+06     92.4032E+06     3.48962E+06    -160.153E-03     322.878E-03    -162.724E-03     45.2236E-03    -160.659E-03     323.450E-03    -162.399E-03     42.5584E-03
             766     14.5374E-03     109.230E-03     858.043E+03     106.490E+06     97.4351E+06     767.230E+03    -160.605E-03     323.227E-03    -162.622E-03     34.5542E-03    -161.049E-03     323.770E-03    -162.290E-03     31.8892E-03
             767     766.531E-06     109.721E-03    -120.650E+06    -236.928E+06    -116.817E+06     693.797E+03    -162.563E-03     325.026E-03    -162.463E-03     5.54239E-03    -162.648E-03     324.190E-03    -162.528E-03     5.58048E-03
             768     1.53085E-03     109.731E-03    -117.004E+06    -226.968E+06    -107.960E+06    -625.660E+03    -162.770E-03     325.361E-03    -162.591E-03     10.3680E-03    -162.869E-03     324.552E-03    -162.632E-03     10.4056E-03
             769     2.29472E-03     109.749E-03    -111.995E+06    -210.683E+06    -94.9126E+06    -798.672E+03    -162.923E-03     325.636E-03    -162.713E-03     15.3379E-03    -163.039E-03     324.883E-03    -162.720E-03     15.4152E-03
             770     3.05871E-03     109.771E-03    -105.907E+06    -198.638E+06    -77.7098E+06    -466.166E+03    -163.069E-03     325.914E-03    -162.845E-03     19.6644E-03    -163.199E-03     325.188E-03    -162.792E-03     19.7425E-03
             771     3.82271E-03     109.797E-03    -98.8318E+06    -177.900E+06    -59.7077E+06    -18.3897E+03    -163.020E-03     325.963E-03    -162.943E-03     23.0939E-03    -163.173E-03     325.306E-03    -162.840E-03     23.1350E-03
             772     4.58865E-03     109.829E-03    -90.4093E+06    -153.509E+06    -42.5704E+06    -522.538E+03    -162.693E-03     325.669E-03    -162.976E-03     26.6140E-03    -162.866E-03     325.100E-03    -162.836E-03     26.6037E-03
             773     5.35370E-03     109.869E-03    -82.5293E+06    -135.704E+06    -28.3979E+06    -884.445E+03    -162.868E-03     325.853E-03    -162.985E-03     30.4041E-03    -163.052E-03     325.345E-03    -162.811E-03     30.3291E-03
             774     6.11804E-03     109.914E-03    -76.2409E+06    -122.453E+06    -16.6302E+06    -651.955E+03    -163.203E-03     326.223E-03    -163.020E-03     34.3331E-03    -163.398E-03     325.762E-03    -162.815E-03     34.1375E-03
             775     6.88368E-03     109.960E-03    -68.4516E+06    -104.086E+06    -3.97142E+06    -1.42839E+06    -163.349E-03     326.417E-03    -163.068E-03     38.0884E-03    -163.559E-03     326.026E-03    -162.838E-03     37.7144E-03
             776     7.64771E-03     110.013E-03    -59.9238E+06    -83.0172E+06     7.69098E+06    -1.77608E+06    -163.726E-03     326.845E-03    -163.119E-03     41.6162E-03    -163.952E-03     326.541E-03    -162.873E-03     41.0761E-03
             777     8.41083E-03     110.069E-03    -52.5824E+06    -62.7767E+06     18.0379E+06    -838.553E+03    -163.662E-03     326.831E-03    -163.169E-03     44.4158E-03    -163.908E-03     326.615E-03    -162.912E-03     43.7019E-03
             778     9.17607E-03     110.126E-03    -46.1782E+06    -40.4014E+06     28.4013E+06    -250.792E+03    -163.087E-03     326.267E-03    -163.181E-03     46.9248E-03    -163.363E-03     326.154E-03    -162.913E-03     45.9977E-03
             779     9.94135E-03     110.187E-03    -39.6831E+06    -9.72786E+06     39.7120E+06     130.041E+03    -162.675E-03     325.819E-03    -163.144E-03     49.0341E-03    -162.999E-03     325.853E-03    -162.874E-03     47.8600E-03
             780     10.7058E-03     110.250E-03    -34.1371E+06     8.74929E+06     48.0097E+06     2.53483E+06    -162.245E-03     325.331E-03    -163.086E-03     50.4143E-03    -162.601E-03     325.459E-03    -162.810E-03     48.9925E-03
             781     11.4718E-03     110.314E-03    -30.2972E+06     33.2193E+06     54.8081E+06     5.21593E+06    -161.584E-03     324.572E-03    -162.988E-03     50.8142E-03    -161.987E-03     324.827E-03    -162.719E-03     49.1680E-03
             782     12.2391E-03     110.375E-03    -25.2829E+06     78.4842E+06     64.1921E+06     6.42208E+06    -160.844E-03     323.688E-03    -162.844E-03     49.7380E-03    -161.320E-03     324.167E-03    -162.600E-03     47.8339E-03
             783     13.0059E-03     110.433E-03    -17.9179E+06     102.891E+06     76.6115E+06     6.98589E+06    -160.257E-03     322.979E-03    -162.722E-03     48.3658E-03    -160.766E-03     323.568E-03    -162.463E-03     46.1990E-03
             784     13.7740E-03     110.492E-03    -9.37896E+06     110.419E+06     90.1899E+06     5.70696E+06    -160.106E-03     322.736E-03    -162.630E-03     44.1166E-03    -160.623E-03     323.350E-03    -162.326E-03     41.5318E-03
             785     14.5417E-03     110.540E-03    -2.21584E+06     111.506E+06     95.8117E+06     1.65430E+06    -160.653E-03     323.197E-03    -162.544E-03     33.0200E-03    -161.112E-03     323.766E-03    -162.223E-03     30.3876E-03
             786     763.450E-06     111.031E-03    -122.381E+06    -239.044E+06    -120.214E+06     1.53273E+06    -163.072E-03     326.144E-03    -163.072E-03     4.44712E-03    -163.159E-03     325.306E-03    -163.149E-03     4.50994E-03
             787     1.52849E-03     111.044E-03    -119.525E+06    -224.639E+06    -109.792E+06     416.146E+03    -162.720E-03     325.750E-03    -163.030E-03     9.26699E-03    -162.832E-03     324.959E-03    -163.080E-03     9.33501E-03
             788     2.29420E-03     111.059E-03    -114.136E+06    -210.441E+06    -94.4744E+06    -255.252E+03    -162.217E-03     325.120E-03    -162.903E-03     13.9049E-03    -162.345E-03     324.370E-03    -162.905E-03     14.0049E-03
             789     3.06078E-03     111.083E-03    -107.285E+06    -198.261E+06    -78.1190E+06    -684.332E+03    -162.506E-03     325.326E-03    -162.820E-03     18.9750E-03    -162.643E-03     324.605E-03    -162.768E-03     19.0576E-03
             790     3.82528E-03     111.111E-03    -99.2127E+06    -178.144E+06    -61.1742E+06    -459.278E+03    -163.523E-03     326.424E-03    -162.901E-03     23.0837E-03    -163.676E-03     325.769E-03    -162.804E-03     23.1225E-03
             791     4.58740E-03     111.143E-03    -91.0444E+06    -154.190E+06    -44.1371E+06      77.837E+03    -163.743E-03     326.811E-03    -163.068E-03     26.9233E-03    -163.917E-03     326.243E-03    -162.933E-03     26.9067E-03
             792     5.35152E-03     111.181E-03    -84.0395E+06    -135.605E+06    -28.8116E+06     171.973E+03    -163.133E-03     326.300E-03    -163.167E-03     31.2981E-03    -163.325E-03     325.795E-03    -162.992E-03     31.2321E-03
             793     6.11749E-03     111.225E-03    -76.9287E+06    -120.182E+06    -15.7642E+06    -805.523E+03    -162.956E-03     326.139E-03    -163.183E-03     34.4902E-03    -163.159E-03     325.689E-03    -162.976E-03     34.3009E-03
             794     6.88158E-03     111.273E-03    -69.2493E+06    -102.198E+06    -3.26059E+06    -2.36896E+06    -163.143E-03     326.332E-03    -163.189E-03     37.7334E-03    -163.361E-03     325.950E-03    -162.956E-03     37.3676E-03
             795     7.64633E-03     111.326E-03    -62.5847E+06    -82.9342E+06     7.45469E+06    -2.75503E+06    -163.023E-03     326.208E-03    -163.186E-03     41.6856E-03    -163.260E-03     325.908E-03    -162.937E-03     41.1608E-03
             796     8.41229E-03     111.382E-03    -55.5379E+06    -64.0645E+06     16.9171E+06    -2.32893E+06    -162.884E-03     326.045E-03    -163.161E-03     44.5992E-03    -163.140E-03     325.827E-03    -162.903E-03     43.8822E-03
             797     9.17693E-03     111.439E-03    -47.6635E+06    -41.8569E+06     27.2296E+06    -1.38412E+06    -162.892E-03     326.021E-03    -163.130E-03     47.1651E-03    -163.173E-03     325.906E-03    -162.864E-03     46.2160E-03
             798     9.94162E-03     111.500E-03    -41.5608E+06    -13.1143E+06     37.1672E+06     712.141E+03    -162.500E-03     325.578E-03    -163.078E-03     49.7290E-03    -162.826E-03     325.602E-03    -162.813E-03     48.5521E-03
             799     10.7076E-03     111.562E-03    -36.6532E+06     3.14931E+06     44.1966E+06     3.77540E+06    -161.893E-03     324.895E-03    -163.002E-03     51.4585E-03    -162.251E-03     325.006E-03    -162.732E-03     50.0511E-03
             800     11.4741E-03     111.624E-03    -30.1418E+06     30.1959E+06     53.4282E+06     6.22820E+06    -161.611E-03     324.512E-03    -162.901E-03     51.2824E-03    -162.010E-03     324.756E-03    -162.633E-03     49.6168E-03
             801     12.2402E-03     111.686E-03    -24.9423E+06     78.4958E+06     64.3364E+06     5.82716E+06    -161.465E-03     324.250E-03    -162.785E-03     48.6326E-03    -161.939E-03     324.727E-03    -162.540E-03     46.6916E-03
             802     13.0062E-03     111.744E-03    -19.5540E+06     104.485E+06     74.1180E+06     3.79258E+06    -161.023E-03     323.720E-03    -162.698E-03     46.2521E-03    -161.535E-03     324.319E-03    -162.450E-03     44.0258E-03
             803     13.7719E-03     111.801E-03    -12.1344E+06     113.415E+06     83.8240E+06     1.84775E+06    -160.488E-03     323.111E-03    -162.622E-03     42.5830E-03    -161.015E-03     323.754E-03    -162.350E-03     39.8866E-03
             804     14.5372E-03     111.851E-03    -5.85500E+06     114.394E+06     91.4027E+06     1.19677E+06    -160.178E-03     322.725E-03    -162.546E-03     32.6889E-03    -160.657E-03     323.324E-03    -162.247E-03     29.9943E-03
             805     764.567E-06     112.348E-03    -123.514E+06    -241.672E+06    -121.799E+06     342.443E+03    -163.489E-03     326.905E-03    -163.415E-03     5.96451E-03    -163.575E-03     326.057E-03    -163.495E-03     5.97838E-03
             806     1.52839E-03     112.356E-03    -119.669E+06    -225.393E+06    -110.426E+06     1.36763E+06    -162.985E-03     326.368E-03    -163.382E-03     9.79531E-03    -163.097E-03     325.575E-03    -163.434E-03     9.86326E-03
             807     2.29315E-03     112.372E-03    -115.022E+06    -209.596E+06    -94.8441E+06     1.03408E+06    -162.691E-03     325.945E-03    -163.254E-03     13.5283E-03    -162.825E-03     325.201E-03    -163.257E-03     13.6228E-03
             808     3.05745E-03     112.393E-03    -108.622E+06    -195.824E+06    -78.1172E+06    -792.383E+03    -162.561E-03     325.721E-03    -163.160E-03     17.8908E-03    -162.708E-03     325.014E-03    -163.110E-03     17.9822E-03
             809     3.82303E-03     112.424E-03    -100.601E+06    -178.635E+06    -61.4744E+06    -1.54336E+06    -162.820E-03     325.940E-03    -163.120E-03     22.4535E-03    -162.977E-03     325.284E-03    -163.022E-03     22.5196E-03
             810     4.58836E-03     112.458E-03    -92.1919E+06    -156.461E+06    -44.5658E+06    -365.057E+03    -163.393E-03     326.555E-03    -163.162E-03     26.4632E-03    -163.568E-03     325.977E-03    -163.024E-03     26.4664E-03
             811     5.35259E-03     112.494E-03    -83.2568E+06    -135.399E+06    -27.7142E+06     314.441E+03    -163.505E-03     326.752E-03    -163.247E-03     31.1988E-03    -163.694E-03     326.246E-03    -163.069E-03     31.1431E-03
             812     6.11597E-03     112.539E-03    -74.9945E+06    -117.122E+06    -13.4274E+06    -390.762E+03    -163.187E-03     326.479E-03    -163.292E-03     35.2054E-03    -163.389E-03     326.038E-03    -163.080E-03     35.0259E-03
             813     6.88113E-03     112.586E-03    -68.5928E+06    -100.270E+06    -2.06991E+06    -1.15031E+06    -162.891E-03     326.172E-03    -163.281E-03     38.6577E-03    -163.109E-03     325.797E-03    -163.047E-03     38.3182E-03
             814     7.64654E-03     112.638E-03    -62.2005E+06    -81.6881E+06     8.10543E+06    -1.97218E+06    -162.624E-03     325.858E-03    -163.234E-03     41.6775E-03    -162.863E-03     325.562E-03    -162.985E-03     41.1612E-03
             815     8.41171E-03     112.693E-03    -55.7494E+06    -63.5932E+06     16.7821E+06    -2.73584E+06    -162.427E-03     325.592E-03    -163.165E-03     43.9679E-03    -162.685E-03     325.378E-03    -162.908E-03     43.2337E-03
             816     9.17735E-03     112.752E-03    -50.1259E+06    -44.9883E+06     24.6248E+06    -1.98294E+06    -162.293E-03     325.381E-03    -163.088E-03     46.3706E-03    -162.579E-03     325.257E-03    -162.827E-03     45.3943E-03
             817     9.94320E-03     112.811E-03    -43.8201E+06    -17.5669E+06     34.4426E+06     192.629E+03    -161.904E-03     324.901E-03    -162.997E-03     48.4377E-03    -162.230E-03     324.909E-03    -162.736E-03     47.2420E-03
             818     10.7095E-03     112.872E-03    -35.7839E+06    -1.08651E+06     43.3086E+06     1.89080E+06    -161.760E-03     324.667E-03    -162.907E-03     50.0994E-03    -162.103E-03     324.753E-03    -162.637E-03     48.6690E-03
             819     11.4749E-03     112.935E-03    -28.4386E+06     26.2528E+06     52.6616E+06     3.54119E+06    -161.910E-03     324.727E-03    -162.817E-03     50.6832E-03    -162.293E-03     324.949E-03    -162.551E-03     48.9725E-03
             820     12.2396E-03     112.998E-03    -21.1772E+06     80.4552E+06     65.1841E+06     4.98272E+06    -161.840E-03     324.564E-03    -162.723E-03     49.4490E-03    -162.305E-03     325.049E-03    -162.483E-03     47.4405E-03
             821     13.0050E-03     113.055E-03    -14.2668E+06     109.299E+06     78.1862E+06     3.49451E+06    -161.638E-03     324.314E-03    -162.676E-03     47.8292E-03    -162.147E-03     324.933E-03    -162.423E-03     45.5213E-03
             822     13.7714E-03     113.112E-03    -9.58577E+06     113.278E+06     88.7802E+06     1.98829E+06    -160.752E-03     323.391E-03    -162.640E-03     44.3364E-03    -161.279E-03     324.030E-03    -162.346E-03     41.6257E-03
             823     14.5396E-03     113.159E-03    -5.09338E+06     115.204E+06     93.1601E+06     1.16665E+06    -159.857E-03     322.403E-03    -162.546E-03     34.4667E-03    -160.341E-03     323.007E-03    -162.240E-03     31.7705E-03
             824     763.991E-06     113.660E-03    -125.433E+06    -241.190E+06    -123.576E+06    -1.02570E+06    -163.495E-03     326.853E-03    -163.358E-03     4.94531E-03    -163.589E-03     326.014E-03    -163.444E-03     4.98862E-03
             825     1.52890E-03     113.670E-03    -120.444E+06    -227.770E+06    -112.460E+06    -422.346E+03    -163.336E-03     326.769E-03    -163.434E-03     9.24910E-03    -163.444E-03     325.968E-03    -163.491E-03     9.33709E-03
             826     2.29276E-03     113.685E-03    -113.757E+06    -210.664E+06    -95.7525E+06     907.989E+03    -163.312E-03     326.759E-03    -163.447E-03     14.0920E-03    -163.436E-03     326.010E-03    -163.456E-03     14.1910E-03
             827     3.05702E-03     113.707E-03    -107.065E+06    -192.412E+06    -76.3903E+06     562.102E+03    -163.059E-03     326.510E-03    -163.451E-03     19.1972E-03    -163.205E-03     325.815E-03    -163.399E-03     19.2901E-03
             828     3.82148E-03     113.735E-03    -100.129E+06    -176.628E+06    -58.5502E+06    -1.29923E+06    -162.805E-03     326.217E-03    -163.413E-03     23.6179E-03    -162.967E-03     325.567E-03    -163.304E-03     23.6896E-03
             829     4.58689E-03     113.770E-03    -91.9335E+06    -157.608E+06    -43.3361E+06    -1.54337E+06    -162.985E-03     326.355E-03    -163.369E-03     26.3823E-03    -163.159E-03     325.768E-03    -163.224E-03     26.4055E-03
             830     5.35123E-03     113.808E-03    -83.4319E+06    -136.244E+06    -28.6267E+06    -764.301E+03    -163.174E-03     326.537E-03    -163.363E-03     30.1716E-03    -163.361E-03     326.027E-03    -163.187E-03     30.1164E-03
             831     6.11650E-03     113.852E-03    -74.9419E+06    -116.196E+06    -14.2765E+06    -791.932E+03    -162.988E-03     326.346E-03    -163.358E-03     34.5814E-03    -163.189E-03     325.910E-03    -163.153E-03     34.3955E-03
             832     6.88144E-03     113.898E-03    -65.7273E+06    -98.0554E+06    -1.13961E+06    -1.68556E+06    -162.793E-03     326.120E-03    -163.327E-03     38.0739E-03    -163.002E-03     325.751E-03    -163.095E-03     37.7210E-03
             833     7.64613E-03     113.951E-03    -57.5843E+06    -81.0673E+06     10.0118E+06    -1.90302E+06    -162.511E-03     325.780E-03    -163.269E-03     41.1913E-03    -162.731E-03     325.479E-03    -163.018E-03     40.6564E-03
             834     8.41115E-03     114.005E-03    -50.9966E+06    -63.2600E+06     19.3134E+06    -1.35552E+06    -162.159E-03     325.341E-03    -163.182E-03     44.2323E-03    -162.399E-03     325.119E-03    -162.920E-03     43.4923E-03
             835     9.17695E-03     114.063E-03    -44.7573E+06    -44.8147E+06     27.7252E+06    -1.46436E+06    -161.955E-03     325.034E-03    -163.079E-03     46.5118E-03    -162.219E-03     324.899E-03    -162.810E-03     45.5309E-03
             836     9.94297E-03     114.122E-03    -37.9708E+06    -20.7701E+06     36.5977E+06    -1.44098E+06    -161.959E-03     324.935E-03    -162.976E-03     47.7706E-03    -162.254E-03     324.916E-03    -162.708E-03     46.5473E-03
             837     10.7087E-03     114.183E-03    -31.6820E+06    -4.75595E+06     43.9517E+06    -233.430E+03    -161.807E-03     324.693E-03    -162.887E-03     49.2835E-03    -162.125E-03     324.755E-03    -162.614E-03     47.8061E-03
             838     11.4749E-03     114.247E-03    -26.2427E+06     23.0288E+06     52.6198E+06     1.87216E+06    -161.314E-03     324.094E-03    -162.780E-03     50.2713E-03    -161.682E-03     324.297E-03    -162.512E-03     48.5283E-03
             839     12.2425E-03     114.308E-03    -19.9548E+06     78.7070E+06     65.4818E+06     3.09996E+06    -161.118E-03     323.765E-03    -162.648E-03     49.7111E-03    -161.575E-03     324.241E-03    -162.405E-03     47.6776E-03
             840     13.0088E-03     114.368E-03    -14.6952E+06     109.793E+06     78.6248E+06     3.69417E+06    -161.105E-03     323.672E-03    -162.567E-03     48.3499E-03    -161.620E-03     324.296E-03    -162.312E-03     46.0366E-03
             841     13.7739E-03     114.422E-03    -10.0828E+06     116.057E+06     89.5983E+06     3.24766E+06    -160.863E-03     323.386E-03    -162.523E-03     44.7407E-03    -161.402E-03     324.042E-03    -162.229E-03     42.0131E-03
             842     14.5398E-03     114.468E-03    -4.80371E+06     118.565E+06     93.2833E+06     1.32646E+06    -160.861E-03     323.320E-03    -162.459E-03     35.1624E-03    -161.353E-03     323.945E-03    -162.157E-03     32.4217E-03
             843     764.202E-06     114.974E-03    -122.310E+06    -238.757E+06    -119.894E+06    -729.910E+03    -163.442E-03     327.204E-03    -163.762E-03     4.88946E-03    -163.529E-03     326.367E-03    -163.838E-03     4.93742E-03
             844     1.52795E-03     114.983E-03    -120.294E+06    -227.397E+06    -111.882E+06    -1.54130E+06    -163.377E-03     326.955E-03    -163.578E-03     9.15713E-03    -163.486E-03     326.155E-03    -163.633E-03     9.23003E-03
             845     2.29262E-03     114.999E-03    -114.931E+06    -211.943E+06    -97.7478E+06    -1.47211E+06    -163.282E-03     326.819E-03    -163.537E-03     14.0336E-03    -163.408E-03     326.068E-03    -163.552E-03     14.1048E-03
             846     3.05748E-03     115.020E-03    -106.581E+06    -192.051E+06    -77.9311E+06    -180.428E+03    -163.445E-03     326.998E-03    -163.553E-03     18.7245E-03    -163.587E-03     326.306E-03    -163.510E-03     18.8161E-03
             847     3.82194E-03     115.050E-03    -97.8373E+06    -173.940E+06    -57.7331E+06    -746.234E+03    -163.435E-03     327.035E-03    -163.599E-03     23.1337E-03    -163.591E-03     326.393E-03    -163.494E-03     23.2016E-03
             848     4.58533E-03     115.083E-03    -89.8046E+06    -157.743E+06    -41.5405E+06    -1.75439E+06    -163.090E-03     326.689E-03    -163.598E-03     26.7238E-03    -163.256E-03     326.096E-03    -163.447E-03     26.7369E-03
             849     5.35048E-03     115.122E-03    -81.6837E+06    -136.455E+06    -28.3354E+06    -1.90356E+06    -162.733E-03     326.263E-03    -163.530E-03     30.2333E-03    -162.912E-03     325.750E-03    -163.355E-03     30.1440E-03
             850     6.11532E-03     115.164E-03    -72.9177E+06    -114.233E+06    -14.8682E+06    -2.58699E+06    -162.699E-03     326.148E-03    -163.449E-03     34.4577E-03    -162.892E-03     325.720E-03    -163.252E-03     34.2346E-03
             851     6.88000E-03     115.213E-03    -65.2383E+06    -96.4117E+06    -1.91881E+06    -3.21342E+06    -162.611E-03     325.992E-03    -163.381E-03     37.9405E-03    -162.818E-03     325.631E-03    -163.156E-03     37.5603E-03
             852     7.64564E-03     115.262E-03    -58.3482E+06    -82.2177E+06     9.12783E+06    -2.81329E+06    -162.124E-03     325.419E-03    -163.295E-03     40.8165E-03    -162.344E-03     325.114E-03    -163.046E-03     40.2607E-03
             853     8.41229E-03     115.317E-03    -51.0264E+06    -63.5005E+06     19.2576E+06    -2.20191E+06    -161.776E-03     324.949E-03    -163.173E-03     43.8896E-03    -162.016E-03     324.727E-03    -162.911E-03     43.1361E-03
             854     9.17804E-03     115.374E-03    -43.3392E+06    -42.9082E+06     28.4847E+06    -2.89782E+06    -161.830E-03     324.879E-03    -163.048E-03     46.4710E-03    -162.091E-03     324.750E-03    -162.781E-03     45.4755E-03
             855     9.94351E-03     115.434E-03    -37.0193E+06    -23.5823E+06     36.3581E+06    -1.87473E+06    -161.970E-03     324.915E-03    -162.944E-03     48.4550E-03    -162.257E-03     324.881E-03    -162.675E-03     47.2231E-03
             856     10.7088E-03     115.495E-03    -32.6345E+06    -7.44159E+06     42.8621E+06     356.810E+03    -161.750E-03     324.603E-03    -162.853E-03     49.7057E-03    -162.069E-03     324.655E-03    -162.580E-03     48.2288E-03
             857     11.4754E-03     115.556E-03    -27.2474E+06     20.4123E+06     50.9931E+06     1.23990E+06    -161.193E-03     323.932E-03    -162.739E-03     50.1723E-03    -161.559E-03     324.126E-03    -162.474E-03     48.4208E-03
             858     12.2414E-03     115.618E-03    -21.4312E+06     75.1527E+06     62.7815E+06     2.84396E+06    -160.758E-03     323.349E-03    -162.592E-03     49.1554E-03    -161.211E-03     323.811E-03    -162.356E-03     47.1406E-03
             859     13.0082E-03     115.677E-03    -16.1789E+06     108.780E+06     75.6122E+06     3.65158E+06    -160.617E-03     323.102E-03    -162.486E-03     46.3545E-03    -161.122E-03     323.717E-03    -162.242E-03     44.1205E-03
             860     13.7768E-03     115.732E-03    -10.4449E+06     118.767E+06     87.9931E+06     2.69782E+06    -160.958E-03     323.395E-03    -162.437E-03     42.4998E-03    -161.489E-03     324.055E-03    -162.154E-03     39.8301E-03
             861     14.5423E-03     115.781E-03    -4.93193E+06     122.367E+06     93.8273E+06     1.48760E+06    -161.277E-03     323.678E-03    -162.401E-03     33.7557E-03    -161.769E-03     324.315E-03    -162.102E-03     31.0515E-03
             862     763.955E-06     116.289E-03    -121.659E+06    -238.152E+06    -118.437E+06     312.509E+03    -163.625E-03     327.685E-03    -164.060E-03     4.56298E-03    -163.712E-03     326.848E-03    -164.131E-03     4.62592E-03
             863     1.52821E-03     116.297E-03    -118.042E+06    -225.375E+06    -107.294E+06     4.44984E+03    -163.645E-03     327.486E-03    -163.840E-03     8.42382E-03    -163.753E-03     326.686E-03    -163.879E-03     8.51072E-03
             864     2.29263E-03     116.312E-03    -113.350E+06    -210.588E+06    -93.8750E+06    -1.33640E+06    -163.752E-03     327.589E-03    -163.837E-03     13.1838E-03    -163.877E-03     326.837E-03    -163.837E-03     13.2600E-03
             865     3.05603E-03     116.335E-03    -106.638E+06    -192.014E+06    -79.4140E+06    -2.45049E+06    -163.679E-03     327.534E-03    -163.855E-03     17.6354E-03    -163.819E-03     326.845E-03    -163.819E-03     17.7141E-03
             866     3.81952E-03     116.364E-03    -98.4760E+06    -173.153E+06    -62.3275E+06    -2.33886E+06    -163.039E-03     326.855E-03    -163.815E-03     22.4737E-03    -163.193E-03     326.225E-03    -163.733E-03     22.5111E-03
             867     4.58509E-03     116.397E-03    -90.0773E+06    -156.332E+06     -44.228E+06    -2.33579E+06    -162.660E-03     326.372E-03    -163.712E-03     27.2176E-03    -162.825E-03     325.791E-03    -163.576E-03     27.1960E-03
             868     5.34975E-03     116.434E-03    -81.9646E+06    -134.576E+06    -28.7229E+06    -3.05347E+06    -162.834E-03     326.441E-03    -163.607E-03     31.0008E-03    -163.017E-03     325.939E-03    -163.437E-03     30.8756E-03
             869     6.11506E-03     116.477E-03    -74.4112E+06    -113.809E+06    -15.6321E+06    -3.14309E+06    -162.750E-03     326.278E-03    -163.527E-03     34.5407E-03    -162.951E-03     325.855E-03    -163.333E-03     34.3041E-03
             870     6.88077E-03     116.525E-03    -67.9078E+06    -95.9863E+06    -3.84368E+06    -2.62738E+06    -162.329E-03     325.766E-03    -163.437E-03     37.3546E-03    -162.548E-03     325.414E-03    -163.218E-03     36.9836E-03
             871     7.64604E-03     116.574E-03    -61.7457E+06    -81.7230E+06     6.46013E+06    -3.00610E+06    -162.061E-03     325.388E-03    -163.327E-03     39.8178E-03    -162.295E-03     325.094E-03    -163.087E-03     39.2576E-03
             872     8.41107E-03     116.628E-03    -54.7747E+06    -62.0235E+06     16.7256E+06    -4.07363E+06    -161.721E-03     324.921E-03    -163.200E-03     42.6661E-03    -161.976E-03     324.713E-03    -162.947E-03     41.9004E-03
             873     9.17755E-03     116.685E-03    -48.8625E+06    -43.0176E+06     25.4134E+06    -3.87004E+06    -161.398E-03     324.457E-03    -163.059E-03     45.4030E-03    -161.679E-03     324.338E-03    -162.799E-03     44.4161E-03
             874     9.94394E-03     116.745E-03    -43.5525E+06    -27.5266E+06     32.4366E+06    -1.92800E+06    -161.388E-03     324.309E-03    -162.922E-03     47.6474E-03    -161.694E-03     324.269E-03    -162.656E-03     46.4317E-03
             875     10.7107E-03     116.805E-03    -36.6138E+06    -8.54322E+06     40.5325E+06    -754.883E+03    -161.521E-03     324.326E-03    -162.805E-03     48.7878E-03    -161.852E-03     324.379E-03    -162.537E-03     47.3191E-03
             876     11.4760E-03     116.867E-03    -29.7645E+06     18.5506E+06     49.0115E+06    -293.603E+03    -161.389E-03     324.084E-03    -162.696E-03     49.3917E-03    -161.758E-03     324.272E-03    -162.435E-03     47.6516E-03
             877     12.2428E-03     116.928E-03    -23.4821E+06     71.4843E+06     59.1858E+06     1.18448E+06    -160.849E-03     323.404E-03    -162.555E-03     48.9843E-03    -161.300E-03     323.854E-03    -162.328E-03     46.9625E-03
             878     13.0094E-03     116.987E-03    -16.9245E+06     108.555E+06     73.7719E+06     2.74952E+06    -161.068E-03     323.535E-03    -162.467E-03     46.9534E-03    -161.573E-03     324.152E-03    -162.231E-03     44.7202E-03
             879     13.7733E-03     117.042E-03    -10.9844E+06     120.339E+06     89.6104E+06     2.59287E+06    -161.394E-03     323.852E-03    -162.458E-03     42.4174E-03    -161.927E-03     324.514E-03    -162.169E-03     39.7903E-03
             880     14.5400E-03     117.092E-03    -5.20212E+06     124.288E+06     94.8590E+06     1.15037E+06    -160.610E-03     323.023E-03    -162.413E-03     32.5943E-03    -161.100E-03     323.660E-03    -162.111E-03     29.9509E-03
             881     763.390E-06     117.604E-03    -125.087E+06    -237.763E+06    -122.985E+06    -843.118E+03    -163.990E-03     328.146E-03    -164.156E-03     4.54054E-03    -164.090E-03     327.322E-03    -164.245E-03     4.60128E-03
             882     1.52730E-03     117.612E-03    -120.435E+06    -225.172E+06    -111.789E+06    -101.521E+03    -164.200E-03     328.329E-03    -164.129E-03     8.70611E-03    -164.313E-03     327.540E-03    -164.187E-03     8.81072E-03
             883     2.29025E-03     117.628E-03    -114.637E+06    -207.921E+06    -96.0371E+06    -306.781E+03    -164.017E-03     328.197E-03    -164.180E-03     13.6827E-03    -164.149E-03     327.463E-03    -164.192E-03     13.7832E-03
             884     3.05421E-03     117.651E-03    -108.787E+06    -188.611E+06    -80.2066E+06    -2.11260E+06    -163.238E-03     327.342E-03    -164.104E-03     18.4579E-03    -163.394E-03     326.674E-03    -164.073E-03     18.5155E-03
             885     3.81987E-03     117.677E-03    -102.258E+06    -171.597E+06    -65.3965E+06    -3.42514E+06    -162.687E-03     326.611E-03    -163.924E-03     22.9622E-03    -162.858E-03     326.000E-03    -163.854E-03     22.9647E-03
             886     4.58523E-03     117.709E-03    -94.2747E+06    -154.662E+06    -49.1788E+06    -4.26333E+06    -162.826E-03     326.600E-03    -163.775E-03     27.0629E-03    -163.008E-03     326.041E-03    -163.660E-03     27.0039E-03
             887     5.35063E-03     117.749E-03    -86.1805E+06    -133.625E+06    -32.1975E+06    -4.09844E+06    -163.112E-03     326.814E-03    -163.702E-03     29.9920E-03    -163.312E-03     326.328E-03    -163.544E-03     29.8730E-03
             888     6.11431E-03     117.790E-03    -78.4013E+06    -114.566E+06    -17.3549E+06    -3.15708E+06    -162.703E-03     326.344E-03    -163.641E-03     32.9085E-03    -162.919E-03     325.926E-03    -163.448E-03     32.6958E-03
             889     6.87899E-03     117.837E-03    -70.0647E+06    -95.7031E+06    -5.34338E+06    -2.88098E+06    -162.023E-03     325.544E-03    -163.520E-03     36.5216E-03    -162.250E-03     325.198E-03    -163.307E-03     36.1541E-03
             890     7.64485E-03     117.886E-03    -61.6593E+06    -79.2984E+06     5.90957E+06    -3.59695E+06    -161.902E-03     325.280E-03    -163.378E-03     39.8750E-03    -162.138E-03     324.999E-03    -163.144E-03     39.3152E-03
             891     8.41082E-03     117.940E-03    -54.4860E+06    -60.9261E+06     16.7148E+06    -4.18121E+06    -161.842E-03     325.090E-03    -163.248E-03     42.6745E-03    -162.097E-03     324.887E-03    -162.997E-03     41.9150E-03
             892     9.17657E-03     117.995E-03    -48.4366E+06    -45.4262E+06     24.9191E+06    -3.02426E+06    -161.498E-03     324.612E-03    -163.114E-03     45.1097E-03    -161.772E-03     324.481E-03    -162.854E-03     44.1413E-03
             893     9.94331E-03     118.055E-03    -42.3939E+06    -28.6030E+06     32.1287E+06    -2.43373E+06    -161.193E-03     324.161E-03    -162.968E-03     46.8148E-03    -161.490E-03     324.112E-03    -162.705E-03     45.6099E-03
             894     10.7092E-03     118.116E-03    -36.0010E+06    -8.38841E+06     39.9143E+06    -2.70080E+06    -161.104E-03     323.929E-03    -162.826E-03     47.8791E-03    -161.429E-03     323.981E-03    -162.562E-03     46.4028E-03
             895     11.4762E-03     118.177E-03    -29.8411E+06     17.4388E+06     48.5431E+06    -2.19165E+06    -161.211E-03     323.911E-03    -162.700E-03     48.4409E-03    -161.575E-03     324.090E-03    -162.439E-03     46.7053E-03
             896     12.2421E-03     118.238E-03    -24.3412E+06     67.8289E+06     58.9042E+06    -807.856E+03    -161.198E-03     323.769E-03    -162.571E-03     47.5373E-03    -161.640E-03     324.194E-03    -162.340E-03     45.5502E-03
             897     13.0090E-03     118.297E-03    -17.6279E+06     106.339E+06     73.2245E+06     865.608E+03    -160.995E-03     323.485E-03    -162.489E-03     46.4731E-03    -161.498E-03     324.090E-03    -162.252E-03     44.2407E-03
             898     13.7758E-03     118.357E-03    -10.1338E+06     121.478E+06     88.7585E+06     1.26373E+06    -160.742E-03     323.192E-03    -162.450E-03     43.3383E-03    -161.276E-03     323.865E-03    -162.168E-03     40.6690E-03
             899     14.5407E-03     118.400E-03    -4.67969E+06     125.603E+06     93.0825E+06     931.729E+03    -160.282E-03     322.655E-03    -162.373E-03     33.6916E-03    -160.775E-03     323.308E-03    -162.083E-03     30.9953E-03
             900     764.225E-06     118.919E-03    -126.733E+06    -233.901E+06    -124.972E+06    -1.90444E+06    -164.357E-03     328.063E-03    -163.706E-03     5.27623E-03    -164.468E-03     327.263E-03    -163.808E-03     5.30824E-03
             901     1.52715E-03     118.929E-03    -123.839E+06    -225.830E+06    -117.612E+06    -1.92117E+06    -164.286E-03     328.384E-03    -164.098E-03     10.0339E-03    -164.407E-03     327.605E-03    -164.179E-03     10.0905E-03
             902     2.29105E-03     118.944E-03    -118.514E+06    -206.606E+06    -103.215E+06    -1.37799E+06    -163.809E-03     327.941E-03    -164.132E-03     14.4281E-03    -163.953E-03     327.230E-03    -164.176E-03     14.5050E-03
             903     3.05597E-03     118.964E-03    -111.401E+06    -184.936E+06    -83.1105E+06    -1.97932E+06    -163.307E-03     327.362E-03    -164.055E-03     18.1632E-03    -163.477E-03     326.721E-03    -164.041E-03     18.2339E-03
             904     3.82031E-03     118.990E-03    -103.442E+06    -167.764E+06    -63.8335E+06    -3.67896E+06    -163.398E-03     327.377E-03    -163.980E-03     22.1910E-03    -163.582E-03     326.784E-03    -163.905E-03     22.2302E-03
             905     4.58396E-03     119.024E-03    -95.2810E+06    -152.712E+06    -47.8282E+06    -4.93703E+06    -163.524E-03     327.470E-03    -163.946E-03     26.4275E-03    -163.715E-03     326.919E-03    -163.825E-03     26.3803E-03
             906     5.34717E-03     119.062E-03    -86.8879E+06    -134.118E+06    -33.1815E+06    -4.80041E+06    -162.883E-03     326.765E-03    -163.882E-03     29.6942E-03    -163.084E-03     326.278E-03    -163.727E-03     29.5779E-03
             907     6.11289E-03     119.104E-03    -78.3597E+06    -113.301E+06    -18.6575E+06    -4.76012E+06    -162.022E-03     325.760E-03    -163.738E-03     33.0445E-03    -162.238E-03     325.349E-03    -163.553E-03     32.8250E-03
             908     6.87930E-03     119.148E-03    -69.9971E+06    -95.0677E+06    -5.85331E+06    -5.14137E+06    -161.757E-03     325.311E-03    -163.554E-03     37.3148E-03    -161.984E-03     324.969E-03    -163.344E-03     36.9335E-03
             909     7.64534E-03     119.198E-03    -62.0518E+06    -78.3129E+06     5.52335E+06    -4.77257E+06    -161.861E-03     325.252E-03    -163.391E-03     40.4573E-03    -162.099E-03     324.976E-03    -163.160E-03     39.9058E-03
             910     8.41103E-03     119.251E-03    -55.3376E+06    -61.2139E+06     15.7749E+06    -3.98592E+06    -161.901E-03     325.160E-03    -163.259E-03     42.5584E-03    -162.157E-03     324.957E-03    -163.011E-03     41.8086E-03
             911     9.17679E-03     119.307E-03    -48.5769E+06    -46.4051E+06     24.0597E+06    -3.72098E+06    -161.813E-03     324.953E-03    -163.140E-03     45.0739E-03    -162.085E-03     324.819E-03    -162.882E-03     44.0936E-03
             912     9.94201E-03     119.365E-03    -41.4723E+06    -27.8456E+06     32.1005E+06    -3.81532E+06    -161.487E-03     324.502E-03    -163.015E-03     47.0286E-03    -161.780E-03     324.455E-03    -162.754E-03     45.8087E-03
             913     10.7091E-03     119.426E-03    -35.0023E+06    -7.78543E+06     39.8405E+06    -3.89504E+06    -161.145E-03     324.026E-03    -162.880E-03     47.8877E-03    -161.464E-03     324.077E-03    -162.619E-03     46.4104E-03
             914     11.4756E-03     119.487E-03    -28.8159E+06     16.1174E+06     48.0806E+06    -3.54848E+06    -161.060E-03     323.808E-03    -162.748E-03     48.2586E-03    -161.416E-03     323.979E-03    -162.489E-03     46.5061E-03
             915     12.2419E-03     119.549E-03    -22.9383E+06     64.4219E+06     58.5547E+06    -2.10581E+06    -161.190E-03     323.803E-03    -162.613E-03     48.1786E-03    -161.623E-03     324.214E-03    -162.380E-03     46.1471E-03
             916     13.0065E-03     119.607E-03    -17.6204E+06     105.080E+06     72.2955E+06    -1.32224E+06    -160.721E-03     323.237E-03    -162.516E-03     46.6190E-03    -161.222E-03     323.839E-03    -162.281E-03     44.3428E-03
             917     13.7744E-03     119.663E-03    -11.7697E+06     120.365E+06     85.9323E+06    -563.967E+03    -159.721E-03     322.154E-03    -162.433E-03     42.3519E-03    -160.254E-03     322.823E-03    -162.161E-03     39.6880E-03
             918     14.5436E-03     119.712E-03    -5.28441E+06     125.305E+06     90.8213E+06     647.436E+03    -159.938E-03     322.259E-03    -162.321E-03     32.6792E-03    -160.426E-03     322.910E-03    -162.041E-03     30.0054E-03
             919     763.780E-06     120.235E-03    -128.360E+06    -228.664E+06    -124.865E+06    -1.26312E+06    -164.190E-03     327.919E-03    -163.729E-03     4.92134E-03    -164.316E-03     327.148E-03    -163.836E-03     4.94711E-03
             920     1.52799E-03     120.245E-03    -124.515E+06    -223.157E+06    -114.505E+06    -2.91007E+06    -163.739E-03     327.695E-03    -163.956E-03     9.51621E-03    -163.872E-03     326.926E-03    -164.024E-03     9.56225E-03
             921     2.29196E-03     120.259E-03    -118.660E+06    -205.808E+06    -101.958E+06    -3.28436E+06    -163.779E-03     327.700E-03    -163.921E-03     13.8579E-03    -163.926E-03     326.991E-03    -163.960E-03     13.9327E-03
             922     3.05513E-03     120.279E-03    -111.646E+06    -182.881E+06    -84.4074E+06    -3.11284E+06    -164.119E-03     328.093E-03    -163.973E-03     17.9130E-03    -164.291E-03     327.463E-03    -163.968E-03     17.9996E-03
             923     3.81869E-03     120.305E-03    -103.998E+06    -163.893E+06    -64.0988E+06    -3.85456E+06    -164.128E-03     328.203E-03    -164.075E-03     22.3470E-03    -164.320E-03     327.629E-03    -164.007E-03     22.4104E-03
             924     4.58273E-03     120.339E-03    -96.0441E+06    -149.679E+06    -46.8762E+06    -4.89982E+06    -163.289E-03     327.371E-03    -164.082E-03     26.6682E-03    -163.489E-03     326.835E-03    -163.960E-03     26.6430E-03
             925     5.34842E-03     120.376E-03    -87.6880E+06    -132.570E+06    -32.7225E+06    -5.91309E+06    -162.331E-03     326.274E-03    -163.943E-03     30.0944E-03    -162.539E-03     325.795E-03    -163.787E-03     29.9626E-03
             926     6.11422E-03     120.415E-03    -79.3864E+06    -111.655E+06    -20.0519E+06    -6.62571E+06    -162.062E-03     325.810E-03    -163.748E-03     32.7687E-03    -162.283E-03     325.410E-03    -163.571E-03     32.5298E-03
             927     6.87986E-03     120.460E-03    -71.7198E+06    -94.4645E+06    -7.46528E+06    -6.35285E+06    -161.961E-03     325.540E-03    -163.580E-03     35.8790E-03    -162.193E-03     325.205E-03    -163.376E-03     35.5101E-03
             928     7.64504E-03     120.510E-03    -64.5136E+06     -78.051E+06     3.70860E+06    -5.93363E+06    -161.722E-03     325.144E-03    -163.422E-03     39.2982E-03    -161.968E-03     324.874E-03    -163.197E-03     38.7594E-03
             929     8.41060E-03     120.562E-03    -56.7811E+06    -61.0560E+06     13.7597E+06    -5.91779E+06    -161.727E-03     325.000E-03    -163.273E-03     42.2172E-03    -161.987E-03     324.802E-03    -163.033E-03     41.4665E-03
             930     9.17643E-03     120.618E-03    -48.6343E+06    -45.8145E+06     23.1527E+06    -5.72482E+06    -161.659E-03     324.801E-03    -163.142E-03     44.7771E-03    -161.929E-03     324.668E-03    -162.890E-03     43.8159E-03
             931     9.94305E-03     120.676E-03    -41.4519E+06    -27.4044E+06     31.7643E+06    -5.55751E+06    -161.379E-03     324.388E-03    -163.009E-03     47.1888E-03    -161.670E-03     324.342E-03    -162.750E-03     45.9817E-03
             932     10.7081E-03     120.736E-03    -34.8932E+06    -7.19682E+06     39.6611E+06    -5.63370E+06    -161.263E-03     324.137E-03    -162.874E-03     49.1761E-03    -161.585E-03     324.194E-03    -162.614E-03     47.6705E-03
             933     11.4742E-03     120.797E-03    -28.6317E+06     14.8715E+06     47.4916E+06    -5.23354E+06    -161.103E-03     323.848E-03    -162.745E-03     49.9401E-03    -161.460E-03     324.018E-03    -162.487E-03     48.1367E-03
             934     12.2413E-03     120.858E-03    -22.1910E+06     60.6978E+06     58.1691E+06    -3.50221E+06    -160.699E-03     323.296E-03    -162.597E-03     49.7807E-03    -161.129E-03     323.694E-03    -162.362E-03     47.6921E-03
             935     13.0096E-03     120.919E-03    -16.3777E+06     104.825E+06     72.6958E+06    -1.63914E+06    -160.690E-03     323.170E-03    -162.481E-03     47.7455E-03    -161.190E-03     323.774E-03    -162.245E-03     45.4299E-03
             936     13.7747E-03     120.972E-03    -11.3443E+06     119.470E+06     84.1303E+06    -1.29281E+06    -160.471E-03     322.880E-03    -162.409E-03     42.5245E-03    -161.000E-03     323.549E-03    -162.145E-03     39.8245E-03
             937     14.5410E-03     121.019E-03    -5.61384E+06     123.223E+06     88.5522E+06    -841.448E+03    -159.882E-03     322.199E-03    -162.317E-03     33.0780E-03    -160.369E-03     322.846E-03    -162.044E-03     30.3552E-03
             938     763.266E-06     121.550E-03    -131.261E+06    -225.656E+06    -127.872E+06    -557.844E+03    -163.950E-03     328.328E-03    -164.378E-03     4.23902E-03    -164.090E-03     327.581E-03    -164.500E-03     4.30053E-03
             939     1.52759E-03     121.559E-03    -127.138E+06    -218.001E+06    -114.847E+06    -2.08987E+06    -163.699E-03     327.823E-03    -164.124E-03     8.28998E-03    -163.852E-03     327.085E-03    -164.198E-03     8.37778E-03
             940     2.29201E-03     121.574E-03    -121.496E+06    -202.947E+06    -100.384E+06    -3.71332E+06    -163.753E-03     327.792E-03    -164.039E-03     12.6776E-03    -163.921E-03     327.099E-03    -164.070E-03     12.7825E-03
             941     3.05630E-03     121.595E-03    -114.495E+06    -181.543E+06    -85.0000E+06    -3.91777E+06    -164.083E-03     328.135E-03    -164.053E-03     17.7661E-03    -164.270E-03     327.518E-03    -164.049E-03     17.8503E-03
             942     3.81917E-03     121.622E-03    -106.580E+06    -161.147E+06    -66.6778E+06    -3.76690E+06    -163.962E-03     328.072E-03    -164.110E-03     22.2947E-03    -164.167E-03     327.520E-03    -164.055E-03     22.3469E-03
             943     4.58322E-03     121.653E-03    -98.3538E+06    -145.631E+06    -48.8663E+06    -5.24826E+06    -163.017E-03     327.094E-03    -164.077E-03     25.5968E-03    -163.231E-03     326.584E-03    -163.967E-03     25.5796E-03
             944     5.34848E-03     121.688E-03    -90.0578E+06    -129.154E+06    -33.3448E+06    -6.94784E+06    -162.345E-03     326.274E-03    -163.930E-03     28.9582E-03    -162.568E-03     325.817E-03    -163.779E-03     28.8203E-03
             945     6.11315E-03     121.729E-03    -81.7965E+06    -110.083E+06    -20.3966E+06    -7.41306E+06    -162.458E-03     326.226E-03    -163.768E-03     32.5964E-03    -162.692E-03     325.838E-03    -163.591E-03     32.3416E-03
             946     6.87722E-03     121.772E-03    -73.5478E+06    -93.4462E+06    -8.63881E+06    -7.54142E+06    -162.266E-03     325.901E-03    -163.634E-03     35.8126E-03    -162.507E-03     325.574E-03    -163.435E-03     35.4327E-03
             947     7.64380E-03     121.820E-03    -64.9269E+06    -76.3423E+06     2.86184E+06    -8.23948E+06    -161.646E-03     325.129E-03    -163.483E-03     39.1940E-03    -161.894E-03     324.868E-03    -163.264E-03     38.6551E-03
             948     8.41065E-03     121.874E-03    -56.9345E+06    -59.9190E+06     12.9883E+06    -8.59762E+06    -161.385E-03     324.696E-03    -163.310E-03     42.0708E-03    -161.644E-03     324.502E-03    -163.076E-03     41.3422E-03
             949     9.17657E-03     121.929E-03    -49.5592E+06    -45.5411E+06     21.8538E+06    -8.46603E+06    -161.301E-03     324.448E-03    -163.147E-03     44.2809E-03    -161.571E-03     324.317E-03    -162.900E-03     43.3363E-03
             950     9.94257E-03     121.986E-03    -41.9196E+06    -27.2432E+06     31.1977E+06    -8.12554E+06    -161.141E-03     324.135E-03    -162.995E-03     46.4870E-03    -161.430E-03     324.089E-03    -162.738E-03     45.2917E-03
             951     10.7106E-03     122.046E-03    -34.7212E+06    -6.50697E+06     39.8493E+06    -7.79097E+06    -160.969E-03     323.814E-03    -162.845E-03     48.2167E-03    -161.287E-03     323.870E-03    -162.586E-03     46.7311E-03
             952     11.4773E-03     122.108E-03    -28.1338E+06     15.1513E+06     48.1431E+06    -7.58597E+06    -160.906E-03     323.611E-03    -162.705E-03     49.1117E-03    -161.257E-03     323.776E-03    -162.446E-03     47.3296E-03
             953     12.2431E-03     122.168E-03    -21.7533E+06     55.3886E+06     57.4181E+06    -5.46480E+06    -160.654E-03     323.208E-03    -162.554E-03     48.7486E-03    -161.066E-03     323.573E-03    -162.316E-03     46.6945E-03
             954     13.0090E-03     122.227E-03    -15.1088E+06     101.240E+06     71.4858E+06    -2.51953E+06    -160.254E-03     322.675E-03    -162.421E-03     47.3230E-03    -160.737E-03     323.257E-03    -162.189E-03     45.0364E-03
             955     13.7764E-03     122.285E-03    -9.19785E+06     120.481E+06     84.3132E+06    -1.51752E+06    -160.594E-03     322.936E-03    -162.342E-03     43.4020E-03    -161.119E-03     323.612E-03    -162.082E-03     40.6660E-03
             956     14.5420E-03     122.327E-03    -4.55924E+06     121.921E+06     87.9091E+06    -1.14084E+06    -160.523E-03     322.796E-03    -162.272E-03     34.2104E-03    -161.010E-03     323.444E-03    -162.003E-03     31.4177E-03
             957     763.662E-06     122.866E-03    -132.868E+06    -223.456E+06    -130.357E+06    -912.816E+03    -164.177E-03     328.746E-03    -164.569E-03     4.39597E-03    -164.324E-03     328.016E-03    -164.704E-03     4.45436E-03
             958     1.52661E-03     122.875E-03    -127.976E+06    -213.419E+06    -116.956E+06    -1.86831E+06    -164.560E-03     329.017E-03    -164.457E-03     8.20971E-03    -164.720E-03     328.305E-03    -164.547E-03     8.29155E-03
             959     2.29000E-03     122.889E-03    -121.466E+06    -199.732E+06    -99.1874E+06    -2.78600E+06    -164.213E-03     328.731E-03    -164.518E-03     11.7757E-03    -164.386E-03     328.052E-03    -164.548E-03     11.8921E-03
             960     3.05383E-03     122.911E-03    -114.384E+06    -180.059E+06    -82.9045E+06    -3.35040E+06    -163.430E-03     327.846E-03    -164.416E-03     16.2554E-03    -163.622E-03     327.233E-03    -164.403E-03     16.3647E-03
             961     3.81894E-03     122.938E-03    -106.399E+06    -158.141E+06    -66.0470E+06    -4.16880E+06    -162.808E-03     327.024E-03    -164.216E-03     20.9507E-03    -163.017E-03     326.485E-03    -164.163E-03     21.0166E-03
             962     4.58341E-03     122.968E-03    -97.8733E+06    -140.605E+06    -48.5362E+06    -5.75509E+06    -162.719E-03     326.753E-03    -164.034E-03     25.0459E-03    -162.938E-03     326.266E-03    -163.931E-03     25.0456E-03
             963     5.34767E-03     123.001E-03    -89.2038E+06    -125.486E+06    -32.5610E+06    -7.38617E+06    -162.512E-03     326.396E-03    -163.885E-03     29.3765E-03    -162.737E-03     325.954E-03    -163.736E-03     29.2558E-03
             964     6.11359E-03     123.041E-03    -80.6897E+06    -107.687E+06    -18.8227E+06    -8.38504E+06    -162.250E-03     325.981E-03    -163.730E-03     33.7731E-03    -162.485E-03     325.601E-03    -163.551E-03     33.5244E-03
             965     6.87997E-03     123.086E-03    -72.6726E+06    -90.2213E+06    -7.86675E+06    -9.52250E+06    -162.391E-03     325.979E-03    -163.588E-03     36.5321E-03    -162.632E-03     325.665E-03    -163.391E-03     36.1525E-03
             966     7.64426E-03     123.132E-03    -64.8252E+06    -74.0725E+06     2.77203E+06    -10.0886E+06    -162.253E-03     325.727E-03    -163.474E-03     39.2522E-03    -162.503E-03     325.476E-03    -163.259E-03     38.7158E-03
             967     8.40945E-03     123.185E-03    -57.1863E+06    -58.0602E+06     13.0612E+06    -10.4925E+06    -161.618E-03     324.961E-03    -163.343E-03     41.7380E-03    -161.879E-03     324.775E-03    -163.111E-03     41.0132E-03
             968     9.17642E-03     123.239E-03    -49.9502E+06    -43.9863E+06     21.7403E+06    -11.1135E+06    -161.315E-03     324.504E-03    -163.189E-03     43.4638E-03    -161.587E-03     324.379E-03    -162.944E-03     42.5088E-03
             969     9.94306E-03     123.297E-03    -42.5551E+06    -26.7654E+06     30.6455E+06    -11.2879E+06    -161.352E-03     324.396E-03    -163.044E-03     45.1494E-03    -161.640E-03     324.350E-03    -162.790E-03     43.9450E-03
             970     10.7078E-03     123.356E-03    -35.1820E+06    -6.12565E+06     39.4850E+06    -10.9631E+06    -161.060E-03     323.966E-03    -162.906E-03     46.1889E-03    -161.373E-03     324.018E-03    -162.649E-03     44.7229E-03
             971     11.4747E-03     123.417E-03    -28.2735E+06     14.5984E+06     47.8793E+06    -10.0381E+06    -160.565E-03     323.325E-03    -162.760E-03     46.9183E-03    -160.906E-03     323.478E-03    -162.501E-03     45.1821E-03
             972     12.2422E-03     123.478E-03    -22.4027E+06     49.8837E+06     56.2770E+06    -7.68708E+06    -160.165E-03     322.752E-03    -162.587E-03     46.9080E-03    -160.562E-03     323.083E-03    -162.345E-03     44.8972E-03
             973     13.0095E-03     123.536E-03    -17.0246E+06     96.7222E+06     69.4682E+06    -4.19089E+06    -159.749E-03     322.170E-03    -162.421E-03     46.0140E-03    -160.225E-03     322.727E-03    -162.189E-03     43.7626E-03
             974     13.7776E-03     123.591E-03    -11.1028E+06     120.096E+06     81.0735E+06    -2.32874E+06    -159.862E-03     322.158E-03    -162.297E-03     42.7372E-03    -160.386E-03     322.834E-03    -162.049E-03     40.0330E-03
             975     14.5444E-03     123.642E-03    -5.29203E+06     120.416E+06     84.7494E+06    -1.36744E+06    -160.449E-03     322.657E-03    -162.208E-03     32.6251E-03    -160.923E-03     323.294E-03    -161.951E-03     29.9042E-03
             976     763.693E-06     124.183E-03    -133.143E+06    -219.487E+06    -130.192E+06    -1.65600E+06    -164.322E-03     328.527E-03    -164.206E-03     5.46816E-03    -164.477E-03     327.817E-03    -164.345E-03     5.50262E-03
             977     1.52666E-03     124.192E-03    -128.757E+06    -209.807E+06    -118.064E+06    -2.50556E+06    -164.628E-03     329.004E-03    -164.376E-03     10.1236E-03    -164.796E-03     328.312E-03    -164.475E-03     10.1877E-03
             978     2.28897E-03     124.207E-03    -122.196E+06    -197.847E+06    -100.668E+06    -2.90835E+06    -164.513E-03     329.029E-03    -164.517E-03     14.5422E-03    -164.691E-03     328.363E-03    -164.556E-03     14.6226E-03
             979     3.05239E-03     124.226E-03    -113.879E+06    -177.291E+06    -81.5811E+06    -3.59494E+06    -163.480E-03     327.948E-03    -164.468E-03     18.0986E-03    -163.674E-03     327.345E-03    -164.454E-03     18.2007E-03
             980     3.81776E-03     124.250E-03    -105.157E+06    -153.830E+06    -64.3485E+06    -4.95189E+06    -162.264E-03     326.474E-03    -164.210E-03     21.8584E-03    -162.475E-03     325.952E-03    -164.156E-03     21.9473E-03
             981     4.58424E-03     124.281E-03    -96.5852E+06    -135.654E+06    -47.3421E+06    -6.25258E+06    -162.092E-03     326.017E-03    -163.925E-03     25.7484E-03    -162.313E-03     325.551E-03    -163.825E-03     25.7830E-03
             982     5.34980E-03     124.315E-03    -88.1102E+06    -121.662E+06    -31.6078E+06    -7.68750E+06    -162.602E-03     326.350E-03    -163.748E-03     29.3450E-03    -162.827E-03     325.922E-03    -163.602E-03     29.2864E-03
             983     6.11449E-03     124.353E-03    -79.9060E+06    -104.416E+06    -18.0552E+06    -9.10016E+06    -162.661E-03     326.303E-03    -163.642E-03     32.7972E-03    -162.895E-03     325.936E-03    -163.465E-03     32.6087E-03
             984     6.87912E-03     124.399E-03    -72.0407E+06    -85.6139E+06    -6.44589E+06    -10.4128E+06    -162.416E-03     325.956E-03    -163.540E-03     35.4893E-03    -162.662E-03     325.661E-03    -163.344E-03     35.1374E-03
             985     7.64464E-03     124.446E-03    -64.4758E+06    -71.2764E+06     3.71451E+06    -11.5611E+06    -162.331E-03     325.770E-03    -163.439E-03     38.5384E-03    -162.584E-03     325.530E-03    -163.224E-03     38.0006E-03
             986     8.41010E-03     124.496E-03    -56.8605E+06    -55.9804E+06     13.5688E+06    -12.1572E+06    -162.149E-03     325.488E-03    -163.339E-03     41.6295E-03    -162.412E-03     325.310E-03    -163.107E-03     40.9008E-03
             987     9.17515E-03     124.550E-03    -49.7243E+06    -40.8339E+06     22.4727E+06    -12.8407E+06    -161.833E-03     325.062E-03    -163.228E-03     43.8582E-03    -162.109E-03     324.950E-03    -162.985E-03     42.8995E-03
             988     9.94060E-03     124.608E-03    -43.0585E+06    -25.1679E+06     30.5313E+06    -13.4640E+06    -161.393E-03     324.494E-03    -163.101E-03     45.7866E-03    -161.687E-03     324.457E-03    -162.849E-03     44.5646E-03
             989     10.7079E-03     124.667E-03    -37.0169E+06    -5.92944E+06     38.2460E+06    -13.4516E+06    -161.078E-03     324.036E-03    -162.957E-03     47.5767E-03    -161.401E-03     324.095E-03    -162.704E-03     46.0760E-03
             990     11.4740E-03     124.726E-03    -30.5247E+06     13.7111E+06     46.4234E+06    -13.0539E+06    -160.771E-03     323.584E-03    -162.813E-03     48.3091E-03    -161.122E-03     323.741E-03    -162.557E-03     46.5303E-03
             991     12.2409E-03     124.786E-03    -23.2017E+06     43.6414E+06     54.4730E+06    -10.1522E+06    -160.122E-03     322.766E-03    -162.644E-03     47.1302E-03    -160.510E-03     323.069E-03    -162.401E-03     45.1001E-03
             992     13.0090E-03     124.844E-03    -16.2641E+06     91.4967E+06     68.1377E+06    -6.03739E+06    -159.782E-03     322.255E-03    -162.473E-03     45.4112E-03    -160.241E-03     322.784E-03    -162.241E-03     43.1548E-03
             993     13.7751E-03     124.901E-03    -10.0809E+06     118.979E+06     79.1598E+06    -3.61561E+06    -159.649E-03     321.981E-03    -162.332E-03     42.0748E-03    -160.160E-03     322.649E-03    -162.094E-03     39.3881E-03
             994     14.5428E-03     124.949E-03    -4.74927E+06     118.076E+06     82.2002E+06    -2.20686E+06    -159.544E-03     321.755E-03    -162.211E-03     32.2044E-03    -160.005E-03     322.380E-03    -161.965E-03     29.5104E-03
             995     763.545E-06     125.498E-03    -133.443E+06    -215.753E+06    -130.270E+06    -830.409E+03    -164.138E-03     328.314E-03    -164.176E-03     4.77382E-03    -164.300E-03     327.623E-03    -164.321E-03     4.83637E-03
             996     1.52819E-03     125.508E-03    -130.024E+06    -205.451E+06    -118.946E+06    -2.33381E+06    -163.643E-03     327.737E-03    -164.094E-03     9.42993E-03    -163.823E-03     327.071E-03    -164.202E-03     9.53172E-03
             997     2.29297E-03     125.524E-03    -123.087E+06    -193.908E+06    -102.014E+06    -4.08991E+06    -163.502E-03     327.482E-03    -163.979E-03     14.2126E-03    -163.689E-03     326.838E-03    -164.030E-03     14.3215E-03
             998     3.05668E-03     125.542E-03    -114.791E+06    -173.936E+06    -82.7883E+06    -5.11045E+06    -163.464E-03     327.383E-03    -163.920E-03     18.1699E-03    -163.666E-03     326.801E-03    -163.915E-03     18.2854E-03
             999     3.82008E-03     125.564E-03    -106.214E+06    -150.437E+06    -63.8709E+06    -5.78664E+06    -163.059E-03     326.911E-03    -163.853E-03     22.0127E-03    -163.280E-03     326.407E-03    -163.800E-03     22.1142E-03
            1000     4.58473E-03     125.592E-03    -97.3366E+06    -131.605E+06    -46.7346E+06    -6.69923E+06    -162.656E-03     326.402E-03    -163.746E-03     25.7521E-03    -162.888E-03     325.956E-03    -163.648E-03     25.8033E-03
            1001     5.34999E-03     125.628E-03    -88.8667E+06    -116.746E+06    -31.4560E+06    -8.23704E+06    -162.818E-03     326.470E-03    -163.651E-03     28.9027E-03    -163.054E-03     326.067E-03    -163.510E-03     28.8671E-03
            1002     6.11402E-03     125.668E-03    -80.1579E+06    -99.5928E+06    -17.1262E+06    -10.1444E+06    -162.731E-03     326.312E-03    -163.581E-03     32.4063E-03    -162.974E-03     325.967E-03    -163.406E-03     32.2339E-03
            1003     6.87907E-03     125.711E-03    -71.2252E+06    -81.5875E+06    -4.63631E+06    -11.6596E+06    -162.293E-03     325.781E-03    -163.488E-03     36.2809E-03    -162.543E-03     325.501E-03    -163.289E-03     35.9379E-03
            1004     7.64487E-03     125.758E-03    -63.3473E+06    -67.5570E+06     5.45031E+06    -12.6417E+06    -162.238E-03     325.617E-03    -163.379E-03     39.2154E-03    -162.492E-03     325.390E-03    -163.162E-03     38.6998E-03
            1005     8.41038E-03     125.809E-03    -56.1837E+06    -52.8758E+06     14.6540E+06     -13.451E+06    -162.307E-03     325.591E-03    -163.284E-03     41.7972E-03    -162.570E-03     325.425E-03    -163.053E-03     41.0862E-03
            1006     9.17600E-03     125.863E-03    -49.2154E+06    -38.0355E+06     23.2002E+06    -14.0403E+06    -161.917E-03     325.104E-03    -163.187E-03     44.2819E-03    -162.194E-03     325.004E-03    -162.944E-03     43.3381E-03
            1007     9.94229E-03     125.918E-03    -42.8737E+06    -22.7907E+06     30.9893E+06    -14.6047E+06    -161.217E-03     324.274E-03    -163.057E-03     46.4415E-03    -161.513E-03     324.247E-03    -162.807E-03     45.2318E-03
            1008     10.7084E-03     125.976E-03    -36.5399E+06    -5.14034E+06     38.3873E+06    -14.6369E+06    -160.912E-03     323.815E-03    -162.903E-03     48.4693E-03    -161.233E-03     323.877E-03    -162.651E-03     46.9679E-03
            1009     11.4754E-03     126.037E-03    -30.9764E+06     14.8581E+06     46.4097E+06    -14.2976E+06    -161.003E-03     323.766E-03    -162.763E-03     49.0495E-03    -161.358E-03     323.929E-03    -162.507E-03     47.2653E-03
            1010     12.2414E-03     126.095E-03    -25.0239E+06     40.0747E+06     52.9905E+06    -14.2341E+06    -161.012E-03     323.643E-03    -162.632E-03     48.0173E-03    -161.403E-03     323.934E-03    -162.388E-03     45.9305E-03
            1011     13.0073E-03     126.153E-03    -16.5935E+06     83.7076E+06     65.9252E+06    -10.9728E+06    -160.354E-03     322.857E-03    -162.503E-03     46.2936E-03    -160.804E-03     323.354E-03    -162.271E-03     43.9449E-03
            1012     13.7756E-03     126.209E-03    -8.45700E+06     114.575E+06     76.6116E+06    -5.74138E+06    -159.271E-03     321.626E-03    -162.355E-03     42.8768E-03    -159.769E-03     322.278E-03    -162.126E-03     40.1381E-03
            1013     14.5426E-03     126.257E-03    -3.06438E+06     114.765E+06     79.6691E+06    -2.37450E+06    -158.816E-03     321.016E-03    -162.200E-03     33.7848E-03    -159.268E-03     321.633E-03    -161.964E-03     31.0481E-03
            1014     763.203E-06     126.815E-03    -133.142E+06    -213.533E+06    -130.467E+06    -398.812E+03    -163.892E-03     328.155E-03    -164.263E-03     4.57264E-03    -164.055E-03     327.475E-03    -164.413E-03     4.64002E-03
            1015     1.52659E-03     126.822E-03    -129.063E+06    -200.723E+06    -118.026E+06    -1.54240E+06    -163.265E-03     327.221E-03    -163.956E-03     8.57552E-03    -163.448E-03     326.576E-03    -164.068E-03     8.69559E-03
            1016     2.29132E-03     126.837E-03    -122.804E+06    -187.744E+06    -100.645E+06    -4.04195E+06    -162.574E-03     326.257E-03    -163.682E-03     12.6279E-03    -162.770E-03     325.642E-03    -163.735E-03     12.7620E-03
            1017     3.05717E-03     126.855E-03    -114.769E+06    -169.985E+06    -82.1639E+06    -5.90320E+06    -162.686E-03     326.166E-03    -163.481E-03     16.8581E-03    -162.894E-03     325.602E-03    -163.478E-03     16.9828E-03
            1018     3.82200E-03     126.879E-03    -106.404E+06    -147.354E+06    -63.1050E+06    -6.31656E+06    -163.280E-03     326.720E-03    -163.441E-03     21.2519E-03    -163.508E-03     326.231E-03    -163.388E-03     21.3654E-03
            1019     4.58562E-03     126.906E-03    -97.3795E+06    -127.399E+06    -45.0489E+06    -7.50391E+06    -163.433E-03     326.920E-03    -163.488E-03     26.3302E-03    -163.673E-03     326.493E-03    -163.387E-03     26.3862E-03
            1020     5.34935E-03     126.942E-03    -87.9410E+06    -110.609E+06    -29.6353E+06    -9.87541E+06    -163.008E-03     326.507E-03    -163.499E-03     30.2637E-03    -163.251E-03     326.131E-03    -163.359E-03     30.2169E-03
            1021     6.11533E-03     126.980E-03    -78.8300E+06    -94.1797E+06    -15.4114E+06    -11.8641E+06    -162.463E-03     325.906E-03    -163.443E-03     32.7782E-03    -162.709E-03     325.582E-03    -163.270E-03     32.6201E-03
            1022     6.88135E-03     127.023E-03    -70.5265E+06    -77.9719E+06    -3.18973E+06    -12.8542E+06    -162.337E-03     325.690E-03    -163.353E-03     36.2227E-03    -162.589E-03     325.424E-03    -163.154E-03     35.9198E-03
            1023     7.64614E-03     127.070E-03    -62.6104E+06    -63.4921E+06     7.02065E+06    -13.7594E+06    -162.465E-03     325.737E-03    -163.272E-03     39.2921E-03    -162.722E-03     325.526E-03    -163.054E-03     38.8061E-03
            1024     8.41116E-03     127.121E-03    -54.9249E+06    -49.0900E+06     16.1619E+06    -14.9166E+06    -162.199E-03     325.391E-03    -163.192E-03     41.6825E-03    -162.463E-03     325.239E-03    -162.960E-03     40.9788E-03
            1025     9.17673E-03     127.174E-03    -47.3568E+06    -35.4975E+06     24.5751E+06    -15.6249E+06    -161.615E-03     324.701E-03    -163.087E-03     43.7845E-03    -161.886E-03     324.607E-03    -162.844E-03     42.8536E-03
            1026     9.94293E-03     127.228E-03    -40.2703E+06    -20.0953E+06     32.6495E+06    -15.6515E+06    -161.294E-03     324.250E-03    -162.957E-03     45.9349E-03    -161.580E-03     324.228E-03    -162.706E-03     44.7471E-03
            1027     10.7097E-03     127.287E-03    -34.0877E+06    -3.28829E+06     39.8833E+06    -15.8005E+06    -161.100E-03     323.920E-03    -162.820E-03     48.0036E-03    -161.411E-03     323.983E-03    -162.566E-03     46.5215E-03
            1028     11.4760E-03     127.346E-03    -27.7426E+06     15.4549E+06     47.7012E+06    -15.3769E+06    -160.822E-03     323.507E-03    -162.685E-03     48.8448E-03    -161.161E-03     323.665E-03    -162.429E-03     47.0668E-03
            1029     12.2427E-03     127.406E-03    -21.5705E+06     44.0205E+06     55.6846E+06    -16.4047E+06    -160.640E-03     323.182E-03    -162.542E-03     49.1039E-03    -161.027E-03     323.488E-03    -162.297E-03     46.9683E-03
            1030     13.0087E-03     127.464E-03    -16.2988E+06     77.3422E+06     65.1232E+06    -15.6005E+06    -160.449E-03     322.859E-03    -162.410E-03     48.5658E-03    -160.898E-03     323.335E-03    -162.173E-03     46.0965E-03
            1031     13.7749E-03     127.516E-03    -10.4951E+06     101.585E+06     70.0003E+06    -8.57754E+06    -159.756E-03     322.021E-03    -162.264E-03     44.2586E-03    -160.243E-03     322.627E-03    -162.046E-03     41.4318E-03
            1032     14.5446E-03     127.564E-03    -4.98899E+06     109.856E+06     75.4437E+06    -2.44658E+06    -159.201E-03     321.336E-03    -162.135E-03     34.3177E-03    -159.652E-03     321.940E-03    -161.910E-03     31.5566E-03
            1033     764.293E-06     128.130E-03    -131.960E+06    -211.168E+06    -128.996E+06    -996.243E+03    -163.151E-03     326.643E-03    -163.492E-03     5.06106E-03    -163.314E-03     325.972E-03    -163.640E-03     5.12154E-03
            1034     1.52869E-03     128.138E-03    -127.075E+06    -197.320E+06    -116.077E+06    -1.66255E+06    -163.059E-03     326.367E-03    -163.309E-03     9.53552E-03    -163.239E-03     325.733E-03    -163.419E-03     9.64498E-03
            1035     2.29312E-03     128.149E-03    -120.518E+06    -180.780E+06    -97.6288E+06    -3.52676E+06    -162.590E-03     325.812E-03    -163.222E-03     13.7377E-03    -162.788E-03     325.224E-03    -163.273E-03     13.8776E-03
            1036     3.05788E-03     128.167E-03    -112.900E+06    -164.988E+06    -78.5311E+06    -5.75329E+06    -162.410E-03     325.526E-03    -163.116E-03     18.2269E-03    -162.622E-03     324.979E-03    -163.106E-03     18.3588E-03
            1037     3.82299E-03     128.192E-03    -103.917E+06    -143.871E+06    -60.2226E+06    -6.92638E+06    -162.918E-03     326.000E-03    -163.082E-03     22.3177E-03    -163.142E-03     325.520E-03    -163.024E-03     22.4342E-03
            1038     4.58786E-03     128.221E-03    -94.6710E+06    -121.745E+06    -42.4776E+06    -8.47631E+06    -163.315E-03     326.456E-03    -163.141E-03     26.4393E-03    -163.552E-03     326.048E-03    -163.040E-03     26.5165E-03
            1039     5.35286E-03     128.256E-03    -85.4492E+06    -103.519E+06    -26.4799E+06    -10.7661E+06    -163.100E-03     326.301E-03    -163.201E-03     30.0967E-03    -163.345E-03     325.951E-03    -163.059E-03     30.0832E-03
            1040     6.11666E-03     128.293E-03    -76.9073E+06    -89.0970E+06    -13.1622E+06    -12.7988E+06    -162.960E-03     326.178E-03    -163.218E-03     32.7640E-03    -163.206E-03     325.873E-03    -163.043E-03     32.6265E-03
            1041     6.88092E-03     128.335E-03    -68.4179E+06    -74.3307E+06    -1.39761E+06    -14.1016E+06    -162.770E-03     325.976E-03    -163.205E-03     35.9678E-03    -163.019E-03     325.722E-03    -163.005E-03     35.6781E-03
            1042     7.64655E-03     128.383E-03    -60.2288E+06    -58.4466E+06     9.09063E+06    -15.4597E+06    -162.300E-03     325.453E-03    -163.153E-03     39.1389E-03    -162.555E-03     325.260E-03    -162.935E-03     38.6565E-03
            1043     8.41201E-03     128.433E-03    -52.7910E+06    -45.3095E+06     17.9346E+06    -16.5948E+06    -161.829E-03     324.890E-03    -163.061E-03     41.5875E-03    -162.089E-03     324.750E-03    -162.829E-03     40.8908E-03
            1044     9.17825E-03     128.485E-03    -45.2775E+06    -31.8493E+06     26.3738E+06    -17.3764E+06    -161.543E-03     324.491E-03    -162.948E-03     43.9240E-03    -161.810E-03     324.408E-03    -162.704E-03     42.9905E-03
            1045     9.94444E-03     128.539E-03    -38.0349E+06    -18.0913E+06     33.9028E+06    -17.8743E+06    -161.471E-03     324.302E-03    -162.831E-03     46.3284E-03    -161.750E-03     324.283E-03    -162.580E-03     45.1263E-03
            1046     10.7100E-03     128.597E-03    -31.0759E+06    -1.27864E+06     41.4089E+06    -17.6776E+06    -161.165E-03     323.876E-03    -162.711E-03     48.3143E-03    -161.465E-03     323.941E-03    -162.457E-03     46.8307E-03
            1047     11.4766E-03     128.656E-03    -24.2213E+06     16.7243E+06     49.3574E+06    -18.1072E+06    -160.461E-03     323.035E-03    -162.574E-03     49.4589E-03    -160.789E-03     323.193E-03    -162.316E-03     47.6400E-03
            1048     12.2440E-03     128.715E-03    -17.7289E+06     47.3668E+06     58.1490E+06    -17.7453E+06    -159.855E-03     322.256E-03    -162.401E-03     49.4619E-03    -160.234E-03     322.572E-03    -162.153E-03     47.2957E-03
            1049     13.0134E-03     128.772E-03    -13.7256E+06     70.0885E+06     65.5239E+06    -14.1143E+06    -160.023E-03     322.270E-03    -162.247E-03     48.4163E-03    -160.449E-03     322.706E-03    -162.001E-03     45.9657E-03
            1050     13.7801E-03     128.828E-03    -11.2654E+06     89.8231E+06     67.3331E+06    -8.63803E+06    -160.671E-03     322.789E-03    -162.118E-03     44.1508E-03    -161.141E-03     323.343E-03    -161.896E-03     41.2884E-03
            1051     14.5440E-03     128.870E-03    -6.35746E+06     105.712E+06     72.8754E+06    -4.77284E+06    -160.726E-03     322.778E-03    -162.051E-03     34.5147E-03    -161.178E-03     323.370E-03    -161.831E-03     31.6607E-03
            1052     765.230E-06     129.442E-03    -129.795E+06    -207.620E+06    -127.285E+06    -2.14856E+06    -161.613E-03     324.239E-03    -162.625E-03     5.08003E-03    -161.772E-03     323.580E-03    -162.773E-03     5.13919E-03
            1053     1.53027E-03     129.450E-03    -125.066E+06    -193.591E+06    -114.485E+06    -2.94523E+06    -162.550E-03     324.792E-03    -162.242E-03     9.44718E-03    -162.728E-03     324.171E-03    -162.352E-03     9.55512E-03
            1054     2.29524E-03     129.462E-03    -118.137E+06    -175.336E+06    -95.9980E+06    -3.82321E+06    -162.745E-03     325.192E-03    -162.447E-03     13.3188E-03    -162.942E-03     324.625E-03    -162.501E-03     13.4768E-03
            1055     3.06009E-03     129.479E-03    -109.796E+06    -159.006E+06    -74.7450E+06    -5.28788E+06    -162.766E-03     325.378E-03    -162.612E-03     18.0893E-03    -162.976E-03     324.850E-03    -162.596E-03     18.2541E-03
            1056     3.82493E-03     129.504E-03    -100.745E+06    -139.044E+06    -56.0845E+06    -7.81232E+06    -162.922E-03     325.648E-03    -162.726E-03     22.6865E-03    -163.144E-03     325.181E-03    -162.659E-03     22.8101E-03
            1057     4.58895E-03     129.535E-03    -91.4598E+06    -115.948E+06    -39.4609E+06     -9.4352E+06    -163.035E-03     325.853E-03    -162.818E-03     26.0837E-03    -163.269E-03     325.465E-03    -162.715E-03     26.1736E-03
            1058     5.35306E-03     129.568E-03    -82.7720E+06    -97.2506E+06    -23.5083E+06    -10.8948E+06    -162.930E-03     325.823E-03    -162.892E-03     29.6598E-03    -163.174E-03     325.495E-03    -162.749E-03     29.6662E-03
            1059     6.11855E-03     129.607E-03    -74.4701E+06    -82.9146E+06    -10.2866E+06    -13.0920E+06    -163.050E-03     325.992E-03    -162.942E-03     33.5129E-03    -163.297E-03     325.710E-03    -162.765E-03     33.3715E-03
            1060     6.88303E-03     129.649E-03    -66.4580E+06    -69.1538E+06     930.730E+03    -15.1053E+06    -163.018E-03     325.994E-03    -162.976E-03     36.8586E-03    -163.267E-03     325.759E-03    -162.775E-03     36.5567E-03
            1061     7.64766E-03     129.695E-03    -58.9094E+06    -53.4745E+06     11.0567E+06    -16.4739E+06    -162.300E-03     325.258E-03    -162.958E-03     39.6123E-03    -162.558E-03     325.085E-03    -162.740E-03     39.1236E-03
            1062     8.41407E-03     129.744E-03    -51.5709E+06    -40.3056E+06     19.9451E+06    -17.9238E+06    -161.740E-03     324.620E-03    -162.880E-03     41.6834E-03    -162.003E-03     324.499E-03    -162.647E-03     40.9906E-03
            1063     9.17996E-03     129.796E-03    -44.3749E+06    -27.4985E+06     27.8730E+06    -19.5761E+06    -161.698E-03     324.481E-03    -162.784E-03     43.7040E-03    -161.967E-03     324.415E-03    -162.540E-03     42.7729E-03
            1064     9.94580E-03     129.850E-03    -37.0728E+06    -14.9658E+06     35.0294E+06    -20.7144E+06    -161.472E-03     324.158E-03    -162.686E-03     45.8464E-03    -161.750E-03     324.150E-03    -162.435E-03     44.6388E-03
            1065     10.7126E-03     129.907E-03    -29.9049E+06     35.2081E+03     42.0925E+06    -20.6506E+06    -160.972E-03     323.543E-03    -162.571E-03     47.6684E-03    -161.267E-03     323.610E-03    -162.317E-03     46.1713E-03
            1066     11.4796E-03     129.965E-03    -23.4686E+06     20.3058E+06     50.5508E+06    -20.5177E+06    -160.540E-03     322.981E-03    -162.441E-03     48.1925E-03    -160.866E-03     323.149E-03    -162.183E-03     46.3851E-03
            1067     12.2470E-03     130.022E-03    -18.5883E+06     44.0129E+06     58.1976E+06    -18.6864E+06    -160.265E-03     322.566E-03    -162.301E-03     47.5801E-03    -160.635E-03     322.858E-03    -162.047E-03     45.4488E-03
            1068     13.0122E-03     130.080E-03    -13.2674E+06     58.5274E+06     64.1103E+06    -12.9011E+06    -160.230E-03     322.407E-03    -162.177E-03     46.2818E-03    -160.625E-03     322.776E-03    -161.922E-03     43.8952E-03
            1069     13.7799E-03     130.135E-03    -7.48025E+06     87.3018E+06     66.5568E+06    -8.84823E+06    -160.708E-03     322.754E-03    -162.046E-03     42.4268E-03    -161.146E-03     323.283E-03    -161.829E-03     39.6066E-03
            1070     14.5473E-03     130.185E-03    -3.47410E+06     100.897E+06     69.1142E+06    -6.11935E+06    -161.299E-03     323.287E-03    -161.988E-03     33.0932E-03    -161.716E-03     323.850E-03    -161.784E-03     30.2610E-03
            1071     766.411E-06     130.751E-03    -127.334E+06    -202.073E+06    -124.284E+06    -1.97241E+06    -160.524E-03     322.286E-03    -161.762E-03     5.62976E-03    -160.682E-03     321.647E-03    -161.906E-03     5.69454E-03
            1072     1.53193E-03     130.761E-03    -123.367E+06    -188.673E+06    -112.688E+06    -3.27310E+06    -161.899E-03     323.226E-03    -161.327E-03     10.1439E-03    -162.078E-03     322.624E-03    -161.438E-03     10.2491E-03
            1073     2.29647E-03     130.773E-03    -117.140E+06    -170.281E+06    -94.8737E+06    -4.95087E+06    -162.684E-03     324.389E-03    -161.705E-03     14.1797E-03    -162.884E-03     323.844E-03    -161.763E-03     14.3167E-03
            1074     3.06091E-03     130.792E-03    -107.851E+06    -153.250E+06    -73.9700E+06    -6.83223E+06    -163.151E-03     325.242E-03    -162.091E-03     18.6385E-03    -163.361E-03     324.739E-03    -162.082E-03     18.7833E-03
            1075     3.82516E-03     130.817E-03    -97.9798E+06    -132.955E+06    -53.5874E+06    -8.52148E+06    -162.919E-03     325.278E-03    -162.358E-03     23.0282E-03    -163.139E-03     324.833E-03    -162.292E-03     23.1525E-03
            1076     4.59052E-03     130.847E-03    -88.6022E+06    -110.823E+06    -35.8383E+06    -10.0202E+06    -162.590E-03     325.074E-03    -162.483E-03     26.7722E-03    -162.822E-03     324.702E-03    -162.373E-03     26.8524E-03
            1077     5.35592E-03     130.881E-03    -79.7813E+06    -92.5044E+06    -20.6212E+06    -10.8852E+06    -162.596E-03     325.141E-03    -162.544E-03     30.4150E-03    -162.836E-03     324.829E-03    -162.398E-03     30.4250E-03
            1078     6.12042E-03     130.919E-03    -71.8235E+06    -75.7339E+06    -6.97123E+06    -12.4032E+06    -162.649E-03     325.238E-03    -162.589E-03     34.4118E-03    -162.898E-03     324.983E-03    -162.410E-03     34.2857E-03
            1079     6.88557E-03     130.962E-03    -64.4898E+06    -62.4863E+06     4.43484E+06    -14.8202E+06    -162.823E-03     325.453E-03    -162.630E-03     37.4821E-03    -163.077E-03     325.244E-03    -162.424E-03     37.1871E-03
            1080     7.65062E-03     131.007E-03    -57.2179E+06    -48.2517E+06     13.9724E+06    -16.9888E+06    -162.753E-03     325.411E-03    -162.658E-03     39.5334E-03    -163.013E-03     325.256E-03    -162.435E-03     39.0566E-03
            1081     8.41548E-03     131.054E-03    -49.6315E+06    -33.9814E+06     22.6564E+06    -19.1069E+06    -162.384E-03     325.039E-03    -162.655E-03     41.6986E-03    -162.649E-03     324.941E-03    -162.420E-03     41.0078E-03
            1082     9.18114E-03     131.107E-03    -42.8387E+06    -22.3383E+06     30.0253E+06    -20.7778E+06    -162.117E-03     324.740E-03    -162.622E-03     43.5577E-03    -162.388E-03     324.692E-03    -162.377E-03     42.6333E-03
            1083     9.94695E-03     131.160E-03    -37.1883E+06    -10.5259E+06     36.2892E+06    -21.9311E+06    -161.706E-03     324.270E-03    -162.563E-03     44.7707E-03    -161.990E-03     324.278E-03    -162.313E-03     43.5923E-03
            1084     10.7132E-03     131.216E-03    -31.6607E+06     2.22559E+06     41.8934E+06    -22.8240E+06    -161.216E-03     323.692E-03    -162.476E-03     45.9787E-03    -161.516E-03     323.766E-03    -162.224E-03     44.5146E-03
            1085     11.4796E-03     131.274E-03    -25.7440E+06     21.8259E+06     49.6023E+06    -22.5301E+06    -161.005E-03     323.382E-03    -162.377E-03     46.5150E-03    -161.333E-03     323.552E-03    -162.123E-03     44.7696E-03
            1086     12.2451E-03     131.332E-03    -19.5650E+06     38.7799E+06     56.3286E+06    -19.7500E+06    -160.664E-03     322.938E-03    -162.274E-03     46.2907E-03    -161.019E-03     323.198E-03    -162.020E-03     44.2346E-03
            1087     13.0135E-03     131.388E-03    -13.2541E+06     50.8007E+06     61.6279E+06    -15.4804E+06    -160.517E-03     322.687E-03    -162.170E-03     46.5549E-03    -160.892E-03     323.017E-03    -161.917E-03     44.1997E-03
            1088     13.7790E-03     131.446E-03    -7.36405E+06     83.1611E+06     61.9657E+06    -11.1140E+06    -160.737E-03     322.768E-03    -162.031E-03     43.6644E-03    -161.162E-03     323.282E-03    -161.831E-03     40.8550E-03
            1089     14.5445E-03     131.493E-03    -3.23751E+06     92.2669E+06     63.6468E+06    -5.69342E+06    -160.851E-03     322.813E-03    -161.962E-03     33.5701E-03    -161.246E-03     323.339E-03    -161.773E-03     30.7871E-03
            1090     766.254E-06     132.057E-03    -123.190E+06    -197.475E+06    -120.509E+06    -603.982E+03    -160.728E-03     321.398E-03    -160.670E-03     5.52373E-03    -160.879E-03     320.770E-03    -160.808E-03     5.60435E-03
            1091     1.53288E-03     132.068E-03    -119.839E+06    -182.030E+06    -108.987E+06    -3.10557E+06    -161.100E-03     321.910E-03    -160.810E-03     10.1812E-03    -161.277E-03     321.332E-03    -160.917E-03     10.2796E-03
            1092     2.29905E-03     132.083E-03    -113.077E+06    -163.776E+06    -91.2411E+06    -5.52744E+06    -161.959E-03     323.055E-03    -161.096E-03     14.9484E-03    -162.153E-03     322.531E-03    -161.151E-03     15.0705E-03
            1093     3.06332E-03     132.104E-03    -105.267E+06    -146.284E+06    -71.6916E+06    -8.09428E+06    -162.675E-03     324.145E-03    -161.470E-03     20.0533E-03    -162.885E-03     323.670E-03    -161.464E-03     20.1604E-03
            1094     3.82760E-03     132.129E-03    -95.8265E+06    -127.151E+06    -51.6137E+06    -10.0301E+06    -162.678E-03     324.464E-03    -161.786E-03     24.3579E-03    -162.898E-03     324.042E-03    -161.721E-03     24.4496E-03
            1095     4.59261E-03     132.158E-03    -86.1592E+06    -106.671E+06    -33.1962E+06    -10.6968E+06    -162.452E-03     324.428E-03    -161.976E-03     28.0790E-03    -162.681E-03     324.069E-03    -161.863E-03     28.1350E-03
            1096     5.35763E-03     132.193E-03    -76.9216E+06    -88.3690E+06    -17.3482E+06    -11.2839E+06    -162.509E-03     324.603E-03    -162.094E-03     31.2266E-03    -162.745E-03     324.302E-03    -161.941E-03     31.2237E-03
            1097     6.12327E-03     132.230E-03    -67.9973E+06    -70.0003E+06    -3.01218E+06    -12.1278E+06    -162.564E-03     324.747E-03    -162.183E-03     34.6067E-03    -162.807E-03     324.509E-03    -161.998E-03     34.4988E-03
            1098     6.88859E-03     132.274E-03    -60.2648E+06    -55.6554E+06     8.64413E+06    -13.8344E+06    -162.605E-03     324.857E-03    -162.252E-03     37.6205E-03    -162.853E-03     324.668E-03    -162.040E-03     37.3638E-03
            1099     7.65332E-03     132.319E-03    -53.3224E+06    -41.1018E+06     18.3416E+06    -16.5352E+06    -162.887E-03     325.200E-03    -162.313E-03     39.7532E-03    -163.143E-03     325.067E-03    -162.084E-03     39.3216E-03
            1100     8.41800E-03     132.367E-03    -47.3285E+06    -27.8686E+06     25.9713E+06    -18.5303E+06    -163.021E-03     325.394E-03    -162.373E-03     42.2009E-03    -163.287E-03     325.318E-03    -162.134E-03     41.5549E-03
            1101     9.18283E-03     132.418E-03    -42.0014E+06    -17.2727E+06     32.2236E+06    -19.8394E+06    -162.644E-03     325.054E-03    -162.410E-03     44.1722E-03    -162.920E-03     325.026E-03    -162.163E-03     43.2978E-03
            1102     9.94808E-03     132.472E-03    -36.3885E+06    -4.84675E+06     38.4693E+06    -21.5797E+06    -162.197E-03     324.602E-03    -162.405E-03     45.4617E-03    -162.485E-03     324.632E-03    -162.153E-03     44.3391E-03
            1103     10.7136E-03     132.526E-03    -31.1370E+06     6.47840E+06     43.4336E+06    -23.1545E+06    -161.775E-03     324.139E-03    -162.364E-03     46.9480E-03    -162.077E-03     324.228E-03    -162.112E-03     45.5392E-03
            1104     11.4795E-03     132.584E-03    -26.1760E+06     21.7826E+06     49.5403E+06    -22.8881E+06    -161.113E-03     323.406E-03    -162.293E-03     48.1183E-03    -161.441E-03     323.575E-03    -162.039E-03     46.4326E-03
            1105     12.2469E-03     132.641E-03    -21.1543E+06     35.9261E+06     54.2296E+06    -20.9525E+06    -160.700E-03     322.892E-03    -162.192E-03     48.1311E-03    -161.054E-03     323.141E-03    -161.942E-03     46.1355E-03
            1106     13.0125E-03     132.697E-03    -15.7817E+06     48.0829E+06     59.3548E+06    -18.5501E+06    -160.739E-03     322.836E-03    -162.097E-03     48.5839E-03    -161.119E-03     323.159E-03    -161.847E-03     46.2472E-03
            1107     13.7804E-03     132.756E-03    -10.2569E+06     74.0800E+06     58.5966E+06    -14.4385E+06    -160.912E-03     322.886E-03    -161.974E-03     45.6831E-03    -161.339E-03     323.369E-03    -161.773E-03     42.8284E-03
            1108     14.5473E-03     132.803E-03    -4.86684E+06     79.7318E+06     60.3395E+06    -7.28001E+06    -160.905E-03     322.820E-03    -161.915E-03     34.8145E-03    -161.290E-03     323.296E-03    -161.722E-03     31.9942E-03
            1109     766.348E-06     133.365E-03    -119.154E+06    -192.294E+06    -117.602E+06    -2.57320E+06    -161.099E-03     321.369E-03    -160.270E-03     5.31924E-03    -161.242E-03     320.758E-03    -160.407E-03     5.37793E-03
            1110     1.53250E-03     133.375E-03    -114.122E+06    -175.280E+06    -104.795E+06    -4.01651E+06    -160.725E-03     321.446E-03    -160.720E-03     10.1486E-03    -160.890E-03     320.887E-03    -160.825E-03     10.2266E-03
            1111     2.29853E-03     133.392E-03    -107.853E+06    -157.862E+06    -86.7387E+06    -5.43542E+06    -160.951E-03     321.766E-03    -160.814E-03     14.9179E-03    -161.135E-03     321.258E-03    -160.863E-03     15.0352E-03
            1112     3.06538E-03     133.413E-03    -100.349E+06    -137.771E+06    -66.3986E+06    -7.49652E+06    -161.297E-03     322.257E-03    -160.960E-03     19.4956E-03    -161.502E-03     321.809E-03    -160.947E-03     19.6188E-03
            1113     3.83138E-03     133.439E-03    -91.8868E+06    -120.059E+06    -46.7422E+06    -10.2651E+06    -161.774E-03     322.918E-03    -161.144E-03     24.0116E-03    -161.991E-03     322.519E-03    -161.071E-03     24.1051E-03
            1114     4.59614E-03     133.469E-03    -82.8058E+06    -102.900E+06    -29.6396E+06    -11.8590E+06    -162.221E-03     323.563E-03    -161.342E-03     28.6283E-03    -162.444E-03     323.213E-03    -161.220E-03     28.6626E-03
            1115     5.36124E-03     133.503E-03    -73.4068E+06    -83.9902E+06    -14.1158E+06    -12.5521E+06    -162.549E-03     324.079E-03    -161.530E-03     32.5295E-03    -162.778E-03     323.790E-03    -161.373E-03     32.5005E-03
            1116     6.12563E-03     133.542E-03    -64.0163E+06    -66.1337E+06    -138.917E+03    -13.2350E+06    -162.724E-03     324.422E-03    -161.698E-03     35.6243E-03    -162.956E-03     324.192E-03    -161.510E-03     35.5191E-03
            1117     6.89049E-03     133.585E-03    -55.2693E+06    -49.9396E+06     12.2190E+06    -13.8652E+06    -162.589E-03     324.414E-03    -161.825E-03     38.4788E-03    -162.823E-03     324.239E-03    -161.611E-03     38.2565E-03
            1118     7.65629E-03     133.631E-03    -47.9869E+06    -34.6651E+06     22.9362E+06    -14.9056E+06    -162.692E-03     324.610E-03    -161.918E-03     40.9810E-03    -162.935E-03     324.493E-03    -161.684E-03     40.6056E-03
            1119     8.42127E-03     133.680E-03    -42.1590E+06    -23.1382E+06     30.6218E+06    -16.1388E+06    -162.973E-03     324.976E-03    -162.003E-03     43.2559E-03    -163.224E-03     324.906E-03    -161.755E-03     42.6971E-03
            1120     9.18578E-03     133.730E-03    -36.8877E+06    -11.0352E+06     36.9042E+06    -18.0369E+06    -162.727E-03     324.794E-03    -162.067E-03     45.4202E-03    -162.989E-03     324.779E-03    -161.813E-03     44.6392E-03
            1121     9.95124E-03     133.783E-03    -31.6556E+06     1.45842E+06     42.8683E+06    -20.2752E+06    -162.358E-03     324.451E-03    -162.093E-03     47.6945E-03    -162.636E-03     324.498E-03    -161.835E-03     46.6405E-03
            1122     10.7168E-03     133.838E-03    -27.1307E+06     11.5148E+06     47.4104E+06    -21.6798E+06    -162.104E-03     324.192E-03    -162.088E-03     49.1947E-03    -162.398E-03     324.293E-03    -161.828E-03     47.8492E-03
            1123     11.4829E-03     133.893E-03    -23.0120E+06     22.8071E+06     52.3079E+06    -21.7853E+06    -161.700E-03     323.762E-03    -162.062E-03     49.5534E-03    -162.016E-03     323.926E-03    -161.800E-03     47.9220E-03
            1124     12.2495E-03     133.950E-03    -18.5407E+06     34.8906E+06     55.8024E+06    -20.5413E+06    -161.583E-03     323.599E-03    -162.017E-03     48.7943E-03    -161.921E-03     323.834E-03    -161.761E-03     46.8477E-03
            1125     13.0167E-03     134.007E-03    -14.3393E+06     47.6968E+06     60.5215E+06    -19.6058E+06    -161.559E-03     323.539E-03    -161.980E-03     48.1406E-03    -161.927E-03     323.850E-03    -161.726E-03     45.8484E-03
            1126     13.7817E-03     134.064E-03    -10.3354E+06     65.4861E+06     58.2569E+06    -16.9946E+06    -161.108E-03     323.007E-03    -161.899E-03     45.0817E-03    -161.516E-03     323.442E-03    -161.688E-03     42.2536E-03
            1127     14.5473E-03     134.114E-03    -5.11514E+06     65.2545E+06     58.8847E+06    -9.96253E+06    -161.049E-03     322.905E-03    -161.856E-03     34.6433E-03    -161.408E-03     323.307E-03    -161.649E-03     31.8237E-03
            1128     766.235E-06     134.672E-03    -114.972E+06    -181.874E+06    -111.833E+06    -3.97762E+06    -161.042E-03     320.991E-03    -159.949E-03     6.74749E-03    -161.187E-03     320.417E-03    -160.078E-03     6.74999E-03
            1129     1.53256E-03     134.681E-03    -110.237E+06    -169.854E+06    -99.8612E+06    -5.67794E+06    -160.487E-03     321.013E-03    -160.526E-03     10.8943E-03    -160.647E-03     320.468E-03    -160.619E-03     10.9426E-03
            1130     2.29929E-03     134.699E-03    -103.281E+06    -152.075E+06    -82.4902E+06    -6.57985E+06    -160.318E-03     320.860E-03    -160.542E-03     16.2524E-03    -160.493E-03     320.368E-03    -160.584E-03     16.3304E-03
            1131     3.06534E-03     134.720E-03    -94.9405E+06    -131.206E+06    -61.9626E+06    -7.76735E+06    -160.462E-03     321.028E-03    -160.566E-03     20.2461E-03    -160.656E-03     320.599E-03    -160.548E-03     20.3585E-03
            1132     3.83211E-03     134.747E-03    -86.0210E+06    -112.081E+06    -41.4617E+06    -9.57824E+06    -160.786E-03     321.431E-03    -160.645E-03     24.2067E-03    -160.993E-03     321.055E-03    -160.565E-03     24.3095E-03
            1133     4.59900E-03     134.778E-03    -77.1830E+06    -96.8775E+06    -24.2614E+06    -11.9976E+06    -161.412E-03     322.188E-03    -160.776E-03     28.4597E-03    -161.623E-03     321.852E-03    -160.645E-03     28.5137E-03
            1134     5.36457E-03     134.813E-03    -68.1787E+06    -79.3246E+06    -10.0268E+06    -13.5704E+06    -161.986E-03     322.927E-03    -160.941E-03     32.7074E-03    -162.200E-03     322.647E-03    -160.777E-03     32.6953E-03
            1135     6.13003E-03     134.853E-03    -59.3893E+06    -61.8523E+06     2.96269E+06    -14.4906E+06    -162.315E-03     323.430E-03    -161.115E-03     36.4554E-03    -162.533E-03     323.209E-03    -160.924E-03     36.3605E-03
            1136     6.89513E-03     134.895E-03    -51.1210E+06    -46.6803E+06     15.1709E+06    -14.8874E+06    -162.505E-03     323.781E-03    -161.276E-03     39.7218E-03    -162.726E-03     323.611E-03    -161.058E-03     39.5233E-03
            1137     7.65992E-03     134.941E-03    -43.5443E+06    -31.4543E+06     26.0477E+06    -14.4493E+06    -162.544E-03     323.953E-03    -161.409E-03     42.6270E-03    -162.772E-03     323.839E-03    -161.170E-03     42.3024E-03
            1138     8.42515E-03     134.991E-03    -36.6522E+06    -18.5677E+06     35.0029E+06    -14.7907E+06    -162.431E-03     323.938E-03    -161.508E-03     44.7249E-03    -162.664E-03     323.874E-03    -161.252E-03     44.2472E-03
            1139     9.19104E-03     135.041E-03    -30.5782E+06    -4.25437E+06     42.6764E+06    -16.3951E+06    -162.394E-03     323.969E-03    -161.575E-03     46.6663E-03    -162.639E-03     323.966E-03    -161.311E-03     45.9860E-03
            1140     9.95651E-03     135.094E-03    -26.0141E+06     6.66034E+06     47.8457E+06    -17.8713E+06    -162.429E-03     324.053E-03    -161.624E-03     48.7981E-03    -162.689E-03     324.105E-03    -161.356E-03     47.8627E-03
            1141     10.7222E-03     135.148E-03    -21.8791E+06     16.3391E+06     52.1188E+06    -19.1473E+06    -162.481E-03     324.146E-03    -161.665E-03     49.9991E-03    -162.757E-03     324.251E-03    -161.396E-03     48.7861E-03
            1142     11.4874E-03     135.204E-03    -17.7246E+06     25.1897E+06     56.3665E+06    -19.9605E+06    -162.733E-03     324.445E-03    -161.711E-03     50.5560E-03    -163.027E-03     324.602E-03    -161.440E-03     49.0342E-03
            1143     12.2515E-03     135.261E-03    -13.6679E+06     34.8764E+06     58.5088E+06    -19.8109E+06    -162.881E-03     324.635E-03    -161.754E-03     50.6707E-03    -163.197E-03     324.857E-03    -161.492E-03     48.7910E-03
            1144     13.0153E-03     135.318E-03    -9.50033E+06     47.7990E+06     63.4020E+06    -18.5177E+06    -162.548E-03     324.345E-03    -161.798E-03     50.1036E-03    -162.896E-03     324.645E-03    -161.536E-03     47.8678E-03
            1145     13.7818E-03     135.374E-03    -6.05237E+06     61.3920E+06     60.8428E+06    -16.5463E+06    -161.830E-03     323.606E-03    -161.776E-03     46.6741E-03    -162.214E-03     324.010E-03    -161.552E-03     43.9030E-03
            1146     14.5493E-03     135.422E-03    -3.38962E+06     51.2550E+06     57.9564E+06    -11.3740E+06    -161.864E-03     323.642E-03    -161.778E-03     36.5267E-03    -162.198E-03     323.977E-03    -161.557E-03     33.6725E-03
            1147     767.366E-06     135.979E-03    -109.322E+06    -171.822E+06    -105.167E+06    -2.33869E+06    -159.971E-03     319.746E-03    -159.775E-03     7.17096E-03    -160.111E-03     319.206E-03    -159.893E-03     7.19320E-03
            1148     1.53361E-03     135.987E-03    -105.576E+06    -161.975E+06    -92.5710E+06    -5.14321E+06    -159.887E-03     319.806E-03    -159.919E-03     11.2678E-03    -160.045E-03     319.283E-03    -159.994E-03     11.3266E-03
            1149     2.30082E-03     136.004E-03    -98.9698E+06    -145.129E+06    -76.9917E+06    -7.58705E+06    -159.858E-03     319.812E-03    -159.954E-03     17.1620E-03    -160.030E-03     319.340E-03    -159.985E-03     17.2160E-03
            1150     3.06817E-03     136.027E-03    -90.6443E+06    -125.886E+06    -58.9718E+06    -8.99446E+06    -160.077E-03     320.085E-03    -160.008E-03     21.3952E-03    -160.261E-03     319.671E-03    -159.989E-03     21.4827E-03
            1151     3.83463E-03     136.053E-03    -81.9804E+06    -106.361E+06    -39.4568E+06    -9.69569E+06    -160.411E-03     320.524E-03    -160.113E-03     25.4360E-03    -160.609E-03     320.167E-03    -160.037E-03     25.5402E-03
            1152     4.60070E-03     136.085E-03    -73.7034E+06    -89.7754E+06    -21.2580E+06    -11.0457E+06    -160.732E-03     320.977E-03    -160.245E-03     29.5318E-03    -160.939E-03     320.665E-03    -160.114E-03     29.6169E-03
            1153     5.36710E-03     136.121E-03    -65.5957E+06    -72.6968E+06    -5.93040E+06    -13.5532E+06    -160.972E-03     321.343E-03    -160.371E-03     33.4371E-03    -161.187E-03     321.084E-03    -160.200E-03     33.4576E-03
            1154     6.13340E-03     136.162E-03    -57.7634E+06    -57.0963E+06     6.16133E+06    -15.3016E+06    -161.279E-03     321.764E-03    -160.486E-03     37.2511E-03    -161.498E-03     321.558E-03    -160.288E-03     37.1942E-03
            1155     6.89945E-03     136.205E-03    -49.9212E+06    -44.5798E+06     16.8901E+06    -15.3208E+06    -161.719E-03     322.328E-03    -160.610E-03     40.9522E-03    -161.936E-03     322.162E-03    -160.388E-03     40.8104E-03
            1156     7.66499E-03     136.252E-03    -42.2545E+06    -29.1819E+06     27.4125E+06    -15.2066E+06    -161.886E-03     322.617E-03    -160.731E-03     44.4004E-03    -162.109E-03     322.507E-03    -160.490E-03     44.1392E-03
            1157     8.43089E-03     136.300E-03    -34.9330E+06    -14.7452E+06     37.0928E+06    -15.3336E+06    -161.945E-03     322.779E-03    -160.835E-03     46.8674E-03    -162.173E-03     322.724E-03    -160.577E-03     46.4681E-03
            1158     9.19655E-03     136.351E-03    -28.3885E+06    -344.709E+03     45.5125E+06    -15.2043E+06    -162.300E-03     323.231E-03    -160.931E-03     48.7442E-03    -162.539E-03     323.236E-03    -160.662E-03     48.1765E-03
            1159     9.96193E-03     136.404E-03    -23.1305E+06     11.2136E+06     51.4448E+06    -15.7087E+06    -162.663E-03     323.695E-03    -161.032E-03     50.4085E-03    -162.913E-03     323.754E-03    -160.757E-03     49.6287E-03
            1160     10.7270E-03     136.459E-03    -18.5330E+06     20.9202E+06     55.5533E+06    -16.8711E+06    -162.839E-03     323.970E-03    -161.131E-03     51.8381E-03    -163.102E-03     324.080E-03    -160.857E-03     50.7990E-03
            1161     11.4921E-03     136.516E-03    -14.3803E+06     28.1514E+06     59.1070E+06    -17.8471E+06    -162.957E-03     324.183E-03    -161.226E-03     53.1583E-03    -163.237E-03     324.340E-03    -160.951E-03     51.7892E-03
            1162     12.2577E-03     136.573E-03    -10.9851E+06     37.3235E+06     60.7767E+06    -18.4935E+06    -163.101E-03     324.407E-03    -161.306E-03     54.3113E-03    -163.410E-03     324.633E-03    -161.041E-03     52.5269E-03
            1163     13.0235E-03     136.630E-03    -7.38509E+06     46.7961E+06     64.7822E+06    -17.7246E+06    -163.464E-03     324.867E-03    -161.403E-03     54.2498E-03    -163.807E-03     325.163E-03    -161.136E-03     52.0476E-03
            1164     13.7876E-03     136.685E-03    -4.00345E+06     58.7157E+06     62.0668E+06    -15.0631E+06    -163.937E-03     325.419E-03    -161.482E-03     49.7301E-03    -164.311E-03     325.808E-03    -161.251E-03     46.9939E-03
            1165     14.5509E-03     136.734E-03    -2.12177E+06     38.7279E+06     56.4410E+06    -9.90009E+06    -164.399E-03     326.018E-03    -161.619E-03     38.7360E-03    -164.711E-03     326.296E-03    -161.390E-03     35.8789E-03
            1166     766.921E-06     137.282E-03    -105.496E+06    -164.774E+06    -102.267E+06    -2.35423E+06    -158.775E-03     318.518E-03    -159.743E-03     6.68624E-03    -158.912E-03     318.003E-03    -159.862E-03     6.72874E-03
            1167     1.53554E-03     137.292E-03    -100.026E+06    -153.721E+06    -88.5479E+06    -3.95450E+06    -159.173E-03     318.457E-03    -159.284E-03     10.9121E-03    -159.321E-03     317.961E-03    -159.359E-03     11.0089E-03
            1168     2.30241E-03     137.308E-03    -94.4104E+06    -137.766E+06    -71.6187E+06    -6.11360E+06    -159.285E-03     318.603E-03    -159.319E-03     16.6178E-03    -159.452E-03     318.154E-03    -159.340E-03     16.7328E-03
            1169     3.06954E-03     137.331E-03    -87.9429E+06    -119.294E+06    -54.6835E+06    -8.49178E+06    -159.287E-03     318.652E-03    -159.365E-03     21.7308E-03    -159.473E-03     318.260E-03    -159.338E-03     21.8554E-03
            1170     3.83678E-03     137.358E-03    -80.1767E+06    -102.192E+06    -37.6685E+06    -9.80744E+06    -159.618E-03     319.048E-03    -159.431E-03     26.6990E-03    -159.813E-03     318.706E-03    -159.355E-03     26.8278E-03
            1171     4.60392E-03     137.391E-03    -71.3307E+06    -84.2737E+06    -19.5329E+06    -10.2204E+06    -159.801E-03     319.327E-03    -159.526E-03     31.4813E-03    -160.005E-03     319.035E-03    -159.398E-03     31.6091E-03
            1172     5.37095E-03     137.427E-03    -63.3353E+06    -65.0096E+06    -2.67268E+06    -11.6544E+06    -159.883E-03     319.492E-03    -159.609E-03     35.8887E-03    -160.101E-03     319.261E-03    -159.436E-03     35.9723E-03
            1173     6.13804E-03     137.468E-03    -56.4255E+06    -51.2621E+06     9.74296E+06    -13.8521E+06    -160.250E-03     319.935E-03    -159.685E-03     40.0955E-03    -160.473E-03     319.748E-03    -159.480E-03     40.1025E-03
            1174     6.90489E-03     137.512E-03    -49.3130E+06    -40.4936E+06     19.0212E+06    -15.9135E+06    -160.649E-03     320.420E-03    -159.772E-03     43.5022E-03    -160.868E-03     320.266E-03    -159.547E-03     43.4234E-03
            1175     7.67204E-03     137.559E-03    -41.5339E+06    -27.3042E+06     28.3010E+06    -16.0983E+06    -160.946E-03     320.814E-03    -159.867E-03     46.3059E-03    -161.164E-03     320.705E-03    -159.626E-03     46.1460E-03
            1176     8.43857E-03     137.609E-03    -34.9008E+06    -13.1187E+06     37.4161E+06    -14.8835E+06    -161.453E-03     321.429E-03    -159.977E-03     48.9920E-03    -161.677E-03     321.375E-03    -159.720E-03     48.7303E-03
            1177     9.20443E-03     137.660E-03    -29.6896E+06     1.83939E+06     45.3632E+06    -14.4212E+06    -162.105E-03     322.214E-03    -160.108E-03     51.4013E-03    -162.346E-03     322.224E-03    -159.841E-03     50.9832E-03
            1178     9.96984E-03     137.714E-03    -24.1976E+06     14.5275E+06     51.8370E+06    -14.5406E+06    -162.662E-03     322.921E-03    -160.259E-03     53.3193E-03    -162.915E-03     322.990E-03    -159.986E-03     52.7013E-03
            1179     10.7351E-03     137.769E-03    -19.4399E+06     24.5081E+06     56.0197E+06    -14.7740E+06    -163.000E-03     323.412E-03    -160.413E-03     54.7893E-03    -163.266E-03     323.534E-03    -160.140E-03     53.9173E-03
            1180     11.5004E-03     137.826E-03    -16.0760E+06     31.5664E+06     58.8660E+06    -15.4915E+06    -163.179E-03     323.740E-03    -160.561E-03     55.5916E-03    -163.464E-03     323.910E-03    -160.289E-03     54.3909E-03
            1181     12.2656E-03     137.883E-03    -12.4900E+06     41.0357E+06     60.7482E+06    -16.5332E+06    -163.586E-03     324.287E-03    -160.701E-03     55.6036E-03    -163.898E-03     324.524E-03    -160.439E-03     53.9934E-03
            1182     13.0301E-03     137.942E-03    -9.28260E+06     46.5040E+06     63.5526E+06    -16.5296E+06    -164.668E-03     325.548E-03    -160.880E-03     54.9325E-03    -165.007E-03     325.836E-03    -160.617E-03     52.8790E-03
            1183     13.7933E-03     138.000E-03    -6.61579E+06     53.9132E+06     59.5062E+06    -14.5122E+06    -166.410E-03     327.497E-03    -161.088E-03     50.9938E-03    -166.782E-03     327.865E-03    -160.859E-03     48.3284E-03
            1184     14.5550E-03     138.050E-03    -2.83437E+06     26.4729E+06     53.3110E+06    -9.06286E+06    -167.792E-03     329.192E-03    -161.401E-03     39.7196E-03    -168.083E-03     329.413E-03    -161.168E-03     36.8853E-03
            1185     767.912E-06     138.583E-03    -101.953E+06    -156.863E+06    -99.5584E+06    -2.88846E+06    -158.622E-03     317.138E-03    -158.516E-03     6.58052E-03    -158.757E-03     316.652E-03    -158.638E-03     6.63169E-03
            1186     1.53505E-03     138.594E-03    -98.4586E+06    -148.000E+06    -88.6481E+06    -4.26938E+06    -158.554E-03     317.149E-03    -158.595E-03     12.0310E-03    -158.703E-03     316.680E-03    -158.681E-03     12.1259E-03
            1187     2.30336E-03     138.611E-03    -91.7824E+06    -132.454E+06    -70.5386E+06    -4.86849E+06    -158.475E-03     317.101E-03    -158.626E-03     17.0983E-03    -158.638E-03     316.672E-03    -158.653E-03     17.2670E-03
            1188     3.07191E-03     138.633E-03    -84.2557E+06    -112.176E+06    -49.9733E+06    -6.20097E+06    -158.201E-03     316.822E-03    -158.621E-03     22.5429E-03    -158.384E-03     316.453E-03    -158.586E-03     22.7396E-03
            1189     3.84050E-03     138.661E-03    -77.4239E+06    -96.5516E+06    -32.7391E+06    -8.50651E+06    -158.158E-03     316.744E-03    -158.585E-03     27.8939E-03    -158.354E-03     316.416E-03    -158.497E-03     28.0915E-03
            1190     4.60874E-03     138.694E-03    -69.6238E+06    -80.8463E+06    -17.4063E+06    -9.52160E+06    -158.293E-03     316.855E-03    -158.562E-03     32.7249E-03    -158.494E-03     316.571E-03    -158.430E-03     32.9349E-03
            1191     5.37720E-03     138.730E-03    -62.0697E+06    -61.1306E+06    -2.28180E+06    -8.97595E+06    -158.554E-03     317.119E-03    -158.565E-03     37.5590E-03    -158.768E-03     316.902E-03    -158.398E-03     37.7693E-03
            1192     6.14530E-03     138.772E-03    -56.0589E+06    -44.3157E+06     11.2958E+06    -9.87949E+06    -158.981E-03     317.586E-03    -158.605E-03     42.2973E-03    -159.209E-03     317.426E-03    -158.403E-03     42.4591E-03
            1193     6.91285E-03     138.817E-03    -51.1984E+06    -33.0022E+06     20.8066E+06    -12.8353E+06    -159.467E-03     318.141E-03    -158.674E-03     46.1176E-03    -159.704E-03     318.018E-03    -158.448E-03     46.1965E-03
            1194     7.67971E-03     138.864E-03    -46.5380E+06    -24.2085E+06     27.3673E+06    -15.2756E+06    -160.088E-03     318.856E-03    -158.768E-03     49.5017E-03    -160.327E-03     318.764E-03    -158.529E-03     49.4816E-03
            1195     8.44670E-03     138.915E-03    -39.7393E+06    -12.4848E+06     34.7129E+06    -15.4397E+06    -160.873E-03     319.772E-03    -158.899E-03     52.5468E-03    -161.111E-03     319.725E-03    -158.650E-03     52.4187E-03
            1196     9.21340E-03     138.968E-03    -32.3239E+06     2.94486E+06     43.2629E+06    -14.0522E+06    -161.772E-03     320.845E-03    -159.073E-03     54.8530E-03    -162.016E-03     320.859E-03    -158.814E-03     54.5983E-03
            1197     9.97951E-03     139.023E-03    -27.4442E+06     15.7578E+06     49.6772E+06    -12.6010E+06    -162.754E-03     322.040E-03    -159.286E-03     56.2393E-03    -163.013E-03     322.114E-03    -159.021E-03     55.8100E-03
            1198     10.7448E-03     139.079E-03    -23.8585E+06     27.1685E+06     53.8596E+06    -12.2593E+06    -163.700E-03     323.231E-03    -159.531E-03     56.6274E-03    -163.980E-03     323.366E-03    -159.266E-03     55.9527E-03
            1199     11.5096E-03     139.136E-03    -19.8829E+06     36.5472E+06     57.4471E+06    -13.7045E+06    -164.703E-03     324.511E-03    -159.808E-03     56.1545E-03    -165.001E-03     324.701E-03    -159.544E-03     55.1574E-03
            1200     12.2734E-03     139.195E-03    -15.7043E+06     44.6662E+06     58.9099E+06    -15.4336E+06    -165.782E-03     325.890E-03    -160.108E-03     54.9550E-03    -166.097E-03     326.137E-03    -159.855E-03     53.5578E-03
            1201     13.0364E-03     139.255E-03    -11.4486E+06     47.2294E+06     61.1867E+06    -16.1244E+06    -166.729E-03     327.176E-03    -160.447E-03     53.4216E-03    -167.058E-03     327.455E-03    -160.193E-03     51.5748E-03
            1202     13.7988E-03     139.316E-03    -6.51627E+06     50.2584E+06     57.4223E+06    -14.8869E+06    -168.213E-03     329.003E-03    -160.790E-03     50.2451E-03    -168.563E-03     329.342E-03    -160.566E-03     47.7039E-03
            1203     14.5581E-03     139.371E-03    -3.61162E+06     13.9749E+06     49.0796E+06    -9.49875E+06    -170.308E-03     331.541E-03    -161.233E-03     39.1579E-03    -170.571E-03     331.699E-03    -161.002E-03     36.3682E-03
            1204     768.830E-06     139.884E-03    -97.9218E+06    -151.882E+06    -94.3319E+06    -311.173E+03    -157.464E-03     314.692E-03    -157.228E-03     6.68344E-03    -157.595E-03     314.216E-03    -157.338E-03     6.79050E-03
            1205     1.53802E-03     139.895E-03    -96.4853E+06    -142.926E+06    -84.4151E+06    -1.74247E+06    -157.564E-03     314.985E-03    -157.421E-03     13.3347E-03    -157.716E-03     314.532E-03    -157.496E-03     13.4864E-03
            1206     2.30617E-03     139.911E-03    -92.0641E+06    -127.046E+06    -70.2776E+06    -3.99543E+06    -157.439E-03     314.934E-03    -157.495E-03     18.5205E-03    -157.610E-03     314.531E-03    -157.529E-03     18.7393E-03
            1207     3.07474E-03     139.933E-03    -85.2923E+06    -109.004E+06    -52.5200E+06    -4.60385E+06    -157.095E-03     314.589E-03    -157.494E-03     23.8934E-03    -157.283E-03     314.239E-03    -157.475E-03     24.1776E-03
            1208     3.84398E-03     139.960E-03    -78.4235E+06     -91.496E+06    -32.7791E+06    -4.21533E+06    -156.664E-03     314.095E-03    -157.432E-03     29.3487E-03    -156.868E-03     313.792E-03    -157.349E-03     29.6923E-03
            1209     4.61391E-03     139.993E-03    -72.6277E+06    -75.7436E+06    -17.0781E+06    -6.33624E+06    -156.639E-03     313.978E-03    -157.339E-03     34.5385E-03    -156.859E-03     313.720E-03    -157.210E-03     34.8911E-03
            1210     5.38332E-03     140.030E-03    -65.8470E+06    -61.2167E+06    -4.67210E+06    -7.06364E+06    -157.008E-03     314.287E-03    -157.279E-03     39.6630E-03    -157.231E-03     314.072E-03    -157.118E-03     40.0255E-03
            1211     6.15258E-03     140.072E-03    -58.9019E+06    -41.4209E+06     8.97537E+06    -5.37008E+06    -157.302E-03     314.570E-03    -157.268E-03     44.6066E-03    -157.538E-03     314.424E-03    -157.077E-03     44.9806E-03
            1212     6.92205E-03     140.118E-03    -53.8718E+06    -25.2576E+06     20.8548E+06    -6.06341E+06    -157.869E-03     315.168E-03    -157.299E-03     49.0658E-03    -158.122E-03     315.079E-03    -157.080E-03     49.3916E-03
            1213     7.69130E-03     140.167E-03    -50.0523E+06    -15.4941E+06     28.0731E+06    -10.3321E+06    -159.062E-03     316.456E-03    -157.394E-03     53.0497E-03    -159.324E-03     316.403E-03    -157.158E-03     53.2476E-03
            1214     8.45897E-03     140.219E-03    -45.7629E+06    -7.72110E+06     32.8844E+06    -14.9848E+06    -160.453E-03     318.024E-03    -157.572E-03     56.1095E-03    -160.716E-03     318.003E-03    -157.330E-03     56.1474E-03
            1215     9.22563E-03     140.273E-03    -40.0796E+06     490.992E+03     38.0670E+06    -14.7776E+06    -161.887E-03     319.718E-03    -157.831E-03     58.2242E-03    -162.150E-03     319.729E-03    -157.583E-03     58.1315E-03
            1216     9.99112E-03     140.331E-03    -33.7913E+06     13.4445E+06     44.8048E+06    -11.0091E+06    -163.536E-03     321.701E-03    -158.164E-03     59.1304E-03    -163.806E-03     321.769E-03    -157.911E-03     58.9051E-03
            1217     10.7553E-03     140.389E-03    -28.0837E+06     32.2409E+06     51.7934E+06    -10.9102E+06    -165.376E-03     323.945E-03    -158.568E-03     58.9126E-03    -165.670E-03     324.103E-03    -158.315E-03     58.4437E-03
            1218     11.5178E-03     140.449E-03    -21.7542E+06     43.6132E+06     56.5131E+06    -14.5267E+06    -167.331E-03     326.375E-03    -159.044E-03     58.0103E-03    -167.635E-03     326.594E-03    -158.793E-03     57.1775E-03
            1219     12.2787E-03     140.509E-03    -15.1093E+06     49.0779E+06     57.8591E+06    -17.3762E+06    -169.028E-03     328.597E-03    -159.569E-03     56.1067E-03    -169.334E-03     328.856E-03    -159.329E-03     54.8330E-03
            1220     13.0386E-03     140.571E-03    -9.50305E+06     47.4628E+06     59.8369E+06    -17.2631E+06    -169.954E-03     330.081E-03    -160.128E-03     53.2601E-03    -170.259E-03     330.348E-03    -159.883E-03     51.5292E-03
            1221     13.7982E-03     140.633E-03    -5.52414E+06     46.7478E+06     55.3806E+06    -14.8695E+06    -170.325E-03     330.962E-03    -160.637E-03     50.0708E-03    -170.651E-03     331.274E-03    -160.420E-03     47.6408E-03
            1222     14.5583E-03     140.693E-03    -2.27267E+06     1.51699E+06     45.2089E+06    -9.71014E+06    -171.348E-03     332.520E-03    -161.172E-03     39.9758E-03    -171.579E-03     332.617E-03    -160.945E-03     37.2203E-03
            1223     770.324E-06     141.181E-03    -105.071E+06    -153.378E+06    -102.414E+06     1.29881E+06    -155.163E-03     311.738E-03    -156.575E-03     7.24331E-03    -155.316E-03     311.276E-03    -156.713E-03     7.38295E-03
            1224     1.53962E-03     141.192E-03    -101.307E+06    -140.985E+06    -89.3676E+06     1.72915E+06    -155.870E-03     311.772E-03    -155.902E-03     13.2619E-03    -156.041E-03     311.342E-03    -155.998E-03     13.5307E-03
            1225     2.31004E-03     141.208E-03    -96.8009E+06    -121.731E+06    -73.2135E+06     298.370E+03    -155.587E-03     311.484E-03    -155.896E-03     19.2670E-03    -155.784E-03     311.116E-03    -155.945E-03     19.6235E-03
            1226     3.08015E-03     141.230E-03    -92.1564E+06    -107.505E+06    -56.7986E+06    -1.46326E+06    -155.401E-03     311.249E-03    -155.848E-03     25.5096E-03    -155.616E-03     310.920E-03    -155.843E-03     25.9329E-03
            1227     3.85062E-03     141.256E-03    -84.8808E+06    -91.1404E+06    -39.2382E+06    -1.33927E+06    -155.113E-03     310.890E-03    -155.777E-03     31.4923E-03    -155.337E-03     310.603E-03    -155.718E-03     31.9940E-03
            1228     4.62146E-03     141.288E-03    -77.1065E+06    -69.9084E+06    -20.8230E+06    -1.33476E+06    -155.036E-03     310.729E-03    -155.694E-03     37.3772E-03    -155.275E-03     310.507E-03    -155.585E-03     37.9264E-03
            1229     5.39241E-03     141.326E-03    -70.5615E+06    -57.4726E+06    -6.23874E+06    -4.28549E+06    -155.396E-03     311.042E-03    -155.645E-03     42.7445E-03    -155.639E-03     310.848E-03    -155.491E-03     43.2861E-03
            1230     6.16321E-03     141.368E-03    -62.5032E+06    -43.7088E+06     5.43061E+06    -4.87956E+06    -155.889E-03     311.527E-03    -155.638E-03     47.2320E-03    -156.126E-03     311.372E-03    -155.457E-03     47.7817E-03
            1231     6.93387E-03     141.414E-03    -53.3251E+06    -22.9345E+06     18.6221E+06    -2.63455E+06    -156.728E-03     312.422E-03    -155.693E-03     51.5218E-03    -156.969E-03     312.337E-03    -155.490E-03     52.0799E-03
            1232     7.70310E-03     141.466E-03    -46.4894E+06    -4.66228E+06     30.4962E+06    -4.36989E+06    -158.248E-03     314.094E-03    -155.846E-03     55.4113E-03    -158.500E-03     314.076E-03    -155.619E-03     55.8808E-03
            1233     8.47128E-03     141.520E-03    -42.4182E+06     2.23828E+06     36.3430E+06    -9.50792E+06    -160.238E-03     316.352E-03    -156.114E-03     58.3511E-03    -160.493E-03     316.359E-03    -155.874E-03     58.6489E-03
            1234     9.23793E-03     141.577E-03    -39.0255E+06     16.1783E+03     37.1830E+06    -12.5542E+06    -162.439E-03     318.933E-03    -156.494E-03     60.5727E-03    -162.684E-03     318.932E-03    -156.252E-03     60.6861E-03
            1235     10.0031E-03     141.638E-03    -32.9301E+06     12.2083E+06     42.1415E+06    -13.0590E+06    -164.747E-03     321.726E-03    -156.979E-03     61.7245E-03    -164.997E-03     321.781E-03    -156.738E-03     61.6519E-03
            1236     10.7662E-03     141.700E-03    -23.4008E+06     39.1860E+06     52.3388E+06    -14.6417E+06    -167.255E-03     324.818E-03    -157.564E-03     61.9522E-03    -167.525E-03     324.993E-03    -157.325E-03     61.6206E-03
            1237     11.5272E-03     141.764E-03    -15.3441E+06     49.0641E+06     57.9281E+06    -16.3246E+06    -169.794E-03     328.036E-03    -158.241E-03     61.5589E-03    -170.068E-03     328.261E-03    -158.001E-03     60.8701E-03
            1238     12.2863E-03     141.829E-03    -11.9458E+06     51.6708E+06     58.0850E+06    -16.0213E+06    -171.856E-03     330.827E-03    -158.971E-03     60.2457E-03    -172.145E-03     331.089E-03    -158.738E-03     59.1141E-03
            1239     13.0436E-03     141.893E-03    -10.0110E+06     49.4236E+06     59.1990E+06    -16.3184E+06    -173.142E-03     332.873E-03    -159.731E-03     57.8027E-03    -173.453E-03     333.153E-03    -159.492E-03     56.1387E-03
            1240     13.8004E-03     141.954E-03    -5.88384E+06     44.1378E+06     53.7182E+06    -16.2759E+06    -173.268E-03     333.692E-03    -160.424E-03     54.1911E-03    -173.594E-03     333.999E-03    -160.211E-03     51.7705E-03
            1241     14.5579E-03     142.014E-03    -1.69668E+06    -12.5425E+06     41.0498E+06    -10.8984E+06    -173.096E-03     334.186E-03    -161.089E-03     43.7269E-03    -173.307E-03     334.227E-03    -160.864E-03     40.9297E-03
            1242     770.824E-06     142.473E-03    -128.990E+06    -153.032E+06    -126.225E+06    -1.98363E+06    -153.014E-03     308.390E-03    -155.376E-03     7.94136E-03    -153.252E-03     307.999E-03    -155.598E-03     8.05747E-03
            1243     1.54246E-03     142.485E-03    -121.322E+06    -142.498E+06    -113.078E+06    -1.18687E+06    -153.613E-03     307.717E-03    -154.104E-03     13.4963E-03    -153.847E-03     307.342E-03    -154.287E-03     13.7879E-03
            1244     2.31421E-03     142.499E-03    -112.039E+06    -121.851E+06    -91.1604E+06     681.619E+03    -153.104E-03     307.015E-03    -153.910E-03     19.8224E-03    -153.349E-03     306.693E-03    -154.027E-03     20.2742E-03
            1245     3.08681E-03     142.521E-03    -102.045E+06    -102.972E+06    -66.4087E+06    -16.2952E+03    -153.038E-03     306.804E-03    -153.766E-03     26.3935E-03    -153.292E-03     306.523E-03    -153.801E-03     26.9554E-03
            1246     3.85894E-03     142.547E-03    -91.9549E+06    -90.1650E+06    -46.1888E+06    -2.54096E+06    -153.330E-03     307.031E-03    -153.701E-03     32.5837E-03    -153.577E-03     306.764E-03    -153.667E-03     33.2129E-03
            1247     4.63109E-03     142.580E-03    -80.7256E+06    -70.7912E+06    -27.4847E+06    -1.65397E+06    -153.583E-03     307.269E-03    -153.686E-03     38.6403E-03    -153.823E-03     307.051E-03    -153.604E-03     39.3506E-03
            1248     5.40328E-03     142.618E-03    -71.0783E+06    -50.5158E+06    -9.36766E+06    -1.37973E+06    -154.010E-03     307.725E-03    -153.716E-03     44.0762E-03    -154.253E-03     307.564E-03    -153.586E-03     44.8382E-03
            1249     6.17478E-03     142.661E-03    -63.0699E+06    -40.1225E+06     3.68940E+06    -5.68492E+06    -155.004E-03     308.815E-03    -153.811E-03     48.6601E-03    -155.238E-03     308.672E-03    -153.643E-03     49.3904E-03
            1250     6.94524E-03     142.708E-03    -52.6749E+06    -25.1254E+06     15.1714E+06    -7.34694E+06    -156.308E-03     310.293E-03    -153.985E-03     53.1918E-03    -156.528E-03     310.192E-03    -153.796E-03     53.8806E-03
            1251     7.71557E-03     142.762E-03    -40.7639E+06    -1.12160E+06     29.8874E+06    -5.07007E+06    -157.924E-03     312.182E-03    -154.258E-03     57.4230E-03    -158.141E-03     312.163E-03    -154.048E-03     58.0772E-03
            1252     8.48422E-03     142.819E-03    -32.2214E+06     9.99022E+06     39.8211E+06    -5.10144E+06    -160.254E-03     314.904E-03    -154.649E-03     60.5887E-03    -160.464E-03     314.919E-03    -154.418E-03     61.1333E-03
            1253     9.25070E-03     142.881E-03    -26.7041E+06     6.74732E+06     41.9639E+06    -8.68381E+06    -163.091E-03     318.260E-03    -155.169E-03     62.9896E-03    -163.281E-03     318.257E-03    -154.930E-03     63.3322E-03
            1254     10.0148E-03     142.945E-03    -21.3664E+06     20.9387E+06     47.1189E+06    -14.9679E+06    -165.938E-03     321.748E-03    -155.810E-03     64.5644E-03    -166.139E-03     321.811E-03    -155.574E-03     64.6392E-03
            1255     10.7770E-03     143.012E-03    -16.7787E+06     41.0875E+06     54.1228E+06    -17.0839E+06    -168.743E-03     325.302E-03    -156.559E-03     65.3076E-03    -168.976E-03     325.465E-03    -156.324E-03     65.1179E-03
            1256     11.5369E-03     143.080E-03    -15.5670E+06     45.7446E+06     56.9085E+06    -12.1795E+06    -171.432E-03     328.829E-03    -157.398E-03     65.0509E-03    -171.691E-03     329.031E-03    -157.157E-03     64.5901E-03
            1257     12.2950E-03     143.149E-03    -14.7132E+06     57.1024E+06     59.2166E+06    -11.5355E+06    -173.622E-03     331.898E-03    -158.276E-03     63.6776E-03    -173.925E-03     332.180E-03    -158.041E-03     62.7703E-03
            1258     13.0520E-03     143.216E-03    -10.2469E+06     56.1452E+06     61.2763E+06    -16.2606E+06    -175.281E-03     334.463E-03    -159.182E-03     61.1293E-03    -175.600E-03     334.768E-03    -158.942E-03     59.5911E-03
            1259     13.8073E-03     143.281E-03    -5.92559E+06     42.9902E+06     53.5804E+06    -17.6251E+06    -176.316E-03     336.357E-03    -160.041E-03     56.8471E-03    -176.637E-03     336.654E-03    -159.826E-03     54.4957E-03
            1260     14.5622E-03     143.339E-03    -2.72312E+06    -27.4754E+06     37.2033E+06    -12.5116E+06    -176.682E-03     337.578E-03    -160.896E-03     45.9117E-03    -176.871E-03     337.551E-03    -160.666E-03     43.1188E-03
            1261     772.508E-06     143.762E-03    -158.124E+06    -143.371E+06    -154.811E+06    -4.81730E+06    -151.708E-03     303.941E-03    -152.233E-03     8.22077E-03    -152.064E-03     303.683E-03    -152.570E-03     8.34011E-03
            1262     1.54571E-03     143.771E-03    -151.170E+06    -136.670E+06    -141.277E+06    -8.74105E+06    -151.110E-03     302.945E-03    -151.835E-03     13.6307E-03    -151.460E-03     302.683E-03    -152.124E-03     13.8787E-03
            1263     2.31971E-03     143.785E-03    -138.909E+06    -120.501E+06    -121.353E+06    -10.3643E+06    -150.865E-03     302.454E-03    -151.589E-03     20.1159E-03    -151.201E-03     302.221E-03    -151.819E-03     20.4973E-03
            1264     3.09367E-03     143.806E-03    -122.701E+06    -99.0395E+06    -93.8061E+06    -10.0516E+06    -150.982E-03     302.461E-03    -151.479E-03     26.6597E-03    -151.303E-03     302.266E-03    -151.626E-03     27.1891E-03
            1265     3.86776E-03     143.833E-03    -105.498E+06    -84.1706E+06    -63.8607E+06    -11.0408E+06    -151.553E-03     303.062E-03    -151.509E-03     32.6695E-03    -151.847E-03     302.867E-03    -151.553E-03     33.3149E-03
            1266     4.64081E-03     143.866E-03    -88.9351E+06    -73.2546E+06    -39.5856E+06    -11.6224E+06    -152.274E-03     303.899E-03    -151.625E-03     38.4533E-03    -152.530E-03     303.694E-03    -151.588E-03     39.1907E-03
            1267     5.41365E-03     143.905E-03    -71.6478E+06    -50.2799E+06    -17.8363E+06    -9.04631E+06    -153.000E-03     304.779E-03    -151.779E-03     44.0458E-03    -153.229E-03     304.627E-03    -151.691E-03     44.8804E-03
            1268     6.18631E-03     143.950E-03    -56.1100E+06    -29.7633E+06     2.30899E+06    -9.70464E+06    -154.282E-03     306.289E-03    -152.006E-03     49.2134E-03    -154.489E-03     306.183E-03    -151.870E-03     50.0621E-03
            1269     6.95763E-03     144.000E-03    -44.5815E+06    -21.9545E+06     16.0443E+06    -14.0642E+06    -156.161E-03     308.500E-03    -152.340E-03     53.8791E-03    -156.338E-03     308.395E-03    -152.163E-03     54.6537E-03
            1270     7.72723E-03     144.055E-03    -34.0535E+06    -7.32713E+06     27.4160E+06    -12.6445E+06    -158.165E-03     310.935E-03    -152.769E-03     58.1101E-03    -158.328E-03     310.871E-03    -152.572E-03     58.8502E-03
            1271     8.49574E-03     144.117E-03    -23.5769E+06     8.40143E+06      38.801E+06    -6.75146E+06    -160.537E-03     313.843E-03    -153.306E-03     61.5432E-03    -160.690E-03     313.829E-03    -153.089E-03     62.2676E-03
            1272     9.26211E-03     144.183E-03    -16.5565E+06     16.4177E+06     47.1365E+06    -6.80387E+06    -163.469E-03     317.433E-03    -153.963E-03     64.3436E-03    -163.618E-03     317.444E-03    -153.728E-03     64.9165E-03
            1273     10.0262E-03     144.253E-03    -13.7422E+06     32.9030E+06     55.2118E+06    -11.0459E+06    -166.627E-03     321.368E-03    -154.741E-03     66.5646E-03    -166.808E-03     321.457E-03    -154.493E-03     66.8799E-03
            1274     10.7877E-03     144.324E-03    -14.0634E+06     35.9734E+06     56.6980E+06    -9.91788E+06    -169.777E-03     325.398E-03    -155.621E-03     67.7424E-03    -169.982E-03     325.517E-03    -155.369E-03     67.8164E-03
            1275     11.5471E-03     144.398E-03    -12.6573E+06     40.8656E+06     58.8345E+06    -6.51174E+06    -172.667E-03     329.249E-03    -156.581E-03     67.5476E-03    -172.896E-03     329.407E-03    -156.328E-03     67.3431E-03
            1276     12.3043E-03     144.471E-03    -7.82041E+06     69.3991E+06     66.7407E+06    -9.45018E+06    -175.144E-03     332.728E-03    -157.584E-03     65.7951E-03    -175.428E-03     333.038E-03    -157.339E-03     65.1303E-03
            1277     13.0593E-03     144.542E-03    -4.53960E+06     65.5885E+06     67.1772E+06    -15.4797E+06    -177.271E-03     335.893E-03    -158.622E-03     62.4850E-03    -177.569E-03     336.213E-03    -158.375E-03     61.1726E-03
            1278     13.8134E-03     144.609E-03    -1.63942E+06     42.7283E+06     56.6667E+06    -17.5724E+06    -179.052E-03     338.690E-03    -159.638E-03     57.5366E-03    -179.340E-03     338.959E-03    -159.414E-03     55.3746E-03
            1279     14.5653E-03     144.671E-03     646.055E+03    -43.3979E+06     36.0166E+06    -12.0237E+06    -180.397E-03     341.076E-03    -160.679E-03     46.2134E-03    -180.533E-03     340.957E-03    -160.437E-03     43.5333E-03
            1280     774.520E-06     145.043E-03    -167.219E+06    -124.703E+06    -165.310E+06    -7.11719E+06    -150.407E-03     298.853E-03    -148.446E-03     6.80986E-03    -150.818E-03     298.715E-03    -148.849E-03     6.94513E-03
            1281     1.55001E-03     145.051E-03    -160.699E+06    -115.860E+06    -149.445E+06    -15.2754E+06    -149.128E-03     298.540E-03    -149.412E-03     13.0491E-03    -149.544E-03     298.407E-03    -149.758E-03     13.2277E-03
            1282     2.32516E-03     145.065E-03    -150.301E+06    -106.029E+06    -131.653E+06    -22.9091E+06    -149.328E-03     298.720E-03    -149.392E-03     19.3115E-03    -149.727E-03     298.591E-03    -149.679E-03     19.5576E-03
            1283     3.10020E-03     145.086E-03    -136.890E+06    -91.9857E+06    -110.748E+06    -26.2134E+06    -149.689E-03     299.155E-03    -149.466E-03     25.5391E-03    -150.067E-03     299.041E-03    -149.688E-03     25.9009E-03
            1284     3.87475E-03     145.114E-03    -120.200E+06    -75.2792E+06    -83.7426E+06    -27.1620E+06    -150.228E-03     299.850E-03    -149.623E-03     31.4101E-03    -150.579E-03     299.751E-03    -149.758E-03     31.9007E-03
            1285     4.64939E-03     145.149E-03    -101.995E+06    -67.6733E+06    -56.7198E+06    -28.6821E+06    -151.159E-03     301.021E-03    -149.862E-03     36.8883E-03    -151.464E-03     300.888E-03    -149.900E-03     37.4747E-03
            1286     5.42298E-03     145.189E-03    -82.7395E+06    -51.5759E+06    -32.9030E+06    -28.4817E+06    -152.396E-03     302.555E-03    -150.160E-03     42.2964E-03    -152.656E-03     302.434E-03    -150.129E-03     42.9686E-03
            1287     6.19572E-03     145.235E-03    -63.5495E+06    -25.9745E+06    -10.1556E+06    -25.4783E+06    -153.966E-03     304.497E-03    -150.531E-03     47.4017E-03    -154.195E-03     304.438E-03    -150.452E-03     48.1648E-03
            1288     6.96729E-03     145.289E-03    -46.6730E+06    -15.7129E+06     10.0035E+06    -23.7031E+06    -156.075E-03     307.099E-03    -151.025E-03     51.9222E-03    -156.260E-03     307.035E-03    -150.884E-03     52.7219E-03
            1289     7.73693E-03     145.348E-03    -33.2579E+06    -13.0971E+06     24.4545E+06     -22.281E+06    -158.489E-03     310.113E-03    -151.624E-03     56.3248E-03    -158.631E-03     310.019E-03    -151.434E-03     57.1059E-03
            1290     8.50475E-03     145.413E-03    -20.6761E+06    -1.78742E+06     36.5173E+06    -16.8037E+06    -160.935E-03     313.236E-03    -152.301E-03     60.3277E-03    -161.048E-03     313.164E-03    -152.086E-03     61.1047E-03
            1291     9.27110E-03     145.484E-03    -8.50401E+06     17.9466E+06     50.8937E+06    -10.4055E+06    -163.627E-03     316.696E-03    -153.068E-03     63.5145E-03    -163.734E-03     316.688E-03    -152.827E-03     64.2513E-03
            1292     10.0351E-03     145.558E-03    -1.43313E+06     32.5891E+06     62.2929E+06    -4.98497E+06    -166.754E-03     320.687E-03    -153.933E-03     66.0889E-03    -166.872E-03     320.735E-03    -153.666E-03     66.7020E-03
            1293     10.7968E-03     145.636E-03     2.00093E+06     31.6966E+06     64.4255E+06    -1.48727E+06    -170.125E-03     325.007E-03    -154.882E-03     67.7641E-03    -170.242E-03     325.058E-03    -154.609E-03     68.1629E-03
            1294     11.5553E-03     145.715E-03     5.52653E+06     46.3135E+06     69.6970E+06    -4.07680E+06    -173.333E-03     329.247E-03    -155.915E-03     68.3343E-03    -173.479E-03     329.376E-03    -155.641E-03     68.3961E-03
            1295     12.3118E-03     145.793E-03     9.06842E+06     78.1479E+06     76.9967E+06    -7.77835E+06    -176.309E-03     333.308E-03    -156.999E-03     67.1612E-03    -176.519E-03     333.605E-03    -156.740E-03     66.7813E-03
            1296     13.0662E-03     145.869E-03     10.4666E+06     70.3340E+06     75.7499E+06    -7.69652E+06    -179.138E-03     337.288E-03    -158.149E-03     63.9665E-03    -179.363E-03     337.579E-03    -157.888E-03     63.0289E-03
            1297     13.8178E-03     145.940E-03     5.74398E+06     45.1532E+06     64.1704E+06    -7.34613E+06    -181.514E-03     340.824E-03    -159.310E-03     59.1562E-03    -181.761E-03     341.066E-03    -159.063E-03     57.3822E-03
            1298     14.5686E-03     146.006E-03     219.585E+03    -53.7144E+06     36.9422E+06    -6.77919E+06    -183.373E-03     343.874E-03    -160.501E-03     47.5767E-03    -183.488E-03     343.692E-03    -160.239E-03     45.0978E-03
            1299     777.035E-06     146.318E-03    -142.756E+06    -97.9215E+06    -140.902E+06    -10.4582E+06    -148.575E-03     295.435E-03    -146.859E-03     4.84483E-03    -148.940E-03     295.361E-03    -147.215E-03     4.93371E-03
            1300     1.55297E-03     146.326E-03    -137.648E+06    -87.2706E+06    -128.591E+06    -19.1700E+06    -148.283E-03     296.147E-03    -147.863E-03     10.8062E-03    -148.656E-03     296.094E-03    -148.180E-03     10.8925E-03
            1301     2.32882E-03     146.341E-03    -130.611E+06    -79.6455E+06    -109.494E+06    -27.7885E+06    -148.937E-03     297.116E-03    -148.179E-03     16.2558E-03    -149.310E-03     297.061E-03    -148.422E-03     16.3749E-03
            1302     3.10416E-03     146.363E-03    -120.903E+06    -73.1733E+06    -91.0773E+06    -35.5739E+06    -149.456E-03     297.959E-03    -148.503E-03     21.1641E-03    -149.813E-03     297.892E-03    -148.677E-03     21.3323E-03
            1303     3.87960E-03     146.392E-03    -109.696E+06    -62.5052E+06    -74.5552E+06    -39.4552E+06    -149.952E-03     298.743E-03    -148.791E-03     26.1196E-03    -150.289E-03     298.684E-03    -148.914E-03     26.3705E-03
            1304     4.65416E-03     146.428E-03    -97.7578E+06    -54.0739E+06    -56.2097E+06    -41.9532E+06    -150.901E-03     300.010E-03    -149.109E-03     30.8421E-03    -151.212E-03     299.945E-03    -149.170E-03     31.1840E-03
            1305     5.42808E-03     146.470E-03    -85.1700E+06    -44.6737E+06    -36.9508E+06    -44.0373E+06    -152.369E-03     301.878E-03    -149.509E-03     35.6743E-03    -152.654E-03     301.809E-03    -149.506E-03     36.0954E-03
            1306     6.20040E-03     146.520E-03    -72.0382E+06    -27.7587E+06    -18.5677E+06    -41.6567E+06    -154.084E-03     304.073E-03    -149.990E-03     40.6155E-03    -154.349E-03     304.038E-03    -149.938E-03     41.1536E-03
            1307     6.97138E-03     146.576E-03    -58.7827E+06    -13.0142E+06     68.3953E+03    -37.7956E+06    -155.982E-03     306.543E-03    -150.561E-03     45.3158E-03    -156.225E-03     306.530E-03    -150.456E-03     45.9654E-03
            1308     7.74123E-03     146.639E-03    -43.8786E+06    -11.8769E+06     17.1298E+06    -36.3498E+06    -158.273E-03     309.501E-03    -151.227E-03     49.9386E-03    -158.464E-03     309.444E-03    -151.061E-03     50.6255E-03
            1309     8.50899E-03     146.709E-03    -28.1438E+06    -11.2017E+06     31.5666E+06    -33.0891E+06    -160.807E-03     312.775E-03    -151.968E-03     54.4610E-03    -160.939E-03     312.676E-03    -151.753E-03     55.1607E-03
            1310     9.27483E-03     146.783E-03    -13.6014E+06     3.55830E+06     45.8253E+06    -23.4158E+06    -163.389E-03     316.158E-03    -152.769E-03     58.4294E-03    -163.490E-03     316.090E-03    -152.525E-03     59.1875E-03
            1311     10.0390E-03     146.863E-03     231.187E+03     18.9197E+06     59.2825E+06    -11.4207E+06    -166.147E-03     319.783E-03    -153.636E-03     61.8089E-03    -166.224E-03     319.756E-03    -153.368E-03     62.5921E-03
            1312     10.8008E-03     146.946E-03     12.2529E+06     28.8548E+06     68.8352E+06    -5.07584E+06    -169.195E-03     323.763E-03    -154.568E-03     64.6310E-03    -169.248E-03     323.763E-03    -154.284E-03     65.2824E-03
            1313     11.5606E-03     147.031E-03     17.8481E+06     45.0994E+06     76.7183E+06     448.416E+03    -172.515E-03     328.087E-03    -155.572E-03     66.6219E-03    -172.589E-03     328.163E-03    -155.280E-03     67.0711E-03
            1314     12.3173E-03     147.115E-03     14.2445E+06     82.5164E+06     84.5701E+06     3.91457E+06    -176.003E-03     332.649E-03    -156.646E-03     67.1294E-03    -176.182E-03     332.926E-03    -156.363E-03     67.2572E-03
            1315     13.0711E-03     147.198E-03     9.60903E+06     73.6164E+06     80.3934E+06     1.13453E+06    -179.653E-03     337.467E-03    -157.814E-03     65.2894E-03    -179.868E-03     337.745E-03    -157.532E-03     64.8435E-03
            1316     13.8226E-03     147.274E-03     10.8787E+06     39.9798E+06     68.2424E+06     3.18371E+06    -182.899E-03     341.937E-03    -159.037E-03     61.3505E-03    -183.093E-03     342.113E-03    -158.770E-03     60.1147E-03
            1317     14.5707E-03     147.345E-03     10.0695E+06    -53.6311E+06     39.8081E+06     5.41975E+06    -185.406E-03     345.708E-03    -160.302E-03     50.3747E-03    -185.459E-03     345.491E-03    -160.040E-03     48.3559E-03
            1318     776.320E-06     147.592E-03    -93.9692E+06    -66.7067E+06    -90.7642E+06    -10.8754E+06    -148.804E-03     297.315E-03    -148.510E-03     2.32790E-03    -149.045E-03     297.253E-03    -148.731E-03     2.34397E-03
            1319     1.55273E-03     147.600E-03    -91.3409E+06    -58.7730E+06    -80.5790E+06    -18.6142E+06    -149.606E-03     298.507E-03    -148.901E-03     5.44734E-03    -149.861E-03     298.462E-03    -149.086E-03     5.44040E-03
            1320     2.32780E-03     147.618E-03    -86.4573E+06    -49.6786E+06    -65.8365E+06    -27.0560E+06    -150.365E-03     299.709E-03    -149.344E-03     8.58072E-03    -150.629E-03     299.680E-03    -149.476E-03     8.55307E-03
            1321     3.10209E-03     147.641E-03    -80.4935E+06    -46.1221E+06    -50.5414E+06    -35.4945E+06    -150.978E-03     300.756E-03    -149.778E-03     11.0553E-03    -151.239E-03     300.713E-03    -149.847E-03     11.0186E-03
            1322     3.87587E-03     147.670E-03    -74.4229E+06    -45.2479E+06    -38.8421E+06    -41.0943E+06    -151.509E-03     301.672E-03    -150.163E-03     14.0496E-03    -151.757E-03     301.607E-03    -150.184E-03     14.0344E-03
            1323     4.64966E-03     147.707E-03    -69.0335E+06    -38.9001E+06    -28.7430E+06    -43.2196E+06    -152.244E-03     302.768E-03    -150.524E-03     17.1822E-03    -152.488E-03     302.711E-03    -150.511E-03     17.2465E-03
            1324     5.42231E-03     147.752E-03    -64.4793E+06    -30.2690E+06    -16.8110E+06    -45.7555E+06    -153.222E-03     304.143E-03    -150.920E-03     20.7420E-03    -153.471E-03     304.103E-03    -150.867E-03     20.8801E-03
            1325     6.19427E-03     147.804E-03    -58.0982E+06    -23.7069E+06    -5.57207E+06    -47.5397E+06    -154.432E-03     305.790E-03    -151.358E-03     24.8961E-03    -154.671E-03     305.755E-03    -151.267E-03     25.1068E-03
            1326     6.96517E-03     147.863E-03    -49.9623E+06    -13.0560E+06     6.36926E+06    -44.4080E+06    -155.858E-03     307.699E-03    -151.841E-03     29.2969E-03    -156.086E-03     307.685E-03    -151.718E-03     29.6494E-03
            1327     7.73452E-03     147.930E-03    -44.3839E+06    -4.90709E+06     17.3447E+06    -42.3601E+06    -157.473E-03     309.852E-03    -152.379E-03     34.0292E-03    -157.696E-03     309.850E-03    -152.221E-03     34.4997E-03
            1328     8.50280E-03     148.003E-03    -39.7232E+06    -12.5262E+06     23.1470E+06    -42.1478E+06    -159.344E-03     312.313E-03    -152.969E-03     39.1899E-03    -159.537E-03     312.254E-03    -152.777E-03     39.7251E-03
            1329     9.26931E-03     148.082E-03    -31.6359E+06    -11.6939E+06     30.2295E+06    -37.2292E+06    -161.408E-03     315.009E-03    -153.601E-03     44.7372E-03    -161.566E-03     314.926E-03    -153.387E-03     45.3801E-03
            1330     10.0339E-03     148.166E-03    -19.7942E+06     3.02606E+06     42.8915E+06    -28.9902E+06    -163.630E-03     317.916E-03    -154.286E-03     50.2227E-03    -163.763E-03     317.866E-03    -154.048E-03     50.9776E-03
            1331     10.7975E-03     148.254E-03    -7.68184E+06     16.3290E+06     57.2309E+06    -18.3460E+06    -166.276E-03     321.317E-03    -155.041E-03     55.1706E-03    -166.387E-03     321.294E-03    -154.768E-03     55.9804E-03
            1332     11.5588E-03     148.344E-03     3.45702E+06     24.8484E+06     69.5423E+06    -4.87744E+06    -169.554E-03     325.432E-03    -155.878E-03     59.1186E-03    -169.645E-03     325.422E-03    -155.571E-03     59.9076E-03
            1333     12.3178E-03     148.435E-03     11.9654E+06     64.5793E+06     84.7706E+06     13.5797E+06    -173.227E-03     330.018E-03    -156.791E-03     61.7510E-03    -173.367E-03     330.185E-03    -156.479E-03     62.4542E-03
            1334     13.0737E-03     148.525E-03     6.16821E+06     77.2678E+06     83.5096E+06     25.1351E+06    -177.363E-03     335.163E-03    -157.800E-03     62.4761E-03    -177.576E-03     335.431E-03    -157.504E-03     62.8193E-03
            1335     13.8252E-03     148.608E-03    -9.68763E+06     48.9173E+06     63.9377E+06     16.6817E+06    -181.705E-03     340.619E-03    -158.915E-03     61.0179E-03    -181.972E-03     340.841E-03    -158.652E-03     60.4800E-03
            1336     14.5752E-03     148.684E-03    -12.3612E+06    -46.1367E+06     34.7294E+06     4.09525E+06    -185.698E-03     345.862E-03    -160.164E-03     51.3564E-03    -185.838E-03     345.694E-03    -159.906E-03     49.7786E-03
            1337     773.223E-06     148.871E-03    -42.4813E+06    -37.4787E+06    -37.9356E+06    -8.78530E+06    -154.339E-03     307.657E-03    -153.318E-03    -118.879E-06    -154.440E-03     307.590E-03    -153.392E-03    -208.480E-06
            1338     1.54465E-03     148.882E-03    -39.3152E+06    -32.6204E+06    -29.0824E+06    -15.2954E+06    -154.772E-03     308.875E-03    -154.104E-03    -2.70253E-03    -154.882E-03     308.810E-03    -154.145E-03    -2.81424E-03
            1339     2.31639E-03     148.900E-03    -36.4860E+06    -23.9750E+06    -17.7362E+06    -21.6661E+06    -154.826E-03     309.300E-03    -154.474E-03    -3.66384E-03    -154.951E-03     309.258E-03    -154.475E-03    -3.82437E-03
            1340     3.08785E-03     148.925E-03    -35.0413E+06    -21.3314E+06    -5.50020E+06    -27.3607E+06    -155.101E-03     309.861E-03    -154.761E-03    -4.39734E-03    -155.241E-03     309.813E-03    -154.706E-03    -4.60235E-03
            1341     3.85877E-03     148.955E-03    -34.2631E+06    -25.6072E+06     3.65683E+06    -32.7153E+06    -155.583E-03     310.641E-03    -155.058E-03    -4.38973E-03    -155.727E-03     310.557E-03    -154.952E-03    -4.63683E-03
            1342     4.62876E-03     148.994E-03    -33.0885E+06    -26.8551E+06     8.17655E+06    -35.2846E+06    -155.810E-03     311.147E-03    -155.337E-03    -4.02127E-03    -155.953E-03     311.051E-03    -155.210E-03    -4.24763E-03
            1343     5.39888E-03     149.039E-03    -31.8910E+06    -14.5513E+06     13.6453E+06    -37.0913E+06    -155.870E-03     311.450E-03    -155.581E-03    -3.02123E-03    -156.034E-03     311.407E-03    -155.445E-03    -3.19454E-03
            1344     6.16874E-03     149.092E-03    -31.8744E+06    -10.3796E+06     18.4089E+06    -40.8052E+06    -156.055E-03     311.874E-03    -155.818E-03    -1.25652E-03    -156.233E-03     311.846E-03    -155.665E-03    -1.39900E-03
            1345     6.93809E-03     149.153E-03    -32.3523E+06    -15.3082E+06     20.6723E+06    -39.4532E+06    -156.330E-03     312.386E-03    -156.056E-03     1.06199E-03    -156.507E-03     312.332E-03    -155.883E-03     1.03738E-03
            1346     7.70732E-03     149.221E-03    -32.4537E+06    -1.37546E+06     27.2253E+06    -33.9291E+06    -156.574E-03     312.859E-03    -156.285E-03     4.27279E-03    -156.780E-03     312.865E-03    -156.099E-03     4.43911E-03
            1347     8.47584E-03     149.296E-03    -34.4485E+06    -3.46642E+06     28.7494E+06    -33.6176E+06    -156.938E-03     313.448E-03    -156.510E-03     8.50925E-03    -157.151E-03     313.443E-03    -156.312E-03     8.78784E-03
            1348     9.24436E-03     149.377E-03    -36.9540E+06    -11.6303E+06     27.5960E+06    -36.3755E+06    -157.466E-03     314.198E-03    -156.732E-03     13.8569E-03    -157.674E-03     314.154E-03    -156.523E-03     14.2100E-03
            1349     10.0126E-03     149.464E-03    -37.5294E+06    -6.60278E+06     30.9399E+06    -33.7979E+06    -158.391E-03     315.358E-03    -156.966E-03     20.1085E-03    -158.609E-03     315.330E-03    -156.748E-03     20.6101E-03
            1350     10.7790E-03     149.555E-03    -35.8439E+06    -1.85059E+06     37.6960E+06    -25.1077E+06    -159.970E-03     317.224E-03    -157.254E-03     27.1873E-03    -160.190E-03     317.203E-03    -157.011E-03     27.8816E-03
            1351     11.5438E-03     149.651E-03    -29.5476E+06     8.56458E+06     48.8925E+06    -17.9496E+06    -162.195E-03     319.808E-03    -157.613E-03     35.0693E-03    -162.409E-03     319.808E-03    -157.338E-03     35.8576E-03
            1352     12.3058E-03     149.748E-03    -15.4792E+06     20.1403E+06     58.2082E+06    -2.98259E+06    -165.261E-03     323.301E-03    -158.040E-03     43.2709E-03    -165.432E-03     323.322E-03    -157.756E-03     44.1398E-03
            1353     13.0656E-03     149.845E-03     4.75519E+06     42.3348E+06     68.6473E+06     28.0861E+06    -169.659E-03     328.242E-03    -158.582E-03     50.3352E-03    -169.782E-03     328.334E-03    -158.307E-03     51.3245E-03
            1354     13.8228E-03     149.937E-03     16.6314E+06     82.1683E+06     81.3176E+06     35.9704E+06    -175.397E-03     334.712E-03    -159.315E-03     55.0560E-03    -175.562E-03     334.993E-03    -159.051E-03     55.5290E-03
            1355     14.5731E-03     150.023E-03     11.0447E+06    -15.3351E+06     54.9247E+06     12.9975E+06    -180.860E-03     341.140E-03    -160.280E-03     51.0531E-03    -180.908E-03     341.015E-03    -159.999E-03     50.4064E-03
            1356     765.107E-06     150.172E-03     -74.007E+03    -15.2958E+06     2.34629E+06    -5.81336E+06    -164.083E-03     327.661E-03    -163.578E-03    -4.52616E-03    -164.062E-03     327.587E-03    -163.544E-03    -4.68165E-03
            1357     1.52933E-03     150.184E-03     161.585E+03    -12.5440E+06     9.33133E+06    -10.1541E+06    -164.037E-03     328.037E-03    -164.000E-03    -11.0215E-03    -164.037E-03     327.954E-03    -163.935E-03    -11.2103E-03
            1358     2.29355E-03     150.201E-03     899.047E+03    -7.95906E+06     20.9141E+06    -12.7759E+06    -163.610E-03     327.760E-03    -164.149E-03    -16.3370E-03    -163.629E-03     327.681E-03    -164.035E-03    -16.5693E-03
            1359     3.05866E-03     150.225E-03     1.54735E+06    -6.21342E+06     32.4019E+06    -14.4135E+06    -163.283E-03     327.513E-03    -164.230E-03    -21.2436E-03    -163.318E-03     327.426E-03    -164.061E-03    -21.5024E-03
            1360     3.82314E-03     150.257E-03     686.581E+03    -9.17807E+06     39.6910E+06    -16.9244E+06    -163.087E-03     327.401E-03    -164.314E-03    -25.6372E-03    -163.132E-03     327.291E-03    -164.103E-03    -25.9261E-03
            1361     4.58763E-03     150.294E-03    -1.61726E+06    -14.4221E+06     41.1074E+06    -20.5637E+06    -162.699E-03     327.090E-03    -164.391E-03    -29.4688E-03    -162.750E-03     326.955E-03    -164.162E-03    -29.7950E-03
            1362     5.35217E-03     150.339E-03    -4.45328E+06    -4.84196E+06     40.9693E+06    -22.6203E+06    -161.928E-03     326.347E-03    -164.420E-03    -32.7809E-03    -162.007E-03     326.266E-03    -164.201E-03    -33.1004E-03
            1363     6.11694E-03     150.392E-03    -9.26734E+06     673.719E+03     41.6267E+06    -22.0656E+06    -160.803E-03     325.215E-03    -164.412E-03    -35.4393E-03    -160.917E-03     325.169E-03    -164.191E-03    -35.7013E-03
            1364     6.88227E-03     150.452E-03    -16.0886E+06    -11.8290E+06     39.0918E+06    -22.1066E+06    -159.495E-03     323.850E-03    -164.355E-03    -37.3775E-03    -159.622E-03     323.758E-03    -164.120E-03    -37.5848E-03
            1365     7.64814E-03     150.519E-03    -20.5125E+06    -4.07795E+06     40.0023E+06    -21.3843E+06    -157.887E-03     322.103E-03    -164.216E-03    -38.5126E-03    -158.051E-03     322.058E-03    -163.981E-03    -38.6381E-03
            1366     8.41539E-03     150.593E-03    -22.1513E+06     4.29637E+06     43.7203E+06    -18.7598E+06    -156.250E-03     320.270E-03    -164.019E-03    -38.6256E-03    -156.442E-03     320.266E-03    -163.775E-03    -38.6500E-03
            1367     9.18308E-03     150.672E-03    -26.7423E+06    -3.09987E+06     41.8772E+06    -18.4745E+06    -154.727E-03     318.495E-03    -163.768E-03    -37.8473E-03    -154.929E-03     318.466E-03    -163.516E-03    -37.8013E-03
            1368     9.95184E-03     150.758E-03    -33.9384E+06    -8.14636E+06     35.6360E+06    -18.7180E+06    -153.129E-03     316.578E-03    -163.448E-03    -35.7371E-03    -153.351E-03     316.544E-03    -163.209E-03    -35.6178E-03
            1369     10.7221E-03     150.851E-03    -37.5419E+06    -7.53031E+06     32.8942E+06    -18.6202E+06    -151.577E-03     314.659E-03    -163.082E-03    -31.5842E-03    -151.811E-03     314.637E-03    -162.852E-03    -31.3839E-03
            1370     11.4933E-03     150.947E-03    -38.7577E+06     3.28552E+06     34.9286E+06    -17.4974E+06    -150.455E-03     313.133E-03    -162.678E-03    -25.0427E-03    -150.709E-03     313.162E-03    -162.452E-03    -24.7466E-03
            1371     12.2662E-03     151.048E-03    -39.6857E+06    -3.19319E+06     32.3068E+06    -14.5899E+06    -150.584E-03     312.857E-03    -162.273E-03    -16.1091E-03    -150.821E-03     312.852E-03    -162.049E-03    -15.7255E-03
            1372     13.0377E-03     151.150E-03    -28.0070E+06    -7.70495E+06     35.0352E+06    -5.65388E+06    -152.142E-03     314.068E-03    -161.926E-03    -4.53832E-03    -152.311E-03     314.016E-03    -161.699E-03    -4.05967E-03
            1373     13.8044E-03     151.254E-03    -986.825E+03     66.2215E+06     55.9186E+06     14.6941E+06    -154.568E-03     316.181E-03    -161.613E-03     10.9784E-03    -154.742E-03     316.434E-03    -161.428E-03     11.4656E-03
            1374     14.5680E-03     151.351E-03     10.5585E+06     17.8015E+06     40.7531E+06     25.9270E+06    -157.344E-03     318.737E-03    -161.393E-03     23.3095E-03    -157.382E-03     318.766E-03    -161.230E-03     23.4135E-03
            1375     14.5373E-03     75.1143E-03    -5.39321E+06     90.0689E+06     89.1987E+06    -657.432E+03    -160.821E-03     323.530E-03    -162.709E-03     34.1786E-03    -161.259E-03     324.010E-03    -162.386E-03     31.4961E-03
            1376     13.7691E-03     75.0654E-03    -10.7708E+06     91.4687E+06     85.0654E+06    -75.0608E+03    -161.245E-03     324.014E-03    -162.769E-03     42.9948E-03    -161.733E-03     324.542E-03    -162.461E-03     40.3015E-03
            1377     13.0046E-03     75.0084E-03    -16.5567E+06      84.932E+06     74.9736E+06     875.433E+03    -162.469E-03     325.250E-03    -162.781E-03     47.0475E-03    -162.943E-03     325.749E-03    -162.506E-03     44.7441E-03
            1378     12.2398E-03     74.9488E-03    -21.0073E+06     78.1501E+06     68.0108E+06     716.452E+03    -162.637E-03     325.415E-03    -162.778E-03     49.2984E-03    -163.100E-03     325.883E-03    -162.520E-03     47.2352E-03
            1379     11.4749E-03     74.8886E-03    -24.9239E+06     58.1680E+06     60.7844E+06     2.06249E+06    -162.746E-03     325.535E-03    -162.790E-03     50.4465E-03    -163.170E-03     325.901E-03    -162.534E-03     48.6785E-03
            1380     10.7103E-03     74.8245E-03    -31.3970E+06     26.9805E+06     48.6969E+06     2.88106E+06    -162.958E-03     325.751E-03    -162.793E-03     50.0017E-03    -163.329E-03     325.965E-03    -162.543E-03     48.5566E-03
            1381     9.94494E-03     74.7618E-03    -38.0584E+06    -7.40863E+06     38.6250E+06     236.506E+03    -162.933E-03     325.741E-03    -162.808E-03     48.5283E-03    -163.249E-03     325.783E-03    -162.549E-03     47.3578E-03
            1382     9.17925E-03     74.7030E-03    -44.1385E+06    -32.7448E+06     30.5354E+06    -695.105E+03    -162.730E-03     325.558E-03    -162.828E-03     45.8709E-03    -163.010E-03     325.476E-03    -162.564E-03     44.9151E-03
            1383     8.41360E-03     74.6456E-03    -50.1346E+06    -52.6786E+06     21.7061E+06     129.951E+03    -162.583E-03     325.433E-03    -162.850E-03     43.0961E-03    -162.836E-03     325.259E-03    -162.593E-03     42.3572E-03
            1384     7.64900E-03     74.5910E-03    -54.7096E+06    -77.6308E+06     13.4233E+06     833.266E+03    -162.464E-03     325.361E-03    -162.897E-03     40.9144E-03    -162.679E-03     325.067E-03    -162.638E-03     40.4056E-03
            1385     6.88384E-03     74.5406E-03    -62.4757E+06    -96.7967E+06     1.92542E+06    -261.956E+03    -162.598E-03     325.526E-03    -162.927E-03     37.9728E-03    -162.796E-03     325.152E-03    -162.687E-03     37.6496E-03
            1386     6.11862E-03     74.4944E-03    -71.6460E+06    -113.930E+06    -11.8488E+06    -1.78700E+06    -163.307E-03     326.201E-03    -162.894E-03     34.7014E-03    -163.497E-03     325.767E-03    -162.685E-03     34.5008E-03
            1387     5.35481E-03     74.4499E-03    -78.0977E+06    -129.233E+06    -24.6704E+06    -1.73453E+06    -163.314E-03     326.115E-03    -162.801E-03     31.4536E-03    -163.490E-03     325.626E-03    -162.624E-03     31.3840E-03
            1388     4.59058E-03     74.4126E-03    -85.4310E+06    -146.664E+06    -40.0775E+06    -1.81709E+06    -162.342E-03     325.098E-03    -162.756E-03     27.9190E-03    -162.502E-03     324.551E-03    -162.620E-03     27.9304E-03
            1389     3.82432E-03     74.3822E-03    -92.4896E+06    -170.235E+06    -56.1333E+06    -1.19957E+06    -161.947E-03     324.785E-03    -162.839E-03     23.6738E-03    -162.082E-03     324.151E-03    -162.738E-03     23.7162E-03
            1390     3.05771E-03     74.3545E-03    -99.9777E+06    -193.215E+06    -72.1110E+06    -1.06110E+06    -162.520E-03     325.455E-03    -162.934E-03     18.9376E-03    -162.635E-03     324.738E-03    -162.870E-03     19.0102E-03
            1391     2.29388E-03     74.3344E-03    -112.573E+06    -209.890E+06    -92.0161E+06     467.818E+03    -163.146E-03     326.014E-03    -162.867E-03     14.5130E-03    -163.268E-03     325.258E-03    -162.860E-03     14.6507E-03
            1392     1.52973E-03     74.3166E-03    -116.616E+06    -218.704E+06    -104.090E+06     2.80378E+06    -163.160E-03     325.787E-03    -162.627E-03     9.27384E-03    -163.271E-03     325.010E-03    -162.661E-03     9.45610E-03
            1393     765.993E-06     74.3077E-03    -115.146E+06    -225.853E+06    -110.330E+06     3.40416E+06    -162.221E-03     324.907E-03    -162.686E-03     4.47208E-03    -162.300E-03     324.105E-03    -162.743E-03     4.60822E-03
            1394     14.5378E-03     73.8059E-03    -5.25135E+06     90.1846E+06     89.8292E+06     164.595E+03    -161.587E-03     324.252E-03    -162.665E-03     32.6759E-03    -162.020E-03     324.726E-03    -162.339E-03     30.0182E-03
            1395     13.7724E-03     73.7547E-03    -10.3761E+06     90.7563E+06     85.2822E+06     300.210E+03    -161.235E-03     323.935E-03    -162.700E-03     42.6117E-03    -161.719E-03     324.457E-03    -162.391E-03     39.9241E-03
            1396     13.0058E-03     73.6955E-03    -15.7447E+06     84.8418E+06     74.5069E+06    -231.121E+03    -161.453E-03     324.186E-03    -162.733E-03     46.1998E-03    -161.919E-03     324.681E-03    -162.461E-03     43.9005E-03
            1397     12.2395E-03     73.6380E-03    -20.3606E+06     78.3739E+06     67.9410E+06    -1.00175E+06    -162.109E-03     324.884E-03    -162.775E-03     48.3426E-03    -162.563E-03     325.347E-03    -162.520E-03     46.3073E-03
            1398     11.4740E-03     73.5741E-03    -25.3738E+06     53.5362E+06     62.2667E+06     1.25755E+06    -162.873E-03     325.688E-03    -162.815E-03     50.0025E-03    -163.291E-03     326.025E-03    -162.545E-03     48.2672E-03
            1399     10.7095E-03     73.5120E-03    -29.5197E+06     28.1820E+06     53.7674E+06     2.49552E+06    -163.033E-03     325.851E-03    -162.817E-03     49.5799E-03    -163.403E-03     326.060E-03    -162.547E-03     48.1269E-03
            1400     9.94409E-03     73.4501E-03    -34.2017E+06    -2.68508E+06     43.0490E+06     812.709E+03    -162.836E-03     325.657E-03    -162.822E-03     48.0630E-03    -163.146E-03     325.711E-03    -162.553E-03     46.8942E-03
            1401     9.17996E-03     73.3895E-03    -39.7424E+06    -32.9825E+06     33.3902E+06    -442.316E+03    -162.814E-03     325.655E-03    -162.841E-03     45.9178E-03    -163.076E-03     325.562E-03    -162.569E-03     44.9672E-03
            1402     8.41580E-03     73.3341E-03    -45.8936E+06    -52.8313E+06     23.8012E+06    -651.446E+03    -162.695E-03     325.550E-03    -162.855E-03     43.7352E-03    -162.929E-03     325.364E-03    -162.592E-03     43.0142E-03
            1403     7.64948E-03     73.2798E-03    -52.1861E+06    -78.9225E+06     13.7170E+06    -342.369E+03    -162.610E-03     325.495E-03    -162.886E-03     41.1032E-03    -162.810E-03     325.191E-03    -162.627E-03     40.5827E-03
            1404     6.88333E-03     73.2293E-03    -58.2786E+06    -95.4006E+06     4.47812E+06     441.218E+03    -162.908E-03     325.804E-03    -162.896E-03     37.8864E-03    -163.090E-03     325.428E-03    -162.651E-03     37.5914E-03
            1405     6.11932E-03     73.1798E-03    -65.4703E+06    -113.592E+06    -8.69484E+06     176.074E+03    -162.846E-03     325.721E-03    -162.875E-03     34.6312E-03    -163.009E-03     325.274E-03    -162.659E-03     34.5073E-03
            1406     5.35452E-03     73.1381E-03    -72.9855E+06    -129.192E+06    -23.0687E+06    -81.9447E+03    -162.202E-03     325.095E-03    -162.892E-03     31.3885E-03    -162.355E-03     324.596E-03    -162.714E-03     31.3427E-03
            1407     4.58748E-03     73.1024E-03    -85.2165E+06    -147.277E+06    -41.3621E+06    -227.789E+03    -162.301E-03     325.249E-03    -162.948E-03     27.7243E-03    -162.457E-03     324.700E-03    -162.818E-03     27.7565E-03
            1408     3.82284E-03     73.0697E-03    -93.4936E+06    -171.144E+06    -55.5911E+06    -744.988E+03    -162.797E-03     325.788E-03    -162.990E-03     22.8848E-03    -162.938E-03     325.150E-03    -162.884E-03     22.9184E-03
            1409     3.05935E-03     73.0430E-03    -100.627E+06    -193.648E+06    -71.7511E+06    -301.357E+03    -162.930E-03     325.892E-03    -162.962E-03     18.3281E-03    -163.048E-03     325.173E-03    -162.894E-03     18.3856E-03
            1410     2.29424E-03     73.0200E-03    -111.499E+06    -210.831E+06    -92.8739E+06    -1.31187E+06    -163.032E-03     325.889E-03    -162.857E-03     14.5705E-03    -163.147E-03     325.129E-03    -162.854E-03     14.6393E-03
            1411     1.53053E-03     73.0044E-03    -114.315E+06    -219.553E+06    -104.987E+06    -1.80771E+06    -162.916E-03     325.641E-03    -162.725E-03     10.2963E-03    -163.013E-03     324.858E-03    -162.766E-03     10.3384E-03
            1412     765.251E-06     72.9966E-03    -111.000E+06    -223.138E+06    -108.876E+06    -1.28214E+06    -162.608E-03     325.317E-03    -162.709E-03     5.99352E-03    -162.672E-03     324.521E-03    -162.769E-03     6.01914E-03
            1413     14.5382E-03     72.4914E-03    -4.21089E+06     90.1992E+06     90.1589E+06     467.847E+03    -162.008E-03     324.646E-03    -162.638E-03     33.4233E-03    -162.438E-03     325.120E-03    -162.312E-03     30.7646E-03
            1414     13.7735E-03     72.4441E-03    -9.44196E+06     91.0255E+06     86.1377E+06     99.8751E+03    -161.652E-03     324.304E-03    -162.653E-03     43.7289E-03    -162.138E-03     324.831E-03    -162.340E-03     41.0048E-03
            1415     13.0066E-03     72.3867E-03    -14.5409E+06     85.5786E+06     77.2613E+06    -388.208E+03    -161.364E-03     324.048E-03    -162.684E-03     47.5628E-03    -161.835E-03     324.547E-03    -162.401E-03     45.2291E-03
            1416     12.2407E-03     72.3252E-03    -21.0119E+06     77.7132E+06     69.3777E+06     205.478E+03    -162.078E-03     324.803E-03    -162.725E-03     48.6984E-03    -162.537E-03     325.262E-03    -162.460E-03     46.6912E-03
            1417     11.4755E-03     72.2628E-03    -28.8315E+06     53.4858E+06     60.4842E+06     -408.48E+03    -162.610E-03     325.367E-03    -162.757E-03     49.1482E-03    -163.038E-03     325.707E-03    -162.491E-03     47.4375E-03
            1418     10.7098E-03     72.1984E-03    -33.5525E+06     25.5468E+06     51.2690E+06    -1.66464E+06    -162.703E-03     325.477E-03    -162.775E-03     48.5183E-03    -163.082E-03     325.680E-03    -162.507E-03     47.0309E-03
            1419     9.94559E-03     72.1380E-03    -36.6397E+06    -150.299E+03     42.5790E+06    -432.487E+03    -162.434E-03     325.235E-03    -162.801E-03     47.3662E-03    -162.759E-03     325.306E-03    -162.535E-03     46.1678E-03
            1420     9.17896E-03     72.0780E-03    -43.4449E+06    -31.7128E+06     31.4178E+06     251.477E+03    -162.096E-03     324.957E-03    -162.861E-03     46.1788E-03    -162.373E-03     324.876E-03    -162.595E-03     45.2811E-03
            1421     8.41253E-03     72.0214E-03    -50.7875E+06    -55.1719E+06     20.4350E+06     205.601E+03    -162.588E-03     325.501E-03    -162.913E-03     44.4918E-03    -162.836E-03     325.314E-03    -162.657E-03     43.8423E-03
            1422     7.64865E-03     71.9677E-03    -57.3436E+06    -76.1398E+06     9.28201E+06    -55.2959E+03    -163.260E-03     326.170E-03    -162.910E-03     41.9312E-03    -163.482E-03     325.891E-03    -162.670E-03     41.4694E-03
            1423     6.88541E-03     71.9159E-03    -65.4475E+06    -97.1563E+06    -2.72462E+06    -1.35449E+06    -163.008E-03     325.889E-03    -162.881E-03     39.0349E-03    -163.213E-03     325.525E-03    -162.659E-03     38.7247E-03
            1424     6.11977E-03     71.8685E-03    -69.6285E+06    -114.526E+06    -11.0577E+06    -1.37739E+06    -162.383E-03     325.288E-03    -162.905E-03     35.1680E-03    -162.563E-03     324.847E-03    -162.693E-03     34.9979E-03
            1425     5.35248E-03     71.8286E-03    -77.3004E+06    -130.902E+06    -23.7014E+06     462.356E+03    -162.488E-03     325.431E-03    -162.943E-03     30.4011E-03    -162.660E-03     324.932E-03    -162.760E-03     30.3432E-03
            1426     4.58836E-03     71.7892E-03    -84.2154E+06    -144.780E+06    -38.5814E+06     2.27019E+06    -162.732E-03     325.673E-03    -162.942E-03     25.9131E-03    -162.892E-03     325.133E-03    -162.803E-03     25.9310E-03
            1427     3.82427E-03     71.7563E-03    -91.0496E+06    -170.502E+06    -54.9663E+06     1.36033E+06    -162.644E-03     325.588E-03    -162.944E-03     22.1351E-03    -162.775E-03     324.949E-03    -162.839E-03     22.1622E-03
            1428     3.05889E-03     71.7304E-03    -101.746E+06    -195.625E+06    -73.3534E+06     726.266E+03    -162.808E-03     325.746E-03    -162.938E-03     19.1623E-03    -162.926E-03     325.021E-03    -162.873E-03     19.2442E-03
            1429     2.29440E-03     71.7084E-03    -105.981E+06    -205.315E+06    -89.2100E+06    -36.5021E+03    -162.715E-03     325.633E-03    -162.919E-03     14.6874E-03    -162.815E-03     324.887E-03    -162.913E-03     14.7642E-03
            1430     1.52787E-03     71.6928E-03    -114.025E+06    -220.292E+06    -108.685E+06    -3.04923E+06    -162.513E-03     325.522E-03    -163.009E-03     9.51628E-03    -162.601E-03     324.739E-03    -163.068E-03     9.50743E-03
            1431     763.048E-06     71.6839E-03    -122.389E+06    -232.150E+06    -121.517E+06    -3.71285E+06    -163.032E-03     326.211E-03    -163.180E-03     5.02099E-03    -163.121E-03     325.405E-03    -163.273E-03     4.99151E-03
            1432     14.5377E-03     71.1798E-03    -4.42192E+06     89.4261E+06     89.3621E+06    -154.274E+03    -161.635E-03     324.280E-03    -162.645E-03     33.6494E-03    -162.064E-03     324.751E-03    -162.321E-03     30.9972E-03
            1433     13.7715E-03     71.1318E-03    -9.27006E+06     91.3376E+06     86.2618E+06     140.903E+03    -162.058E-03     324.719E-03    -162.661E-03     43.3616E-03    -162.541E-03     325.243E-03    -162.349E-03     40.6657E-03
            1434     13.0070E-03     71.0760E-03    -15.3977E+06     84.9841E+06     77.8094E+06     1.02704E+06    -162.506E-03     325.157E-03    -162.651E-03     47.5206E-03    -162.979E-03     325.652E-03    -162.363E-03     45.2224E-03
            1435     12.2414E-03     71.0130E-03    -21.5608E+06     76.7423E+06     69.3258E+06     1.17472E+06    -162.539E-03     325.176E-03    -162.637E-03     48.6166E-03    -162.999E-03     325.631E-03    -162.371E-03     46.6042E-03
            1436     11.4764E-03     70.9500E-03    -26.2401E+06     58.0069E+06     59.9849E+06    -999.733E+03    -162.245E-03     324.891E-03    -162.646E-03     48.6921E-03    -162.665E-03     325.250E-03    -162.392E-03     46.9759E-03
            1437     10.7114E-03     70.8874E-03    -31.0829E+06     26.6519E+06     49.9786E+06    -2.76257E+06    -161.893E-03     324.593E-03    -162.701E-03     48.7850E-03    -162.255E-03     324.795E-03    -162.444E-03     47.3585E-03
            1438     9.94463E-03     70.8256E-03    -37.6714E+06    -4.11400E+06     39.8499E+06    -1.24657E+06    -161.803E-03     324.588E-03    -162.784E-03     47.5457E-03    -162.123E-03     324.644E-03    -162.524E-03     46.3537E-03
            1439     9.17943E-03     70.7685E-03    -44.0372E+06    -31.9029E+06     29.2122E+06     653.687E+03    -162.031E-03     324.899E-03    -162.868E-03     45.9498E-03    -162.308E-03     324.822E-03    -162.612E-03     45.0545E-03
            1440     8.41372E-03     70.7097E-03    -50.2736E+06    -54.9099E+06     19.3226E+06     140.108E+03    -162.563E-03     325.492E-03    -162.929E-03     44.0512E-03    -162.806E-03     325.306E-03    -162.680E-03     43.4048E-03
            1441     7.64827E-03     70.6534E-03    -57.6894E+06    -74.7922E+06     8.30509E+06    -294.870E+03    -162.809E-03     325.761E-03    -162.952E-03     41.3033E-03    -163.034E-03     325.492E-03    -162.718E-03     40.8073E-03
            1442     6.88255E-03     70.6036E-03    -62.7844E+06    -95.0547E+06    -1.49516E+06    -1.22236E+06    -162.805E-03     325.774E-03    -162.968E-03     38.7089E-03    -163.003E-03     325.415E-03    -162.747E-03     38.3606E-03
            1443     6.11718E-03     70.5578E-03    -72.4265E+06    -117.622E+06    -13.9859E+06    -1.24047E+06    -163.162E-03     326.118E-03    -162.957E-03     34.7546E-03    -163.349E-03     325.671E-03    -162.751E-03     34.5260E-03
            1444     5.35483E-03     70.5141E-03    -81.1954E+06    -132.164E+06    -26.3262E+06     111.976E+03    -163.136E-03     326.035E-03    -162.898E-03     30.4469E-03    -163.322E-03     325.539E-03    -162.721E-03     30.3724E-03
            1445     4.59071E-03     70.4770E-03    -87.1302E+06    -145.549E+06    -40.0667E+06     945.533E+03    -162.531E-03     325.392E-03    -162.862E-03     26.9672E-03    -162.701E-03     324.853E-03    -162.725E-03     26.9905E-03
            1446     3.82375E-03     70.4464E-03    -97.7213E+06    -170.958E+06    -60.5912E+06     3.34357E+06    -162.537E-03     325.400E-03    -162.863E-03     22.9655E-03    -162.691E-03     324.776E-03    -162.776E-03     23.0859E-03
            1447     3.05825E-03     70.4178E-03    -101.830E+06    -191.771E+06    -75.3132E+06     2.46735E+06    -162.874E-03     325.717E-03    -162.843E-03     18.1798E-03    -162.995E-03     325.014E-03    -162.793E-03     18.3228E-03
            1448     2.29377E-03     70.3951E-03    -106.071E+06    -204.037E+06    -88.4961E+06     558.983E+03    -162.770E-03     325.555E-03    -162.785E-03     12.9286E-03    -162.873E-03     324.815E-03    -162.778E-03     13.0073E-03
            1449     1.53043E-03     70.3821E-03    -113.638E+06    -219.639E+06    -103.501E+06     1.30954E+06    -162.683E-03     325.428E-03    -162.745E-03     8.64193E-03    -162.778E-03     324.641E-03    -162.779E-03     8.70651E-03
            1450     765.766E-06     70.3694E-03    -119.727E+06    -235.332E+06    -116.925E+06     706.780E+03    -162.710E-03     325.435E-03    -162.725E-03     4.91131E-03    -162.788E-03     324.602E-03    -162.795E-03     4.96669E-03
            1451     14.5380E-03     69.8686E-03    -5.02167E+06     88.9304E+06     89.0731E+06    -198.910E+03    -161.742E-03     324.383E-03    -162.641E-03     33.1015E-03    -162.170E-03     324.850E-03    -162.317E-03     30.4571E-03
            1452     13.7725E-03     69.8203E-03    -10.6950E+06     90.3728E+06     85.1381E+06     761.847E+03    -162.410E-03     325.051E-03    -162.641E-03     43.0506E-03    -162.891E-03     325.568E-03    -162.331E-03     40.4077E-03
            1453     13.0075E-03     69.7612E-03    -15.5550E+06     85.3275E+06     76.6557E+06     933.271E+03    -163.081E-03     325.680E-03    -162.599E-03     47.3165E-03    -163.551E-03     326.175E-03    -162.317E-03     45.0359E-03
            1454     12.2440E-03     69.7014E-03    -19.7454E+06     78.2587E+06     69.6817E+06    -269.370E+03    -162.421E-03     324.992E-03    -162.572E-03     48.9657E-03    -162.878E-03     325.456E-03    -162.308E-03     46.8967E-03
            1455     11.4781E-03     69.6384E-03    -24.9162E+06     60.3724E+06     60.4193E+06    -1.35029E+06    -161.637E-03     324.240E-03    -162.603E-03     50.1479E-03    -162.060E-03     324.613E-03    -162.352E-03     48.3943E-03
            1456     10.7110E-03     69.5778E-03    -33.2187E+06     25.8928E+06     46.7925E+06    -235.803E+03    -161.621E-03     324.300E-03    -162.680E-03     49.6275E-03    -161.990E-03     324.508E-03    -162.435E-03     48.2219E-03
            1457     9.94490E-03     69.5150E-03    -41.0614E+06    -8.09224E+06     35.2632E+06    -905.126E+03    -161.860E-03     324.631E-03    -162.771E-03     47.6153E-03    -162.185E-03     324.678E-03    -162.523E-03     46.4263E-03
            1458     9.17857E-03     69.4568E-03    -46.8656E+06    -32.1606E+06     27.0569E+06    -832.264E+03    -162.551E-03     325.386E-03    -162.835E-03     46.0113E-03    -162.840E-03     325.316E-03    -162.585E-03     45.0808E-03
            1459     8.41410E-03     69.3966E-03    -52.2088E+06    -52.9574E+06     18.5644E+06     574.166E+03    -162.685E-03     325.550E-03    -162.865E-03     43.7751E-03    -162.941E-03     325.379E-03    -162.620E-03     43.1101E-03
            1460     7.64883E-03     69.3429E-03    -57.9778E+06    -73.5360E+06     9.30355E+06    -954.870E+03    -162.319E-03     325.226E-03    -162.907E-03     40.2705E-03    -162.550E-03     324.962E-03    -162.670E-03     39.7443E-03
            1461     6.88306E-03     69.2918E-03    -65.9409E+06    -94.9432E+06    -2.22155E+06     14.5131E+03    -162.643E-03     325.589E-03    -162.946E-03     37.3744E-03    -162.856E-03     325.236E-03    -162.723E-03     37.0372E-03
            1462     6.11965E-03     69.2428E-03    -74.7572E+06    -118.558E+06    -18.0558E+06     980.744E+03    -162.922E-03     325.859E-03    -162.936E-03     34.4424E-03    -163.114E-03     325.416E-03    -162.746E-03     34.2530E-03
            1463     5.35391E-03     69.2019E-03    -79.6363E+06    -132.619E+06    -29.1265E+06    -95.6784E+03    -162.717E-03     325.644E-03    -162.927E-03     31.0015E-03    -162.890E-03     325.148E-03    -162.765E-03     30.9167E-03
            1464     4.58692E-03     69.1667E-03    -86.3047E+06    -148.670E+06    -40.6696E+06     350.968E+03    -162.914E-03     325.828E-03    -162.914E-03     26.9876E-03    -163.075E-03     325.273E-03    -162.777E-03     27.0213E-03
            1465     3.82381E-03     69.1327E-03    -95.3778E+06    -170.383E+06    -56.9680E+06     1.43284E+06    -163.286E-03     326.108E-03    -162.822E-03     22.7510E-03    -163.433E-03     325.477E-03    -162.721E-03     22.8650E-03
            1466     3.06117E-03     69.1049E-03    -101.633E+06    -189.314E+06     -72.542E+06     1.18536E+06    -162.952E-03     325.638E-03    -162.687E-03     18.2043E-03    -163.080E-03     324.944E-03    -162.627E-03     18.3031E-03
            1467     2.29583E-03     69.0849E-03    -108.865E+06    -205.740E+06    -89.7807E+06     1.72951E+06    -162.452E-03     325.063E-03    -162.611E-03     13.7577E-03    -162.565E-03     324.320E-03    -162.604E-03     13.8594E-03
            1468     1.52964E-03     69.0685E-03    -113.129E+06    -217.762E+06    -103.119E+06     2.47965E+06    -162.451E-03     325.075E-03    -162.624E-03     10.1680E-03    -162.546E-03     324.295E-03    -162.659E-03     10.2818E-03
            1469     764.601E-06     69.0605E-03    -112.883E+06    -231.283E+06    -110.184E+06     1.86126E+06    -162.634E-03     325.300E-03    -162.666E-03     6.34835E-03    -162.693E-03     324.468E-03    -162.718E-03     6.42866E-03
            1470     14.5381E-03     68.5560E-03    -5.15096E+06     88.8957E+06     89.4624E+06     556.655E+03    -162.258E-03     324.887E-03    -162.629E-03     33.3622E-03    -162.688E-03     325.355E-03    -162.303E-03     30.7037E-03
            1471     13.7731E-03     68.5083E-03    -10.0361E+06     91.2195E+06     85.5513E+06     231.451E+03    -162.424E-03     325.037E-03    -162.612E-03     43.9947E-03    -162.907E-03     325.560E-03    -162.302E-03     41.3302E-03
            1472     13.0084E-03     68.4476E-03    -14.0627E+06     86.6183E+06     75.2811E+06    -812.255E+03    -162.454E-03     325.033E-03    -162.578E-03     48.6488E-03    -162.923E-03     325.540E-03    -162.307E-03     46.3161E-03
            1473     12.2423E-03     68.3894E-03    -19.4216E+06     78.1099E+06     67.9590E+06    -925.389E+03    -162.052E-03     324.637E-03    -162.585E-03     49.1438E-03    -162.510E-03     325.106E-03    -162.330E-03     47.0165E-03
            1474     11.4753E-03     68.3298E-03    -26.6734E+06     56.8060E+06     59.9253E+06     1.52612E+06    -161.698E-03     324.339E-03    -162.642E-03     50.3112E-03    -162.126E-03     324.701E-03    -162.386E-03     48.5504E-03
            1475     10.7104E-03     68.2645E-03    -33.8210E+06     24.5612E+06     46.4216E+06     1.92972E+06    -161.946E-03     324.648E-03    -162.702E-03     49.6614E-03    -162.320E-03     324.855E-03    -162.457E-03     48.2160E-03
            1476     9.94508E-03     68.2057E-03    -41.2289E+06    -3.79901E+06     35.9318E+06     1.22922E+06    -162.479E-03     325.234E-03    -162.755E-03     48.0023E-03    -162.812E-03     325.302E-03    -162.510E-03     46.8519E-03
            1477     9.18035E-03     68.1431E-03    -48.2980E+06    -31.6667E+06     26.0446E+06     225.874E+03    -162.770E-03     325.553E-03    -162.783E-03     46.4045E-03    -163.062E-03     325.486E-03    -162.537E-03     45.5282E-03
            1478     8.41516E-03     68.0853E-03    -53.5018E+06    -54.2012E+06     17.1629E+06    -1.12055E+06    -162.644E-03     325.446E-03    -162.802E-03     43.7265E-03    -162.904E-03     325.274E-03    -162.560E-03     43.0159E-03
            1479     7.64951E-03     68.0313E-03    -58.5805E+06    -71.8269E+06     9.14297E+06     182.350E+03    -162.667E-03     325.489E-03    -162.822E-03     40.8276E-03    -162.902E-03     325.235E-03    -162.588E-03     40.3260E-03
            1480     6.88514E-03     67.9792E-03    -65.4401E+06    -96.0910E+06    -3.35832E+06    -643.711E+03    -162.471E-03     325.314E-03    -162.843E-03     37.9648E-03    -162.677E-03     324.956E-03    -162.626E-03     37.6249E-03
            1481     6.11803E-03     67.9321E-03    -72.2227E+06    -118.860E+06    -16.2167E+06    -1.46090E+06    -162.128E-03     325.026E-03    -162.898E-03     34.3297E-03    -162.309E-03     324.576E-03    -162.702E-03     34.1073E-03
            1482     5.35225E-03     67.8905E-03    -80.0239E+06    -133.773E+06    -28.8645E+06    -402.024E+03    -162.754E-03     325.683E-03    -162.929E-03     30.1431E-03    -162.929E-03     325.182E-03    -162.763E-03     30.0303E-03
            1483     4.59016E-03     67.8521E-03    -87.3164E+06    -149.218E+06    -40.6131E+06     272.017E+03    -163.265E-03     326.142E-03    -162.876E-03     26.0633E-03    -163.432E-03     325.586E-03    -162.736E-03     26.0431E-03
            1484     3.82533E-03     67.8199E-03    -91.8340E+06    -168.553E+06    -52.6101E+06     732.565E+03    -162.751E-03     325.564E-03    -162.813E-03     22.9366E-03    -162.891E-03     324.932E-03    -162.698E-03     23.0238E-03
            1485     3.05856E-03     67.7933E-03    -100.427E+06     -190.52E+06    -71.8870E+06     224.619E+03    -162.398E-03     325.203E-03    -162.805E-03     19.2928E-03    -162.518E-03     324.499E-03    -162.743E-03     19.3935E-03
            1486     2.29398E-03     67.7733E-03    -109.291E+06    -207.130E+06    -91.5722E+06    -313.850E+03    -162.564E-03     325.391E-03    -162.828E-03     14.9331E-03    -162.674E-03     324.644E-03    -162.827E-03     15.0342E-03
            1487     1.52932E-03     67.7586E-03    -111.727E+06    -216.302E+06    -105.332E+06    -259.227E+03    -162.843E-03     325.650E-03    -162.807E-03     10.2074E-03    -162.929E-03     324.878E-03    -162.858E-03     10.3232E-03
            1488     764.371E-06     67.7463E-03    -111.272E+06    -229.157E+06    -110.588E+06    -290.024E+03    -162.855E-03     325.601E-03    -162.747E-03     5.31107E-03    -162.907E-03     324.778E-03    -162.806E-03     5.36891E-03
            1489     14.5383E-03     67.2424E-03    -4.17695E+06     89.3207E+06     90.1036E+06     106.746E+03    -162.305E-03     324.947E-03    -162.643E-03     34.2889E-03    -162.739E-03     325.422E-03    -162.316E-03     31.5812E-03
            1490     13.7733E-03     67.1965E-03    -8.24726E+06     92.5175E+06     85.6724E+06    -890.275E+03    -162.543E-03     325.161E-03    -162.618E-03     44.4298E-03    -163.022E-03     325.691E-03    -162.312E-03     41.7336E-03
            1491     13.0068E-03     67.1361E-03    -14.0387E+06     86.1593E+06     73.9944E+06    -600.024E+03    -162.131E-03     324.719E-03    -162.588E-03     47.6914E-03    -162.592E-03     325.222E-03    -162.323E-03     45.3955E-03
            1492     12.2414E-03     67.0781E-03    -20.8927E+06     76.5290E+06     65.1304E+06     908.566E+03    -161.979E-03     324.582E-03    -162.603E-03     47.7885E-03    -162.432E-03     325.043E-03    -162.358E-03     45.7210E-03
            1493     11.4775E-03     67.0174E-03    -26.9234E+06     50.2760E+06     58.4122E+06     3.13517E+06    -162.161E-03     324.819E-03    -162.657E-03     49.1382E-03    -162.577E-03     325.148E-03    -162.399E-03     47.3980E-03
            1494     10.7106E-03     66.9551E-03    -30.9580E+06     26.5121E+06     49.9914E+06     4.31008E+06    -162.174E-03     324.876E-03    -162.702E-03     49.2766E-03    -162.542E-03     325.083E-03    -162.446E-03     47.8574E-03
            1495     9.94487E-03     66.8917E-03    -36.7581E+06     3.50128E+06     40.5484E+06     2.63125E+06    -162.651E-03     325.385E-03    -162.733E-03     48.2136E-03    -162.978E-03     325.475E-03    -162.482E-03     47.0947E-03
            1496     9.18008E-03     66.8316E-03    -45.0222E+06    -30.1795E+06     28.5290E+06     856.073E+03    -162.863E-03     325.612E-03    -162.749E-03     46.2753E-03    -163.146E-03     325.545E-03    -162.497E-03     45.3820E-03
            1497     8.41434E-03     66.7738E-03    -50.9950E+06    -54.3374E+06     17.5875E+06    -1.51735E+06    -162.749E-03     325.498E-03    -162.749E-03     43.5568E-03    -162.998E-03     325.322E-03    -162.508E-03     42.8249E-03
            1498     7.64982E-03     66.7185E-03    -56.6809E+06    -73.7431E+06     9.09189E+06    -2.18836E+06    -162.641E-03     325.403E-03    -162.762E-03     40.7370E-03    -162.864E-03     325.137E-03    -162.528E-03     40.2133E-03
            1499     6.88421E-03     66.6677E-03    -62.5321E+06    -96.8397E+06    -953.628E+03    -1.40647E+06    -162.305E-03     325.102E-03    -162.797E-03     37.6266E-03    -162.499E-03     324.733E-03    -162.571E-03     37.2591E-03
            1500     6.11984E-03     66.6219E-03    -70.0846E+06    -119.686E+06    -12.1646E+06    -765.908E+03    -162.349E-03     325.199E-03    -162.850E-03     34.5560E-03    -162.524E-03     324.735E-03    -162.636E-03     34.3496E-03
            1501     5.35534E-03     66.5772E-03    -80.4545E+06    -133.040E+06    -25.9428E+06     692.263E+03    -162.499E-03     325.374E-03    -162.875E-03     31.2894E-03    -162.680E-03     324.872E-03    -162.695E-03     31.2446E-03
            1502     4.58886E-03     66.5391E-03    -87.8312E+06    -148.070E+06    -41.7932E+06     6.59030E+03    -162.445E-03     325.333E-03    -162.888E-03     27.5433E-03    -162.613E-03     324.785E-03    -162.755E-03     27.5361E-03
            1503     3.82338E-03     66.5099E-03    -92.6932E+06    -169.537E+06    -54.6214E+06    -304.034E+03    -162.443E-03     325.384E-03    -162.942E-03     23.4351E-03    -162.582E-03     324.751E-03    -162.834E-03     23.4929E-03
            1504     3.05893E-03     66.4814E-03    -98.8167E+06    -189.864E+06    -70.5290E+06    -16.3660E+03    -162.485E-03     325.489E-03    -163.004E-03     18.6594E-03    -162.600E-03     324.784E-03    -162.938E-03     18.7539E-03
            1505     2.29322E-03     66.4615E-03    -106.521E+06    -204.936E+06    -90.1013E+06    -2.07325E+06    -162.991E-03     325.983E-03    -162.992E-03     14.1537E-03    -163.092E-03     325.240E-03    -162.991E-03     14.2060E-03
            1506     1.52939E-03     66.4435E-03    -112.924E+06    -217.701E+06    -105.459E+06    -3.15084E+06    -163.266E-03     326.093E-03    -162.827E-03     9.61455E-03    -163.356E-03     325.316E-03    -162.875E-03     9.64312E-03
            1507     765.938E-06     66.4360E-03    -116.840E+06    -233.017E+06    -115.065E+06    -2.01127E+06    -162.714E-03     325.401E-03    -162.687E-03     5.17990E-03    -162.782E-03     324.573E-03    -162.755E-03     5.18048E-03
            1508     14.5369E-03     65.9322E-03    -4.14997E+06     89.1269E+06     89.0208E+06    -926.781E+03    -162.022E-03     324.672E-03    -162.650E-03     34.1226E-03    -162.450E-03     325.144E-03    -162.329E-03     31.4650E-03
            1509     13.7718E-03     65.8810E-03    -9.12037E+06     91.7523E+06     83.9288E+06    -627.049E+03    -162.744E-03     325.371E-03    -162.627E-03     43.9477E-03    -163.223E-03     325.900E-03    -162.327E-03     41.2528E-03
            1510     13.0088E-03     65.8256E-03    -15.5804E+06     84.9075E+06     73.6480E+06     1.14914E+06    -162.403E-03     324.995E-03    -162.592E-03     46.5154E-03    -162.863E-03     325.487E-03    -162.324E-03     44.2758E-03
            1511     12.2426E-03     65.7665E-03    -21.4179E+06     76.9268E+06     66.5576E+06     1.89625E+06    -161.972E-03     324.574E-03    -162.602E-03     48.2600E-03    -162.428E-03     325.034E-03    -162.350E-03     46.2534E-03
            1512     11.4755E-03     65.7053E-03    -26.3174E+06     47.9507E+06     58.9448E+06     1.54646E+06    -162.398E-03     325.045E-03    -162.647E-03     49.1131E-03    -162.808E-03     325.361E-03    -162.384E-03     47.3523E-03
            1513     10.7114E-03     65.6437E-03    -32.5347E+06     26.1015E+06     50.5355E+06     3.65249E+06    -162.614E-03     325.280E-03    -162.666E-03     49.2514E-03    -162.989E-03     325.485E-03    -162.404E-03     47.8333E-03
            1514     9.94608E-03     65.5801E-03    -36.0429E+06     7.06725E+06     42.7166E+06     2.91329E+06    -162.724E-03     325.397E-03    -162.674E-03     48.0407E-03    -163.056E-03     325.503E-03    -162.418E-03     46.9005E-03
            1515     9.18051E-03     65.5191E-03    -40.0060E+06    -28.0497E+06     33.5587E+06    -600.996E+03    -162.780E-03     325.473E-03    -162.693E-03     45.3202E-03    -163.051E-03     325.405E-03    -162.427E-03     44.3453E-03
            1516     8.41642E-03     65.4616E-03    -47.9598E+06    -50.7821E+06     21.5767E+06    -581.007E+03    -162.382E-03     325.084E-03    -162.702E-03     43.2908E-03    -162.627E-03     324.916E-03    -162.451E-03     42.5600E-03
            1517     7.65080E-03     65.4069E-03    -56.1783E+06    -75.0873E+06     8.91987E+06    -1.92222E+06    -162.147E-03     324.892E-03    -162.744E-03     41.5573E-03    -162.366E-03     324.618E-03    -162.509E-03     41.0452E-03
            1518     6.88528E-03     65.3571E-03    -64.7927E+06    -100.331E+06    -1.32500E+06    -359.241E+03    -162.475E-03     325.278E-03    -162.802E-03     38.4377E-03    -162.675E-03     324.895E-03    -162.569E-03     38.0942E-03
            1519     6.11909E-03     65.3094E-03    -71.5608E+06    -119.854E+06    -13.0868E+06     1.18622E+06    -162.456E-03     325.287E-03    -162.831E-03     35.2648E-03    -162.636E-03     324.825E-03    -162.619E-03     35.1035E-03
            1520     5.35338E-03     65.2658E-03    -78.3681E+06    -133.927E+06    -25.7255E+06    -1.48757E+06    -162.048E-03     324.932E-03    -162.884E-03     31.6243E-03    -162.217E-03     324.422E-03    -162.705E-03     31.5598E-03
            1521     4.58778E-03     65.2297E-03    -84.8756E+06    -147.624E+06    -38.9224E+06    -1.57945E+06    -162.256E-03     325.220E-03    -162.964E-03     27.0143E-03    -162.414E-03     324.665E-03    -162.821E-03     27.0042E-03
            1522     3.82314E-03     65.1946E-03    -92.3031E+06    -169.250E+06    -54.3300E+06    -1.64180E+06    -162.851E-03     325.842E-03    -162.991E-03     22.0976E-03    -162.991E-03     325.211E-03    -162.884E-03     22.0848E-03
            1523     3.05842E-03     65.1711E-03    -101.190E+06    -190.288E+06    -69.2384E+06     304.837E+03    -163.063E-03     326.003E-03    -162.940E-03     17.6939E-03    -163.192E-03     325.298E-03    -162.864E-03     17.7421E-03
            1524     2.29452E-03     65.1468E-03    -107.454E+06    -202.256E+06    -85.7255E+06     3.18503E+06    -162.860E-03     325.703E-03    -162.843E-03     13.7184E-03    -162.976E-03     324.968E-03    -162.823E-03     13.8569E-03
            1525     1.52979E-03     65.1323E-03    -113.903E+06    -216.885E+06    -104.842E+06     1.34979E+06    -162.572E-03     325.394E-03    -162.822E-03     9.20298E-03    -162.669E-03     324.621E-03    -162.866E-03     9.27987E-03
            1526     763.611E-06     65.1234E-03    -122.062E+06    -235.840E+06    -119.731E+06    -872.846E+03    -162.908E-03     325.695E-03    -162.787E-03     5.22293E-03    -162.991E-03     324.867E-03    -162.867E-03     5.23826E-03
            1527     14.5385E-03     64.6220E-03    -4.96160E+06     88.6630E+06     87.8196E+06    -756.024E+03    -162.373E-03     325.003E-03    -162.630E-03     33.9954E-03    -162.798E-03     325.471E-03    -162.312E-03     31.3908E-03
            1528     13.7732E-03     64.5665E-03    -10.3939E+06     90.5011E+06     83.9426E+06     62.3069E+03    -162.059E-03     324.682E-03    -162.623E-03     43.4393E-03    -162.542E-03     325.206E-03    -162.320E-03     40.7429E-03
            1529     13.0067E-03     64.5139E-03    -15.8084E+06     84.6053E+06     75.3407E+06     1.35993E+06    -162.055E-03     324.678E-03    -162.622E-03     46.7838E-03    -162.523E-03     325.171E-03    -162.345E-03     44.5019E-03
            1530     12.2416E-03     64.4552E-03    -20.7522E+06     76.6148E+06     69.5946E+06     675.877E+03    -162.530E-03     325.163E-03    -162.633E-03     49.0994E-03    -162.990E-03     325.619E-03    -162.366E-03     47.0503E-03
            1531     11.4776E-03     64.3934E-03    -26.0115E+06     49.1469E+06     61.3559E+06     873.208E+03    -162.794E-03     325.437E-03    -162.643E-03     49.2935E-03    -163.212E-03     325.759E-03    -162.370E-03     47.4690E-03
            1532     10.7115E-03     64.3310E-03    -32.7554E+06     25.3097E+06     51.4177E+06     1.09831E+06    -162.887E-03     325.520E-03    -162.633E-03     49.3192E-03    -163.265E-03     325.723E-03    -162.365E-03     47.8327E-03
            1533     9.94681E-03     64.2680E-03    -37.5276E+06     7.95365E+06     43.5404E+06     1.02451E+06    -162.638E-03     325.269E-03    -162.630E-03     48.8332E-03    -162.982E-03     325.381E-03    -162.370E-03     47.6650E-03
            1534     9.18236E-03     64.2069E-03    -41.7650E+06    -26.3070E+06     32.9950E+06     54.0643E+03    -162.248E-03     324.915E-03    -162.667E-03     46.8402E-03    -162.530E-03     324.859E-03    -162.403E-03     45.8959E-03
            1535     8.41564E-03     64.1510E-03    -49.1210E+06    -51.9800E+06     22.3576E+06    -328.026E+03    -162.022E-03     324.749E-03    -162.727E-03     44.4473E-03    -162.271E-03     324.575E-03    -162.469E-03     43.7277E-03
            1536     7.64876E-03     64.0973E-03    -56.9277E+06    -73.6303E+06     10.8197E+06     1.65192E+06    -162.234E-03     325.021E-03    -162.787E-03     42.0500E-03    -162.462E-03     324.754E-03    -162.544E-03     41.5654E-03
            1537     6.88345E-03     64.0435E-03    -64.2882E+06    -99.4596E+06    -1.20120E+06      761.73E+03    -162.575E-03     325.404E-03    -162.829E-03     38.4785E-03    -162.773E-03     325.024E-03    -162.597E-03     38.1666E-03
            1538     6.11995E-03     63.9982E-03    -71.0403E+06    -119.604E+06    -13.2866E+06    -986.438E+03    -162.569E-03     325.415E-03    -162.846E-03     34.6938E-03    -162.746E-03     324.954E-03    -162.636E-03     34.4972E-03
            1539     5.35415E-03     63.9556E-03    -78.0524E+06    -133.659E+06    -26.5239E+06    -1.39231E+06    -162.539E-03     325.392E-03    -162.852E-03     30.8872E-03    -162.707E-03     324.885E-03    -162.678E-03     30.7811E-03
            1540     4.58952E-03     63.9161E-03    -86.4813E+06    -149.073E+06    -40.1085E+06    -2.41251E+06    -162.571E-03     325.431E-03    -162.861E-03     26.6302E-03    -162.733E-03     324.874E-03    -162.720E-03     26.6109E-03
            1541     3.82436E-03     63.8840E-03    -97.0063E+06    -172.024E+06    -57.6383E+06    -1.59436E+06    -162.666E-03     325.519E-03    -162.853E-03     22.2843E-03    -162.819E-03     324.884E-03    -162.751E-03     22.3126E-03
            1542     3.05998E-03     63.8563E-03    -103.403E+06    -192.488E+06    -72.2149E+06     861.755E+03    -162.800E-03     325.622E-03    -162.823E-03     18.2477E-03    -162.933E-03     324.915E-03    -162.755E-03     18.3014E-03
            1543     2.29519E-03     63.8363E-03    -106.041E+06    -202.295E+06    -83.4252E+06     2.77151E+06    -162.483E-03     325.307E-03    -162.823E-03     14.4585E-03    -162.596E-03     324.567E-03    -162.793E-03     14.5788E-03
            1544     1.52914E-03     63.8208E-03    -111.292E+06    -213.122E+06    -100.235E+06     4.15284E+06    -162.459E-03     325.374E-03    -162.916E-03     9.94653E-03    -162.555E-03     324.610E-03    -162.946E-03     10.0842E-03
            1545     765.007E-06     63.8113E-03    -113.427E+06    -230.982E+06    -112.076E+06     3.65967E+06    -163.023E-03     326.002E-03    -162.979E-03     5.56561E-03    -163.081E-03     325.174E-03    -163.040E-03     5.66494E-03
            1546     14.5382E-03     63.3041E-03    -5.02050E+06     88.9253E+06     88.6870E+06    -198.057E+03    -162.564E-03     325.211E-03    -162.647E-03     35.0582E-03    -162.998E-03     325.685E-03    -162.325E-03     32.3953E-03
            1547     13.7734E-03     63.2594E-03    -10.9194E+06     89.2451E+06     85.2798E+06     532.669E+03    -161.931E-03     324.576E-03    -162.645E-03     43.5242E-03    -162.422E-03     325.097E-03    -162.332E-03     40.7858E-03
            1548     13.0064E-03     63.2016E-03    -15.7099E+06     84.0492E+06     76.8559E+06     259.794E+03    -161.830E-03     324.484E-03    -162.654E-03     46.9550E-03    -162.306E-03     324.980E-03    -162.368E-03     44.5772E-03
            1549     12.2416E-03     63.1418E-03    -20.1489E+06     76.9257E+06     69.7760E+06    -232.005E+03    -162.624E-03     325.285E-03    -162.661E-03     49.3145E-03    -163.083E-03     325.743E-03    -162.394E-03     47.2479E-03
            1550     11.4761E-03     63.0807E-03    -24.7272E+06     48.5803E+06     61.8920E+06     234.379E+03    -163.074E-03     325.738E-03    -162.664E-03     50.0750E-03    -163.484E-03     326.053E-03    -162.389E-03     48.2790E-03
            1551     10.7123E-03     63.0187E-03    -30.2224E+06     25.9072E+06     52.6634E+06     816.096E+03    -162.775E-03     325.427E-03    -162.653E-03     50.1820E-03    -163.144E-03     325.629E-03    -162.383E-03     48.7014E-03
            1552     9.94657E-03     62.9563E-03    -34.7987E+06     8.34661E+06     43.7322E+06    -158.712E+03    -162.174E-03     324.846E-03    -162.671E-03     49.5522E-03    -162.505E-03     324.956E-03    -162.414E-03     48.3829E-03
            1553     9.17935E-03     62.8966E-03    -40.9321E+06    -25.1398E+06     32.4935E+06    -312.875E+03    -162.073E-03     324.811E-03    -162.738E-03     47.2451E-03    -162.351E-03     324.761E-03    -162.480E-03     46.3153E-03
            1554     8.41404E-03     62.8399E-03    -49.7022E+06    -55.4676E+06     21.7203E+06     1.75618E+06    -162.626E-03     325.419E-03    -162.793E-03     44.1988E-03    -162.872E-03     325.229E-03    -162.532E-03     43.5033E-03
            1555     7.65059E-03     62.7845E-03    -55.3819E+06    -74.8380E+06     13.4092E+06     2.15138E+06    -162.701E-03     325.516E-03    -162.815E-03     41.4933E-03    -162.924E-03     325.237E-03    -162.559E-03     40.9923E-03
            1556     6.88547E-03     62.7329E-03    -61.5772E+06    -93.9440E+06     1.51285E+06     745.901E+03    -162.397E-03     325.230E-03    -162.833E-03     38.4572E-03    -162.594E-03     324.870E-03    -162.600E-03     38.1489E-03
            1557     6.11829E-03     62.6857E-03    -69.4197E+06    -118.643E+06    -11.6025E+06    -533.865E+03    -162.775E-03     325.626E-03    -162.851E-03     34.9621E-03    -162.948E-03     325.165E-03    -162.636E-03     34.7751E-03
            1558     5.35476E-03     62.6427E-03    -76.5802E+06    -131.308E+06    -23.6371E+06    -5.42266E+03    -162.893E-03     325.714E-03    -162.822E-03     31.3430E-03    -163.061E-03     325.213E-03    -162.639E-03     31.2331E-03
            1559     4.58955E-03     62.6050E-03    -85.2772E+06    -147.565E+06    -41.0785E+06    -687.406E+03    -162.476E-03     325.266E-03    -162.790E-03     27.5782E-03    -162.633E-03     324.716E-03    -162.658E-03     27.5578E-03
            1560     3.82435E-03     62.5719E-03    -96.2760E+06    -176.523E+06    -60.5243E+06    -1.63388E+06    -162.261E-03     325.090E-03    -162.829E-03     23.5433E-03    -162.400E-03     324.436E-03    -162.736E-03     23.5900E-03
            1561     3.05872E-03     62.5450E-03    -102.432E+06    -196.987E+06    -75.2658E+06    -1.48358E+06    -162.163E-03     325.103E-03    -162.940E-03     19.2356E-03    -162.280E-03     324.375E-03    -162.882E-03     19.2916E-03
            1562     2.29311E-03     62.5246E-03    -104.247E+06    -204.207E+06    -86.3507E+06    -955.056E+03    -162.501E-03     325.582E-03    -163.081E-03     15.2113E-03    -162.597E-03     324.834E-03    -163.066E-03     15.2881E-03
            1563     1.52903E-03     62.5087E-03    -108.598E+06    -212.453E+06    -99.4119E+06     831.483E+03    -163.057E-03     326.204E-03    -163.147E-03     10.7432E-03    -163.141E-03     325.437E-03    -163.178E-03     10.8534E-03
            1564     764.358E-06     62.4972E-03    -111.455E+06    -225.210E+06    -108.068E+06     1.83588E+06    -162.953E-03     326.298E-03    -163.344E-03     5.96464E-03    -163.015E-03     325.489E-03    -163.396E-03     6.04545E-03
            1565     14.5367E-03     61.9942E-03    -5.30727E+06     89.4393E+06     90.5157E+06     686.611E+03    -161.821E-03     324.522E-03    -162.702E-03     34.7431E-03    -162.261E-03     324.999E-03    -162.371E-03     32.0630E-03
            1566     13.7712E-03     61.9442E-03    -10.4028E+06     88.8582E+06     85.3310E+06      508.41E+03    -162.370E-03     325.071E-03    -162.700E-03     43.6821E-03    -162.860E-03     325.592E-03    -162.387E-03     40.9158E-03
            1567     13.0079E-03     61.8919E-03    -15.0434E+06     84.1200E+06     75.5965E+06    -518.733E+03    -162.421E-03     325.097E-03    -162.676E-03     47.5882E-03    -162.894E-03     325.596E-03    -162.398E-03     45.1937E-03
            1568     12.2407E-03     61.8296E-03    -20.7723E+06     75.8890E+06     68.7403E+06     439.675E+03    -162.194E-03     324.880E-03    -162.687E-03     49.9902E-03    -162.653E-03     325.336E-03    -162.423E-03     47.9455E-03
            1569     11.4762E-03     61.7674E-03    -26.9995E+06     49.5573E+06     59.2057E+06    -867.877E+03    -162.497E-03     325.214E-03    -162.717E-03     50.4443E-03    -162.913E-03     325.538E-03    -162.454E-03     48.6950E-03
            1570     10.7103E-03     61.7065E-03    -31.4181E+06     26.6821E+06     50.6387E+06    -2.80156E+06    -162.592E-03     325.332E-03    -162.740E-03     50.4615E-03    -162.965E-03     325.541E-03    -162.480E-03     48.9539E-03
            1571     9.94471E-03     61.6455E-03    -37.9267E+06     5.23261E+06     42.1461E+06    -622.973E+03    -162.483E-03     325.254E-03    -162.771E-03     49.2832E-03    -162.825E-03     325.357E-03    -162.513E-03     48.0752E-03
            1572     9.18012E-03     61.5855E-03    -44.8285E+06    -26.5511E+06     31.2656E+06     1.52587E+06    -162.682E-03     325.487E-03    -162.806E-03     46.8899E-03    -162.975E-03     325.436E-03    -162.546E-03     45.9881E-03
            1573     8.41522E-03     61.5266E-03    -48.9015E+06    -55.0479E+06     22.1265E+06     1.63017E+06    -162.949E-03     325.771E-03    -162.823E-03     44.4077E-03    -163.192E-03     325.582E-03    -162.561E-03     43.7185E-03
            1574     7.64928E-03     61.4723E-03    -53.4818E+06    -74.3492E+06     13.3191E+06    -453.513E+03    -162.777E-03     325.601E-03    -162.824E-03     41.4408E-03    -162.992E-03     325.324E-03    -162.573E-03     40.8819E-03
            1575     6.88339E-03     61.4222E-03    -60.1758E+06    -93.4064E+06     3.49244E+06     38.9943E+03    -162.528E-03     325.372E-03    -162.844E-03     38.6787E-03    -162.722E-03     325.011E-03    -162.604E-03     38.3421E-03
            1576     6.11997E-03     61.3731E-03    -68.4526E+06    -118.668E+06    -10.7840E+06     2.18696E+06    -162.484E-03     325.356E-03    -162.872E-03     35.5010E-03    -162.653E-03     324.892E-03    -162.654E-03     35.3597E-03
            1577     5.35409E-03     61.3304E-03    -75.4797E+06    -132.246E+06    -23.8369E+06     553.505E+03    -162.337E-03     325.243E-03    -162.906E-03     31.9383E-03    -162.498E-03     324.736E-03    -162.724E-03     31.8480E-03
            1578     4.58908E-03     61.2936E-03    -84.3503E+06    -145.405E+06    -39.3587E+06     1.79348E+06    -162.349E-03     325.302E-03    -162.953E-03     28.7582E-03    -162.507E-03     324.758E-03    -162.816E-03     28.7871E-03
            1579     3.82374E-03     61.2604E-03    -91.6317E+06    -172.395E+06    -57.2965E+06     591.692E+03    -162.485E-03     325.500E-03    -163.015E-03     24.1771E-03    -162.610E-03     324.854E-03    -162.919E-03     24.2622E-03
            1580     3.05832E-03     61.2343E-03    -98.4955E+06    -196.560E+06    -75.1444E+06    -3.20748E+06    -162.641E-03     325.716E-03    -163.075E-03     18.7407E-03    -162.738E-03     324.984E-03    -163.022E-03     18.8116E-03
            1581     2.29311E-03     61.2121E-03    -106.982E+06    -208.298E+06    -92.2487E+06    -4.36380E+06    -162.981E-03     326.065E-03    -163.084E-03     14.1854E-03    -163.076E-03     325.309E-03    -163.088E-03     14.2339E-03
            1582     1.52851E-03     61.1939E-03    -110.444E+06    -216.626E+06    -102.235E+06    -3.34122E+06    -163.136E-03     326.173E-03    -163.038E-03     9.30172E-03    -163.219E-03     325.393E-03    -163.074E-03     9.33268E-03
            1583     764.335E-06     61.1856E-03    -113.742E+06    -224.658E+06    -112.089E+06    -906.229E+03    -163.002E-03     325.965E-03    -162.962E-03     4.79417E-03    -163.070E-03     325.167E-03    -163.032E-03     4.83163E-03
            1584     14.5368E-03     60.6826E-03    -4.90025E+06     89.8399E+06     90.9053E+06     675.292E+03    -161.264E-03     323.962E-03    -162.699E-03     33.4229E-03    -161.698E-03     324.435E-03    -162.367E-03     30.7696E-03
            1585     13.7711E-03     60.6323E-03    -10.1164E+06     88.6801E+06     84.1772E+06     78.2696E+03    -161.681E-03     324.406E-03    -162.724E-03     42.8843E-03    -162.161E-03     324.920E-03    -162.418E-03     40.1765E-03
            1586     13.0047E-03     60.5773E-03    -15.3808E+06     83.5906E+06     74.4061E+06    -254.803E+03    -162.369E-03     325.093E-03    -162.724E-03     47.3561E-03    -162.836E-03     325.586E-03    -162.451E-03     45.0224E-03
            1587     12.2417E-03     60.5190E-03    -20.4291E+06     75.7089E+06     68.8379E+06     329.216E+03    -162.268E-03     325.011E-03    -162.742E-03     50.1336E-03    -162.728E-03     325.466E-03    -162.478E-03     48.0655E-03
            1588     11.4742E-03     60.4558E-03    -26.4945E+06     53.4788E+06     60.5350E+06    -636.849E+03    -161.996E-03     324.788E-03    -162.792E-03     50.7273E-03    -162.421E-03     325.133E-03    -162.528E-03     48.9403E-03
            1589     10.7091E-03     60.3944E-03    -33.8053E+06     27.5063E+06     50.4302E+06    -2.20805E+06    -162.574E-03     325.411E-03    -162.838E-03     49.9708E-03    -162.959E-03     325.628E-03    -162.576E-03     48.4567E-03
            1590     9.94426E-03     60.3328E-03    -41.2945E+06     252.906E+03     40.3020E+06    -1.79144E+06    -163.063E-03     325.916E-03    -162.853E-03     48.7557E-03    -163.412E-03     326.002E-03    -162.592E-03     47.5081E-03
            1591     9.17916E-03     60.2726E-03    -44.7163E+06    -29.5977E+06     30.6592E+06    -753.716E+03    -163.005E-03     325.860E-03    -162.855E-03     47.0899E-03    -163.293E-03     325.795E-03    -162.593E-03     46.1421E-03
            1592     8.41393E-03     60.2148E-03    -48.1612E+06    -53.0825E+06     22.1614E+06    -1.22558E+06    -162.806E-03     325.671E-03    -162.865E-03     44.9228E-03    -163.048E-03     325.490E-03    -162.607E-03     44.2099E-03
            1593     7.64954E-03     60.1600E-03    -57.8113E+06    -72.9091E+06     10.5876E+06     2.37316E+03    -162.867E-03     325.735E-03    -162.868E-03     41.5968E-03    -163.101E-03     325.474E-03    -162.625E-03     41.0705E-03
            1594     6.88542E-03     60.1102E-03    -65.8174E+06    -97.3984E+06    -1.59690E+06     1.36676E+06    -162.649E-03     325.527E-03    -162.878E-03     38.7162E-03    -162.857E-03     325.160E-03    -162.649E-03     38.4053E-03
            1595     6.11851E-03     60.0615E-03    -69.6419E+06    -117.371E+06    -11.4323E+06     1.26013E+06    -162.006E-03     324.949E-03    -162.944E-03     35.8866E-03    -162.181E-03     324.494E-03    -162.730E-03     35.7503E-03
            1596     5.35283E-03     60.0201E-03    -77.4074E+06    -131.417E+06    -25.6030E+06     1.53536E+06    -162.018E-03     325.060E-03    -163.042E-03     32.1100E-03    -162.186E-03     324.561E-03    -162.867E-03     32.0829E-03
            1597     4.58669E-03     59.9811E-03    -85.3793E+06    -147.402E+06    -40.8247E+06     1.27651E+06    -162.487E-03     325.615E-03    -163.128E-03     28.0369E-03    -162.644E-03     325.064E-03    -162.995E-03     28.0938E-03
            1598     3.82206E-03     59.9480E-03    -89.5349E+06    -169.341E+06    -53.0488E+06     473.388E+03    -162.964E-03     326.139E-03    -163.175E-03     23.5351E-03    -163.090E-03     325.499E-03    -163.065E-03     23.6105E-03
            1599     3.05831E-03     59.9207E-03    -96.5671E+06    -192.060E+06    -69.5619E+06    -296.008E+03    -163.537E-03     326.628E-03    -163.092E-03     18.7572E-03    -163.639E-03     325.908E-03    -163.021E-03     18.8364E-03
            1600     2.29511E-03     59.8990E-03    -107.233E+06    -207.484E+06    -91.5511E+06    -1.36592E+06    -163.353E-03     326.228E-03    -162.875E-03     14.2367E-03    -163.452E-03     325.475E-03    -162.876E-03     14.3165E-03
            1601     1.53058E-03     59.8823E-03    -115.802E+06    -221.758E+06    -109.138E+06    -2.79312E+06    -162.775E-03     325.498E-03    -162.723E-03     9.84048E-03    -162.868E-03     324.710E-03    -162.779E-03     9.87857E-03
            1602     765.503E-06     59.8728E-03    -118.031E+06    -227.876E+06    -115.432E+06    -1.60243E+06    -162.923E-03     325.389E-03    -162.466E-03     5.54825E-03    -163.004E-03     324.587E-03    -162.541E-03     5.57715E-03
            1603     14.5385E-03     59.3697E-03    -4.15043E+06     89.8088E+06     89.5796E+06     59.4274E+03    -161.356E-03     324.007E-03    -162.652E-03     33.3717E-03    -161.783E-03     324.479E-03    -162.328E-03     30.7216E-03
            1604     13.7719E-03     59.3237E-03    -9.51245E+06     88.9986E+06     85.2481E+06     167.966E+03    -161.150E-03     323.850E-03    -162.699E-03     42.4775E-03    -161.624E-03     324.359E-03    -162.388E-03     39.8105E-03
            1605     13.0058E-03     59.2646E-03    -15.3762E+06     82.8680E+06     76.1387E+06     287.453E+03    -161.630E-03     324.370E-03    -162.739E-03     46.6827E-03    -162.096E-03     324.854E-03    -162.457E-03     44.3804E-03
            1606     12.2387E-03     59.2062E-03    -21.1518E+06     76.5247E+06     69.1087E+06    -797.644E+03    -162.025E-03     324.803E-03    -162.778E-03     48.3490E-03    -162.484E-03     325.258E-03    -162.513E-03     46.2868E-03
            1607     11.4748E-03     59.1453E-03    -25.9179E+06     55.1148E+06     61.6679E+06    -1.04346E+06    -162.113E-03     324.945E-03    -162.832E-03     50.0104E-03    -162.536E-03     325.293E-03    -162.566E-03     48.2292E-03
            1608     10.7086E-03     59.0815E-03    -29.6580E+06     27.9885E+06     52.2544E+06    -738.153E+03    -162.567E-03     325.444E-03    -162.876E-03     49.8205E-03    -162.934E-03     325.653E-03    -162.613E-03     48.3423E-03
            1609     9.94374E-03     59.0196E-03    -34.4122E+06     281.939E+03     42.3165E+06    -1.59466E+06    -162.970E-03     325.867E-03    -162.898E-03     48.4266E-03    -163.284E-03     325.938E-03    -162.637E-03     47.2282E-03
            1610     9.17908E-03     58.9603E-03    -43.3923E+06    -30.8592E+06     30.1690E+06    -1.26707E+06    -162.996E-03     325.902E-03    -162.906E-03     46.7022E-03    -163.274E-03     325.829E-03    -162.647E-03     45.7579E-03
            1611     8.41398E-03     58.9027E-03    -51.6829E+06    -53.6025E+06     19.0246E+06     238.125E+03    -162.731E-03     325.647E-03    -162.916E-03     44.4589E-03    -162.985E-03     325.472E-03    -162.669E-03     43.7725E-03
            1612     7.64813E-03     58.8477E-03    -58.4139E+06    -75.1819E+06     8.16694E+06     506.939E+03    -162.597E-03     325.542E-03    -162.945E-03     42.0414E-03    -162.824E-03     325.271E-03    -162.710E-03     41.5726E-03
            1613     6.88271E-03     58.7970E-03    -63.7076E+06    -98.6871E+06    -2.15210E+06     85.6713E+03    -162.578E-03     325.567E-03    -162.989E-03     38.9297E-03    -162.774E-03     325.193E-03    -162.764E-03     38.5915E-03
            1614     6.11837E-03     58.7523E-03    -68.9947E+06    -116.657E+06    -11.6653E+06     452.367E+03    -162.395E-03     325.444E-03    -163.049E-03     35.5799E-03    -162.569E-03     324.992E-03    -162.838E-03     35.4027E-03
            1615     5.35235E-03     58.7074E-03    -78.5477E+06    -130.212E+06    -25.0808E+06     833.866E+03    -162.618E-03     325.713E-03    -163.094E-03     31.8289E-03    -162.794E-03     325.220E-03    -162.917E-03     31.8096E-03
            1616     4.58862E-03     58.6689E-03    -86.1798E+06    -146.448E+06    -40.4631E+06     453.266E+03    -162.878E-03     325.980E-03    -163.102E-03     27.0102E-03    -163.041E-03     325.435E-03    -162.967E-03     27.0314E-03
            1617     3.82329E-03     58.6354E-03    -94.5265E+06    -169.651E+06    -57.4844E+06     948.662E+03    -162.844E-03     325.943E-03    -163.099E-03     22.9510E-03    -162.989E-03     325.317E-03    -163.004E-03     22.9956E-03
            1618     3.05842E-03     58.6062E-03    -102.926E+06    -191.955E+06    -73.5946E+06     1.80754E+06    -162.999E-03     326.087E-03    -163.088E-03     19.1417E-03    -163.127E-03     325.382E-03    -163.028E-03     19.2390E-03
            1619     2.29387E-03     58.5856E-03    -109.531E+06    -205.971E+06    -89.5794E+06     2.90287E+06    -163.124E-03     326.141E-03    -163.017E-03     14.8036E-03    -163.238E-03     325.395E-03    -163.008E-03     14.9438E-03
            1620     1.52893E-03     58.5718E-03    -116.020E+06    -219.510E+06    -107.860E+06     1.48072E+06    -163.008E-03     325.911E-03    -162.902E-03     10.5049E-03    -163.106E-03     325.131E-03    -162.955E-03     10.5995E-03
            1621     763.782E-06     58.5603E-03    -121.537E+06    -231.630E+06    -120.650E+06    -1.91236E+06    -163.019E-03     325.693E-03    -162.674E-03     5.65936E-03    -163.104E-03     324.885E-03    -162.765E-03     5.67442E-03
            1622     14.5378E-03     58.0592E-03    -4.84144E+06     89.1985E+06     89.5027E+06     224.527E+03    -161.631E-03     324.284E-03    -162.653E-03     34.2111E-03    -162.064E-03     324.757E-03    -162.328E-03     31.5543E-03
            1623     13.7724E-03     58.0122E-03    -9.46920E+06     89.6518E+06     86.0548E+06     135.134E+03    -161.753E-03     324.432E-03    -162.679E-03     43.1516E-03    -162.231E-03     324.945E-03    -162.365E-03     40.4814E-03
            1624     13.0063E-03     57.9545E-03    -14.5147E+06     84.0406E+06     77.1829E+06    -386.789E+03    -161.652E-03     324.351E-03    -162.699E-03     46.8706E-03    -162.115E-03     324.838E-03    -162.414E-03     44.5661E-03
            1625     12.2413E-03     57.8944E-03    -19.5477E+06     76.3589E+06     69.7312E+06    -2.62716E+03    -161.698E-03     324.442E-03    -162.744E-03     47.6665E-03    -162.148E-03     324.891E-03    -162.477E-03     45.6268E-03
            1626     11.4740E-03     57.8337E-03    -25.9193E+06     56.6926E+06     59.2935E+06    -1.09970E+06    -162.035E-03     324.827E-03    -162.792E-03     49.1776E-03    -162.449E-03     325.179E-03    -162.541E-03     47.4747E-03
            1627     10.7093E-03     57.7692E-03    -33.1248E+06     27.4340E+06     47.8717E+06    -2.32065E+06    -162.310E-03     325.154E-03    -162.845E-03     49.7051E-03    -162.681E-03     325.367E-03    -162.597E-03     48.2852E-03
            1628     9.94349E-03     57.7076E-03    -40.3463E+06    -1.41279E+06     38.3817E+06     350.494E+03    -162.678E-03     325.569E-03    -162.892E-03     47.9277E-03    -163.011E-03     325.643E-03    -162.639E-03     46.7889E-03
            1629     9.17803E-03     57.6471E-03    -47.4280E+06    -29.7988E+06     28.1819E+06     1.74894E+06    -162.809E-03     325.728E-03    -162.919E-03     45.8516E-03    -163.105E-03     325.668E-03    -162.667E-03     44.9488E-03
            1630     8.41339E-03     57.5904E-03    -53.6892E+06    -54.3289E+06     17.7417E+06     419.700E+03    -162.495E-03     325.446E-03    -162.951E-03     43.7209E-03    -162.757E-03     325.273E-03    -162.706E-03     43.0145E-03
            1631     7.64822E-03     57.5368E-03    -57.8442E+06    -74.4001E+06     8.95053E+06    -849.241E+03    -162.152E-03     325.172E-03    -163.020E-03     41.6456E-03    -162.380E-03     324.904E-03    -162.784E-03     41.1495E-03
            1632     6.88255E-03     57.4848E-03    -65.0013E+06    -98.3873E+06    -2.92849E+06    -1.19052E+06    -162.535E-03     325.628E-03    -163.093E-03     38.5728E-03    -162.736E-03     325.257E-03    -162.871E-03     38.2313E-03
            1633     6.11709E-03     57.4391E-03    -75.8617E+06    -118.425E+06    -17.4093E+06    -54.8396E+03    -163.275E-03     326.368E-03    -163.093E-03     35.1494E-03    -163.472E-03     325.926E-03    -162.898E-03     34.9457E-03
            1634     5.35344E-03     57.3952E-03    -82.2558E+06    -130.813E+06    -27.7867E+06     728.332E+03    -163.211E-03     326.259E-03    -163.048E-03     31.6769E-03    -163.401E-03     325.773E-03    -162.878E-03     31.6260E-03
            1635     4.58789E-03     57.3552E-03    -88.6785E+06    -146.662E+06    -41.4676E+06     706.918E+03    -162.850E-03     325.861E-03    -163.010E-03     27.3826E-03    -163.024E-03     325.319E-03    -162.876E-03     27.4129E-03
            1636     3.82394E-03     57.3235E-03    -96.7598E+06    -168.960E+06    -59.0854E+06     1.55357E+06    -162.682E-03     325.686E-03    -163.004E-03     23.4758E-03    -162.836E-03     325.068E-03    -162.914E-03     23.5445E-03
            1637     3.05839E-03     57.2947E-03    -103.869E+06    -192.542E+06    -75.7904E+06     1.22525E+06    -162.530E-03     325.581E-03    -163.051E-03     18.9680E-03    -162.659E-03     324.878E-03    -163.001E-03     19.0784E-03
            1638     2.29262E-03     57.2731E-03    -109.604E+06    -206.126E+06    -89.7758E+06     62.8963E+03    -162.878E-03     325.974E-03    -163.096E-03     13.6407E-03    -162.992E-03     325.228E-03    -163.087E-03     13.7396E-03
            1639     1.52898E-03     57.2570E-03    -112.365E+06    -217.033E+06    -100.446E+06     1.20353E+06    -163.242E-03     326.268E-03    -163.026E-03     8.90681E-03    -163.336E-03     325.484E-03    -163.051E-03     8.98265E-03
            1640     765.748E-06     57.2487E-03    -114.134E+06    -231.238E+06    -111.958E+06     2.26607E+06    -162.926E-03     325.863E-03    -162.936E-03     4.92855E-03    -162.987E-03     325.033E-03    -162.995E-03     4.99364E-03
            1641     14.5370E-03     56.7480E-03    -5.11194E+06     89.0698E+06     90.0019E+06     47.7373E+03    -162.017E-03     324.674E-03    -162.657E-03     33.0554E-03    -162.449E-03     325.142E-03    -162.328E-03     30.4088E-03
            1642     13.7718E-03     56.6987E-03    -9.94709E+06     89.5925E+06     84.7215E+06    -233.587E+03    -162.330E-03     324.975E-03    -162.645E-03     42.2001E-03    -162.804E-03     325.486E-03    -162.337E-03     39.5422E-03
            1643     13.0073E-03     56.6435E-03    -14.3687E+06     84.3447E+06     73.5525E+06    -413.478E+03    -161.989E-03     324.611E-03    -162.623E-03     45.5548E-03    -162.440E-03     325.098E-03    -162.357E-03     43.2948E-03
            1644     12.2404E-03     56.5833E-03    -19.7367E+06     75.9190E+06     66.3071E+06    -306.334E+03    -161.600E-03     324.259E-03    -162.659E-03     47.8995E-03    -162.044E-03     324.710E-03    -162.409E-03     45.8694E-03
            1645     11.4762E-03     56.5220E-03    -25.4579E+06     56.7505E+06     60.5409E+06     1.31812E+06    -162.062E-03     324.789E-03    -162.727E-03     48.9921E-03    -162.478E-03     325.140E-03    -162.470E-03     47.2989E-03
            1646     10.7093E-03     56.4585E-03    -33.9608E+06     28.3005E+06     48.2976E+06     2.48415E+06    -162.310E-03     325.078E-03    -162.768E-03     48.6785E-03    -162.686E-03     325.294E-03    -162.518E-03     47.3172E-03
            1647     9.94420E-03     56.3946E-03    -42.0498E+06    -2.68818E+06     35.9065E+06     105.099E+03    -162.265E-03     325.077E-03    -162.812E-03     47.0606E-03    -162.601E-03     325.150E-03    -162.568E-03     45.9048E-03
            1648     9.17955E-03     56.3354E-03    -45.8577E+06    -30.0936E+06     28.2775E+06    -1.11550E+06    -162.101E-03     324.987E-03    -162.886E-03     45.2298E-03    -162.389E-03     324.924E-03    -162.635E-03     44.2779E-03
            1649     8.41333E-03     56.2786E-03    -50.5862E+06    -51.7075E+06     20.6339E+06    -1.36632E+06    -162.089E-03     325.062E-03    -162.973E-03     43.5611E-03    -162.343E-03     324.893E-03    -162.721E-03     42.8377E-03
            1650     7.64754E-03     56.2252E-03    -56.5273E+06    -74.5198E+06     11.6485E+06    -26.4355E+03    -162.346E-03     325.404E-03    -163.058E-03     41.3556E-03    -162.573E-03     325.131E-03    -162.809E-03     40.8355E-03
            1651     6.88174E-03     56.1736E-03    -65.6281E+06    -98.6130E+06    -2.48409E+06     1.62439E+06    -162.816E-03     325.913E-03    -163.097E-03     38.4743E-03    -163.020E-03     325.542E-03    -162.871E-03     38.1699E-03
            1652     6.11771E-03     56.1245E-03    -74.8127E+06    -117.549E+06    -17.4704E+06    -526.535E+03    -163.381E-03     326.448E-03    -163.067E-03     34.8837E-03    -163.574E-03     326.009E-03    -162.875E-03     34.6876E-03
            1653     5.35349E-03     56.0816E-03    -80.2366E+06    -131.719E+06    -28.4243E+06    -1.64934E+06    -163.304E-03     326.306E-03    -163.002E-03     31.1826E-03    -163.482E-03     325.815E-03    -162.837E-03     31.0757E-03
            1654     4.58907E-03     56.0445E-03    -84.2615E+06    -148.453E+06    -38.4791E+06    -952.531E+03    -162.815E-03     325.785E-03    -162.971E-03     27.1485E-03    -162.968E-03     325.224E-03    -162.826E-03     27.1713E-03
            1655     3.82301E-03     56.0099E-03    -92.5875E+06    -171.456E+06    -52.9032E+06     282.257E+03    -162.661E-03     325.641E-03    -162.980E-03     23.0331E-03    -162.799E-03     324.994E-03    -162.861E-03     23.1033E-03
            1656     3.05900E-03     55.9834E-03    -100.856E+06    -191.124E+06    -69.6531E+06     1.19335E+06    -162.811E-03     325.785E-03    -162.973E-03     19.0379E-03    -162.937E-03     325.076E-03    -162.898E-03     19.1281E-03
            1657     2.29511E-03     55.9598E-03    -105.370E+06    -203.690E+06    -87.2394E+06    -3.26776E+03    -162.753E-03     325.701E-03    -162.948E-03     14.1862E-03    -162.854E-03     324.958E-03    -162.936E-03     14.2889E-03
            1658     1.52976E-03     55.9448E-03    -111.335E+06    -219.187E+06    -102.617E+06    -544.431E+03    -162.662E-03     325.674E-03    -163.012E-03     9.64021E-03    -162.745E-03     324.881E-03    -163.046E-03     9.73116E-03
            1659     763.766E-06     55.9359E-03    -113.366E+06    -229.476E+06    -108.692E+06     658.275E+03    -162.970E-03     326.160E-03    -163.190E-03     5.42309E-03    -163.035E-03     325.333E-03    -163.236E-03     5.51787E-03
            1660     14.5392E-03     55.4373E-03    -4.45760E+06     89.7567E+06     89.8070E+06    -457.376E+03    -162.632E-03     325.249E-03    -162.617E-03     32.4693E-03    -163.058E-03     325.718E-03    -162.292E-03     29.8139E-03
            1661     13.7738E-03     55.3854E-03    -9.71343E+06     89.0118E+06     83.4735E+06    -576.346E+03    -162.145E-03     324.734E-03    -162.589E-03     42.2650E-03    -162.617E-03     325.245E-03    -162.287E-03     39.5879E-03
            1662     13.0084E-03     55.3315E-03    -15.0145E+06     83.2205E+06     71.8671E+06    -190.190E+03    -161.993E-03     324.562E-03    -162.569E-03     45.6306E-03    -162.445E-03     325.048E-03    -162.309E-03     43.3533E-03
            1663     12.2431E-03     55.2742E-03    -21.1908E+06     76.5204E+06     65.3114E+06    -142.974E+03    -162.051E-03     324.640E-03    -162.589E-03     48.2690E-03    -162.503E-03     325.100E-03    -162.343E-03     46.2260E-03
            1664     11.4756E-03     55.2090E-03    -26.9636E+06     51.0650E+06     60.1486E+06     1.32622E+06    -162.350E-03     324.991E-03    -162.641E-03     49.2325E-03    -162.768E-03     325.320E-03    -162.375E-03     47.4907E-03
            1665     10.7123E-03     55.1467E-03    -29.2633E+06     28.4904E+06     52.6571E+06     3.31680E+06    -162.190E-03     324.866E-03    -162.676E-03     48.5685E-03    -162.553E-03     325.074E-03    -162.412E-03     47.1575E-03
            1666     9.94621E-03     55.0837E-03    -30.5807E+06     4.48268E+06     43.4505E+06     468.562E+03    -161.514E-03     324.260E-03    -162.746E-03     47.7749E-03    -161.815E-03     324.342E-03    -162.491E-03     46.6251E-03
            1667     9.17891E-03     55.0248E-03    -38.2542E+06    -29.4863E+06     31.4599E+06    -2.43271E+06    -161.615E-03     324.478E-03    -162.863E-03     46.1226E-03    -161.870E-03     324.402E-03    -162.608E-03     45.1684E-03
            1668     8.41299E-03     54.9678E-03    -45.1817E+06    -52.3065E+06     23.0134E+06    -1.34993E+06    -162.345E-03     325.305E-03    -162.961E-03     43.6618E-03    -162.574E-03     325.122E-03    -162.704E-03     42.9376E-03
            1669     7.64767E-03     54.9126E-03    -51.7138E+06    -78.8824E+06     13.9294E+06     1.02403E+06    -162.912E-03     325.921E-03    -163.009E-03     40.4474E-03    -163.111E-03     325.616E-03    -162.750E-03     39.9256E-03
            1670     6.88369E-03     54.8609E-03    -60.2019E+06    -99.1707E+06     2.78105E+06     1.81113E+06    -162.931E-03     325.945E-03    -163.014E-03     37.9071E-03    -163.116E-03     325.556E-03    -162.769E-03     37.5793E-03
            1671     6.11836E-03     54.8113E-03    -65.9536E+06    -113.844E+06    -8.93238E+06     351.990E+03    -162.720E-03     325.736E-03    -163.015E-03     34.9622E-03    -162.887E-03     325.290E-03    -162.799E-03     34.7772E-03
            1672     5.35313E-03     54.7693E-03    -74.7586E+06    -130.239E+06    -23.4736E+06    -683.089E+03    -162.772E-03     325.791E-03    -163.019E-03     31.4161E-03    -162.932E-03     325.292E-03    -162.839E-03     31.3110E-03
            1673     4.58862E-03     54.7306E-03    -86.1190E+06    -151.594E+06    -39.3883E+06     261.988E+03    -162.895E-03     325.908E-03    -163.013E-03     27.9640E-03    -163.053E-03     325.336E-03    -162.865E-03     27.9724E-03
            1674     3.82473E-03     54.6997E-03    -92.9524E+06    -171.284E+06    -54.7003E+06     922.666E+03    -162.874E-03     325.865E-03    -162.990E-03     24.0170E-03    -163.012E-03     325.222E-03    -162.881E-03     24.1154E-03
            1675     3.05880E-03     54.6696E-03    -100.407E+06    -189.180E+06    -70.7743E+06    -498.951E+03    -162.777E-03     325.750E-03    -162.973E-03     19.8848E-03    -162.901E-03     325.051E-03    -162.907E-03     19.9813E-03
            1676     2.29360E-03     54.6482E-03    -107.138E+06    -204.886E+06    -86.8533E+06     217.835E+03    -162.633E-03     325.630E-03    -162.997E-03     14.7036E-03    -162.741E-03     324.883E-03    -162.979E-03     14.8137E-03
            1677     1.52828E-03     54.6337E-03    -112.167E+06    -217.450E+06    -103.854E+06     472.891E+03    -162.698E-03     325.783E-03    -163.085E-03     9.80224E-03    -162.785E-03     325.002E-03    -163.126E-03     9.91189E-03
            1678     764.331E-06     54.6220E-03    -118.290E+06    -230.352E+06    -116.767E+06    -2.01283E+06    -163.070E-03     326.298E-03    -163.228E-03     5.35478E-03    -163.147E-03     325.486E-03    -163.307E-03     5.39288E-03
            1679     14.5383E-03     54.1208E-03    -4.37838E+06     89.8351E+06     88.4732E+06    -678.248E+03    -162.432E-03     325.074E-03    -162.642E-03     34.9305E-03    -162.866E-03     325.554E-03    -162.323E-03     32.2262E-03
            1680     13.7738E-03     54.0766E-03    -9.57909E+06     89.0739E+06     84.1116E+06    -431.452E+03    -162.402E-03     325.028E-03    -162.625E-03     43.9914E-03    -162.882E-03     325.545E-03    -162.320E-03     41.2790E-03
            1681     13.0068E-03     54.0191E-03    -15.8621E+06     82.8208E+06     75.5199E+06    -107.527E+03    -162.395E-03     325.002E-03    -162.607E-03     47.3838E-03    -162.864E-03     325.490E-03    -162.327E-03     45.0598E-03
            1682     12.2420E-03     53.9613E-03    -21.3835E+06     76.8591E+06     68.1186E+06     595.119E+03    -162.877E-03     325.463E-03    -162.585E-03     49.2754E-03    -163.339E-03     325.924E-03    -162.325E-03     47.2158E-03
            1683     11.4789E-03     53.8982E-03    -26.1905E+06     51.6599E+06     58.6109E+06    -758.350E+03    -162.373E-03     324.960E-03    -162.587E-03     50.3892E-03    -162.787E-03     325.295E-03    -162.331E-03     48.6270E-03
            1684     10.7114E-03     53.8343E-03    -29.5275E+06     26.1785E+06     51.7703E+06    -2.87943E+06    -161.593E-03     324.246E-03    -162.653E-03     49.8477E-03    -161.956E-03     324.447E-03    -162.389E-03     48.3322E-03
            1685     9.94499E-03     53.7754E-03    -31.8055E+06     7.15963E+06     45.7798E+06    -56.5894E+03    -161.405E-03     324.164E-03    -162.759E-03     48.6187E-03    -161.722E-03     324.261E-03    -162.495E-03     47.4372E-03
            1686     9.17891E-03     53.7138E-03    -38.2752E+06    -25.8987E+06     33.5724E+06    -206.682E+03    -161.996E-03     324.858E-03    -162.862E-03     46.8986E-03    -162.261E-03     324.798E-03    -162.601E-03     45.9620E-03
            1687     8.41390E-03     53.6554E-03    -50.2587E+06    -58.8961E+06     19.9461E+06    -163.366E+03    -162.815E-03     325.732E-03    -162.917E-03     44.2167E-03    -163.059E-03     325.530E-03    -162.659E-03     43.4667E-03
            1688     7.64972E-03     53.5994E-03    -57.3378E+06    -79.9957E+06     11.3375E+06     1.77116E+06    -163.071E-03     325.997E-03    -162.925E-03     41.3104E-03    -163.293E-03     325.698E-03    -162.669E-03     40.8136E-03
            1689     6.88422E-03     53.5488E-03    -61.6490E+06    -97.2372E+06     2.92862E+06     85.0045E+03    -162.820E-03     325.743E-03    -162.923E-03     38.4325E-03    -163.014E-03     325.364E-03    -162.678E-03     38.1136E-03
            1690     6.11876E-03     53.5004E-03    -70.2710E+06    -115.015E+06    -9.51655E+06     1.46085E+06    -162.249E-03     325.203E-03    -162.955E-03     34.9981E-03    -162.434E-03     324.759E-03    -162.734E-03     34.8258E-03
            1691     5.35320E-03     53.4569E-03    -78.3116E+06    -129.406E+06    -23.4422E+06     3.76038E+06    -162.048E-03     325.081E-03    -163.033E-03     31.3829E-03    -162.227E-03     324.590E-03    -162.849E-03     31.3561E-03
            1692     4.58727E-03     53.4190E-03    -87.6207E+06    -150.938E+06    -41.5234E+06     2.05913E+06    -162.627E-03     325.721E-03    -163.094E-03     27.9134E-03    -162.789E-03     325.157E-03    -162.956E-03     27.9549E-03
            1693     3.82204E-03     53.3852E-03    -93.8645E+06    -167.878E+06    -56.5203E+06     21.2009E+03    -163.149E-03     326.228E-03    -163.079E-03     23.7759E-03    -163.293E-03     325.607E-03    -162.982E-03     23.8477E-03
            1694     3.05871E-03     53.3584E-03    -99.8102E+06    -187.576E+06    -73.0285E+06    -1.54466E+06    -162.876E-03     325.914E-03    -163.038E-03     19.1399E-03    -162.996E-03     325.226E-03    -162.987E-03     19.2210E-03
            1695     2.29366E-03     53.3358E-03    -110.363E+06    -209.706E+06    -91.9830E+06    -2.40732E+06    -162.744E-03     325.796E-03    -163.052E-03     14.4828E-03    -162.854E-03     325.037E-03    -163.048E-03     14.5247E-03
            1696     1.52987E-03     53.3202E-03    -114.323E+06    -217.602E+06    -104.022E+06    -346.051E+03    -163.089E-03     326.124E-03    -163.035E-03     9.97031E-03    -163.188E-03     325.346E-03    -163.073E-03     10.0184E-03
            1697     764.944E-06     53.3097E-03    -114.670E+06    -229.268E+06    -112.697E+06     922.147E+03    -162.914E-03     325.989E-03    -163.075E-03     5.77636E-03    -162.981E-03     325.171E-03    -163.140E-03     5.83420E-03
            1698     14.5350E-03     52.8088E-03    -4.82425E+06     89.8515E+06     88.4045E+06    -85.4259E+03    -161.544E-03     324.249E-03    -162.705E-03     34.4160E-03    -161.977E-03     324.728E-03    -162.387E-03     31.7382E-03
            1699     13.7703E-03     52.7611E-03    -10.1531E+06     89.3023E+06     85.3123E+06    -60.7641E+03    -162.662E-03     325.376E-03    -162.714E-03     42.8882E-03    -163.143E-03     325.891E-03    -162.402E-03     40.1746E-03
            1700     13.0073E-03     52.7089E-03    -15.2382E+06     83.3132E+06     77.3740E+06     224.216E+03    -163.093E-03     325.765E-03    -162.673E-03     47.3818E-03    -163.564E-03     326.254E-03    -162.384E-03     45.0286E-03
            1701     12.2423E-03     52.6459E-03    -20.5985E+06     76.8360E+06     69.1906E+06     11.0948E+03    -162.696E-03     325.331E-03    -162.636E-03     49.6234E-03    -163.156E-03     325.791E-03    -162.372E-03     47.5527E-03
            1702     11.4761E-03     52.5870E-03    -27.0381E+06     58.3596E+06     59.1299E+06    -2.28282E+06    -162.082E-03     324.729E-03    -162.647E-03     50.7790E-03    -162.513E-03     325.100E-03    -162.397E-03     48.9818E-03
            1703     10.7108E-03     52.5252E-03    -33.3063E+06     26.7125E+06     49.0329E+06    -5.36433E+06    -161.833E-03     324.548E-03    -162.715E-03     50.4854E-03    -162.216E-03     324.765E-03    -162.460E-03     48.8960E-03
            1704     9.94483E-03     52.4636E-03    -43.0795E+06    -2.57478E+06     38.8151E+06    -2.65179E+06    -162.217E-03     325.006E-03    -162.789E-03     48.6439E-03    -162.569E-03     325.083E-03    -162.528E-03     47.3822E-03
            1705     9.17948E-03     52.4030E-03    -49.9376E+06    -27.1958E+06     29.5468E+06     3.17039E+06    -162.420E-03     325.262E-03    -162.843E-03     47.1312E-03    -162.735E-03     325.218E-03    -162.583E-03     46.2543E-03
            1706     8.41406E-03     52.3421E-03    -54.4625E+06    -57.1144E+06     17.9817E+06     2.05661E+06    -162.408E-03     325.299E-03    -162.891E-03     45.0634E-03    -162.670E-03     325.112E-03    -162.639E-03     44.3971E-03
            1707     7.64827E-03     52.2881E-03    -61.2973E+06    -79.6967E+06     7.40513E+06    -1.13754E+06    -162.699E-03     325.629E-03    -162.930E-03     42.6693E-03    -162.936E-03     325.344E-03    -162.689E-03     42.1466E-03
            1708     6.88383E-03     52.2352E-03    -66.8343E+06    -97.6400E+06    -412.862E+03     567.799E+03    -162.856E-03     325.810E-03    -162.955E-03     39.3399E-03    -163.071E-03     325.443E-03    -162.718E-03     39.0052E-03
            1709     6.11938E-03     52.1895E-03    -73.7915E+06    -116.796E+06    -12.8009E+06     2.31887E+06    -162.445E-03     325.422E-03    -162.977E-03     35.5601E-03    -162.642E-03     324.979E-03    -162.764E-03     35.3778E-03
            1710     5.35325E-03     52.1463E-03    -80.1758E+06    -130.573E+06    -25.7688E+06     1.76322E+06    -162.267E-03     325.299E-03    -163.032E-03     32.1426E-03    -162.450E-03     324.809E-03    -162.855E-03     32.1018E-03
            1711     4.58816E-03     52.1067E-03    -84.4676E+06    -145.113E+06    -37.3560E+06     515.511E+03    -162.732E-03     325.816E-03    -163.084E-03     28.0562E-03    -162.893E-03     325.270E-03    -162.938E-03     28.0878E-03
            1712     3.82392E-03     52.0719E-03    -94.3997E+06    -166.565E+06    -55.3586E+06    -721.775E+03    -163.093E-03     326.149E-03    -163.057E-03     22.9611E-03    -163.243E-03     325.534E-03    -162.955E-03     22.9870E-03
            1713     3.05858E-03     52.0452E-03    -104.326E+06    -191.256E+06    -74.1948E+06     510.463E+03    -162.980E-03     325.975E-03    -162.995E-03     17.9171E-03    -163.115E-03     325.277E-03    -162.938E-03     17.9974E-03
            1714     2.29391E-03     52.0245E-03    -109.170E+06    -208.268E+06    -91.4101E+06     1.11876E+06    -162.754E-03     325.716E-03    -162.962E-03     14.3238E-03    -162.861E-03     324.962E-03    -162.959E-03     14.4251E-03
            1715     1.52837E-03     52.0063E-03    -114.917E+06    -219.433E+06    -107.373E+06    -755.296E+03    -162.874E-03     325.828E-03    -162.955E-03     10.1216E-03    -162.968E-03     325.047E-03    -163.007E-03     10.1660E-03
            1716     764.479E-06     51.9979E-03    -117.912E+06    -229.762E+06    -115.191E+06    -314.149E+03    -162.946E-03     325.913E-03    -162.967E-03     5.44054E-03    -163.026E-03     325.100E-03    -163.039E-03     5.48097E-03
            1717     14.5387E-03     51.4989E-03    -5.03036E+06     90.3779E+06     89.9738E+06    -15.7307E+03    -161.609E-03     324.289E-03    -162.680E-03     32.3252E-03    -162.038E-03     324.760E-03    -162.354E-03     29.6982E-03
            1718     13.7712E-03     51.4492E-03    -10.0790E+06     88.9207E+06     84.9601E+06     470.668E+03    -161.762E-03     324.463E-03    -162.701E-03     41.8513E-03    -162.235E-03     324.970E-03    -162.391E-03     39.2087E-03
            1719     13.0058E-03     51.3925E-03    -15.0766E+06     83.1743E+06     75.9733E+06     389.475E+03    -162.446E-03     325.143E-03    -162.697E-03     46.2944E-03    -162.908E-03     325.626E-03    -162.416E-03     43.9948E-03
            1720     12.2411E-03     51.3364E-03    -19.7038E+06     77.4417E+06     69.8519E+06    -256.203E+03    -162.011E-03     324.722E-03    -162.711E-03     49.1128E-03    -162.469E-03     325.183E-03    -162.446E-03     47.0283E-03
            1721     11.4751E-03     51.2746E-03    -26.3567E+06     62.9010E+06     61.3603E+06    -1.53100E+06    -161.974E-03     324.729E-03    -162.754E-03     50.3041E-03    -162.413E-03     325.119E-03    -162.501E-03     48.4959E-03
            1722     10.7094E-03     51.2139E-03    -35.8263E+06     27.7123E+06     47.4763E+06    -2.21482E+06    -162.596E-03     325.391E-03    -162.795E-03     50.3348E-03    -162.988E-03     325.617E-03    -162.546E-03     48.8118E-03
            1723     9.94456E-03     51.1510E-03    -44.6984E+06    -11.3047E+06     33.8222E+06    -2.38526E+06    -162.967E-03     325.780E-03    -162.813E-03     49.1377E-03    -163.306E-03     325.823E-03    -162.563E-03     47.8979E-03
            1724     9.17996E-03     51.0908E-03    -47.2071E+06    -32.4294E+06     27.8060E+06    -210.639E+03    -162.629E-03     325.467E-03    -162.838E-03     47.1537E-03    -162.921E-03     325.396E-03    -162.583E-03     46.2135E-03
            1725     8.41385E-03     51.0320E-03    -48.3432E+06    -50.3756E+06     21.6915E+06     1.31112E+06    -162.139E-03     325.035E-03    -162.896E-03     45.0365E-03    -162.385E-03     324.868E-03    -162.645E-03     44.3720E-03
            1726     7.64819E-03     50.9757E-03    -57.7692E+06    -78.8272E+06     8.38576E+06     68.3611E+03    -162.234E-03     325.207E-03    -162.974E-03     42.5392E-03    -162.455E-03     324.920E-03    -162.734E-03     42.0304E-03
            1727     6.88269E-03     50.9227E-03    -65.8790E+06    -102.388E+06    -2.06508E+06     1.17139E+06    -162.449E-03     325.501E-03    -163.052E-03     39.1557E-03    -162.652E-03     325.113E-03    -162.818E-03     38.7938E-03
            1728     6.11700E-03     50.8774E-03    -69.9397E+06    -115.535E+06    -10.4765E+06     808.745E+03    -162.828E-03     325.921E-03    -163.093E-03     35.6505E-03    -163.011E-03     325.476E-03    -162.877E-03     35.4396E-03
            1729     5.35288E-03     50.8340E-03    -78.6267E+06    -129.193E+06    -23.5808E+06    -109.688E+03    -163.226E-03     326.295E-03    -163.069E-03     32.4143E-03    -163.407E-03     325.806E-03    -162.886E-03     32.3381E-03
            1730     4.58825E-03     50.7939E-03    -87.4404E+06    -144.665E+06    -39.4857E+06     529.431E+03    -163.133E-03     326.134E-03    -163.001E-03     28.2524E-03    -163.307E-03     325.599E-03    -162.862E-03     28.2742E-03
            1731     3.82326E-03     50.7590E-03    -95.4433E+06    -167.245E+06    -58.0414E+06     1.04517E+06    -162.859E-03     325.802E-03    -162.943E-03     23.0546E-03    -163.010E-03     325.189E-03    -162.852E-03     23.1127E-03
            1732     3.05923E-03     50.7331E-03    -103.807E+06    -192.694E+06    -74.9053E+06     2.12676E+06    -162.901E-03     325.804E-03    -162.903E-03     18.1381E-03    -163.032E-03     325.099E-03    -162.847E-03     18.2213E-03
            1733     2.29460E-03     50.7117E-03    -108.503E+06    -206.411E+06    -87.4106E+06     2.60784E+06    -162.944E-03     325.774E-03    -162.830E-03     14.1207E-03    -163.057E-03     325.023E-03    -162.811E-03     14.2403E-03
            1734     1.53014E-03     50.6954E-03    -113.239E+06    -216.550E+06    -102.379E+06     2.29887E+06    -162.721E-03     325.469E-03    -162.748E-03     9.72835E-03    -162.818E-03     324.693E-03    -162.782E-03     9.84069E-03
            1735     764.695E-06     50.6835E-03    -119.528E+06    -229.958E+06    -117.189E+06     278.985E+03    -162.726E-03     325.410E-03    -162.684E-03     4.71250E-03    -162.811E-03     324.601E-03    -162.763E-03     4.76532E-03
            1736     14.5383E-03     50.1885E-03    -5.13627E+06     90.2225E+06     89.4633E+06     125.165E+03    -162.170E-03     324.813E-03    -162.643E-03     33.0919E-03    -162.600E-03     325.286E-03    -162.319E-03     30.4713E-03
            1737     13.7733E-03     50.1385E-03    -10.3516E+06     88.3529E+06     84.0279E+06    -87.6000E+03    -161.627E-03     324.278E-03    -162.651E-03     43.1479E-03    -162.102E-03     324.786E-03    -162.344E-03     40.5053E-03
            1738     13.0066E-03     50.0816E-03    -15.5923E+06     82.9206E+06     76.3350E+06    -133.860E+03    -161.257E-03     323.948E-03    -162.691E-03     45.6060E-03    -161.716E-03     324.424E-03    -162.407E-03     43.3597E-03
            1739     12.2398E-03     50.0244E-03    -21.1238E+06     77.3091E+06     69.8402E+06     221.871E+03    -161.529E-03     324.282E-03    -162.754E-03     47.8634E-03    -161.988E-03     324.738E-03    -162.486E-03     45.8335E-03
            1740     11.4741E-03     49.9637E-03    -26.0196E+06     64.6437E+06     61.3848E+06     559.930E+03    -162.074E-03     324.879E-03    -162.805E-03     49.6755E-03    -162.509E-03     325.272E-03    -162.554E-03     47.9419E-03
            1741     10.7089E-03     49.9006E-03    -32.1558E+06     28.6381E+06     47.6195E+06     218.195E+03    -162.614E-03     325.456E-03    -162.842E-03     50.0749E-03    -162.987E-03     325.678E-03    -162.599E-03     48.6255E-03
            1742     9.94416E-03     49.8383E-03    -37.2367E+06    -9.37964E+06     35.7627E+06    -1.58327E+06    -162.912E-03     325.782E-03    -162.870E-03     49.4184E-03    -163.220E-03     325.820E-03    -162.624E-03     48.2002E-03
            1743     9.17890E-03     49.7781E-03    -43.9289E+06    -35.0233E+06     27.1537E+06    -3.47451E+06    -162.900E-03     325.793E-03    -162.893E-03     47.5388E-03    -163.174E-03     325.707E-03    -162.642E-03     46.5219E-03
            1744     8.41415E-03     49.7213E-03    -52.3335E+06    -54.0500E+06     19.4322E+06    -697.161E+03    -162.794E-03     325.713E-03    -162.918E-03     45.3526E-03    -163.055E-03     325.539E-03    -162.667E-03     44.6104E-03
            1745     7.64855E-03     49.6637E-03    -56.8424E+06    -78.5189E+06     9.95473E+06     2.16354E+06    -162.359E-03     325.324E-03    -162.965E-03     41.8879E-03    -162.578E-03     325.034E-03    -162.719E-03     41.4000E-03
            1746     6.88247E-03     49.6126E-03    -62.8623E+06    -102.363E+06    -1.56187E+06    -44.1881E+03    -162.230E-03     325.268E-03    -163.038E-03     38.0594E-03    -162.418E-03     324.874E-03    -162.806E-03     37.6904E-03
            1747     6.11735E-03     49.5638E-03    -71.6786E+06    -114.927E+06    -11.4055E+06    -38.2041E+03    -163.022E-03     326.096E-03    -163.074E-03     34.6565E-03    -163.213E-03     325.657E-03    -162.860E-03     34.4353E-03
            1748     5.35294E-03     49.5201E-03    -79.6624E+06    -129.406E+06    -24.3588E+06     1.18424E+06    -163.435E-03     326.449E-03    -163.014E-03     31.0801E-03    -163.619E-03     325.962E-03    -162.833E-03     31.0077E-03
            1749     4.58921E-03     49.4806E-03    -87.2088E+06    -144.684E+06    -41.1195E+06     688.511E+03    -162.905E-03     325.837E-03    -162.932E-03     27.7649E-03    -163.076E-03     325.304E-03    -162.801E-03     27.7707E-03
            1750     3.82458E-03     49.4477E-03    -94.0827E+06    -168.692E+06    -57.7569E+06     1.47901E+06    -162.612E-03     325.533E-03    -162.921E-03     23.4946E-03    -162.755E-03     324.911E-03    -162.829E-03     23.5573E-03
            1751     3.05865E-03     49.4204E-03    -99.2572E+06    -191.378E+06    -72.7107E+06     1.06959E+06    -162.948E-03     325.851E-03    -162.903E-03     18.8899E-03    -163.062E-03     325.144E-03    -162.845E-03     18.9377E-03
            1752     2.29432E-03     49.3989E-03    -104.690E+06    -204.266E+06    -87.2764E+06    -601.899E+03    -163.223E-03     325.987E-03    -162.764E-03     14.3452E-03    -163.321E-03     325.241E-03    -162.752E-03     14.3858E-03
            1753     1.52990E-03     49.3834E-03    -108.541E+06    -215.964E+06    -98.4723E+06    -233.734E+03    -162.892E-03     325.452E-03    -162.559E-03     9.79492E-03    -162.973E-03     324.666E-03    -162.581E-03     9.86699E-03
            1754     765.177E-06     49.3734E-03    -108.983E+06    -227.571E+06    -106.221E+06     1.31035E+06    -162.480E-03     324.902E-03    -162.422E-03     5.08827E-03    -162.532E-03     324.073E-03    -162.465E-03     5.15057E-03
            1755     14.5369E-03     48.8747E-03    -4.52470E+06     90.3729E+06     89.9133E+06     392.347E+03    -162.170E-03     324.844E-03    -162.674E-03     33.6300E-03    -162.600E-03     325.318E-03    -162.349E-03     31.0040E-03
            1756     13.7724E-03     48.8256E-03    -9.59062E+06     89.1489E+06     85.2596E+06    -133.215E+03    -162.072E-03     324.746E-03    -162.674E-03     43.1690E-03    -162.550E-03     325.260E-03    -162.363E-03     40.4689E-03
            1757     13.0069E-03     48.7728E-03    -15.3813E+06     82.5522E+06     75.0048E+06    -638.692E+03    -161.319E-03     324.010E-03    -162.691E-03     46.5758E-03    -161.782E-03     324.494E-03    -162.413E-03     44.2620E-03
            1758     12.2406E-03     48.7131E-03    -21.8292E+06     76.4579E+06     67.3282E+06    -19.4252E+03    -161.605E-03     324.353E-03    -162.747E-03     48.6372E-03    -162.066E-03     324.812E-03    -162.490E-03     46.5906E-03
            1759     11.4748E-03     48.6519E-03    -27.6759E+06     63.3968E+06     59.4954E+06     1.17409E+06    -162.187E-03     324.985E-03    -162.797E-03     49.4971E-03    -162.625E-03     325.377E-03    -162.552E-03     47.7725E-03
            1760     10.7090E-03     48.5886E-03    -33.0406E+06     31.8299E+06     47.7520E+06     954.898E+03    -162.314E-03     325.157E-03    -162.843E-03     49.4977E-03    -162.695E-03     325.395E-03    -162.602E-03     48.0490E-03
            1761     9.94299E-03     48.5261E-03    -41.0210E+06    -6.01967E+06     35.7476E+06    -42.5746E+03    -162.346E-03     325.251E-03    -162.905E-03     48.5670E-03    -162.677E-03     325.312E-03    -162.658E-03     47.3540E-03
            1762     9.17769E-03     48.4658E-03    -49.1463E+06    -34.6237E+06     25.5654E+06    -577.433E+03    -162.827E-03     325.778E-03    -162.952E-03     47.0912E-03    -163.124E-03     325.704E-03    -162.702E-03     46.1157E-03
            1763     8.41300E-03     48.4075E-03    -54.8731E+06    -58.2701E+06     16.8695E+06    -1.68984E+06    -163.166E-03     326.130E-03    -162.964E-03     45.2281E-03    -163.430E-03     325.943E-03    -162.716E-03     44.4613E-03
            1764     7.64911E-03     48.3519E-03    -61.2351E+06    -81.3587E+06     7.86736E+06    -1.19510E+06    -162.978E-03     325.945E-03    -162.968E-03     42.2771E-03    -163.214E-03     325.653E-03    -162.722E-03     41.7081E-03
            1765     6.88414E-03     48.3017E-03    -67.4891E+06    -99.2249E+06    -2.89044E+06    -203.779E+03    -162.897E-03     325.861E-03    -162.964E-03     38.9740E-03    -163.111E-03     325.492E-03    -162.737E-03     38.5989E-03
            1766     6.11899E-03     48.2506E-03    -73.0005E+06    -115.375E+06    -14.5706E+06    -568.040E+03    -162.953E-03     325.902E-03    -162.949E-03     35.8219E-03    -163.146E-03     325.468E-03    -162.749E-03     35.5835E-03
            1767     5.35468E-03     48.2069E-03    -78.2006E+06    -130.259E+06    -25.6920E+06    -1.23365E+06    -162.942E-03     325.868E-03    -162.925E-03     31.6775E-03    -163.118E-03     325.377E-03    -162.752E-03     31.5316E-03
            1768     4.58865E-03     48.1694E-03    -83.9149E+06    -144.985E+06    -37.0725E+06    -778.109E+03    -162.710E-03     325.621E-03    -162.911E-03     27.4438E-03    -162.870E-03     325.076E-03    -162.764E-03     27.4072E-03
            1769     3.82275E-03     48.1356E-03    -90.6824E+06    -169.093E+06    -51.7585E+06     460.462E+03    -162.564E-03     325.490E-03    -162.926E-03     23.2093E-03    -162.698E-03     324.852E-03    -162.808E-03     23.2618E-03
            1770     3.05902E-03     48.1078E-03    -98.4406E+06    -190.866E+06    -70.1488E+06    -17.1795E+03    -162.749E-03     325.671E-03    -162.923E-03     18.9152E-03    -162.862E-03     324.961E-03    -162.854E-03     18.9902E-03
            1771     2.29445E-03     48.0858E-03    -103.501E+06    -202.306E+06    -88.1092E+06    -1.00205E+06    -162.905E-03     325.767E-03    -162.862E-03     14.5600E-03    -162.997E-03     325.030E-03    -162.859E-03     14.6268E-03
            1772     1.53006E-03     48.0713E-03    -107.646E+06    -217.485E+06    -102.368E+06    -2.04647E+06    -162.873E-03     325.664E-03    -162.791E-03     10.0933E-03    -162.941E-03     324.875E-03    -162.831E-03     10.1244E-03
            1773     765.203E-06     48.0625E-03    -113.126E+06    -230.092E+06    -110.440E+06    -1.89964E+06    -162.678E-03     325.523E-03    -162.846E-03     6.24636E-03    -162.741E-03     324.694E-03    -162.900E-03     6.24056E-03
            1774     14.5372E-03     47.5611E-03    -4.97816E+06     90.6489E+06     90.5625E+06    -292.680E+03    -161.636E-03     324.337E-03    -162.701E-03     33.3786E-03    -162.071E-03     324.813E-03    -162.372E-03     30.7220E-03
            1775     13.7715E-03     47.5139E-03    -9.99548E+06     88.9878E+06     84.4752E+06     500.857E+03    -161.679E-03     324.399E-03    -162.720E-03     42.2083E-03    -162.157E-03     324.912E-03    -162.412E-03     39.5190E-03
            1776     13.0053E-03     47.4617E-03    -15.5155E+06     82.2441E+06     72.5247E+06     672.142E+03    -161.891E-03     324.614E-03    -162.724E-03     46.5653E-03    -162.351E-03     325.102E-03    -162.458E-03     44.2475E-03
            1777     12.2399E-03     47.4015E-03    -21.1728E+06     76.6335E+06     66.2215E+06    -393.242E+03    -162.102E-03     324.857E-03    -162.755E-03     49.3275E-03    -162.562E-03     325.322E-03    -162.505E-03     47.2364E-03
            1778     11.4746E-03     47.3398E-03    -26.4911E+06     59.8906E+06     61.5913E+06     441.826E+03    -162.232E-03     325.043E-03    -162.811E-03     50.2162E-03    -162.668E-03     325.419E-03    -162.552E-03     48.4191E-03
            1779     10.7097E-03     47.2765E-03    -32.6825E+06     33.3944E+06     51.8468E+06     2.73293E+06    -162.265E-03     325.127E-03    -162.862E-03     49.9603E-03    -162.657E-03     325.371E-03    -162.603E-03     48.4892E-03
            1780     9.94424E-03     47.2156E-03    -40.2597E+06    -2.65465E+06     38.1191E+06     1.13770E+06    -162.378E-03     325.291E-03    -162.913E-03     48.8742E-03    -162.715E-03     325.365E-03    -162.660E-03     47.6680E-03
            1781     9.17839E-03     47.1532E-03    -44.3018E+06    -33.7353E+06     28.3177E+06    -1.27242E+06    -162.702E-03     325.667E-03    -162.965E-03     47.2983E-03    -162.981E-03     325.586E-03    -162.710E-03     46.3157E-03
            1782     8.41329E-03     47.0945E-03    -48.5612E+06    -57.6635E+06     20.2183E+06    -632.933E+03    -162.928E-03     325.926E-03    -162.997E-03     44.6322E-03    -163.166E-03     325.728E-03    -162.742E-03     43.8686E-03
            1783     7.64716E-03     47.0398E-03    -57.2965E+06    -83.2284E+06     9.10955E+06    -507.807E+03    -163.141E-03     326.145E-03    -163.004E-03     42.0250E-03    -163.357E-03     325.836E-03    -162.755E-03     41.4353E-03
            1784     6.88314E-03     46.9870E-03    -63.4787E+06    -99.0153E+06    -385.152E+03    -974.211E+03    -163.198E-03     326.181E-03    -162.983E-03     39.5692E-03    -163.397E-03     325.804E-03    -162.749E-03     39.1791E-03
            1785     6.11898E-03     46.9396E-03    -68.5306E+06    -114.472E+06    -11.3993E+06    -1.59364E+06    -162.900E-03     325.862E-03    -162.962E-03     36.7983E-03    -163.076E-03     325.422E-03    -162.753E-03     36.5658E-03
            1786     5.35268E-03     46.8944E-03    -76.6615E+06    -130.286E+06    -24.3602E+06    -2.44278E+06    -162.859E-03     325.809E-03    -162.950E-03     32.5050E-03    -163.029E-03     325.314E-03    -162.771E-03     32.3417E-03
            1787     4.58929E-03     46.8565E-03    -84.8263E+06    -147.991E+06    -37.6735E+06    -1.92526E+06    -162.965E-03     325.887E-03    -162.922E-03     27.5012E-03    -163.125E-03     325.330E-03    -162.773E-03     27.4183E-03
            1788     3.82541E-03     46.8242E-03    -90.3862E+06    -169.835E+06    -51.1780E+06    -754.066E+03    -162.603E-03     325.515E-03    -162.912E-03     23.4839E-03    -162.735E-03     324.872E-03    -162.791E-03     23.4974E-03
            1789     3.05903E-03     46.7955E-03    -97.8986E+06    -189.109E+06    -69.6461E+06    -89.3773E+03    -162.223E-03     325.195E-03    -162.972E-03     19.5744E-03    -162.336E-03     324.491E-03    -162.905E-03     19.6614E-03
            1790     2.29356E-03     46.7743E-03    -108.016E+06    -204.326E+06    -89.5796E+06     322.887E+03    -162.366E-03     325.485E-03    -163.119E-03     15.3095E-03    -162.476E-03     324.746E-03    -163.114E-03     15.4045E-03
            1791     1.52815E-03     46.7583E-03    -115.221E+06    -218.006E+06    -104.272E+06     1.16397E+06    -162.911E-03     326.194E-03    -163.283E-03     10.2724E-03    -163.013E-03     325.416E-03    -163.321E-03     10.3386E-03
            1792     763.551E-06     46.7505E-03    -119.091E+06    -230.219E+06    -116.766E+06     544.667E+03    -163.252E-03     326.668E-03    -163.417E-03     5.71072E-03    -163.335E-03     325.856E-03    -163.494E-03     5.77011E-03
            1793     14.5375E-03     46.2504E-03    -5.40594E+06     89.7296E+06     88.6787E+06    -20.6980E+03    -161.089E-03     323.799E-03    -162.709E-03     33.8608E-03    -161.524E-03     324.276E-03    -162.388E-03     31.1935E-03
            1794     13.7706E-03     46.2033E-03    -10.4590E+06     87.7765E+06     83.3155E+06    -192.995E+03    -161.531E-03     324.284E-03    -162.753E-03     42.3223E-03    -162.008E-03     324.794E-03    -162.448E-03     39.6200E-03
            1795     13.0055E-03     46.1487E-03    -15.2945E+06     83.1979E+06     75.6410E+06     213.930E+03    -161.989E-03     324.766E-03    -162.777E-03     46.4155E-03    -162.454E-03     325.253E-03    -162.498E-03     44.0875E-03
            1796     12.2402E-03     46.0900E-03    -20.2463E+06     77.8331E+06     69.7263E+06     465.990E+03    -162.052E-03     324.862E-03    -162.811E-03     49.7688E-03    -162.515E-03     325.328E-03    -162.546E-03     47.6899E-03
            1797     11.4745E-03     46.0275E-03    -25.7104E+06     57.6953E+06     62.6565E+06    -318.627E+03    -162.088E-03     324.959E-03    -162.870E-03     51.1906E-03    -162.521E-03     325.323E-03    -162.603E-03     49.3787E-03
            1798     10.7082E-03     45.9653E-03    -29.5664E+06     31.4083E+06     54.4478E+06     56.7824E+03    -162.435E-03     325.365E-03    -162.930E-03     50.9926E-03    -162.815E-03     325.593E-03    -162.661E-03     49.4775E-03
            1799     9.94275E-03     45.9024E-03    -33.7850E+06     1.34761E+06     43.2896E+06     862.162E+03    -162.826E-03     325.791E-03    -162.965E-03     49.7581E-03    -163.145E-03     325.870E-03    -162.701E-03     48.5414E-03
            1800     9.17828E-03     45.8416E-03    -40.9453E+06    -32.7363E+06     30.6657E+06    -223.589E+03    -162.865E-03     325.858E-03    -162.993E-03     48.0806E-03    -163.133E-03     325.776E-03    -162.733E-03     47.1003E-03
            1801     8.41279E-03     45.7819E-03    -48.3980E+06    -59.8753E+06     20.3816E+06    -121.454E+03    -163.036E-03     326.053E-03    -163.017E-03     45.2797E-03    -163.271E-03     325.844E-03    -162.758E-03     44.5223E-03
            1802     7.64909E-03     45.7272E-03    -54.1295E+06    -81.1840E+06     11.3289E+06    -244.658E+03    -163.121E-03     326.143E-03    -163.022E-03     41.9168E-03    -163.327E-03     325.836E-03    -162.769E-03     41.3447E-03
            1803     6.88333E-03     45.6746E-03    -60.5299E+06    -98.9003E+06     2.16350E+06    -1.16945E+06    -162.925E-03     325.950E-03    -163.025E-03     39.0792E-03    -163.112E-03     325.565E-03    -162.783E-03     38.6950E-03
            1804     6.11758E-03     45.6271E-03    -68.3535E+06    -114.640E+06    -9.20299E+06    -140.369E+03    -162.934E-03     325.957E-03    -163.023E-03     36.1086E-03    -163.111E-03     325.511E-03    -162.804E-03     35.9134E-03
            1805     5.35422E-03     45.5819E-03    -76.9693E+06    -129.763E+06    -24.3207E+06     215.569E+03    -162.681E-03     325.698E-03    -163.017E-03     32.3888E-03    -162.852E-03     325.206E-03    -162.839E-03     32.2803E-03
            1806     4.58813E-03     45.5438E-03    -87.1679E+06    -149.453E+06    -42.5523E+06    -831.009E+03    -162.476E-03     325.518E-03    -163.042E-03     28.5657E-03    -162.640E-03     324.965E-03    -162.912E-03     28.4814E-03
            1807     3.82276E-03     45.5115E-03    -93.6169E+06    -171.211E+06    -56.3502E+06    -1.54638E+06    -162.696E-03     325.794E-03    -163.099E-03     24.8903E-03    -162.835E-03     325.157E-03    -162.996E-03     24.8687E-03
            1808     3.05841E-03     45.4854E-03    -99.6229E+06    -189.589E+06    -70.2995E+06    -498.366E+03    -162.798E-03     325.938E-03    -163.140E-03     20.0271E-03    -162.919E-03     325.236E-03    -163.072E-03     20.0857E-03
            1809     2.29279E-03     45.4617E-03    -109.130E+06    -204.371E+06    -89.9776E+06     462.673E+03    -162.880E-03     326.032E-03    -163.152E-03     14.4121E-03    -162.995E-03     325.296E-03    -163.147E-03     14.4801E-03
            1810     1.52834E-03     45.4455E-03    -114.815E+06    -217.424E+06    -105.438E+06    -597.192E+03    -163.149E-03     326.278E-03    -163.129E-03     8.74494E-03    -163.248E-03     325.504E-03    -163.175E-03     8.75919E-03
            1811     764.831E-06     45.4342E-03    -115.030E+06    -229.444E+06    -112.020E+06    -627.923E+03    -163.170E-03     326.203E-03    -163.033E-03     4.07808E-03    -163.240E-03     325.381E-03    -163.094E-03     4.08492E-03
            1812     14.5355E-03     44.9394E-03    -4.55957E+06     89.7133E+06     88.7491E+06     322.186E+03    -160.701E-03     323.435E-03    -162.733E-03     34.2086E-03    -161.135E-03     323.914E-03    -162.413E-03     31.5243E-03
            1813     13.7709E-03     44.8911E-03    -9.55866E+06     88.4053E+06     85.3361E+06    -293.237E+03    -161.423E-03     324.224E-03    -162.801E-03     43.1287E-03    -161.903E-03     324.737E-03    -162.489E-03     40.4010E-03
            1814     13.0047E-03     44.8372E-03    -15.0820E+06     83.1928E+06     77.9148E+06    -444.023E+03    -161.754E-03     324.597E-03    -162.843E-03     47.2535E-03    -162.226E-03     325.084E-03    -162.552E-03     44.9012E-03
            1815     12.2384E-03     44.7782E-03    -20.8121E+06     77.5554E+06     70.8582E+06     240.197E+03    -161.948E-03     324.835E-03    -162.887E-03     50.0912E-03    -162.416E-03     325.298E-03    -162.615E-03     48.0175E-03
            1816     11.4725E-03     44.7160E-03    -26.4223E+06     60.8444E+06     61.6230E+06    -936.583E+03    -162.246E-03     325.179E-03    -162.933E-03     50.9545E-03    -162.683E-03     325.559E-03    -162.675E-03     49.1631E-03
            1817     10.7076E-03     44.6530E-03    -32.5057E+06     28.8021E+06     51.0872E+06    -2.73073E+06    -162.553E-03     325.540E-03    -162.987E-03     50.6859E-03    -162.936E-03     325.762E-03    -162.726E-03     49.1593E-03
            1818     9.94286E-03     44.5892E-03    -38.7463E+06    -1.67844E+06     41.8322E+06    -111.281E+03    -162.897E-03     325.929E-03    -163.032E-03     49.7308E-03    -163.234E-03     326.001E-03    -162.764E-03     48.5087E-03
            1819     9.17733E-03     44.5292E-03    -44.8462E+06    -31.3511E+06     30.1774E+06     2.00469E+06    -163.110E-03     326.157E-03    -163.046E-03     47.7779E-03    -163.400E-03     326.088E-03    -162.785E-03     46.8082E-03
            1820     8.41265E-03     44.4692E-03    -51.6022E+06    -59.8729E+06     18.6981E+06     38.1996E+03    -162.910E-03     325.973E-03    -163.063E-03     45.6901E-03    -163.159E-03     325.772E-03    -162.808E-03     44.9306E-03
            1821     7.64723E-03     44.4132E-03    -59.0664E+06    -79.5223E+06     9.67269E+06    -1.46457E+06    -162.916E-03     326.008E-03    -163.091E-03     43.0712E-03    -163.147E-03     325.718E-03    -162.842E-03     42.5025E-03
            1822     6.88294E-03     44.3636E-03    -65.7040E+06    -98.4339E+06    -281.950E+03    -1.21868E+06    -163.172E-03     326.270E-03    -163.098E-03     40.2219E-03    -163.383E-03     325.899E-03    -162.861E-03     39.8298E-03
            1823     6.11878E-03     44.3132E-03    -72.3365E+06    -116.904E+06    -12.9241E+06    -112.656E+03    -162.891E-03     325.981E-03    -163.091E-03     36.7032E-03    -163.080E-03     325.536E-03    -162.881E-03     36.4771E-03
            1824     5.35243E-03     44.2706E-03    -79.1744E+06    -131.781E+06    -27.2738E+06     253.577E+03    -162.328E-03     325.454E-03    -163.127E-03     32.6385E-03    -162.503E-03     324.960E-03    -162.957E-03     32.5122E-03
            1825     4.58713E-03     44.2326E-03    -83.8132E+06    -145.225E+06    -39.5549E+06     108.572E+03    -162.295E-03     325.523E-03    -163.229E-03     28.4200E-03    -162.451E-03     324.981E-03    -163.094E-03     28.3691E-03
            1826     3.82159E-03     44.1991E-03    -94.6330E+06    -171.475E+06    -56.3438E+06    -171.175E+03    -162.979E-03     326.283E-03    -163.304E-03     23.9254E-03    -163.123E-03     325.646E-03    -163.200E-03     23.9493E-03
            1827     3.05742E-03     44.1702E-03    -103.522E+06    -193.372E+06    -72.0431E+06    -169.337E+03    -163.731E-03     326.958E-03    -163.227E-03     19.1749E-03    -163.863E-03     326.245E-03    -163.157E-03     19.2294E-03
            1828     2.29494E-03     44.1494E-03    -106.931E+06    -201.301E+06    -86.7608E+06    -91.7451E+03    -163.593E-03     326.582E-03    -162.989E-03     14.3148E-03    -163.706E-03     325.853E-03    -162.976E-03     14.3569E-03
            1829     1.53088E-03     44.1315E-03    -113.716E+06    -215.811E+06    -106.703E+06    -649.440E+03    -162.813E-03     325.622E-03    -162.809E-03     9.82250E-03    -162.907E-03     324.856E-03    -162.865E-03     9.84224E-03
            1830     765.148E-06     44.1244E-03    -119.873E+06    -233.480E+06    -119.066E+06    -1.46867E+06    -162.850E-03     325.578E-03    -162.728E-03     5.70166E-03    -162.928E-03     324.753E-03    -162.811E-03     5.68677E-03
            1831     14.5371E-03     43.6286E-03    -4.76381E+06     90.3005E+06     89.9495E+06     187.756E+03    -160.331E-03     323.049E-03    -162.718E-03     32.8117E-03    -160.762E-03     323.523E-03    -162.392E-03     30.1695E-03
            1832     13.7691E-03     43.5805E-03    -10.3459E+06     88.6304E+06     85.3553E+06     231.299E+03    -160.561E-03     323.375E-03    -162.814E-03     42.6164E-03    -161.041E-03     323.886E-03    -162.501E-03     39.9393E-03
            1833     13.0033E-03     43.5249E-03    -15.7716E+06     82.5801E+06     76.7245E+06    -131.101E+03    -161.622E-03     324.501E-03    -162.879E-03     46.5643E-03    -162.091E-03     324.985E-03    -162.592E-03     44.2359E-03
            1834     12.2381E-03     43.4667E-03    -20.8789E+06     77.4134E+06     69.8343E+06    -741.660E+03    -162.245E-03     325.162E-03    -162.917E-03     48.9842E-03    -162.708E-03     325.624E-03    -162.650E-03     46.9021E-03
            1835     11.4731E-03     43.4030E-03    -26.7755E+06     63.3868E+06     62.2308E+06    -761.005E+03    -162.465E-03     325.416E-03    -162.951E-03     49.9992E-03    -162.906E-03     325.807E-03    -162.693E-03     48.2208E-03
            1836     10.7077E-03     43.3406E-03    -34.1351E+06     28.9904E+06     50.4453E+06    -603.411E+03    -162.499E-03     325.497E-03    -162.998E-03     49.8332E-03    -162.889E-03     325.722E-03    -162.738E-03     48.3372E-03
            1837     9.94146E-03     43.2774E-03    -40.4188E+06    -6.59111E+06     39.3713E+06    -989.636E+03    -162.718E-03     325.767E-03    -163.049E-03     49.4550E-03    -163.052E-03     325.820E-03    -162.784E-03     48.2302E-03
            1838     9.17732E-03     43.2146E-03    -45.2004E+06    -31.8105E+06     30.0913E+06    -101.761E+03    -162.840E-03     325.927E-03    -163.087E-03     47.4525E-03    -163.131E-03     325.858E-03    -162.825E-03     46.4466E-03
            1839     8.41244E-03     43.1577E-03    -50.3307E+06    -56.3673E+06     19.6721E+06     792.462E+03    -162.367E-03     325.508E-03    -163.142E-03     45.4330E-03    -162.616E-03     325.322E-03    -162.889E-03     44.6638E-03
            1840     7.64624E-03     43.1021E-03    -56.9438E+06    -78.2372E+06     9.14050E+06    -261.814E+03    -162.424E-03     325.650E-03    -163.225E-03     43.8993E-03    -162.646E-03     325.365E-03    -162.984E-03     43.3547E-03
            1841     6.88124E-03     43.0480E-03    -64.3264E+06    -99.4601E+06    -1.84454E+06    -1.73660E+06    -163.208E-03     326.483E-03    -163.275E-03     41.2394E-03    -163.410E-03     326.108E-03    -163.047E-03     40.8187E-03
            1842     6.11648E-03     43.0017E-03    -71.9050E+06    -118.878E+06    -13.4707E+06    -1.62247E+06    -163.125E-03     326.409E-03    -163.284E-03     36.8857E-03    -163.311E-03     325.957E-03    -163.074E-03     36.5727E-03
            1843     5.35190E-03     42.9587E-03    -79.9885E+06    -132.250E+06    -26.0872E+06    -786.610E+03    -162.630E-03     325.947E-03    -163.317E-03     32.7572E-03    -162.812E-03     325.451E-03    -163.140E-03     32.5756E-03
            1844     4.58683E-03     42.9200E-03    -88.1817E+06    -146.592E+06    -40.5778E+06     307.609E+03    -162.948E-03     326.309E-03    -163.361E-03     29.0538E-03    -163.123E-03     325.768E-03    -163.224E-03     29.0108E-03
            1845     3.82286E-03     42.8856E-03    -96.4752E+06    -170.063E+06    -57.3984E+06     571.144E+03    -163.266E-03     326.628E-03    -163.363E-03     24.5360E-03    -163.419E-03     326.002E-03    -163.263E-03     24.5780E-03
            1846     3.05840E-03     42.8567E-03    -103.590E+06    -192.366E+06    -73.7042E+06    -451.213E+03    -163.113E-03     326.468E-03    -163.355E-03     20.4233E-03    -163.244E-03     325.762E-03    -163.294E-03     20.4805E-03
            1847     2.29354E-03     42.8339E-03    -109.296E+06    -204.119E+06    -88.9421E+06     501.411E+03    -163.058E-03     326.435E-03    -163.377E-03     16.2134E-03    -163.174E-03     325.697E-03    -163.367E-03     16.2960E-03
            1848     1.52835E-03     42.8226E-03    -115.398E+06    -214.753E+06    -104.424E+06     3.27102E+06    -163.174E-03     326.607E-03    -163.432E-03     11.4667E-03    -163.280E-03     325.844E-03    -163.476E-03     11.6061E-03
            1849     763.249E-06     42.8104E-03    -121.173E+06    -229.141E+06    -118.001E+06     4.06200E+06    -163.577E-03     326.916E-03    -163.339E-03     6.61973E-03    -163.670E-03     326.112E-03    -163.421E-03     6.73164E-03
            1850     14.5384E-03     42.3215E-03    -4.76572E+06     90.0847E+06     90.0400E+06     304.301E+03    -160.761E-03     323.431E-03    -162.670E-03     32.2260E-03    -161.188E-03     323.900E-03    -162.344E-03     29.6230E-03
            1851     13.7712E-03     42.2711E-03    -9.64656E+06     89.0546E+06     85.4822E+06     127.230E+03    -160.506E-03     323.257E-03    -162.751E-03     42.2307E-03    -160.979E-03     323.765E-03    -162.439E-03     39.5937E-03
            1852     13.0043E-03     42.2133E-03    -14.8148E+06     83.1677E+06     76.5072E+06    -370.755E+03    -161.318E-03     324.138E-03    -162.821E-03     45.7183E-03    -161.776E-03     324.617E-03    -162.537E-03     43.4451E-03
            1853     12.2387E-03     42.1538E-03    -20.8587E+06     77.2361E+06     69.4828E+06    -333.292E+03    -161.890E-03     324.767E-03    -162.877E-03     48.1714E-03    -162.349E-03     325.224E-03    -162.611E-03     46.1269E-03
            1854     11.4732E-03     42.0908E-03    -27.0867E+06     62.9619E+06     62.0590E+06     184.511E+03    -162.015E-03     324.952E-03    -162.937E-03     50.2274E-03    -162.455E-03     325.339E-03    -162.679E-03     48.4960E-03
            1855     10.7077E-03     42.0284E-03    -32.4667E+06     29.8911E+06     50.7603E+06     50.6680E+03    -162.544E-03     325.539E-03    -162.995E-03     50.5178E-03    -162.927E-03     325.766E-03    -162.738E-03     49.0464E-03
            1856     9.94337E-03     41.9651E-03    -37.6127E+06    -6.79892E+06     39.4505E+06    -556.642E+03    -162.540E-03     325.592E-03    -163.053E-03     49.6365E-03    -162.861E-03     325.641E-03    -162.791E-03     48.4057E-03
            1857     9.17695E-03     41.9025E-03    -44.3638E+06    -33.1840E+06     29.7410E+06    -125.252E+03    -161.955E-03     325.096E-03    -163.141E-03     47.7904E-03    -162.239E-03     325.019E-03    -162.879E-03     46.8011E-03
            1858     8.41066E-03     41.8461E-03    -51.0672E+06    -56.1541E+06     18.6348E+06     85.9426E+03    -162.173E-03     325.419E-03    -163.246E-03     45.8308E-03    -162.426E-03     325.237E-03    -162.997E-03     45.0522E-03
            1859     7.64548E-03     41.7902E-03    -55.3598E+06    -75.5165E+06     9.10449E+06    -495.307E+03    -162.488E-03     325.833E-03    -163.345E-03     43.9767E-03    -162.706E-03     325.560E-03    -163.110E-03     43.4169E-03
            1860     6.87946E-03     41.7356E-03    -63.4631E+06    -100.143E+06    -2.09707E+06    -463.525E+03    -162.521E-03     325.972E-03    -163.451E-03     41.0094E-03    -162.716E-03     325.593E-03    -163.225E-03     40.6032E-03
            1861     6.11526E-03     41.6864E-03    -73.9638E+06    -122.800E+06    -14.7182E+06    -564.649E+03    -162.928E-03     326.468E-03    -163.540E-03     36.8706E-03    -163.119E-03     326.003E-03    -163.328E-03     36.5311E-03
            1862     5.35059E-03     41.6470E-03    -79.6104E+06    -131.533E+06    -24.0143E+06    -230.701E+03    -163.363E-03     326.937E-03    -163.574E-03     33.4729E-03    -163.548E-03     326.442E-03    -163.388E-03     33.2838E-03
            1863     4.58571E-03     41.6059E-03    -86.3543E+06    -145.550E+06    -38.6191E+06     445.597E+03    -163.331E-03     326.899E-03    -163.568E-03     29.9946E-03    -163.501E-03     326.358E-03    -163.425E-03     29.9524E-03
            1864     3.82135E-03     41.5714E-03    -94.2064E+06    -166.877E+06    -58.2272E+06    -499.716E+03    -163.016E-03     326.606E-03    -163.590E-03     25.6448E-03    -163.163E-03     325.995E-03    -163.502E-03     25.6333E-03
            1865     3.05645E-03     41.5444E-03    -102.793E+06    -191.462E+06    -77.9273E+06    -1.90425E+06    -162.802E-03     326.512E-03    -163.710E-03     21.0799E-03    -162.926E-03     325.817E-03    -163.673E-03     21.0809E-03
            1866     2.29017E-03     41.5225E-03    -111.876E+06    -209.594E+06    -94.3146E+06    -1.50910E+06    -163.140E-03     327.044E-03    -163.905E-03     15.4192E-03    -163.254E-03     326.292E-03    -163.910E-03     15.4365E-03
            1867     1.52652E-03     41.5050E-03    -116.208E+06    -216.581E+06    -104.971E+06     127.953E+03    -163.994E-03     327.976E-03    -163.982E-03     9.95708E-03    -164.100E-03     327.206E-03    -164.024E-03     9.99272E-03
            1868     764.911E-06     41.4962E-03    -116.283E+06    -222.217E+06    -112.305E+06     1.19725E+06    -164.000E-03     327.882E-03    -163.883E-03     5.37165E-03    -164.087E-03     327.098E-03    -163.953E-03     5.42121E-03
            1869     14.5372E-03     41.0085E-03    -4.21800E+06     90.2729E+06     90.1637E+06    -370.789E+03    -161.454E-03     324.115E-03    -162.662E-03     33.0220E-03    -161.883E-03     324.589E-03    -162.336E-03     30.3704E-03
            1870     13.7728E-03     40.9616E-03    -8.80312E+06     89.3827E+06     85.3012E+06    -329.683E+03    -161.603E-03     324.294E-03    -162.691E-03     43.1572E-03    -162.078E-03     324.807E-03    -162.381E-03     40.4739E-03
            1871     13.0064E-03     40.9030E-03    -14.5435E+06     82.8831E+06     75.7952E+06     351.675E+03    -161.020E-03     323.755E-03    -162.735E-03     47.0377E-03    -161.478E-03     324.237E-03    -162.456E-03     44.7750E-03
            1872     12.2401E-03     40.8419E-03    -20.4529E+06     77.1961E+06     69.5106E+06     677.319E+03    -160.965E-03     323.796E-03    -162.831E-03     49.0858E-03    -161.424E-03     324.255E-03    -162.566E-03     47.0583E-03
            1873     11.4731E-03     40.7812E-03    -26.1353E+06     62.0693E+06     61.3963E+06     100.355E+03    -161.425E-03     324.362E-03    -162.937E-03     50.9459E-03    -161.858E-03     324.744E-03    -162.682E-03     49.2269E-03
            1874     10.7069E-03     40.7148E-03    -32.6577E+06     29.5292E+06     49.0891E+06     734.931E+03    -161.941E-03     324.978E-03    -163.037E-03     51.8522E-03    -162.323E-03     325.206E-03    -162.787E-03     50.4153E-03
            1875     9.94167E-03     40.6520E-03    -39.4497E+06    -5.72339E+06     37.8348E+06     1.04957E+06    -161.965E-03     325.112E-03    -163.147E-03     50.8540E-03    -162.297E-03     325.174E-03    -162.893E-03     49.6266E-03
            1876     9.17584E-03     40.5936E-03    -46.4039E+06    -33.7819E+06     27.5914E+06     271.921E+03    -162.030E-03     325.296E-03    -163.267E-03     49.2309E-03    -162.323E-03     325.224E-03    -163.012E-03     48.2372E-03
            1877     8.40965E-03     40.5333E-03    -51.9418E+06    -55.9039E+06     19.1291E+06    -811.584E+03    -162.682E-03     326.052E-03    -163.369E-03     46.5476E-03    -162.942E-03     325.873E-03    -163.117E-03     45.7432E-03
            1878     7.64488E-03     40.4769E-03    -59.0859E+06    -75.5607E+06     9.47062E+06     171.518E+03    -162.793E-03     326.236E-03    -163.443E-03     43.4273E-03    -163.033E-03     325.970E-03    -163.200E-03     42.8172E-03
            1879     6.88028E-03     40.4240E-03    -68.5269E+06    -99.4807E+06    -4.12765E+06     1.25480E+06    -162.045E-03     325.600E-03    -163.555E-03     40.4137E-03    -162.264E-03     325.235E-03    -163.332E-03     40.0107E-03
            1880     6.11268E-03     40.3748E-03    -74.5555E+06    -120.776E+06    -15.8358E+06    -1.15745E+06    -162.241E-03     325.966E-03    -163.726E-03     37.1557E-03    -162.434E-03     325.512E-03    -163.522E-03     36.8504E-03
            1881     5.34814E-03     40.3305E-03    -79.2415E+06    -132.402E+06    -25.8546E+06    -1.65220E+06    -163.489E-03     327.313E-03    -163.824E-03     33.6508E-03    -163.667E-03     326.815E-03    -163.647E-03     33.4626E-03
            1882     4.58534E-03     40.2919E-03    -85.9648E+06    -145.298E+06    -39.3314E+06    -1.02290E+06    -163.509E-03     327.349E-03    -163.840E-03     29.3890E-03    -163.677E-03     326.810E-03    -163.702E-03     29.2936E-03
            1883     3.81969E-03     40.2592E-03    -95.0098E+06    -168.188E+06    -57.8179E+06    -526.576E+03    -163.028E-03     326.936E-03    -163.908E-03     25.1233E-03    -163.177E-03     326.319E-03    -163.815E-03     25.0776E-03
            1884     3.05479E-03     40.2298E-03    -101.280E+06    -190.356E+06    -74.5748E+06     192.664E+03    -163.513E-03     327.524E-03    -164.011E-03     20.3577E-03    -163.635E-03     326.827E-03    -163.961E-03     20.3656E-03
            1885     2.29289E-03     40.2074E-03    -109.246E+06    -207.640E+06    -92.2963E+06    -1.40128E+06    -163.939E-03     327.970E-03    -164.031E-03     15.3455E-03    -164.045E-03     327.219E-03    -164.033E-03     15.3420E-03
            1886     1.52868E-03     40.1899E-03    -116.837E+06    -219.629E+06    -108.898E+06    -3.72901E+06    -163.886E-03     327.908E-03    -164.022E-03     10.5257E-03    -163.986E-03     327.129E-03    -164.079E-03     10.4573E-03
            1887     763.150E-06     40.1798E-03    -119.394E+06    -226.627E+06    -118.117E+06    -3.87770E+06    -163.955E-03     328.060E-03    -164.105E-03     5.31713E-03    -164.042E-03     327.267E-03    -164.194E-03     5.25811E-03
            1888     14.5372E-03     39.6970E-03    -5.15615E+06     90.5980E+06     88.9327E+06    -864.957E+03    -161.242E-03     323.908E-03    -162.666E-03     33.6854E-03    -161.677E-03     324.389E-03    -162.345E-03     31.0137E-03
            1889     13.7716E-03     39.6475E-03    -10.5450E+06     87.9826E+06     83.5490E+06    -470.212E+03    -161.820E-03     324.517E-03    -162.697E-03     43.5553E-03    -162.302E-03     325.032E-03    -162.392E-03     40.8481E-03
            1890     13.0067E-03     39.5939E-03    -14.9720E+06     82.3510E+06     74.4063E+06     139.654E+03    -161.213E-03     323.942E-03    -162.730E-03     47.7296E-03    -161.676E-03     324.429E-03    -162.455E-03     45.4229E-03
            1891     12.2388E-03     39.5325E-03    -19.1762E+06     78.1135E+06     68.7385E+06    -268.938E+03    -160.812E-03     323.637E-03    -162.824E-03     50.2968E-03    -161.271E-03     324.105E-03    -162.566E-03     48.2127E-03
            1892     11.4729E-03     39.4694E-03    -25.0160E+06     58.8108E+06     61.9009E+06     1.11604E+06    -161.041E-03     324.004E-03    -162.963E-03     51.3575E-03    -161.470E-03     324.374E-03    -162.703E-03     49.5918E-03
            1893     10.7068E-03     39.4046E-03    -32.1948E+06     28.6295E+06     50.2845E+06     3.13244E+06    -160.845E-03     323.965E-03    -163.120E-03     51.8742E-03    -161.227E-03     324.189E-03    -162.864E-03     50.4419E-03
            1894     9.93880E-03     39.3414E-03    -38.8778E+06    -2.98871E+06     38.5901E+06     1.58816E+06    -161.532E-03     324.819E-03    -163.286E-03     50.7397E-03    -161.868E-03     324.893E-03    -163.033E-03     49.5087E-03
            1895     9.17294E-03     39.2804E-03    -43.9249E+06    -31.6157E+06     29.6728E+06    -1.13129E+06    -162.743E-03     326.151E-03    -163.407E-03     48.7243E-03    -163.033E-03     326.086E-03    -163.150E-03     47.6453E-03
            1896     8.40932E-03     39.2196E-03    -50.4867E+06    -57.2320E+06     20.6700E+06    -233.388E+03    -162.686E-03     326.181E-03    -163.495E-03     46.6659E-03    -162.941E-03     325.994E-03    -163.235E-03     45.8244E-03
            1897     7.64436E-03     39.1638E-03    -58.8701E+06    -77.3229E+06     10.1005E+06     1.98190E+06    -162.392E-03     325.993E-03    -163.601E-03     44.7177E-03    -162.630E-03     325.719E-03    -163.354E-03     44.1148E-03
            1898     6.87840E-03     39.1118E-03    -64.4249E+06    -95.3330E+06    -963.852E+03     728.043E+03    -162.568E-03     326.293E-03    -163.724E-03     41.5212E-03    -162.781E-03     325.940E-03    -163.497E-03     41.0766E-03
            1899     6.11393E-03     39.0642E-03    -69.8108E+06    -117.873E+06    -13.7401E+06    -1.39806E+06    -162.748E-03     326.599E-03    -163.851E-03     38.0386E-03    -162.924E-03     326.149E-03    -163.648E-03     37.7534E-03
            1900     5.34809E-03     39.0148E-03    -77.7961E+06    -133.007E+06    -27.1544E+06    -2.55487E+06    -162.851E-03     326.830E-03    -163.980E-03     33.7129E-03    -163.020E-03     326.330E-03    -163.810E-03     33.4955E-03
            1901     4.58275E-03     38.9774E-03    -87.3560E+06    -151.186E+06    -42.9589E+06    -2.29344E+06    -163.179E-03     327.283E-03    -164.104E-03     29.1118E-03    -163.342E-03     326.723E-03    -163.973E-03     28.9484E-03
            1902     3.81942E-03     38.9449E-03    -94.7291E+06    -172.261E+06    -55.7831E+06     327.072E+03    -163.772E-03     327.971E-03    -164.199E-03     25.7938E-03    -163.917E-03     327.330E-03    -164.091E-03     25.7941E-03
            1903     3.05576E-03     38.9145E-03    -99.2557E+06    -187.263E+06    -67.3406E+06     2.75267E+06    -163.954E-03     328.196E-03    -164.242E-03     21.1117E-03    -164.079E-03     327.499E-03    -164.163E-03     21.1981E-03
            1904     2.29010E-03     38.8913E-03    -106.721E+06    -202.322E+06    -87.4370E+06     2.45732E+06    -163.804E-03     328.085E-03    -164.281E-03     16.2465E-03    -163.910E-03     327.348E-03    -164.270E-03     16.3530E-03
            1905     1.52673E-03     38.8753E-03    -116.121E+06    -218.643E+06    -108.242E+06     31.7674E+03    -163.906E-03     328.328E-03    -164.422E-03     11.7636E-03    -164.002E-03     327.550E-03    -164.478E-03     11.8357E-03
            1906     763.571E-06     38.8652E-03    -124.318E+06    -232.250E+06    -122.333E+06    -593.841E+03    -164.602E-03     329.046E-03    -164.444E-03     6.35393E-03    -164.698E-03     328.238E-03    -164.539E-03     6.38180E-03
            1907     14.5378E-03     38.3875E-03    -5.16485E+06     91.2087E+06     88.7897E+06     20.3780E+03    -160.903E-03     323.580E-03    -162.676E-03     34.4653E-03    -161.342E-03     324.066E-03    -162.357E-03     31.8151E-03
            1908     13.7711E-03     38.3352E-03    -10.8132E+06     88.4315E+06     83.4445E+06    -591.656E+03    -161.098E-03     323.837E-03    -162.739E-03     43.7699E-03    -161.582E-03     324.354E-03    -162.434E-03     41.0736E-03
            1909     13.0047E-03     38.2827E-03    -15.5392E+06     81.8251E+06     73.8509E+06    -1.36161E+06    -161.445E-03     324.232E-03    -162.787E-03     47.3813E-03    -161.908E-03     324.716E-03    -162.514E-03     45.0561E-03
            1910     12.2398E-03     38.2226E-03    -19.7813E+06     77.7772E+06     68.1613E+06    -1.98763E+06    -161.247E-03     324.111E-03    -162.864E-03     50.7382E-03    -161.709E-03     324.582E-03    -162.607E-03     48.6140E-03
            1911     11.4729E-03     38.1583E-03    -23.9121E+06     52.8659E+06     62.6889E+06     543.636E+03    -160.857E-03     323.868E-03    -163.011E-03     51.6628E-03    -161.279E-03     324.211E-03    -162.740E-03     49.8193E-03
            1912     10.7053E-03     38.0958E-03    -28.6569E+06     27.8274E+06     54.2224E+06     3.62390E+06    -160.981E-03     324.158E-03    -163.177E-03     51.2611E-03    -161.355E-03     324.372E-03    -162.905E-03     49.7548E-03
            1913     9.93903E-03     38.0308E-03    -34.8219E+06     3.87629E+06     43.3695E+06     2.30685E+06    -161.395E-03     324.733E-03    -163.338E-03     50.5299E-03    -161.727E-03     324.829E-03    -163.077E-03     49.3075E-03
            1914     9.17469E-03     37.9649E-03    -42.0145E+06    -31.3359E+06     31.3809E+06     290.536E+03    -161.714E-03     325.226E-03    -163.512E-03     49.4759E-03    -161.997E-03     325.157E-03    -163.249E-03     48.4317E-03
            1915     8.40824E-03     37.9088E-03    -49.8236E+06    -59.1387E+06     19.4239E+06     745.010E+03    -161.964E-03     325.646E-03    -163.682E-03     47.9544E-03    -162.213E-03     325.452E-03    -163.427E-03     47.1257E-03
            1916     7.64082E-03     37.8519E-03    -54.7678E+06    -77.2385E+06     10.0257E+06    -311.766E+03    -162.317E-03     326.166E-03    -163.849E-03     45.6659E-03    -162.535E-03     325.886E-03    -163.607E-03     45.0441E-03
            1917     6.87590E-03     37.7977E-03    -59.8564E+06    -94.2497E+06     1.61886E+06    -107.489E+03    -163.073E-03     327.064E-03    -163.991E-03     42.4674E-03    -163.269E-03     326.707E-03    -163.759E-03     42.0111E-03
            1918     6.11181E-03     37.7484E-03    -69.7265E+06    -116.802E+06    -11.9609E+06     2.35815E+06    -163.361E-03     327.447E-03    -164.086E-03     39.3072E-03    -163.542E-03     327.001E-03    -163.876E-03     39.0537E-03
            1919     5.34804E-03     37.7030E-03    -77.7724E+06    -131.157E+06    -25.8374E+06     1.18935E+06    -162.747E-03     326.963E-03    -164.216E-03     35.2999E-03    -162.921E-03     326.470E-03    -164.042E-03     35.1353E-03
            1920     4.58211E-03     37.6638E-03    -88.9579E+06    -153.204E+06    -43.5711E+06    -540.767E+03    -163.278E-03     327.659E-03    -164.381E-03     30.6164E-03    -163.444E-03     327.093E-03    -164.248E-03     30.5010E-03
            1921     3.81703E-03     37.6278E-03    -95.1556E+06    -172.791E+06    -57.7980E+06    -898.293E+03    -164.238E-03     328.703E-03    -164.465E-03     25.8694E-03    -164.382E-03     328.063E-03    -164.365E-03     25.8150E-03
            1922     3.05373E-03     37.5986E-03    -101.773E+06    -189.823E+06    -72.7571E+06    -919.771E+03    -164.215E-03     328.691E-03    -164.475E-03     20.8840E-03    -164.343E-03     327.995E-03    -164.416E-03     20.8619E-03
            1923     2.29101E-03     37.5768E-03    -108.541E+06    -203.159E+06    -87.9119E+06     1.04094E+06    -164.314E-03     328.793E-03    -164.479E-03     15.3926E-03    -164.428E-03     328.056E-03    -164.466E-03     15.4564E-03
            1924     1.52582E-03     37.5588E-03    -110.447E+06    -214.678E+06    -99.3090E+06     2.83703E+06    -164.549E-03     328.974E-03    -164.425E-03     9.53315E-03    -164.635E-03     328.194E-03    -164.450E-03     9.63627E-03
            1925     762.574E-06     37.5464E-03    -120.026E+06    -231.017E+06    -115.890E+06     2.03644E+06    -164.469E-03     328.678E-03    -164.209E-03     4.78931E-03    -164.554E-03     327.860E-03    -164.279E-03     4.82732E-03
            1926     14.5369E-03     37.0754E-03    -4.30509E+06     91.2934E+06     89.8280E+06     350.000E+03    -160.699E-03     323.407E-03    -162.707E-03     34.3430E-03    -161.134E-03     323.890E-03    -162.384E-03     31.7002E-03
            1927     13.7706E-03     37.0266E-03    -9.18710E+06     89.7491E+06     84.5004E+06     189.758E+03    -160.671E-03     323.458E-03    -162.787E-03     44.0958E-03    -161.151E-03     323.979E-03    -162.481E-03     41.4202E-03
            1928     13.0042E-03     36.9704E-03    -16.1445E+06     83.1590E+06     74.3803E+06    -701.797E+03    -161.023E-03     323.887E-03    -162.864E-03     47.9348E-03    -161.494E-03     324.380E-03    -162.589E-03     45.6176E-03
            1929     12.2379E-03     36.9110E-03    -23.3147E+06     76.0272E+06     66.9709E+06    -338.114E+03    -161.061E-03     324.026E-03    -162.965E-03     51.3514E-03    -161.539E-03     324.497E-03    -162.707E-03     49.2413E-03
            1930     11.4715E-03     36.8493E-03    -29.7754E+06     50.1916E+06     58.1761E+06    -390.306E+03    -161.105E-03     324.211E-03    -163.106E-03     53.2803E-03    -161.548E-03     324.557E-03    -162.845E-03     51.4456E-03
            1931     10.7060E-03     36.7839E-03    -36.1288E+06     25.0036E+06     48.6262E+06     294.274E+03    -161.574E-03     324.823E-03    -163.249E-03     53.6239E-03    -161.975E-03     325.043E-03    -162.990E-03     52.0948E-03
            1932     9.94078E-03     36.7189E-03    -35.4042E+06       7.486E+06     44.5662E+06     2.63421E+06    -161.093E-03     324.519E-03    -163.426E-03     52.4856E-03    -161.438E-03     324.635E-03    -163.163E-03     51.2606E-03
            1933     9.17088E-03     36.6574E-03    -40.9512E+06    -28.4231E+06     31.9316E+06     1.64377E+06    -160.734E-03     324.395E-03    -163.661E-03     51.0193E-03    -161.016E-03     324.339E-03    -163.401E-03     50.0335E-03
            1934     8.40355E-03     36.5951E-03    -51.5697E+06    -59.5099E+06     17.4651E+06    -1.48590E+06    -161.978E-03     325.864E-03    -163.886E-03     48.2609E-03    -162.233E-03     325.675E-03    -163.638E-03     47.3869E-03
            1935     7.64051E-03     36.5386E-03    -58.0462E+06    -78.2885E+06     8.14862E+06    -2.10591E+06    -162.832E-03     326.880E-03    -164.048E-03     44.6416E-03    -163.067E-03     326.607E-03    -163.809E-03     43.9088E-03
            1936     6.87485E-03     36.4842E-03    -66.9500E+06    -98.1119E+06    -3.57779E+06    -85.0031E+03    -162.791E-03     326.981E-03    -164.190E-03     42.0870E-03    -163.009E-03     326.623E-03    -163.968E-03     41.6166E-03
            1937     6.10971E-03     36.4325E-03    -71.0813E+06    -115.564E+06    -11.5735E+06     245.791E+03    -162.863E-03     327.234E-03    -164.370E-03     38.5711E-03    -163.056E-03     326.797E-03    -164.158E-03     38.2187E-03
            1938     5.34383E-03     36.3900E-03    -78.4192E+06    -130.356E+06    -23.9640E+06     1.79596E+06    -163.236E-03     327.775E-03    -164.540E-03     34.9514E-03    -163.418E-03     327.286E-03    -164.357E-03     34.7448E-03
            1939     4.58007E-03     36.3476E-03    -85.4229E+06    -148.822E+06    -37.7230E+06     2.79619E+06    -163.946E-03     328.615E-03    -164.669E-03     31.5625E-03    -164.108E-03     328.055E-03    -164.518E-03     31.5468E-03
            1940     3.81815E-03     36.3105E-03    -93.9889E+06    -173.149E+06    -56.4762E+06    -679.100E+03    -164.418E-03     329.135E-03    -164.717E-03     26.1459E-03    -164.557E-03     328.490E-03    -164.612E-03     26.0793E-03
            1941     3.05374E-03     36.2836E-03    -102.214E+06    -191.564E+06    -75.4619E+06    -1.27955E+06    -164.651E-03     329.345E-03    -164.694E-03     20.9248E-03    -164.774E-03     328.645E-03    -164.646E-03     20.8803E-03
            1942     2.28970E-03     36.2580E-03    -108.813E+06    -205.167E+06    -90.1297E+06    -1.28903E+06    -164.956E-03     329.547E-03    -164.590E-03     16.4199E-03    -165.063E-03     328.802E-03    -164.586E-03     16.4506E-03
            1943     1.52972E-03     36.2419E-03    -113.247E+06    -217.029E+06    -100.512E+06     169.188E+03    -164.809E-03     329.196E-03    -164.387E-03     11.2993E-03    -164.903E-03     328.409E-03    -164.410E-03     11.3452E-03
            1944     765.826E-06     36.2327E-03    -114.649E+06    -225.411E+06    -110.597E+06     2.04107E+06    -164.136E-03     328.475E-03    -164.339E-03     6.42816E-03    -164.209E-03     327.668E-03    -164.399E-03     6.49909E-03
            1945     14.5367E-03     35.7658E-03    -4.92764E+06     90.3947E+06     89.4618E+06     97.9598E+03    -160.245E-03     322.976E-03    -162.731E-03     33.8974E-03    -160.680E-03     323.455E-03    -162.408E-03     31.2517E-03
            1946     13.7698E-03     35.7159E-03    -10.0693E+06     88.9619E+06     84.7302E+06     569.678E+03    -160.254E-03     323.094E-03    -162.839E-03     44.0558E-03    -160.737E-03     323.610E-03    -162.530E-03     41.3990E-03
            1947     13.0031E-03     35.6603E-03    -15.3387E+06     84.0455E+06     75.2065E+06     1.07494E+06    -160.212E-03     323.166E-03    -162.954E-03     48.4050E-03    -160.684E-03     323.664E-03    -162.678E-03     46.0997E-03
            1948     12.2358E-03     35.6008E-03    -21.4416E+06     76.1042E+06     66.7515E+06     1.57111E+06    -160.552E-03     323.649E-03    -163.097E-03     51.3817E-03    -161.021E-03     324.118E-03    -162.842E-03     49.2948E-03
            1949     11.4690E-03     35.5380E-03    -27.7965E+06     51.3079E+06     57.8016E+06     1.30341E+06    -161.148E-03     324.409E-03    -163.261E-03     53.6458E-03    -161.580E-03     324.756E-03    -163.006E-03     51.8655E-03
            1950     10.7023E-03     35.4719E-03    -32.6429E+06     23.9971E+06     49.0263E+06    -1.62184E+06    -161.283E-03     324.715E-03    -163.432E-03     54.4530E-03    -161.667E-03     324.927E-03    -163.174E-03     52.8941E-03
            1951     9.93507E-03     35.4078E-03    -35.1900E+06     3.01129E+06     43.2910E+06    -1.97364E+06    -161.459E-03     325.082E-03    -163.623E-03     52.6414E-03    -161.800E-03     325.183E-03    -163.360E-03     51.2703E-03
            1952     9.17086E-03     35.3477E-03    -39.7314E+06    -23.6954E+06     33.5655E+06     1.01988E+06    -161.900E-03     325.708E-03    -163.808E-03     50.5511E-03    -162.188E-03     325.674E-03    -163.549E-03     49.4951E-03
            1953     8.40569E-03     35.2817E-03    -47.6535E+06    -57.1735E+06     20.1969E+06    -815.252E+03    -162.038E-03     326.035E-03    -163.998E-03     48.2565E-03    -162.280E-03     325.847E-03    -163.745E-03     47.3991E-03
            1954     7.63885E-03     35.2240E-03    -55.4628E+06    -81.6682E+06     10.3290E+06     89.0350E+03    -162.527E-03     326.720E-03    -164.193E-03     45.3148E-03    -162.748E-03     326.425E-03    -163.943E-03     44.5923E-03
            1955     6.87460E-03     35.1707E-03    -62.9840E+06    -96.8267E+06    -491.479E+03     1.45713E+06    -162.757E-03     327.124E-03    -164.367E-03     42.5147E-03    -162.965E-03     326.766E-03    -164.138E-03     42.0007E-03
            1956     6.10868E-03     35.1196E-03    -70.5091E+06    -118.516E+06    -13.3230E+06    -2.50835E+06    -162.901E-03     327.459E-03    -164.558E-03     38.8869E-03    -163.086E-03     327.011E-03    -164.350E-03     38.4579E-03
            1957     5.34459E-03     35.0740E-03    -75.9865E+06    -131.461E+06    -22.7751E+06    -1.50345E+06    -163.833E-03     328.550E-03    -164.718E-03     34.7730E-03    -164.004E-03     328.051E-03    -164.531E-03     34.5076E-03
            1958     4.58054E-03     35.0309E-03    -81.2647E+06    -145.621E+06    -34.8773E+06     1.08627E+06    -163.952E-03     328.781E-03    -164.829E-03     30.6707E-03    -164.102E-03     328.227E-03    -164.675E-03     30.5948E-03
            1959     3.81452E-03     34.9941E-03    -93.0123E+06    -173.491E+06    -54.2809E+06     166.019E+03    -163.956E-03     328.922E-03    -164.966E-03     26.5251E-03    -164.093E-03     328.270E-03    -164.851E-03     26.4937E-03
            1960     3.05254E-03     34.9647E-03    -101.240E+06    -190.857E+06    -69.7502E+06     1.34495E+06    -164.617E-03     329.699E-03    -165.082E-03     22.1487E-03    -164.743E-03     328.991E-03    -165.007E-03     22.1748E-03
            1961     2.29026E-03     34.9416E-03    -105.309E+06    -201.622E+06    -86.4113E+06     2.98587E+06    -164.540E-03     329.722E-03    -165.183E-03     17.7180E-03    -164.638E-03     328.982E-03    -165.170E-03     17.8045E-03
            1962     1.52344E-03     34.9243E-03    -113.281E+06    -217.487E+06    -105.753E+06    -189.945E+03    -164.623E-03     330.059E-03    -165.436E-03     12.9396E-03    -164.708E-03     329.277E-03    -165.486E-03     12.9831E-03
            1963     760.755E-06     34.9159E-03    -115.914E+06    -225.143E+06    -114.176E+06    -1.68536E+06    -165.356E-03     331.256E-03    -165.899E-03     7.73177E-03    -165.431E-03     330.457E-03    -165.976E-03     7.78568E-03
            1964     14.5363E-03     34.4550E-03    -4.86648E+06     90.6899E+06     89.8583E+06     431.466E+03    -159.670E-03     322.428E-03    -162.758E-03     34.3689E-03    -160.105E-03     322.908E-03    -162.433E-03     31.7630E-03
            1965     13.7696E-03     34.4071E-03    -10.6553E+06     87.6238E+06     83.6851E+06     274.098E+03    -159.725E-03     322.620E-03    -162.895E-03     44.2105E-03    -160.208E-03     323.133E-03    -162.588E-03     41.5556E-03
            1966     13.0015E-03     34.3510E-03    -14.8595E+06     81.7311E+06     74.7973E+06     198.340E+03    -159.946E-03     322.986E-03    -163.040E-03     48.5303E-03    -160.412E-03     323.473E-03    -162.763E-03     46.2077E-03
            1967     12.2345E-03     34.2910E-03    -18.8823E+06     76.7872E+06     68.6727E+06     322.968E+03    -160.539E-03     323.741E-03    -163.201E-03     51.1594E-03    -161.001E-03     324.208E-03    -162.942E-03     49.0376E-03
            1968     11.4680E-03     34.2264E-03    -23.2319E+06     55.0447E+06     61.6104E+06    -270.837E+03    -160.825E-03     324.209E-03    -163.384E-03     52.6753E-03    -161.247E-03     324.565E-03    -163.122E-03     50.8304E-03
            1969     10.7016E-03     34.1616E-03    -26.5361E+06     27.6694E+06     53.6905E+06    -1.63782E+06    -161.008E-03     324.594E-03    -163.586E-03     53.0956E-03    -161.376E-03     324.810E-03    -163.319E-03     51.4827E-03
            1970     9.93527E-03     34.0967E-03    -37.0234E+06    -2.28718E+06     40.0916E+06    -1.87158E+06    -161.793E-03     325.560E-03    -163.768E-03     52.2233E-03    -162.132E-03     325.644E-03    -163.510E-03     50.8214E-03
            1971     9.16960E-03     34.0310E-03    -45.6961E+06    -29.2372E+06     29.6052E+06     741.559E+03    -162.287E-03     326.225E-03    -163.938E-03     51.2686E-03    -162.596E-03     326.182E-03    -163.681E-03     50.1554E-03
            1972     8.40391E-03     33.9718E-03    -49.6349E+06    -54.1925E+06     20.7216E+06     2.18232E+06    -161.955E-03     326.088E-03    -164.132E-03     49.7674E-03    -162.214E-03     325.918E-03    -163.878E-03     48.9480E-03
            1973     7.63763E-03     33.9110E-03    -54.6056E+06    -78.9587E+06     11.7081E+06     626.298E+03    -162.009E-03     326.388E-03    -164.378E-03     47.1465E-03    -162.230E-03     326.100E-03    -164.126E-03     46.5063E-03
            1974     6.87188E-03     33.8547E-03    -60.6928E+06    -93.6882E+06     3.10006E+06     188.300E+03    -162.893E-03     327.499E-03    -164.606E-03     43.5307E-03    -163.099E-03     327.148E-03    -164.366E-03     42.9967E-03
            1975     6.10765E-03     33.8068E-03    -70.4420E+06    -115.486E+06    -12.3695E+06     634.594E+03    -163.776E-03     328.529E-03    -164.753E-03     40.1780E-03    -163.967E-03     328.095E-03    -164.545E-03     39.8069E-03
            1976     5.34314E-03     33.7550E-03    -78.6233E+06    -134.946E+06    -26.5352E+06    -461.177E+03    -164.015E-03     328.877E-03    -164.862E-03     36.2792E-03    -164.189E-03     328.370E-03    -164.685E-03     36.0461E-03
            1977     4.58003E-03     33.7156E-03    -89.3735E+06    -151.020E+06    -42.7210E+06    -406.586E+03    -164.125E-03     329.087E-03    -164.963E-03     31.6089E-03    -164.299E-03     328.532E-03    -164.828E-03     31.4613E-03
            1978     3.81661E-03     33.6794E-03    -92.1477E+06    -168.327E+06    -54.0191E+06     716.248E+03    -164.197E-03     329.297E-03    -165.099E-03     26.4491E-03    -164.339E-03     328.670E-03    -164.992E-03     26.3879E-03
            1979     3.05045E-03     33.6460E-03    -98.3860E+06    -191.332E+06    -70.3394E+06    -2.37201E+06    -164.156E-03     329.445E-03    -165.289E-03     20.7270E-03    -164.269E-03     328.733E-03    -165.220E-03     20.6330E-03
            1980     2.28610E-03     33.6241E-03    -107.763E+06    -205.449E+06    -87.6298E+06    -2.34473E+06    -164.589E-03     330.113E-03    -165.524E-03     15.4669E-03    -164.695E-03     329.362E-03    -165.508E-03     15.3805E-03
            1981     1.52494E-03     33.6067E-03    -109.566E+06    -212.637E+06    -100.384E+06     672.366E+03    -165.230E-03     330.980E-03    -165.750E-03     10.1379E-03    -165.312E-03     330.210E-03    -165.785E-03     10.1408E-03
            1982     762.020E-06     33.5921E-03    -113.208E+06    -227.525E+06    -112.423E+06    -745.277E+03    -165.831E-03     331.707E-03    -165.877E-03     5.01969E-03    -165.891E-03     330.891E-03    -165.945E-03     5.03343E-03
            1983     14.5358E-03     33.1472E-03    -4.45461E+06     90.1741E+06     89.5378E+06     47.8840E+03    -159.176E-03     321.964E-03    -162.788E-03     34.2124E-03    -159.607E-03     322.439E-03    -162.464E-03     31.6205E-03
            1984     13.7676E-03     33.0970E-03    -8.55740E+06     88.0069E+06     84.2823E+06     247.826E+03    -159.461E-03     322.409E-03    -162.948E-03     44.0405E-03    -159.935E-03     322.921E-03    -162.642E-03     41.3718E-03
            1985     13.0010E-03     33.0427E-03    -14.7199E+06     81.1066E+06     74.7024E+06     535.466E+03    -159.961E-03     323.065E-03    -163.104E-03     48.5672E-03    -160.426E-03     323.549E-03    -162.827E-03     46.2478E-03
            1986     12.2342E-03     32.9788E-03    -21.0751E+06     75.1274E+06     68.3887E+06     616.449E+03    -160.289E-03     323.571E-03    -163.282E-03     52.0167E-03    -160.760E-03     324.035E-03    -163.018E-03     49.9096E-03
            1987     11.4676E-03     32.9168E-03    -26.2962E+06     59.6424E+06     61.3166E+06    -388.991E+03    -160.738E-03     324.212E-03    -163.474E-03     53.5411E-03    -161.185E-03     324.600E-03    -163.216E-03     51.6694E-03
            1988     10.7000E-03     32.8504E-03    -35.9284E+06     28.4883E+06     47.8767E+06    -553.950E+03    -161.191E-03     324.857E-03    -163.665E-03     53.9599E-03    -161.600E-03     325.100E-03    -163.415E-03     52.3674E-03
            1989     9.93422E-03     32.7837E-03    -42.4850E+06    -3.49246E+06     37.3190E+06         719.273    -161.340E-03     325.219E-03    -163.879E-03     53.3559E-03    -161.700E-03     325.308E-03    -163.626E-03     52.0122E-03
            1990     9.16755E-03     32.7201E-03    -47.7375E+06    -32.8541E+06     28.5038E+06    -248.931E+03    -161.522E-03     325.641E-03    -164.119E-03     51.9924E-03    -161.835E-03     325.586E-03    -163.860E-03     50.8570E-03
            1991     8.40133E-03     32.6576E-03    -52.6098E+06    -53.8397E+06     20.6210E+06     1.34734E+06    -162.188E-03     326.542E-03    -164.354E-03     50.2242E-03    -162.467E-03     326.383E-03    -164.096E-03     49.3263E-03
            1992     7.63642E-03     32.5985E-03    -57.0095E+06    -73.9536E+06     10.9399E+06     154.956E+03    -162.561E-03     327.129E-03    -164.569E-03     47.1655E-03    -162.802E-03     326.874E-03    -164.324E-03     46.4598E-03
            1993     6.87002E-03     32.5417E-03    -65.6625E+06    -95.0058E+06    -1.17310E+06    -3.07801E+06    -163.148E-03     327.916E-03    -164.768E-03     43.6644E-03    -163.371E-03     327.572E-03    -164.541E-03     43.0959E-03
            1994     6.10607E-03     32.4868E-03    -72.9939E+06    -114.163E+06    -12.1785E+06    -1.79798E+06    -163.936E-03     328.859E-03    -164.923E-03     39.7715E-03    -164.144E-03     328.438E-03    -164.713E-03     39.3033E-03
            1995     5.34290E-03     32.4416E-03    -84.0609E+06    -138.082E+06    -30.5686E+06     82.0228E+03    -163.975E-03     329.009E-03    -165.034E-03     35.7721E-03    -164.169E-03     328.503E-03    -164.865E-03     35.4524E-03
            1996     4.57681E-03     32.3978E-03    -88.3465E+06    -150.234E+06    -42.3084E+06    -897.382E+03    -164.498E-03     329.637E-03    -165.139E-03     31.8262E-03    -164.669E-03     329.084E-03    -165.004E-03     31.6572E-03
            1997     3.81476E-03     32.3592E-03    -93.3190E+06    -168.002E+06    -54.7648E+06    -1.31265E+06    -164.941E-03     330.133E-03    -165.192E-03     26.5286E-03    -165.089E-03     329.513E-03    -165.087E-03     26.3839E-03
            1998     3.05356E-03     32.3321E-03    -104.276E+06    -193.417E+06    -75.4174E+06    -335.409E+03    -164.814E-03     330.027E-03    -165.213E-03     21.1760E-03    -164.946E-03     329.322E-03    -165.159E-03     21.1079E-03
            1999     2.28981E-03     32.3046E-03    -109.688E+06    -206.996E+06    -92.4350E+06    -2.06948E+06    -165.328E-03     330.503E-03    -165.175E-03     15.6584E-03    -165.433E-03     329.753E-03    -165.178E-03     15.6172E-03
            2000     1.52648E-03     32.2863E-03    -115.707E+06    -216.206E+06    -105.568E+06    -1.86048E+06    -165.634E-03     330.556E-03    -164.922E-03     10.1267E-03    -165.733E-03     329.783E-03    -164.969E-03     10.0862E-03
            2001     764.303E-06     32.2747E-03    -115.542E+06    -226.606E+06    -111.659E+06     1.41204E+06    -165.013E-03     329.450E-03    -164.437E-03     5.43702E-03    -165.087E-03     328.639E-03    -164.499E-03     5.46535E-03
            2002     14.5357E-03     31.8388E-03    -4.92696E+06     89.8133E+06     88.6360E+06    -410.807E+03    -159.131E-03     321.928E-03    -162.797E-03     33.6206E-03    -159.561E-03     322.402E-03    -162.477E-03     31.0217E-03
            2003     13.7682E-03     31.7892E-03    -10.1034E+06     87.2742E+06     83.8638E+06     52.1646E+03    -159.339E-03     322.305E-03    -162.966E-03     43.9049E-03    -159.817E-03     322.814E-03    -162.659E-03     41.2473E-03
            2004     13.0006E-03     31.7312E-03    -15.1519E+06     82.1143E+06     75.2468E+06     902.291E+03    -159.674E-03     322.810E-03    -163.136E-03     48.1841E-03    -160.145E-03     323.300E-03    -162.857E-03     45.8458E-03
            2005     12.2325E-03     31.6716E-03    -20.2035E+06     76.2362E+06     68.1922E+06     761.586E+03    -159.873E-03     323.203E-03    -163.331E-03     51.5056E-03    -160.341E-03     323.673E-03    -163.071E-03     49.3816E-03
            2006     11.4646E-03     31.6040E-03    -26.2076E+06     56.7548E+06     60.5675E+06     1.60594E+06    -160.439E-03     323.993E-03    -163.554E-03     53.3093E-03    -160.882E-03     324.368E-03    -163.295E-03     51.4453E-03
            2007     10.6999E-03     31.5393E-03    -31.4392E+06     29.3006E+06     51.2417E+06     1.62409E+06    -160.845E-03     324.628E-03    -163.783E-03     54.0631E-03    -161.241E-03     324.868E-03    -163.524E-03     52.4543E-03
            2008     9.93251E-03     31.4723E-03    -38.5604E+06    -2.29150E+06     40.1334E+06    -1.02852E+06    -161.040E-03     325.070E-03    -164.030E-03     53.8777E-03    -161.389E-03     325.158E-03    -163.770E-03     52.4984E-03
            2009     9.16594E-03     31.4084E-03    -44.9183E+06    -31.6739E+06     30.3933E+06    -1.15682E+06    -161.769E-03     326.051E-03    -164.282E-03     52.1721E-03    -162.075E-03     325.996E-03    -164.019E-03     50.9994E-03
            2010     8.39986E-03     31.3442E-03    -51.0721E+06    -55.0217E+06     21.1917E+06    -602.436E+03    -162.495E-03     326.999E-03    -164.504E-03     49.6909E-03    -162.768E-03     326.834E-03    -164.244E-03     48.7107E-03
            2011     7.63455E-03     31.2827E-03    -57.4636E+06    -73.9942E+06     11.3005E+06     299.436E+03    -163.181E-03     327.866E-03    -164.685E-03     46.7074E-03    -163.429E-03     327.615E-03    -164.438E-03     45.9221E-03
            2012     6.87155E-03     31.2271E-03    -63.7126E+06    -93.2395E+06    -286.512E+03     677.814E+03    -163.529E-03     328.367E-03    -164.838E-03     44.0145E-03    -163.749E-03     328.030E-03    -164.611E-03     43.4521E-03
            2013     6.10639E-03     31.1703E-03    -72.7698E+06    -119.029E+06    -14.2911E+06    -2.43500E+06    -163.683E-03     328.678E-03    -164.995E-03     40.0225E-03    -163.880E-03     328.236E-03    -164.789E-03     39.5334E-03
            2014     5.34107E-03     31.1255E-03    -80.2001E+06    -134.395E+06    -26.3377E+06    -2.61224E+06    -164.456E-03     329.568E-03    -165.113E-03     35.5962E-03    -164.643E-03     329.070E-03    -164.933E-03     35.2028E-03
            2015     4.57987E-03     31.0792E-03    -88.5581E+06    -148.754E+06    -42.5622E+06    -845.552E+03    -164.532E-03     329.706E-03    -165.174E-03     31.3547E-03    -164.707E-03     329.162E-03    -165.043E-03     31.1400E-03
            2016     3.81484E-03     31.0427E-03    -98.8559E+06    -173.637E+06    -62.0919E+06    -1.96783E+06    -164.546E-03     329.802E-03    -165.256E-03     26.4417E-03    -164.704E-03     329.172E-03    -165.171E-03     26.2646E-03
            2017     3.05013E-03     31.0114E-03    -105.266E+06    -193.283E+06    -75.5134E+06    -57.8627E+03    -165.384E-03     330.668E-03    -165.284E-03     22.2725E-03    -165.520E-03     329.963E-03    -165.228E-03     22.2133E-03
            2018     2.28911E-03     30.9867E-03    -109.415E+06    -204.357E+06    -90.5815E+06     3.19027E+06    -165.514E-03     330.671E-03    -165.157E-03     17.8354E-03    -165.625E-03     329.932E-03    -165.155E-03     17.9207E-03
            2019     1.52708E-03     30.9675E-03    -114.598E+06    -216.772E+06    -107.610E+06     1.43747E+06    -165.160E-03     330.165E-03    -165.006E-03     12.3504E-03    -165.251E-03     329.393E-03    -165.063E-03     12.3865E-03
            2020     763.605E-06     30.9592E-03    -120.530E+06    -227.623E+06    -117.663E+06    -1.26267E+06    -165.048E-03     329.905E-03    -164.858E-03     6.99131E-03    -165.138E-03     329.106E-03    -164.941E-03     6.95793E-03
            2021     14.5356E-03     30.5301E-03    -4.72697E+06     89.8692E+06     88.8416E+06     266.205E+03    -159.422E-03     322.217E-03    -162.794E-03     33.4046E-03    -159.853E-03     322.692E-03    -162.474E-03     30.7960E-03
            2022     13.7682E-03     30.4803E-03    -10.0817E+06     86.9717E+06     83.6595E+06    -87.1023E+03    -159.281E-03     322.237E-03    -162.956E-03     43.8799E-03    -159.761E-03     322.747E-03    -162.649E-03     41.2005E-03
            2023     13.0005E-03     30.4229E-03    -15.0245E+06     82.0112E+06     75.1739E+06    -729.250E+03    -159.471E-03     322.605E-03    -163.133E-03     48.3993E-03    -159.945E-03     323.097E-03    -162.854E-03     46.0119E-03
            2024     12.2338E-03     30.3611E-03    -20.7904E+06     76.8758E+06     68.2958E+06     144.365E+03    -159.890E-03     323.224E-03    -163.334E-03     51.3700E-03    -160.365E-03     323.700E-03    -163.074E-03     49.2003E-03
            2025     11.4672E-03     30.2953E-03    -25.8122E+06     55.7297E+06     60.7157E+06     156.992E+03    -159.964E-03     323.538E-03    -163.574E-03     53.1984E-03    -160.404E-03     323.908E-03    -163.314E-03     51.3140E-03
            2026     10.6975E-03     30.2276E-03    -27.4588E+06     30.3779E+06     54.6857E+06    -896.589E+03    -160.231E-03     324.083E-03    -163.852E-03     53.4567E-03    -160.617E-03     324.320E-03    -163.582E-03     51.7644E-03
            2027     9.93086E-03     30.1621E-03    -37.2439E+06    -726.875E+03     40.9149E+06     1.09727E+06    -161.163E-03     325.272E-03    -164.109E-03     53.2025E-03    -161.511E-03     325.367E-03    -163.849E-03     51.8049E-03
            2028     9.16495E-03     30.0941E-03    -46.4798E+06    -33.8667E+06     27.6974E+06     647.321E+03    -162.186E-03     326.521E-03    -164.335E-03     51.8369E-03    -162.495E-03     326.464E-03    -164.080E-03     50.6476E-03
            2029     8.40069E-03     30.0299E-03    -51.9114E+06    -55.9755E+06     19.7795E+06    -254.019E+03    -162.576E-03     327.119E-03    -164.543E-03     49.4796E-03    -162.853E-03     326.956E-03    -164.288E-03     48.4496E-03
            2030     7.63520E-03     29.9694E-03    -59.8165E+06    -74.5104E+06     10.1214E+06     533.754E+03    -162.877E-03     327.621E-03    -164.744E-03     47.7124E-03    -163.134E-03     327.372E-03    -164.499E-03     46.9523E-03
            2031     6.86959E-03     29.9081E-03    -64.1580E+06    -91.7915E+06     1.46831E+06     1.04425E+06    -163.475E-03     328.409E-03    -164.934E-03     44.9530E-03    -163.703E-03     328.079E-03    -164.701E-03     44.3732E-03
            2032     6.10527E-03     29.8585E-03    -71.4386E+06    -115.194E+06    -12.3501E+06     1.96485E+06    -164.156E-03     329.230E-03    -165.073E-03     41.1907E-03    -164.356E-03     328.803E-03    -164.864E-03     40.7653E-03
            2033     5.34256E-03     29.8038E-03    -82.2326E+06    -136.262E+06    -29.1642E+06    -176.436E+03    -164.439E-03     329.604E-03    -165.164E-03     36.6822E-03    -164.630E-03     329.103E-03    -164.993E-03     36.3252E-03
            2034     4.57784E-03     29.7639E-03    -90.5764E+06    -150.949E+06    -44.5314E+06    -1.02252E+06    -164.268E-03     329.537E-03    -165.269E-03     32.5146E-03    -164.449E-03     328.990E-03    -165.142E-03     32.2530E-03
            2035     3.81440E-03     29.7253E-03    -95.7465E+06    -172.237E+06    -61.0535E+06     771.965E+03    -164.630E-03     330.026E-03    -165.397E-03     28.4081E-03    -164.774E-03     329.396E-03    -165.313E-03     28.3194E-03
            2036     3.05242E-03     29.6927E-03    -100.819E+06    -193.802E+06    -77.1223E+06    -1.01751E+06    -165.138E-03     330.624E-03    -165.486E-03     22.9560E-03    -165.248E-03     329.913E-03    -165.444E-03     22.8990E-03
            2037     2.28808E-03     29.6671E-03    -109.005E+06    -206.611E+06    -91.2587E+06    -2.02912E+06    -165.045E-03     330.630E-03    -165.585E-03     17.5874E-03    -165.152E-03     329.881E-03    -165.583E-03     17.5509E-03
            2038     1.52388E-03     29.6505E-03    -113.545E+06    -215.006E+06    -102.852E+06     559.322E+03    -165.024E-03     330.863E-03    -165.839E-03     12.3336E-03    -165.120E-03     330.091E-03    -165.877E-03     12.3740E-03
            2039     760.948E-06     29.6385E-03    -114.097E+06    -226.464E+06    -112.015E+06     1.21801E+06    -165.751E-03     332.044E-03    -166.293E-03     6.96634E-03    -165.819E-03     331.233E-03    -166.359E-03     7.01774E-03
            2040     14.5360E-03     29.2204E-03    -4.58526E+06     89.7594E+06     89.5545E+06     80.0540E+03    -159.406E-03     322.212E-03    -162.806E-03     33.7273E-03    -159.838E-03     322.687E-03    -162.482E-03     31.1035E-03
            2041     13.7687E-03     29.1720E-03    -8.95285E+06     87.9708E+06     83.9801E+06    -34.6086E+03    -159.393E-03     322.355E-03    -162.961E-03     44.4401E-03    -159.871E-03     322.870E-03    -162.656E-03     41.7558E-03
            2042     13.0008E-03     29.1144E-03    -15.3472E+06     81.7250E+06     74.6250E+06     28.9074E+03    -159.592E-03     322.725E-03    -163.133E-03     49.3418E-03    -160.067E-03     323.219E-03    -162.856E-03     46.9772E-03
            2043     12.2329E-03     29.0506E-03    -21.2624E+06     75.6294E+06     69.5844E+06     281.279E+03    -159.689E-03     323.038E-03    -163.349E-03     52.1376E-03    -160.171E-03     323.511E-03    -163.080E-03     49.9467E-03
            2044     11.4650E-03     28.9860E-03    -28.5290E+06     59.3391E+06     60.8313E+06    -507.576E+03    -159.859E-03     323.450E-03    -163.591E-03     54.1263E-03    -160.322E-03     323.846E-03    -163.332E-03     52.2075E-03
            2045     10.6993E-03     28.9182E-03    -38.9550E+06     27.8316E+06     46.6694E+06    -1.00845E+06    -160.520E-03     324.364E-03    -163.844E-03     54.3660E-03    -160.949E-03     324.618E-03    -163.594E-03     52.6825E-03
            2046     9.93213E-03     28.8501E-03    -43.0249E+06    -1.65160E+06     38.0588E+06     903.446E+03    -161.349E-03     325.447E-03    -164.099E-03     53.8800E-03    -161.722E-03     325.552E-03    -163.844E-03     52.4780E-03
            2047     9.16641E-03     28.7805E-03    -46.1361E+06    -31.3440E+06     28.7191E+06     1.11601E+06    -161.777E-03     326.118E-03    -164.342E-03     52.6653E-03    -162.091E-03     326.074E-03    -164.086E-03     51.4770E-03
            2048     8.39940E-03     28.7168E-03    -52.7667E+06    -56.8436E+06     18.1840E+06     642.239E+03    -162.297E-03     326.875E-03    -164.578E-03     50.6982E-03    -162.576E-03     326.712E-03    -164.328E-03     49.6838E-03
            2049     7.63422E-03     28.6539E-03    -57.0655E+06    -73.7490E+06     10.2620E+06     87.9100E+03    -162.843E-03     327.646E-03    -164.803E-03     48.3840E-03    -163.091E-03     327.399E-03    -164.562E-03     47.5754E-03
            2050     6.86887E-03     28.5954E-03    -64.6441E+06    -96.4004E+06    -1.48539E+06    -567.723E+03    -163.399E-03     328.405E-03    -165.006E-03     45.2040E-03    -163.620E-03     328.059E-03    -164.780E-03     44.5752E-03
            2051     6.10518E-03     28.5373E-03    -73.2025E+06    -117.169E+06    -13.3197E+06     1.51354E+06    -163.937E-03     329.120E-03    -165.183E-03     41.8485E-03    -164.142E-03     328.688E-03    -164.974E-03     41.3921E-03
            2052     5.34101E-03     28.4895E-03    -78.6691E+06    -131.238E+06    -26.4289E+06     2.26310E+06    -163.965E-03     329.310E-03    -165.345E-03     37.6386E-03    -164.150E-03     328.827E-03    -165.173E-03     37.3007E-03
            2053     4.57656E-03     28.4463E-03    -83.5230E+06    -148.453E+06    -40.2407E+06    -1.01008E+06    -164.446E-03     329.960E-03    -165.514E-03     33.2019E-03    -164.602E-03     329.410E-03    -165.379E-03     32.9408E-03
            2054     3.81308E-03     28.4064E-03    -92.4954E+06    -173.443E+06    -55.8551E+06    -589.971E+03    -164.953E-03     330.611E-03    -165.658E-03     28.7871E-03    -165.088E-03     329.964E-03    -165.552E-03     28.6510E-03
            2055     3.04918E-03     28.3736E-03    -102.701E+06    -193.390E+06    -74.8756E+06     1.71640E+06    -165.021E-03     330.801E-03    -165.780E-03     23.5186E-03    -165.146E-03     330.092E-03    -165.725E-03     23.4883E-03
            2056     2.28698E-03     28.3491E-03    -108.319E+06    -206.126E+06    -92.0942E+06    -1.30217E+06    -165.317E-03     331.238E-03    -165.921E-03     17.4539E-03    -165.421E-03     330.493E-03    -165.925E-03     17.3895E-03
            2057     1.52472E-03     28.3306E-03    -114.202E+06    -218.384E+06    -107.575E+06    -3.82726E+06    -165.777E-03     331.821E-03    -166.044E-03     11.6538E-03    -165.863E-03     331.039E-03    -166.100E-03     11.6023E-03
            2058     762.310E-06     28.3174E-03    -116.485E+06    -228.946E+06    -113.735E+06    -2.15921E+06    -165.694E-03     332.221E-03    -166.527E-03     6.40785E-03    -165.767E-03     331.401E-03    -166.595E-03     6.44005E-03
            2059     14.5350E-03     27.9114E-03    -4.29640E+06     89.6287E+06     89.3851E+06    -164.371E+03    -159.004E-03     321.831E-03    -162.826E-03     33.7889E-03    -159.436E-03     322.305E-03    -162.503E-03     31.1621E-03
            2060     13.7670E-03     27.8637E-03    -10.7249E+06     87.0956E+06     83.7020E+06     646.028E+03    -159.413E-03     322.409E-03    -162.996E-03     44.7958E-03    -159.899E-03     322.924E-03    -162.689E-03     42.1247E-03
            2061     13.0005E-03     27.8039E-03    -16.1654E+06     81.4799E+06     74.6489E+06     714.912E+03    -159.486E-03     322.659E-03    -163.172E-03     50.0549E-03    -159.968E-03     323.156E-03    -162.894E-03     47.6931E-03
            2062     12.2333E-03     27.7429E-03    -20.6078E+06     75.9838E+06     69.3889E+06     84.7773E+03    -159.506E-03     322.903E-03    -163.398E-03     53.1871E-03    -159.988E-03     323.381E-03    -163.131E-03     50.9840E-03
            2063     11.4656E-03     27.6758E-03    -26.3531E+06     59.2644E+06     63.0241E+06     1.60522E+06    -160.119E-03     323.772E-03    -163.653E-03     55.1422E-03    -160.578E-03     324.165E-03    -163.386E-03     53.2330E-03
            2064     10.6972E-03     27.6072E-03    -33.5644E+06     30.0242E+06     50.0695E+06     2.16439E+06    -161.016E-03     324.901E-03    -163.885E-03     55.8694E-03    -161.429E-03     325.156E-03    -163.629E-03     54.2312E-03
            2065     9.93191E-03     27.5372E-03    -39.0502E+06    -3.79662E+06     38.4253E+06    -1.19699E+06    -161.444E-03     325.562E-03    -164.119E-03     55.3475E-03    -161.799E-03     325.654E-03    -163.864E-03     53.8926E-03
            2066     9.16479E-03     27.4695E-03    -43.0394E+06    -30.2615E+06     31.1531E+06    -1.24770E+06    -161.561E-03     325.941E-03    -164.380E-03     53.6566E-03    -161.868E-03     325.898E-03    -164.118E-03     52.4092E-03
            2067     8.39915E-03     27.4031E-03    -50.1763E+06    -53.5093E+06     20.1336E+06    -243.952E+03    -162.217E-03     326.848E-03    -164.631E-03     51.5783E-03    -162.492E-03     326.697E-03    -164.380E-03     50.5501E-03
            2068     7.63389E-03     27.3388E-03    -59.8584E+06    -77.1694E+06     7.46087E+06    -694.484E+03    -162.981E-03     327.835E-03    -164.854E-03     48.8762E-03    -163.237E-03     327.583E-03    -164.618E-03     48.0107E-03
            2069     6.86989E-03     27.2794E-03    -65.5819E+06    -98.5885E+06    -3.21280E+06     1.39633E+06    -163.220E-03     328.290E-03    -165.070E-03     46.4211E-03    -163.441E-03     327.938E-03    -164.848E-03     45.8093E-03
            2070     6.10430E-03     27.2221E-03    -68.1938E+06    -117.493E+06    -12.8989E+06     134.286E+03    -163.375E-03     328.685E-03    -165.310E-03     42.7047E-03    -163.556E-03     328.244E-03    -165.105E-03     42.2369E-03
            2071     5.33880E-03     27.1731E-03    -72.8278E+06    -127.505E+06    -21.1813E+06    -1.40011E+06    -164.181E-03     329.714E-03    -165.533E-03     37.7039E-03    -164.351E-03     329.234E-03    -165.349E-03     37.2890E-03
            2072     4.57588E-03     27.1264E-03    -81.6407E+06    -149.080E+06    -36.6878E+06     1.42474E+06    -164.985E-03     330.656E-03    -165.670E-03     32.8826E-03    -165.137E-03     330.095E-03    -165.519E-03     32.6049E-03
            2073     3.81319E-03     27.0885E-03    -91.6094E+06    -175.742E+06    -55.0836E+06     1.80419E+06    -164.998E-03     330.774E-03    -165.777E-03     27.7656E-03    -165.127E-03     330.114E-03    -165.664E-03     27.5862E-03
            2074     3.04998E-03     27.0548E-03    -100.608E+06    -190.884E+06    -71.8851E+06     967.663E+03    -164.975E-03     330.903E-03    -165.928E-03     22.7682E-03    -165.097E-03     330.199E-03    -165.865E-03     22.6725E-03
            2075     2.28655E-03     27.0282E-03    -108.679E+06    -204.582E+06    -90.8097E+06     421.336E+03    -165.726E-03     331.763E-03    -166.036E-03     17.5570E-03    -165.837E-03     331.025E-03    -166.036E-03     17.5045E-03
            2076     1.52450E-03     27.0095E-03    -113.475E+06    -217.799E+06    -106.706E+06    -209.293E+03    -166.356E-03     332.291E-03    -165.935E-03     12.0224E-03    -166.444E-03     331.513E-03    -165.988E-03     11.9825E-03
            2077     763.146E-06     26.9965E-03    -116.750E+06    -232.648E+06    -118.144E+06    -696.754E+03    -165.787E-03     331.645E-03    -165.859E-03     6.50449E-03    -165.851E-03     330.817E-03    -165.943E-03     6.50601E-03
            2078     14.5350E-03     26.6043E-03    -4.88161E+06     88.8236E+06     89.1432E+06     580.620E+03    -158.834E-03     321.675E-03    -162.841E-03     33.9007E-03    -159.267E-03     322.147E-03    -162.517E-03     31.2874E-03
            2079     13.7679E-03     26.5533E-03    -10.4162E+06     87.3091E+06     84.9107E+06     602.778E+03    -158.945E-03     321.979E-03    -163.034E-03     44.7946E-03    -159.434E-03     322.495E-03    -162.721E-03     42.0936E-03
            2080     12.9993E-03     26.4965E-03    -15.1346E+06     82.4698E+06     76.2728E+06     243.236E+03    -159.040E-03     322.279E-03    -163.239E-03     50.2375E-03    -159.523E-03     322.780E-03    -162.955E-03     47.8441E-03
            2081     12.2305E-03     26.4329E-03    -20.5378E+06     75.7134E+06     68.6222E+06    -399.333E+03    -159.706E-03     323.174E-03    -163.467E-03     53.8900E-03    -160.189E-03     323.653E-03    -163.204E-03     51.6772E-03
            2082     11.4636E-03     26.3657E-03    -24.9804E+06     56.5560E+06     61.6267E+06    -713.458E+03    -160.594E-03     324.299E-03    -163.705E-03     55.7362E-03    -161.044E-03     324.683E-03    -163.442E-03     53.7650E-03
            2083     10.6982E-03     26.2956E-03    -26.5434E+06     31.8199E+06     54.8209E+06    -60.5102E+03    -160.998E-03     324.940E-03    -163.943E-03     56.2486E-03    -161.390E-03     325.192E-03    -163.676E-03     54.5352E-03
            2084     9.93079E-03     26.2248E-03    -34.5905E+06    -539.323E+03     41.7114E+06     855.052E+03    -161.263E-03     325.447E-03    -164.185E-03     55.6419E-03    -161.610E-03     325.549E-03    -163.925E-03     54.1583E-03
            2085     9.16528E-03     26.1576E-03    -45.2743E+06    -33.7444E+06     28.2682E+06     315.104E+03    -161.865E-03     326.301E-03    -164.436E-03     54.5672E-03    -162.178E-03     326.252E-03    -164.180E-03     53.3092E-03
            2086     8.39907E-03     26.0888E-03    -50.0087E+06    -52.6208E+06     20.7143E+06     54.8664E+03    -162.391E-03     327.073E-03    -164.682E-03     52.6814E-03    -162.670E-03     326.928E-03    -164.429E-03     51.6450E-03
            2087     7.63354E-03     26.0247E-03    -57.3577E+06    -77.9511E+06     7.63707E+06     86.6429E+03    -162.792E-03     327.704E-03    -164.912E-03     49.7675E-03    -163.035E-03     327.445E-03    -164.677E-03     48.9248E-03
            2088     6.86751E-03     25.9634E-03    -62.8033E+06    -98.3287E+06    -1.71482E+06    -1.22244E+06    -163.285E-03     328.434E-03    -165.148E-03     46.4550E-03    -163.498E-03     328.079E-03    -164.923E-03     45.7659E-03
            2089     6.10283E-03     25.9075E-03    -69.3179E+06    -112.581E+06    -11.6943E+06     861.966E+03    -163.803E-03     329.164E-03    -165.360E-03     42.1405E-03    -164.001E-03     328.750E-03    -165.155E-03     41.6220E-03
            2090     5.33996E-03     25.8536E-03    -78.7200E+06    -132.468E+06    -27.7210E+06     460.468E+03    -164.316E-03     329.847E-03    -165.531E-03     37.5932E-03    -164.500E-03     329.361E-03    -165.363E-03     37.1876E-03
            2091     4.57643E-03     25.8086E-03    -87.5774E+06    -152.845E+06    -40.6749E+06    -295.324E+03    -164.645E-03     330.345E-03    -165.699E-03     33.2121E-03    -164.817E-03     329.780E-03    -165.554E-03     32.8930E-03
            2092     3.81280E-03     25.7684E-03    -95.4978E+06    -173.508E+06    -57.0378E+06     3.40467E+06    -165.041E-03     330.877E-03    -165.836E-03     28.6123E-03    -165.191E-03     330.237E-03    -165.731E-03     28.4591E-03
            2093     3.04989E-03     25.7367E-03    -100.048E+06    -189.663E+06    -74.7372E+06     2.37997E+06    -165.465E-03     331.387E-03    -165.923E-03     23.6120E-03    -165.580E-03     330.692E-03    -165.876E-03     23.5436E-03
            2094     2.28679E-03     25.7083E-03    -102.982E+06    -202.786E+06    -87.2190E+06     859.702E+03    -165.630E-03     331.645E-03    -166.014E-03     18.2586E-03    -165.718E-03     330.900E-03    -166.007E-03     18.2434E-03
            2095     1.52490E-03     25.6868E-03    -107.172E+06    -217.459E+06    -98.8391E+06     1.11349E+06    -165.841E-03     331.968E-03    -166.127E-03     12.4286E-03    -165.909E-03     331.171E-03    -166.151E-03     12.4127E-03
            2096     761.912E-06     25.6785E-03    -109.342E+06    -232.336E+06    -106.070E+06     1.43810E+06    -166.707E-03     332.393E-03    -165.687E-03     6.87739E-03    -166.750E-03     331.539E-03    -165.722E-03     6.86197E-03
            2097     14.5353E-03     25.2952E-03    -4.56830E+06     88.9192E+06     90.0472E+06     420.835E+03    -158.650E-03     321.512E-03    -162.862E-03     34.3474E-03    -159.084E-03     321.984E-03    -162.534E-03     31.7351E-03
            2098     13.7665E-03     25.2463E-03    -9.04262E+06     88.5728E+06     85.3910E+06    -90.1053E+03    -158.750E-03     321.812E-03    -163.062E-03     45.0266E-03    -159.239E-03     322.335E-03    -162.750E-03     42.2925E-03
            2099     12.9984E-03     25.1880E-03    -14.3741E+06     83.7531E+06     77.3834E+06     123.197E+03    -159.207E-03     322.480E-03    -163.272E-03     49.8299E-03    -159.693E-03     322.987E-03    -162.986E-03     47.3945E-03
            2100     12.2315E-03     25.1237E-03    -20.2467E+06     76.1637E+06     69.4957E+06    -16.9580E+03    -159.872E-03     323.364E-03    -163.492E-03     53.4593E-03    -160.358E-03     323.847E-03    -163.226E-03     51.2179E-03
            2101     11.4645E-03     25.0540E-03    -28.1692E+06     57.0840E+06     58.7790E+06    -2.17919E+06    -160.392E-03     324.110E-03    -163.718E-03     55.7243E-03    -160.859E-03     324.509E-03    -163.466E-03     53.6953E-03
            2102     10.6970E-03     24.9842E-03    -37.2582E+06     27.1850E+06     47.4134E+06    -1.27264E+06    -160.734E-03     324.702E-03    -163.968E-03     56.7418E-03    -161.167E-03     324.962E-03    -163.717E-03     54.9816E-03
            2103     9.93046E-03     24.9142E-03    -42.1848E+06    -1.19646E+06     38.2416E+06     1.76528E+06    -161.321E-03     325.550E-03    -164.229E-03     56.2136E-03    -161.703E-03     325.667E-03    -163.975E-03     54.7350E-03
            2104     9.16331E-03     24.8436E-03    -45.6190E+06    -30.7300E+06     28.0938E+06     856.446E+03    -161.973E-03     326.451E-03    -164.477E-03     54.7907E-03    -162.294E-03     326.419E-03    -164.226E-03     53.5180E-03
            2105     8.39838E-03     24.7752E-03    -49.9830E+06    -55.1138E+06     19.1244E+06    -915.955E+03    -162.454E-03     327.174E-03    -164.720E-03     53.0047E-03    -162.730E-03     327.022E-03    -164.472E-03     51.9253E-03
            2106     7.63280E-03     24.7102E-03    -55.7513E+06    -75.8407E+06     10.0009E+06    -27.7214E+03    -163.085E-03     328.033E-03    -164.948E-03     49.9563E-03    -163.330E-03     327.782E-03    -164.707E-03     49.0731E-03
            2107     6.86872E-03     24.6478E-03    -65.7871E+06    -98.3835E+06    -4.53298E+06     337.108E+03    -163.794E-03     328.920E-03    -165.126E-03     46.2999E-03    -164.019E-03     328.575E-03    -164.910E-03     45.6104E-03
            2108     6.10523E-03     24.5896E-03    -74.0628E+06    -118.448E+06    -16.6633E+06     155.062E+03    -164.076E-03     329.362E-03    -165.287E-03     42.3160E-03    -164.283E-03     328.935E-03    -165.091E-03     41.7543E-03
            2109     5.34018E-03     24.5373E-03    -79.0642E+06    -133.439E+06    -28.1812E+06     2.11025E+06    -163.948E-03     329.416E-03    -165.468E-03     38.1669E-03    -164.132E-03     328.927E-03    -165.300E-03     37.7855E-03
            2110     4.57552E-03     24.4904E-03    -84.6445E+06    -151.015E+06    -41.6204E+06     486.207E+03    -164.256E-03     329.938E-03    -165.682E-03     33.6210E-03    -164.413E-03     329.379E-03    -165.548E-03     33.3491E-03
            2111     3.81180E-03     24.4504E-03    -90.4864E+06    -171.616E+06    -53.0599E+06    -1.15304E+06    -165.073E-03     330.949E-03    -165.876E-03     28.6327E-03    -165.207E-03     330.306E-03    -165.761E-03     28.4151E-03
            2112     3.04906E-03     24.4151E-03    -95.7344E+06    -185.800E+06    -68.2368E+06     760.264E+03    -165.738E-03     331.678E-03    -165.940E-03     23.4847E-03    -165.850E-03     330.989E-03    -165.873E-03     23.3753E-03
            2113     2.28793E-03     24.3883E-03    -101.297E+06    -201.340E+06    -84.6082E+06     1.11169E+06    -165.702E-03     331.664E-03    -165.962E-03     18.0539E-03    -165.788E-03     330.922E-03    -165.946E-03     18.0075E-03
            2114     1.52332E-03     24.3688E-03    -107.500E+06    -217.575E+06    -98.7852E+06     407.497E+03    -165.626E-03     331.714E-03    -166.088E-03     12.1037E-03    -165.695E-03     330.916E-03    -166.110E-03     12.0844E-03
            2115     761.445E-06     24.3538E-03    -114.381E+06    -232.786E+06    -110.722E+06    -1.86612E+06    -166.391E-03     332.363E-03    -165.971E-03     6.37201E-03    -166.451E-03     331.518E-03    -166.021E-03     6.30863E-03
            2116     14.5340E-03     23.9884E-03    -4.87858E+06     88.9980E+06     89.6728E+06    -655.777E+03    -158.410E-03     321.281E-03    -162.871E-03     34.0315E-03    -158.847E-03     321.757E-03    -162.545E-03     31.3809E-03
            2117     13.7666E-03     23.9373E-03    -9.53927E+06     87.9414E+06     85.0526E+06    -295.974E+03    -158.956E-03     322.029E-03    -163.073E-03     44.8315E-03    -159.448E-03     322.553E-03    -162.762E-03     42.0666E-03
            2118     12.9994E-03     23.8792E-03    -14.8402E+06     83.1302E+06     75.7204E+06     344.998E+03    -159.480E-03     322.744E-03    -163.264E-03     50.3273E-03    -159.967E-03     323.254E-03    -162.984E-03     47.8788E-03
            2119     12.2316E-03     23.8134E-03    -20.6803E+06     77.2393E+06     68.2948E+06     543.809E+03    -159.729E-03     323.210E-03    -163.481E-03     54.5791E-03    -160.219E-03     323.703E-03    -163.222E-03     52.3526E-03
            2120     11.4640E-03     23.7445E-03    -25.8032E+06     57.7047E+06     61.1949E+06     1.47590E+06    -160.071E-03     323.810E-03    -163.740E-03     56.6620E-03    -160.532E-03     324.207E-03    -163.480E-03     54.6933E-03
            2121     10.6965E-03     23.6737E-03    -32.0746E+06     27.1608E+06     49.2631E+06     1.32001E+06    -160.875E-03     324.869E-03    -163.994E-03     56.9851E-03    -161.287E-03     325.120E-03    -163.741E-03     55.2429E-03
            2122     9.92997E-03     23.6014E-03    -37.7078E+06    -4.08111E+06     37.8290E+06    -1.67651E+06    -161.660E-03     325.894E-03    -164.234E-03     56.3530E-03    -162.017E-03     325.993E-03    -163.984E-03     54.8046E-03
            2123     9.16532E-03     23.5306E-03    -39.7442E+06    -27.9039E+06     31.2308E+06    -1.72580E+06    -162.178E-03     326.648E-03    -164.470E-03     54.7846E-03    -162.481E-03     326.620E-03    -164.216E-03     53.4458E-03
            2124     8.39824E-03     23.4624E-03    -47.5667E+06    -54.3743E+06     19.8719E+06     545.858E+03    -162.735E-03     327.421E-03    -164.686E-03     52.5806E-03    -163.003E-03     327.269E-03    -164.439E-03     51.4871E-03
            2125     7.63348E-03     23.3937E-03    -57.9662E+06    -80.2807E+06     8.11448E+06     1.40051E+06    -163.334E-03     328.217E-03    -164.884E-03     49.7746E-03    -163.581E-03     327.951E-03    -164.643E-03     48.8938E-03
            2126     6.86882E-03     23.3321E-03    -63.2244E+06    -96.5380E+06    -1.24500E+06     2.22535E+06    -163.765E-03     328.818E-03    -165.053E-03     46.6803E-03    -163.985E-03     328.474E-03    -164.828E-03     46.0095E-03
            2127     6.10396E-03     23.2720E-03    -67.5699E+06    -117.089E+06    -12.5866E+06    -247.405E+03    -163.957E-03     329.172E-03    -165.215E-03     42.6308E-03    -164.142E-03     328.738E-03    -165.010E-03     42.0365E-03
            2128     5.34044E-03     23.2218E-03    -76.8232E+06    -132.902E+06    -24.8936E+06    -782.881E+03    -164.240E-03     329.615E-03    -165.375E-03     37.9845E-03    -164.420E-03     329.123E-03    -165.196E-03     37.5286E-03
            2129     4.57652E-03     23.1724E-03    -85.7939E+06    -149.305E+06    -40.3455E+06     1.34818E+06    -164.768E-03     330.261E-03    -165.493E-03     32.8340E-03    -164.935E-03     329.710E-03    -165.354E-03     32.5567E-03
            2130     3.81350E-03     23.1313E-03    -88.2852E+06    -170.953E+06    -52.6243E+06    -958.711E+03    -165.150E-03     330.728E-03    -165.579E-03     27.3416E-03    -165.273E-03     330.084E-03    -165.466E-03     27.0910E-03
            2131     3.05065E-03     23.0949E-03    -96.8178E+06    -188.352E+06    -68.3805E+06    -2.42881E+06    -165.302E-03     330.924E-03    -165.621E-03     22.1388E-03    -165.415E-03     330.223E-03    -165.550E-03     21.9507E-03
            2132     2.28639E-03     23.0687E-03    -109.176E+06    -204.145E+06    -89.6157E+06    -681.653E+03    -165.731E-03     331.293E-03    -165.562E-03     16.5500E-03    -165.847E-03     330.557E-03    -165.555E-03     16.4297E-03
            2133     1.52637E-03     23.0474E-03    -113.503E+06    -216.320E+06    -103.217E+06     520.102E+03    -165.792E-03     331.170E-03    -165.378E-03     10.8517E-03    -165.887E-03     330.394E-03    -165.416E-03     10.7884E-03
            2134     763.305E-06     23.0353E-03    -116.164E+06    -230.839E+06    -113.805E+06     1.45834E+06    -165.074E-03     330.495E-03    -165.421E-03     5.56154E-03    -165.143E-03     329.668E-03    -165.487E-03     5.55425E-03
            2135     14.5352E-03     22.6801E-03    -5.46053E+06     89.1757E+06     89.4541E+06    -372.807E+03    -158.498E-03     321.360E-03    -162.862E-03     34.2842E-03    -158.938E-03     321.838E-03    -162.536E-03     31.6316E-03
            2136     13.7669E-03     22.6294E-03    -10.6338E+06     86.5745E+06     83.5070E+06    -575.738E+03    -158.781E-03     321.845E-03    -163.063E-03     45.3648E-03    -159.276E-03     322.366E-03    -162.756E-03     42.6058E-03
            2137     12.9986E-03     22.5697E-03    -15.3324E+06     82.4344E+06     74.4978E+06    -292.039E+03    -159.229E-03     322.496E-03    -163.267E-03     51.2119E-03    -159.718E-03     323.007E-03    -162.992E-03     48.7722E-03
            2138     12.2311E-03     22.5045E-03    -20.9362E+06     76.9822E+06     67.2268E+06     596.602E+03    -159.856E-03     323.346E-03    -163.489E-03     54.8955E-03    -160.349E-03     323.843E-03    -163.235E-03     52.6529E-03
            2139     11.4633E-03     22.4347E-03    -25.5174E+06     56.6148E+06     60.1817E+06     523.031E+03    -160.594E-03     324.321E-03    -163.727E-03     56.4071E-03    -161.053E-03     324.716E-03    -163.472E-03     54.3935E-03
            2140     10.6971E-03     22.3616E-03    -28.4598E+06     29.2430E+06     52.0645E+06    -311.233E+03    -161.236E-03     325.195E-03    -163.958E-03     56.6868E-03    -161.639E-03     325.449E-03    -163.699E-03     54.8981E-03
            2141     9.93114E-03     22.2891E-03    -33.5643E+06    -159.992E+03     41.3882E+06    -1.20176E+06    -161.763E-03     325.941E-03    -164.177E-03     56.0740E-03    -162.113E-03     326.051E-03    -163.922E-03     54.5006E-03
            2142     9.16359E-03     22.2176E-03    -44.2305E+06    -31.5361E+06     28.4515E+06    -645.712E+03    -162.584E-03     326.961E-03    -164.377E-03     54.6567E-03    -162.902E-03     326.928E-03    -164.125E-03     53.3164E-03
            2143     8.40023E-03     22.1466E-03    -52.4586E+06    -56.5942E+06     17.5245E+06     1.82564E+06    -163.306E-03     327.844E-03    -164.538E-03     52.0780E-03    -163.594E-03     327.693E-03    -164.292E-03     50.9811E-03
            2144     7.63495E-03     22.0805E-03    -56.2979E+06    -79.1814E+06     8.34205E+06     450.087E+03    -163.562E-03     328.239E-03    -164.677E-03     48.8556E-03    -163.805E-03     327.976E-03    -164.438E-03     47.9420E-03
            2145     6.87000E-03     22.0148E-03    -60.3642E+06    -96.1221E+06     1.78154E+06    -2.05189E+06    -163.631E-03     328.457E-03    -164.827E-03     44.9227E-03    -163.845E-03     328.111E-03    -164.591E-03     44.1249E-03
            2146     6.10590E-03     21.9575E-03    -67.4228E+06    -114.562E+06    -7.92393E+06     1.47469E+06    -163.986E-03     328.951E-03    -164.965E-03     40.4957E-03    -164.182E-03     328.524E-03    -164.741E-03     39.8928E-03
            2147     5.34138E-03     21.9025E-03    -77.7785E+06    -131.666E+06    -23.9850E+06     2.68104E+06    -164.751E-03     329.770E-03    -165.020E-03     36.1616E-03    -164.937E-03     329.283E-03    -164.836E-03     35.7442E-03
            2148     4.57905E-03     21.8549E-03    -87.3852E+06    -147.959E+06    -40.1827E+06     456.191E+03    -165.102E-03     330.096E-03    -164.994E-03     31.4985E-03    -165.279E-03     329.555E-03    -164.854E-03     31.1780E-03
            2149     3.81608E-03     21.8117E-03    -96.0053E+06    -173.184E+06    -57.9749E+06    -370.023E+03    -164.990E-03     329.932E-03    -164.942E-03     26.4167E-03    -165.141E-03     329.295E-03    -164.841E-03     26.1605E-03
            2150     3.05248E-03     21.7784E-03    -103.616E+06    -193.183E+06    -74.5737E+06    -19.7943E+03    -164.967E-03     329.845E-03    -164.878E-03     21.2198E-03    -165.095E-03     329.136E-03    -164.820E-03     21.0532E-03
            2151     2.29081E-03     21.7481E-03    -109.888E+06    -203.876E+06    -91.3003E+06     442.888E+03    -164.870E-03     329.656E-03    -164.787E-03     16.1520E-03    -164.983E-03     328.921E-03    -164.788E-03     16.0742E-03
            2152     1.52653E-03     21.7289E-03    -114.952E+06    -217.440E+06    -107.554E+06    -31.2422E+03    -164.753E-03     329.457E-03    -164.705E-03     11.3594E-03    -164.848E-03     328.685E-03    -164.761E-03     11.2983E-03
            2153     763.786E-06     21.7185E-03    -114.418E+06    -228.569E+06    -111.675E+06     1.09267E+06    -164.514E-03     329.390E-03    -164.875E-03     6.79592E-03    -164.583E-03     328.571E-03    -164.936E-03     6.78944E-03
            2154     14.5347E-03     21.3722E-03    -4.61922E+06     89.8145E+06     89.1983E+06     248.184E+03    -158.433E-03     321.283E-03    -162.851E-03     34.6383E-03    -158.871E-03     321.766E-03    -162.528E-03     31.9907E-03
            2155     13.7668E-03     21.3216E-03    -10.2228E+06     87.1750E+06     83.3089E+06    -310.896E+03    -158.858E-03     321.910E-03    -163.052E-03     45.6257E-03    -159.352E-03     322.436E-03    -162.747E-03     42.8657E-03
            2156     12.9987E-03     21.2617E-03    -16.2554E+06     81.5057E+06     74.6001E+06    -672.926E+03    -159.587E-03     322.835E-03    -163.248E-03     50.7381E-03    -160.081E-03     323.345E-03    -162.970E-03     48.2629E-03
            2157     12.2309E-03     21.1942E-03    -20.5739E+06     75.8418E+06     67.2627E+06    -607.335E+03    -160.456E-03     323.891E-03    -163.435E-03     53.9123E-03    -160.948E-03     324.383E-03    -163.178E-03     51.6035E-03
            2158     11.4653E-03     21.1232E-03    -25.9194E+06     59.7070E+06     58.9292E+06    -1.66112E+06    -161.115E-03     324.732E-03    -163.617E-03     55.5716E-03    -161.581E-03     325.147E-03    -163.371E-03     53.4903E-03
            2159     10.6987E-03     21.0503E-03    -32.3247E+06     26.0339E+06     49.7275E+06    -1.94089E+06    -161.548E-03     325.365E-03    -163.817E-03     55.8547E-03    -161.964E-03     325.614E-03    -163.559E-03     54.0117E-03
            2160     9.93172E-03     20.9772E-03    -38.0390E+06    -1.27638E+06     40.5274E+06     822.508E+03    -162.322E-03     326.314E-03    -163.991E-03     54.9280E-03    -162.691E-03     326.425E-03    -163.732E-03     53.3722E-03
            2161     9.16788E-03     20.9036E-03    -44.5436E+06    -30.3374E+06     29.6203E+06     2.15415E+06    -163.167E-03     327.289E-03    -164.122E-03     52.8288E-03    -163.488E-03     327.259E-03    -163.865E-03     51.5144E-03
            2162     8.40143E-03     20.8322E-03    -50.4229E+06    -57.0526E+06     19.3163E+06     526.131E+03    -163.713E-03     327.922E-03    -164.209E-03     49.9765E-03    -163.991E-03     327.763E-03    -163.957E-03     48.8374E-03
            2163     7.63792E-03     20.7641E-03    -57.0606E+06    -74.6133E+06     9.83604E+06    -1.83765E+06    -164.000E-03     328.258E-03    -164.258E-03     46.6675E-03    -164.255E-03     328.018E-03    -164.018E-03     45.6779E-03
            2164     6.87417E-03     20.7007E-03    -65.4508E+06    -97.5371E+06    -1.68734E+06    -1.70465E+06    -164.049E-03     328.342E-03    -164.293E-03     42.6884E-03    -164.281E-03     328.000E-03    -164.065E-03     41.8760E-03
            2165     6.10942E-03     20.6411E-03    -74.0867E+06    -118.978E+06    -13.3916E+06     1.70561E+06    -164.348E-03     328.649E-03    -164.301E-03     38.3833E-03    -164.560E-03     328.214E-03    -164.088E-03     37.8231E-03
            2166     5.34654E-03     20.5859E-03    -79.9817E+06    -132.808E+06    -25.3181E+06     2.93508E+06    -164.509E-03     328.762E-03    -164.253E-03     33.9192E-03    -164.702E-03     328.273E-03    -164.071E-03     33.5203E-03
            2167     4.58261E-03     20.5366E-03    -83.3633E+06    -144.420E+06    -37.8503E+06     961.154E+03    -164.377E-03     328.553E-03    -164.177E-03     29.5885E-03    -164.543E-03     328.021E-03    -164.036E-03     29.2670E-03
            2168     3.81886E-03     20.4962E-03    -94.0325E+06    -172.148E+06    -55.7836E+06     658.426E+03    -164.433E-03     328.519E-03    -164.086E-03     25.1960E-03    -164.580E-03     327.883E-03    -163.979E-03     24.9751E-03
            2169     3.05615E-03     20.4598E-03    -103.223E+06    -193.822E+06    -74.5493E+06     1.41363E+06    -164.232E-03     328.191E-03    -163.959E-03     20.5822E-03    -164.360E-03     327.480E-03    -163.901E-03     20.4482E-03
            2170     2.29130E-03     20.4335E-03    -105.497E+06    -201.967E+06    -87.6482E+06     1.23575E+06    -163.639E-03     327.549E-03    -163.910E-03     15.6466E-03    -163.741E-03     326.814E-03    -163.903E-03     15.5670E-03
            2171     1.52685E-03     20.4137E-03    -111.923E+06    -215.176E+06    -103.764E+06     527.420E+03    -163.510E-03     327.537E-03    -164.027E-03     10.5864E-03    -163.599E-03     326.767E-03    -164.072E-03     10.5391E-03
            2172     762.386E-06     20.4001E-03    -118.272E+06    -230.265E+06    -116.281E+06    -2.03093E+06    -163.992E-03     328.253E-03    -164.261E-03     5.64793E-03    -164.073E-03     327.438E-03    -164.337E-03     5.57427E-03
            2173     14.5351E-03     20.0650E-03    -4.39818E+06     90.0740E+06     89.0805E+06     346.082E+03    -158.734E-03     321.559E-03    -162.826E-03     34.2934E-03    -159.172E-03     322.044E-03    -162.504E-03     31.6234E-03
            2174     13.7668E-03     20.0131E-03    -9.65680E+06     88.2566E+06     84.4435E+06     265.903E+03    -159.491E-03     322.494E-03    -163.003E-03     45.1294E-03    -159.987E-03     323.024E-03    -162.695E-03     42.3456E-03
            2175     13.0002E-03     19.9516E-03    -15.3104E+06     81.8703E+06     74.8094E+06    -260.435E+03    -160.443E-03     323.590E-03    -163.147E-03     50.3566E-03    -160.935E-03     324.101E-03    -162.869E-03     47.8511E-03
            2176     12.2343E-03     19.8840E-03    -20.4854E+06     75.6419E+06     67.2454E+06    -1.29785E+06    -160.977E-03     324.261E-03    -163.284E-03     53.5863E-03    -161.468E-03     324.753E-03    -163.028E-03     51.2566E-03
            2177     11.4668E-03     19.8118E-03    -26.7415E+06     60.4212E+06     58.9527E+06    -1.35419E+06    -161.589E-03     325.011E-03    -163.422E-03     55.0988E-03    -162.059E-03     325.429E-03    -163.176E-03     53.0258E-03
            2178     10.7009E-03     19.7389E-03    -32.6203E+06     24.8253E+06     48.6115E+06    -1.26310E+06    -162.690E-03     326.232E-03    -163.543E-03     54.6433E-03    -163.102E-03     326.476E-03    -163.288E-03     52.7918E-03
            2179     9.93647E-03     19.6640E-03    -38.0815E+06    -3.60704E+06     39.7874E+06     1.76005E+03    -163.539E-03     327.142E-03    -163.604E-03     53.0237E-03    -163.900E-03     327.241E-03    -163.344E-03     51.4445E-03
            2180     9.17084E-03     19.5888E-03    -44.0390E+06    -29.9605E+06     29.7446E+06     1.33076E+06    -163.948E-03     327.559E-03    -163.611E-03     50.3960E-03    -164.265E-03     327.527E-03    -163.355E-03     49.0611E-03
            2181     8.40816E-03     19.5185E-03    -50.0518E+06    -57.2103E+06     19.5554E+06     662.194E+03    -164.116E-03     327.706E-03    -163.590E-03     47.2492E-03    -164.389E-03     327.542E-03    -163.337E-03     46.1089E-03
            2182     7.64328E-03     19.4485E-03    -55.8437E+06    -72.4296E+06     10.9149E+06     163.955E+03    -164.220E-03     327.755E-03    -163.535E-03     43.7203E-03    -164.471E-03     327.519E-03    -163.294E-03     42.7642E-03
            2183     6.87905E-03     19.3862E-03    -62.7387E+06    -97.1936E+06    -271.638E+03     959.535E+03    -164.578E-03     328.015E-03    -163.437E-03     39.8292E-03    -164.796E-03     327.666E-03    -163.206E-03     39.0715E-03
            2184     6.11638E-03     19.3250E-03    -70.8699E+06    -119.280E+06    -13.4833E+06     968.149E+03    -164.495E-03     327.774E-03    -163.279E-03     35.8125E-03    -164.688E-03     327.331E-03    -163.070E-03     35.2398E-03
            2185     5.35241E-03     19.2709E-03    -78.7572E+06    -132.709E+06    -25.7840E+06    -678.313E+03    -163.868E-03     326.983E-03    -163.115E-03     31.5351E-03    -164.054E-03     326.492E-03    -162.937E-03     31.0756E-03
            2186     4.58787E-03     19.2234E-03    -84.7753E+06    -143.787E+06    -38.2878E+06     391.764E+03    -163.494E-03     326.463E-03    -162.968E-03     27.2350E-03    -163.667E-03     325.935E-03    -162.828E-03     26.9119E-03
            2187     3.82367E-03     19.1802E-03    -91.3666E+06    -168.942E+06    -54.4185E+06     1.32916E+06    -163.282E-03     326.110E-03    -162.828E-03     22.6144E-03    -163.421E-03     325.483E-03    -162.723E-03     22.3820E-03
            2188     3.05863E-03     19.1468E-03    -100.946E+06    -193.960E+06    -72.2809E+06    -719.336E+03    -162.877E-03     325.578E-03    -162.701E-03     17.9555E-03    -162.997E-03     324.861E-03    -162.635E-03     17.7419E-03
            2189     2.29444E-03     19.1198E-03    -108.260E+06    -204.226E+06    -86.9743E+06    -819.753E+03    -162.678E-03     325.270E-03    -162.592E-03     13.3986E-03    -162.794E-03     324.529E-03    -162.574E-03     13.2454E-03
            2190     1.53015E-03     19.1001E-03    -110.635E+06    -213.411E+06    -98.1779E+06     1.21524E+06    -162.619E-03     325.096E-03    -162.477E-03     8.95535E-03    -162.711E-03     324.323E-03    -162.498E-03     8.91295E-03
            2191     765.655E-06     19.0867E-03    -115.130E+06    -230.352E+06    -112.656E+06     1.39516E+06    -162.472E-03     324.775E-03    -162.303E-03     4.79241E-03    -162.541E-03     323.946E-03    -162.365E-03     4.79631E-03
            2192     14.5360E-03     18.7564E-03    -5.00991E+06     89.7045E+06     89.4382E+06    -42.0301E+03    -159.708E-03     322.489E-03    -162.781E-03     34.5056E-03    -160.153E-03     322.975E-03    -162.456E-03     31.7893E-03
            2193     13.7693E-03     18.7043E-03    -9.68583E+06     88.0025E+06     83.5940E+06     481.949E+03    -160.309E-03     323.208E-03    -162.899E-03     45.5661E-03    -160.805E-03     323.740E-03    -162.595E-03     42.7771E-03
            2194     13.0023E-03     18.6407E-03    -14.8632E+06     82.2980E+06     74.0415E+06     528.994E+03    -161.185E-03     324.175E-03    -162.990E-03     50.7259E-03    -161.674E-03     324.689E-03    -162.718E-03     48.2375E-03
            2195     12.2355E-03     18.5730E-03    -20.6291E+06     77.0890E+06     68.4762E+06     377.166E+03    -162.086E-03     325.155E-03    -163.069E-03     52.9267E-03    -162.584E-03     325.654E-03    -162.808E-03     50.5788E-03
            2196     11.4703E-03     18.5009E-03    -28.1533E+06     61.4262E+06     59.6294E+06    -96.3042E+03    -163.102E-03     326.202E-03    -163.100E-03     53.5097E-03    -163.579E-03     326.624E-03    -162.850E-03     51.4343E-03
            2197     10.7057E-03     18.4244E-03    -35.9740E+06     27.9850E+06     46.9168E+06    -1.08540E+06    -164.226E-03     327.295E-03    -163.069E-03     52.4282E-03    -164.653E-03     327.558E-03    -162.822E-03     50.5744E-03
            2198     9.94217E-03     18.3493E-03    -43.3345E+06    -6.69994E+06     35.8681E+06    -1.07524E+06    -164.770E-03     327.749E-03    -162.978E-03     50.2939E-03    -165.146E-03     327.843E-03    -162.727E-03     48.6667E-03
            2199     9.17941E-03     18.2758E-03    -48.4268E+06    -32.6489E+06     26.7305E+06    -705.825E+03    -164.836E-03     327.674E-03    -162.838E-03     47.6517E-03    -165.162E-03     327.635E-03    -162.587E-03     46.2926E-03
            2200     8.41468E-03     18.2029E-03    -51.3728E+06    -55.2239E+06     18.7641E+06    -1.70513E+06    -164.848E-03     327.510E-03    -162.662E-03     44.0495E-03    -165.126E-03     327.355E-03    -162.413E-03     42.8716E-03
            2201     7.65148E-03     18.1367E-03    -56.9641E+06    -71.9555E+06     10.1144E+06     104.868E+03    -164.806E-03     327.242E-03    -162.435E-03     40.0543E-03    -165.058E-03     327.007E-03    -162.198E-03     39.1098E-03
            2202     6.88832E-03     18.0701E-03    -64.1247E+06    -98.9756E+06    -2.06116E+06     831.809E+03    -164.587E-03     326.753E-03    -162.166E-03     35.9487E-03    -164.803E-03     326.396E-03    -161.940E-03     35.1942E-03
            2203     6.12462E-03     18.0121E-03    -68.7286E+06    -119.609E+06    -12.0041E+06    -202.186E+03    -163.952E-03     325.829E-03    -161.877E-03     31.9145E-03    -164.135E-03     325.378E-03    -161.664E-03     31.2808E-03
            2204     5.36001E-03     17.9591E-03    -74.9710E+06    -129.217E+06    -23.3600E+06     75.1632E+03    -163.337E-03     324.905E-03    -161.569E-03     27.8599E-03    -163.511E-03     324.422E-03    -161.389E-03     27.3819E-03
            2205     4.59596E-03     17.9111E-03    -85.6075E+06    -146.597E+06    -40.1152E+06    -149.287E+03    -162.690E-03     323.944E-03    -161.254E-03     23.5756E-03    -162.860E-03     323.406E-03    -161.118E-03     23.2163E-03
            2206     3.83081E-03     17.8702E-03    -94.6920E+06    -170.365E+06    -56.0335E+06     707.858E+03    -161.764E-03     322.756E-03    -160.993E-03     19.1540E-03    -161.914E-03     322.128E-03    -160.889E-03     18.8770E-03
            2207     3.06545E-03     17.8367E-03    -100.546E+06    -191.018E+06    -71.1459E+06     1.11229E+06    -161.191E-03     321.984E-03    -160.793E-03     15.1577E-03    -161.310E-03     321.275E-03    -160.726E-03     14.9602E-03
            2208     2.29919E-03     17.8102E-03    -107.261E+06    -203.482E+06    -89.0426E+06    -431.933E+03    -161.017E-03     321.593E-03    -160.577E-03     11.7168E-03    -161.122E-03     320.853E-03    -160.572E-03     11.5897E-03
            2209     1.53309E-03     17.7903E-03    -112.995E+06    -216.329E+06    -103.285E+06    -962.852E+03    -160.771E-03     321.094E-03    -160.324E-03     8.11553E-03    -160.864E-03     320.318E-03    -160.363E-03     8.03844E-03
            2210     766.702E-06     17.7788E-03    -114.147E+06    -227.370E+06    -110.735E+06     1.56989E+06    -160.195E-03     320.358E-03    -160.163E-03     4.61103E-03    -160.266E-03     319.540E-03    -160.222E-03     4.61295E-03
            2211     14.5364E-03     17.4462E-03    -4.80025E+06     89.3491E+06     88.3710E+06    -372.911E+03    -160.730E-03     323.462E-03    -162.731E-03     35.3198E-03    -161.175E-03     323.950E-03    -162.412E-03     32.5798E-03
            2212     13.7701E-03     17.3940E-03    -9.82150E+06     88.1692E+06     83.8637E+06     230.383E+03    -161.737E-03     324.522E-03    -162.786E-03     46.0026E-03    -162.237E-03     325.058E-03    -162.480E-03     43.1750E-03
            2213     13.0043E-03     17.3301E-03    -15.9277E+06     82.1331E+06     74.7713E+06     1.16085E+06    -162.901E-03     325.681E-03    -162.780E-03     50.0817E-03    -163.398E-03     326.197E-03    -162.502E-03     47.5578E-03
            2214     12.2400E-03     17.2599E-03    -20.2113E+06     77.7057E+06     69.1672E+06     51.9149E+03    -164.212E-03     326.929E-03    -162.717E-03     50.9829E-03    -164.709E-03     327.430E-03    -162.455E-03     48.5613E-03
            2215     11.4765E-03     17.1867E-03    -24.5139E+06     61.0772E+06     62.5791E+06     1.49568E+06    -165.254E-03     327.837E-03    -162.584E-03     50.9991E-03    -165.714E-03     328.247E-03    -162.324E-03     48.8853E-03
            2216     10.7139E-03     17.1098E-03    -30.0203E+06     29.7601E+06     50.9015E+06     1.37247E+06    -165.697E-03     328.075E-03    -162.378E-03     49.7107E-03    -166.097E-03     328.328E-03    -162.124E-03     47.8748E-03
            2217     9.95076E-03     17.0349E-03    -37.5333E+06    -4.42840E+06     38.8796E+06    -1.02343E+06    -166.008E-03     328.125E-03    -162.117E-03     47.1024E-03    -166.358E-03     328.213E-03    -161.862E-03     45.4645E-03
            2218     9.18763E-03     16.9608E-03    -44.2369E+06    -31.7891E+06     29.2846E+06    -1.50366E+06    -166.117E-03     327.908E-03    -161.791E-03     43.8398E-03    -166.423E-03     327.859E-03    -161.535E-03     42.4386E-03
            2219     8.42585E-03     16.8902E-03    -49.9119E+06    -53.3775E+06     19.3353E+06    -1.56791E+06    -165.915E-03     327.306E-03    -161.391E-03     39.7703E-03    -166.184E-03     327.153E-03    -161.145E-03     38.5725E-03
            2220     7.66335E-03     16.8217E-03    -56.9222E+06    -74.6629E+06     8.94850E+06    -1.08078E+06    -165.406E-03     326.345E-03    -160.939E-03     35.7318E-03    -165.649E-03     326.095E-03    -160.703E-03     34.7479E-03
            2221     6.90034E-03     16.7593E-03    -63.7717E+06    -99.7994E+06    -2.57666E+06    -849.984E+03    -164.394E-03     324.859E-03    -160.466E-03     31.5178E-03    -164.604E-03     324.496E-03    -160.241E-03     30.7037E-03
            2222     6.13573E-03     16.7019E-03    -72.0776E+06    -121.325E+06    -15.5115E+06    -931.194E+03    -163.427E-03     323.409E-03    -159.982E-03     27.1812E-03    -163.618E-03     322.958E-03    -159.779E-03     26.5067E-03
            2223     5.37180E-03     16.6493E-03    -78.1718E+06    -130.329E+06    -25.4356E+06     525.630E+03    -162.465E-03     321.954E-03    -159.489E-03     23.2854E-03    -162.650E-03     321.472E-03    -159.313E-03     22.7837E-03
            2224     4.60643E-03     16.6034E-03    -86.8806E+06    -147.190E+06    -40.7675E+06     1.92120E+06    -161.198E-03     320.208E-03    -159.010E-03     19.4984E-03    -161.372E-03     319.669E-03    -158.875E-03     19.1294E-03
            2225     3.84024E-03     16.5647E-03    -95.1569E+06    -170.156E+06    -58.2306E+06     1.28846E+06    -160.055E-03     318.648E-03    -158.594E-03     15.8723E-03    -160.205E-03     318.026E-03    -158.500E-03     15.5875E-03
            2226     3.07250E-03     16.5326E-03    -98.9932E+06    -187.781E+06    -73.2948E+06     297.936E+03    -159.246E-03     317.478E-03    -158.232E-03     12.4546E-03    -159.360E-03     316.787E-03    -158.183E-03     12.2483E-03
            2227     2.30504E-03     16.5060E-03    -103.689E+06    -201.586E+06    -89.0321E+06     132.069E+03    -158.539E-03     316.451E-03    -157.912E-03     9.12283E-03    -158.628E-03     315.714E-03    -157.915E-03     8.97796E-03
            2228     1.53698E-03     16.4875E-03    -107.999E+06    -217.321E+06    -102.337E+06    -1.03389E+06    -157.922E-03     315.610E-03    -157.687E-03     5.98011E-03    -157.991E-03     314.820E-03    -157.727E-03     5.85358E-03
            2229     768.569E-06     16.4762E-03    -109.897E+06    -229.198E+06    -108.753E+06    -2.23370E+06    -157.474E-03     315.215E-03    -157.741E-03     3.16444E-03    -157.525E-03     314.379E-03    -157.793E-03     3.06127E-03
            2230     14.5369E-03     16.1354E-03    -5.53949E+06     88.5664E+06     87.4742E+06     243.363E+03    -162.497E-03     325.166E-03    -162.669E-03     35.5796E-03    -162.946E-03     325.656E-03    -162.352E-03     32.7985E-03
            2231     13.7720E-03     16.0813E-03    -10.6292E+06     88.0605E+06     84.6198E+06     192.013E+03    -164.179E-03     326.788E-03    -162.609E-03     45.0025E-03    -164.689E-03     327.328E-03    -162.298E-03     42.0703E-03
            2232     13.0091E-03     16.0156E-03    -13.9446E+06     84.4481E+06     77.6020E+06    -441.582E+03    -165.535E-03     327.977E-03    -162.442E-03     48.3471E-03    -166.032E-03     328.500E-03    -162.157E-03     45.6969E-03
            2233     12.2466E-03     15.9448E-03    -20.3595E+06     77.6115E+06     68.4703E+06    -862.774E+03    -166.537E-03     328.724E-03    -162.188E-03     49.4619E-03    -167.032E-03     329.224E-03    -161.928E-03     46.9985E-03
            2234     11.4850E-03     15.8700E-03    -25.8894E+06     56.8139E+06     60.5796E+06    -278.478E+03    -167.306E-03     329.176E-03    -161.870E-03     48.9087E-03    -167.763E-03     329.567E-03    -161.612E-03     46.7241E-03
            2235     10.7232E-03     15.7951E-03    -29.6166E+06     31.4417E+06     51.8582E+06     1.97249E+06    -167.624E-03     329.092E-03    -161.468E-03     46.7874E-03    -168.025E-03     329.349E-03    -161.211E-03     44.9129E-03
            2236     9.96187E-03     15.7193E-03    -35.8053E+06     749.845E+03     39.9285E+06     1.50673E+06    -167.773E-03     328.751E-03    -160.978E-03     43.3914E-03    -168.119E-03     328.856E-03    -160.727E-03     41.7633E-03
            2237     9.20132E-03     15.6464E-03    -43.1066E+06    -31.3429E+06     29.3260E+06    -444.551E+03    -167.641E-03     328.050E-03    -160.410E-03     39.2265E-03    -167.939E-03     328.000E-03    -160.155E-03     37.7750E-03
            2238     8.43966E-03     15.5761E-03    -51.1668E+06    -53.8163E+06     19.4573E+06     141.761E+03    -166.885E-03     326.645E-03    -159.760E-03     35.0756E-03    -167.157E-03     326.488E-03    -159.511E-03     33.8504E-03
            2239     7.67765E-03     15.5106E-03    -56.9243E+06    -75.8234E+06     9.19189E+06    -35.3316E+03    -165.654E-03     324.722E-03    -159.068E-03     30.8176E-03    -165.893E-03     324.463E-03    -158.830E-03     29.7835E-03
            2240     6.91433E-03     15.4500E-03    -63.7232E+06    -98.4644E+06    -2.78565E+06    -313.908E+03    -164.338E-03     322.690E-03    -158.352E-03     26.4650E-03    -164.547E-03     322.332E-03    -158.131E-03     25.5869E-03
            2241     6.15124E-03     15.3946E-03    -72.5710E+06    -119.441E+06    -16.8218E+06    -177.348E+03    -162.882E-03     320.501E-03    -157.619E-03     22.5031E-03    -163.074E-03     320.060E-03    -157.424E-03     21.7932E-03
            2242     5.38572E-03     15.3448E-03    -79.9026E+06    -134.696E+06    -29.0232E+06    -441.153E+03    -161.076E-03     317.988E-03    -156.912E-03     18.7349E-03    -161.257E-03     317.491E-03    -156.746E-03     18.1577E-03
            2243     4.61892E-03     15.3018E-03    -84.2998E+06    -146.950E+06    -40.4694E+06     138.762E+03    -159.369E-03     315.635E-03    -156.265E-03     15.1350E-03    -159.530E-03     315.092E-03    -156.132E-03     14.6679E-03
            2244     3.85082E-03     15.2649E-03    -89.2718E+06    -165.916E+06    -54.7628E+06    -108.033E+03    -158.109E-03     313.775E-03    -155.667E-03     11.9198E-03    -158.241E-03     313.160E-03    -155.570E-03     11.5455E-03
            2245     3.08306E-03     15.2339E-03    -97.2709E+06    -188.213E+06    -71.1415E+06    -790.042E+03    -156.910E-03     312.011E-03    -155.100E-03     9.01228E-03    -157.023E-03     311.315E-03    -155.042E-03     8.71835E-03
            2246     2.31350E-03     15.2100E-03    -103.667E+06    -202.489E+06    -87.0160E+06    -285.065E+03    -155.595E-03     310.203E-03    -154.608E-03     6.41112E-03    -155.690E-03     309.464E-03    -154.599E-03     6.19798E-03
            2247     1.54265E-03     15.1926E-03    -108.033E+06    -216.826E+06    -100.485E+06     520.042E+03    -154.620E-03     308.898E-03    -154.278E-03     4.08043E-03    -154.694E-03     308.110E-03    -154.310E-03     3.94520E-03
            2248     771.185E-06     15.1820E-03    -109.879E+06    -231.029E+06    -111.104E+06     390.659E+03    -153.941E-03     308.302E-03    -154.361E-03     2.19135E-03    -153.987E-03     307.463E-03    -154.422E-03     2.12235E-03
            2249     14.5384E-03     14.8217E-03    -5.66276E+06     89.0846E+06     89.2044E+06     388.298E+03    -165.154E-03     327.703E-03    -162.549E-03     35.3190E-03    -165.611E-03     328.198E-03    -162.224E-03     32.4404E-03
            2250     13.7767E-03     14.7641E-03    -10.2996E+06     88.4998E+06     83.8594E+06    -766.304E+03    -166.796E-03     329.118E-03    -162.321E-03     44.7112E-03    -167.310E-03     329.666E-03    -162.016E-03     41.6653E-03
            2251     13.0155E-03     14.6990E-03    -14.6567E+06     83.8744E+06     74.7560E+06    -1.76782E+06    -168.114E-03     330.091E-03    -161.977E-03     47.9525E-03    -168.615E-03     330.621E-03    -161.704E-03     45.1997E-03
            2252     12.2548E-03     14.6272E-03    -20.1868E+06     78.2080E+06     68.0346E+06    -322.310E+03    -169.136E-03     330.676E-03    -161.540E-03     48.5058E-03    -169.632E-03     331.180E-03    -161.284E-03     45.9958E-03
            2253     11.4944E-03     14.5527E-03    -26.7427E+06     55.1164E+06     59.4076E+06    -123.880E+03    -169.879E-03     330.883E-03    -161.004E-03     46.5961E-03    -170.337E-03     331.269E-03    -160.748E-03     44.3403E-03
            2254     10.7354E-03     14.4775E-03    -34.1239E+06     30.2191E+06     49.3854E+06     1.47885E+06    -170.190E-03     330.537E-03    -160.347E-03     43.3740E-03    -170.607E-03     330.797E-03    -160.094E-03     41.4041E-03
            2255     9.97625E-03     14.4033E-03    -39.6754E+06     2.99379E+06     38.2657E+06     1.72703E+06    -169.918E-03     329.494E-03    -159.576E-03     39.4583E-03    -170.283E-03     329.618E-03    -159.332E-03     37.7556E-03
            2256     9.21641E-03     14.3312E-03    -42.7738E+06    -30.5619E+06     28.8668E+06    -156.810E+03    -169.105E-03     327.836E-03    -158.732E-03     34.9812E-03    -169.401E-03     327.789E-03    -158.481E-03     33.4652E-03
            2257     8.45649E-03     14.2643E-03    -47.0659E+06    -52.2882E+06     21.3766E+06    -616.687E+03    -167.812E-03     325.627E-03    -157.815E-03     30.2576E-03    -168.068E-03     325.470E-03    -157.565E-03     28.9227E-03
            2258     7.69493E-03     14.2014E-03    -55.2703E+06    -77.9137E+06     9.89760E+06     762.074E+03    -166.113E-03     322.962E-03    -156.848E-03     25.4431E-03    -166.343E-03     322.690E-03    -156.606E-03     24.2978E-03
            2259     6.93250E-03     14.1439E-03    -62.1247E+06    -98.7950E+06    -1.63139E+06     2.47168E+06    -164.091E-03     319.950E-03    -155.859E-03     21.0849E-03    -164.294E-03     319.586E-03    -155.633E-03     20.1331E-03
            2260     6.16754E-03     14.0916E-03    -67.2720E+06    -115.356E+06    -12.7044E+06     1.16373E+06    -161.863E-03     316.744E-03    -154.882E-03     17.2834E-03    -162.040E-03     316.310E-03    -154.680E-03     16.4668E-03
            2261     5.40179E-03     14.0461E-03    -74.7275E+06    -132.808E+06    -26.5383E+06    -910.939E+03    -159.635E-03     313.576E-03    -153.941E-03     13.7468E-03    -159.797E-03     313.078E-03    -153.772E-03     13.0271E-03
            2262     4.63407E-03     14.0062E-03    -82.5908E+06    -147.806E+06    -39.8733E+06    -1.78525E+06    -157.562E-03     310.617E-03    -153.055E-03     10.6093E-03    -157.714E-03     310.067E-03    -152.921E-03     9.99507E-03
            2263     3.86524E-03     13.9717E-03    -90.6754E+06    -166.441E+06    -54.2084E+06    -239.916E+03    -155.551E-03     307.795E-03    -152.244E-03     8.05130E-03    -155.690E-03     307.178E-03    -152.142E-03     7.57307E-03
            2264     3.09391E-03     13.9437E-03    -98.0305E+06    -188.238E+06    -70.5805E+06     793.709E+03    -153.688E-03     305.224E-03    -151.536E-03     6.07924E-03    -153.803E-03     304.526E-03    -151.474E-03     5.71906E-03
            2265     2.32171E-03     13.9227E-03    -104.600E+06    -204.537E+06    -87.2060E+06     740.602E+03    -152.225E-03     303.169E-03    -150.944E-03     4.43220E-03    -152.322E-03     302.420E-03    -150.931E-03     4.17058E-03
            2266     1.54857E-03     13.9072E-03    -110.862E+06    -216.262E+06    -102.023E+06     1.62059E+06    -151.134E-03     301.603E-03    -150.469E-03     2.86088E-03    -151.223E-03     300.826E-03    -150.505E-03     2.70416E-03
            2267     774.848E-06     13.8974E-03    -114.787E+06    -227.485E+06    -111.258E+06     1.77927E+06    -150.215E-03     300.493E-03    -150.279E-03     1.36097E-03    -150.291E-03     299.682E-03    -150.339E-03     1.28886E-03
            2268     14.5421E-03     13.5032E-03    -4.02210E+06     90.6436E+06     90.4353E+06    -176.272E+03    -167.874E-03     330.251E-03    -162.376E-03     36.3018E-03    -168.335E-03     330.757E-03    -162.050E-03     33.3267E-03
            2269     13.7811E-03     13.4461E-03    -9.19072E+06     89.5959E+06     84.2177E+06    -673.995E+03    -169.373E-03     331.363E-03    -161.991E-03     45.3160E-03    -169.891E-03     331.923E-03    -161.686E-03     42.1897E-03
            2270     13.0212E-03     13.3789E-03    -15.9011E+06     82.8216E+06     73.3177E+06    -1.06998E+06    -171.142E-03     332.601E-03    -161.460E-03     47.6208E-03    -171.651E-03     333.136E-03    -161.190E-03     44.7857E-03
            2271     12.2633E-03     13.3067E-03    -20.9980E+06     77.7671E+06     67.5141E+06    -1.27925E+06    -172.470E-03     333.262E-03    -160.792E-03     46.7191E-03    -172.973E-03     333.771E-03    -160.537E-03     44.0647E-03
            2272     11.5065E-03     13.2322E-03    -24.6800E+06     52.9676E+06     60.6034E+06     250.121E+03    -173.043E-03     333.036E-03    -159.993E-03     43.8211E-03    -173.491E-03     333.409E-03    -159.731E-03     41.4495E-03
            2273     10.7495E-03     13.1582E-03    -28.4804E+06     28.2758E+06     52.1873E+06     748.508E+03    -172.953E-03     332.003E-03    -159.049E-03     40.0058E-03    -173.345E-03     332.243E-03    -158.788E-03     37.9061E-03
            2274     9.99237E-03     13.0857E-03    -33.4032E+06     6.57250E+06     42.4793E+06     162.555E+03    -172.096E-03     330.077E-03    -157.981E-03     35.4200E-03    -172.443E-03     330.206E-03    -157.730E-03     33.5569E-03
            2275     9.23450E-03     13.0175E-03    -40.0347E+06    -28.5008E+06     29.5363E+06    -222.805E+03    -170.653E-03     327.483E-03    -156.830E-03     30.3835E-03    -170.941E-03     327.442E-03    -156.582E-03     28.7225E-03
            2276     8.47491E-03     12.9528E-03    -46.7341E+06    -53.0601E+06     19.1172E+06    -54.0703E+03    -168.744E-03     324.355E-03    -155.611E-03     25.2966E-03    -168.997E-03     324.199E-03    -155.371E-03     23.8106E-03
            2277     7.71462E-03     12.8945E-03    -53.2389E+06    -80.1013E+06     9.35467E+06     1.29307E+06    -166.428E-03     320.789E-03    -154.361E-03     20.5621E-03    -166.646E-03     320.507E-03    -154.121E-03     19.2574E-03
            2278     6.95186E-03     12.8415E-03    -59.2334E+06    -98.6996E+06     924.561E+03     1.73333E+06    -163.694E-03     316.798E-03    -153.104E-03     16.3191E-03    -163.889E-03     316.430E-03    -152.870E-03     15.1831E-03
            2279     6.18739E-03     12.7944E-03    -65.1914E+06    -112.292E+06    -9.44438E+06     1.59219E+06    -160.748E-03     312.616E-03    -151.868E-03     12.4728E-03    -160.927E-03     312.193E-03    -151.658E-03     11.4814E-03
            2280     5.41988E-03     12.7529E-03    -73.6411E+06    -130.386E+06    -23.5082E+06     1.76878E+06    -157.924E-03     308.614E-03    -150.690E-03     9.35578E-03    -158.091E-03     308.125E-03    -150.512E-03     8.50915E-03
            2281     4.65094E-03     12.7170E-03    -83.5726E+06    -147.072E+06    -39.3533E+06     1.86515E+06    -155.181E-03     304.771E-03    -149.590E-03     7.03706E-03    -155.343E-03     304.227E-03    -149.452E-03     6.33313E-03
            2282     3.87936E-03     12.6873E-03    -91.7934E+06    -167.112E+06    -56.6005E+06     567.508E+03    -152.527E-03     301.138E-03    -148.611E-03     5.20514E-03    -152.670E-03     300.525E-03    -148.519E-03     4.61573E-03
            2283     3.10597E-03     12.6635E-03    -98.0802E+06    -187.882E+06     -71.879E+06     231.680E+03    -150.273E-03     298.077E-03    -147.804E-03     3.64282E-03    -150.388E-03     297.385E-03    -147.749E-03     3.16748E-03
            2284     2.33070E-03     12.6443E-03    -103.759E+06    -205.129E+06    -86.2026E+06     943.731E+03    -148.573E-03     295.733E-03    -147.160E-03     2.43524E-03    -148.665E-03     294.977E-03    -147.143E-03     2.08760E-03
            2285     1.55467E-03     12.6311E-03    -107.810E+06    -214.771E+06    -98.6984E+06     813.101E+03    -147.335E-03     294.001E-03    -146.666E-03     1.63221E-03    -147.416E-03     293.222E-03    -146.692E-03     1.40439E-03
            2286     777.364E-06     12.6232E-03    -111.205E+06    -224.533E+06    -107.369E+06     17.8144E+03    -146.736E-03     292.882E-03    -146.146E-03     915.505E-06    -146.804E-03     292.077E-03    -146.196E-03     784.131E-06
            2287     14.5436E-03     12.1827E-03    -4.77828E+06     90.5282E+06     89.4810E+06    -352.368E+03    -170.985E-03     333.199E-03    -162.215E-03     37.7351E-03    -171.459E-03     333.719E-03    -161.892E-03     34.6345E-03
            2288     13.7855E-03     12.1241E-03    -9.86178E+06     89.8202E+06     85.3568E+06    -115.681E+03    -173.101E-03     334.743E-03    -161.641E-03     45.6995E-03    -173.636E-03     335.313E-03    -161.330E-03     42.4396E-03
            2289     13.0295E-03     12.0552E-03    -14.2746E+06     84.8043E+06     76.5684E+06    -730.113E+03    -174.983E-03     335.855E-03    -160.872E-03     46.5245E-03    -175.500E-03     336.400E-03    -160.591E-03     43.5453E-03
            2290     12.2745E-03     11.9820E-03    -20.0103E+06     76.7378E+06     68.1933E+06    -1.24334E+06    -175.998E-03     335.926E-03    -159.927E-03     44.5010E-03    -176.503E-03     336.434E-03    -159.669E-03     41.6829E-03
            2291     11.5197E-03     11.9092E-03    -26.2415E+06     53.0874E+06     58.4051E+06    -2.01592E+06    -176.263E-03     335.093E-03    -158.830E-03     40.9906E-03    -176.722E-03     335.478E-03    -158.577E-03     38.4294E-03
            2292     10.7653E-03     11.8366E-03    -31.1982E+06     28.6139E+06     48.8693E+06    -2.19994E+06    -175.655E-03     333.237E-03    -157.583E-03     36.3622E-03    -176.061E-03     333.494E-03    -157.335E-03     34.0497E-03
            2293     10.0100E-03     11.7679E-03    -36.4134E+06     4.14544E+06     39.5457E+06    -162.081E+03    -174.208E-03     330.426E-03    -156.217E-03     31.0366E-03    -174.568E-03     330.557E-03    -155.973E-03     28.9650E-03
            2294     9.25353E-03     11.7031E-03    -41.8934E+06    -26.3007E+06     28.6839E+06     1.50625E+06    -172.068E-03     326.836E-03    -154.768E-03     25.7609E-03    -172.373E-03     326.817E-03    -154.525E-03     23.9089E-03
            2295     8.49579E-03     11.6440E-03    -48.1611E+06    -53.7910E+06     17.6181E+06     1.60792E+06    -169.272E-03     322.541E-03    -153.269E-03     20.7648E-03    -169.534E-03     322.391E-03    -153.033E-03     19.0934E-03
            2296     7.73482E-03     11.5906E-03    -54.4922E+06    -79.2313E+06     8.20718E+06     1.22889E+06    -166.118E-03     317.887E-03    -151.769E-03     16.3782E-03    -166.347E-03     317.618E-03    -151.534E-03     14.8704E-03
            2297     6.97212E-03     11.5432E-03    -60.9255E+06    -96.9596E+06    -198.567E+03     143.675E+03    -162.790E-03     313.079E-03    -150.289E-03     12.7350E-03    -163.000E-03     312.729E-03    -150.061E-03     11.3806E-03
            2298     6.20637E-03     11.5022E-03    -67.8834E+06    -114.216E+06    -10.4271E+06     981.323E+03    -159.346E-03     308.200E-03    -148.854E-03     9.72788E-03    -159.538E-03     307.777E-03    -148.642E-03     8.55113E-03
            2299     5.43847E-03     11.4665E-03    -73.7204E+06    -130.187E+06    -22.7462E+06     2.80997E+06    -155.827E-03     303.329E-03    -147.502E-03     7.32493E-03    -155.999E-03     302.843E-03    -147.320E-03     6.34106E-03
            2300     4.66694E-03     11.4363E-03    -79.2115E+06    -144.124E+06    -36.4301E+06     2.17249E+06    -152.479E-03     298.758E-03    -146.279E-03     5.36386E-03    -152.630E-03     298.222E-03    -146.137E-03     4.52504E-03
            2301     3.89315E-03     11.4115E-03    -85.8189E+06    -164.816E+06    -50.8070E+06     1.32112E+06    -149.628E-03     294.848E-03    -145.220E-03     3.81097E-03    -149.754E-03     294.231E-03    -145.110E-03     3.10606E-03
            2302     3.11733E-03     11.3913E-03    -93.7637E+06    -188.338E+06    -66.3269E+06     916.989E+03    -147.219E-03     291.537E-03    -144.319E-03     2.64368E-03    -147.323E-03     290.832E-03    -144.241E-03     2.08088E-03
            2303     2.33990E-03     11.3762E-03    -100.265E+06    -203.710E+06    -81.4847E+06     304.401E+03    -145.180E-03     288.767E-03    -143.587E-03     1.73462E-03    -145.268E-03     288.011E-03    -143.554E-03     1.30888E-03
            2304     1.56027E-03     11.3650E-03    -105.616E+06    -213.566E+06    -96.2675E+06    -572.274E+03    -143.732E-03     286.784E-03    -143.052E-03     944.523E-06    -143.807E-03     286.005E-03    -143.070E-03     645.972E-06
            2305     780.464E-06     11.3582E-03    -110.802E+06    -225.023E+06    -107.363E+06    -768.077E+03    -143.075E-03     285.640E-03    -142.565E-03     379.922E-06    -143.138E-03     284.830E-03    -142.615E-03     206.685E-06
            2306     14.5455E-03     10.8574E-03    -4.96834E+06     91.0628E+06     90.2695E+06    -190.598E+03    -174.970E-03     337.017E-03    -162.047E-03     38.1568E-03    -175.458E-03     337.549E-03    -161.721E-03     34.8950E-03
            2307     13.7912E-03     10.7961E-03    -9.85013E+06     90.6876E+06     85.9157E+06    -1.11898E+06    -177.474E-03     338.705E-03    -161.231E-03     45.5044E-03    -178.025E-03     339.294E-03    -160.919E-03     42.0242E-03
            2308     13.0385E-03     10.7263E-03    -15.0752E+06     84.6315E+06     74.5937E+06    -1.21983E+06    -179.071E-03     339.251E-03    -160.180E-03     45.5248E-03    -179.601E-03     339.812E-03    -159.908E-03     42.3326E-03
            2309     12.2861E-03     10.6548E-03    -20.1522E+06     76.8636E+06     66.0706E+06    -654.606E+03    -179.744E-03     338.690E-03    -158.947E-03     42.4051E-03    -180.256E-03     339.212E-03    -158.699E-03     39.3981E-03
            2310     11.5344E-03     10.5826E-03    -25.7872E+06     54.8229E+06     57.8330E+06    -682.970E+03    -179.501E-03     337.055E-03    -157.554E-03     37.5219E-03    -179.968E-03     337.458E-03    -157.307E-03     34.7471E-03
            2311     10.7823E-03     10.5139E-03    -33.2336E+06     28.5860E+06     46.5475E+06    -1.07276E+06    -178.121E-03     334.129E-03    -156.007E-03     32.1177E-03    -178.544E-03     334.401E-03    -155.768E-03     29.5662E-03
            2312     10.0291E-03     10.4492E-03    -39.4748E+06     1.93451E+06     37.0004E+06    -1.32306E+06    -175.794E-03     330.159E-03    -154.365E-03     26.8076E-03    -176.172E-03     330.297E-03    -154.126E-03     24.4718E-03
            2313     9.27389E-03     10.3902E-03    -44.3049E+06    -27.5962E+06     28.1853E+06    -115.215E+03    -172.681E-03     325.356E-03    -152.676E-03     21.7755E-03    -173.005E-03     325.344E-03    -152.430E-03     19.6518E-03
            2314     8.51550E-03     10.3373E-03    -49.2831E+06    -53.0854E+06     18.6373E+06     1.49610E+06    -168.997E-03     319.971E-03    -150.974E-03     17.4539E-03    -169.277E-03     319.834E-03    -150.732E-03     15.5512E-03
            2315     7.75508E-03     10.2909E-03    -55.4617E+06    -76.3218E+06     8.34418E+06     1.03817E+06    -165.058E-03     314.365E-03    -149.307E-03     13.9257E-03    -165.304E-03     314.119E-03    -149.074E-03     12.2168E-03
            2316     6.99066E-03     10.2504E-03    -61.8313E+06    -95.4551E+06    -1.24405E+06    -150.994E+03    -161.043E-03     308.754E-03    -147.711E-03     11.0999E-03    -161.265E-03     308.422E-03    -147.489E-03     9.57031E-03
            2317     6.22361E-03     10.2156E-03    -67.1649E+06    -116.291E+06    -10.5390E+06    -311.742E+03    -157.125E-03     303.345E-03    -146.220E-03     8.94030E-03    -157.318E-03     302.917E-03    -146.007E-03     7.59479E-03
            2318     5.45304E-03     10.1867E-03    -72.8533E+06    -130.500E+06    -21.1525E+06     226.804E+03    -153.366E-03     298.210E-03    -144.844E-03     7.35727E-03    -153.541E-03     297.725E-03    -144.655E-03     6.20793E-03
            2319     4.68006E-03     10.1628E-03    -79.5658E+06    -142.722E+06    -34.1307E+06     921.011E+03    -149.938E-03     293.547E-03    -143.609E-03     6.07035E-03    -150.101E-03     293.020E-03    -143.457E-03     5.11915E-03
            2320     3.90435E-03     10.1429E-03    -86.9298E+06    -163.574E+06    -48.4710E+06     934.503E+03    -146.997E-03     289.541E-03    -142.544E-03     4.94698E-03    -147.137E-03     288.932E-03    -142.423E-03     4.17144E-03
            2321     3.12634E-03     10.1274E-03    -93.4880E+06    -186.498E+06    -62.6071E+06     220.038E+03    -144.562E-03     286.209E-03    -141.647E-03     3.88204E-03    -144.674E-03     285.509E-03    -141.554E-03     3.26061E-03
            2322     2.34628E-03     10.1157E-03    -99.9764E+06    -202.998E+06    -78.5178E+06    -470.055E+03    -142.594E-03     283.493E-03    -140.899E-03     2.87749E-03    -142.688E-03     282.739E-03    -140.852E-03     2.41068E-03
            2323     1.56556E-03     10.1074E-03    -105.666E+06    -213.695E+06    -94.0439E+06    -347.930E+03    -141.082E-03     281.410E-03    -140.328E-03     2.00672E-03    -141.161E-03     280.629E-03    -140.335E-03     1.70534E-03
            2324     783.024E-06     10.1021E-03    -109.975E+06    -225.999E+06    -106.332E+06    -209.638E+03    -140.183E-03     280.147E-03    -139.964E-03     1.12731E-03    -140.240E-03     279.328E-03    -140.009E-03     964.650E-06
            2325     14.5492E-03     9.52595E-03    -4.91562E+06      92.018E+06     90.8947E+06    -531.814E+03    -179.416E-03     341.240E-03    -161.824E-03     38.8035E-03    -179.920E-03     341.790E-03    -161.496E-03     35.3466E-03
            2326     13.7981E-03     9.46314E-03    -10.0035E+06     90.8869E+06     83.9783E+06    -476.842E+03    -181.754E-03     342.499E-03    -160.745E-03     45.2207E-03    -182.320E-03     343.109E-03    -160.442E-03     41.5116E-03
            2327     13.0479E-03     9.39384E-03    -15.6933E+06     84.1555E+06     72.5258E+06    -478.488E+03    -183.345E-03     342.762E-03    -159.417E-03     43.8144E-03    -183.889E-03     343.339E-03    -159.154E-03     40.3768E-03
            2328     12.2993E-03     9.32252E-03    -20.9692E+06     78.7712E+06     66.3175E+06    -1.61943E+06    -183.582E-03     341.474E-03    -157.892E-03     39.4073E-03    -184.113E-03     342.018E-03    -157.644E-03     36.1163E-03
            2329     11.5506E-03     9.25377E-03    -25.0485E+06     52.6520E+06     59.5382E+06    -1.05079E+06    -182.303E-03     338.521E-03    -156.218E-03     33.8464E-03    -182.777E-03     338.922E-03    -155.961E-03     30.7822E-03
            2330     10.8005E-03     9.18992E-03    -29.0520E+06     28.4745E+06     50.8057E+06     718.130E+03    -179.757E-03     334.179E-03    -154.422E-03     28.4137E-03    -180.177E-03     334.450E-03    -154.167E-03     25.6127E-03
            2331     10.0479E-03     9.13131E-03    -35.5614E+06     4.88400E+06     40.5540E+06     179.083E+03    -176.241E-03     328.812E-03    -152.572E-03     23.5468E-03    -176.619E-03     328.965E-03    -152.324E-03     20.9815E-03
            2332     9.29239E-03     9.07953E-03    -43.1359E+06    -29.8177E+06     28.9694E+06    -395.017E+03    -172.080E-03     322.821E-03    -150.741E-03     19.3210E-03    -172.407E-03     322.806E-03    -150.490E-03     16.9701E-03
            2333     8.53397E-03     9.03465E-03    -49.4920E+06    -53.4335E+06     19.3320E+06     353.375E+03    -167.553E-03     316.515E-03    -148.962E-03     16.0390E-03    -167.846E-03     316.386E-03    -148.716E-03     13.9319E-03
            2334     7.77109E-03     8.99574E-03    -54.4685E+06    -73.9378E+06     10.5307E+06     294.955E+03    -162.957E-03     310.238E-03    -147.281E-03     13.6614E-03    -163.215E-03     310.010E-03    -147.042E-03     11.7919E-03
            2335     7.00553E-03     8.96303E-03    -60.2370E+06    -92.8902E+06     1.36670E+06    -951.885E+03    -158.494E-03     304.225E-03    -145.731E-03     11.9957E-03    -158.726E-03     303.909E-03    -145.502E-03     10.3443E-03
            2336     6.23592E-03     8.93567E-03    -67.0506E+06    -116.156E+06    -8.65829E+06    -2.12932E+06    -154.347E-03     298.687E-03    -144.340E-03     10.7059E-03    -154.551E-03     298.266E-03    -144.117E-03     9.26039E-03
            2337     5.46342E-03     8.91338E-03    -74.1368E+06    -132.454E+06    -18.7359E+06    -1.63719E+06    -150.664E-03     293.769E-03    -143.105E-03     9.71454E-03    -150.853E-03     293.280E-03    -142.899E-03     8.49488E-03
            2338     4.68791E-03     8.89488E-03    -81.1130E+06    -143.449E+06    -30.6130E+06    -729.028E+03    -147.482E-03     289.503E-03    -142.021E-03     8.90559E-03    -147.662E-03     288.976E-03    -141.849E-03     7.91489E-03
            2339     3.91013E-03     8.88051E-03    -87.3327E+06    -161.851E+06    -45.7097E+06    -1.03554E+06    -144.794E-03     285.896E-03    -141.102E-03     8.05692E-03    -144.948E-03     285.298E-03    -140.969E-03     7.26502E-03
            2340     3.13042E-03     8.86879E-03    -93.7057E+06    -185.282E+06    -61.9078E+06    -2.11205E+06    -142.650E-03     283.006E-03    -140.356E-03     7.03845E-03    -142.770E-03     282.315E-03    -140.261E-03     6.41589E-03
            2341     2.34954E-03     8.86052E-03    -99.8177E+06    -204.081E+06    -78.2599E+06    -2.37866E+06    -141.046E-03     280.807E-03    -139.761E-03     5.73671E-03    -141.139E-03     280.049E-03    -139.712E-03     5.27694E-03
            2342     1.56658E-03     8.85475E-03    -104.554E+06    -215.706E+06    -93.0247E+06    -1.69334E+06    -139.890E-03     279.203E-03    -139.313E-03     4.13770E-03    -139.963E-03     278.409E-03    -139.314E-03     3.84104E-03
            2343     783.411E-06     8.85134E-03    -108.199E+06    -227.590E+06    -104.616E+06    -394.962E+03    -139.117E-03     278.219E-03    -139.102E-03     2.40004E-03    -139.168E-03     277.390E-03    -139.138E-03     2.25218E-03
            2344     14.5530E-03     8.18937E-03    -5.29004E+06      91.884E+06     90.4776E+06    -83.7424E+03    -184.097E-03     345.668E-03    -161.571E-03     39.9749E-03    -184.621E-03     346.237E-03    -161.245E-03     36.3065E-03
            2345     13.8048E-03     8.12549E-03    -10.4094E+06     90.8768E+06     84.5325E+06    -408.193E+03    -186.554E-03     346.778E-03    -160.225E-03     44.9899E-03    -187.143E-03     347.409E-03    -159.919E-03     41.0150E-03
            2346     13.0592E-03     8.05531E-03    -14.1060E+06     86.3180E+06     76.2701E+06    -1.55103E+06    -187.609E-03     346.222E-03    -158.613E-03     41.9518E-03    -188.170E-03     346.818E-03    -158.336E-03     38.2306E-03
            2347     12.3136E-03     7.98682E-03    -17.7863E+06     80.0018E+06     69.9406E+06    -2.51143E+06    -186.624E-03     343.434E-03    -156.810E-03     36.5872E-03    -187.162E-03     343.990E-03    -156.550E-03     33.0092E-03
            2348     11.5664E-03     7.92354E-03    -23.2883E+06     49.1091E+06     59.9271E+06    -1.53886E+06    -183.992E-03     338.894E-03    -154.902E-03     30.7802E-03    -184.468E-03     339.289E-03    -154.640E-03     27.4376E-03
            2349     10.8170E-03     7.86618E-03    -29.6156E+06     26.6794E+06     51.1824E+06     236.260E+03    -179.987E-03     332.935E-03    -152.948E-03     25.6652E-03    -180.421E-03     333.211E-03    -152.688E-03     22.6100E-03
            2350     10.0644E-03     7.81591E-03    -35.1655E+06     7.24479E+06     43.0084E+06     1.42968E+06    -175.065E-03     326.093E-03    -151.028E-03     21.6839E-03    -175.461E-03     326.266E-03    -150.772E-03     18.9310E-03
            2351     9.30768E-03     7.77287E-03    -40.6283E+06    -28.3432E+06     32.5819E+06     889.775E+03    -169.875E-03     319.094E-03    -149.220E-03     18.9083E-03    -170.209E-03     319.090E-03    -148.957E-03     16.4313E-03
            2352     8.54665E-03     7.73648E-03    -46.3121E+06    -52.5142E+06     23.8408E+06    -710.956E+03    -164.710E-03     312.254E-03    -147.544E-03     17.2617E-03    -165.005E-03     312.129E-03    -147.282E-03     15.0583E-03
            2353     7.78231E-03     7.70645E-03    -52.5596E+06    -72.8100E+06     15.5423E+06    -1.61318E+06    -159.779E-03     305.815E-03    -146.036E-03     16.2993E-03    -160.046E-03     305.592E-03    -145.777E-03     14.3780E-03
            2354     7.01320E-03     7.68135E-03    -58.4824E+06     -90.423E+06     7.38759E+06    -2.13625E+06    -155.302E-03     300.015E-03    -144.713E-03     15.6957E-03    -155.543E-03     299.707E-03    -144.460E-03     14.0516E-03
            2355     6.24128E-03     7.66117E-03    -64.6934E+06    -115.498E+06    -2.77932E+06    -3.09553E+06    -151.516E-03     295.094E-03    -143.579E-03     15.1233E-03    -151.722E-03     294.669E-03    -143.331E-03     13.7267E-03
            2356     5.46632E-03     7.64467E-03    -71.1507E+06    -133.725E+06    -13.7615E+06    -4.14882E+06    -148.335E-03     290.942E-03    -142.607E-03     14.3966E-03    -148.518E-03     290.438E-03    -142.379E-03     13.2276E-03
            2357     4.68912E-03     7.63153E-03    -77.0297E+06    -144.586E+06    -26.0001E+06    -4.50254E+06    -145.701E-03     287.486E-03    -141.785E-03     13.3284E-03    -145.868E-03     286.942E-03    -141.594E-03     12.3728E-03
            2358     3.90999E-03     7.62088E-03    -82.2922E+06    -162.531E+06    -42.0702E+06    -4.09500E+06    -143.624E-03     284.735E-03    -141.111E-03     11.8235E-03    -143.757E-03     284.121E-03    -140.966E-03     11.0623E-03
            2359     3.12929E-03     7.61296E-03    -87.8983E+06    -186.049E+06    -60.2483E+06    -3.52045E+06    -142.030E-03     282.615E-03    -140.585E-03     9.99425E-03    -142.123E-03     281.910E-03    -140.489E-03     9.41243E-03
            2360     2.34713E-03     7.60665E-03    -94.7428E+06    -206.481E+06    -78.2726E+06    -3.26082E+06    -140.948E-03     281.139E-03    -140.192E-03     7.82438E-03    -141.013E-03     280.363E-03    -140.146E-03     7.39739E-03
            2361     1.56546E-03     7.60250E-03    -100.826E+06    -219.697E+06    -92.6727E+06    -2.14305E+06    -140.289E-03     280.185E-03    -139.896E-03     5.34844E-03    -140.337E-03     279.365E-03    -139.895E-03     5.06318E-03
            2362     782.999E-06     7.59992E-03    -103.980E+06    -230.404E+06    -101.749E+06    -894.664E+03    -139.764E-03     279.519E-03    -139.755E-03     2.91305E-03    -139.795E-03     278.665E-03    -139.779E-03     2.76388E-03
            2363     14.5560E-03     6.84625E-03    -4.44559E+06     92.7886E+06     92.3035E+06     47.0386E+03    -189.309E-03     350.639E-03    -161.329E-03     41.5830E-03    -189.851E-03     351.225E-03    -160.996E-03     37.7216E-03
            2364     13.8131E-03     6.78066E-03    -8.23994E+06     93.5308E+06     88.7306E+06    -2.46168E+06    -191.674E-03     351.370E-03    -159.697E-03     44.7105E-03    -192.285E-03     352.027E-03    -159.377E-03     40.4169E-03
            2365     13.0704E-03     6.71248E-03    -12.0138E+06     87.9693E+06     78.3712E+06    -4.15690E+06    -191.246E-03     349.039E-03    -157.793E-03     39.6624E-03    -191.821E-03     349.658E-03    -157.512E-03     35.5905E-03
            2366     12.3265E-03     6.64943E-03    -16.9648E+06     76.8104E+06     68.0708E+06    -2.53016E+06    -188.302E-03     344.068E-03    -155.766E-03     33.3708E-03    -188.844E-03     344.626E-03    -155.512E-03     29.5039E-03
            2367     11.5806E-03     6.59279E-03    -22.7347E+06     46.5082E+06     59.6724E+06     170.555E+03    -183.700E-03     337.454E-03    -153.754E-03     28.0189E-03    -184.183E-03     337.850E-03    -153.490E-03     24.4684E-03
            2368     10.8308E-03     6.54512E-03    -28.8180E+06     26.3833E+06     54.0680E+06     921.794E+03    -177.956E-03     329.773E-03    -151.816E-03     24.5629E-03    -178.402E-03     330.054E-03    -151.542E-03     21.3777E-03
            2369     10.0759E-03     6.50474E-03    -34.7271E+06     7.98354E+06     47.7654E+06     72.2117E+03    -171.858E-03     321.882E-03    -150.023E-03     22.7297E-03    -172.270E-03     322.061E-03    -149.745E-03     19.9194E-03
            2370     9.31634E-03     6.47169E-03    -39.8290E+06    -25.1764E+06     39.3060E+06    -812.047E+03    -166.030E-03     314.464E-03    -148.435E-03     21.8864E-03    -166.381E-03     314.472E-03    -148.144E-03     19.4410E-03
            2371     8.55224E-03     6.44453E-03    -45.6038E+06    -50.0617E+06     30.6501E+06    -2.04450E+06    -160.748E-03     307.795E-03    -147.047E-03     21.6525E-03    -161.057E-03     307.676E-03    -146.755E-03     19.5582E-03
            2372     7.78353E-03     6.42242E-03    -51.2641E+06    -71.1606E+06     21.5802E+06    -3.90769E+06    -156.241E-03     302.103E-03    -145.862E-03     21.4665E-03    -156.514E-03     301.880E-03    -145.577E-03     19.6817E-03
            2373     7.01223E-03     6.40484E-03    -55.9379E+06    -89.6764E+06     12.5001E+06    -5.75620E+06    -152.494E-03     297.362E-03    -144.868E-03     20.9439E-03    -152.731E-03     297.046E-03    -144.594E-03     19.4301E-03
            2374     6.23763E-03     6.39002E-03    -60.0950E+06    -114.627E+06     1.29887E+06    -6.91598E+06    -149.488E-03     293.535E-03    -144.047E-03     19.9494E-03    -149.676E-03     293.100E-03    -143.788E-03     18.6762E-03
            2375     5.46133E-03     6.37834E-03    -64.5002E+06    -134.225E+06    -12.5000E+06    -7.87463E+06    -147.147E-03     290.506E-03    -143.359E-03     18.5243E-03    -147.296E-03     289.986E-03    -143.134E-03     17.4586E-03
            2376     4.68335E-03     6.36867E-03    -69.5527E+06    -147.274E+06    -28.0678E+06    -7.93297E+06    -145.313E-03     288.097E-03    -142.784E-03     16.6654E-03    -145.434E-03     287.530E-03    -142.610E-03     15.7889E-03
            2377     3.90426E-03     6.36115E-03    -75.0775E+06    -167.530E+06    -45.2221E+06    -5.99519E+06    -143.965E-03     286.287E-03    -142.322E-03     14.3391E-03    -144.048E-03     285.640E-03    -142.197E-03     13.6495E-03
            2378     3.12439E-03     6.35524E-03    -80.8898E+06    -190.402E+06    -61.3265E+06    -2.99691E+06    -143.014E-03     284.968E-03    -141.954E-03     11.6302E-03    -143.062E-03     284.231E-03    -141.868E-03     11.1201E-03
            2379     2.34432E-03     6.35068E-03    -86.2946E+06    -209.175E+06    -75.3381E+06    -767.953E+03    -142.245E-03     283.909E-03    -141.665E-03     8.73545E-03    -142.267E-03     283.102E-03    -141.613E-03     8.37995E-03
            2380     1.56277E-03     6.34713E-03    -91.3945E+06    -222.325E+06    -86.8255E+06     198.602E+03    -141.680E-03     283.148E-03    -141.467E-03     5.89796E-03    -141.688E-03     282.294E-03    -141.447E-03     5.67078E-03
            2381     781.403E-06     6.34558E-03    -94.8755E+06    -231.178E+06    -93.4875E+06     598.097E+03    -141.426E-03     282.785E-03    -141.359E-03     3.21549E-03    -141.422E-03     281.900E-03    -141.354E-03     3.09615E-03
            2382     14.5599E-03     5.49603E-03    -3.40682E+06     95.2447E+06     95.8336E+06    -2.31735E+06    -195.029E-03     356.120E-03    -161.091E-03     42.6509E-03    -195.595E-03     356.734E-03    -160.745E-03     38.4966E-03
            2383     13.8201E-03     5.42863E-03    -7.19167E+06     96.0297E+06     89.5578E+06    -3.40097E+06    -195.944E-03     355.106E-03    -159.162E-03     43.0112E-03    -196.581E-03     355.799E-03    -158.843E-03     38.3275E-03
            2384     13.0810E-03     5.36656E-03    -13.4405E+06     85.9150E+06     78.8135E+06    -2.46146E+06    -193.029E-03     350.091E-03    -157.062E-03     36.6797E-03    -193.629E-03     350.720E-03    -156.773E-03     32.3094E-03
            2385     12.3389E-03     5.31115E-03    -21.4754E+06     71.4393E+06     70.0089E+06     145.559E+03    -187.304E-03     342.287E-03    -154.983E-03     31.5899E-03    -187.872E-03     342.831E-03    -154.705E-03     27.6302E-03
            2386     11.5912E-03     5.26618E-03    -29.0462E+06     48.4519E+06     61.5200E+06     504.464E+03    -180.357E-03     333.412E-03    -153.055E-03     28.6506E-03    -180.881E-03     333.827E-03    -152.775E-03     25.1521E-03
            2387     10.8374E-03     5.22936E-03    -33.7187E+06     29.6254E+06     57.3596E+06    -2.37321E+06    -173.427E-03     324.778E-03    -151.351E-03     27.7085E-03    -173.905E-03     325.076E-03    -151.058E-03     24.6775E-03
            2388     10.0785E-03     5.20022E-03    -36.5454E+06     8.66804E+06     52.0335E+06    -3.84786E+06    -167.149E-03     317.030E-03    -149.880E-03     27.5009E-03    -167.572E-03     317.203E-03    -149.580E-03     24.9209E-03
            2389     9.31450E-03     5.17664E-03    -40.4056E+06    -23.3928E+06     42.2463E+06    -4.66614E+06    -161.801E-03     310.442E-03    -148.640E-03     27.4006E-03    -162.154E-03     310.446E-03    -148.337E-03     25.2375E-03
            2390     8.54649E-03     5.15795E-03    -43.5214E+06    -48.2645E+06     32.8992E+06    -6.35173E+06    -157.422E-03     305.027E-03    -147.605E-03     26.8844E-03    -157.715E-03     304.900E-03    -147.308E-03     25.0642E-03
            2391     7.77581E-03     5.14239E-03    -46.1187E+06    -68.2091E+06     22.2231E+06    -8.73275E+06    -153.924E-03     300.667E-03    -146.743E-03     25.8006E-03    -154.165E-03     300.438E-03    -146.466E-03     24.2533E-03
            2392     7.00239E-03     5.12956E-03    -49.2474E+06    -89.4509E+06     8.31900E+06    -10.8869E+06    -151.249E-03     297.271E-03    -146.022E-03     24.2485E-03    -151.436E-03     296.942E-03    -145.779E-03     22.9233E-03
            2393     6.22781E-03     5.11935E-03    -52.8507E+06    -116.640E+06    -6.42825E+06    -11.3545E+06    -149.207E-03     294.638E-03    -145.431E-03     22.2127E-03    -149.337E-03     294.185E-03    -145.217E-03     21.0875E-03
            2394     5.45147E-03     5.11055E-03    -57.2707E+06    -137.646E+06    -21.7300E+06    -10.1277E+06    -147.562E-03     292.497E-03    -144.935E-03     19.7564E-03    -147.649E-03     291.955E-03    -144.761E-03     18.8181E-03
            2395     4.67428E-03     5.10349E-03    -62.0875E+06    -152.871E+06     -37.002E+06     -7.4301E+06    -146.287E-03     290.812E-03    -144.525E-03     17.1373E-03    -146.344E-03     290.213E-03    -144.398E-03     16.3842E-03
            2396     3.89620E-03     5.09778E-03    -68.2630E+06    -175.009E+06    -51.3100E+06    -3.92399E+06    -145.409E-03     289.612E-03    -144.203E-03     14.4590E-03    -145.435E-03     288.924E-03    -144.107E-03     13.8887E-03
            2397     3.11774E-03     5.09298E-03    -74.1756E+06    -196.098E+06    -62.7431E+06    -548.293E+03    -144.750E-03     288.694E-03    -143.944E-03     11.7000E-03    -144.753E-03     287.920E-03    -143.866E-03     11.2914E-03
            2398     2.33858E-03     5.08975E-03    -77.9019E+06    -211.484E+06     -70.817E+06     1.81741E+06    -144.197E-03     287.936E-03    -143.739E-03     8.90895E-03    -144.179E-03     287.096E-03    -143.673E-03     8.63934E-03
            2399     1.55956E-03     5.08776E-03    -80.4860E+06    -221.492E+06    -76.9864E+06     2.76444E+06    -143.780E-03     287.371E-03    -143.591E-03     6.03526E-03    -143.748E-03     286.489E-03    -143.538E-03     5.88142E-03
            2400     779.697E-06     5.08587E-03    -83.2711E+06    -227.431E+06    -81.7746E+06     2.15924E+06    -143.524E-03     287.050E-03    -143.526E-03     3.20516E-03    -143.487E-03     286.152E-03    -143.485E-03     3.12405E-03
            2401     14.5640E-03     4.13673E-03    -5.37847E+06     97.0728E+06     96.8992E+06    -3.37301E+06    -200.632E-03     361.606E-03    -160.974E-03     47.0805E-03    -201.246E-03     362.265E-03    -160.623E-03     42.7041E-03
            2402     13.8287E-03     4.07294E-03    -11.1095E+06     93.0299E+06     87.5258E+06    -2.69469E+06    -198.316E-03     357.140E-03    -158.824E-03     43.9300E-03    -198.984E-03     357.847E-03    -158.505E-03     39.1533E-03
            2403     13.0892E-03     4.02011E-03    -17.4285E+06     82.1528E+06     78.1044E+06     596.641E+03    -191.384E-03     348.081E-03    -156.698E-03     37.3811E-03    -191.997E-03     348.700E-03    -156.401E-03     33.1619E-03
            2404     12.3431E-03     3.97811E-03    -24.0663E+06     69.3348E+06     71.6752E+06     2.15701E+06    -182.964E-03     337.756E-03    -154.792E-03     34.4412E-03    -183.531E-03     338.277E-03    -154.499E-03     30.8676E-03
            2405     11.5905E-03     3.94648E-03    -28.7206E+06     57.6758E+06     62.6658E+06    -1.28675E+06    -175.141E-03     328.285E-03    -153.144E-03     33.3578E-03    -175.655E-03     328.721E-03    -152.873E-03     30.3598E-03
            2406     10.8321E-03     3.92127E-03    -32.7923E+06     36.3381E+06     52.8347E+06    -7.52354E+06    -168.639E-03     320.415E-03    -151.776E-03     32.8787E-03    -169.087E-03     320.723E-03    -151.517E-03     30.3671E-03
            2407     10.0687E-03     3.90144E-03    -36.2977E+06     6.63784E+06     42.7075E+06    -10.2329E+06    -163.487E-03     314.139E-03    -150.652E-03     31.7945E-03    -163.860E-03     314.283E-03    -150.395E-03     29.6893E-03
            2408     9.30200E-03     3.88585E-03    -37.6618E+06    -22.1343E+06     33.0150E+06    -10.5704E+06    -159.462E-03     309.180E-03    -149.718E-03     30.1732E-03    -159.759E-03     309.170E-03    -149.467E-03     28.4204E-03
            2409     8.53302E-03     3.87248E-03    -39.5869E+06    -46.9759E+06     19.6971E+06    -12.4178E+06    -156.303E-03     305.222E-03    -148.919E-03     28.1381E-03    -156.534E-03     305.088E-03    -148.695E-03     26.6463E-03
            2410     7.76183E-03     3.86200E-03    -41.5874E+06    -67.9664E+06     5.37923E+06    -13.7177E+06    -153.802E-03     302.039E-03    -148.238E-03     25.7904E-03    -153.974E-03     301.807E-03    -148.052E-03     24.5082E-03
            2411     6.98921E-03     3.85285E-03    -44.6654E+06    -92.7417E+06    -10.0799E+06    -12.8411E+06    -151.841E-03     299.506E-03    -147.665E-03     23.2199E-03    -151.956E-03     299.163E-03    -147.516E-03     22.1337E-03
            2412     6.21500E-03     3.84512E-03    -49.9586E+06    -121.924E+06    -25.0049E+06    -10.7003E+06    -150.323E-03     297.514E-03    -147.191E-03     20.5448E-03    -150.390E-03     297.043E-03    -147.067E-03     19.6344E-03
            2413     5.44038E-03     3.83891E-03    -54.8084E+06    -144.038E+06    -36.1264E+06    -8.17482E+06    -149.075E-03     295.873E-03    -146.798E-03     17.8817E-03    -149.111E-03     295.307E-03    -146.690E-03     17.1310E-03
            2414     4.66442E-03     3.83394E-03    -59.8263E+06    -161.533E+06    -46.1090E+06    -4.37409E+06    -148.073E-03     294.541E-03    -146.468E-03     15.2240E-03    -148.086E-03     293.902E-03    -146.377E-03     14.6397E-03
            2415     3.88802E-03     3.82930E-03    -64.4233E+06    -181.521E+06    -54.5726E+06    -452.190E+03    -147.259E-03     293.467E-03    -146.208E-03     12.5598E-03    -147.247E-03     292.740E-03    -146.125E-03     12.1303E-03
            2416     3.11089E-03     3.82606E-03    -67.4487E+06    -199.257E+06    -60.4079E+06     1.67419E+06    -146.599E-03     292.619E-03    -146.020E-03     9.94203E-03    -146.563E-03     291.812E-03    -145.935E-03     9.63085E-03
            2417     2.33344E-03     3.82352E-03    -69.8360E+06    -212.521E+06    -64.7102E+06     2.82862E+06    -146.205E-03     292.090E-03    -145.885E-03     7.42527E-03    -146.150E-03     291.221E-03    -145.799E-03     7.21521E-03
            2418     1.55558E-03     3.82168E-03    -71.8217E+06    -218.840E+06    -68.1545E+06     3.26228E+06    -145.967E-03     291.734E-03    -145.767E-03     5.02149E-03    -145.905E-03     290.837E-03    -145.686E-03     4.90073E-03
            2419     778.143E-06     3.82087E-03    -73.0777E+06    -220.822E+06    -71.8893E+06     2.41750E+06    -145.647E-03     291.396E-03    -145.749E-03     2.77334E-03    -145.581E-03     290.504E-03    -145.683E-03     2.71794E-03
            2420     14.5603E-03     2.76792E-03    -6.43694E+06     98.7931E+06     94.8319E+06    -1.30974E+06    -206.195E-03     367.520E-03    -161.325E-03     54.5732E-03    -206.841E-03     368.220E-03    -160.984E-03     50.2371E-03
            2421     13.8262E-03     2.71513E-03    -12.7901E+06     89.7655E+06     84.4107E+06    -398.631E+03    -197.967E-03     357.034E-03    -159.068E-03     46.5378E-03    -198.608E-03     357.706E-03    -158.757E-03     42.2609E-03
            2422     13.0845E-03     2.67941E-03    -18.1860E+06     80.6213E+06     72.9594E+06     145.797E+03    -187.487E-03     344.556E-03    -157.069E-03     40.5632E-03    -188.044E-03     345.125E-03    -156.795E-03     37.1045E-03
            2423     12.3340E-03     2.65309E-03    -20.7563E+06     72.9657E+06     62.1522E+06    -1.62869E+06    -178.663E-03     334.067E-03    -155.404E-03     37.6603E-03    -179.141E-03     334.552E-03    -155.169E-03     34.9532E-03
            2424     11.5771E-03     2.63282E-03    -23.4513E+06     64.2268E+06     43.1423E+06    -4.12375E+06    -171.946E-03     325.935E-03    -153.989E-03     34.7993E-03    -172.349E-03     326.359E-03    -153.833E-03     32.6536E-03
            2425     10.8159E-03     2.61699E-03    -27.8877E+06     43.0059E+06     25.6787E+06    -6.83473E+06    -166.778E-03     319.607E-03    -152.829E-03     31.8169E-03    -167.113E-03     319.921E-03    -152.722E-03     30.0744E-03
            2426     10.0521E-03     2.60407E-03    -33.2954E+06     8.69847E+06     11.4904E+06    -11.4619E+06    -162.812E-03     314.693E-03    -151.882E-03     28.8117E-03    -163.078E-03     314.839E-03    -151.789E-03     27.3296E-03
            2427     9.28603E-03     2.59353E-03    -37.3277E+06    -22.4297E+06    -357.887E+03    -15.0355E+06    -159.721E-03     310.798E-03    -151.077E-03     25.8799E-03    -159.928E-03     310.794E-03    -150.992E-03     24.5838E-03
            2428     8.51765E-03     2.58522E-03    -39.1040E+06    -47.8382E+06    -10.5647E+06    -15.6693E+06    -157.179E-03     307.560E-03    -150.381E-03     23.0820E-03    -157.330E-03     307.432E-03    -150.308E-03     21.9611E-03
            2429     7.74775E-03     2.57784E-03      -42.27E+06    -73.4351E+06    -21.6502E+06    -13.8607E+06    -155.109E-03     304.888E-03    -149.778E-03     20.4223E-03    -155.213E-03     304.643E-03    -149.719E-03     19.4723E-03
            2430     6.97646E-03     2.57199E-03    -46.7155E+06    -101.087E+06    -30.8692E+06    -9.81529E+06    -153.372E-03     302.645E-03    -149.273E-03     17.9459E-03    -153.436E-03     302.273E-03    -149.213E-03     17.1713E-03
            2431     6.20415E-03     2.56681E-03    -50.8889E+06    -127.651E+06    -38.0154E+06    -6.22279E+06    -151.904E-03     300.756E-03    -148.853E-03     15.6077E-03    -151.933E-03     300.262E-03    -148.784E-03     14.9826E-03
            2432     5.43017E-03     2.56274E-03    -55.6940E+06    -149.890E+06    -44.7364E+06    -3.89094E+06    -150.778E-03     299.272E-03    -148.494E-03     13.3868E-03    -150.786E-03     298.680E-03    -148.419E-03     12.8796E-03
            2433     4.65610E-03     2.55900E-03    -59.3975E+06    -168.772E+06    -50.1944E+06    -1.37920E+06    -149.852E-03     298.039E-03    -148.187E-03     11.3036E-03    -149.839E-03     297.361E-03    -148.107E-03     10.9093E-03
            2434     3.88111E-03     2.55633E-03    -61.2436E+06    -185.358E+06    -54.0269E+06     887.281E+03    -149.023E-03     296.961E-03    -147.938E-03     9.25561E-03    -148.985E-03     296.204E-03    -147.850E-03     8.96005E-03
            2435     3.10547E-03     2.55405E-03    -62.6019E+06    -200.774E+06    -56.8579E+06     2.48921E+06    -148.399E-03     296.148E-03    -147.749E-03     7.26754E-03    -148.340E-03     295.318E-03    -147.651E-03     7.06062E-03
            2436     2.32944E-03     2.55223E-03    -64.0025E+06    -211.490E+06    -59.2544E+06     3.13704E+06    -147.954E-03     295.560E-03    -147.606E-03     5.34568E-03    -147.879E-03     294.679E-03    -147.503E-03     5.21126E-03
            2437     1.55327E-03     2.55093E-03    -65.0111E+06    -214.911E+06    -61.6032E+06     2.51401E+06    -147.631E-03     295.132E-03    -147.502E-03     3.50937E-03    -147.550E-03     294.237E-03    -147.404E-03     3.41923E-03
            2438     776.379E-06     2.55026E-03    -65.9340E+06    -215.690E+06    -64.3892E+06     1.37497E+06    -147.366E-03     294.909E-03    -147.543E-03     1.86721E-03    -147.278E-03     294.021E-03    -147.457E-03     1.81488E-03
            2439     14.5468E-03     1.38994E-03    -4.37291E+06     100.191E+06     94.9424E+06    -158.280E+03    -214.847E-03     377.521E-03    -162.673E-03     62.9789E-03    -215.454E-03     378.195E-03    -162.338E-03     59.2356E-03
            2440     13.8127E-03     1.36169E-03    -10.0716E+06     91.8301E+06     81.0554E+06     1.20572E+06    -199.497E-03     359.690E-03    -160.193E-03     47.2966E-03    -199.997E-03     360.248E-03    -159.907E-03     44.4758E-03
            2441     13.0665E-03     1.34400E-03    -15.0750E+06     84.0362E+06     60.3713E+06    -1.27807E+06    -187.709E-03     345.865E-03    -158.156E-03     36.9320E-03    -188.114E-03     346.341E-03    -157.954E-03     34.9404E-03
            2442     12.3147E-03     1.32986E-03    -18.7736E+06     75.6478E+06     40.9437E+06    -3.17464E+06    -179.275E-03     335.768E-03    -156.492E-03     29.6545E-03    -179.613E-03     336.189E-03    -156.370E-03     28.2137E-03
            2443     11.5593E-03     1.31888E-03    -23.4238E+06     63.2492E+06     15.9906E+06    -2.48684E+06    -172.936E-03     328.017E-03    -155.080E-03     24.0105E-03    -173.217E-03     328.393E-03    -155.058E-03     22.9168E-03
            2444     10.8006E-03     1.31042E-03    -27.6308E+06     46.6372E+06    -7.54701E+06    -2.73412E+06    -168.028E-03     321.918E-03    -153.890E-03     19.9077E-03    -168.256E-03     322.235E-03    -153.955E-03     19.0258E-03
            2445     10.0383E-03     1.30370E-03    -31.5471E+06     17.2073E+06    -24.3881E+06    -6.63793E+06    -164.141E-03     317.058E-03    -152.918E-03     16.9482E-03    -164.310E-03     317.248E-03    -153.019E-03     16.1775E-03
            2446     9.27324E-03     1.29807E-03    -36.2392E+06    -20.9628E+06    -34.7631E+06    -11.7893E+06    -161.044E-03     313.171E-03    -152.127E-03     14.6349E-03    -161.160E-03     313.185E-03    -152.218E-03     13.9091E-03
            2447     8.50656E-03     1.29371E-03    -41.5245E+06    -53.4712E+06    -38.4835E+06    -11.9425E+06    -158.523E-03     309.995E-03    -151.473E-03     12.7782E-03    -158.609E-03     309.856E-03    -151.527E-03     12.1411E-03
            2448     7.73790E-03     1.29010E-03    -46.8231E+06    -81.7389E+06    -41.7474E+06    -8.21512E+06    -156.424E-03     307.332E-03    -150.908E-03     11.2179E-03    -156.488E-03     307.061E-03    -150.930E-03     10.7104E-03
            2449     6.96771E-03     1.28705E-03    -51.3514E+06    -108.728E+06    -44.0937E+06    -5.03199E+06    -154.682E-03     305.108E-03    -150.427E-03     9.73972E-03    -154.723E-03     304.709E-03    -150.415E-03     9.33410E-03
            2450     6.19599E-03     1.28472E-03    -54.4293E+06    -132.536E+06    -45.5816E+06    -2.47751E+06    -153.238E-03     303.253E-03    -150.015E-03     8.41023E-03    -153.256E-03     302.739E-03    -149.972E-03     8.09430E-03
            2451     5.42392E-03     1.28233E-03    -56.9647E+06    -153.342E+06    -48.5450E+06    -668.903E+03    -152.036E-03     301.691E-03    -149.655E-03     7.19010E-03    -152.031E-03     301.080E-03    -149.593E-03     6.94681E-03
            2452     4.65038E-03     1.28059E-03    -59.1736E+06    -171.506E+06    -51.2069E+06     181.303E+03    -151.037E-03     300.391E-03    -149.354E-03     6.00990E-03    -151.011E-03     299.694E-03    -149.275E-03     5.81331E-03
            2453     3.87627E-03     1.27922E-03    -60.3284E+06    -187.375E+06    -53.1205E+06     888.259E+03    -150.253E-03     299.358E-03    -149.105E-03     4.92760E-03    -150.206E-03     298.585E-03    -149.011E-03     4.77679E-03
            2454     3.10177E-03     1.27809E-03    -61.2578E+06    -201.366E+06    -54.8702E+06     1.75049E+06    -149.641E-03     298.542E-03    -148.901E-03     3.93829E-03    -149.574E-03     297.702E-03    -148.795E-03     3.83994E-03
            2455     2.32680E-03     1.27713E-03    -61.9322E+06    -209.586E+06    -56.9421E+06     1.89451E+06    -149.143E-03     297.876E-03    -148.734E-03     2.93520E-03    -149.061E-03     296.996E-03    -148.625E-03     2.87286E-03
            2456     1.55123E-03     1.27657E-03    -62.4934E+06    -211.897E+06    -59.1925E+06     1.18941E+06    -148.780E-03     297.387E-03    -148.607E-03     1.93786E-03    -148.692E-03     296.498E-03    -148.505E-03     1.89617E-03
            2457     775.909E-06     1.27611E-03    -63.4202E+06    -212.957E+06    -62.0242E+06     578.558E+03    -148.470E-03     297.106E-03    -148.636E-03     1.02550E-03    -148.372E-03     296.221E-03    -148.545E-03     1.00591E-03


