********************************************************************************
Field Output Report, written Wed May 29 00:09:00 2024

Source 1
---------

   ODB: G:/Abaqus_calc_2019/1740/Vel_5/odb/zeides_2a_16_red_2500_cal_50_vel_5_fric_025.odb
   Step: Step-1
   Frame: Increment  36785996: Step Time =    3.617

Loc 1 : Nodal values from source 1

Output sorted by column "Nodal Label".

Field Output reported at nodes for region: DIE_2A_16_D0_36-1.Region_1
   Computation algorithm: EXTRAPOLATE_COMPUTE_AVERAGE
   Averaged at nodes
   Averaging regions: ODB_REGIONS

      Node Label     COORD.COOR1     COORD.COOR2
                          @Loc 1          @Loc 1
-------------------------------------------------
               1     15.3788E-03     213.962E-03


Field Output reported at nodes for region: DIE_2A_16_D0_36-1.Region_2
   Computation algorithm: EXTRAPOLATE_COMPUTE_AVERAGE
   Averaged at nodes
   Averaging regions: ODB_REGIONS

      Node Label     COORD.COOR1     COORD.COOR2
                          @Loc 1          @Loc 1
-------------------------------------------------
               1     15.3788E-03     213.962E-03


Field Output reported at nodes for part: WIRE-1
   Computation algorithm: EXTRAPOLATE_COMPUTE_AVERAGE
   Averaged at nodes
   Averaging regions: ODB_REGIONS

      Node Label     COORD.COOR1     COORD.COOR2           S.S11           S.S22           S.S33           S.S12         PE.PE11         PE.PE22         PE.PE33         PE.PE12         LE.LE11         LE.LE22         LE.LE33         LE.LE12
                          @Loc 1          @Loc 1          @Loc 1          @Loc 1          @Loc 1          @Loc 1          @Loc 1          @Loc 1          @Loc 1          @Loc 1          @Loc 1          @Loc 1          @Loc 1          @Loc 1
-------------------------------------------------------------------------------------------------------------------------------------------------------------------------------------------------------------------------------------------------
               1     59.7765E-09     97.2998E-03    -133.304E+06    -252.950E+06    -133.454E+06    -36.0517E+03    -289.734E-03     579.357E-03    -289.623E-03     3.27163E-03    -289.840E-03     578.479E-03    -289.730E-03     3.29201E-03
               2     13.4806E-03     98.7575E-03    -60.2409E+03     79.1312E+06     95.1774E+06     278.051E+03    -288.251E-03     577.822E-03    -289.571E-03     46.7284E-03    -289.081E-03     578.656E-03    -289.210E-03     33.5955E-03
               3     13.5030E-03     196.943E-03    -39.7357E+06     37.6232E+06     52.9943E+06    -23.8745E+06    -245.099E-03     533.268E-03    -288.170E-03    -12.1890E-03    -245.455E-03     533.514E-03    -287.901E-03    -9.50032E-03
               4     1.00672E-06     195.016E-03     42.4573E+06    -19.8036E+06     32.6176E+06    -6.03568E+06    -296.935E-03     590.373E-03    -293.438E-03    -14.8726E-03    -296.779E-03     590.113E-03    -293.308E-03    -15.7923E-03
               5    -564.781E-09    -11.0606E-15    -63.5995E+06    -244.773E+06    -63.9926E+06    -398.037E+03    -255.381E-03     512.266E-03    -256.885E-03     722.310E-06    -255.251E-03     511.227E-03    -256.758E-03     646.494E-06
               6     13.3313E-03    -11.0606E-15     1.72839E+06     95.2506E+06     108.965E+06     3.88062E+06    -464.338E-03     757.120E-03    -292.782E-03     143.912E-03    -466.512E-03     759.317E-03    -292.378E-03     120.785E-03
               7     673.566E-06     97.3058E-03    -132.231E+06    -249.264E+06    -129.962E+06     7.19092E+03    -289.701E-03     579.357E-03    -289.656E-03     5.42649E-03    -289.813E-03     578.491E-03    -289.752E-03     5.46070E-03
               8     1.34716E-03     97.3196E-03    -128.932E+06    -239.035E+06    -120.110E+06     47.3275E+03    -289.664E-03     579.364E-03    -289.700E-03     9.97506E-03    -289.791E-03     578.533E-03    -289.767E-03     10.0130E-03
               9     2.02081E-03     97.3422E-03    -123.667E+06    -223.683E+06    -105.530E+06     56.9368E+03    -289.670E-03     579.398E-03    -289.729E-03     14.8527E-03    -289.817E-03     578.619E-03    -289.753E-03     14.8439E-03
              10     2.69449E-03     97.3737E-03    -116.892E+06    -204.392E+06    -87.8471E+06     148.604E+03    -289.681E-03     579.444E-03    -289.762E-03     19.8789E-03    -289.855E-03     578.731E-03    -289.736E-03     19.7472E-03
              11     3.36815E-03     97.4144E-03    -109.260E+06    -186.151E+06    -68.7827E+06     206.281E+03    -289.687E-03     579.485E-03    -289.798E-03     24.9864E-03    -289.886E-03     578.835E-03    -289.714E-03     24.6193E-03
              12     4.04186E-03     97.4637E-03    -100.829E+06    -163.999E+06    -49.8777E+06     225.901E+03    -289.724E-03     579.546E-03    -289.822E-03     30.2356E-03    -289.955E-03     578.982E-03    -289.688E-03     29.5143E-03
              13     4.71559E-03     97.5223E-03    -92.1797E+06    -138.447E+06    -32.1175E+06     120.292E+03    -289.808E-03     579.645E-03    -289.836E-03     35.6541E-03    -290.080E-03     579.191E-03    -289.663E-03     34.4311E-03
              14     5.38931E-03     97.5894E-03    -83.6841E+06    -114.348E+06    -15.6320E+06     63.2858E+03    -289.858E-03     579.704E-03    -289.846E-03     41.1748E-03    -290.176E-03     579.364E-03    -289.637E-03     39.3005E-03
              15     6.06329E-03     97.6656E-03    -75.0001E+06    -87.2965E+06     164.974E+03     72.0588E+03    -289.891E-03     579.735E-03    -289.844E-03     46.6866E-03    -290.267E-03     579.534E-03    -289.608E-03     44.0110E-03
              16     6.73709E-03     97.7494E-03    -66.3788E+06    -57.5637E+06     15.1147E+06    -281.629E+03    -289.938E-03     579.768E-03    -289.830E-03     52.0843E-03    -290.387E-03     579.733E-03    -289.575E-03     48.4371E-03
              17     7.41115E-03     97.8412E-03    -57.6867E+06    -22.0534E+06     29.7545E+06    -816.844E+03    -289.922E-03     579.726E-03    -289.803E-03     57.2748E-03    -290.466E-03     579.900E-03    -289.539E-03     52.4789E-03
              18     8.08524E-03     97.9396E-03    -49.3224E+06     17.6759E+06     44.0911E+06    -778.575E+03    -289.864E-03     579.629E-03    -289.765E-03     62.3723E-03    -290.527E-03     580.052E-03    -289.498E-03     56.2723E-03
              19     8.75960E-03     98.0450E-03    -42.3028E+06     39.8359E+06     54.7770E+06    -375.830E+03    -289.820E-03     579.552E-03    -289.732E-03     67.1176E-03    -290.597E-03     580.161E-03    -289.454E-03     59.5615E-03
              20     9.43351E-03     98.1549E-03    -36.3038E+06     42.5271E+06     62.7618E+06    -297.919E+03    -289.810E-03     579.525E-03    -289.715E-03     71.0497E-03    -290.689E-03     580.244E-03    -289.410E-03     61.8937E-03
              21     10.1081E-03     98.2683E-03    -29.5867E+06     43.7931E+06     71.3556E+06     461.501E+03    -289.817E-03     579.525E-03    -289.708E-03     73.9464E-03    -290.804E-03     580.355E-03    -289.372E-03     63.1306E-03
              22     10.7821E-03     98.3830E-03    -22.6524E+06     47.1113E+06     77.8812E+06     1.67296E+06    -289.727E-03     579.422E-03    -289.695E-03     75.1619E-03    -290.818E-03     580.374E-03    -289.341E-03     62.6969E-03
              23     11.4560E-03     98.4947E-03    -17.0848E+06     63.5805E+06     87.7395E+06     1.38616E+06    -289.317E-03     578.999E-03    -289.682E-03     73.4784E-03    -290.499E-03     580.092E-03    -289.311E-03     59.6662E-03
              24     12.1300E-03     98.5978E-03    -10.9069E+06     76.5129E+06     95.4464E+06     71.2638E+03    -288.696E-03     578.351E-03    -289.655E-03     72.8074E-03    -290.054E-03     579.665E-03    -289.273E-03     56.7224E-03
              25     12.8048E-03     98.6983E-03    -3.58478E+06     77.2658E+06     95.2907E+06    -125.526E+03    -288.322E-03     577.922E-03    -289.600E-03     60.3163E-03    -289.483E-03     579.068E-03    -289.230E-03     44.8379E-03
              26     13.4789E-03     100.450E-03    -3.07342E+06     79.6156E+06     95.0977E+06     351.295E+03    -289.071E-03     578.662E-03    -289.591E-03     45.3221E-03    -289.907E-03     579.494E-03    -289.227E-03     32.1512E-03
              27     13.4781E-03     102.142E-03    -2.54266E+06     79.1052E+06     94.1322E+06     198.518E+03    -288.895E-03     578.535E-03    -289.640E-03     45.6298E-03    -289.733E-03     579.372E-03    -289.280E-03     32.3870E-03
              28     13.4788E-03     103.831E-03    -2.31390E+06     80.1240E+06     93.7768E+06     1.00604E+06    -288.332E-03     577.974E-03    -289.642E-03     46.3440E-03    -289.178E-03     578.824E-03    -289.286E-03     33.0747E-03
              29     13.4786E-03     105.523E-03    -3.06124E+06     80.8768E+06     94.6395E+06    -489.745E+03    -288.454E-03     578.089E-03    -289.635E-03     46.0572E-03    -289.303E-03     578.940E-03    -289.274E-03     32.7757E-03
              30     13.4787E-03     107.214E-03    -1.85264E+06     78.2296E+06     93.4646E+06    -746.107E+03    -288.494E-03     578.123E-03    -289.629E-03     46.2280E-03    -289.331E-03     578.961E-03    -289.273E-03     32.9591E-03
              31     13.4787E-03     108.905E-03    -2.59472E+06     76.4056E+06     94.1207E+06     259.667E+03    -288.629E-03     578.261E-03    -289.631E-03     46.3009E-03    -289.471E-03     579.091E-03    -289.268E-03     33.0267E-03
              32     13.4787E-03     110.597E-03    -1.95928E+06     77.9945E+06     95.0632E+06     435.765E+03    -288.491E-03     578.127E-03    -289.636E-03     46.4173E-03    -289.334E-03     578.965E-03    -289.271E-03     33.1315E-03
              33     13.4788E-03     112.288E-03    -2.89713E+06     80.6915E+06     94.2934E+06     722.356E+03    -288.302E-03     577.933E-03    -289.631E-03     46.4612E-03    -289.152E-03     578.786E-03    -289.272E-03     33.2123E-03
              34     13.4788E-03     113.977E-03    -2.20881E+06     83.9276E+06     95.4881E+06     457.167E+03    -288.441E-03     578.056E-03    -289.615E-03     45.8471E-03    -289.287E-03     578.916E-03    -289.257E-03     32.6150E-03
              35     13.4793E-03     115.668E-03    -2.74879E+06     85.6338E+06     95.5571E+06     171.059E+03    -288.537E-03     578.137E-03    -289.600E-03     45.4311E-03    -289.386E-03     579.004E-03    -289.243E-03     32.1716E-03
              36     13.4789E-03     117.360E-03    -2.32931E+06     86.1047E+06     96.1430E+06    -21.6525E+03    -288.704E-03     578.311E-03    -289.607E-03     45.5540E-03    -289.558E-03     579.183E-03    -289.247E-03     32.2313E-03
              37     13.4788E-03     119.051E-03    -2.75895E+06     84.1015E+06     94.6974E+06     -781.69E+03    -288.744E-03     578.364E-03    -289.620E-03     45.6898E-03    -289.598E-03     579.232E-03    -289.265E-03     32.3256E-03
              38     13.4784E-03     120.743E-03    -1.69961E+06     82.0321E+06     92.7945E+06    -383.164E+03    -288.116E-03     577.713E-03    -289.596E-03     46.7331E-03    -288.965E-03     578.578E-03    -289.249E-03     33.4114E-03
              39     13.4809E-03     122.431E-03    -1.47724E+06     84.5465E+06     95.8547E+06     374.375E+03    -288.234E-03     577.776E-03    -289.542E-03     47.1782E-03    -289.092E-03     578.651E-03    -289.183E-03     33.8800E-03
              40     13.4796E-03     124.125E-03    -3.25729E+06     84.9225E+06     97.4564E+06    -10.7860E+03    -289.067E-03     578.604E-03    -289.537E-03     45.7116E-03    -289.921E-03     579.465E-03    -289.168E-03     32.4752E-03
              41     13.4794E-03     125.817E-03    -2.83154E+06     84.0569E+06     96.0652E+06     66.3559E+03    -288.308E-03     577.868E-03    -289.560E-03     46.2538E-03    -289.162E-03     578.731E-03    -289.197E-03     33.0177E-03
              42     13.4806E-03     127.504E-03    -1.35843E+06     84.7795E+06     97.1029E+06    -580.178E+03    -288.192E-03     577.744E-03    -289.552E-03     46.2551E-03    -289.046E-03     578.613E-03    -289.188E-03     32.9180E-03
              43     13.4790E-03     129.197E-03    -3.19256E+06     82.9040E+06     95.3291E+06     165.346E+03    -289.159E-03     578.725E-03    -289.567E-03     44.8342E-03    -290.002E-03     579.575E-03    -289.206E-03     31.5553E-03
              44     13.4787E-03     130.889E-03    -2.98741E+06     83.2131E+06     95.0100E+06     660.632E+03    -288.472E-03     578.057E-03    -289.584E-03     46.2902E-03    -289.326E-03     578.919E-03    -289.226E-03     33.0347E-03
              45     13.4809E-03     132.578E-03    -1.31567E+06     87.6529E+06     97.9884E+06     627.147E+03    -288.239E-03     577.783E-03    -289.544E-03     46.8996E-03    -289.101E-03     578.668E-03    -289.180E-03     33.6146E-03
              46     13.4796E-03     134.272E-03    -4.13193E+06     89.7828E+06     97.1707E+06    -621.948E+03    -289.022E-03     578.553E-03    -289.532E-03     45.5201E-03    -289.888E-03     579.442E-03    -289.170E-03     32.2254E-03
              47     13.4794E-03     135.962E-03    -2.72717E+06     89.8952E+06     96.5446E+06    -1.25987E+06    -288.578E-03     578.127E-03    -289.548E-03     46.1386E-03    -289.442E-03     579.020E-03    -289.192E-03     32.8391E-03
              48     13.4806E-03     137.652E-03    -2.29942E+06     89.4402E+06     98.1165E+06     706.203E+03    -288.448E-03     578.001E-03    -289.553E-03     46.2299E-03    -289.305E-03     578.883E-03    -289.189E-03     33.0863E-03
              49     13.4788E-03     139.346E-03    -3.33540E+06     90.7268E+06     98.8013E+06     2.20350E+06    -288.625E-03     578.188E-03    -289.563E-03     46.2600E-03    -289.481E-03     579.068E-03    -289.196E-03     33.3001E-03
              50     13.4806E-03     141.035E-03    -1.95143E+06     95.4850E+06     101.291E+06     874.104E+03    -288.225E-03     577.789E-03    -289.564E-03     46.5689E-03    -289.095E-03     578.698E-03    -289.193E-03     33.4509E-03
              51     13.4794E-03     142.725E-03    -1.80633E+06     95.7913E+06     102.377E+06    -625.933E+03    -288.354E-03     577.925E-03    -289.571E-03     45.5330E-03    -289.226E-03     578.834E-03    -289.196E-03     32.2261E-03
              52     13.4796E-03     144.416E-03    -2.65837E+06     95.0917E+06     101.057E+06     634.026E+03    -288.256E-03     577.840E-03    -289.585E-03     45.8254E-03    -289.130E-03     578.750E-03    -289.213E-03     32.5760E-03
              53     13.4796E-03     146.107E-03    -2.49800E+06     99.6678E+06     103.030E+06     1.21824E+06    -287.990E-03     577.576E-03    -289.586E-03     46.0622E-03    -288.877E-03     578.509E-03    -289.212E-03     32.7954E-03
              54     13.4798E-03     147.797E-03    -2.66812E+06     106.098E+06     105.674E+06     1.38750E+06    -287.672E-03     577.248E-03    -289.575E-03     46.1760E-03    -288.575E-03     578.211E-03    -289.197E-03     32.9071E-03
              55     13.4806E-03     149.486E-03    -2.99997E+06     111.351E+06     106.885E+06     793.607E+03    -286.890E-03     576.427E-03    -289.538E-03     46.6151E-03    -287.806E-03     577.418E-03    -289.160E-03     33.3738E-03
              56     13.4817E-03     151.173E-03    -2.78481E+06     113.185E+06     106.355E+06     157.555E+03    -286.132E-03     575.601E-03    -289.469E-03     46.8229E-03    -287.052E-03     576.604E-03    -289.097E-03     33.5735E-03
              57     13.4830E-03     152.860E-03    -2.94053E+06     113.027E+06     106.484E+06    -117.968E+03    -285.735E-03     575.128E-03    -289.393E-03     46.7825E-03    -286.659E-03     576.134E-03    -289.020E-03     33.4897E-03
              58     13.4839E-03     154.546E-03    -2.29648E+06     114.317E+06     107.098E+06     561.356E+03    -284.953E-03     574.249E-03    -289.295E-03     47.1486E-03    -285.882E-03     575.265E-03    -288.922E-03     33.8363E-03
              59     13.4871E-03     156.229E-03    -2.54478E+06     117.256E+06     108.444E+06    -65.8842E+03    -284.071E-03     573.240E-03    -289.169E-03     47.4337E-03    -285.013E-03     574.275E-03    -288.793E-03     34.0684E-03
              60     13.4879E-03     157.912E-03    -3.85222E+06     121.760E+06     111.768E+06     7.07225E+03    -283.834E-03     572.875E-03    -289.041E-03     47.3756E-03    -284.790E-03     573.925E-03    -288.653E-03     34.0796E-03
              61     13.4907E-03     159.595E-03    -2.40826E+06     128.423E+06     116.147E+06     1.60031E+06    -283.384E-03     572.321E-03    -288.937E-03     46.9405E-03    -284.337E-03     573.384E-03    -288.539E-03     33.8292E-03
              62     13.4908E-03     161.276E-03    -2.56182E+06     128.456E+06     117.285E+06     644.239E+03    -282.424E-03     571.285E-03    -288.861E-03     46.5263E-03    -283.379E-03     572.347E-03    -288.457E-03     33.3749E-03
              63     13.4934E-03     162.953E-03    -2.88264E+06     126.082E+06     117.731E+06    -283.494E+03    -281.676E-03     570.446E-03    -288.771E-03     47.0488E-03    -282.641E-03     571.507E-03    -288.361E-03     33.7823E-03
              64     13.4943E-03     164.632E-03    -4.26397E+06     130.634E+06     119.979E+06     618.029E+03    -281.888E-03     570.560E-03    -288.672E-03     46.6495E-03    -282.858E-03     571.631E-03    -288.255E-03     33.5292E-03
              65     13.4951E-03     166.313E-03    -2.80771E+06     136.133E+06     122.314E+06     2.88633E+06    -281.334E-03     569.941E-03    -288.606E-03     46.2126E-03    -282.298E-03     571.023E-03    -288.188E-03     33.2610E-03
              66     13.4969E-03     167.987E-03    -3.70470E+06     140.066E+06     125.004E+06     1.31060E+06    -280.547E-03     569.101E-03    -288.554E-03     46.1364E-03    -281.538E-03     570.214E-03    -288.127E-03     32.9533E-03
              67     13.4967E-03     169.664E-03    -2.43610E+06     142.587E+06     127.616E+06    -60.9734E+03    -281.072E-03     569.582E-03    -288.510E-03     45.3639E-03    -282.065E-03     570.702E-03    -288.075E-03     32.0300E-03
              68     13.4972E-03     171.342E-03    -4.06796E+06     141.310E+06     125.840E+06    -507.768E+03    -281.288E-03     569.749E-03    -288.462E-03     45.9189E-03    -282.281E-03     570.864E-03    -288.031E-03     32.6898E-03
              69     13.4985E-03     173.019E-03    -2.22479E+06     139.900E+06     127.716E+06     378.285E+03    -281.104E-03     569.481E-03    -288.377E-03     46.9839E-03    -282.089E-03     570.584E-03    -287.938E-03     33.8778E-03
              70     13.5007E-03     174.696E-03    -4.53326E+06     140.622E+06     131.483E+06     352.315E+03    -281.340E-03     569.598E-03    -288.258E-03     47.3542E-03    -282.338E-03     570.697E-03    -287.798E-03     34.3646E-03
              71     13.5020E-03     176.374E-03    -2.72379E+06     139.640E+06     134.526E+06    -352.079E+03    -282.355E-03     570.476E-03    -288.121E-03     47.6141E-03    -283.340E-03     571.557E-03    -287.647E-03     34.7100E-03
              72     13.5038E-03     178.054E-03    -5.22200E+06     131.790E+06     132.420E+06    -2.52512E+06    -284.501E-03     572.477E-03    -287.977E-03     47.5773E-03    -285.473E-03     573.515E-03    -287.498E-03     34.7208E-03
              73     13.5039E-03     179.738E-03    -787.989E+03     126.113E+06     130.705E+06     559.163E+03    -287.973E-03     575.791E-03    -287.818E-03     47.8405E-03    -288.897E-03     576.781E-03    -287.346E-03     35.2051E-03
              74     13.5053E-03     181.430E-03    -9.54710E+06     121.567E+06     124.417E+06    -331.599E+03    -292.510E-03     580.152E-03    -287.642E-03     48.6394E-03    -293.446E-03     581.125E-03    -287.183E-03     36.2095E-03
              75     13.5049E-03     183.130E-03     2.15340E+06     112.381E+06     125.025E+06    -4.62285E+06    -298.517E-03     585.952E-03    -287.436E-03     50.5744E-03    -299.367E-03     586.846E-03    -286.977E-03     38.3765E-03
              76     13.5073E-03     184.841E-03    -3.71035E+06     96.7182E+06     118.617E+06    -3.81840E+06    -306.097E-03     593.305E-03    -287.207E-03     50.9954E-03    -306.912E-03     594.106E-03    -286.749E-03     39.2372E-03
              77     13.5049E-03     186.567E-03    -5.77557E+06     76.2823E+06     113.952E+06    -1.86505E+06    -312.679E-03     599.697E-03    -287.018E-03     51.1318E-03    -313.446E-03     600.384E-03    -286.551E-03     39.5835E-03
              78     13.5092E-03     188.296E-03    -3.02336E+06     53.8076E+06     116.890E+06    -7.13998E+06    -319.626E-03     606.457E-03    -286.831E-03     52.8206E-03    -320.338E-03     607.011E-03    -286.320E-03     41.4297E-03
              79     13.5063E-03     190.048E-03    -121.418E+03     35.7710E+06     121.043E+06     309.992E+03    -326.580E-03     613.211E-03    -286.631E-03     52.1475E-03    -327.211E-03     613.617E-03    -286.077E-03     41.5790E-03
              80     13.5117E-03     191.800E-03    -7.54972E+06     30.5859E+06     120.859E+06    -2.07785E+06    -329.669E-03     616.145E-03    -286.475E-03     50.8818E-03    -330.254E-03     616.461E-03    -285.905E-03     41.7508E-03
              81     13.5090E-03     193.561E-03     4.91240E+06     30.4047E+06     119.042E+06     1.76023E+06    -329.233E-03     615.532E-03    -286.299E-03     51.3581E-03    -329.595E-03     615.676E-03    -285.755E-03     46.5601E-03
              82     13.5180E-03     195.320E-03     15.4831E+06     34.5573E+06     92.8680E+06     1.06037E+06    -286.688E-03     573.867E-03    -287.179E-03     19.8672E-03    -286.838E-03     573.951E-03    -286.787E-03     20.6067E-03
              83     12.7550E-03     196.822E-03    -31.6601E+06    -15.9432E+06     63.1280E+06    -12.7071E+06    -240.597E-03     529.907E-03    -289.310E-03    -53.2941E-03    -240.852E-03     529.897E-03    -288.926E-03    -51.3952E-03
              84     12.0131E-03     196.671E-03    -18.1043E+06    -13.3013E+06     96.9949E+06    -1.85373E+06    -233.156E-03     524.619E-03    -291.463E-03    -128.715E-03    -233.442E-03     524.615E-03    -290.932E-03    -127.584E-03
              85     11.2994E-03     196.509E-03    -7.08296E+06     13.2296E+06     114.117E+06    -3.43397E+06    -229.547E-03     522.937E-03    -293.390E-03    -180.401E-03    -229.906E-03     523.052E-03    -292.828E-03    -179.277E-03
              86     10.5989E-03     196.349E-03    -1.95856E+06    -2.66052E+06     111.918E+06    -6.40738E+06    -230.438E-03     525.592E-03    -295.154E-03    -207.394E-03    -230.781E-03     525.627E-03    -294.587E-03    -206.312E-03
              87     9.90858E-03     196.194E-03    -1.80109E+06     2.85049E+06     114.996E+06    -8.61494E+06    -235.554E-03     532.278E-03    -296.725E-03    -222.530E-03    -235.929E-03     532.331E-03    -296.151E-03    -221.484E-03
              88     9.22670E-03     196.046E-03    -422.298E+03    -678.208E+03     114.816E+06    -10.9838E+06    -243.251E-03     541.243E-03    -297.992E-03    -230.424E-03    -243.607E-03     541.249E-03    -297.416E-03    -229.537E-03
              89     8.55255E-03     195.905E-03     1.63982E+06    -1.43198E+06     113.507E+06    -13.2649E+06    -251.513E-03     550.418E-03    -298.905E-03    -232.259E-03    -251.824E-03     550.369E-03    -298.338E-03    -231.654E-03
              90     7.88473E-03     195.773E-03     4.47469E+06    -4.67502E+06     110.176E+06    -14.3373E+06    -259.635E-03     559.125E-03    -299.489E-03    -228.512E-03    -259.881E-03     559.000E-03    -298.938E-03    -228.234E-03
              91     7.22192E-03     195.651E-03     7.50414E+06    -4.57723E+06     106.627E+06    -14.9983E+06    -267.387E-03     567.166E-03    -299.779E-03    -219.983E-03    -267.568E-03     566.983E-03    -299.250E-03    -220.053E-03
              92     6.56261E-03     195.539E-03     10.4383E+06    -5.31243E+06     102.212E+06    -15.1284E+06    -274.373E-03     574.181E-03    -299.808E-03    -207.678E-03    -274.493E-03     573.948E-03    -299.304E-03    -208.066E-03
              93     5.90574E-03     195.439E-03     13.5342E+06    -4.51993E+06     97.5580E+06    -15.4808E+06    -280.218E-03     579.839E-03    -299.622E-03    -192.511E-03    -280.282E-03     579.571E-03    -299.147E-03    -193.228E-03
              94     5.25014E-03     195.349E-03     16.7464E+06    -4.38368E+06     91.6634E+06    -16.0012E+06    -284.885E-03     584.160E-03    -299.275E-03    -175.043E-03    -284.902E-03     583.868E-03    -298.835E-03    -176.050E-03
              95     4.59507E-03     195.271E-03     20.0402E+06    -4.83707E+06     84.9566E+06    -16.3875E+06    -288.623E-03     587.436E-03    -298.813E-03    -155.944E-03    -288.603E-03     587.133E-03    -298.411E-03    -157.164E-03
              96     3.94021E-03     195.203E-03     23.5248E+06    -5.39159E+06     77.3844E+06    -16.4671E+06    -291.555E-03     589.814E-03    -298.259E-03    -135.559E-03    -291.506E-03     589.511E-03    -297.898E-03    -136.934E-03
              97     3.28522E-03     195.146E-03     27.0216E+06    -5.83377E+06     69.0412E+06    -16.1834E+06    -293.591E-03     591.229E-03    -297.638E-03    -113.987E-03    -293.521E-03     590.938E-03    -297.323E-03    -115.429E-03
              98     2.62968E-03     195.100E-03     30.5351E+06    -7.56908E+06     60.2583E+06    -15.3234E+06    -294.864E-03     591.852E-03    -296.988E-03    -91.6068E-03    -294.776E-03     591.572E-03    -296.720E-03    -93.0443E-03
              99     1.97372E-03     195.063E-03     34.2175E+06    -8.49954E+06     52.0291E+06    -13.9301E+06    -295.511E-03     591.855E-03    -296.344E-03    -68.5440E-03    -295.409E-03     591.592E-03    -296.121E-03    -69.9216E-03
             100     1.31701E-03     195.037E-03     37.8275E+06    -11.3044E+06     45.7410E+06    -11.7281E+06    -295.529E-03     591.307E-03    -295.777E-03    -45.5047E-03    -295.412E-03     591.053E-03    -295.587E-03    -46.7558E-03
             101     659.010E-06     195.021E-03     41.0092E+06    -16.8038E+06     38.0107E+06    -8.18456E+06    -296.164E-03     590.647E-03    -294.483E-03    -24.5140E-03    -296.023E-03     590.389E-03    -294.328E-03    -25.5584E-03
             102     1.38418E-06     193.306E-03    -4.45512E+06    -37.7184E+06    -2.71081E+06    -4.98283E+06    -283.569E-03     564.715E-03    -281.146E-03    -11.0157E-03    -283.560E-03     564.506E-03    -281.099E-03    -11.2432E-03
             103    -360.883E-09     191.680E-03    -96.7897E+06    -81.9307E+06    -92.0763E+06    -6.89025E+06    -264.317E-03     528.114E-03    -263.797E-03    -3.12708E-03    -264.557E-03     527.973E-03    -263.999E-03    -2.75947E-03
             104     130.173E-09     190.089E-03    -188.166E+06    -132.013E+06    -188.030E+06    -7.16150E+06    -258.966E-03     517.884E-03    -258.918E-03     3.15996E-03    -259.443E-03     517.768E-03    -259.394E-03     3.64832E-03
             105     160.585E-09     188.497E-03    -247.148E+06    -174.776E+06    -246.682E+06    -5.20052E+06    -262.863E-03     525.323E-03    -262.459E-03     6.33939E-03    -263.488E-03     525.161E-03    -263.081E-03     7.00907E-03
             106     93.9085E-09     186.883E-03    -219.085E+06    -200.880E+06    -220.344E+06    -1.96032E+06    -270.115E-03     539.978E-03    -269.863E-03     6.78773E-03    -270.601E-03     539.607E-03    -270.355E-03     7.39750E-03
             107    -29.2057E-09     185.243E-03    -155.086E+06    -204.336E+06    -155.084E+06     904.124E+03    -276.888E-03     553.723E-03    -276.835E-03     5.75768E-03    -277.143E-03     553.149E-03    -277.089E-03     6.23242E-03
             108     21.6774E-09     183.585E-03    -134.017E+06    -204.538E+06    -134.353E+06    -910.322E+03    -281.520E-03     562.942E-03    -281.422E-03     4.73260E-03    -281.699E-03     562.308E-03    -281.603E-03     5.01347E-03
             109     102.194E-09     181.915E-03    -137.162E+06    -214.143E+06    -137.141E+06    -1.63888E+06    -284.119E-03     567.983E-03    -283.865E-03     4.03675E-03    -284.295E-03     567.310E-03    -284.041E-03     4.20265E-03
             110     107.384E-09     180.240E-03    -142.773E+06    -227.088E+06    -142.887E+06    -2.17767E+06    -285.317E-03     570.409E-03    -285.092E-03     3.73547E-03    -285.494E-03     569.688E-03    -285.271E-03     3.83100E-03
             111    -23.4320E-09     178.563E-03    -149.660E+06    -241.426E+06    -149.829E+06    -1.93136E+06    -285.896E-03     571.616E-03    -285.719E-03     3.46260E-03    -286.077E-03     570.843E-03    -285.901E-03     3.52102E-03
             112     169.287E-09     176.884E-03    -154.549E+06    -253.704E+06    -154.639E+06    -1.44724E+06    -286.428E-03     572.577E-03    -286.149E-03     3.43178E-03    -286.609E-03     571.757E-03    -286.330E-03     3.48160E-03
             113     53.9068E-09     175.204E-03    -158.333E+06    -263.628E+06    -158.448E+06    -1.32835E+06    -287.061E-03     573.894E-03    -286.833E-03     3.38905E-03    -287.241E-03     573.035E-03    -287.013E-03     3.44868E-03
             114     23.4903E-09     173.520E-03    -160.325E+06    -271.631E+06    -160.337E+06    -833.922E+03    -287.945E-03     575.782E-03    -287.837E-03     3.36528E-03    -288.121E-03     574.889E-03    -288.012E-03     3.45961E-03
             115     37.7211E-09     171.834E-03    -160.707E+06    -277.929E+06    -160.736E+06    -721.637E+03    -289.200E-03     578.311E-03    -289.111E-03     3.42406E-03    -289.367E-03     577.387E-03    -289.279E-03     3.53266E-03
             116     13.1414E-09     170.142E-03    -159.904E+06    -282.661E+06    -159.962E+06    -434.811E+03    -290.652E-03     581.150E-03    -290.498E-03     3.29262E-03    -290.810E-03     580.201E-03    -290.656E-03     3.40596E-03
             117     136.108E-09     168.446E-03    -158.369E+06    -285.560E+06    -158.261E+06    -207.466E+03    -292.136E-03     584.077E-03    -291.941E-03     3.29544E-03    -292.285E-03     583.108E-03    -292.088E-03     3.40808E-03
             118    -28.1285E-09     166.744E-03    -156.032E+06    -287.145E+06    -156.246E+06    -82.6958E+03    -293.445E-03     586.785E-03    -293.341E-03     3.22074E-03    -293.582E-03     585.802E-03    -293.479E-03     3.31517E-03
             119     51.5770E-09     165.039E-03    -153.288E+06    -287.503E+06    -153.280E+06     29.4744E+03    -294.412E-03     588.741E-03    -294.329E-03     3.03394E-03    -294.540E-03     587.748E-03    -294.456E-03     3.11273E-03
             120     31.0159E-09     163.331E-03    -150.591E+06    -287.021E+06    -150.550E+06     136.727E+03    -294.914E-03     589.709E-03    -294.795E-03     2.83886E-03    -295.033E-03     588.710E-03    -294.913E-03     2.89722E-03
             121     41.4381E-09     161.622E-03    -147.612E+06    -285.689E+06    -147.788E+06     239.586E+03    -294.846E-03     589.657E-03    -294.811E-03     2.74337E-03    -294.955E-03     588.657E-03    -294.922E-03     2.78973E-03
             122    -73.9955E-09     159.913E-03    -145.088E+06    -284.061E+06    -145.373E+06     180.208E+03    -294.377E-03     588.711E-03    -294.334E-03     2.69735E-03    -294.480E-03     587.712E-03    -294.439E-03     2.73821E-03
             123     157.400E-09     158.208E-03    -143.577E+06    -284.257E+06    -143.408E+06    -243.593E+03    -293.670E-03     587.175E-03    -293.506E-03     2.71725E-03    -293.768E-03     586.170E-03    -293.602E-03     2.74229E-03
             124    -23.6410E-09     156.505E-03    -140.045E+06    -285.130E+06    -140.068E+06    -132.373E+03    -292.759E-03     585.422E-03    -292.663E-03     2.72790E-03    -292.843E-03     584.402E-03    -292.747E-03     2.74918E-03
             125     14.3450E-09     154.805E-03    -137.457E+06    -282.843E+06    -137.663E+06     536.141E+03    -291.909E-03     583.765E-03    -291.856E-03     2.75693E-03    -291.987E-03     582.750E-03    -291.935E-03     2.77980E-03
             126     60.3818E-09     153.108E-03    -136.674E+06    -279.016E+06    -136.642E+06     459.743E+03    -291.238E-03     582.355E-03    -291.117E-03     2.89799E-03    -291.319E-03     581.357E-03    -291.198E-03     2.91654E-03
             127     22.0576E-09     151.413E-03    -135.909E+06    -275.829E+06    -135.856E+06     297.214E+03    -290.643E-03     581.156E-03    -290.513E-03     2.99042E-03    -290.726E-03     580.171E-03    -290.595E-03     3.00940E-03
             128     65.8612E-09     149.720E-03    -136.054E+06    -273.442E+06    -136.007E+06     288.269E+03    -290.192E-03     580.267E-03    -290.076E-03     3.10688E-03    -290.278E-03     579.295E-03    -290.162E-03     3.13508E-03
             129    -3.20593E-09     148.028E-03    -136.704E+06    -271.329E+06    -136.777E+06     471.916E+03    -289.908E-03     579.760E-03    -289.852E-03     3.18941E-03    -290.000E-03     578.800E-03    -289.944E-03     3.22047E-03
             130     9.83421E-09     146.337E-03    -137.268E+06    -269.199E+06    -137.221E+06     251.327E+03    -289.781E-03     579.508E-03    -289.727E-03     3.22305E-03    -289.878E-03     578.561E-03    -289.824E-03     3.24718E-03
             131     50.2736E-09     144.646E-03    -136.994E+06    -267.778E+06    -137.042E+06     89.0785E+03    -289.718E-03     579.334E-03    -289.616E-03     3.23798E-03    -289.816E-03     578.393E-03    -289.715E-03     3.26582E-03
             132     18.6850E-09     142.955E-03    -136.119E+06    -266.438E+06    -136.077E+06     211.954E+03    -289.650E-03     579.185E-03    -289.536E-03     3.25723E-03    -289.747E-03     578.248E-03    -289.633E-03     3.28727E-03
             133     58.8418E-09     141.265E-03    -135.601E+06    -265.274E+06    -135.509E+06     146.784E+03    -289.623E-03     579.148E-03    -289.525E-03     3.30277E-03    -289.720E-03     578.215E-03    -289.621E-03     3.33366E-03
             134    -9.84599E-09     139.574E-03    -135.028E+06    -264.037E+06    -135.151E+06     208.085E+03    -289.628E-03     579.171E-03    -289.542E-03     3.29520E-03    -289.725E-03     578.242E-03    -289.639E-03     3.33046E-03
             135     68.4832E-09     137.883E-03    -134.035E+06    -262.362E+06    -134.107E+06     197.823E+03    -289.624E-03     579.221E-03    -289.596E-03     3.33856E-03    -289.720E-03     578.298E-03    -289.692E-03     3.36385E-03
             136    -96.8721E-09     136.192E-03    -133.389E+06    -260.957E+06    -133.508E+06     138.183E+03    -289.591E-03     579.213E-03    -289.623E-03     3.26273E-03    -289.686E-03     578.296E-03    -289.718E-03     3.28820E-03
             137     74.2933E-09     134.502E-03    -133.184E+06    -259.822E+06    -133.252E+06     164.303E+03    -289.548E-03     579.083E-03    -289.535E-03     3.24847E-03    -289.644E-03     578.171E-03    -289.631E-03     3.27100E-03
             138    -41.2162E-09     132.811E-03    -133.708E+06    -258.762E+06    -133.518E+06     161.389E+03    -289.514E-03     578.997E-03    -289.483E-03     3.31726E-03    -289.614E-03     578.091E-03    -289.582E-03     3.33569E-03
             139     43.7147E-09     131.121E-03    -134.172E+06    -257.883E+06    -134.079E+06     106.535E+03    -289.548E-03     579.007E-03    -289.459E-03     3.25832E-03    -289.651E-03     578.107E-03    -289.561E-03     3.28651E-03
             140     67.5523E-09     129.431E-03    -134.198E+06    -257.234E+06    -134.205E+06     68.9759E+03    -289.657E-03     579.142E-03    -289.485E-03     3.31848E-03    -289.761E-03     578.245E-03    -289.589E-03     3.34175E-03
             141     45.6505E-09     127.740E-03    -133.654E+06    -256.523E+06    -133.720E+06     127.372E+03    -289.725E-03     579.328E-03    -289.602E-03     3.34748E-03    -289.828E-03     578.433E-03    -289.705E-03     3.37254E-03
             142    -1.13612E-09     126.048E-03    -133.117E+06    -255.627E+06    -133.240E+06     102.182E+03    -289.729E-03     579.369E-03    -289.640E-03     3.32917E-03    -289.831E-03     578.478E-03    -289.743E-03     3.35742E-03
             143     68.1177E-09     124.357E-03    -133.369E+06    -255.105E+06    -133.426E+06     30.4664E+03    -289.719E-03     579.370E-03    -289.651E-03     3.38434E-03    -289.822E-03     578.481E-03    -289.755E-03     3.40136E-03
             144    -52.0387E-09     122.666E-03    -133.957E+06    -254.780E+06    -133.814E+06     94.9515E+03    -289.702E-03     579.394E-03    -289.692E-03     3.32916E-03    -289.809E-03     578.509E-03    -289.797E-03     3.34909E-03
             145     44.2659E-09     120.975E-03    -133.773E+06    -254.349E+06    -133.692E+06     49.5893E+03    -289.726E-03     579.349E-03    -289.624E-03     3.22331E-03    -289.832E-03     578.465E-03    -289.729E-03     3.24625E-03
             146     94.8060E-09     119.284E-03    -133.628E+06    -254.192E+06    -133.588E+06     17.5339E+03    -289.765E-03     579.361E-03    -289.596E-03     3.29215E-03    -289.871E-03     578.478E-03    -289.702E-03     3.30904E-03
             147    -13.0295E-09     117.593E-03    -133.670E+06    -254.097E+06    -133.767E+06    -4.83446E+03    -289.711E-03     579.404E-03    -289.693E-03     3.29640E-03    -289.817E-03     578.522E-03    -289.800E-03     3.31694E-03
             148    -52.7639E-09     115.902E-03    -133.264E+06    -253.765E+06    -133.442E+06     48.0447E+03    -289.694E-03     579.409E-03    -289.715E-03     3.28147E-03    -289.799E-03     578.527E-03    -289.821E-03     3.30803E-03
             149     82.2851E-09     114.211E-03    -133.569E+06    -253.627E+06    -133.573E+06         405.410    -289.770E-03     579.420E-03    -289.650E-03     3.24276E-03    -289.876E-03     578.539E-03    -289.757E-03     3.26181E-03
             150     42.4093E-09     112.520E-03    -133.684E+06    -253.476E+06    -133.500E+06     37.6739E+03    -289.756E-03     579.361E-03    -289.605E-03     3.24841E-03    -289.863E-03     578.481E-03    -289.711E-03     3.26420E-03
             151     31.0336E-09     110.829E-03    -133.228E+06    -253.375E+06    -133.373E+06    -4.91323E+03    -289.733E-03     579.409E-03    -289.675E-03     3.38465E-03    -289.839E-03     578.529E-03    -289.781E-03     3.40206E-03
             152    -34.5523E-09     109.137E-03    -133.232E+06    -253.466E+06    -133.178E+06     12.1230E+03    -289.784E-03     579.493E-03    -289.709E-03     3.28962E-03    -289.890E-03     578.612E-03    -289.814E-03     3.31759E-03
             153     133.312E-09     107.446E-03    -132.724E+06    -253.325E+06    -132.735E+06     32.9419E+03    -289.815E-03     579.418E-03    -289.603E-03     3.25986E-03    -289.919E-03     578.537E-03    -289.707E-03     3.28933E-03
             154     47.0570E-09     105.755E-03    -132.925E+06    -253.282E+06    -133.046E+06    -6.61183E+03    -289.740E-03     579.312E-03    -289.572E-03     3.32336E-03    -289.845E-03     578.431E-03    -289.677E-03     3.34318E-03
             155    -9.09773E-09     104.064E-03    -133.158E+06    -252.996E+06    -133.076E+06     16.3976E+03    -289.649E-03     579.260E-03    -289.611E-03     3.30641E-03    -289.755E-03     578.381E-03    -289.716E-03     3.32427E-03
             156     16.3257E-09     102.373E-03    -133.484E+06    -252.812E+06    -133.452E+06     38.6211E+03    -289.694E-03     579.321E-03    -289.626E-03     3.31079E-03    -289.802E-03     578.444E-03    -289.733E-03     3.33177E-03
             157     61.3695E-09     100.682E-03    -134.284E+06    -253.099E+06    -134.187E+06    -17.7484E+03    -289.745E-03     579.390E-03    -289.645E-03     3.30995E-03    -289.855E-03     578.514E-03    -289.754E-03     3.33353E-03
             158    -10.7798E-09     98.9908E-03    -133.824E+06    -252.940E+06    -133.919E+06    -9.52830E+03    -289.731E-03     579.382E-03    -289.651E-03     3.29959E-03    -289.839E-03     578.505E-03    -289.760E-03     3.31830E-03
             159     32.1268E-09     95.6087E-03    -133.330E+06    -253.212E+06    -133.310E+06     24.3148E+03    -289.731E-03     579.319E-03    -289.588E-03     3.26795E-03    -289.837E-03     578.440E-03    -289.694E-03     3.29529E-03
             160     61.3969E-09     93.9177E-03    -133.205E+06    -253.078E+06    -133.199E+06     41.7310E+03    -289.716E-03     579.344E-03    -289.628E-03     3.34414E-03    -289.822E-03     578.465E-03    -289.734E-03     3.36784E-03
             161    -43.8246E-09     92.2266E-03    -133.001E+06    -253.387E+06    -133.099E+06    -148.618E+03    -289.718E-03     579.413E-03    -289.695E-03     3.31964E-03    -289.822E-03     578.532E-03    -289.801E-03     3.33299E-03
             162     48.1980E-09     90.5354E-03    -133.020E+06    -253.940E+06    -133.042E+06    -49.8650E+03    -289.754E-03     579.450E-03    -289.696E-03     3.28944E-03    -289.858E-03     578.566E-03    -289.800E-03     3.30895E-03
             163     18.4838E-09     88.8441E-03    -132.868E+06    -253.882E+06    -132.823E+06     63.7286E+03    -289.796E-03     579.496E-03    -289.700E-03     3.30851E-03    -289.900E-03     578.612E-03    -289.803E-03     3.33537E-03
             164     38.2594E-09     87.1528E-03    -132.885E+06    -253.502E+06    -132.978E+06     57.8060E+03    -289.805E-03     579.534E-03    -289.729E-03     3.29477E-03    -289.909E-03     578.652E-03    -289.833E-03     3.31905E-03
             165    -680.371E-12     85.4615E-03    -133.648E+06    -253.382E+06    -133.602E+06    -1.41569E+03    -289.800E-03     579.530E-03    -289.730E-03     3.27140E-03    -289.907E-03     578.651E-03    -289.837E-03     3.29146E-03
             166     50.8264E-09     83.7701E-03    -133.947E+06    -253.214E+06    -133.899E+06    -5.95511E+03    -289.756E-03     579.425E-03    -289.670E-03     3.23957E-03    -289.864E-03     578.548E-03    -289.778E-03     3.26001E-03
             167     8.91996E-09     82.0790E-03    -134.051E+06    -253.390E+06    -134.031E+06    -33.9102E+03    -289.683E-03     579.290E-03    -289.607E-03     3.26971E-03    -289.791E-03     578.412E-03    -289.715E-03     3.29038E-03
             168     26.6329E-09     80.3882E-03    -134.353E+06    -253.928E+06    -134.402E+06    -67.6865E+03    -289.661E-03     579.261E-03    -289.600E-03     3.28804E-03    -289.770E-03     578.381E-03    -289.709E-03     3.30252E-03
             169     12.6098E-09     78.6973E-03    -134.548E+06    -254.158E+06    -134.573E+06    -18.2888E+03    -289.707E-03     579.331E-03    -289.623E-03     3.30401E-03    -289.816E-03     578.450E-03    -289.733E-03     3.31807E-03
             170     53.9926E-09     77.0061E-03    -134.318E+06    -254.203E+06    -134.336E+06        -976.141    -289.754E-03     579.460E-03    -289.706E-03     3.33809E-03    -289.862E-03     578.579E-03    -289.815E-03     3.35578E-03
             171    -63.7985E-09     75.3148E-03    -133.911E+06    -254.093E+06    -134.047E+06     5.44226E+03    -289.788E-03     579.584E-03    -289.797E-03     3.30999E-03    -289.895E-03     578.703E-03    -289.904E-03     3.32506E-03
             172     53.4522E-09     73.6232E-03    -133.906E+06    -253.751E+06    -133.885E+06     43.0166E+03    -289.856E-03     579.667E-03    -289.811E-03     3.29453E-03    -289.963E-03     578.787E-03    -289.918E-03     3.30859E-03
             173     10.2563E-09     71.9316E-03    -133.864E+06    -253.392E+06    -133.905E+06     58.5790E+03    -289.917E-03     579.734E-03    -289.817E-03     3.32406E-03    -290.025E-03     578.856E-03    -289.925E-03     3.34011E-03
             174     53.3539E-09     70.2397E-03    -134.061E+06    -253.019E+06    -134.013E+06     127.341E+03    -289.945E-03     579.816E-03    -289.872E-03     3.35215E-03    -290.054E-03     578.940E-03    -289.980E-03     3.37070E-03
             175    -25.0637E-09     68.5478E-03    -134.423E+06    -252.829E+06    -134.432E+06    -38.9421E+03    -290.018E-03     579.941E-03    -289.923E-03     3.35562E-03    -290.129E-03     579.067E-03    -290.034E-03     3.37034E-03
             176     117.336E-09     66.8556E-03    -134.050E+06    -252.787E+06    -133.954E+06    -23.9235E+03    -290.078E-03     580.064E-03    -289.986E-03     3.36786E-03    -290.188E-03     579.189E-03    -290.095E-03     3.38393E-03
             177    -91.5608E-09     65.1633E-03    -133.311E+06    -252.749E+06    -133.410E+06    -1.70441E+03    -290.105E-03     580.141E-03    -290.036E-03     3.34812E-03    -290.212E-03     579.264E-03    -290.143E-03     3.35875E-03
             178     150.702E-09     63.4708E-03    -132.868E+06    -252.752E+06    -132.718E+06     30.4448E+03    -290.164E-03     580.213E-03    -290.050E-03     3.36360E-03    -290.269E-03     579.335E-03    -290.154E-03     3.37172E-03
             179    -61.9772E-09     61.7782E-03    -132.316E+06    -252.691E+06    -132.505E+06    -19.2637E+03    -290.196E-03     580.341E-03    -290.145E-03     3.42891E-03    -290.299E-03     579.462E-03    -290.250E-03     3.43596E-03
             180     32.2847E-09     60.0853E-03    -132.517E+06    -252.744E+06    -132.618E+06    -20.9905E+03    -290.316E-03     580.587E-03    -290.271E-03     3.44056E-03    -290.420E-03     579.708E-03    -290.375E-03     3.44094E-03
             181     50.2775E-09     58.3918E-03    -132.741E+06    -252.858E+06    -132.409E+06     39.1200E+03    -290.528E-03     580.912E-03    -290.384E-03     3.48350E-03    -290.633E-03     580.032E-03    -290.487E-03     3.48447E-03
             182     55.3368E-09     56.6978E-03    -132.492E+06    -252.569E+06    -132.453E+06     84.4763E+03    -290.689E-03     581.249E-03    -290.560E-03     3.53018E-03    -290.793E-03     580.371E-03    -290.664E-03     3.53003E-03
             183     4.84562E-09     55.0032E-03    -132.588E+06    -252.103E+06    -132.734E+06     29.5144E+03    -290.835E-03     581.611E-03    -290.776E-03     3.57235E-03    -290.940E-03     580.736E-03    -290.882E-03     3.56422E-03
             184     4.18754E-09     53.3080E-03    -133.101E+06    -251.918E+06    -133.350E+06    -21.4347E+03    -291.032E-03     582.020E-03    -290.989E-03     3.61024E-03    -291.139E-03     581.147E-03    -291.097E-03     3.59269E-03
             185     34.3852E-09     51.6120E-03    -133.602E+06    -251.955E+06    -133.551E+06    -8.78833E+03    -291.281E-03     582.492E-03    -291.210E-03     3.67219E-03    -291.391E-03     581.619E-03    -291.319E-03     3.64934E-03
             186     14.5905E-09     49.9151E-03    -133.536E+06    -252.034E+06    -133.595E+06    -7.99191E+03    -291.553E-03     583.026E-03    -291.473E-03     3.74069E-03    -291.662E-03     582.153E-03    -291.582E-03     3.71109E-03
             187     34.9327E-09     48.2173E-03    -133.405E+06    -251.992E+06    -133.371E+06     18.1272E+03    -291.854E-03     583.626E-03    -291.772E-03     3.81129E-03    -291.962E-03     582.753E-03    -291.880E-03     3.77393E-03
             188     16.9517E-09     46.5183E-03    -132.995E+06    -251.950E+06    -133.032E+06         203.320    -292.187E-03     584.292E-03    -292.105E-03     3.88637E-03    -292.294E-03     583.418E-03    -292.212E-03     3.84016E-03
             189     32.3087E-09     44.8182E-03    -132.642E+06    -251.712E+06    -132.627E+06     65.2242E+03    -292.549E-03     585.020E-03    -292.471E-03     3.97001E-03    -292.655E-03     584.146E-03    -292.577E-03     3.91495E-03
             190     12.8479E-09     43.1168E-03    -132.525E+06    -251.312E+06    -132.540E+06     46.1296E+03    -292.939E-03     585.807E-03    -292.867E-03     4.06250E-03    -293.046E-03     584.935E-03    -292.973E-03     3.99632E-03
             191     29.0508E-09     41.4140E-03    -132.758E+06    -250.918E+06    -132.750E+06     59.9837E+03    -293.360E-03     586.644E-03    -293.284E-03     4.15961E-03    -293.468E-03     585.775E-03    -293.391E-03     4.08175E-03
             192     20.7738E-09     39.7097E-03    -132.991E+06    -250.746E+06    -132.985E+06    -10.6605E+03    -293.815E-03     587.539E-03    -293.724E-03     4.27443E-03    -293.924E-03     586.671E-03    -293.833E-03     4.18069E-03
             193     40.3782E-09     38.0038E-03    -133.102E+06    -250.811E+06    -133.111E+06    -3.23871E+03    -294.315E-03     588.518E-03    -294.204E-03     4.41023E-03    -294.424E-03     587.651E-03    -294.313E-03     4.29867E-03
             194     35.4128E-09     36.2961E-03    -133.210E+06    -250.870E+06    -133.200E+06    -9.96724E+03    -294.874E-03     589.621E-03    -294.747E-03     4.57101E-03    -294.984E-03     588.754E-03    -294.856E-03     4.43818E-03
             195     47.9259E-09     34.5865E-03    -133.279E+06    -250.923E+06    -133.293E+06    -1.25470E+03    -295.504E-03     590.876E-03    -295.372E-03     4.74757E-03    -295.614E-03     590.008E-03    -295.481E-03     4.59086E-03
             196     32.2253E-09     32.8745E-03    -133.304E+06    -250.942E+06    -133.300E+06    -3.44998E+03    -296.192E-03     592.262E-03    -296.070E-03     4.91805E-03    -296.302E-03     591.395E-03    -296.180E-03     4.73608E-03
             197     36.5000E-09     31.1601E-03    -133.191E+06    -250.985E+06    -133.221E+06    -8.74556E+03    -296.896E-03     593.710E-03    -296.814E-03     5.08030E-03    -297.006E-03     592.842E-03    -296.923E-03     4.87091E-03
             198    -9.81239E-09     29.4431E-03    -133.024E+06    -250.999E+06    -133.052E+06     1.93456E+03    -297.531E-03     595.073E-03    -297.541E-03     5.19552E-03    -297.640E-03     594.204E-03    -297.650E-03     4.96080E-03
             199    -45.8425E-09     27.7239E-03    -132.683E+06    -250.959E+06    -132.752E+06     2.72871E+03    -297.952E-03     596.060E-03    -298.109E-03     5.20524E-03    -298.060E-03     595.192E-03    -298.216E-03     4.95235E-03
             200    -123.814E-09     26.0036E-03    -132.262E+06    -250.800E+06    -132.349E+06     25.8878E+03    -297.947E-03     596.242E-03    -298.295E-03     5.07062E-03    -298.054E-03     595.373E-03    -298.402E-03     4.80993E-03
             201    -186.188E-09     24.2838E-03    -131.752E+06    -250.466E+06    -131.862E+06     37.8632E+03    -297.282E-03     595.077E-03    -297.795E-03     4.72979E-03    -297.388E-03     594.208E-03    -297.900E-03     4.47471E-03
             202    -200.991E-09     22.5676E-03    -131.214E+06    -250.018E+06    -131.316E+06     35.1995E+03    -295.781E-03     592.122E-03    -296.341E-03     4.26122E-03    -295.885E-03     591.254E-03    -296.445E-03     4.01791E-03
             203    -170.799E-09     20.8581E-03    -130.820E+06    -249.699E+06    -130.942E+06    -1.45761E+03    -293.357E-03     587.262E-03    -293.905E-03     3.77235E-03    -293.460E-03     586.394E-03    -294.008E-03     3.53295E-03
             204    -199.121E-09     19.1587E-03    -130.251E+06    -249.633E+06    -130.393E+06    -39.1568E+03    -289.937E-03     580.446E-03    -290.508E-03     3.16837E-03    -290.039E-03     579.576E-03    -290.609E-03     2.92372E-03
             205    -200.086E-09     17.4726E-03    -129.145E+06    -249.738E+06    -129.315E+06    -51.6357E+03    -285.421E-03     571.460E-03    -286.039E-03     2.39268E-03    -285.519E-03     570.586E-03    -286.136E-03     2.13974E-03
             206    -231.598E-09     15.8037E-03    -127.473E+06    -249.614E+06    -127.686E+06     13.6996E+03    -279.691E-03     560.015E-03    -280.324E-03     1.42277E-03    -279.784E-03     559.136E-03    -280.416E-03     1.14930E-03
             207    -186.334E-09     14.1561E-03    -125.869E+06    -248.875E+06    -126.081E+06     115.641E+03    -272.675E-03     545.914E-03    -273.239E-03     319.575E-06    -272.764E-03     545.034E-03    -273.326E-03     3.27313E-06
             208    -149.665E-09     12.5339E-03    -125.281E+06    -247.355E+06    -125.390E+06     221.581E+03    -264.554E-03     529.479E-03    -264.925E-03    -707.576E-06    -264.644E-03     528.603E-03    -265.011E-03    -1.09937E-03
             209    -540.288E-12     10.9399E-03    -125.890E+06    -245.208E+06    -125.636E+06     262.642E+03    -256.152E-03     512.429E-03    -256.277E-03    -1.09949E-03    -256.248E-03     511.566E-03    -256.367E-03    -1.59018E-03
             210     3.59857E-09     9.37242E-03    -127.624E+06    -243.907E+06    -126.744E+06     118.905E+03    -249.258E-03     498.550E-03    -249.293E-03    -238.546E-06    -249.361E-03     497.700E-03    -249.388E-03    -781.027E-06
             211    -34.8395E-09     7.82208E-03    -129.792E+06    -246.220E+06    -128.650E+06    -660.073E+03    -245.810E-03     491.803E-03    -245.993E-03     1.47260E-03    -245.918E-03     490.948E-03    -246.091E-03     955.758E-06
             212    -177.360E-09     6.27529E-03    -121.686E+06    -252.548E+06    -121.227E+06    -999.860E+03    -246.207E-03     492.880E-03    -246.673E-03     2.78467E-03    -246.275E-03     491.971E-03    -246.736E-03     2.34313E-03
             213    -260.305E-09     4.72119E-03    -106.166E+06    -255.373E+06    -106.373E+06     306.451E+03    -248.945E-03     498.690E-03    -249.745E-03     3.03614E-03    -248.953E-03     497.722E-03    -249.752E-03     2.69912E-03
             214    -423.128E-09     3.15610E-03    -84.1725E+06    -250.622E+06    -84.2289E+06     1.14077E+06    -252.148E-03     505.435E-03    -253.287E-03     2.44845E-03    -252.084E-03     504.427E-03    -253.223E-03     2.21762E-03
             215    -485.129E-09     1.58092E-03    -66.0834E+06    -245.809E+06    -66.1712E+06     316.710E+03    -254.528E-03     510.460E-03    -255.932E-03     1.35764E-03    -254.406E-03     509.423E-03    -255.810E-03     1.22941E-03
             216     696.402E-06    -11.0606E-15    -63.3381E+06    -242.974E+06    -63.3340E+06    -321.112E+03    -255.867E-03     512.412E-03    -256.546E-03     1.18442E-03    -255.739E-03     511.381E-03    -256.418E-03     1.06362E-03
             217     1.39263E-03    -11.0606E-15    -62.7949E+06    -236.496E+06    -61.8192E+06    -8.94542E+03    -256.581E-03     512.862E-03    -256.280E-03     2.16649E-03    -256.463E-03     511.860E-03    -256.156E-03     1.95349E-03
             218     2.08858E-03    -11.0606E-15    -62.1289E+06    -223.987E+06    -59.6263E+06     197.805E+03    -257.184E-03     513.654E-03    -256.471E-03     3.22150E-03    -257.084E-03     512.712E-03    -256.354E-03     2.90977E-03
             219     2.78396E-03    -11.0606E-15    -61.2107E+06    -206.893E+06    -56.9433E+06     100.673E+03    -258.096E-03     514.847E-03    -256.751E-03     4.33141E-03    -258.022E-03     513.986E-03    -256.647E-03     3.91496E-03
             220     3.47855E-03    -11.0606E-15    -60.0918E+06    -186.969E+06    -54.2706E+06     10.4883E+03    -259.362E-03     516.494E-03    -257.132E-03     5.47784E-03    -259.316E-03     515.728E-03    -257.045E-03     4.95441E-03
             221     4.17217E-03    -11.0606E-15    -58.7655E+06    -163.129E+06    -51.4261E+06    -175.816E+03    -261.030E-03     518.655E-03    -257.624E-03     6.66003E-03    -261.018E-03     518.004E-03    -257.560E-03     6.02327E-03
             222     4.86438E-03    -11.0606E-15    -56.9607E+06    -134.530E+06    -48.4544E+06    -1.02941E+06    -263.163E-03     521.400E-03    -258.237E-03     7.92227E-03    -263.189E-03     520.887E-03    -258.202E-03     7.15288E-03
             223     5.55498E-03    -11.0606E-15    -54.3903E+06    -100.994E+06    -45.3916E+06    -2.07437E+06    -265.836E-03     524.821E-03    -258.986E-03     9.27873E-03    -265.904E-03     524.470E-03    -258.987E-03     8.35849E-03
             224     6.24343E-03    -11.0606E-15    -50.6126E+06    -61.5783E+06    -42.1022E+06    -4.14773E+06    -269.147E-03     529.032E-03    -259.885E-03     10.7829E-03    -269.261E-03     528.871E-03    -259.933E-03     9.67372E-03
             225     6.92935E-03    -11.0606E-15    -46.4769E+06    -18.5629E+06    -36.6359E+06    -3.21340E+06    -273.243E-03     534.215E-03    -260.972E-03     12.4283E-03    -273.411E-03     534.259E-03    -261.061E-03     11.1409E-03
             226     7.61209E-03    -11.0606E-15    -45.1037E+06     5.99003E+06    -26.3447E+06     3.62470E+06    -278.367E-03     540.695E-03    -262.327E-03     14.5093E-03    -278.584E-03     540.850E-03    -262.402E-03     13.0972E-03
             227     8.29038E-03    -11.0606E-15    -46.4493E+06     11.3068E+06    -15.4058E+06     5.05970E+06    -284.701E-03     548.669E-03    -263.968E-03     17.3466E-03    -284.956E-03     548.845E-03    -263.994E-03     15.6612E-03
             228     8.96423E-03    -11.0606E-15    -45.5198E+06     18.8838E+06    -7.77258E+06    -898.989E+03    -292.501E-03     558.377E-03    -265.875E-03     20.5651E-03    -292.785E-03     558.590E-03    -265.875E-03     18.3718E-03
             229     9.63237E-03    -11.0606E-15    -39.7738E+06     28.3081E+06     4.76030E+06    -4.06717E+06    -302.319E-03     570.463E-03    -268.143E-03     25.2729E-03    -302.624E-03     570.715E-03    -268.103E-03     22.5017E-03
             230     10.2911E-03    -11.0606E-15    -31.3260E+06     39.3907E+06     31.5429E+06    -5.02715E+06    -314.723E-03     585.620E-03    -270.898E-03     33.7156E-03    -315.070E-03     585.907E-03    -270.752E-03     30.3540E-03
             231     10.9395E-03    -11.0606E-15    -22.6274E+06     52.1579E+06     68.3505E+06    -5.76642E+06    -330.707E-03     604.928E-03    -274.220E-03     44.8296E-03    -331.143E-03     605.274E-03    -273.921E-03     40.3423E-03
             232     11.5785E-03    -11.0606E-15    -15.9161E+06     64.6409E+06     92.4640E+06    -2.64022E+06    -352.397E-03     630.556E-03    -278.159E-03     53.2792E-03    -352.948E-03     631.023E-03    -277.768E-03     46.7004E-03
             233     12.2058E-03    -11.0606E-15    -8.62995E+06     78.5126E+06     100.864E+06    -521.603E+03    -385.128E-03     668.117E-03    -282.988E-03     64.0000E-03    -385.934E-03     668.899E-03    -282.585E-03     52.7764E-03
             234     12.8041E-03    -11.0606E-15    -1.05675E+06     90.5827E+06     106.737E+06     1.30555E+06    -434.792E-03     724.028E-03    -289.236E-03     107.973E-03    -436.380E-03     725.636E-03    -288.832E-03     89.1104E-03
             235     13.4369E-03     2.10741E-03    -774.098E+03     94.7949E+06     101.563E+06     1.37360E+06    -423.465E-03     714.564E-03    -291.099E-03     128.155E-03    -425.450E-03     716.579E-03    -290.727E-03     106.714E-03
             236     13.4669E-03     3.94441E-03    -3.56107E+06     90.7749E+06     91.8541E+06    -724.500E+03    -368.591E-03     657.603E-03    -289.012E-03     92.1297E-03    -370.089E-03     659.135E-03    -288.679E-03     73.6886E-03
             237     13.4739E-03     5.73680E-03    -2.69906E+06     85.9331E+06     92.9152E+06     349.615E+03    -345.628E-03     634.286E-03    -288.658E-03     66.1139E-03    -346.782E-03     635.464E-03    -288.314E-03     49.1113E-03
             238     13.4763E-03     7.50223E-03    -2.72679E+06     82.7099E+06     95.0889E+06     142.305E+03    -329.629E-03     618.433E-03    -288.804E-03     57.7314E-03    -330.709E-03     619.520E-03    -288.444E-03     41.1713E-03
             239     13.4777E-03     9.24760E-03    -2.68455E+06     79.0382E+06     93.5054E+06    -525.091E+03    -316.850E-03     605.855E-03    -289.005E-03     53.8288E-03    -317.867E-03     606.872E-03    -288.649E-03     38.0007E-03
             240     13.4782E-03     10.9738E-03    -2.43835E+06     77.3220E+06     93.2798E+06    -29.5419E+03    -306.839E-03     596.051E-03    -289.212E-03     51.4644E-03    -307.802E-03     597.010E-03    -288.854E-03     36.4427E-03
             241     13.4782E-03     12.6859E-03    -2.57201E+06     77.2101E+06     93.1184E+06    -45.0046E+03    -299.063E-03     588.457E-03    -289.395E-03     49.5229E-03    -299.981E-03     589.371E-03    -289.037E-03     35.1886E-03
             242     13.4785E-03     14.3865E-03    -2.51215E+06     75.9727E+06     91.7471E+06    -400.060E+03    -292.638E-03     582.175E-03    -289.537E-03     47.9460E-03    -293.517E-03     583.049E-03    -289.185E-03     34.1608E-03
             243     13.4787E-03     16.0778E-03    -2.45797E+06     74.1272E+06     92.3909E+06    -242.215E+03    -287.544E-03     577.200E-03    -289.656E-03     46.4519E-03    -288.390E-03     578.033E-03    -289.298E-03     33.1156E-03
             244     13.4788E-03     17.7622E-03    -2.37029E+06     73.8631E+06     93.5468E+06     203.555E+03    -283.675E-03     573.433E-03    -289.758E-03     44.9796E-03    -284.499E-03     574.239E-03    -289.394E-03     31.9710E-03
             245     13.4786E-03     19.4415E-03    -2.74773E+06     74.7458E+06     93.2457E+06     165.347E+03    -280.928E-03     570.767E-03    -289.839E-03     44.0305E-03    -281.740E-03     571.564E-03    -289.477E-03     31.2337E-03
             246     13.4783E-03     21.1175E-03    -2.43976E+06     75.0493E+06     93.5668E+06     11.3221E+03    -279.395E-03     569.289E-03    -289.894E-03     43.7358E-03    -280.199E-03     570.080E-03    -289.532E-03     31.0555E-03
             247     13.4783E-03     22.7924E-03    -2.57185E+06     74.9142E+06     93.4394E+06     35.2021E+03    -278.797E-03     568.710E-03    -289.914E-03     43.6551E-03    -279.599E-03     569.499E-03    -289.551E-03     31.0197E-03
             248     13.4783E-03     24.4672E-03    -2.44729E+06     74.9566E+06     93.2957E+06     50.3542E+03    -278.933E-03     568.840E-03    -289.907E-03     43.6623E-03    -279.735E-03     569.629E-03    -289.546E-03     31.0221E-03
             249     13.4784E-03     26.1429E-03    -2.46113E+06     75.1460E+06     93.3551E+06     75.8629E+03    -279.620E-03     569.507E-03    -289.887E-03     43.7361E-03    -280.423E-03     570.298E-03    -289.526E-03     31.0583E-03
             250     13.4784E-03     27.8202E-03    -2.36287E+06     75.5702E+06     93.4929E+06     140.749E+03    -280.511E-03     570.372E-03    -289.861E-03     43.8326E-03    -281.315E-03     571.165E-03    -289.499E-03     31.1082E-03
             251     13.4785E-03     29.4991E-03    -2.47439E+06     76.1170E+06     93.5503E+06     104.404E+03    -281.415E-03     571.249E-03    -289.833E-03     43.9220E-03    -282.222E-03     572.046E-03    -289.472E-03     31.1491E-03
             252     13.4785E-03     31.1795E-03    -2.37896E+06     76.3357E+06     93.6630E+06    -4.30823E+03    -282.252E-03     572.061E-03    -289.809E-03     44.0348E-03    -283.060E-03     572.860E-03    -289.448E-03     31.2119E-03
             253     13.4785E-03     32.8611E-03    -2.41407E+06     76.4290E+06     93.7394E+06     52.8635E+03    -282.998E-03     572.787E-03    -289.789E-03     44.1536E-03    -283.809E-03     573.588E-03    -289.427E-03     31.2861E-03
             254     13.4785E-03     34.5439E-03    -2.44446E+06     76.4207E+06     93.6958E+06    -67.3165E+03    -283.667E-03     573.438E-03    -289.772E-03     44.2935E-03    -284.480E-03     574.242E-03    -289.410E-03     31.3804E-03
             255     13.4785E-03     36.2277E-03    -2.37652E+06     76.0820E+06     93.7440E+06    -66.4741E+03    -284.269E-03     574.027E-03    -289.757E-03     44.4680E-03    -285.084E-03     574.831E-03    -289.395E-03     31.5128E-03
             256     13.4785E-03     37.9125E-03    -2.37426E+06     76.1590E+06     93.7977E+06     96.0363E+03    -284.820E-03     574.563E-03    -289.743E-03     44.6209E-03    -285.637E-03     575.370E-03    -289.381E-03     31.6295E-03
             257     13.4785E-03     39.5981E-03    -2.50207E+06     76.2972E+06     93.6245E+06    -41.8820E+03    -285.342E-03     575.071E-03    -289.729E-03     44.8088E-03    -286.162E-03     575.882E-03    -289.368E-03     31.7766E-03
             258     13.4785E-03     41.2845E-03    -2.25424E+06     76.4933E+06     93.9311E+06     129.323E+03    -285.843E-03     575.559E-03    -289.716E-03     45.0164E-03    -286.666E-03     576.373E-03    -289.354E-03     31.9462E-03
             259     13.4786E-03     42.9718E-03    -2.56030E+06     77.0804E+06     94.0402E+06     117.009E+03    -286.288E-03     575.993E-03    -289.704E-03     45.1702E-03    -287.117E-03     576.813E-03    -289.342E-03     32.0584E-03
             260     13.4785E-03     44.6598E-03    -2.30914E+06     77.1896E+06     93.4003E+06    -99.8467E+03    -286.618E-03     576.308E-03    -289.689E-03     45.4334E-03    -287.448E-03     577.132E-03    -289.331E-03     32.2822E-03
             261     13.4787E-03     46.3481E-03    -2.39079E+06     77.5233E+06     93.8958E+06     271.043E+03    -286.948E-03     576.629E-03    -289.681E-03     45.5907E-03    -287.782E-03     577.457E-03    -289.320E-03     32.4119E-03
             262     13.4784E-03     48.0372E-03    -2.62857E+06     77.4086E+06     94.1017E+06    -368.355E+03    -287.247E-03     576.925E-03    -289.677E-03     45.6255E-03    -288.084E-03     577.754E-03    -289.315E-03     32.4046E-03
             263     13.4786E-03     49.7262E-03    -1.87003E+06     77.3168E+06     92.4603E+06     255.585E+03    -287.289E-03     576.946E-03    -289.657E-03     46.0121E-03    -288.123E-03     577.780E-03    -289.304E-03     32.7830E-03
             264     13.4791E-03     51.4152E-03    -3.10853E+06      77.578E+06     93.3511E+06     1.04356E+03    -287.492E-03     577.132E-03    -289.640E-03     46.1005E-03    -288.335E-03     577.969E-03    -289.281E-03     32.8554E-03
             265     13.4789E-03     53.1052E-03    -1.89023E+06     76.2696E+06     94.2900E+06    -581.789E+03    -287.820E-03     577.449E-03    -289.630E-03     45.9106E-03    -288.655E-03     578.275E-03    -289.266E-03     32.6371E-03
             266     13.4792E-03     54.7950E-03    -2.41395E+06     76.1619E+06     93.3587E+06     558.713E+03    -287.851E-03     577.476E-03    -289.624E-03     45.7857E-03    -288.687E-03     578.303E-03    -289.264E-03     32.5230E-03
             267     13.4788E-03     56.4852E-03    -2.75944E+06     76.9354E+06     93.9386E+06    -263.507E+03    -287.906E-03     577.545E-03    -289.638E-03     45.5844E-03    -288.744E-03     578.373E-03    -289.276E-03     32.3134E-03
             268     13.4785E-03     58.1751E-03    -2.12154E+06     75.2767E+06     92.1127E+06    -517.812E+03    -288.048E-03     577.689E-03    -289.641E-03     45.9078E-03    -288.880E-03     578.513E-03    -289.286E-03     32.6302E-03
             269     13.4788E-03     59.8655E-03    -2.35474E+06     74.3976E+06     92.2418E+06     262.328E+03    -288.284E-03     577.922E-03    -289.638E-03     46.0161E-03    -289.117E-03     578.744E-03    -289.281E-03     32.7361E-03
             270     13.4785E-03     61.5566E-03    -2.27571E+06     75.8328E+06     93.7378E+06     249.582E+03    -288.331E-03     577.972E-03    -289.641E-03     45.8425E-03    -289.167E-03     578.797E-03    -289.279E-03     32.5563E-03
             271     13.4789E-03     63.2470E-03    -2.71014E+06     76.0197E+06     92.8078E+06    -189.605E+03    -288.156E-03     577.784E-03    -289.628E-03     46.2468E-03    -288.996E-03     578.615E-03    -289.270E-03     32.9740E-03
             272     13.4792E-03     64.9374E-03    -2.13357E+06     75.5401E+06     94.2363E+06     111.413E+03    -288.365E-03     577.988E-03    -289.623E-03     45.9351E-03    -289.202E-03     578.812E-03    -289.258E-03     32.6252E-03
             273     13.4785E-03     66.6287E-03    -2.16647E+06     78.6305E+06     94.7107E+06     1.00926E+06    -288.471E-03     578.104E-03    -289.633E-03     45.5496E-03    -289.312E-03     578.942E-03    -289.270E-03     32.2274E-03
             274     13.4787E-03     68.3193E-03    -3.44249E+06     81.6051E+06     92.4722E+06    -129.538E+03    -288.376E-03     577.999E-03    -289.623E-03     46.1379E-03    -289.231E-03     578.863E-03    -289.274E-03     32.7608E-03
             275     13.4790E-03     70.0098E-03    -2.99774E+06     83.1991E+06     94.0757E+06    -618.344E+03    -288.456E-03     578.056E-03    -289.600E-03     46.5104E-03    -289.312E-03     578.924E-03    -289.246E-03     33.1993E-03
             276     13.4797E-03     71.7023E-03    -638.009E+03     84.8265E+06     96.9926E+06     183.631E+03    -288.348E-03     577.926E-03    -289.578E-03     46.4663E-03    -289.188E-03     578.784E-03    -289.215E-03     33.3433E-03
             277     13.4797E-03     73.3917E-03    -1.29526E+06     85.3375E+06     97.5622E+06     21.5102E+03    -288.572E-03     578.152E-03    -289.580E-03     45.8776E-03    -289.415E-03     579.011E-03    -289.214E-03     32.7049E-03
             278     13.4786E-03     75.0841E-03    -3.48243E+06     84.5460E+06     96.0601E+06     913.217E+03    -288.745E-03     578.355E-03    -289.610E-03     45.4653E-03    -289.594E-03     579.213E-03    -289.247E-03     32.2871E-03
             279     13.4788E-03     76.7749E-03    -3.49106E+06     84.4000E+06     94.6103E+06     333.034E+03    -288.341E-03     577.970E-03    -289.629E-03     46.0086E-03    -289.192E-03     578.834E-03    -289.274E-03     32.8220E-03
             280     13.4787E-03     78.4649E-03    -1.93870E+06     84.2705E+06     94.9237E+06    -304.294E+03    -288.300E-03     577.920E-03    -289.620E-03     46.3282E-03    -289.152E-03     578.789E-03    -289.264E-03     33.0369E-03
             281     13.4792E-03     80.1561E-03    -2.66077E+06     83.6124E+06     95.5417E+06     285.931E+03    -288.595E-03     578.210E-03    -289.616E-03     45.8912E-03    -289.447E-03     579.073E-03    -289.255E-03     32.5980E-03
             282     13.4783E-03     81.8480E-03    -3.08526E+06     82.7522E+06     94.6124E+06    -1.24521E+06    -288.605E-03     578.231E-03    -289.626E-03     45.7395E-03    -289.457E-03     579.092E-03    -289.269E-03     32.3797E-03
             283     13.4789E-03     83.5378E-03    -2.35770E+06     83.4391E+06     94.5433E+06    -336.750E+03    -288.471E-03     578.087E-03    -289.616E-03     46.5055E-03    -289.326E-03     578.955E-03    -289.261E-03     33.1823E-03
             284     13.4793E-03     85.2303E-03    -2.14696E+06     85.8327E+06     96.6630E+06    -196.980E+03    -288.569E-03     578.164E-03    -289.595E-03     46.4433E-03    -289.422E-03     579.033E-03    -289.233E-03     33.2497E-03
             285     13.4792E-03     86.9212E-03    -1.33883E+06     84.9741E+06     95.5944E+06    -288.819E+03    -288.597E-03     578.173E-03    -289.576E-03     46.4294E-03    -289.437E-03     579.032E-03    -289.219E-03     33.3261E-03
             286     13.4797E-03     88.6123E-03    -2.35517E+06     83.1037E+06     94.0836E+06     399.614E+03    -288.827E-03     578.408E-03    -289.582E-03     45.8631E-03    -289.664E-03     579.260E-03    -289.228E-03     32.7353E-03
             287     13.4780E-03     90.3044E-03    -2.76582E+06     81.1581E+06     93.5147E+06     271.792E+03    -288.760E-03     578.384E-03    -289.624E-03     45.3383E-03    -289.599E-03     579.230E-03    -289.270E-03     32.1081E-03
             288     13.4788E-03     91.9944E-03    -3.08784E+06     80.8470E+06     93.5045E+06     844.954E+03    -288.237E-03     577.880E-03    -289.643E-03     46.2950E-03    -289.086E-03     578.733E-03    -289.288E-03     33.0629E-03
             289     13.4787E-03     93.6853E-03    -2.47211E+06     80.4343E+06     94.5430E+06    -751.402E+03    -288.314E-03     577.938E-03    -289.625E-03     46.4260E-03    -289.161E-03     578.788E-03    -289.265E-03     33.1580E-03
             290     13.4792E-03     95.3761E-03    -2.66577E+06     76.7355E+06     93.7821E+06    -775.027E+03    -288.648E-03     578.265E-03    -289.617E-03     45.9971E-03    -289.489E-03     579.097E-03    -289.255E-03     32.6811E-03
             291     13.4784E-03     97.0677E-03     -3.3823E+06     76.3281E+06     93.4194E+06    -270.135E+03    -288.333E-03     577.937E-03    -289.604E-03     46.5290E-03    -289.177E-03     578.769E-03    -289.243E-03     33.2822E-03
             292     673.592E-06     98.9969E-03    -132.766E+06    -249.303E+06    -130.428E+06     2.37478E+03    -289.710E-03     579.388E-03    -289.677E-03     5.44114E-03    -289.824E-03     578.524E-03    -289.776E-03     5.47671E-03
             293     1.34718E-03     99.0108E-03    -129.401E+06    -238.995E+06    -120.541E+06    -33.6369E+03    -289.693E-03     579.411E-03    -289.718E-03     9.98641E-03    -289.821E-03     578.582E-03    -289.787E-03     10.0316E-03
             294     2.02077E-03     99.0334E-03    -124.077E+06    -223.605E+06    -105.841E+06    -85.7263E+03    -289.699E-03     579.450E-03    -289.751E-03     14.8952E-03    -289.848E-03     578.672E-03    -289.776E-03     14.8966E-03
             295     2.69431E-03     99.0651E-03    -117.398E+06    -204.559E+06    -88.1841E+06    -119.286E+03    -289.689E-03     579.474E-03    -289.784E-03     19.9671E-03    -289.864E-03     578.761E-03    -289.758E-03     19.8403E-03
             296     3.36800E-03     99.1055E-03    -109.582E+06    -186.268E+06    -69.0157E+06    -144.890E+03    -289.694E-03     579.511E-03    -289.817E-03     25.1441E-03    -289.894E-03     578.861E-03    -289.733E-03     24.7850E-03
             297     4.04174E-03     99.1550E-03    -101.177E+06    -164.178E+06    -50.1819E+06    -101.886E+03    -289.721E-03     579.558E-03    -289.837E-03     30.4886E-03    -289.953E-03     578.993E-03    -289.703E-03     29.7814E-03
             298     4.71555E-03     99.2135E-03    -92.5670E+06    -138.311E+06    -32.3556E+06    -139.386E+03    -289.756E-03     579.600E-03    -289.844E-03     35.9575E-03    -290.029E-03     579.147E-03    -289.671E-03     34.7519E-03
             299     5.38944E-03     99.2809E-03    -83.8201E+06    -113.955E+06    -15.5312E+06    -375.983E+03    -289.803E-03     579.648E-03    -289.846E-03     41.4144E-03    -290.121E-03     579.310E-03    -289.637E-03     39.5478E-03
             300     6.06331E-03     99.3564E-03    -75.0681E+06    -87.1477E+06     150.206E+03    -410.632E+03    -289.840E-03     579.676E-03    -289.836E-03     46.8581E-03    -290.216E-03     579.476E-03    -289.600E-03     44.1845E-03
             301     6.73742E-03     99.4409E-03    -66.8723E+06    -56.7961E+06     15.1200E+06    -352.416E+03    -289.860E-03     579.676E-03    -289.816E-03     52.1738E-03    -290.312E-03     579.646E-03    -289.561E-03     48.5317E-03
             302     7.41136E-03     99.5322E-03    -59.3736E+06    -20.3282E+06     29.6462E+06    -749.809E+03    -289.841E-03     579.625E-03    -289.784E-03     57.3504E-03    -290.396E-03     579.811E-03    -289.520E-03     52.5568E-03
             303     8.08548E-03     99.6309E-03    -51.9603E+06     17.2711E+06     42.7006E+06    -1.02016E+06    -289.775E-03     579.513E-03    -289.738E-03     62.4224E-03    -290.449E-03     579.940E-03    -289.474E-03     56.3079E-03
             304     8.75956E-03     99.7357E-03    -44.3720E+06     37.0694E+06     52.2494E+06    -12.8347E+03    -289.737E-03     579.435E-03    -289.698E-03     67.0504E-03    -290.517E-03     580.038E-03    -289.426E-03     59.4792E-03
             305     9.43423E-03     99.8459E-03    -36.9100E+06     41.4994E+06     61.0364E+06     1.48656E+06    -289.780E-03     579.459E-03    -289.679E-03     70.9506E-03    -290.657E-03     580.175E-03    -289.381E-03     61.8295E-03
             306     10.1080E-03     99.9593E-03    -30.4027E+06     43.3759E+06     70.0194E+06     1.45375E+06    -289.772E-03     579.445E-03    -289.673E-03     73.9326E-03    -290.759E-03     580.275E-03    -289.342E-03     63.1601E-03
             307     10.7824E-03     100.074E-03    -24.2918E+06     47.1922E+06     76.5627E+06     249.738E+03    -289.588E-03     579.244E-03    -289.657E-03     75.2868E-03    -290.685E-03     580.201E-03    -289.307E-03     62.8190E-03
             308     11.4569E-03     100.186E-03    -16.6187E+06     64.6340E+06     88.2415E+06    -339.011E+03    -289.218E-03     578.862E-03    -289.644E-03     73.5543E-03    -290.404E-03     579.962E-03    -289.272E-03     59.6827E-03
             309     12.1318E-03     100.288E-03    -9.54763E+06     76.7948E+06     96.9234E+06     10.7561E+03    -288.980E-03     578.609E-03    -289.629E-03     72.4541E-03    -290.335E-03     579.921E-03    -289.242E-03     56.2915E-03
             310     12.8063E-03     100.388E-03    -4.99841E+06     77.4974E+06     95.8278E+06     340.739E+03    -289.021E-03     578.623E-03    -289.602E-03     59.2714E-03    -290.184E-03     579.765E-03    -289.228E-03     43.7419E-03
             311     673.546E-06     100.688E-03    -132.895E+06    -249.176E+06    -130.464E+06    -58.0569E+03    -289.713E-03     579.388E-03    -289.675E-03     5.47010E-03    -289.828E-03     578.525E-03    -289.773E-03     5.50908E-03
             312     1.34711E-03     100.702E-03    -129.382E+06    -238.779E+06    -120.480E+06    -82.0534E+03    -289.681E-03     579.397E-03    -289.716E-03     10.0841E-03    -289.810E-03     578.568E-03    -289.785E-03     10.1347E-03
             313     2.02069E-03     100.725E-03    -124.167E+06    -223.347E+06    -105.788E+06    -130.683E+03    -289.666E-03     579.408E-03    -289.742E-03     15.0511E-03    -289.816E-03     578.631E-03    -289.767E-03     15.0572E-03
             314     2.69444E-03     100.756E-03    -117.571E+06    -204.370E+06    -88.0929E+06    -211.517E+03    -289.648E-03     579.416E-03    -289.768E-03     20.1290E-03    -289.824E-03     578.705E-03    -289.742E-03     20.0058E-03
             315     3.36817E-03     100.797E-03    -109.833E+06    -186.258E+06    -69.1111E+06    -163.007E+03    -289.669E-03     579.465E-03    -289.796E-03     25.3046E-03    -289.870E-03     578.815E-03    -289.712E-03     24.9505E-03
             316     4.04192E-03     100.846E-03    -101.327E+06    -163.929E+06    -50.2068E+06    -208.590E+03    -289.703E-03     579.519E-03    -289.816E-03     30.6233E-03    -289.936E-03     578.956E-03    -289.682E-03     29.9144E-03
             317     4.71573E-03     100.905E-03    -92.6852E+06    -138.031E+06    -32.3722E+06    -298.219E+03    -289.731E-03     579.553E-03    -289.822E-03     36.0108E-03    -290.005E-03     579.103E-03    -289.650E-03     34.8005E-03
             318     5.38960E-03     100.972E-03    -84.1032E+06    -113.555E+06    -15.6262E+06    -213.317E+03    -289.795E-03     579.619E-03    -289.824E-03     41.4173E-03    -290.115E-03     579.283E-03    -289.616E-03     39.5498E-03
             319     6.06348E-03     101.048E-03    -76.0860E+06    -87.0305E+06    -310.523E+03    -260.084E+03    -289.848E-03     579.666E-03    -289.817E-03     46.8272E-03    -290.230E-03     579.469E-03    -289.582E-03     44.1373E-03
             320     6.73732E-03     101.132E-03    -68.0392E+06    -56.8083E+06     14.1892E+06    -316.999E+03    -289.818E-03     579.615E-03    -289.797E-03     52.0961E-03    -290.275E-03     579.588E-03    -289.545E-03     48.4300E-03
             321     7.41154E-03     101.223E-03    -59.7622E+06    -20.1442E+06     28.8274E+06     117.079E+03    -289.758E-03     579.518E-03    -289.760E-03     57.2342E-03    -290.314E-03     579.707E-03    -289.500E-03     52.4389E-03
             322     8.08571E-03     101.322E-03    -52.2069E+06     16.8682E+06     41.8248E+06     742.475E+03    -289.727E-03     579.439E-03    -289.712E-03     62.2641E-03    -290.401E-03     579.866E-03    -289.451E-03     56.1552E-03
             323     8.76010E-03     101.427E-03    -45.4003E+06     36.0456E+06     50.8687E+06     363.642E+03    -289.768E-03     579.441E-03    -289.672E-03     66.9126E-03    -290.550E-03     580.042E-03    -289.405E-03     59.3302E-03
             324     9.43394E-03     101.536E-03    -37.9129E+06     40.0764E+06     59.3029E+06    -348.213E+03    -289.791E-03     579.447E-03    -289.656E-03     70.8099E-03    -290.669E-03     580.161E-03    -289.363E-03     61.6431E-03
             325     10.1087E-03     101.650E-03    -29.3025E+06     44.0859E+06     69.9589E+06    -398.941E+03    -289.726E-03     579.379E-03    -289.654E-03     73.6577E-03    -290.708E-03     580.211E-03    -289.325E-03     62.8271E-03
             326     10.7830E-03     101.764E-03    -21.7092E+06     48.9773E+06     78.6346E+06    -394.602E+03    -289.652E-03     579.299E-03    -289.647E-03     74.6845E-03    -290.741E-03     580.257E-03    -289.293E-03     62.1544E-03
             327     11.4571E-03     101.876E-03    -16.5117E+06     63.7073E+06     89.1524E+06     48.1036E+03    -289.549E-03     579.199E-03    -289.651E-03     72.4454E-03    -290.731E-03     580.290E-03    -289.273E-03     58.4869E-03
             328     12.1309E-03     101.979E-03    -11.4669E+06     76.5467E+06     96.7108E+06     422.487E+03    -289.516E-03     579.175E-03    -289.659E-03     71.3415E-03    -290.871E-03     580.481E-03    -289.270E-03     55.1414E-03
             329     12.8037E-03     102.082E-03    -5.48986E+06     78.1787E+06     95.4678E+06     260.221E+03    -289.223E-03     578.871E-03    -289.649E-03     59.0061E-03    -290.386E-03     580.016E-03    -289.277E-03     43.4513E-03
             330     673.597E-06     102.379E-03    -132.398E+06    -249.084E+06    -129.980E+06     39.9057E+03    -289.670E-03     579.317E-03    -289.647E-03     5.50482E-03    -289.783E-03     578.453E-03    -289.744E-03     5.54089E-03
             331     1.34724E-03     102.393E-03    -129.061E+06    -238.722E+06    -120.096E+06     24.2725E+03    -289.632E-03     579.310E-03    -289.678E-03     10.1430E-03    -289.760E-03     578.481E-03    -289.745E-03     10.1894E-03
             332     2.02093E-03     102.416E-03    -123.845E+06    -223.209E+06    -105.437E+06     58.6891E+03    -289.621E-03     579.321E-03    -289.700E-03     15.0752E-03    -289.770E-03     578.544E-03    -289.724E-03     15.0802E-03
             333     2.69456E-03     102.447E-03    -117.164E+06    -204.234E+06    -87.7871E+06     97.3509E+03    -289.632E-03     579.360E-03    -289.728E-03     20.1195E-03    -289.807E-03     578.649E-03    -289.701E-03     19.9970E-03
             334     3.36827E-03     102.488E-03    -109.409E+06    -186.028E+06    -68.8519E+06     17.9616E+03    -289.671E-03     579.433E-03    -289.763E-03     25.2801E-03    -289.871E-03     578.784E-03    -289.678E-03     24.9206E-03
             335     4.04203E-03     102.537E-03    -101.097E+06    -163.621E+06    -50.2066E+06    -20.3694E+03    -289.721E-03     579.509E-03    -289.788E-03     30.5702E-03    -289.954E-03     578.948E-03    -289.655E-03     29.8543E-03
             336     4.71581E-03     102.596E-03    -92.6937E+06    -138.120E+06    -32.5121E+06     76.6857E+03    -289.766E-03     579.569E-03    -289.803E-03     35.9205E-03    -290.040E-03     579.118E-03    -289.631E-03     34.6996E-03
             337     5.38963E-03     102.663E-03    -84.5130E+06    -114.014E+06    -15.9716E+06     248.508E+03    -289.787E-03     579.597E-03    -289.810E-03     41.3395E-03    -290.109E-03     579.260E-03    -289.602E-03     39.4582E-03
             338     6.06354E-03     102.739E-03    -76.2404E+06    -86.7249E+06    -437.970E+03     322.714E+03    -289.805E-03     579.607E-03    -289.802E-03     46.7887E-03    -290.188E-03     579.413E-03    -289.568E-03     44.0907E-03
             339     6.73759E-03     102.823E-03    -68.1303E+06    -56.4128E+06     14.0514E+06     187.020E+03    -289.824E-03     579.604E-03    -289.781E-03     52.0537E-03    -290.283E-03     579.580E-03    -289.530E-03     48.3709E-03
             340     7.41157E-03     102.914E-03    -60.2813E+06    -21.5908E+06     27.9784E+06     340.042E+03    -289.796E-03     579.543E-03    -289.747E-03     57.1223E-03    -290.352E-03     579.728E-03    -289.489E-03     52.3051E-03
             341     8.08580E-03     103.013E-03    -52.2708E+06     15.7607E+06     41.2242E+06     572.757E+03    -289.770E-03     579.474E-03    -289.704E-03     62.0274E-03    -290.443E-03     579.898E-03    -289.445E-03     55.8941E-03
             342     8.75987E-03     103.117E-03    -43.8619E+06     37.9616E+06     52.0108E+06     389.329E+03    -289.811E-03     579.483E-03    -289.672E-03     66.6210E-03    -290.589E-03     580.090E-03    -289.403E-03     59.0234E-03
             343     9.43439E-03     103.228E-03    -36.4849E+06     42.7369E+06     61.4497E+06    -728.299E+03    -289.905E-03     579.572E-03    -289.667E-03     70.4863E-03    -290.782E-03     580.293E-03    -289.369E-03     61.2914E-03
             344     10.1082E-03     103.341E-03    -30.5370E+06     45.5267E+06     71.0093E+06    -2.20482E+06    -289.981E-03     579.659E-03    -289.678E-03     73.1792E-03    -290.972E-03     580.497E-03    -289.345E-03     62.2808E-03
             345     10.7823E-03     103.456E-03    -24.0219E+06     46.2716E+06     77.1738E+06    -1.61473E+06    -289.985E-03     579.671E-03    -289.686E-03     74.1012E-03    -291.078E-03     580.619E-03    -289.333E-03     61.5108E-03
             346     11.4560E-03     103.568E-03    -16.4048E+06     61.6178E+06     87.9054E+06    -81.0345E+03    -289.780E-03     579.482E-03    -289.702E-03     72.3492E-03    -290.954E-03     580.561E-03    -289.328E-03     58.4109E-03
             347     12.1295E-03     103.672E-03    -9.62897E+06     76.9396E+06     96.3465E+06     460.130E+03    -289.267E-03     578.971E-03    -289.704E-03     72.0956E-03    -290.612E-03     580.276E-03    -289.320E-03     56.0133E-03
             348     12.8044E-03     103.773E-03    -4.60113E+06     78.0103E+06     94.6621E+06     789.499E+03    -288.636E-03     578.303E-03    -289.667E-03     59.9227E-03    -289.799E-03     579.451E-03    -289.300E-03     44.4305E-03
             349     673.641E-06     104.070E-03    -131.926E+06    -249.261E+06    -129.530E+06     52.5749E+03    -289.639E-03     579.265E-03    -289.627E-03     5.46204E-03    -289.750E-03     578.399E-03    -289.722E-03     5.49361E-03
             350     1.34726E-03     104.084E-03    -128.468E+06    -238.905E+06    -119.658E+06     147.721E+03    -289.623E-03     579.278E-03    -289.655E-03     10.0396E-03    -289.748E-03     578.446E-03    -289.721E-03     10.0806E-03
             351     2.02090E-03     104.107E-03    -123.298E+06    -223.438E+06    -105.124E+06     261.158E+03    -289.621E-03     579.305E-03    -289.683E-03     14.9501E-03    -289.768E-03     578.525E-03    -289.706E-03     14.9519E-03
             352     2.69464E-03     104.138E-03    -116.618E+06    -204.297E+06    -87.5086E+06     320.767E+03    -289.638E-03     579.354E-03    -289.716E-03     19.9855E-03    -289.810E-03     578.641E-03    -289.689E-03     19.8591E-03
             353     3.36836E-03     104.179E-03    -108.893E+06    -185.928E+06    -68.5281E+06     349.727E+03    -289.685E-03     579.440E-03    -289.755E-03     25.1474E-03    -289.883E-03     578.790E-03    -289.670E-03     24.7875E-03
             354     4.04207E-03     104.228E-03    -100.813E+06    -163.863E+06    -49.9815E+06     435.952E+03    -289.726E-03     579.511E-03    -289.785E-03     30.4493E-03    -289.957E-03     578.947E-03    -289.651E-03     29.7322E-03
             355     4.71583E-03     104.287E-03    -92.4584E+06    -138.356E+06    -32.2582E+06     491.559E+03    -289.742E-03     579.541E-03    -289.799E-03     35.8544E-03    -290.015E-03     579.089E-03    -289.626E-03     34.6237E-03
             356     5.38965E-03     104.354E-03    -83.9584E+06    -114.211E+06    -15.6152E+06     387.036E+03    -289.759E-03     579.563E-03    -289.804E-03     41.3035E-03    -290.079E-03     579.225E-03    -289.595E-03     39.4063E-03
             357     6.06363E-03     104.430E-03    -75.3407E+06    -87.1388E+06    -110.960E+03     548.565E+03    -289.781E-03     579.574E-03    -289.793E-03     46.7283E-03    -290.159E-03     579.376E-03    -289.558E-03     44.0256E-03
             358     6.73761E-03     104.514E-03    -67.0854E+06    -56.7816E+06     14.6816E+06     961.255E+03    -289.854E-03     579.629E-03    -289.774E-03     51.9522E-03    -290.308E-03     579.600E-03    -289.521E-03     48.2774E-03
             359     7.41165E-03     104.605E-03    -59.1831E+06    -21.3176E+06     29.1414E+06     687.847E+03    -289.927E-03     579.677E-03    -289.751E-03     56.9976E-03    -290.480E-03     579.860E-03    -289.488E-03     52.1657E-03
             360     8.08559E-03     104.704E-03    -51.1988E+06     16.8503E+06     42.7673E+06    -334.535E+03    -289.935E-03     579.656E-03    -289.721E-03     61.9196E-03    -290.606E-03     580.081E-03    -289.457E-03     55.7600E-03
             361     8.75982E-03     104.808E-03    -43.4544E+06     38.4761E+06     52.9022E+06    -906.130E+03    -289.979E-03     579.679E-03    -289.700E-03     66.3972E-03    -290.756E-03     580.285E-03    -289.428E-03     58.7707E-03
             362     9.43368E-03     104.918E-03    -35.7867E+06     43.7573E+06     61.9384E+06    -249.485E+03    -290.069E-03     579.772E-03    -289.703E-03     70.2005E-03    -290.943E-03     580.495E-03    -289.404E-03     61.0138E-03
             363     10.1079E-03     105.033E-03    -28.7571E+06     47.8061E+06     72.6900E+06     347.475E+03    -290.095E-03     579.818E-03    -289.723E-03     73.1926E-03    -291.081E-03     580.661E-03    -289.388E-03     62.3651E-03
             364     10.7814E-03     105.147E-03    -23.2189E+06     46.4867E+06     78.1205E+06    -935.901E+03    -289.945E-03     579.675E-03    -289.730E-03     74.7514E-03    -291.035E-03     580.622E-03    -289.374E-03     62.2435E-03
             365     11.4554E-03     105.260E-03    -18.5468E+06     59.5318E+06     85.8757E+06    -1.54561E+06    -289.466E-03     579.190E-03    -289.723E-03     73.3406E-03    -290.647E-03     580.267E-03    -289.354E-03     59.4660E-03
             366     12.1303E-03     105.363E-03    -13.0757E+06     75.2682E+06     93.9030E+06    -174.217E+03    -288.880E-03     578.583E-03    -289.702E-03     72.5305E-03    -290.241E-03     579.892E-03    -289.323E-03     56.4454E-03
             367     12.8045E-03     105.463E-03    -6.47407E+06     77.8711E+06     94.3703E+06     34.7573E+03    -288.547E-03     578.205E-03    -289.658E-03     59.7437E-03    -289.719E-03     579.357E-03    -289.290E-03     44.2184E-03
             368     673.588E-06     105.761E-03    -131.757E+06    -249.499E+06    -129.470E+06     22.8665E+03    -289.697E-03     579.318E-03    -289.620E-03     5.44647E-03    -289.807E-03     578.450E-03    -289.715E-03     5.48217E-03
             369     1.34722E-03     105.775E-03    -128.368E+06    -239.249E+06    -119.613E+06     73.9226E+03    -289.660E-03     579.344E-03    -289.684E-03     9.98499E-03    -289.784E-03     578.510E-03    -289.749E-03     10.0327E-03
             370     2.02088E-03     105.798E-03    -123.059E+06    -223.830E+06    -105.022E+06     141.908E+03    -289.651E-03     579.365E-03    -289.714E-03     14.8704E-03    -289.796E-03     578.583E-03    -289.736E-03     14.8702E-03
             371     2.69449E-03     105.829E-03    -116.359E+06    -204.602E+06    -87.3487E+06     217.127E+03    -289.644E-03     579.388E-03    -289.744E-03     19.9178E-03    -289.815E-03     578.673E-03    -289.716E-03     19.7874E-03
             372     3.36818E-03     105.870E-03    -108.661E+06    -186.221E+06    -68.2717E+06     297.748E+03    -289.670E-03     579.447E-03    -289.778E-03     25.1080E-03    -289.867E-03     578.795E-03    -289.691E-03     24.7450E-03
             373     4.04193E-03     105.920E-03    -100.370E+06    -164.287E+06    -49.5364E+06     267.649E+03    -289.670E-03     579.469E-03    -289.798E-03     30.4242E-03    -289.899E-03     578.902E-03    -289.662E-03     29.6961E-03
             374     4.71578E-03     105.978E-03    -91.7570E+06    -138.704E+06    -31.7881E+06     332.387E+03    -289.670E-03     579.472E-03    -289.802E-03     35.8514E-03    -289.940E-03     579.016E-03    -289.626E-03     34.6149E-03
             375     5.38975E-03     106.045E-03    -82.9428E+06    -114.095E+06    -14.9288E+06     472.288E+03    -289.757E-03     579.557E-03    -289.801E-03     41.2841E-03    -290.072E-03     579.217E-03    -289.590E-03     39.3951E-03
             376     6.06362E-03     106.121E-03    -74.3358E+06    -87.5768E+06     673.663E+03     364.429E+03    -289.868E-03     579.664E-03    -289.796E-03     46.6341E-03    -290.242E-03     579.461E-03    -289.558E-03     43.9264E-03
             377     6.73761E-03     106.205E-03    -65.6721E+06    -57.5910E+06     15.5452E+06     298.007E+03    -289.947E-03     579.734E-03    -289.786E-03     51.8428E-03    -290.394E-03     579.698E-03    -289.530E-03     48.1575E-03
             378     7.41152E-03     106.297E-03    -57.1885E+06    -21.0954E+06     30.3759E+06     438.288E+03    -290.008E-03     579.778E-03    -289.769E-03     56.8706E-03    -290.553E-03     579.956E-03    -289.504E-03     52.0376E-03
             379     8.08551E-03     106.395E-03    -49.3368E+06     18.2171E+06     44.3513E+06     812.581E+03    -290.055E-03     579.802E-03    -289.747E-03     61.8427E-03    -290.720E-03     580.228E-03    -289.480E-03     55.7030E-03
             380     8.75930E-03     106.500E-03    -42.3927E+06     39.8251E+06     54.3667E+06     643.445E+03    -290.120E-03     579.854E-03    -289.734E-03     66.5202E-03    -290.896E-03     580.463E-03    -289.458E-03     58.9297E-03
             381     9.43326E-03     106.610E-03    -36.3619E+06     43.2621E+06     62.2032E+06    -247.321E+03    -290.107E-03     579.846E-03    -289.739E-03     70.5713E-03    -290.983E-03     580.566E-03    -289.438E-03     61.4147E-03
             382     10.1071E-03     106.724E-03    -29.6883E+06     46.5096E+06     70.8468E+06    -172.456E+03    -289.892E-03     579.634E-03    -289.742E-03     73.6027E-03    -290.879E-03     580.475E-03    -289.412E-03     62.8050E-03
             383     10.7819E-03     106.839E-03    -22.4657E+06     49.3608E+06     77.8850E+06     543.331E+03    -289.592E-03     579.321E-03    -289.728E-03     74.9227E-03    -290.683E-03     580.281E-03    -289.378E-03     62.4687E-03
             384     11.4564E-03     106.950E-03    -15.8321E+06     59.6386E+06     86.9750E+06     374.950E+03    -289.304E-03     579.017E-03    -289.713E-03     73.2348E-03    -290.473E-03     580.089E-03    -289.342E-03     59.3876E-03
             385     12.1302E-03     107.054E-03    -9.55714E+06     74.3223E+06     95.3860E+06    -427.804E+03    -289.013E-03     578.707E-03    -289.694E-03     72.3730E-03    -290.359E-03     580.006E-03    -289.311E-03     56.2337E-03
             386     12.8043E-03     107.155E-03    -4.15022E+06     78.7646E+06     95.4656E+06    -810.146E+03    -288.681E-03     578.335E-03    -289.654E-03     59.8007E-03    -289.846E-03     579.488E-03    -289.285E-03     44.2416E-03
             387     673.583E-06     107.452E-03    -131.682E+06    -249.689E+06    -129.312E+06     78.1068E+03    -289.764E-03     579.427E-03    -289.663E-03     5.41218E-03    -289.873E-03     578.557E-03    -289.757E-03     5.45647E-03
             388     1.34714E-03     107.466E-03    -128.411E+06    -239.350E+06    -119.530E+06     68.1688E+03    -289.696E-03     579.430E-03    -289.734E-03     9.98805E-03    -289.820E-03     578.596E-03    -289.799E-03     10.0397E-03
             389     2.02069E-03     107.489E-03    -123.129E+06    -223.933E+06    -104.896E+06    -24.5751E+03    -289.657E-03     579.413E-03    -289.756E-03     14.8986E-03    -289.802E-03     578.630E-03    -289.777E-03     14.8916E-03
             390     2.69441E-03     107.520E-03    -116.372E+06    -204.868E+06    -87.2941E+06     1.38909E+03    -289.624E-03     579.398E-03    -289.774E-03     20.0058E-03    -289.795E-03     578.681E-03    -289.744E-03     19.8713E-03
             391     3.36815E-03     107.561E-03    -108.461E+06    -186.310E+06       -68.2E+06    -45.8367E+03    -289.618E-03     579.411E-03    -289.793E-03     25.2257E-03    -289.813E-03     578.758E-03    -289.707E-03     24.8580E-03
             392     4.04195E-03     107.611E-03    -100.179E+06    -164.500E+06    -49.4246E+06    -69.5914E+03    -289.629E-03     579.432E-03    -289.803E-03     30.4874E-03    -289.856E-03     578.863E-03    -289.666E-03     29.7534E-03
             393     4.71587E-03     107.669E-03    -91.7339E+06    -139.074E+06    -31.7822E+06     20.9764E+03    -289.693E-03     579.496E-03    -289.804E-03     35.8323E-03    -289.962E-03     579.038E-03    -289.628E-03     34.6021E-03
             394     5.38971E-03     107.736E-03    -82.8658E+06    -114.158E+06    -14.9434E+06     61.4068E+03    -289.819E-03     579.626E-03    -289.807E-03     41.2129E-03    -290.134E-03     579.285E-03    -289.596E-03     39.3335E-03
             395     6.06359E-03     107.812E-03    -74.3501E+06    -87.3496E+06     791.712E+03    -16.7620E+03    -289.949E-03     579.759E-03    -289.810E-03     46.5609E-03    -290.323E-03     579.557E-03    -289.572E-03     43.8575E-03
             396     6.73731E-03     107.896E-03    -66.2634E+06    -57.4697E+06     15.5523E+06    -140.771E+03    -290.012E-03     579.819E-03    -289.807E-03     51.8340E-03    -290.461E-03     579.784E-03    -289.550E-03     48.1458E-03
             397     7.41125E-03     107.988E-03    -58.1683E+06    -22.1942E+06     29.8944E+06     145.599E+03    -290.014E-03     579.805E-03    -289.792E-03     56.9711E-03    -290.560E-03     579.980E-03    -289.526E-03     52.1517E-03
             398     8.08518E-03     108.086E-03    -50.1483E+06     16.8606E+06     43.6056E+06     713.563E+03    -290.012E-03     579.776E-03    -289.764E-03     62.0531E-03    -290.678E-03     580.197E-03    -289.498E-03     55.9341E-03
             399     8.75932E-03     108.192E-03    -42.2081E+06     39.7240E+06     53.8911E+06     1.36292E+06    -290.011E-03     579.752E-03    -289.741E-03     66.8253E-03    -290.786E-03     580.362E-03    -289.468E-03     59.2593E-03
             400     9.43341E-03     108.301E-03    -34.6248E+06     44.8987E+06     62.6183E+06     1.71226E+06    -289.977E-03     579.712E-03    -289.735E-03     70.8725E-03    -290.850E-03     580.440E-03    -289.437E-03     61.7500E-03
             401     10.1077E-03     108.415E-03    -28.5877E+06     48.1127E+06     72.1092E+06     422.288E+03    -289.885E-03     579.623E-03    -289.737E-03     73.8082E-03    -290.874E-03     580.471E-03    -289.405E-03     62.9967E-03
             402     10.7815E-03     108.529E-03    -22.4457E+06     49.2335E+06     79.5721E+06    -964.062E+03    -289.730E-03     579.465E-03    -289.734E-03     74.7884E-03    -290.824E-03     580.423E-03    -289.375E-03     62.2745E-03
             403     11.4558E-03     108.641E-03    -15.4260E+06     58.7075E+06     87.7150E+06    -502.286E+03    -289.349E-03     579.071E-03    -289.722E-03     72.7828E-03    -290.513E-03     580.134E-03    -289.346E-03     58.9065E-03
             404     12.1303E-03     108.745E-03    -9.78654E+06     75.2033E+06     95.2741E+06     263.745E+03    -288.846E-03     578.540E-03    -289.694E-03     72.1339E-03    -290.193E-03     579.842E-03    -289.312E-03     56.0196E-03
             405     12.8047E-03     108.845E-03    -5.00819E+06     79.3967E+06     95.9113E+06     351.983E+03    -288.628E-03     578.281E-03    -289.653E-03     59.8394E-03    -289.799E-03     579.438E-03    -289.281E-03     44.3000E-03
             406     673.506E-06     109.143E-03    -131.936E+06    -249.718E+06    -129.565E+06    -42.2984E+03    -289.745E-03     579.473E-03    -289.728E-03     5.47135E-03    -289.856E-03     578.604E-03    -289.822E-03     5.51035E-03
             407     1.34706E-03     109.157E-03    -128.438E+06    -239.360E+06    -119.666E+06    -27.4657E+03    -289.671E-03     579.418E-03    -289.748E-03     10.0940E-03    -289.795E-03     578.584E-03    -289.813E-03     10.1367E-03
             408     2.02075E-03     109.180E-03    -123.326E+06    -223.800E+06    -105.022E+06    -74.5857E+03    -289.633E-03     579.387E-03    -289.755E-03     15.0467E-03    -289.779E-03     578.606E-03    -289.776E-03     15.0375E-03
             409     2.69440E-03     109.212E-03    -116.542E+06    -204.672E+06    -87.3613E+06    -249.372E+03    -289.631E-03     579.401E-03    -289.770E-03     20.1096E-03    -289.802E-03     578.685E-03    -289.741E-03     19.9731E-03
             410     3.36818E-03     109.252E-03    -108.769E+06    -186.423E+06    -68.5973E+06    -168.784E+03    -289.633E-03     579.424E-03    -289.791E-03     25.1960E-03    -289.829E-03     578.771E-03    -289.706E-03     24.8262E-03
             411     4.04202E-03     109.302E-03    -100.582E+06    -164.479E+06    -49.7453E+06    -34.2706E+03    -289.678E-03     579.486E-03    -289.807E-03     30.3912E-03    -289.908E-03     578.918E-03    -289.672E-03     29.6630E-03
             412     4.71576E-03     109.360E-03    -91.7876E+06    -138.784E+06    -31.7062E+06    -123.824E+03    -289.785E-03     579.603E-03    -289.819E-03     35.7461E-03    -290.054E-03     579.147E-03    -289.643E-03     34.5238E-03
             413     5.38955E-03     109.428E-03    -83.3017E+06    -114.220E+06    -15.2010E+06    -188.249E+03    -289.867E-03     579.696E-03    -289.829E-03     41.1639E-03    -290.184E-03     579.356E-03    -289.619E-03     39.2862E-03
             414     6.06333E-03     109.504E-03    -75.0548E+06    -87.6090E+06     275.988E+03    -28.5316E+03    -289.912E-03     579.743E-03    -289.830E-03     46.6105E-03    -290.288E-03     579.540E-03    -289.593E-03     43.9187E-03
             415     6.73732E-03     109.588E-03    -66.8402E+06    -57.7289E+06     15.0304E+06     244.905E+03    -289.948E-03     579.768E-03    -289.820E-03     51.9481E-03    -290.399E-03     579.733E-03    -289.564E-03     48.2797E-03
             416     7.41123E-03     109.679E-03    -59.0343E+06    -22.5777E+06     29.2706E+06     272.130E+03    -289.941E-03     579.737E-03    -289.796E-03     57.1807E-03    -290.491E-03     579.912E-03    -289.531E-03     52.3791E-03
             417     8.08532E-03     109.778E-03    -51.1199E+06     16.2150E+06     42.9388E+06     73.0362E+03    -289.898E-03     579.658E-03    -289.760E-03     62.3025E-03    -290.567E-03     580.079E-03    -289.494E-03     56.1925E-03
             418     8.75940E-03     109.883E-03    -42.9993E+06     38.6290E+06     52.8700E+06    -61.2267E+03    -289.896E-03     579.623E-03    -289.726E-03     66.9791E-03    -290.673E-03     580.230E-03    -289.455E-03     59.3914E-03
             419     9.43362E-03     109.993E-03    -35.1674E+06     43.3857E+06     61.6489E+06     427.867E+03    -289.926E-03     579.641E-03    -289.715E-03     70.8784E-03    -290.799E-03     580.365E-03    -289.419E-03     61.7116E-03
             420     10.1077E-03     110.106E-03    -27.3101E+06     50.2634E+06     73.9671E+06     1.21765E+06    -289.927E-03     579.652E-03    -289.725E-03     73.7924E-03    -290.916E-03     580.507E-03    -289.388E-03     62.9770E-03
             421     10.7819E-03     110.221E-03    -21.2496E+06     51.4219E+06     81.4947E+06     997.888E+03    -289.824E-03     579.551E-03    -289.727E-03     75.1278E-03    -290.922E-03     580.519E-03    -289.363E-03     62.6181E-03
             422     11.4556E-03     110.332E-03    -17.1099E+06     57.6759E+06     87.2839E+06     400.562E+03    -289.475E-03     579.193E-03    -289.718E-03     73.3685E-03    -290.653E-03     580.261E-03    -289.340E-03     59.4735E-03
             423     12.1300E-03     110.435E-03    -11.4348E+06     74.4318E+06     95.2309E+06     348.995E+03    -288.977E-03     578.675E-03    -289.698E-03     72.3120E-03    -290.331E-03     579.977E-03    -289.313E-03     56.1957E-03
             424     12.8046E-03     110.536E-03    -4.94386E+06     79.6016E+06     96.5356E+06     426.184E+03    -288.609E-03     578.268E-03    -289.659E-03     59.7897E-03    -289.781E-03     579.425E-03    -289.285E-03     44.2435E-03
             425     673.560E-06     110.835E-03    -132.039E+06    -249.582E+06    -129.728E+06    -17.3174E+03    -289.698E-03     579.388E-03    -289.690E-03     5.52856E-03    -289.809E-03     578.520E-03    -289.785E-03     5.55909E-03
             426     1.34722E-03     110.848E-03    -128.683E+06    -239.297E+06    -119.848E+06    -76.2632E+03    -289.655E-03     579.366E-03    -289.710E-03     10.0835E-03    -289.781E-03     578.532E-03    -289.776E-03     10.1185E-03
             427     2.02085E-03     110.871E-03    -123.295E+06    -223.721E+06    -105.203E+06    -50.4934E+03    -289.656E-03     579.386E-03    -289.731E-03     14.9907E-03    -289.802E-03     578.605E-03    -289.753E-03     14.9849E-03
             428     2.69455E-03     110.903E-03    -116.726E+06    -204.539E+06    -87.5471E+06     42.8910E+03    -289.675E-03     579.435E-03    -289.761E-03     20.0223E-03    -289.847E-03     578.722E-03    -289.733E-03     19.8941E-03
             429     3.36816E-03     110.943E-03    -109.386E+06    -186.421E+06    -68.7363E+06    -5.86219E+03    -289.711E-03     579.508E-03    -289.797E-03     25.1209E-03    -289.910E-03     578.857E-03    -289.712E-03     24.7529E-03
             430     4.04182E-03     110.993E-03    -100.891E+06    -164.149E+06    -49.9187E+06    -97.7830E+03    -289.759E-03     579.584E-03    -289.825E-03     30.3958E-03    -289.990E-03     579.019E-03    -289.691E-03     29.6743E-03
             431     4.71560E-03     111.051E-03    -92.3228E+06    -138.536E+06    -32.2542E+06    -200.055E+03    -289.808E-03     579.648E-03    -289.841E-03     35.8163E-03    -290.080E-03     579.194E-03    -289.667E-03     34.5972E-03
             432     5.38936E-03     111.119E-03    -83.9242E+06    -114.319E+06    -15.7749E+06    -211.223E+03    -289.831E-03     579.679E-03    -289.848E-03     41.2508E-03    -290.150E-03     579.339E-03    -289.639E-03     39.3721E-03
             433     6.06332E-03     111.195E-03    -75.5014E+06    -88.1663E+06    -265.368E+03    -103.801E+03    -289.829E-03     579.669E-03    -289.840E-03     46.7128E-03    -290.205E-03     579.466E-03    -289.604E-03     44.0266E-03
             434     6.73725E-03     111.279E-03     -67.148E+06    -58.4889E+06     14.4914E+06     116.117E+03    -289.843E-03     579.662E-03    -289.819E-03     52.0376E-03    -290.294E-03     579.625E-03    -289.564E-03     48.3780E-03
             435     7.41135E-03     111.370E-03    -58.7011E+06    -22.1757E+06     29.3472E+06     257.083E+03    -289.856E-03     579.643E-03    -289.787E-03     57.2057E-03    -290.405E-03     579.819E-03    -289.523E-03     52.4095E-03
             436     8.08546E-03     111.469E-03    -50.6496E+06     17.0176E+06     43.4022E+06     -97.793E+03    -289.841E-03     579.587E-03    -289.746E-03     62.2619E-03    -290.510E-03     580.011E-03    -289.480E-03     56.1489E-03
             437     8.75969E-03     111.574E-03    -43.4170E+06     38.5864E+06     53.6080E+06    -424.950E+03    -289.884E-03     579.599E-03    -289.715E-03     66.9008E-03    -290.664E-03     580.206E-03    -289.440E-03     59.3068E-03
             438     9.43379E-03     111.684E-03    -36.7241E+06     42.2593E+06     61.9845E+06    -554.330E+03    -289.945E-03     579.653E-03    -289.707E-03     70.8245E-03    -290.825E-03     580.372E-03    -289.406E-03     61.6403E-03
             439     10.1079E-03     111.798E-03    -30.1153E+06     47.4369E+06     71.4412E+06     203.811E+03    -289.831E-03     579.537E-03    -289.706E-03     73.7917E-03    -290.824E-03     580.385E-03    -289.374E-03     62.9787E-03
             440     10.7820E-03     111.912E-03    -23.5173E+06     50.1586E+06     78.9421E+06     1.90720E+06    -289.661E-03     579.359E-03    -289.698E-03     75.0051E-03    -290.761E-03     580.325E-03    -289.342E-03     62.5394E-03
             441     11.4569E-03     112.024E-03    -16.1735E+06     60.7084E+06     88.6056E+06     1.75756E+06    -289.530E-03     579.226E-03    -289.696E-03     73.1666E-03    -290.707E-03     580.304E-03    -289.317E-03     59.2932E-03
             442     12.1305E-03     112.127E-03    -9.70822E+06     74.8953E+06     96.4490E+06     549.532E+03    -289.272E-03     578.961E-03    -289.689E-03     72.3669E-03    -290.622E-03     580.263E-03    -289.301E-03     56.2295E-03
             443     12.8041E-03     112.227E-03    -5.08348E+06     79.0665E+06     95.8253E+06     521.101E+03    -288.698E-03     578.353E-03    -289.656E-03     59.9372E-03    -289.870E-03     579.510E-03    -289.284E-03     44.3934E-03
             444     673.642E-06     112.526E-03    -132.409E+06    -249.653E+06    -129.945E+06     48.5086E+03    -289.718E-03     579.368E-03    -289.650E-03     5.38308E-03    -289.831E-03     578.501E-03    -289.745E-03     5.41487E-03
             445     1.34720E-03     112.539E-03    -128.887E+06    -239.226E+06    -120.032E+06     67.7773E+03    -289.693E-03     579.403E-03    -289.711E-03     9.94610E-03    -289.819E-03     578.571E-03    -289.777E-03     9.98508E-03
             446     2.02077E-03     112.562E-03    -123.662E+06    -223.809E+06    -105.439E+06     125.836E+03    -289.702E-03     579.448E-03    -289.746E-03     14.8749E-03    -289.849E-03     578.668E-03    -289.770E-03     14.8754E-03
             447     2.69436E-03     112.594E-03    -117.117E+06    -204.719E+06    -87.8302E+06     210.300E+03    -289.680E-03     579.460E-03    -289.780E-03     19.9220E-03    -289.854E-03     578.746E-03    -289.753E-03     19.8016E-03
             448     3.36811E-03     112.635E-03    -109.423E+06    -186.216E+06    -68.7528E+06     195.321E+03    -289.700E-03     579.513E-03    -289.813E-03     25.1353E-03    -289.900E-03     578.862E-03    -289.728E-03     24.7773E-03
             449     4.04181E-03     112.684E-03    -101.042E+06    -164.015E+06    -50.0112E+06     133.746E+03    -289.762E-03     579.599E-03    -289.837E-03     30.5227E-03    -289.994E-03     579.035E-03    -289.703E-03     29.8118E-03
             450     4.71552E-03     112.743E-03    -92.6774E+06    -138.432E+06    -32.3694E+06     139.945E+03    -289.771E-03     579.620E-03    -289.848E-03     35.9427E-03    -290.045E-03     579.167E-03    -289.675E-03     34.7284E-03
             451     5.38942E-03     112.810E-03    -84.3294E+06    -114.193E+06    -15.7460E+06     104.661E+03    -289.776E-03     579.625E-03    -289.849E-03     41.3619E-03    -290.097E-03     579.287E-03    -289.640E-03     39.4845E-03
             452     6.06330E-03     112.886E-03    -75.9547E+06    -87.7376E+06    -134.358E+03    -171.003E+03    -289.804E-03     579.641E-03    -289.837E-03     46.7668E-03    -290.184E-03     579.440E-03    -289.600E-03     44.0747E-03
             453     6.73738E-03     112.970E-03    -67.5640E+06    -58.0880E+06     14.4498E+06    -661.113E+03    -289.823E-03     579.636E-03    -289.813E-03     52.0449E-03    -290.276E-03     579.602E-03    -289.559E-03     48.3665E-03
             454     7.41143E-03     113.061E-03    -59.0929E+06    -22.6997E+06     28.7337E+06    -715.286E+03    -289.843E-03     579.621E-03    -289.779E-03     57.1543E-03    -290.392E-03     579.797E-03    -289.516E-03     52.3358E-03
             455     8.08552E-03     113.160E-03    -51.1561E+06     16.2835E+06     42.5476E+06     24.7604E+03    -289.834E-03     579.572E-03    -289.738E-03     62.1245E-03    -290.503E-03     579.994E-03    -289.474E-03     56.0044E-03
             456     8.75963E-03     113.265E-03    -43.7473E+06     38.9898E+06     52.9036E+06     430.919E+03    -289.841E-03     579.546E-03    -289.705E-03     66.8095E-03    -290.621E-03     580.155E-03    -289.433E-03     59.2412E-03
             457     9.43374E-03     113.375E-03    -36.5399E+06     43.2016E+06     61.6343E+06     129.517E+03    -289.874E-03     579.567E-03    -289.694E-03     70.8221E-03    -290.751E-03     580.290E-03    -289.395E-03     61.6792E-03
             458     10.1080E-03     113.488E-03    -29.7326E+06     44.4203E+06     71.4139E+06     529.730E+03    -289.862E-03     579.560E-03    -289.698E-03     73.6604E-03    -290.848E-03     580.392E-03    -289.362E-03     62.8534E-03
             459     10.7825E-03     113.603E-03    -23.0501E+06     46.3840E+06     78.4554E+06     1.29449E+06    -289.774E-03     579.469E-03    -289.695E-03     74.7501E-03    -290.863E-03     580.413E-03    -289.336E-03     62.2971E-03
             460     11.4558E-03     113.715E-03    -17.1449E+06     63.6965E+06     88.5466E+06     1.13107E+06    -289.423E-03     579.111E-03    -289.688E-03     72.9523E-03    -290.604E-03     580.200E-03    -289.312E-03     59.1161E-03
             461     12.1304E-03     113.818E-03    -11.5281E+06     76.1279E+06     95.6377E+06     755.588E+03    -289.068E-03     578.742E-03    -289.673E-03     72.3747E-03    -290.427E-03     580.052E-03    -289.289E-03     56.2566E-03
             462     12.8049E-03     113.919E-03    -5.31664E+06     78.4233E+06     95.1428E+06     592.111E+03    -288.717E-03     578.354E-03    -289.637E-03     59.7373E-03    -289.886E-03     579.506E-03    -289.267E-03     44.2092E-03
             463     673.485E-06     114.217E-03    -132.361E+06    -249.852E+06    -130.004E+06     28.9201E+03    -289.743E-03     579.431E-03    -289.688E-03     5.42467E-03    -289.855E-03     578.563E-03    -289.784E-03     5.45933E-03
             464     1.34708E-03     114.231E-03    -128.939E+06    -239.470E+06    -120.087E+06     86.9180E+03    -289.716E-03     579.457E-03    -289.740E-03     10.0441E-03    -289.842E-03     578.623E-03    -289.807E-03     10.0900E-03
             465     2.02068E-03     114.253E-03    -123.753E+06    -224.072E+06    -105.463E+06     162.697E+03    -289.697E-03     579.467E-03    -289.769E-03     14.9825E-03    -289.845E-03     578.685E-03    -289.792E-03     14.9884E-03
             466     2.69433E-03     114.285E-03    -117.011E+06    -205.015E+06    -87.7595E+06     237.442E+03    -289.663E-03     579.458E-03    -289.795E-03     20.0330E-03    -289.836E-03     578.742E-03    -289.767E-03     19.9122E-03
             467     3.36804E-03     114.326E-03    -109.353E+06    -186.403E+06    -68.8114E+06     377.133E+03    -289.675E-03     579.494E-03    -289.819E-03     25.2498E-03    -289.875E-03     578.843E-03    -289.734E-03     24.8962E-03
             468     4.04183E-03     114.375E-03    -101.263E+06    -164.154E+06    -50.1401E+06     461.667E+03    -289.709E-03     579.544E-03    -289.835E-03     30.5747E-03    -289.941E-03     578.980E-03    -289.701E-03     29.8660E-03
             469     4.71564E-03     114.434E-03    -92.7304E+06    -138.606E+06    -32.2621E+06     485.001E+03    -289.725E-03     579.566E-03    -289.840E-03     35.9288E-03    -289.999E-03     579.112E-03    -289.666E-03     34.7135E-03
             470     5.38950E-03     114.501E-03    -84.3815E+06    -114.174E+06    -15.6198E+06     524.925E+03    -289.772E-03     579.611E-03    -289.839E-03     41.3550E-03    -290.094E-03     579.273E-03    -289.629E-03     39.4796E-03
             471     6.06346E-03     114.577E-03    -76.1839E+06    -87.1436E+06    -96.7548E+03     519.353E+03    -289.814E-03     579.642E-03    -289.828E-03     46.7110E-03    -290.196E-03     579.445E-03    -289.592E-03     44.0206E-03
             472     6.73733E-03     114.661E-03    -68.4440E+06    -56.6989E+06      14.431E+06     304.978E+03    -289.827E-03     579.633E-03    -289.806E-03     52.0214E-03    -290.287E-03     579.607E-03    -289.552E-03     48.3570E-03
             473     7.41136E-03     114.752E-03    -61.2889E+06    -21.9875E+06     28.1207E+06    -322.144E+03    -289.840E-03     579.612E-03    -289.772E-03     57.2340E-03    -290.400E-03     579.795E-03    -289.511E-03     52.4252E-03
             474     8.08545E-03     114.851E-03    -53.3859E+06     15.3563E+06     41.2124E+06    -810.791E+03    -289.830E-03     579.561E-03    -289.731E-03     62.2278E-03    -290.507E-03     579.983E-03    -289.470E-03     56.0967E-03
             475     8.75966E-03     114.956E-03    -45.0617E+06     38.1605E+06     51.8964E+06    -465.641E+03    -289.826E-03     579.523E-03    -289.698E-03     66.8422E-03    -290.609E-03     580.132E-03    -289.428E-03     59.2596E-03
             476     9.43406E-03     115.066E-03    -37.7946E+06     42.3319E+06     61.0670E+06     420.756E+03    -289.868E-03     579.556E-03    -289.689E-03     70.6901E-03    -290.749E-03     580.277E-03    -289.390E-03     61.5546E-03
             477     10.1082E-03     115.180E-03    -31.2056E+06     42.8622E+06     69.8749E+06     728.754E+03    -289.881E-03     579.572E-03    -289.691E-03     73.5859E-03    -290.869E-03     580.399E-03    -289.359E-03     62.7839E-03
             478     10.7817E-03     115.294E-03    -24.7471E+06     46.1836E+06     76.0787E+06     427.190E+03    -289.715E-03     579.396E-03    -289.681E-03     74.9991E-03    -290.811E-03     580.347E-03    -289.332E-03     62.5325E-03
             479     11.4567E-03     115.406E-03    -17.4078E+06     64.0711E+06     87.6648E+06     351.762E+03    -289.374E-03     579.048E-03    -289.675E-03     73.3162E-03    -290.558E-03     580.145E-03    -289.304E-03     59.4648E-03
             480     12.1307E-03     115.509E-03    -10.3354E+06     75.9406E+06     96.2126E+06     405.979E+03    -289.007E-03     578.670E-03    -289.663E-03     72.4778E-03    -290.362E-03     579.979E-03    -289.277E-03     56.3488E-03
             481     12.8047E-03     115.610E-03    -5.11578E+06     79.2743E+06     95.4682E+06     278.960E+03    -288.685E-03     578.309E-03    -289.623E-03     59.4849E-03    -289.853E-03     579.463E-03    -289.254E-03     43.9427E-03
             482     673.638E-06     115.908E-03    -132.198E+06    -250.050E+06    -129.914E+06     72.3833E+03    -289.699E-03     579.416E-03    -289.716E-03     5.47083E-03    -289.810E-03     578.546E-03    -289.812E-03     5.51177E-03
             483     1.34717E-03     115.922E-03    -128.926E+06    -239.799E+06    -120.073E+06     133.520E+03    -289.692E-03     579.421E-03    -289.729E-03     10.1222E-03    -289.818E-03     578.586E-03    -289.795E-03     10.1736E-03
             484     2.02075E-03     115.945E-03    -123.693E+06    -224.387E+06    -105.457E+06     217.259E+03    -289.665E-03     579.417E-03    -289.752E-03     15.0642E-03    -289.812E-03     578.634E-03    -289.774E-03     15.0677E-03
             485     2.69444E-03     115.976E-03    -116.964E+06    -205.340E+06    -87.7345E+06     229.541E+03    -289.670E-03     579.448E-03    -289.777E-03     20.1101E-03    -289.843E-03     578.731E-03    -289.749E-03     19.9803E-03
             486     3.36814E-03     116.017E-03    -109.142E+06    -186.903E+06    -68.6944E+06     309.737E+03    -289.704E-03     579.513E-03    -289.809E-03     25.3123E-03    -289.902E-03     578.859E-03    -289.723E-03     24.9497E-03
             487     4.04181E-03     116.067E-03    -100.953E+06    -164.679E+06    -50.0954E+06     562.228E+03    -289.689E-03     579.516E-03    -289.827E-03     30.5759E-03    -289.919E-03     578.949E-03    -289.693E-03     29.8581E-03
             488     4.71568E-03     116.125E-03    -92.7115E+06    -139.141E+06    -32.4434E+06     742.751E+03    -289.706E-03     579.536E-03    -289.830E-03     35.9181E-03    -289.979E-03     579.080E-03    -289.656E-03     34.7036E-03
             489     5.38955E-03     116.192E-03    -84.1516E+06    -114.772E+06    -15.6604E+06     906.319E+03    -289.767E-03     579.595E-03    -289.829E-03     41.3385E-03    -290.086E-03     579.254E-03    -289.618E-03     39.4696E-03
             490     6.06338E-03     116.268E-03    -75.5968E+06    -87.6728E+06     77.0409E+03     1.33045E+06    -289.784E-03     579.601E-03    -289.817E-03     46.7308E-03    -290.163E-03     579.400E-03    -289.580E-03     44.0518E-03
             491     6.73748E-03     116.352E-03    -67.3351E+06    -57.0336E+06     15.0016E+06     1.82930E+06    -289.819E-03     579.613E-03    -289.794E-03     52.0793E-03    -290.273E-03     579.582E-03    -289.539E-03     48.4481E-03
             492     7.41157E-03     116.443E-03    -59.3971E+06    -19.7828E+06     29.8693E+06     1.66122E+06    -289.843E-03     579.605E-03    -289.762E-03     57.2711E-03    -290.399E-03     579.794E-03    -289.498E-03     52.5034E-03
             493     8.08569E-03     116.542E-03    -52.3946E+06     17.6815E+06     43.0708E+06     592.628E+03    -289.851E-03     579.575E-03    -289.724E-03     62.2388E-03    -290.529E-03     580.005E-03    -289.458E-03     56.1215E-03
             494     8.75981E-03     116.647E-03    -45.9889E+06     36.8196E+06     52.1599E+06     64.5909E+03    -289.898E-03     579.593E-03    -289.695E-03     66.8145E-03    -290.685E-03     580.197E-03    -289.421E-03     59.2282E-03
             495     9.43369E-03     116.757E-03    -38.7338E+06     41.5338E+06     60.1418E+06    -8.29648E+03    -289.893E-03     579.577E-03    -289.684E-03     70.7771E-03    -290.777E-03     580.296E-03    -289.387E-03     61.6347E-03
             496     10.1078E-03     116.871E-03    -30.8877E+06     43.5923E+06     68.7456E+06    -628.354E+03    -289.780E-03     579.459E-03    -289.679E-03     73.7612E-03    -290.767E-03     580.292E-03    -289.353E-03     62.9455E-03
             497     10.7828E-03     116.985E-03    -23.5396E+06     46.6548E+06     76.4554E+06    -961.592E+03    -289.653E-03     579.323E-03    -289.670E-03     74.9342E-03    -290.744E-03     580.274E-03    -289.321E-03     62.4414E-03
             498     11.4564E-03     117.097E-03    -17.3237E+06     62.6676E+06     87.8572E+06    -606.519E+03    -289.425E-03     579.092E-03    -289.668E-03     73.0856E-03    -290.606E-03     580.180E-03    -289.294E-03     59.2158E-03
             499     12.1306E-03     117.201E-03    -11.0423E+06     75.0224E+06     95.8642E+06    -61.6483E+03    -289.083E-03     578.742E-03    -289.659E-03     72.2264E-03    -290.438E-03     580.046E-03    -289.272E-03     56.0870E-03
             500     12.8051E-03     117.301E-03    -4.89835E+06     80.2966E+06     96.1208E+06     71.6758E+03    -288.811E-03     578.437E-03    -289.626E-03     59.3915E-03    -289.982E-03     579.597E-03    -289.255E-03     43.8066E-03
             501     673.507E-06     117.599E-03    -132.509E+06    -250.338E+06    -130.192E+06     35.5740E+03    -289.691E-03     579.390E-03    -289.699E-03     5.46397E-03    -289.802E-03     578.520E-03    -289.795E-03     5.50102E-03
             502     1.34716E-03     117.613E-03    -129.123E+06    -240.019E+06    -120.256E+06     97.8063E+03    -289.656E-03     579.368E-03    -289.712E-03     10.0586E-03    -289.782E-03     578.532E-03    -289.778E-03     10.1067E-03
             503     2.02086E-03     117.636E-03    -123.788E+06    -224.607E+06    -105.529E+06     120.096E+03    -289.651E-03     579.383E-03    -289.732E-03     14.9874E-03    -289.797E-03     578.598E-03    -289.754E-03     14.9880E-03
             504     2.69449E-03     117.667E-03    -117.049E+06    -205.570E+06    -87.7878E+06     181.045E+03    -289.673E-03     579.434E-03    -289.761E-03     20.0731E-03    -289.845E-03     578.716E-03    -289.732E-03     19.9431E-03
             505     3.36813E-03     117.708E-03    -109.300E+06    -187.357E+06    -68.7735E+06     204.668E+03    -289.677E-03     579.471E-03    -289.794E-03     25.2884E-03    -289.875E-03     578.815E-03    -289.708E-03     24.9206E-03
             506     4.04193E-03     117.758E-03    -100.769E+06    -165.406E+06    -50.0789E+06     310.317E+03    -289.675E-03     579.486E-03    -289.812E-03     30.5878E-03    -289.903E-03     578.915E-03    -289.676E-03     29.8632E-03
             507     4.71573E-03     117.816E-03    -92.0472E+06    -139.850E+06    -32.2567E+06     546.210E+03    -289.705E-03     579.520E-03    -289.815E-03     36.0065E-03    -289.974E-03     579.059E-03    -289.640E-03     34.7924E-03
             508     5.38958E-03     117.884E-03    -83.2846E+06    -115.335E+06    -15.3289E+06     679.716E+03    -289.737E-03     579.551E-03    -289.813E-03     41.3949E-03    -290.052E-03     579.205E-03    -289.602E-03     39.5218E-03
             509     6.06367E-03     117.959E-03    -74.3709E+06    -88.8007E+06     388.545E+03     793.494E+03    -289.793E-03     579.595E-03    -289.802E-03     46.7415E-03    -290.165E-03     579.386E-03    -289.563E-03     44.0489E-03
             510     6.73762E-03     118.043E-03    -65.4391E+06    -58.6116E+06     15.3804E+06     1.07766E+06    -289.867E-03     579.650E-03    -289.783E-03     52.0059E-03    -290.311E-03     579.608E-03    -289.526E-03     48.3588E-03
             511     7.41159E-03     118.134E-03    -56.9243E+06    -21.4945E+06     30.3972E+06     2.17911E+06    -289.869E-03     579.623E-03    -289.755E-03     57.1055E-03    -290.410E-03     579.798E-03    -289.489E-03     52.3384E-03
             512     8.08569E-03     118.233E-03    -49.1360E+06     17.9135E+06     44.2188E+06     3.58810E+06    -289.832E-03     579.548E-03    -289.716E-03     62.1284E-03    -290.495E-03     579.972E-03    -289.450E-03     56.0560E-03
             513     8.75974E-03     118.338E-03    -41.8879E+06     39.6878E+06     54.2292E+06     2.98509E+06    -289.855E-03     579.540E-03    -289.684E-03     66.8734E-03    -290.629E-03     580.148E-03    -289.410E-03     59.3472E-03
             514     9.43411E-03     118.448E-03    -35.2973E+06     44.6121E+06     63.0230E+06     902.554E+03    -289.894E-03     579.569E-03    -289.676E-03     70.8827E-03    -290.769E-03     580.295E-03    -289.374E-03     61.7589E-03
             515     10.1085E-03     118.561E-03    -29.5995E+06     45.9383E+06     72.1402E+06    -484.983E+03    -289.895E-03     579.576E-03    -289.681E-03     73.6798E-03    -290.884E-03     580.414E-03    -289.344E-03     62.8553E-03
             516     10.7820E-03     118.676E-03    -23.5096E+06     47.5182E+06     78.3864E+06    -1.23446E+06    -289.816E-03     579.495E-03    -289.679E-03     74.7860E-03    -290.911E-03     580.447E-03    -289.322E-03     62.2741E-03
             517     11.4565E-03     118.788E-03    -17.3021E+06     60.3293E+06     87.5432E+06    -1.08587E+06    -289.520E-03     579.198E-03    -289.678E-03     72.8990E-03    -290.696E-03     580.274E-03    -289.303E-03     59.0068E-03
             518     12.1308E-03     118.891E-03    -11.6584E+06     74.3776E+06     95.3143E+06    -507.236E+03    -289.140E-03     578.811E-03    -289.671E-03     71.9352E-03    -290.493E-03     580.110E-03    -289.285E-03     55.7830E-03
             519     12.8045E-03     118.992E-03    -5.74991E+06     80.9755E+06     95.3898E+06    -591.159E+03    -288.861E-03     578.500E-03    -289.639E-03     59.3002E-03    -290.036E-03     579.665E-03    -289.271E-03     43.6881E-03
             520     673.621E-06     119.290E-03    -132.439E+06    -250.462E+06    -130.043E+06     19.0320E+03    -289.719E-03     579.363E-03    -289.644E-03     5.48204E-03    -289.830E-03     578.492E-03    -289.739E-03     5.51533E-03
             521     1.34718E-03     119.304E-03    -129.043E+06    -240.168E+06    -120.182E+06     37.1023E+03    -289.668E-03     579.372E-03    -289.704E-03     10.0754E-03    -289.794E-03     578.535E-03    -289.769E-03     10.1205E-03
             522     2.02076E-03     119.327E-03    -123.746E+06    -224.759E+06    -105.507E+06     47.2467E+03    -289.655E-03     579.385E-03    -289.729E-03     14.9963E-03    -289.801E-03     578.600E-03    -289.752E-03     14.9990E-03
             523     2.69445E-03     119.359E-03    -117.105E+06    -205.845E+06    -87.9130E+06     128.450E+03    -289.629E-03     579.383E-03    -289.755E-03     20.0841E-03    -289.801E-03     578.664E-03    -289.726E-03     19.9563E-03
             524     3.36822E-03     119.399E-03    -109.502E+06    -187.384E+06    -69.0368E+06     179.011E+03    -289.618E-03     579.396E-03    -289.778E-03     25.2720E-03    -289.817E-03     578.741E-03    -289.692E-03     24.9043E-03
             525     4.04202E-03     119.449E-03    -101.132E+06    -165.426E+06    -50.3630E+06     37.8155E+03    -289.653E-03     579.445E-03    -289.791E-03     30.5854E-03    -289.883E-03     578.874E-03    -289.657E-03     29.8587E-03
             526     4.71585E-03     119.507E-03    -92.2574E+06    -140.069E+06    -32.5389E+06    -132.094E+03    -289.695E-03     579.491E-03    -289.796E-03     35.9665E-03    -289.964E-03     579.029E-03    -289.621E-03     34.7409E-03
             527     5.38982E-03     119.574E-03    -83.4893E+06    -115.667E+06    -15.7830E+06    -145.306E+03    -289.753E-03     579.549E-03    -289.796E-03     41.3120E-03    -290.068E-03     579.203E-03    -289.586E-03     39.4228E-03
             528     6.06363E-03     119.650E-03    -75.1208E+06    -89.3097E+06    -294.984E+03    -104.598E+03    -289.847E-03     579.638E-03    -289.790E-03     46.6749E-03    -290.221E-03     579.428E-03    -289.553E-03     43.9700E-03
             529     6.73753E-03     119.734E-03    -66.9933E+06    -59.6826E+06     14.2613E+06     37.2768E+03    -289.890E-03     579.666E-03    -289.777E-03     51.9752E-03    -290.338E-03     579.623E-03    -289.522E-03     48.3057E-03
             530     7.41157E-03     119.826E-03    -58.6798E+06    -25.6984E+06     28.3321E+06     770.585E+03    -289.858E-03     579.608E-03    -289.750E-03     57.1426E-03    -290.400E-03     579.769E-03    -289.486E-03     52.3403E-03
             531     8.08568E-03     119.924E-03    -49.6059E+06     14.8938E+06     42.7768E+06     1.68029E+06    -289.803E-03     579.512E-03    -289.709E-03     62.1465E-03    -290.462E-03     579.925E-03    -289.445E-03     56.0411E-03
             532     8.76013E-03     120.029E-03    -40.5954E+06     41.2876E+06     54.4849E+06     2.27700E+06    -289.833E-03     579.508E-03    -289.676E-03     66.6971E-03    -290.602E-03     580.122E-03    -289.404E-03     59.1432E-03
             533     9.43422E-03     120.139E-03    -33.1305E+06     46.7243E+06     64.2477E+06     2.56380E+06    -289.951E-03     579.623E-03    -289.672E-03     70.5389E-03    -290.820E-03     580.354E-03    -289.370E-03     61.4212E-03
             534     10.1079E-03     120.253E-03    -26.5940E+06     49.5129E+06     75.0963E+06     1.72902E+06    -289.985E-03     579.674E-03    -289.689E-03     73.4866E-03    -290.967E-03     580.519E-03    -289.346E-03     62.6950E-03
             535     10.7825E-03     120.367E-03    -20.7438E+06     49.5243E+06     81.6754E+06     523.805E+03    -289.883E-03     579.578E-03    -289.695E-03     74.8202E-03    -290.970E-03     580.530E-03    -289.328E-03     62.3472E-03
             536     11.4562E-03     120.479E-03    -15.6901E+06     59.0499E+06      89.178E+06     141.980E+03    -289.595E-03     579.291E-03    -289.696E-03     73.0679E-03    -290.764E-03     580.355E-03    -289.313E-03     59.2032E-03
             537     12.1299E-03     120.583E-03    -10.1232E+06     75.2250E+06     96.1392E+06     104.101E+03    -289.096E-03     578.776E-03    -289.681E-03     72.3240E-03    -290.448E-03     580.081E-03    -289.294E-03     56.1809E-03
             538     12.8045E-03     120.683E-03    -4.40510E+06     81.3302E+06     94.7919E+06    -142.671E+03    -288.460E-03     578.089E-03    -289.629E-03     60.0882E-03    -289.634E-03     579.261E-03    -289.266E-03     44.5036E-03
             539     673.583E-06     120.981E-03    -132.581E+06    -250.608E+06    -130.168E+06     73.8009E+03    -289.702E-03     579.359E-03    -289.657E-03     5.40863E-03    -289.814E-03     578.488E-03    -289.752E-03     5.44851E-03
             540     1.34721E-03     120.995E-03    -129.212E+06    -240.309E+06    -120.365E+06     109.620E+03    -289.665E-03     579.366E-03    -289.701E-03     10.0363E-03    -289.791E-03     578.529E-03    -289.767E-03     10.0847E-03
             541     2.02084E-03     121.018E-03    -124.053E+06    -224.928E+06    -105.821E+06     152.724E+03    -289.626E-03     579.349E-03    -289.723E-03     15.0056E-03    -289.773E-03     578.564E-03    -289.746E-03     15.0057E-03
             542     2.69452E-03     121.050E-03    -117.412E+06    -205.879E+06    -88.2044E+06     114.642E+03    -289.588E-03     579.328E-03    -289.741E-03     20.0875E-03    -289.761E-03     578.610E-03    -289.713E-03     19.9547E-03
             543     3.36829E-03     121.090E-03    -109.684E+06    -187.231E+06    -69.2734E+06     29.4862E+03    -289.613E-03     579.374E-03    -289.761E-03     25.2589E-03    -289.812E-03     578.720E-03    -289.677E-03     24.8901E-03
             544     4.04206E-03     121.140E-03    -101.376E+06    -165.147E+06    -50.6091E+06    -36.8704E+03    -289.674E-03     579.453E-03    -289.779E-03     30.5292E-03    -289.905E-03     578.885E-03    -289.645E-03     29.8082E-03
             545     4.71590E-03     121.198E-03    -93.1676E+06    -139.802E+06    -33.0066E+06    -86.2731E+03    -289.713E-03     579.501E-03    -289.788E-03     35.8341E-03    -289.986E-03     579.043E-03    -289.615E-03     34.6099E-03
             546     5.38969E-03     121.265E-03    -84.9594E+06    -115.586E+06    -16.4702E+06    -189.111E+03    -289.760E-03     579.552E-03    -289.792E-03     41.2436E-03    -290.081E-03     579.209E-03    -289.584E-03     39.3540E-03
             547     6.06366E-03     121.341E-03    -76.5225E+06    -89.4157E+06    -952.706E+03    -197.769E+03    -289.821E-03     579.608E-03    -289.787E-03     46.7077E-03    -290.201E-03     579.401E-03    -289.551E-03     44.0072E-03
             548     6.73763E-03     121.425E-03    -68.2298E+06    -60.3015E+06     13.5620E+06     39.9469E+03    -289.862E-03     579.633E-03    -289.771E-03     52.0052E-03    -290.314E-03     579.590E-03    -289.517E-03     48.3303E-03
             549     7.41167E-03     121.516E-03    -60.0901E+06    -26.0600E+06     27.6646E+06    -346.774E+03    -289.879E-03     579.624E-03    -289.745E-03     57.1327E-03    -290.428E-03     579.787E-03    -289.482E-03     52.2981E-03
             550     8.08583E-03     121.615E-03    -52.1411E+06     13.9866E+06     41.6925E+06    -1.01206E+06    -289.899E-03     579.610E-03    -289.711E-03     62.0774E-03    -290.569E-03     580.023E-03    -289.447E-03     55.9188E-03
             551     8.75967E-03     121.720E-03    -44.3199E+06     38.4698E+06     51.9100E+06    -544.141E+03    -289.954E-03     579.638E-03    -289.684E-03     66.6256E-03    -290.735E-03     580.247E-03    -289.416E-03     59.0187E-03
             552     9.43377E-03     121.830E-03    -36.1155E+06     44.1798E+06     60.3504E+06     879.688E+03    -289.965E-03     579.642E-03    -289.677E-03     70.5117E-03    -290.839E-03     580.370E-03    -289.387E-03     61.3728E-03
             553     10.1083E-03     121.944E-03    -28.5916E+06     50.8602E+06     71.3834E+06     1.76956E+06    -289.855E-03     579.538E-03    -289.683E-03     73.4564E-03    -290.843E-03     580.398E-03    -289.359E-03     62.6806E-03
             554     10.7820E-03     122.059E-03    -22.2470E+06     50.2724E+06     79.1990E+06     2.15879E+06    -289.637E-03     579.321E-03    -289.684E-03     74.8755E-03    -290.728E-03     580.282E-03    -289.329E-03     62.4508E-03
             555     11.4563E-03     122.171E-03    -16.3537E+06     60.7094E+06     88.9148E+06     1.72369E+06    -289.180E-03     578.853E-03    -289.673E-03     73.5868E-03    -290.355E-03     579.927E-03    -289.293E-03     59.8109E-03
             556     12.1309E-03     122.274E-03    -10.8367E+06     76.1293E+06     96.2925E+06     358.849E+03    -288.616E-03     578.251E-03    -289.635E-03     73.3594E-03    -289.980E-03     579.568E-03    -289.248E-03     57.2740E-03
             557     12.8051E-03     122.374E-03    -4.79109E+06     80.4491E+06     95.8783E+06     61.1747E+03    -288.302E-03     577.875E-03    -289.573E-03     60.9104E-03    -289.485E-03     579.049E-03    -289.204E-03     45.3418E-03
             558     673.561E-06     122.672E-03    -132.710E+06    -250.998E+06    -130.266E+06     121.730E+03    -289.689E-03     579.387E-03    -289.698E-03     5.47279E-03    -289.801E-03     578.514E-03    -289.793E-03     5.50672E-03
             559     1.34713E-03     122.686E-03    -129.282E+06    -240.612E+06    -120.418E+06     189.700E+03    -289.647E-03     579.355E-03    -289.709E-03     10.0272E-03    -289.772E-03     578.517E-03    -289.774E-03     10.0693E-03
             560     2.02081E-03     122.709E-03    -124.060E+06    -225.140E+06    -105.805E+06     249.123E+03    -289.599E-03     579.319E-03    -289.720E-03     14.9347E-03    -289.746E-03     578.533E-03    -289.743E-03     14.9309E-03
             561     2.69457E-03     122.740E-03    -117.416E+06    -205.973E+06    -88.1318E+06     316.415E+03    -289.595E-03     579.331E-03    -289.736E-03     19.9882E-03    -289.768E-03     578.612E-03    -289.708E-03     19.8589E-03
             562     3.36831E-03     122.781E-03    -109.818E+06    -187.180E+06    -69.1725E+06     309.111E+03    -289.639E-03     579.401E-03    -289.762E-03     25.1714E-03    -289.839E-03     578.747E-03    -289.677E-03     24.8130E-03
             563     4.04206E-03     122.831E-03    -101.714E+06    -165.208E+06    -50.6090E+06     331.138E+03    -289.672E-03     579.454E-03    -289.782E-03     30.4645E-03    -289.905E-03     578.886E-03    -289.648E-03     29.7553E-03
             564     4.71580E-03     122.889E-03    -93.3944E+06    -139.814E+06    -32.9772E+06     427.738E+03    -289.691E-03     579.481E-03    -289.789E-03     35.8484E-03    -289.966E-03     579.023E-03    -289.616E-03     34.6320E-03
             565     5.38975E-03     122.956E-03    -84.9823E+06    -115.277E+06    -16.2676E+06     427.537E+03    -289.732E-03     579.522E-03    -289.790E-03     41.3154E-03    -290.054E-03     579.181E-03    -289.581E-03     39.4350E-03
             566     6.06367E-03     123.032E-03    -76.7466E+06    -89.2208E+06     -873.44E+03     279.237E+03    -289.793E-03     579.574E-03    -289.782E-03     46.7429E-03    -290.173E-03     579.368E-03    -289.545E-03     44.0527E-03
             567     6.73768E-03     123.116E-03    -68.5442E+06    -59.8729E+06     13.6185E+06    -151.786E+03    -289.876E-03     579.641E-03    -289.766E-03     51.9947E-03    -290.331E-03     579.601E-03    -289.511E-03     48.3190E-03
             568     7.41166E-03     123.208E-03    -60.4244E+06    -24.7356E+06     27.8814E+06    -469.828E+03    -289.937E-03     579.680E-03    -289.743E-03     57.1214E-03    -290.489E-03     579.849E-03    -289.480E-03     52.2899E-03
             569     8.08554E-03     123.306E-03    -52.7594E+06     14.5243E+06     41.5466E+06    -398.949E+03    -289.943E-03     579.656E-03    -289.713E-03     62.1976E-03    -290.615E-03     580.072E-03    -289.450E-03     56.0722E-03
             570     8.75976E-03     123.411E-03    -45.5857E+06     37.5949E+06     51.4344E+06    -490.350E+03    -289.952E-03     579.639E-03    -289.688E-03     66.9308E-03    -290.736E-03     580.247E-03    -289.419E-03     59.3542E-03
             571     9.43380E-03     123.521E-03    -38.9434E+06     41.7601E+06     58.6049E+06    -570.085E+03    -289.900E-03     579.576E-03    -289.676E-03     70.9233E-03    -290.784E-03     580.300E-03    -289.387E-03     61.7671E-03
             572     10.1076E-03     123.635E-03    -32.3228E+06     47.2073E+06     67.0198E+06     622.357E+03    -289.671E-03     579.334E-03    -289.663E-03     73.9592E-03    -290.669E-03     580.191E-03    -289.349E-03     63.1715E-03
             573     10.7824E-03     123.750E-03    -25.5106E+06     50.0271E+06     74.7861E+06     1.40264E+06    -289.299E-03     578.940E-03    -289.641E-03     75.3286E-03    -290.405E-03     579.916E-03    -289.303E-03     62.8772E-03
             574     11.4571E-03     123.861E-03    -18.1343E+06     64.0794E+06     87.6703E+06     542.431E+03    -288.840E-03     578.461E-03    -289.620E-03     73.5582E-03    -290.029E-03     579.558E-03    -289.248E-03     59.7485E-03
             575     12.1321E-03     123.964E-03    -10.8321E+06     77.2002E+06     97.4762E+06    -134.001E+03    -288.593E-03     578.183E-03    -289.589E-03     72.3858E-03    -289.954E-03     579.496E-03    -289.198E-03     56.2617E-03
             576     12.8075E-03     124.064E-03    -5.39452E+06     79.8476E+06     97.5148E+06    -136.856E+03    -288.830E-03     578.382E-03    -289.552E-03     59.4058E-03    -290.005E-03     579.538E-03    -289.172E-03     43.8285E-03
             577     673.583E-06     124.364E-03    -132.240E+06    -251.410E+06    -129.921E+06     83.9425E+03    -289.698E-03     579.372E-03    -289.673E-03     5.50172E-03    -289.807E-03     578.495E-03    -289.767E-03     5.53378E-03
             578     1.34720E-03     124.377E-03    -128.892E+06    -241.142E+06    -120.096E+06     219.749E+03    -289.665E-03     579.370E-03    -289.706E-03     10.0151E-03    -289.788E-03     578.528E-03    -289.770E-03     10.0572E-03
             579     2.02083E-03     124.400E-03    -123.679E+06    -225.715E+06    -105.479E+06     414.921E+03    -289.637E-03     579.365E-03    -289.728E-03     14.8922E-03    -289.782E-03     578.575E-03    -289.748E-03     14.8906E-03
             580     2.69448E-03     124.431E-03    -117.026E+06    -206.601E+06    -87.7944E+06     618.562E+03    -289.627E-03     579.378E-03    -289.751E-03     19.9609E-03    -289.798E-03     578.655E-03    -289.721E-03     19.8395E-03
             581     3.36818E-03     124.472E-03    -109.425E+06    -187.566E+06    -68.8330E+06     802.451E+03    -289.630E-03     579.406E-03    -289.776E-03     25.1644E-03    -289.828E-03     578.749E-03    -289.690E-03     24.8149E-03
             582     4.04196E-03     124.522E-03    -101.313E+06    -165.421E+06    -50.2217E+06     842.476E+03    -289.608E-03     579.396E-03    -289.788E-03     30.4753E-03    -289.839E-03     578.825E-03    -289.652E-03     29.7667E-03
             583     4.71593E-03     124.580E-03    -92.7034E+06    -140.164E+06    -32.5173E+06     871.667E+03    -289.624E-03     579.409E-03    -289.785E-03     35.8934E-03    -289.895E-03     578.948E-03    -289.610E-03     34.6862E-03
             584     5.38981E-03     124.647E-03    -84.2455E+06    -115.603E+06    -15.8271E+06     1.02318E+06    -289.713E-03     579.493E-03    -289.780E-03     41.3509E-03    -290.031E-03     579.148E-03    -289.569E-03     39.4940E-03
             585     6.06376E-03     124.723E-03    -76.1167E+06    -88.8487E+06    -213.019E+03     1.03814E+06    -289.807E-03     579.579E-03    -289.772E-03     46.7883E-03    -290.185E-03     579.372E-03    -289.534E-03     44.1259E-03
             586     6.73769E-03     124.807E-03    -68.2907E+06    -58.7832E+06     14.3335E+06     850.100E+03    -289.868E-03     579.625E-03    -289.757E-03     52.1186E-03    -290.324E-03     579.588E-03    -289.501E-03     48.4770E-03
             587     7.41164E-03     124.899E-03    -60.9727E+06    -24.1752E+06     28.1492E+06     573.218E+03    -289.879E-03     579.610E-03    -289.731E-03     57.3430E-03    -290.434E-03     579.782E-03    -289.467E-03     52.5529E-03
             588     8.08584E-03     124.997E-03    -53.4193E+06     14.7438E+06     41.6193E+06     335.122E+03    -289.830E-03     579.524E-03    -289.694E-03     62.4965E-03    -290.506E-03     579.942E-03    -289.430E-03     56.4113E-03
             589     8.75989E-03     125.102E-03    -45.7368E+06     38.2153E+06     51.8821E+06     149.119E+03    -289.767E-03     579.425E-03    -289.658E-03     67.2907E-03    -290.555E-03     580.036E-03    -289.388E-03     59.7448E-03
             590     9.43416E-03     125.212E-03    -38.2031E+06     42.9485E+06     60.3003E+06    -351.397E+03    -289.709E-03     579.346E-03    -289.637E-03     71.3950E-03    -290.596E-03     580.075E-03    -289.343E-03     62.2448E-03
             591     10.1088E-03     125.325E-03    -30.6388E+06     44.4662E+06     69.1577E+06    -803.074E+03    -289.621E-03     579.245E-03    -289.624E-03     74.3572E-03    -290.615E-03     580.088E-03    -289.298E-03     63.5078E-03
             592     10.7831E-03     125.439E-03    -23.2313E+06     48.6921E+06     77.9267E+06    -390.104E+03    -289.518E-03     579.130E-03    -289.612E-03     75.2429E-03    -290.621E-03     580.098E-03    -289.259E-03     62.6614E-03
             593     11.4576E-03     125.551E-03    -16.9814E+06     66.2336E+06     90.5712E+06    -351.930E+03    -289.360E-03     578.973E-03    -289.612E-03     72.8754E-03    -290.554E-03     580.078E-03    -289.231E-03     58.9178E-03
             594     12.1315E-03     125.654E-03    -10.9925E+06     77.4188E+06     98.1198E+06    -403.018E+03    -289.218E-03     578.828E-03    -289.610E-03     71.6546E-03    -290.575E-03     580.137E-03    -289.216E-03     55.4713E-03
             595     12.8041E-03     125.756E-03    -5.22063E+06     79.6931E+06     96.8829E+06     14.6246E+03    -288.744E-03     578.325E-03    -289.581E-03     59.4227E-03    -289.915E-03     579.480E-03    -289.205E-03     43.8583E-03
             596     673.598E-06     126.055E-03    -132.051E+06    -251.995E+06    -129.735E+06     174.338E+03    -289.697E-03     579.363E-03    -289.666E-03     5.44851E-03    -289.805E-03     578.484E-03    -289.758E-03     5.49143E-03
             597     1.34718E-03     126.068E-03    -128.822E+06    -241.836E+06    -119.961E+06     322.624E+03    -289.662E-03     579.364E-03    -289.702E-03     9.99942E-03    -289.784E-03     578.518E-03    -289.765E-03     10.0482E-03
             598     2.02078E-03     126.091E-03    -123.593E+06    -226.481E+06    -105.397E+06     454.599E+03    -289.656E-03     579.384E-03    -289.727E-03     14.9443E-03    -289.800E-03     578.590E-03    -289.747E-03     14.9430E-03
             599     2.69445E-03     126.123E-03    -116.825E+06    -207.474E+06    -87.7386E+06     595.642E+03    -289.628E-03     579.381E-03    -289.753E-03     20.0580E-03    -289.797E-03     578.653E-03    -289.722E-03     19.9335E-03
             600     3.36821E-03     126.163E-03    -109.025E+06    -188.293E+06    -68.7963E+06     753.594E+03    -289.589E-03     579.362E-03    -289.773E-03     25.2607E-03    -289.784E-03     578.701E-03    -289.686E-03     24.9089E-03
             601     4.04207E-03     126.213E-03    -100.609E+06    -165.925E+06    -50.0003E+06     935.904E+03    -289.575E-03     579.353E-03    -289.778E-03     30.5172E-03    -289.801E-03     578.779E-03    -289.642E-03     29.8129E-03
             602     4.71592E-03     126.271E-03    -92.2235E+06    -140.825E+06    -32.1506E+06     1.08240E+06    -289.597E-03     579.370E-03    -289.773E-03     35.9125E-03    -289.865E-03     578.904E-03    -289.596E-03     34.7218E-03
             603     5.38992E-03     126.338E-03    -83.6213E+06    -116.192E+06    -15.2534E+06     1.18144E+06    -289.670E-03     579.436E-03    -289.765E-03     41.3985E-03    -289.985E-03     579.085E-03    -289.552E-03     39.5662E-03
             604     6.06386E-03     126.414E-03    -74.8827E+06    -89.4512E+06     551.305E+03     1.41366E+06    -289.740E-03     579.492E-03    -289.752E-03     46.8914E-03    -290.112E-03     579.279E-03    -289.511E-03     44.2539E-03
             605     6.73786E-03     126.498E-03    -66.5403E+06    -59.5212E+06     15.4339E+06     1.95716E+06    -289.768E-03     579.498E-03    -289.731E-03     52.3023E-03    -290.215E-03     579.453E-03    -289.471E-03     48.6963E-03
             606     7.41205E-03     126.590E-03    -58.4652E+06    -23.9678E+06     30.1208E+06     2.34744E+06    -289.767E-03     579.465E-03    -289.698E-03     57.5288E-03    -290.313E-03     579.631E-03    -289.428E-03     52.7817E-03
             607     8.08614E-03     126.688E-03    -50.8724E+06     16.7394E+06     44.3062E+06     1.69767E+06    -289.698E-03     579.352E-03    -289.654E-03     62.6175E-03    -290.369E-03     579.773E-03    -289.383E-03     56.5530E-03
             608     8.76059E-03     126.793E-03    -43.4603E+06     40.1345E+06     54.7156E+06     375.413E+03    -289.647E-03     579.259E-03    -289.612E-03     67.2914E-03    -290.431E-03     579.873E-03    -289.334E-03     59.7405E-03
             609     9.43512E-03     126.903E-03    -36.5507E+06     44.0422E+06     62.7598E+06    -441.468E+03    -289.699E-03     579.291E-03    -289.591E-03     71.0978E-03    -290.583E-03     580.019E-03    -289.289E-03     61.9244E-03
             610     10.1093E-03     127.016E-03    -30.2564E+06     45.3520E+06     72.0262E+06    -815.660E+03    -289.829E-03     579.423E-03    -289.594E-03     73.7878E-03    -290.824E-03     580.263E-03    -289.256E-03     62.9107E-03
             611     10.7834E-03     127.131E-03    -23.6953E+06     47.3121E+06     79.9374E+06    -895.994E+03    -289.916E-03     579.521E-03    -289.606E-03     74.8427E-03    -291.019E-03     580.477E-03    -289.240E-03     62.2527E-03
             612     11.4569E-03     127.242E-03    -17.0090E+06     65.3369E+06     90.8960E+06    -92.0301E+03    -289.677E-03     579.296E-03    -289.619E-03     73.1420E-03    -290.870E-03     580.397E-03    -289.234E-03     59.2095E-03
             613     12.1306E-03     127.346E-03    -10.9173E+06     77.5209E+06     97.6523E+06     159.440E+03    -289.151E-03     578.767E-03    -289.616E-03     72.8567E-03    -290.513E-03     580.082E-03    -289.224E-03     56.7614E-03
             614     12.8059E-03     127.447E-03    -4.72620E+06     79.4314E+06     96.8361E+06    -420.335E+03    -288.528E-03     578.106E-03    -289.578E-03     60.2749E-03    -289.702E-03     579.264E-03    -289.202E-03     44.7249E-03
             615     673.550E-06     127.746E-03    -132.513E+06    -252.821E+06    -130.155E+06     193.569E+03    -289.675E-03     579.308E-03    -289.633E-03     5.50260E-03    -289.783E-03     578.425E-03    -289.725E-03     5.54153E-03
             616     1.34720E-03     127.759E-03    -129.118E+06    -242.486E+06    -120.241E+06     292.531E+03    -289.621E-03     579.293E-03    -289.672E-03     10.1085E-03    -289.744E-03     578.445E-03    -289.734E-03     10.1552E-03
             617     2.02088E-03     127.782E-03    -123.811E+06    -227.029E+06    -105.588E+06     353.828E+03    -289.617E-03     579.310E-03    -289.693E-03     15.0712E-03    -289.760E-03     578.514E-03    -289.712E-03     15.0729E-03
             618     2.69455E-03     127.814E-03    -117.102E+06    -208.043E+06    -87.9340E+06     399.949E+03    -289.588E-03     579.305E-03    -289.717E-03     20.1417E-03    -289.757E-03     578.575E-03    -289.685E-03     20.0199E-03
             619     3.36833E-03     127.854E-03    -109.345E+06    -188.878E+06    -68.9328E+06     465.327E+03    -289.553E-03     579.290E-03    -289.737E-03     25.3405E-03    -289.748E-03     578.626E-03    -289.649E-03     24.9903E-03
             620     4.04215E-03     127.904E-03    -100.999E+06    -166.744E+06    -50.1442E+06     614.267E+03    -289.565E-03     579.309E-03    -289.744E-03     30.6454E-03    -289.792E-03     578.732E-03    -289.607E-03     29.9451E-03
             621     4.71607E-03     127.962E-03    -92.2751E+06    -141.385E+06    -32.0507E+06     730.042E+03    -289.602E-03     579.345E-03    -289.743E-03     36.0529E-03    -289.869E-03     578.876E-03    -289.565E-03     34.8651E-03
             622     5.39001E-03     128.029E-03    -83.4756E+06    -116.708E+06    -15.0013E+06     766.807E+03    -289.633E-03     579.370E-03    -289.738E-03     41.5325E-03    -289.947E-03     579.017E-03    -289.522E-03     39.6993E-03
             623     6.06408E-03     128.105E-03    -74.7701E+06    -90.5684E+06     783.813E+03     936.827E+03    -289.658E-03     579.379E-03    -289.722E-03     46.9355E-03    -290.028E-03     579.161E-03    -289.478E-03     44.2866E-03
             624     6.73830E-03     128.189E-03    -65.9440E+06    -61.0099E+06     15.8424E+06     1.10881E+06    -289.689E-03     579.385E-03    -289.696E-03     52.2451E-03    -290.132E-03     579.332E-03    -289.432E-03     48.6163E-03
             625     7.41240E-03     128.280E-03    -56.9936E+06    -25.3516E+06     30.8374E+06     1.47846E+06    -289.703E-03     579.364E-03    -289.661E-03     57.3693E-03    -290.241E-03     579.520E-03    -289.387E-03     52.5985E-03
             626     8.08674E-03     128.379E-03    -48.3376E+06     17.2781E+06     45.9837E+06     2.09565E+06    -289.687E-03     579.304E-03    -289.617E-03     62.2783E-03    -290.348E-03     579.722E-03    -289.342E-03     56.1937E-03
             627     8.76099E-03     128.483E-03    -41.0360E+06     41.8914E+06     56.6832E+06     2.40551E+06    -289.759E-03     579.342E-03    -289.584E-03     66.7710E-03    -290.536E-03     579.958E-03    -289.301E-03     59.2102E-03
             628     9.43502E-03     128.593E-03    -35.0349E+06     45.6425E+06     65.0661E+06     2.00192E+06    -289.904E-03     579.485E-03    -289.581E-03     70.5929E-03    -290.783E-03     580.213E-03    -289.271E-03     61.4502E-03
             629     10.1091E-03     128.707E-03    -28.8353E+06     48.0256E+06     74.5420E+06     776.656E+03    -289.944E-03     579.540E-03    -289.596E-03     73.5617E-03    -290.935E-03     580.383E-03    -289.251E-03     62.7564E-03
             630     10.7830E-03     128.822E-03    -22.5825E+06     48.0310E+06     79.8038E+06    -236.650E+03    -289.822E-03     579.421E-03    -289.598E-03     74.9814E-03    -290.915E-03     580.373E-03    -289.236E-03     62.5001E-03
             631     11.4574E-03     128.934E-03    -15.9694E+06     63.6010E+06     89.9349E+06    -93.4137E+03    -289.504E-03     579.106E-03    -289.602E-03     73.3449E-03    -290.685E-03     580.195E-03    -289.221E-03     59.4759E-03
             632     12.1323E-03     129.037E-03    -9.48020E+06     78.3644E+06     98.6276E+06     149.588E+03    -289.169E-03     578.770E-03    -289.601E-03     72.2880E-03    -290.526E-03     580.086E-03    -289.207E-03     56.1246E-03
             633     12.8060E-03     129.137E-03    -4.94762E+06     80.0296E+06     96.7534E+06     92.4334E+03    -289.107E-03     578.685E-03    -289.579E-03     58.9549E-03    -290.274E-03     579.839E-03    -289.204E-03     43.3706E-03
             634     673.686E-06     129.436E-03    -132.975E+06    -253.483E+06    -130.593E+06     115.417E+03    -289.615E-03     579.150E-03    -289.535E-03     5.51044E-03    -289.724E-03     578.266E-03    -289.628E-03     5.55007E-03
             635     1.34734E-03     129.450E-03    -129.499E+06    -243.063E+06    -120.580E+06     220.316E+03    -289.567E-03     579.165E-03    -289.598E-03     10.1551E-03    -289.690E-03     578.315E-03    -289.661E-03     10.2069E-03
             636     2.02100E-03     129.473E-03    -124.221E+06    -227.512E+06    -105.784E+06     327.482E+03    -289.540E-03     579.164E-03    -289.624E-03     15.1262E-03    -289.684E-03     578.366E-03    -289.643E-03     15.1354E-03
             637     2.69476E-03     129.504E-03    -117.540E+06    -208.282E+06    -87.9177E+06     388.646E+03    -289.516E-03     579.164E-03    -289.647E-03     20.2149E-03    -289.687E-03     578.433E-03    -289.614E-03     20.0970E-03
             638     3.36856E-03     129.545E-03    -109.834E+06    -189.360E+06    -68.7730E+06     456.415E+03    -289.537E-03     579.210E-03    -289.673E-03     25.4274E-03    -289.734E-03     578.544E-03    -289.583E-03     25.0774E-03
             639     4.04247E-03     129.594E-03    -101.487E+06    -167.230E+06    -50.0063E+06     505.979E+03    -289.579E-03     579.270E-03    -289.691E-03     30.7119E-03    -289.808E-03     578.691E-03    -289.552E-03     30.0080E-03
             640     4.71636E-03     129.653E-03    -92.9297E+06    -141.757E+06    -32.2705E+06     560.218E+03    -289.620E-03     579.319E-03    -289.699E-03     36.0522E-03    -289.890E-03     578.850E-03    -289.520E-03     34.8523E-03
             641     5.39031E-03     129.720E-03    -84.4708E+06    -117.174E+06    -15.4313E+06     700.604E+03    -289.662E-03     579.364E-03    -289.702E-03     41.4604E-03    -289.980E-03     579.011E-03    -289.487E-03     39.6077E-03
             642     6.06434E-03     129.795E-03    -76.1354E+06    -90.8116E+06     278.573E+03     643.784E+03    -289.713E-03     579.409E-03    -289.696E-03     46.7743E-03    -290.090E-03     579.192E-03    -289.452E-03     44.0931E-03
             643     6.73830E-03     129.879E-03    -68.0425E+06    -61.1777E+06     14.8266E+06     425.513E+03    -289.726E-03     579.403E-03    -289.678E-03     51.9522E-03    -290.178E-03     579.354E-03    -289.416E-03     48.2786E-03
             644     7.41252E-03     129.971E-03    -60.2331E+06    -26.2880E+06     28.8597E+06     318.209E+03    -289.717E-03     579.364E-03    -289.647E-03     57.0182E-03    -290.267E-03     579.523E-03    -289.377E-03     52.2063E-03
             645     8.08661E-03     130.069E-03    -52.1147E+06     14.7359E+06     43.0333E+06     823.813E+03    -289.770E-03     579.379E-03    -289.609E-03     61.9310E-03    -290.442E-03     579.793E-03    -289.340E-03     55.8220E-03
             646     8.76073E-03     130.174E-03    -43.7174E+06     40.1073E+06     53.8372E+06     1.71024E+06    -289.868E-03     579.451E-03    -289.583E-03     66.5162E-03    -290.651E-03     580.065E-03    -289.308E-03     58.9418E-03
             647     9.43492E-03     130.284E-03    -35.4590E+06     45.6123E+06     63.0217E+06     2.50435E+06    -289.906E-03     579.489E-03    -289.583E-03     70.5184E-03    -290.783E-03     580.220E-03    -289.283E-03     61.3865E-03
             648     10.1090E-03     130.398E-03    -28.3357E+06     52.0993E+06     74.9519E+06     1.96921E+06    -289.840E-03     579.439E-03    -289.599E-03     73.5649E-03    -290.835E-03     580.301E-03    -289.259E-03     62.7906E-03
             649     10.7835E-03     130.513E-03    -21.8573E+06     51.5104E+06     82.1373E+06    -51.2899E+03    -289.796E-03     579.404E-03    -289.608E-03     74.7234E-03    -290.893E-03     580.367E-03    -289.240E-03     62.2309E-03
             650     11.4576E-03     130.625E-03    -15.7901E+06     60.4692E+06     90.4779E+06    -265.005E+03    -289.694E-03     579.313E-03    -289.619E-03     72.6242E-03    -290.869E-03     580.384E-03    -289.231E-03     58.6869E-03
             651     12.1309E-03     130.728E-03    -10.7293E+06     77.5983E+06     98.1428E+06     1.32906E+06    -289.453E-03     579.078E-03    -289.626E-03     71.7018E-03    -290.813E-03     580.391E-03    -289.232E-03     55.4988E-03
             652     12.8044E-03     130.830E-03    -5.62112E+06     82.0550E+06     96.6442E+06     1.37583E+06    -288.895E-03     578.497E-03    -289.602E-03     59.5595E-03    -290.073E-03     579.667E-03    -289.230E-03     43.9908E-03
             653     673.710E-06     131.127E-03    -132.946E+06    -254.105E+06    -130.461E+06     173.210E+03    -289.528E-03     579.017E-03    -289.489E-03     5.45881E-03    -289.636E-03     578.129E-03    -289.580E-03     5.50271E-03
             654     1.34741E-03     131.141E-03    -129.509E+06    -243.709E+06    -120.418E+06     311.810E+03    -289.493E-03     579.024E-03    -289.531E-03     10.1080E-03    -289.615E-03     578.170E-03    -289.592E-03     10.1621E-03
             655     2.02120E-03     131.164E-03    -124.222E+06    -228.104E+06    -105.547E+06     453.836E+03    -289.469E-03     579.025E-03    -289.555E-03     15.0537E-03    -289.613E-03     578.224E-03    -289.572E-03     15.0612E-03
             656     2.69504E-03     131.195E-03    -117.481E+06    -208.764E+06    -87.6410E+06     603.616E+03    -289.490E-03     579.074E-03    -289.584E-03     20.0998E-03    -289.660E-03     578.341E-03    -289.549E-03     19.9817E-03
             657     3.36890E-03     131.235E-03    -109.728E+06    -189.899E+06    -68.5237E+06     732.372E+03    -289.571E-03     579.194E-03    -289.623E-03     25.2388E-03    -289.767E-03     578.525E-03    -289.532E-03     24.8912E-03
             658     4.04263E-03     131.285E-03    -101.482E+06    -167.823E+06    -49.9034E+06     907.941E+03    -289.627E-03     579.284E-03    -289.658E-03     30.4658E-03    -289.855E-03     578.702E-03    -289.517E-03     29.7592E-03
             659     4.71647E-03     131.343E-03    -93.1304E+06    -142.327E+06    -32.3269E+06     1.13818E+06    -289.660E-03     579.337E-03    -289.677E-03     35.8039E-03    -289.930E-03     578.866E-03    -289.498E-03     34.5944E-03
             660     5.39038E-03     131.410E-03    -84.7356E+06    -117.715E+06    -15.6311E+06     1.26875E+06    -289.727E-03     579.417E-03    -289.690E-03     41.2173E-03    -290.045E-03     579.062E-03    -289.475E-03     39.3514E-03
             661     6.06425E-03     131.486E-03    -76.5167E+06    -91.0322E+06    -98.7506E+03     1.42576E+06    -289.776E-03     579.468E-03    -289.692E-03     46.5976E-03    -290.154E-03     579.252E-03    -289.450E-03     43.9071E-03
             662     6.73825E-03     131.570E-03    -68.6730E+06    -61.1005E+06     14.3307E+06     1.61515E+06    -289.796E-03     579.477E-03    -289.681E-03     51.8350E-03    -290.251E-03     579.430E-03    -289.421E-03     48.1646E-03
             663     7.41224E-03     131.661E-03    -61.0064E+06    -25.7463E+06     28.3341E+06     1.45839E+06    -289.819E-03     579.477E-03    -289.658E-03     56.9717E-03    -290.372E-03     579.640E-03    -289.390E-03     52.1767E-03
             664     8.08641E-03     131.760E-03    -53.5144E+06     14.8143E+06     42.1354E+06     709.172E+03    -289.823E-03     579.448E-03    -289.625E-03     61.9934E-03    -290.500E-03     579.866E-03    -289.359E-03     55.8938E-03
             665     8.76056E-03     131.865E-03    -45.9400E+06     38.9992E+06     52.6227E+06    -177.461E+03    -289.864E-03     579.466E-03    -289.601E-03     66.6225E-03    -290.654E-03     580.078E-03    -289.328E-03     59.0421E-03
             666     9.43466E-03     131.975E-03    -38.1851E+06     43.0498E+06     60.5302E+06    -132.686E+03    -289.925E-03     579.522E-03    -289.598E-03     70.4935E-03    -290.810E-03     580.249E-03    -289.302E-03     61.3118E-03
             667     10.1090E-03     132.089E-03    -30.1791E+06     52.4684E+06     72.2093E+06     1.05780E+06    -289.902E-03     579.511E-03    -289.609E-03     73.2908E-03    -290.902E-03     580.381E-03    -289.281E-03     62.4778E-03
             668     10.7829E-03     132.204E-03    -23.3281E+06     54.9466E+06     80.8727E+06     1.60195E+06    -289.835E-03     579.458E-03    -289.623E-03     74.5648E-03    -290.940E-03     580.441E-03    -289.265E-03     62.1017E-03
             669     11.4564E-03     132.317E-03    -18.1151E+06     59.6210E+06     88.2996E+06     995.062E+03    -289.565E-03     579.198E-03    -289.633E-03     73.2219E-03    -290.746E-03     580.270E-03    -289.252E-03     59.3940E-03
             670     12.1307E-03     132.420E-03    -11.7017E+06     74.6781E+06     95.9809E+06     789.291E+03    -288.925E-03     578.544E-03    -289.619E-03     73.0004E-03    -290.286E-03     579.850E-03    -289.230E-03     56.9290E-03
             671     12.8055E-03     132.521E-03    -4.56913E+06     83.3881E+06     97.7032E+06     784.665E+03    -288.381E-03     577.953E-03    -289.572E-03     60.5973E-03    -289.565E-03     579.134E-03    -289.198E-03     45.0585E-03
             672     673.711E-06     132.817E-03    -132.412E+06    -254.965E+06    -129.896E+06     228.025E+03    -289.497E-03     578.992E-03    -289.495E-03     5.45124E-03    -289.602E-03     578.099E-03    -289.583E-03     5.48618E-03
             673     1.34749E-03     132.831E-03    -128.883E+06    -244.569E+06    -119.883E+06     411.657E+03    -289.479E-03     578.998E-03    -289.518E-03     9.97978E-03    -289.598E-03     578.138E-03    -289.576E-03     10.0294E-03
             674     2.02127E-03     132.854E-03    -123.612E+06    -229.039E+06    -105.141E+06     662.984E+03    -289.498E-03     579.046E-03    -289.549E-03     14.8283E-03    -289.638E-03     578.239E-03    -289.563E-03     14.8368E-03
             675     2.69502E-03     132.885E-03    -116.893E+06    -209.840E+06    -87.3766E+06     944.292E+03    -289.546E-03     579.135E-03    -289.590E-03     19.8399E-03    -289.712E-03     578.395E-03    -289.553E-03     19.7275E-03
             676     3.36871E-03     132.926E-03    -109.262E+06    -190.764E+06    -68.4179E+06     1.19562E+06    -289.590E-03     579.225E-03    -289.636E-03     24.9998E-03    -289.782E-03     578.551E-03    -289.543E-03     24.6579E-03
             677     4.04252E-03     132.976E-03    -101.112E+06    -168.590E+06    -49.7712E+06     1.34999E+06    -289.623E-03     579.293E-03    -289.670E-03     30.2805E-03    -289.849E-03     578.706E-03    -289.528E-03     29.5786E-03
             678     4.71638E-03     133.034E-03    -92.3488E+06    -143.375E+06    -31.9992E+06     1.51035E+06    -289.683E-03     579.374E-03    -289.690E-03     35.6971E-03    -289.949E-03     578.895E-03    -289.508E-03     34.4939E-03
             679     5.39022E-03     133.101E-03    -83.7006E+06    -118.666E+06    -15.2544E+06     1.79928E+06    -289.730E-03     579.433E-03    -289.703E-03     41.1661E-03    -290.042E-03     579.071E-03    -289.486E-03     39.3078E-03
             680     6.06418E-03     133.177E-03    -75.3889E+06    -92.0060E+06     339.456E+03     2.09824E+06    -289.753E-03     579.455E-03    -289.702E-03     46.5895E-03    -290.125E-03     579.232E-03    -289.458E-03     43.9177E-03
             681     6.73823E-03     133.261E-03    -66.9340E+06    -61.9021E+06     15.1615E+06     2.30282E+06    -289.832E-03     579.523E-03    -289.691E-03     51.8985E-03    -290.278E-03     579.468E-03    -289.428E-03     48.2572E-03
             682     7.41227E-03     133.352E-03    -58.7797E+06    -25.7008E+06     29.7839E+06     2.41124E+06    -289.909E-03     579.581E-03    -289.672E-03     57.0580E-03    -290.453E-03     579.739E-03    -289.401E-03     52.2956E-03
             683     8.08626E-03     133.451E-03    -51.1719E+06     16.9517E+06     44.1908E+06      2.1027E+06    -289.869E-03     579.512E-03    -289.643E-03     62.0488E-03    -290.540E-03     579.934E-03    -289.373E-03     55.9722E-03
             684     8.76046E-03     133.556E-03    -44.0755E+06     41.2532E+06     54.9673E+06     1.31244E+06    -289.866E-03     579.488E-03    -289.621E-03     66.6836E-03    -290.653E-03     580.105E-03    -289.342E-03     59.1369E-03
             685     9.43461E-03     133.666E-03    -37.2711E+06     44.4897E+06     63.1615E+06    -203.916E+03    -289.979E-03     579.601E-03    -289.622E-03     70.6934E-03    -290.863E-03     580.327E-03    -289.316E-03     61.5584E-03
             686     10.1083E-03     133.780E-03    -30.1520E+06     48.9543E+06     71.8965E+06    -523.274E+03    -289.934E-03     579.561E-03    -289.627E-03     73.7895E-03    -290.928E-03     580.414E-03    -289.295E-03     62.9969E-03
             687     10.7825E-03     133.895E-03    -23.3285E+06     51.0621E+06     78.7422E+06     1.74034E+06    -289.585E-03     579.207E-03    -289.623E-03     75.2410E-03    -290.684E-03     580.177E-03    -289.269E-03     62.8263E-03
             688     11.4575E-03     134.007E-03    -17.2803E+06     62.0532E+06     89.0585E+06     2.62848E+06    -289.051E-03     578.662E-03    -289.611E-03     73.6550E-03    -290.232E-03     579.744E-03    -289.231E-03     59.9112E-03
             689     12.1322E-03     134.110E-03    -11.4371E+06      76.022E+06     97.4635E+06     847.626E+03    -288.770E-03     578.355E-03    -289.585E-03     72.5985E-03    -290.131E-03     579.663E-03    -289.192E-03     56.5214E-03
             690     12.8070E-03     134.210E-03    -6.33985E+06     84.0564E+06     97.6686E+06    -459.611E+03    -288.900E-03     578.448E-03    -289.548E-03     59.4131E-03    -290.086E-03     579.626E-03    -289.172E-03     43.8261E-03
             691     673.707E-06     134.508E-03    -131.982E+06    -256.053E+06    -129.640E+06     273.208E+03    -289.546E-03     579.092E-03    -289.546E-03     5.37337E-03    -289.648E-03     578.192E-03    -289.631E-03     5.41322E-03
             692     1.34737E-03     134.522E-03    -128.601E+06    -245.674E+06    -119.739E+06     482.966E+03    -289.550E-03     579.122E-03    -289.572E-03     9.89888E-03    -289.666E-03     578.256E-03    -289.628E-03     9.95252E-03
             693     2.02105E-03     134.544E-03    -123.349E+06    -230.241E+06    -105.122E+06     709.900E+03    -289.562E-03     579.168E-03    -289.607E-03     14.7943E-03    -289.699E-03     578.355E-03    -289.620E-03     14.8068E-03
             694     2.69473E-03     134.576E-03    -116.629E+06    -211.261E+06    -87.4345E+06     998.764E+03    -289.562E-03     579.205E-03    -289.643E-03     19.8721E-03    -289.725E-03     578.458E-03    -289.605E-03     19.7626E-03
             695     3.36855E-03     134.617E-03    -108.879E+06    -191.879E+06    -68.4113E+06     1.27629E+06    -289.559E-03     579.236E-03    -289.677E-03     25.0470E-03    -289.749E-03     578.556E-03    -289.582E-03     24.7113E-03
             696     4.04241E-03     134.666E-03    -100.453E+06    -169.434E+06    -49.5392E+06     1.44108E+06    -289.593E-03     579.292E-03    -289.698E-03     30.3319E-03    -289.815E-03     578.699E-03    -289.555E-03     29.6485E-03
             697     4.71626E-03     134.725E-03    -91.9184E+06    -144.461E+06    -31.6918E+06     1.59442E+06    -289.643E-03     579.353E-03    -289.710E-03     35.7527E-03    -289.905E-03     578.867E-03    -289.526E-03     34.5703E-03
             698     5.39020E-03     134.792E-03    -83.3158E+06    -119.822E+06    -14.9005E+06     1.77380E+06    -289.676E-03     579.390E-03    -289.714E-03     41.2035E-03    -289.985E-03     579.021E-03    -289.494E-03     39.3612E-03
             699     6.06422E-03     134.868E-03    -74.6357E+06    -92.9430E+06     880.697E+03     1.89459E+06    -289.748E-03     579.456E-03    -289.709E-03     46.6370E-03    -290.114E-03     579.225E-03    -289.461E-03     43.9842E-03
             700     6.73820E-03     134.952E-03    -66.2176E+06    -62.7770E+06     15.7309E+06     1.94043E+06    -289.857E-03     579.554E-03    -289.697E-03     51.9651E-03    -290.298E-03     579.492E-03    -289.431E-03     48.3453E-03
             701     7.41219E-03     135.043E-03    -57.8535E+06    -26.9307E+06     30.3303E+06     2.19308E+06    -289.914E-03     579.593E-03    -289.679E-03     57.1185E-03    -290.452E-03     579.741E-03    -289.404E-03     52.3749E-03
             702     8.08625E-03     135.142E-03    -49.5661E+06     16.4804E+06     45.2672E+06     2.79634E+06    -289.867E-03     579.517E-03    -289.649E-03     62.1401E-03    -290.531E-03     579.932E-03    -289.375E-03     56.0843E-03
             703     8.76033E-03     135.247E-03    -41.7526E+06     43.3837E+06     56.6020E+06     2.81530E+06    -289.835E-03     579.457E-03    -289.622E-03     66.9134E-03    -290.616E-03     580.080E-03    -289.342E-03     59.4051E-03
             704     9.43448E-03     135.357E-03    -35.0026E+06     48.0899E+06     65.5581E+06     2.07415E+06    -289.842E-03     579.459E-03    -289.617E-03     71.0337E-03    -290.723E-03     580.196E-03    -289.308E-03     61.9811E-03
             705     10.1091E-03     135.471E-03    -29.5906E+06     48.0086E+06     74.4560E+06     1.38036E+06    -289.784E-03     579.406E-03    -289.622E-03     74.0108E-03    -290.779E-03     580.251E-03    -289.277E-03     63.2667E-03
             706     10.7835E-03     135.586E-03    -24.3043E+06      46.017E+06     79.8572E+06     1.29508E+06    -289.620E-03     579.235E-03    -289.616E-03     75.0090E-03    -290.720E-03     580.181E-03    -289.248E-03     62.5331E-03
             707     11.4574E-03     135.697E-03    -17.1386E+06     61.9881E+06     90.7707E+06     2.02905E+06    -289.327E-03     578.938E-03    -289.611E-03     72.7653E-03    -290.511E-03     580.018E-03    -289.222E-03     58.9028E-03
             708     12.1319E-03     135.800E-03    -10.4687E+06     80.1599E+06     99.5114E+06     1.84168E+06    -289.167E-03     578.768E-03    -289.601E-03     71.7442E-03    -290.524E-03     580.084E-03    -289.205E-03     55.6594E-03
             709     12.8046E-03     135.903E-03    -5.41496E+06     85.9440E+06     97.7827E+06    -69.6875E+03    -288.878E-03     578.446E-03    -289.568E-03     59.4798E-03    -290.058E-03     579.628E-03    -289.196E-03     43.9478E-03
             710     673.606E-06     136.199E-03    -132.288E+06    -257.253E+06    -130.005E+06     246.715E+03    -289.594E-03     579.213E-03    -289.619E-03     5.41891E-03    -289.694E-03     578.308E-03    -289.705E-03     5.46344E-03
             711     1.34726E-03     136.212E-03    -128.965E+06    -246.918E+06    -120.130E+06     505.257E+03    -289.589E-03     579.216E-03    -289.628E-03     10.0091E-03    -289.704E-03     578.345E-03    -289.683E-03     10.0674E-03
             712     2.02095E-03     136.235E-03    -123.745E+06    -231.389E+06    -105.436E+06     731.437E+03    -289.565E-03     579.216E-03    -289.651E-03     14.9491E-03    -289.701E-03     578.397E-03    -289.663E-03     14.9691E-03
             713     2.69472E-03     136.267E-03    -117.055E+06    -212.292E+06    -87.7337E+06     846.472E+03    -289.538E-03     579.211E-03    -289.673E-03     20.0033E-03    -289.701E-03     578.459E-03    -289.634E-03     19.9069E-03
             714     3.36851E-03     136.307E-03    -109.257E+06    -193.013E+06    -68.7692E+06     992.369E+03    -289.543E-03     579.239E-03    -289.695E-03     25.1516E-03    -289.732E-03     578.554E-03    -289.601E-03     24.8305E-03
             715     4.04233E-03     136.357E-03    -100.934E+06    -170.725E+06    -50.0067E+06     1.31263E+06    -289.561E-03     579.270E-03    -289.709E-03     30.4466E-03    -289.782E-03     578.672E-03    -289.565E-03     29.7808E-03
             716     4.71624E-03     136.416E-03    -92.3711E+06    -145.414E+06    -31.9577E+06     1.60851E+06    -289.578E-03     579.291E-03    -289.712E-03     35.8524E-03    -289.841E-03     578.801E-03    -289.527E-03     34.6896E-03
             717     5.39023E-03     136.483E-03    -83.7828E+06    -120.569E+06    -14.9708E+06     1.70433E+06    -289.653E-03     579.364E-03    -289.711E-03     41.2910E-03    -289.962E-03     578.991E-03    -289.490E-03     39.4677E-03
             718     6.06419E-03     136.558E-03    -75.4333E+06    -93.8869E+06     617.473E+03     1.80986E+06    -289.768E-03     579.473E-03    -289.705E-03     46.7462E-03    -290.136E-03     579.238E-03    -289.456E-03     44.1152E-03
             719     6.73819E-03     136.643E-03    -67.2908E+06    -63.6151E+06     15.3091E+06     2.07623E+06    -289.850E-03     579.544E-03    -289.693E-03     52.0998E-03    -290.295E-03     579.479E-03    -289.427E-03     48.5043E-03
             720     7.41221E-03     136.734E-03    -59.5664E+06    -28.1013E+06     29.6614E+06     2.29783E+06    -289.853E-03     579.525E-03    -289.672E-03     57.2576E-03    -290.396E-03     579.672E-03    -289.397E-03     52.5280E-03
             721     8.08636E-03     136.833E-03    -52.0079E+06     14.8867E+06     44.3111E+06     2.34292E+06    -289.805E-03     579.444E-03    -289.639E-03     62.2644E-03    -290.478E-03     579.857E-03    -289.363E-03     56.2094E-03
             722     8.76066E-03     136.938E-03    -44.4227E+06     42.6918E+06     55.4683E+06     2.73109E+06    -289.812E-03     579.420E-03    -289.608E-03     66.9263E-03    -290.604E-03     580.045E-03    -289.328E-03     59.4049E-03
             723     9.43501E-03     137.048E-03    -36.9803E+06     48.2501E+06     64.0926E+06     3.48914E+06    -289.824E-03     579.424E-03    -289.600E-03     70.7735E-03    -290.714E-03     580.168E-03    -289.295E-03     61.6951E-03
             724     10.1091E-03     137.162E-03    -30.0057E+06     49.1345E+06     74.1971E+06     3.55351E+06    -289.821E-03     579.431E-03    -289.611E-03     73.4992E-03    -290.817E-03     580.281E-03    -289.267E-03     62.7530E-03
             725     10.7830E-03     137.277E-03    -23.1886E+06     47.0507E+06     81.3908E+06     2.67107E+06    -289.870E-03     579.492E-03    -289.622E-03     74.5573E-03    -290.965E-03     580.436E-03    -289.250E-03     62.0895E-03
             726     11.4571E-03     137.388E-03    -17.0112E+06     62.4640E+06     91.1515E+06     1.32210E+06    -289.690E-03     579.322E-03    -289.632E-03     72.9009E-03    -290.874E-03     580.403E-03    -289.242E-03     59.0291E-03
             727     12.1303E-03     137.492E-03    -10.8054E+06     82.3189E+06     99.3227E+06     407.335E+03    -289.016E-03     578.638E-03    -289.622E-03     72.5074E-03    -290.384E-03     579.972E-03    -289.229E-03     56.4254E-03
             728     12.8061E-03     137.593E-03    -4.75351E+06     87.3958E+06     98.9608E+06     484.154E+03    -288.502E-03     578.080E-03    -289.579E-03     59.9965E-03    -289.683E-03     579.268E-03    -289.204E-03     44.5508E-03
             729     673.640E-06     137.889E-03    -132.961E+06    -258.567E+06    -130.577E+06     333.458E+03    -289.609E-03     579.216E-03    -289.607E-03     5.49369E-03    -289.711E-03     578.307E-03    -289.692E-03     5.54205E-03
             730     1.34729E-03     137.903E-03    -129.651E+06    -248.158E+06    -120.665E+06     548.024E+03    -289.579E-03     579.206E-03    -289.627E-03     10.0840E-03    -289.695E-03     578.330E-03    -289.683E-03     10.1524E-03
             731     2.02099E-03     137.926E-03    -124.310E+06    -232.569E+06    -105.894E+06     769.634E+03    -289.546E-03     579.192E-03    -289.646E-03     15.0057E-03    -289.683E-03     578.369E-03    -289.658E-03     15.0401E-03
             732     2.69472E-03     137.958E-03    -117.612E+06    -213.108E+06    -88.0838E+06     981.560E+03    -289.522E-03     579.188E-03    -289.665E-03     20.0593E-03    -289.686E-03     578.432E-03    -289.626E-03     19.9784E-03
             733     3.36852E-03     137.998E-03    -110.053E+06    -194.048E+06    -69.0313E+06     1.15174E+06    -289.523E-03     579.209E-03    -289.686E-03     25.2436E-03    -289.714E-03     578.521E-03    -289.590E-03     24.9359E-03
             734     4.04241E-03     138.048E-03    -101.826E+06    -172.004E+06    -50.3726E+06     1.33448E+06    -289.532E-03     579.230E-03    -289.698E-03     30.5259E-03    -289.755E-03     578.627E-03    -289.553E-03     29.8671E-03
             735     4.71637E-03     138.106E-03    -93.2900E+06    -146.705E+06    -32.6783E+06     1.63060E+06    -289.572E-03     579.270E-03    -289.698E-03     35.8949E-03    -289.835E-03     578.776E-03    -289.514E-03     34.7397E-03
             736     5.39034E-03     138.173E-03    -84.9138E+06    -121.929E+06    -15.8431E+06     2.14344E+06    -289.671E-03     579.370E-03    -289.699E-03     41.3208E-03    -289.983E-03     578.993E-03    -289.478E-03     39.5161E-03
             737     6.06433E-03     138.249E-03    -76.7951E+06    -94.9772E+06     -122.01E+03     2.57037E+06    -289.773E-03     579.469E-03    -289.696E-03     46.7514E-03    -290.146E-03     579.232E-03    -289.448E-03     44.1414E-03
             738     6.73831E-03     138.333E-03    -68.9555E+06    -64.9987E+06     14.4755E+06     2.85799E+06    -289.823E-03     579.508E-03    -289.685E-03     52.0585E-03    -290.272E-03     579.440E-03    -289.419E-03     48.4758E-03
             739     7.41243E-03     138.425E-03    -61.1426E+06    -29.5255E+06     28.8683E+06     3.38480E+06    -289.830E-03     579.494E-03    -289.664E-03     57.1327E-03    -290.379E-03     579.637E-03    -289.388E-03     52.4112E-03
             740     8.08656E-03     138.524E-03    -53.6020E+06     14.7106E+06     43.6671E+06     3.58878E+06    -289.825E-03     579.456E-03    -289.631E-03     62.0754E-03    -290.504E-03     579.870E-03    -289.356E-03     56.0279E-03
             741     8.76063E-03     138.629E-03    -46.1056E+06     42.4545E+06     54.8840E+06     3.02641E+06    -289.882E-03     579.489E-03    -289.606E-03     66.6910E-03    -290.682E-03     580.115E-03    -289.326E-03     59.1590E-03
             742     9.43456E-03     138.739E-03    -38.4877E+06     46.6254E+06     63.1750E+06     2.61071E+06    -289.956E-03     579.563E-03    -289.606E-03     70.5901E-03    -290.851E-03     580.302E-03    -289.302E-03     61.4732E-03
             743     10.1088E-03     138.853E-03    -30.7060E+06     48.9244E+06     72.3231E+06     2.75022E+06    -289.911E-03     579.528E-03    -289.617E-03     73.5072E-03    -290.908E-03     580.380E-03    -289.282E-03     62.7440E-03
             744     10.7830E-03     138.968E-03    -23.1178E+06     49.3057E+06     79.1837E+06     2.40593E+06    -289.782E-03     579.402E-03    -289.621E-03     74.8957E-03    -290.877E-03     580.361E-03    -289.263E-03     62.4599E-03
             745     11.4568E-03     139.080E-03    -16.4380E+06     66.1829E+06     90.8307E+06     1.13111E+06    -289.439E-03     579.064E-03    -289.626E-03     73.3468E-03    -290.626E-03     580.165E-03    -289.243E-03     59.5075E-03
             746     12.1320E-03     139.183E-03    -9.87401E+06     83.3634E+06     100.633E+06     154.309E+03    -289.006E-03     578.625E-03    -289.619E-03     72.4241E-03    -290.378E-03     579.966E-03    -289.222E-03     56.2564E-03
             747     12.8054E-03     139.283E-03    -4.92528E+06     86.8207E+06     99.9125E+06     1.07753E+06    -288.734E-03     578.319E-03    -289.584E-03     59.7662E-03    -289.917E-03     579.502E-03    -289.204E-03     44.3182E-03
             748     673.663E-06     139.580E-03    -133.786E+06    -260.120E+06    -131.428E+06     338.833E+03    -289.597E-03     579.165E-03    -289.568E-03     5.45314E-03    -289.699E-03     578.250E-03    -289.654E-03     5.50801E-03
             749     1.34734E-03     139.594E-03    -130.316E+06    -249.465E+06    -121.284E+06     623.077E+03    -289.552E-03     579.154E-03    -289.602E-03     10.0532E-03    -289.669E-03     578.274E-03    -289.658E-03     10.1277E-03
             750     2.02104E-03     139.617E-03    -125.056E+06    -233.796E+06    -106.451E+06     862.230E+03    -289.524E-03     579.145E-03    -289.621E-03     14.9902E-03    -289.662E-03     578.318E-03    -289.633E-03     15.0284E-03
             751     2.69483E-03     139.648E-03    -118.292E+06    -214.445E+06    -88.5460E+06     1.14797E+06    -289.504E-03     579.146E-03    -289.642E-03     20.0511E-03    -289.668E-03     578.386E-03    -289.603E-03     19.9710E-03
             752     3.36867E-03     139.689E-03    -110.488E+06    -195.364E+06    -69.3433E+06     1.52750E+06    -289.515E-03     579.181E-03    -289.666E-03     25.2042E-03    -289.705E-03     578.486E-03    -289.569E-03     24.9021E-03
             753     4.04254E-03     139.738E-03    -102.245E+06    -173.090E+06    -50.5023E+06     1.80400E+06    -289.556E-03     579.239E-03    -289.683E-03     30.4432E-03    -289.780E-03     578.632E-03    -289.536E-03     29.7859E-03
             754     4.71642E-03     139.797E-03    -94.0652E+06    -148.410E+06    -32.9724E+06     2.12547E+06    -289.630E-03     579.323E-03    -289.693E-03     35.7971E-03    -289.895E-03     578.823E-03    -289.506E-03     34.6410E-03
             755     5.39034E-03     139.864E-03    -85.6793E+06    -124.032E+06    -16.5423E+06     2.56882E+06    -289.724E-03     579.424E-03    -289.700E-03     41.2051E-03    -290.035E-03     579.039E-03    -289.479E-03     39.4019E-03
             756     6.06427E-03     139.940E-03    -77.0987E+06    -96.7897E+06    -924.639E+03     3.06581E+06    -289.794E-03     579.495E-03    -289.701E-03     46.5765E-03    -290.164E-03     579.250E-03    -289.453E-03     43.9663E-03
             757     6.73828E-03     140.024E-03    -68.6721E+06    -66.6099E+06     14.0055E+06     3.53460E+06    -289.843E-03     579.536E-03    -289.693E-03     51.8251E-03    -290.288E-03     579.459E-03    -289.426E-03     48.2498E-03
             758     7.41228E-03     140.116E-03    -60.3521E+06    -31.3407E+06     28.3763E+06     3.77550E+06    -289.872E-03     579.545E-03    -289.673E-03     56.9006E-03    -290.413E-03     579.678E-03    -289.398E-03     52.1825E-03
             759     8.08632E-03     140.215E-03    -51.9678E+06     13.1674E+06     43.3752E+06     4.26041E+06    -289.858E-03     579.500E-03    -289.642E-03     61.9122E-03    -290.526E-03     579.904E-03    -289.369E-03     55.8868E-03
             760     8.76046E-03     140.320E-03    -44.2511E+06     43.5111E+06     55.6645E+06     4.49409E+06    -289.881E-03     579.499E-03    -289.618E-03     66.6462E-03    -290.671E-03     580.125E-03    -289.339E-03     59.1765E-03
             761     9.43471E-03     140.430E-03    -37.5431E+06     48.4477E+06     64.5713E+06     3.45539E+06    -289.939E-03     579.558E-03    -289.619E-03     70.6907E-03    -290.830E-03     580.301E-03    -289.312E-03     61.6329E-03
             762     10.1087E-03     140.544E-03    -31.1227E+06     49.9191E+06     73.0581E+06     1.89934E+06    -289.889E-03     579.517E-03    -289.627E-03     73.6994E-03    -290.892E-03     580.374E-03    -289.289E-03     62.9393E-03
             763     10.7827E-03     140.659E-03    -24.8299E+06     50.1387E+06     79.3589E+06     1.21676E+06    -289.706E-03     579.333E-03    -289.627E-03     74.9329E-03    -290.812E-03     580.299E-03    -289.267E-03     62.4770E-03
             764     11.4576E-03     140.771E-03    -18.1273E+06     67.9903E+06     91.8337E+06     1.10212E+06    -289.363E-03     578.993E-03    -289.631E-03     72.9136E-03    -290.560E-03     580.101E-03    -289.244E-03     59.0656E-03
             765     12.1310E-03     140.874E-03    -11.9602E+06     82.6244E+06     100.302E+06     959.620E+03    -289.074E-03     578.697E-03    -289.623E-03     72.1076E-03    -290.448E-03     580.031E-03    -289.224E-03     55.9951E-03
             766     12.8052E-03     140.976E-03    -5.64792E+06     86.8602E+06     99.9948E+06     920.844E+03    -288.618E-03     578.204E-03    -289.587E-03     59.9724E-03    -289.805E-03     579.390E-03    -289.204E-03     44.5090E-03
             767     673.647E-06     141.271E-03    -134.350E+06    -261.469E+06    -131.915E+06     253.242E+03    -289.590E-03     579.144E-03    -289.554E-03     5.44856E-03    -289.692E-03     578.223E-03    -289.639E-03     5.49787E-03
             768     1.34735E-03     141.285E-03    -130.808E+06    -251.024E+06    -121.879E+06     542.631E+03    -289.546E-03     579.138E-03    -289.592E-03     10.0087E-03    -289.662E-03     578.252E-03    -289.648E-03     10.0748E-03
             769     2.02110E-03     141.307E-03    -125.413E+06    -235.289E+06    -106.961E+06     935.514E+03    -289.525E-03     579.138E-03    -289.614E-03     14.8932E-03    -289.662E-03     578.305E-03    -289.626E-03     14.9248E-03
             770     2.69486E-03     141.339E-03    -118.697E+06    -216.001E+06    -89.0698E+06     1.28547E+06    -289.521E-03     579.160E-03    -289.639E-03     19.9080E-03    -289.684E-03     578.394E-03    -289.599E-03     19.8261E-03
             771     3.36866E-03     141.379E-03    -110.947E+06    -196.973E+06    -70.0946E+06     1.55513E+06    -289.553E-03     579.222E-03    -289.669E-03     25.0350E-03    -289.743E-03     578.522E-03    -289.573E-03     24.7279E-03
             772     4.04248E-03     141.429E-03    -102.721E+06    -174.826E+06    -51.3512E+06     1.96120E+06    -289.608E-03     579.301E-03    -289.693E-03     30.2821E-03    -289.830E-03     578.687E-03    -289.547E-03     29.6207E-03
             773     4.71635E-03     141.487E-03    -94.1105E+06    -150.034E+06    -33.3533E+06     2.31164E+06    -289.689E-03     579.400E-03    -289.711E-03     35.6679E-03    -289.951E-03     578.892E-03    -289.524E-03     34.5142E-03
             774     5.39019E-03     141.555E-03    -85.2113E+06    -125.862E+06    -16.7213E+06     2.54987E+06    -289.776E-03     579.500E-03    -289.724E-03     41.0988E-03    -290.082E-03     579.105E-03    -289.502E-03     39.2980E-03
             775     6.06410E-03     141.631E-03    -76.4784E+06    -98.7533E+06    -1.28617E+06     2.92199E+06    -289.841E-03     579.567E-03    -289.726E-03     46.4700E-03    -290.204E-03     579.312E-03    -289.479E-03     43.8681E-03
             776     6.73804E-03     141.715E-03    -67.9373E+06    -68.5155E+06     13.4803E+06     3.36498E+06    -289.876E-03     579.594E-03    -289.718E-03     51.7234E-03    -290.312E-03     579.507E-03    -289.453E-03     48.1627E-03
             777     7.41206E-03     141.807E-03    -59.9959E+06    -33.1851E+06     27.9121E+06     3.86656E+06    -289.874E-03     579.572E-03    -289.698E-03     56.8565E-03    -290.408E-03     579.695E-03    -289.423E-03     52.1621E-03
             778     8.08617E-03     141.905E-03    -52.5023E+06     10.7014E+06     42.7671E+06     4.38040E+06    -289.843E-03     579.509E-03    -289.665E-03     61.8912E-03    -290.507E-03     579.900E-03    -289.391E-03     55.9000E-03
             779     8.76037E-03     142.011E-03    -44.7719E+06     42.5368E+06     55.0989E+06     4.86523E+06    -289.830E-03     579.466E-03    -289.635E-03     66.5416E-03    -290.618E-03     580.086E-03    -289.357E-03     59.1122E-03
             780     9.43449E-03     142.121E-03    -37.0495E+06     51.4587E+06     65.2242E+06     4.49921E+06    -289.861E-03     579.490E-03    -289.630E-03     70.4921E-03    -290.753E-03     580.244E-03    -289.325E-03     61.4817E-03
             781     10.1088E-03     142.235E-03    -30.0317E+06     53.5116E+06     75.8983E+06     3.13184E+06    -289.880E-03     579.524E-03    -289.644E-03     73.4171E-03    -290.884E-03     580.391E-03    -289.299E-03     62.6915E-03
             782     10.7831E-03     142.350E-03    -23.7603E+06     51.1025E+06     83.1702E+06     1.91592E+06    -289.793E-03     579.449E-03    -289.655E-03     74.6232E-03    -290.898E-03     580.409E-03    -289.279E-03     62.1794E-03
             783     11.4564E-03     142.462E-03    -17.5855E+06     66.8855E+06     93.8597E+06     1.74981E+06    -289.403E-03     579.061E-03    -289.658E-03     72.8692E-03    -290.598E-03     580.159E-03    -289.260E-03     59.0358E-03
             784     12.1313E-03     142.565E-03    -11.7634E+06     84.2707E+06     101.622E+06     1.88178E+06    -288.904E-03     578.542E-03    -289.638E-03     72.1444E-03    -290.278E-03     579.880E-03    -289.235E-03     56.0957E-03
             785     12.8059E-03     142.666E-03    -5.46901E+06     89.3331E+06     101.517E+06     550.931E+03    -288.531E-03     578.126E-03    -289.595E-03     59.3908E-03    -289.721E-03     579.319E-03    -289.209E-03     43.8844E-03
             786     673.686E-06     142.961E-03    -134.892E+06    -262.669E+06    -132.474E+06     304.146E+03    -289.621E-03     579.192E-03    -289.571E-03     5.39061E-03    -289.723E-03     578.268E-03    -289.657E-03     5.43965E-03
             787     1.34734E-03     142.975E-03    -131.451E+06    -252.352E+06    -122.554E+06     483.643E+03    -289.585E-03     579.204E-03    -289.619E-03     9.91952E-03    -289.701E-03     578.313E-03    -289.676E-03     9.98535E-03
             788     2.02100E-03     142.998E-03    -126.112E+06    -236.910E+06    -107.958E+06     707.284E+03    -289.574E-03     579.220E-03    -289.646E-03     14.7755E-03    -289.710E-03     578.381E-03    -289.659E-03     14.8067E-03
             789     2.69474E-03     143.029E-03    -119.201E+06    -217.704E+06    -90.2063E+06     1.07739E+06    -289.575E-03     579.251E-03    -289.675E-03     19.7822E-03    -289.737E-03     578.478E-03    -289.638E-03     19.6995E-03
             790     3.36850E-03     143.070E-03    -111.709E+06    -198.490E+06    -71.2126E+06     1.42773E+06    -289.602E-03     579.310E-03    -289.708E-03     24.9175E-03    -289.792E-03     578.605E-03    -289.614E-03     24.6109E-03
             791     4.04229E-03     143.120E-03    -103.474E+06    -176.391E+06     -52.435E+06     1.61265E+06    -289.655E-03     579.389E-03    -289.734E-03     30.1845E-03    -289.877E-03     578.769E-03    -289.590E-03     29.5290E-03
             792     4.71611E-03     143.178E-03    -94.5100E+06    -151.420E+06    -34.3748E+06     1.82836E+06    -289.717E-03     579.468E-03    -289.751E-03     35.5705E-03    -289.978E-03     578.955E-03    -289.566E-03     34.4275E-03
             793     5.38999E-03     143.246E-03    -85.7460E+06    -127.365E+06    -17.4910E+06     2.08553E+06    -289.785E-03     579.548E-03    -289.763E-03     40.9935E-03    -290.090E-03     579.147E-03    -289.541E-03     39.2096E-03
             794     6.06389E-03     143.322E-03    -77.0569E+06    -100.740E+06    -1.88980E+06     2.58199E+06    -289.847E-03     579.611E-03    -289.763E-03     46.3941E-03    -290.208E-03     579.346E-03    -289.515E-03     43.8145E-03
             795     6.73782E-03     143.406E-03    -68.8176E+06    -70.7925E+06     12.8055E+06     3.25275E+06    -289.880E-03     579.633E-03    -289.753E-03     51.6582E-03    -290.316E-03     579.536E-03    -289.486E-03     48.1151E-03
             796     7.41188E-03     143.497E-03    -60.8033E+06    -36.0298E+06     27.3211E+06     4.07579E+06    -289.895E-03     579.627E-03    -289.732E-03     56.7507E-03    -290.427E-03     579.737E-03    -289.455E-03     52.0783E-03
             797     8.08599E-03     143.596E-03    -52.8268E+06     7.95950E+06     42.5306E+06     5.18128E+06    -289.892E-03     579.593E-03    -289.701E-03     61.6950E-03    -290.552E-03     579.970E-03    -289.423E-03     55.7296E-03
             798     8.76006E-03     143.701E-03    -45.2181E+06     42.0494E+06     55.2601E+06     5.38973E+06    -289.895E-03     579.567E-03    -289.672E-03     66.2467E-03    -290.684E-03     580.185E-03    -289.392E-03     58.8170E-03
             799     9.43432E-03     143.812E-03    -38.2142E+06     53.0838E+06     65.6260E+06     4.52879E+06    -289.892E-03     579.561E-03    -289.669E-03     70.1008E-03    -290.792E-03     580.323E-03    -289.362E-03     61.0752E-03
             800     10.1083E-03     143.926E-03    -31.3347E+06     55.5274E+06     75.8403E+06     3.65996E+06    -289.811E-03     579.490E-03    -289.679E-03     73.0391E-03    -290.821E-03     580.365E-03    -289.335E-03     62.3304E-03
             801     10.7822E-03     144.041E-03    -24.2929E+06     53.7427E+06     82.8721E+06     2.74296E+06    -289.632E-03     579.311E-03    -289.679E-03     74.4222E-03    -290.741E-03     580.284E-03    -289.307E-03     62.0029E-03
             802     11.4571E-03     144.153E-03    -17.7676E+06     67.7102E+06     93.5659E+06     1.74816E+06    -289.319E-03     578.995E-03    -289.675E-03     72.7462E-03    -290.517E-03     580.098E-03    -289.280E-03     58.8959E-03
             803     12.1309E-03     144.256E-03    -11.2444E+06     85.9410E+06     102.475E+06     1.20657E+06    -288.937E-03     578.595E-03    -289.658E-03     71.9027E-03    -290.316E-03     579.942E-03    -289.254E-03     55.7736E-03
             804     12.8048E-03     144.357E-03    -5.25366E+06     91.4210E+06     102.034E+06     871.413E+03    -288.505E-03     578.117E-03    -289.612E-03     59.3690E-03    -289.700E-03     579.322E-03    -289.227E-03     43.8304E-03
             805     673.572E-06     144.652E-03    -135.749E+06    -263.950E+06    -133.421E+06     243.670E+03    -289.686E-03     579.332E-03    -289.646E-03     5.36050E-03    -289.789E-03     578.403E-03    -289.734E-03     5.41097E-03
             806     1.34721E-03     144.666E-03    -132.307E+06    -253.515E+06    -123.471E+06     510.546E+03    -289.648E-03     579.335E-03    -289.687E-03     9.86424E-03    -289.765E-03     578.441E-03    -289.745E-03     9.93856E-03
             807     2.02088E-03     144.689E-03    -127.151E+06    -238.055E+06    -108.881E+06     697.902E+03    -289.637E-03     579.349E-03    -289.712E-03     14.7155E-03    -289.775E-03     578.507E-03    -289.727E-03     14.7582E-03
             808     2.69453E-03     144.720E-03    -120.599E+06    -219.066E+06    -91.2849E+06     822.541E+03    -289.631E-03     579.372E-03    -289.741E-03     19.7299E-03    -289.796E-03     578.596E-03    -289.705E-03     19.6555E-03
             809     3.36827E-03     144.761E-03    -112.769E+06    -199.875E+06    -72.1090E+06     1.04237E+06    -289.655E-03     579.427E-03    -289.772E-03     24.8620E-03    -289.847E-03     578.718E-03    -289.679E-03     24.5673E-03
             810     4.04203E-03     144.811E-03    -104.264E+06    -177.523E+06    -53.1452E+06     1.35901E+06    -289.701E-03     579.498E-03    -289.796E-03     30.1186E-03    -289.924E-03     578.874E-03    -289.653E-03     29.4824E-03
             811     4.71583E-03     144.869E-03    -95.7462E+06    -152.511E+06    -35.3014E+06     1.56297E+06    -289.750E-03     579.560E-03    -289.810E-03     35.4766E-03    -290.013E-03     579.044E-03    -289.627E-03     34.3498E-03
             812     5.38968E-03     144.937E-03    -87.1203E+06    -128.715E+06    -18.3776E+06     1.80598E+06    -289.815E-03     579.634E-03    -289.820E-03     40.8579E-03    -290.122E-03     579.229E-03    -289.599E-03     39.0873E-03
             813     6.06359E-03     145.013E-03    -78.7919E+06    -103.191E+06    -3.08736E+06     2.22616E+06    -289.871E-03     579.690E-03    -289.819E-03     46.1716E-03    -290.236E-03     579.417E-03    -289.570E-03     43.5884E-03
             814     6.73760E-03     145.097E-03    -70.4731E+06    -73.5924E+06     11.5027E+06     2.95785E+06    -289.936E-03     579.743E-03    -289.808E-03     51.3444E-03    -290.373E-03     579.636E-03    -289.541E-03     47.7957E-03
             815     7.41154E-03     145.189E-03    -62.1053E+06    -38.9116E+06     26.0763E+06     3.70460E+06    -290.013E-03     579.804E-03    -289.791E-03     56.3668E-03    -290.545E-03     579.902E-03    -289.515E-03     51.6828E-03
             816     8.08548E-03     145.287E-03    -53.8012E+06     4.07659E+06     40.9773E+06     4.55524E+06    -290.001E-03     579.767E-03    -289.766E-03     61.2412E-03    -290.658E-03     580.128E-03    -289.489E-03     55.2490E-03
             817     8.75957E-03     145.393E-03    -45.5935E+06     40.6027E+06     53.9889E+06     5.59798E+06    -289.931E-03     579.668E-03    -289.737E-03     65.8119E-03    -290.717E-03     580.280E-03    -289.460E-03     58.3706E-03
             818     9.43341E-03     145.503E-03    -37.9668E+06     54.4567E+06     65.3014E+06     5.71959E+06    -289.851E-03     579.580E-03    -289.729E-03     69.8197E-03    -290.750E-03     580.348E-03    -289.427E-03     60.7999E-03
             819     10.1076E-03     145.617E-03    -30.8717E+06     58.3674E+06     76.4322E+06     4.55631E+06    -289.691E-03     579.424E-03    -289.733E-03     72.8558E-03    -290.702E-03     580.311E-03    -289.390E-03     62.1563E-03
             820     10.7824E-03     145.731E-03    -24.2680E+06     56.9278E+06     83.5083E+06     2.96781E+06    -289.492E-03     579.215E-03    -289.723E-03     74.1014E-03    -290.606E-03     580.202E-03    -289.353E-03     61.6711E-03
             821     11.4560E-03     145.844E-03    -17.8162E+06     70.2803E+06     94.5043E+06     1.37964E+06    -289.153E-03     578.864E-03    -289.711E-03     72.4598E-03    -290.353E-03     579.976E-03    -289.315E-03     58.6092E-03
             822     12.1305E-03     145.947E-03    -11.3932E+06     85.3290E+06     102.811E+06     822.506E+03    -288.682E-03     578.364E-03    -289.682E-03     72.0112E-03    -290.062E-03     579.709E-03    -289.276E-03     55.8897E-03
             823     12.8053E-03     146.047E-03    -5.34452E+06     91.5677E+06     102.614E+06     1.16313E+06    -288.224E-03     577.846E-03    -289.622E-03     59.6581E-03    -289.426E-03     579.056E-03    -289.234E-03     44.1062E-03
             824     673.557E-06     146.343E-03    -136.151E+06    -265.438E+06    -133.706E+06     404.493E+03    -289.758E-03     579.503E-03    -289.744E-03     5.35464E-03    -289.861E-03     578.567E-03    -289.831E-03     5.40602E-03
             825     1.34711E-03     146.357E-03    -132.789E+06    -254.945E+06    -123.758E+06     678.845E+03    -289.728E-03     579.500E-03    -289.772E-03     9.86255E-03    -289.845E-03     578.600E-03    -289.829E-03     9.94370E-03
             826     2.02068E-03     146.380E-03    -127.560E+06    -239.264E+06    -108.926E+06     971.890E+03    -289.719E-03     579.517E-03    -289.797E-03     14.6857E-03    -289.858E-03     578.669E-03    -289.810E-03     14.7415E-03
             827     2.69435E-03     146.411E-03    -121.136E+06    -219.999E+06    -91.1675E+06     1.18341E+06    -289.726E-03     579.554E-03    -289.828E-03     19.6467E-03    -289.893E-03     578.774E-03    -289.789E-03     19.5898E-03
             828     3.36801E-03     146.452E-03    -113.484E+06    -200.461E+06    -72.1345E+06     1.11566E+06    -289.759E-03     579.621E-03    -289.862E-03     24.7263E-03    -289.952E-03     578.909E-03    -289.768E-03     24.4435E-03
             829     4.04172E-03     146.502E-03    -104.993E+06    -178.798E+06    -53.5024E+06     1.15306E+06    -289.798E-03     579.686E-03    -289.889E-03     29.9061E-03    -290.022E-03     579.058E-03    -289.745E-03     29.2716E-03
             830     4.71548E-03     146.560E-03    -96.3507E+06    -154.316E+06    -35.8035E+06     1.76726E+06    -289.849E-03     579.753E-03    -289.904E-03     35.1695E-03    -290.111E-03     579.230E-03    -289.720E-03     34.0467E-03
             831     5.38927E-03     146.628E-03    -87.9992E+06    -130.031E+06    -18.9837E+06     2.33520E+06    -289.919E-03     579.835E-03    -289.916E-03     40.4654E-03    -290.228E-03     579.425E-03    -289.695E-03     38.6978E-03
             832     6.06306E-03     146.704E-03    -79.8292E+06    -104.589E+06    -3.62411E+06     2.37377E+06    -290.002E-03     579.922E-03    -289.920E-03     45.7068E-03    -290.369E-03     579.645E-03    -289.671E-03     43.1134E-03
             833     6.73683E-03     146.788E-03    -71.4214E+06    -75.7468E+06     10.6308E+06     2.52674E+06    -290.079E-03     579.994E-03    -289.914E-03     50.8468E-03    -290.517E-03     579.878E-03    -289.648E-03     47.2796E-03
             834     7.41067E-03     146.880E-03    -63.2076E+06    -41.6609E+06     24.6497E+06     3.11605E+06    -290.104E-03     580.004E-03    -289.900E-03     55.8953E-03    -290.635E-03     580.091E-03    -289.624E-03     51.1997E-03
             835     8.08450E-03     146.979E-03    -55.4161E+06     426.818E+03     39.0506E+06     3.89958E+06    -290.032E-03     579.903E-03    -289.871E-03     60.8489E-03    -290.687E-03     580.250E-03    -289.596E-03     54.8398E-03
             836     8.75843E-03     147.084E-03    -47.8132E+06     38.4395E+06     51.5261E+06     4.17029E+06    -289.869E-03     579.700E-03    -289.831E-03     65.4827E-03    -290.659E-03     580.307E-03    -289.560E-03     58.0081E-03
             837     9.43291E-03     147.194E-03    -39.4736E+06     54.7991E+06     62.7688E+06     3.92942E+06    -289.707E-03     579.513E-03    -289.806E-03     69.4340E-03    -290.610E-03     580.288E-03    -289.514E-03     60.3740E-03
             838     10.1072E-03     147.308E-03    -30.7950E+06     60.8196E+06     75.3250E+06     3.31095E+06    -289.540E-03     579.338E-03    -289.797E-03     72.4474E-03    -290.553E-03     580.238E-03    -289.464E-03     61.7084E-03
             839     10.7810E-03     147.422E-03    -23.1380E+06     58.2693E+06     84.0592E+06     2.70145E+06    -289.294E-03     579.075E-03    -289.781E-03     73.9528E-03    -290.404E-03     580.066E-03    -289.412E-03     61.5142E-03
             840     11.4558E-03     147.534E-03    -16.1225E+06     72.3476E+06     96.7047E+06     2.74631E+06    -288.786E-03     578.543E-03    -289.756E-03     72.5089E-03    -289.984E-03     579.660E-03    -289.354E-03     58.6918E-03
             841     12.1306E-03     147.637E-03    -10.3128E+06     85.5757E+06     104.586E+06     2.57081E+06    -288.252E-03     577.957E-03    -289.704E-03     71.9411E-03    -289.629E-03     579.297E-03    -289.290E-03     55.8672E-03
             842     12.8051E-03     147.738E-03    -5.33389E+06     92.1236E+06     103.899E+06     1.82125E+06    -287.876E-03     577.497E-03    -289.621E-03     59.6266E-03    -289.079E-03     578.707E-03    -289.227E-03     44.0956E-03
             843     673.470E-06     148.034E-03    -135.522E+06    -267.463E+06    -133.118E+06     582.956E+03    -289.890E-03     579.762E-03    -289.872E-03     5.27529E-03    -289.987E-03     578.815E-03    -289.953E-03     5.33087E-03
             844     1.34698E-03     148.048E-03    -132.148E+06    -256.920E+06    -123.074E+06     962.170E+03    -289.871E-03     579.776E-03    -289.905E-03     9.70593E-03    -289.983E-03     578.864E-03    -289.956E-03     9.79295E-03
             845     2.02054E-03     148.071E-03    -126.942E+06    -241.094E+06    -108.303E+06     1.42521E+06    -289.879E-03     579.816E-03    -289.937E-03     14.4553E-03    -290.013E-03     578.958E-03    -289.945E-03     14.5187E-03
             846     2.69402E-03     148.103E-03    -120.133E+06    -221.621E+06    -90.3926E+06     1.84863E+06    -289.906E-03     579.882E-03    -289.976E-03     19.3400E-03    -290.066E-03     579.091E-03    -289.932E-03     19.2914E-03
             847     3.36757E-03     148.144E-03    -112.551E+06    -200.687E+06    -71.3422E+06     1.95929E+06    -289.942E-03     579.958E-03    -290.016E-03     24.3424E-03    -290.132E-03     579.243E-03    -289.919E-03     24.0647E-03
             848     4.04113E-03     148.193E-03    -104.508E+06    -179.864E+06    -52.5898E+06     1.95608E+06    -289.991E-03     580.044E-03    -290.053E-03     29.4402E-03    -290.213E-03     579.408E-03    -289.903E-03     28.8035E-03
             849     4.71471E-03     148.252E-03    -96.0961E+06    -156.801E+06    -35.1614E+06     2.32740E+06    -290.038E-03     580.114E-03    -290.076E-03     34.6273E-03    -290.296E-03     579.577E-03    -289.885E-03     33.4967E-03
             850     5.38833E-03     148.319E-03    -87.6345E+06    -131.265E+06    -18.7646E+06     2.64856E+06    -290.081E-03     580.168E-03    -290.087E-03     39.8748E-03    -290.387E-03     579.751E-03    -289.864E-03     38.0996E-03
             851     6.06201E-03     148.396E-03    -79.1571E+06    -105.401E+06    -3.11639E+06     2.77977E+06    -290.148E-03     580.241E-03    -290.092E-03     45.1454E-03    -290.510E-03     579.956E-03    -289.840E-03     42.5617E-03
             852     6.73570E-03     148.480E-03    -71.1587E+06    -77.1124E+06     11.0084E+06     2.91007E+06    -290.181E-03     580.266E-03    -290.085E-03     50.3443E-03    -290.615E-03     580.141E-03    -289.815E-03     46.7791E-03
             853     7.40945E-03     148.572E-03    -63.3534E+06    -44.0366E+06     24.6344E+06     3.24621E+06    -290.108E-03     580.170E-03    -290.062E-03     55.4286E-03    -290.634E-03     580.244E-03    -289.783E-03     50.7327E-03
             854     8.08345E-03     148.670E-03    -55.4685E+06    -2.88323E+06     38.9323E+06     4.06613E+06    -289.952E-03     579.971E-03    -290.019E-03     60.3821E-03    -290.600E-03     580.300E-03    -289.740E-03     54.3827E-03
             855     8.75761E-03     148.775E-03    -47.7303E+06     38.2969E+06     52.0452E+06     4.50292E+06    -289.760E-03     579.721E-03    -289.961E-03     65.0120E-03    -290.548E-03     580.325E-03    -289.687E-03     57.5296E-03
             856     9.43151E-03     148.885E-03    -41.0091E+06     57.4605E+06     62.3095E+06     3.14882E+06    -289.545E-03     579.458E-03    -289.913E-03     69.0646E-03    -290.458E-03     580.248E-03    -289.625E-03     59.9757E-03
             857     10.1058E-03     148.998E-03    -34.5476E+06     62.6027E+06     72.5814E+06     1.33686E+06    -289.237E-03     579.114E-03    -289.877E-03     72.2556E-03    -290.266E-03     580.032E-03    -289.554E-03     61.4819E-03
             858     10.7809E-03     149.113E-03    -27.4047E+06     57.2127E+06     81.1262E+06     1.03319E+06    -288.872E-03     578.710E-03    -289.838E-03     73.7783E-03    -289.997E-03     579.705E-03    -289.476E-03     61.3157E-03
             859     11.4555E-03     149.224E-03    -20.7257E+06     70.1387E+06     94.7671E+06     1.87535E+06    -288.360E-03     578.153E-03    -289.793E-03     72.2559E-03    -289.576E-03     579.269E-03    -289.391E-03     58.4030E-03
             860     12.1301E-03     149.327E-03    -13.4045E+06     85.8235E+06     103.919E+06     2.57478E+06    -287.772E-03     577.489E-03    -289.716E-03     71.8761E-03    -289.165E-03     578.837E-03    -289.301E-03     55.7929E-03
             861     12.8053E-03     149.427E-03    -6.09667E+06     95.2863E+06     104.542E+06     1.74523E+06    -287.208E-03     576.809E-03    -289.601E-03     59.9108E-03    -288.422E-03     578.037E-03    -289.208E-03     44.4110E-03
             862     673.333E-06     149.726E-03    -134.836E+06    -269.722E+06    -132.467E+06     505.191E+03    -290.168E-03     580.282E-03    -290.114E-03     5.12838E-03    -290.260E-03     579.322E-03    -290.189E-03     5.18244E-03
             863     1.34665E-03     149.740E-03    -131.421E+06    -259.377E+06    -122.587E+06     997.217E+03    -290.151E-03     580.320E-03    -290.169E-03     9.43311E-03    -290.257E-03     579.394E-03    -290.216E-03     9.51751E-03
             864     2.01994E-03     149.763E-03    -126.125E+06    -243.652E+06    -107.896E+06     1.59006E+06    -290.160E-03     580.367E-03    -290.207E-03     14.0646E-03    -290.287E-03     579.494E-03    -290.210E-03     14.1217E-03
             865     2.69332E-03     149.795E-03    -119.315E+06    -224.025E+06    -89.9869E+06     2.17034E+06    -290.168E-03     580.416E-03    -290.248E-03     18.8518E-03    -290.322E-03     579.612E-03    -290.200E-03     18.7985E-03
             866     3.36668E-03     149.836E-03    -111.669E+06    -202.262E+06    -70.7256E+06     2.62018E+06    -290.184E-03     580.470E-03    -290.286E-03     23.7810E-03    -290.368E-03     579.745E-03    -290.185E-03     23.5060E-03
             867     4.04007E-03     149.885E-03    -103.595E+06    -181.225E+06    -51.6896E+06     2.89736E+06    -290.218E-03     580.538E-03    -290.320E-03     28.8556E-03    -290.434E-03     579.893E-03    -290.166E-03     28.2294E-03
             868     4.71347E-03     149.944E-03    -95.1669E+06    -158.218E+06    -33.8473E+06     2.86955E+06    -290.251E-03     580.593E-03    -290.342E-03     34.0495E-03    -290.505E-03     580.046E-03    -290.144E-03     32.9203E-03
             869     5.38697E-03     150.012E-03    -86.4193E+06    -132.630E+06    -17.3391E+06     2.99665E+06    -290.267E-03     580.615E-03    -290.348E-03     39.2913E-03    -290.566E-03     580.187E-03    -290.117E-03     37.5128E-03
             870     6.06052E-03     150.088E-03    -77.9832E+06    -107.141E+06    -1.97609E+06     3.50127E+06    -290.246E-03     580.587E-03    -290.341E-03     44.5434E-03    -290.600E-03     580.290E-03    -290.083E-03     41.9668E-03
             871     6.73418E-03     150.172E-03    -70.0921E+06    -78.7611E+06     12.3623E+06     4.01905E+06    -290.178E-03     580.496E-03    -290.318E-03     49.7350E-03    -290.605E-03     580.358E-03    -290.040E-03     46.1840E-03
             872     7.40799E-03     150.264E-03    -62.4139E+06    -45.8625E+06     26.2442E+06     4.48482E+06    -290.056E-03     580.332E-03    -290.275E-03     54.8135E-03    -290.577E-03     580.392E-03    -289.987E-03     50.1233E-03
             873     8.08187E-03     150.362E-03    -55.0317E+06    -6.02091E+06     40.1255E+06     5.08436E+06    -289.831E-03     580.042E-03    -290.212E-03     59.7835E-03    -290.473E-03     580.351E-03    -289.922E-03     53.7845E-03
             874     8.75595E-03     150.467E-03    -47.4071E+06     38.3870E+06     53.4701E+06     5.12547E+06    -289.506E-03     579.630E-03    -290.123E-03     64.5029E-03    -290.294E-03     580.230E-03    -289.843E-03     57.0266E-03
             875     9.43059E-03     150.576E-03    -39.4685E+06     62.4381E+06     65.3501E+06     3.80740E+06    -289.176E-03     579.218E-03    -290.043E-03     68.6984E-03    -290.090E-03     580.025E-03    -289.749E-03     59.6150E-03
             876     10.1053E-03     150.689E-03    -32.3204E+06     63.9891E+06     76.6787E+06     2.85185E+06    -288.828E-03     578.812E-03    -289.983E-03     71.9685E-03    -289.854E-03     579.727E-03    -289.646E-03     61.2099E-03
             877     10.7797E-03     150.802E-03    -26.0590E+06     57.9895E+06     84.4729E+06     2.19795E+06    -288.417E-03     578.328E-03    -289.911E-03     73.6328E-03    -289.541E-03     579.320E-03    -289.535E-03     61.2006E-03
             878     11.4548E-03     150.913E-03    -19.2164E+06     68.9679E+06     95.4559E+06     1.25757E+06    -287.829E-03     577.652E-03    -289.823E-03     72.4147E-03    -289.037E-03     578.759E-03    -289.418E-03     58.5808E-03
             879     12.1304E-03     151.015E-03    -12.2618E+06     84.9518E+06     103.999E+06     976.986E+03    -287.125E-03     576.833E-03    -289.708E-03     72.1571E-03    -288.516E-03     578.180E-03    -289.293E-03     56.0451E-03
             880     12.8059E-03     151.115E-03    -5.94539E+06     98.7246E+06     104.944E+06     564.279E+03    -286.463E-03     576.016E-03    -289.553E-03     60.1370E-03    -287.687E-03     577.265E-03    -289.163E-03     44.6040E-03
             881     673.026E-06     151.419E-03    -134.704E+06    -272.096E+06    -132.282E+06     517.986E+03    -290.609E-03     581.162E-03    -290.553E-03     4.95749E-03    -290.697E-03     580.189E-03    -290.624E-03     5.00690E-03
             882     1.34605E-03     151.433E-03    -131.336E+06    -261.828E+06    -122.387E+06     988.940E+03    -290.569E-03     581.176E-03    -290.607E-03     9.15686E-03    -290.671E-03     580.237E-03    -290.649E-03     9.24021E-03
             883     2.01911E-03     151.456E-03    -126.065E+06    -246.346E+06    -107.693E+06     1.44819E+06    -290.545E-03     581.180E-03    -290.635E-03     13.6934E-03    -290.669E-03     580.294E-03    -290.634E-03     13.7455E-03
             884     2.69215E-03     151.488E-03    -119.269E+06    -226.809E+06    -89.8991E+06     1.99144E+06    -290.509E-03     581.171E-03    -290.662E-03     18.4018E-03    -290.659E-03     580.352E-03    -290.609E-03     18.3405E-03
             885     3.36531E-03     151.529E-03    -111.431E+06    -204.943E+06    -70.6350E+06     2.58895E+06    -290.486E-03     581.169E-03    -290.683E-03     23.2557E-03    -290.665E-03     580.430E-03    -290.578E-03     22.9800E-03
             886     4.03853E-03     151.579E-03    -102.945E+06    -182.726E+06    -51.4072E+06     2.82554E+06    -290.474E-03     581.172E-03    -290.699E-03     28.2375E-03    -290.685E-03     580.518E-03    -290.541E-03     27.6106E-03
             887     4.71185E-03     151.637E-03    -94.1686E+06    -159.488E+06    -33.0581E+06     2.98071E+06    -290.461E-03     581.164E-03    -290.703E-03     33.3634E-03    -290.709E-03     580.608E-03    -290.501E-03     32.2356E-03
             888     5.38516E-03     151.705E-03    -85.4329E+06    -134.854E+06    -16.0951E+06     3.45861E+06    -290.423E-03     581.117E-03    -290.694E-03     38.5766E-03    -290.716E-03     580.674E-03    -290.455E-03     36.7947E-03
             889     6.05859E-03     151.781E-03    -76.7320E+06    -109.340E+06    -423.482E+03     4.06784E+06    -290.319E-03     580.985E-03    -290.666E-03     43.8044E-03    -290.666E-03     580.673E-03    -290.399E-03     41.2118E-03
             890     6.73225E-03     151.864E-03    -68.1809E+06    -81.2602E+06     14.2764E+06     4.72350E+06    -290.141E-03     580.758E-03    -290.617E-03     48.9661E-03    -290.557E-03     580.601E-03    -290.329E-03     45.4066E-03
             891     7.40607E-03     151.956E-03    -60.0902E+06    -48.9552E+06     28.2079E+06     5.56639E+06    -289.891E-03     580.433E-03    -290.542E-03     54.0682E-03    -290.397E-03     580.470E-03    -290.243E-03     49.3835E-03
             892     8.08014E-03     152.054E-03    -52.2023E+06    -9.17065E+06     42.4905E+06     6.44469E+06    -289.552E-03     579.993E-03    -290.441E-03     59.1746E-03    -290.177E-03     580.278E-03    -290.140E-03     53.1899E-03
             893     8.75455E-03     152.158E-03    -44.8784E+06     39.7358E+06     57.0628E+06     6.18435E+06    -289.105E-03     579.417E-03    -290.311E-03     64.0205E-03    -289.885E-03     580.012E-03    -290.019E-03     56.5675E-03
             894     9.42910E-03     152.266E-03    -37.9946E+06     66.5848E+06     68.8364E+06     4.61371E+06    -288.673E-03     578.858E-03    -290.185E-03     68.2400E-03    -289.589E-03     579.676E-03    -289.882E-03     59.1851E-03
             895     10.1040E-03     152.378E-03    -30.5716E+06     64.3009E+06     78.5310E+06     3.43837E+06    -288.263E-03     578.342E-03    -290.079E-03     71.6180E-03    -289.280E-03     579.251E-03    -289.735E-03     60.8840E-03
             896     10.7796E-03     152.491E-03    -22.5832E+06     60.7282E+06     86.7346E+06     2.65100E+06    -287.745E-03     577.704E-03    -289.959E-03     73.4918E-03    -288.858E-03     578.700E-03    -289.580E-03     61.0815E-03
             897     11.4552E-03     152.601E-03    -15.6278E+06      68.456E+06     95.6216E+06     2.59233E+06    -287.119E-03     576.940E-03    -289.820E-03     72.3993E-03    -288.309E-03     578.040E-03    -289.419E-03     58.6036E-03
             898     12.1308E-03     152.703E-03    -10.1148E+06     85.2826E+06     104.688E+06     2.57798E+06    -286.480E-03     576.150E-03    -289.670E-03     72.1908E-03    -287.863E-03     577.497E-03    -289.256E-03     56.1067E-03
             899     12.8068E-03     152.801E-03    -5.21436E+06     103.222E+06     107.220E+06     979.909E+03    -285.957E-03     575.448E-03    -289.491E-03     60.1422E-03    -287.191E-03     576.719E-03    -289.097E-03     44.5870E-03
             900     672.591E-06     153.114E-03    -135.407E+06    -274.883E+06    -132.922E+06     684.032E+03    -291.186E-03     582.334E-03    -291.149E-03     4.83361E-03    -291.272E-03     581.350E-03    -291.218E-03     4.88376E-03
             901     1.34524E-03     153.128E-03    -131.872E+06    -264.069E+06    -122.720E+06     1.03976E+06    -291.104E-03     582.288E-03    -291.184E-03     8.92990E-03    -291.205E-03     581.339E-03    -291.224E-03     9.01169E-03
             902     2.01793E-03     153.151E-03    -126.436E+06    -248.456E+06    -107.775E+06     1.30509E+06    -291.038E-03     582.231E-03    -291.194E-03     13.3332E-03    -291.160E-03     581.335E-03    -291.189E-03     13.3769E-03
             903     2.69077E-03     153.183E-03    -119.481E+06    -229.247E+06    -89.8980E+06     1.62909E+06    -290.967E-03     582.169E-03    -291.202E-03     17.9048E-03    -291.114E-03     581.339E-03    -291.146E-03     17.8257E-03
             904     3.36363E-03     153.223E-03    -111.202E+06    -207.305E+06    -70.4271E+06     2.07680E+06    -290.890E-03     582.095E-03    -291.205E-03     22.6208E-03    -291.065E-03     581.343E-03    -291.095E-03     22.3237E-03
             905     4.03657E-03     153.273E-03    -102.477E+06    -184.179E+06    -50.8832E+06     2.37391E+06    -290.800E-03     581.998E-03    -291.198E-03     27.4896E-03    -291.008E-03     581.335E-03    -291.036E-03     26.8415E-03
             906     4.70958E-03     153.331E-03    -93.7098E+06    -161.464E+06    -32.5617E+06     2.62587E+06    -290.686E-03     581.861E-03    -291.175E-03     32.5444E-03    -290.930E-03     581.293E-03    -290.968E-03     31.3945E-03
             907     5.38282E-03     153.399E-03    -84.7060E+06    -137.336E+06    -15.5247E+06     3.04063E+06    -290.521E-03     581.652E-03    -291.131E-03     37.7152E-03    -290.807E-03     581.195E-03    -290.887E-03     35.9071E-03
             908     6.05624E-03     153.474E-03    -75.8349E+06    -111.938E+06     272.604E+03     3.53301E+06    -290.302E-03     581.366E-03    -291.064E-03     42.9632E-03    -290.641E-03     581.038E-03    -290.790E-03     40.3404E-03
             909     6.72980E-03     153.557E-03    -67.1844E+06    -84.8083E+06     14.9722E+06     4.34200E+06    -290.003E-03     580.974E-03    -290.972E-03     48.2015E-03    -290.408E-03     580.797E-03    -290.676E-03     44.6209E-03
             910     7.40373E-03     153.648E-03    -58.7626E+06    -52.8287E+06     29.2004E+06     5.33870E+06    -289.599E-03     580.449E-03    -290.849E-03     53.3568E-03    -290.092E-03     580.461E-03    -290.541E-03     48.6664E-03
             911     8.07810E-03     153.745E-03    -50.4466E+06    -13.0344E+06     43.9174E+06     6.42537E+06    -289.120E-03     579.817E-03    -290.697E-03     58.4619E-03    -289.730E-03     580.075E-03    -290.385E-03     52.4878E-03
             912     8.75279E-03     153.848E-03    -42.5541E+06     38.0704E+06     59.3526E+06     7.81903E+06    -288.558E-03     579.070E-03    -290.513E-03     63.3297E-03    -289.322E-03     579.647E-03    -290.209E-03     55.9250E-03
             913     9.42799E-03     153.956E-03    -35.4434E+06     69.7361E+06     71.2838E+06     8.09293E+06    -288.007E-03     578.331E-03    -290.324E-03     67.7192E-03    -288.913E-03     579.152E-03    -290.017E-03     58.7649E-03
             914     10.1035E-03     154.067E-03    -29.8343E+06     68.6489E+06     78.8259E+06     5.86317E+06    -287.543E-03     577.697E-03    -290.154E-03     71.2828E-03    -288.559E-03     578.621E-03    -289.816E-03     60.6405E-03
             915     10.7790E-03     154.179E-03    -24.9950E+06     63.8791E+06     85.4714E+06     3.41740E+06    -287.033E-03     577.017E-03    -289.983E-03     73.1601E-03    -288.159E-03     578.032E-03    -289.612E-03     60.7734E-03
             916     11.4550E-03     154.288E-03    -19.7787E+06     66.4874E+06     92.9308E+06     2.68270E+06    -286.427E-03     576.233E-03    -289.807E-03     72.0351E-03    -287.630E-03     577.333E-03    -289.410E-03     58.2308E-03
             917     12.1316E-03     154.389E-03    -13.1312E+06     86.1958E+06     103.753E+06     2.81092E+06    -285.780E-03     575.403E-03    -289.623E-03     71.8792E-03    -287.178E-03     576.760E-03    -289.210E-03     55.7975E-03
             918     12.8079E-03     154.488E-03    -5.70282E+06     108.454E+06     108.703E+06     1.75417E+06    -285.202E-03     574.614E-03    -289.411E-03     60.1851E-03    -286.452E-03     575.913E-03    -289.017E-03     44.6248E-03
             919     672.159E-06     154.811E-03    -136.500E+06    -277.619E+06    -134.396E+06     623.269E+03    -291.867E-03     583.732E-03    -291.865E-03     4.65701E-03    -291.953E-03     582.738E-03    -291.937E-03     4.70431E-03
             920     1.34434E-03     154.825E-03    -133.179E+06    -265.723E+06    -124.376E+06     760.548E+03    -291.777E-03     583.653E-03    -291.876E-03     8.62733E-03    -291.880E-03     582.701E-03    -291.919E-03     8.69267E-03
             921     2.01663E-03     154.848E-03    -127.714E+06    -250.114E+06    -109.026E+06     967.592E+03    -291.672E-03     583.549E-03    -291.876E-03     12.8698E-03    -291.796E-03     582.648E-03    -291.874E-03     12.8940E-03
             922     2.68892E-03     154.879E-03    -120.795E+06    -230.786E+06    -90.7366E+06     1.16759E+06    -291.544E-03     583.414E-03    -291.870E-03     17.3089E-03    -291.694E-03     582.579E-03    -291.814E-03     17.2076E-03
             923     3.36136E-03     154.920E-03    -112.616E+06    -209.090E+06    -71.1379E+06     1.33614E+06    -291.363E-03     583.213E-03    -291.850E-03     21.9219E-03    -291.542E-03     582.456E-03    -291.739E-03     21.5901E-03
             924     4.03401E-03     154.969E-03    -103.810E+06    -185.983E+06    -51.6062E+06     1.68318E+06    -291.136E-03     582.943E-03    -291.807E-03     26.7472E-03    -291.347E-03     582.274E-03    -291.645E-03     26.0698E-03
             925     4.70688E-03     155.027E-03    -94.8398E+06    -162.969E+06    -33.1830E+06     1.92801E+06    -290.875E-03     582.614E-03    -291.739E-03     31.7767E-03    -291.121E-03     582.041E-03    -291.531E-03     30.5993E-03
             926     5.37994E-03     155.093E-03    -85.8611E+06    -139.435E+06    -16.2330E+06     2.13772E+06    -290.551E-03     582.193E-03    -291.642E-03     36.9466E-03    -290.838E-03     581.728E-03    -291.397E-03     35.1098E-03
             927     6.05335E-03     155.168E-03    -77.0905E+06    -114.777E+06    -539.098E+03     2.72627E+06    -290.167E-03     581.684E-03    -291.517E-03     42.1984E-03    -290.506E-03     581.343E-03    -291.241E-03     39.5592E-03
             928     6.72721E-03     155.251E-03    -68.4753E+06    -88.0446E+06     14.0908E+06     3.42205E+06    -289.729E-03     581.091E-03    -291.362E-03     47.4147E-03    -290.133E-03     580.899E-03    -291.065E-03     43.8259E-03
             929     7.40140E-03     155.340E-03    -59.9956E+06    -56.9337E+06     28.0963E+06     4.40854E+06    -289.218E-03     580.396E-03    -291.178E-03     52.5629E-03    -289.706E-03     580.388E-03    -290.868E-03     47.8729E-03
             930     8.07592E-03     155.436E-03    -52.0416E+06    -18.4628E+06     42.1594E+06     6.07465E+06    -288.608E-03     579.571E-03    -290.963E-03     57.7129E-03    -289.212E-03     579.802E-03    -290.650E-03     51.7645E-03
             931     8.75099E-03     155.538E-03    -44.4658E+06     31.8036E+06     57.0516E+06     8.03621E+06    -287.894E-03     578.609E-03    -290.714E-03     62.6254E-03    -288.651E-03     579.155E-03    -290.411E-03     55.2761E-03
             932     9.42655E-03     155.645E-03    -37.1598E+06     68.2977E+06     68.5531E+06     9.55759E+06    -287.231E-03     577.683E-03    -290.452E-03     66.9700E-03    -288.133E-03     578.497E-03    -290.155E-03     58.0920E-03
             933     10.1026E-03     155.755E-03    -30.0911E+06     73.4244E+06     77.9389E+06     9.55522E+06    -286.704E-03     576.923E-03    -290.219E-03     70.5787E-03    -287.719E-03     577.866E-03    -289.892E-03     60.0607E-03
             934     10.7790E-03     155.866E-03    -24.2190E+06     68.2615E+06     87.1499E+06     7.95531E+06    -286.212E-03     576.217E-03    -290.006E-03     72.7495E-03    -287.335E-03     577.245E-03    -289.634E-03     60.5082E-03
             935     11.4555E-03     155.974E-03    -18.8576E+06     70.2056E+06     95.6462E+06     5.48324E+06    -285.681E-03     575.469E-03    -289.788E-03     72.0507E-03    -286.887E-03     576.579E-03    -289.384E-03     58.3574E-03
             936     12.1317E-03     156.074E-03    -13.3324E+06     89.4924E+06     105.860E+06     2.43692E+06    -284.978E-03     574.539E-03    -289.561E-03     72.2764E-03    -286.389E-03     575.914E-03    -289.142E-03     56.2226E-03
             937     12.8089E-03     156.172E-03    -6.70562E+06     110.893E+06     109.801E+06     366.204E+03    -284.314E-03     573.619E-03    -289.306E-03     60.6073E-03    -285.580E-03     574.937E-03    -288.908E-03     45.0033E-03
             938     671.569E-06     156.511E-03    -138.887E+06    -279.391E+06    -136.769E+06     115.093E+03    -292.699E-03     585.380E-03    -292.680E-03     4.50134E-03    -292.791E-03     584.383E-03    -292.758E-03     4.54250E-03
             939     1.34319E-03     156.525E-03    -135.557E+06    -267.043E+06    -126.691E+06     501.404E+03    -292.565E-03     585.258E-03    -292.693E-03     8.28351E-03    -292.674E-03     584.306E-03    -292.743E-03     8.33964E-03
             940     2.01487E-03     156.547E-03    -130.156E+06    -251.365E+06    -111.087E+06     692.294E+03    -292.384E-03     585.060E-03    -292.675E-03     12.4319E-03    -292.516E-03     584.159E-03    -292.678E-03     12.4459E-03
             941     2.68677E-03     156.578E-03    -123.064E+06    -231.881E+06    -92.4349E+06     837.982E+03    -292.136E-03     584.774E-03    -292.637E-03     16.8146E-03    -292.294E-03     583.940E-03    -292.585E-03     16.7012E-03
             942     3.35887E-03     156.618E-03    -115.102E+06    -210.283E+06    -72.8233E+06     1.00577E+06    -291.820E-03     584.392E-03    -292.572E-03     21.3757E-03    -292.007E-03     583.635E-03    -292.465E-03     21.0297E-03
             943     4.03121E-03     156.667E-03    -106.278E+06    -187.428E+06    -53.4013E+06     1.15512E+06    -291.437E-03     583.912E-03    -292.475E-03     26.1629E-03    -291.655E-03     583.242E-03    -292.316E-03     25.4716E-03
             944     4.70389E-03     156.724E-03    -97.1200E+06    -164.047E+06    -35.0109E+06     1.33336E+06    -290.996E-03     583.340E-03    -292.344E-03     31.1585E-03    -291.249E-03     582.767E-03    -292.140E-03     29.9713E-03
             945     5.37699E-03     156.789E-03    -88.4592E+06    -141.102E+06    -18.0969E+06     1.58903E+06    -290.517E-03     582.699E-03    -292.181E-03     36.2943E-03    -290.811E-03     582.230E-03    -291.939E-03     34.4550E-03
             946     6.05050E-03     156.863E-03    -79.7856E+06    -117.177E+06    -2.45581E+06     1.98271E+06    -289.995E-03     581.984E-03    -291.989E-03     41.5015E-03    -290.340E-03     581.636E-03    -291.715E-03     38.8708E-03
             947     6.72434E-03     156.944E-03    -71.1185E+06    -90.6563E+06     11.8643E+06     2.54236E+06    -289.405E-03     581.168E-03    -291.764E-03     46.6713E-03    -289.812E-03     580.967E-03    -291.470E-03     43.1043E-03
             948     7.39870E-03     157.032E-03    -62.8651E+06    -61.4086E+06     25.2745E+06     3.54786E+06    -288.735E-03     580.244E-03    -291.509E-03     51.8337E-03    -289.224E-03     580.219E-03    -291.202E-03     47.1776E-03
             949     8.07370E-03     157.127E-03    -54.7140E+06    -25.6159E+06     38.7670E+06     5.57841E+06    -288.005E-03     579.229E-03    -291.224E-03     57.0083E-03    -288.601E-03     579.428E-03    -290.914E-03     51.1175E-03
             950     8.74925E-03     157.227E-03    -47.1857E+06     22.8892E+06     53.4726E+06     8.86429E+06    -287.238E-03     578.147E-03    -290.909E-03     61.9265E-03    -287.983E-03     578.651E-03    -290.607E-03     54.6775E-03
             951     9.42534E-03     157.332E-03    -40.4979E+06     64.4719E+06     65.7000E+06     11.0709E+06    -286.509E-03     577.092E-03    -290.583E-03     66.3282E-03    -287.410E-03     577.888E-03    -290.289E-03     57.5628E-03
             952     10.1017E-03     157.441E-03    -33.8406E+06     76.4671E+06     74.2441E+06     10.0459E+06    -285.828E-03     576.105E-03    -290.276E-03     69.9953E-03    -286.854E-03     577.066E-03    -289.967E-03     59.5602E-03
             953     10.7787E-03     157.551E-03    -26.4422E+06     72.1631E+06     81.5403E+06     7.65940E+06    -285.208E-03     575.196E-03    -289.988E-03     72.2653E-03    -286.332E-03     576.246E-03    -289.647E-03     60.1034E-03
             954     11.4560E-03     157.659E-03    -17.9997E+06     76.0970E+06     93.7857E+06     5.45263E+06    -284.648E-03     574.369E-03    -289.722E-03     71.7710E-03    -285.849E-03     575.505E-03    -289.337E-03     58.1523E-03
             955     12.1338E-03     157.758E-03    -9.87662E+06     94.2284E+06     109.273E+06     3.74196E+06    -284.076E-03     573.545E-03    -289.468E-03     72.0859E-03    -285.483E-03     574.934E-03    -289.044E-03     56.0471E-03
             956     12.8115E-03     157.855E-03    -5.01368E+06     113.669E+06     113.739E+06     1.57407E+06    -283.810E-03     572.999E-03    -289.189E-03     60.4708E-03    -285.078E-03     574.323E-03    -288.778E-03     44.8892E-03
             957     670.940E-06     158.214E-03    -142.187E+06    -280.026E+06    -139.492E+06    -60.4951E+03    -293.574E-03     587.113E-03    -293.539E-03     4.43362E-03    -293.678E-03     586.122E-03    -293.624E-03     4.47512E-03
             958     1.34194E-03     158.227E-03    -138.428E+06    -268.520E+06    -128.957E+06     309.988E+03    -293.358E-03     586.909E-03    -293.550E-03     8.13829E-03    -293.477E-03     585.956E-03    -293.605E-03     8.19322E-03
             959     2.01316E-03     158.249E-03    -132.808E+06    -252.267E+06    -113.448E+06     551.773E+03    -293.069E-03     586.563E-03    -293.494E-03     12.2333E-03    -293.209E-03     585.665E-03    -293.503E-03     12.2471E-03
             960     2.68457E-03     158.279E-03    -125.667E+06    -232.885E+06    -94.7000E+06     654.020E+03    -292.684E-03     586.093E-03    -293.408E-03     16.5403E-03    -292.850E-03     585.260E-03    -293.362E-03     16.4291E-03
             961     3.35632E-03     158.318E-03    -117.436E+06    -211.301E+06    -74.8883E+06     839.283E+03    -292.219E-03     585.505E-03    -293.286E-03     21.0375E-03    -292.413E-03     584.749E-03    -293.184E-03     20.7032E-03
             962     4.02845E-03     158.366E-03    -108.794E+06    -188.549E+06    -55.4699E+06     1.16059E+06    -291.685E-03     584.810E-03    -293.126E-03     25.7710E-03    -291.910E-03     584.141E-03    -292.972E-03     25.0990E-03
             963     4.70103E-03     158.422E-03    -100.126E+06    -165.085E+06    -37.1910E+06     1.39491E+06    -291.085E-03     584.012E-03    -292.927E-03     30.7146E-03    -291.347E-03     583.440E-03    -292.729E-03     29.5571E-03
             964     5.37407E-03     158.486E-03    -91.3464E+06    -142.094E+06    -20.2169E+06     1.45028E+06    -290.455E-03     583.150E-03    -292.695E-03     35.8070E-03    -290.757E-03     582.683E-03    -292.458E-03     34.0153E-03
             965     6.04757E-03     158.558E-03    -82.7592E+06    -118.939E+06    -4.85884E+06     1.62626E+06    -289.780E-03     582.212E-03    -292.432E-03     40.9925E-03    -290.131E-03     581.861E-03    -292.163E-03     38.4208E-03
             966     6.72171E-03     158.638E-03    -74.5222E+06    -93.3658E+06     9.07676E+06     2.27005E+06    -289.025E-03     581.160E-03    -292.134E-03     46.1686E-03    -289.438E-03     580.950E-03    -291.845E-03     42.6750E-03
             967     7.39647E-03     158.724E-03    -66.4844E+06    -65.2995E+06     22.3495E+06     3.31282E+06    -288.227E-03     580.035E-03    -291.808E-03     51.3079E-03    -288.719E-03     579.995E-03    -291.505E-03     46.7401E-03
             968     8.07180E-03     158.817E-03    -58.7091E+06    -32.5918E+06     35.2670E+06     4.83022E+06    -287.426E-03     578.882E-03    -291.456E-03     56.4383E-03    -288.021E-03     579.051E-03    -291.147E-03     50.6443E-03
             969     8.74769E-03     158.915E-03    -50.4562E+06     10.7993E+06     48.8673E+06     7.93510E+06    -286.602E-03     577.680E-03    -291.079E-03     61.3661E-03    -287.330E-03     578.126E-03    -290.777E-03     54.2323E-03
             970     9.42411E-03     159.019E-03    -41.6362E+06     59.2872E+06     62.9273E+06     11.0223E+06    -285.746E-03     576.433E-03    -290.686E-03     65.8276E-03    -286.632E-03     577.199E-03    -290.397E-03     57.1985E-03
             971     10.1013E-03     159.126E-03    -33.9386E+06     81.9558E+06     73.6506E+06     10.3450E+06    -285.032E-03     575.347E-03    -290.315E-03     69.6142E-03    -286.056E-03     576.328E-03    -290.016E-03     59.2937E-03
             972     10.7787E-03     159.234E-03    -27.0563E+06     79.3936E+06     81.3684E+06     6.59067E+06    -284.462E-03     574.439E-03    -289.977E-03     71.9235E-03    -285.594E-03     575.521E-03    -289.646E-03     59.8093E-03
             973     11.4567E-03     159.341E-03    -20.6050E+06     79.8526E+06     92.8129E+06     3.56855E+06    -283.877E-03     573.549E-03    -289.671E-03     71.1550E-03    -285.091E-03     574.704E-03    -289.293E-03     57.5205E-03
             974     12.1345E-03     159.440E-03    -13.8288E+06     94.5264E+06     107.885E+06     2.48217E+06    -283.386E-03     572.774E-03    -289.388E-03     71.2101E-03    -284.806E-03     574.167E-03    -288.965E-03     55.1327E-03
             975     12.8123E-03     159.536E-03    -6.18001E+06     117.594E+06     115.747E+06     1.93539E+06    -283.290E-03     572.380E-03    -289.091E-03     59.7986E-03    -284.563E-03     573.714E-03    -288.674E-03     44.2921E-03
             976     670.397E-06     159.919E-03    -144.009E+06    -280.536E+06    -141.474E+06     213.861E+03    -294.276E-03     588.601E-03    -294.325E-03     4.43579E-03    -294.385E-03     587.613E-03    -294.417E-03     4.49078E-03
             977     1.34092E-03     159.932E-03    -140.515E+06    -269.633E+06    -130.850E+06     308.472E+03    -294.024E-03     588.304E-03    -294.279E-03     8.16270E-03    -294.149E-03     587.352E-03    -294.339E-03     8.22956E-03
             978     2.01163E-03     159.953E-03    -134.846E+06    -253.237E+06    -115.289E+06     487.950E+03    -293.647E-03     587.835E-03    -294.188E-03     12.2343E-03    -293.793E-03     586.938E-03    -294.202E-03     12.2649E-03
             979     2.68272E-03     159.983E-03    -127.745E+06    -233.781E+06    -96.5824E+06     700.706E+03    -293.139E-03     587.197E-03    -294.058E-03     16.5152E-03    -293.311E-03     586.366E-03    -294.017E-03     16.4342E-03
             980     3.35419E-03     160.021E-03    -119.739E+06    -212.227E+06    -76.7720E+06     827.087E+03    -292.549E-03     586.433E-03    -293.884E-03     20.9899E-03    -292.750E-03     585.678E-03    -293.787E-03     20.7021E-03
             981     4.02615E-03     160.067E-03    -111.031E+06    -189.895E+06    -57.2967E+06     1.04591E+06    -291.878E-03     585.547E-03    -293.669E-03     25.6444E-03    -292.109E-03     584.875E-03    -293.519E-03     25.0263E-03
             982     4.69861E-03     160.121E-03    -102.078E+06    -166.622E+06    -38.9758E+06     1.51369E+06    -291.126E-03     584.535E-03    -293.410E-03     30.5459E-03    -291.391E-03     583.960E-03    -293.215E-03     29.4628E-03
             983     5.37166E-03     160.183E-03    -93.2698E+06    -142.987E+06    -21.8675E+06     1.94592E+06    -290.338E-03     583.450E-03    -293.112E-03     35.6672E-03    -290.644E-03     582.981E-03    -292.879E-03     33.9820E-03
             984     6.04536E-03     160.254E-03    -84.7421E+06    -120.125E+06    -6.31100E+06     2.13497E+06    -289.527E-03     582.309E-03    -292.783E-03     40.8284E-03    -289.880E-03     581.954E-03    -292.517E-03     38.3761E-03
             985     6.71968E-03     160.331E-03    -76.3742E+06    -95.5149E+06     7.70338E+06     2.32607E+06    -288.678E-03     581.100E-03    -292.421E-03     45.9110E-03    -289.091E-03     580.880E-03    -292.134E-03     42.5390E-03
             986     7.39465E-03     160.415E-03    -67.8983E+06    -68.6054E+06     20.8020E+06     2.89132E+06    -287.809E-03     579.843E-03    -292.034E-03     50.9534E-03    -288.295E-03     579.785E-03    -291.732E-03     46.5194E-03
             987     8.07029E-03     160.506E-03    -59.3977E+06    -37.9411E+06     33.5716E+06     4.03128E+06    -286.947E-03     578.574E-03    -291.627E-03     56.0527E-03    -287.527E-03     578.711E-03    -291.318E-03     50.4071E-03
             988     8.74658E-03     160.603E-03    -51.0009E+06     2.00181E+06     46.6243E+06     5.48831E+06    -286.063E-03     577.262E-03    -291.198E-03     60.9389E-03    -286.769E-03     577.658E-03    -290.894E-03     53.9312E-03
             989     9.42364E-03     160.704E-03    -42.3927E+06     51.6339E+06     60.1126E+06     7.47251E+06    -285.166E-03     575.919E-03    -290.753E-03     65.2449E-03    -286.029E-03     576.641E-03    -290.466E-03     56.7132E-03
             990     10.1012E-03     160.810E-03    -33.1887E+06     83.3495E+06     73.4730E+06     9.15499E+06    -284.460E-03     574.797E-03    -290.337E-03     68.8527E-03    -285.470E-03     575.773E-03    -290.043E-03     58.6429E-03
             991     10.7791E-03     160.917E-03    -25.4708E+06     86.7711E+06     85.4155E+06     8.31762E+06    -283.978E-03     573.955E-03    -289.977E-03     71.0788E-03    -285.109E-03     575.057E-03    -289.639E-03     59.0482E-03
             992     11.4568E-03     161.022E-03    -19.6182E+06     85.8019E+06     97.3668E+06     5.31800E+06    -283.518E-03     573.173E-03    -289.656E-03     70.4332E-03    -284.738E-03     574.346E-03    -289.265E-03     56.8052E-03
             993     12.1351E-03     161.120E-03    -14.1583E+06     99.0346E+06     109.844E+06     1.91717E+06    -283.048E-03     572.395E-03    -289.347E-03     70.7033E-03    -284.475E-03     573.805E-03    -288.921E-03     54.6063E-03
             994     12.8135E-03     161.217E-03    -7.05778E+06     120.084E+06     116.562E+06     447.715E+03    -282.623E-03     571.649E-03    -289.026E-03     59.3795E-03    -283.903E-03     572.992E-03    -288.607E-03     43.8470E-03
             995     670.034E-06     161.627E-03    -146.358E+06    -281.609E+06    -143.850E+06     302.051E+03    -294.724E-03     589.516E-03    -294.792E-03     4.53005E-03    -294.840E-03     588.530E-03    -294.891E-03     4.60097E-03
             996     1.34026E-03     161.639E-03    -142.661E+06    -270.555E+06    -132.878E+06     480.057E+03    -294.427E-03     589.153E-03    -294.726E-03     8.34414E-03    -294.558E-03     588.202E-03    -294.791E-03     8.44738E-03
             997     2.01072E-03     161.660E-03    -136.975E+06    -254.271E+06    -116.852E+06     650.854E+03    -293.992E-03     588.605E-03    -294.613E-03     12.4742E-03    -294.145E-03     587.707E-03    -294.630E-03     12.5562E-03
             998     2.68153E-03     161.688E-03    -129.698E+06    -234.538E+06    -97.8372E+06     716.415E+03    -293.425E-03     587.880E-03    -294.455E-03     16.7934E-03    -293.603E-03     587.049E-03    -294.416E-03     16.7799E-03
             999     3.35285E-03     161.724E-03    -121.221E+06    -212.912E+06    -77.7185E+06     813.621E+03    -292.751E-03     587.002E-03    -294.251E-03     21.2784E-03    -292.956E-03     586.247E-03    -294.155E-03     21.0766E-03
            1000     4.02463E-03     161.769E-03    -112.315E+06    -190.805E+06    -58.1054E+06     909.701E+03    -291.969E-03     585.967E-03    -293.998E-03     25.9282E-03    -292.203E-03     585.293E-03    -293.849E-03     25.4047E-03
            1001     4.69710E-03     161.821E-03    -103.063E+06    -168.268E+06    -39.8356E+06     1.06610E+06    -291.105E-03     584.801E-03    -293.696E-03     30.8152E-03    -291.371E-03     584.219E-03    -293.501E-03     29.8367E-03
            1002     5.37028E-03     161.881E-03    -93.6179E+06    -144.739E+06    -22.6863E+06     1.53403E+06    -290.209E-03     583.559E-03    -293.350E-03     35.8638E-03    -290.510E-03     583.080E-03    -293.118E-03     34.3070E-03
            1003     6.04412E-03     161.949E-03    -84.3037E+06    -120.946E+06    -6.51203E+06     1.77113E+06    -289.341E-03     582.316E-03    -292.975E-03     40.9311E-03    -289.687E-03     581.953E-03    -292.710E-03     38.6340E-03
            1004     6.71862E-03     162.025E-03    -75.1886E+06    -96.4290E+06     8.17126E+06     1.65297E+06    -288.483E-03     581.059E-03    -292.576E-03     45.8658E-03    -288.885E-03     580.828E-03    -292.286E-03     42.6516E-03
            1005     7.39380E-03     162.107E-03    -66.4116E+06    -71.0386E+06     21.4649E+06     1.89815E+06    -287.596E-03     579.754E-03    -292.157E-03     50.7129E-03    -288.066E-03     579.674E-03    -291.851E-03     46.4364E-03
            1006     8.06970E-03     162.195E-03    -57.8934E+06    -41.6165E+06     34.2534E+06     2.65696E+06    -286.707E-03     578.429E-03    -291.722E-03     55.5653E-03    -287.267E-03     578.536E-03    -291.406E-03     50.0700E-03
            1007     8.74624E-03     162.290E-03    -49.6008E+06    -3.29552E+06     47.5520E+06     4.16421E+06    -285.812E-03     577.084E-03    -291.272E-03     60.1616E-03    -286.494E-03     577.441E-03    -290.957E-03     53.2794E-03
            1008     9.42324E-03     162.389E-03    -41.7396E+06     45.3025E+06     61.3708E+06     5.91073E+06    -284.938E-03     575.748E-03    -290.810E-03     64.3000E-03    -285.779E-03     576.424E-03    -290.508E-03     55.8684E-03
            1009     10.1008E-03     162.493E-03    -34.2879E+06     79.9641E+06     73.5159E+06     6.82655E+06    -284.175E-03     574.544E-03    -290.368E-03     67.9120E-03    -285.174E-03     575.491E-03    -290.067E-03     57.7847E-03
            1010     10.7787E-03     162.599E-03    -26.9678E+06     88.3115E+06     83.2237E+06     6.75817E+06    -283.549E-03     573.518E-03    -289.969E-03     70.2999E-03    -284.674E-03     574.620E-03    -289.642E-03     58.3550E-03
            1011     11.4572E-03     162.704E-03    -19.1225E+06     91.2588E+06     96.0858E+06     5.93501E+06    -283.050E-03     572.668E-03    -289.618E-03     69.9875E-03    -284.265E-03     573.861E-03    -289.242E-03     56.4474E-03
            1012     12.1353E-03     162.801E-03    -11.7705E+06     107.534E+06     112.834E+06     3.83525E+06    -282.498E-03     571.795E-03    -289.297E-03     70.7966E-03    -283.929E-03     573.239E-03    -288.872E-03     54.7676E-03
            1013     12.8134E-03     162.897E-03    -5.75626E+06     123.780E+06     119.468E+06     1.00466E+06    -281.916E-03     570.870E-03    -288.953E-03     59.8502E-03    -283.207E-03     572.233E-03    -288.527E-03     44.2850E-03
            1014     670.018E-06     163.336E-03    -149.139E+06    -282.751E+06    -146.404E+06     217.033E+03    -294.785E-03     589.587E-03    -294.802E-03     4.70735E-03    -294.909E-03     588.602E-03    -294.907E-03     4.80109E-03
            1015     1.34015E-03     163.347E-03    -145.119E+06    -271.461E+06    -135.089E+06     313.221E+03    -294.456E-03     589.217E-03    -294.761E-03     8.66101E-03    -294.594E-03     588.268E-03    -294.832E-03     8.81018E-03
            1016     2.01061E-03     163.367E-03    -138.993E+06    -255.109E+06    -118.546E+06     435.676E+03    -294.001E-03     588.644E-03    -294.643E-03     12.9119E-03    -294.160E-03     587.748E-03    -294.664E-03     13.0659E-03
            1017     2.68145E-03     163.394E-03    -131.364E+06    -234.971E+06    -98.8956E+06     533.057E+03    -293.431E-03     587.911E-03    -294.480E-03     17.3587E-03    -293.615E-03     587.081E-03    -294.443E-03     17.4427E-03
            1018     3.35266E-03     163.429E-03    -122.782E+06    -213.143E+06    -78.3837E+06     384.947E+03    -292.726E-03     586.995E-03    -294.269E-03     21.9269E-03    -292.937E-03     586.241E-03    -294.173E-03     21.8356E-03
            1019     4.02460E-03     163.471E-03    -113.593E+06    -191.058E+06    -58.4866E+06     180.643E+03    -291.933E-03     585.940E-03    -294.007E-03     26.5889E-03    -292.171E-03     585.266E-03    -293.857E-03     26.1874E-03
            1020     4.69710E-03     163.521E-03    -104.169E+06    -168.727E+06    -40.0305E+06     51.9205E+03    -291.109E-03     584.808E-03    -293.699E-03     31.3707E-03    -291.377E-03     584.223E-03    -293.503E-03     30.5259E-03
            1021     5.37026E-03     163.579E-03    -94.4792E+06    -145.667E+06    -22.9674E+06    -52.7517E+03    -290.252E-03     583.606E-03    -293.354E-03     36.1933E-03    -290.554E-03     583.122E-03    -293.121E-03     34.7731E-03
            1022     6.04418E-03     163.645E-03    -84.6901E+06    -121.458E+06    -6.82179E+06     43.8104E+03    -289.363E-03     582.343E-03    -292.979E-03     40.9859E-03    -289.707E-03     581.974E-03    -292.714E-03     38.8393E-03
            1023     6.71870E-03     163.718E-03    -75.5340E+06    -97.2203E+06     8.07385E+06     305.719E+03    -288.495E-03     581.077E-03    -292.582E-03     45.6525E-03    -288.892E-03     580.837E-03    -292.291E-03     42.6004E-03
            1024     7.39384E-03     163.798E-03    -66.8758E+06    -72.5850E+06     21.7345E+06     635.966E+03    -287.657E-03     579.826E-03    -292.170E-03     50.2382E-03    -288.120E-03     579.732E-03    -291.859E-03     46.1185E-03
            1025     8.06953E-03     163.884E-03    -58.2917E+06    -43.7498E+06     34.6334E+06     1.00906E+06    -286.766E-03     578.507E-03    -291.741E-03     54.8772E-03    -287.317E-03     578.596E-03    -291.420E-03     49.5163E-03
            1026     8.74586E-03     163.977E-03    -49.6941E+06    -8.87357E+06     47.3195E+06     2.02552E+06    -285.823E-03     577.118E-03    -291.295E-03     59.4030E-03    -286.487E-03     577.437E-03    -290.974E-03     52.6400E-03
            1027     9.42296E-03     164.074E-03    -41.3934E+06     38.1456E+06     61.0568E+06     4.43161E+06    -284.854E-03     575.686E-03    -290.832E-03     63.6121E-03    -285.670E-03     576.313E-03    -290.522E-03     55.3258E-03
            1028     10.1006E-03     164.176E-03    -33.7425E+06     78.1862E+06     73.1496E+06     6.00073E+06    -283.926E-03     574.296E-03    -290.370E-03     67.3969E-03    -284.906E-03     575.222E-03    -290.069E-03     57.4160E-03
            1029     10.7789E-03     164.280E-03    -26.1841E+06     88.5163E+06     82.3388E+06     5.94134E+06    -283.166E-03     573.111E-03    -289.945E-03     70.0383E-03    -284.275E-03     574.202E-03    -289.624E-03     58.2352E-03
            1030     11.4574E-03     164.384E-03    -19.5490E+06     92.0379E+06     96.3286E+06     5.60003E+06    -282.497E-03     572.071E-03    -289.574E-03     69.9431E-03    -283.706E-03     573.258E-03    -289.197E-03     56.5393E-03
            1031     12.1365E-03     164.481E-03    -12.3765E+06     112.470E+06     115.322E+06     4.52944E+06    -281.764E-03     570.989E-03    -289.225E-03     70.6778E-03    -283.207E-03     572.453E-03    -288.794E-03     54.6995E-03
            1032     12.8165E-03     164.575E-03    -6.12776E+06     129.234E+06     122.354E+06     2.17309E+06    -281.630E-03     570.490E-03    -288.860E-03     59.5201E-03    -282.930E-03     571.872E-03    -288.427E-03     44.0222E-03
            1033     670.322E-06     165.044E-03    -151.848E+06    -283.232E+06    -149.109E+06     19.1971E+03    -294.309E-03     588.641E-03    -294.332E-03     4.97782E-03    -294.442E-03     587.661E-03    -294.446E-03     5.10281E-03
            1034     1.34077E-03     165.055E-03    -147.785E+06    -271.643E+06    -137.550E+06    -10.3313E+03    -294.033E-03     588.330E-03    -294.297E-03     9.09645E-03    -294.181E-03     587.388E-03    -294.377E-03     9.29947E-03
            1035     2.01147E-03     165.073E-03    -141.574E+06    -255.051E+06    -120.663E+06    -184.538E+03    -293.635E-03     587.836E-03    -294.202E-03     13.5369E-03    -293.803E-03     586.947E-03    -294.230E-03     13.7712E-03
            1036     2.68251E-03     165.099E-03    -133.599E+06    -234.921E+06    -100.646E+06    -364.328E+03    -293.116E-03     587.180E-03    -294.063E-03     18.0704E-03    -293.308E-03     586.355E-03    -294.032E-03     18.2540E-03
            1037     3.35411E-03     165.132E-03    -124.693E+06    -212.756E+06    -79.5574E+06    -452.518E+03    -292.507E-03     586.388E-03    -293.881E-03     22.6210E-03    -292.726E-03     585.640E-03    -293.790E-03     22.6501E-03
            1038     4.02607E-03     165.173E-03    -115.347E+06    -190.417E+06    -59.1077E+06    -676.197E+03    -291.869E-03     585.529E-03    -293.660E-03     27.2101E-03    -292.115E-03     584.861E-03    -293.512E-03     26.9499E-03
            1039     4.69861E-03     165.221E-03    -105.675E+06    -167.923E+06    -40.2287E+06    -1.00271E+06    -291.220E-03     584.625E-03    -293.405E-03     31.8309E-03    -291.495E-03     584.046E-03    -293.210E-03     31.1377E-03
            1040     5.37165E-03     165.277E-03    -95.9681E+06    -144.898E+06    -23.1150E+06    -1.29082E+06    -290.500E-03     583.619E-03    -293.119E-03     36.4202E-03    -290.808E-03     583.139E-03    -292.885E-03     35.1427E-03
            1041     6.04515E-03     165.341E-03    -86.6243E+06    -121.644E+06    -7.65657E+06    -1.30304E+06    -289.641E-03     582.439E-03    -292.798E-03     40.9626E-03    -289.990E-03     582.071E-03    -292.535E-03     38.9498E-03
            1042     6.71950E-03     165.412E-03    -77.6431E+06    -98.0673E+06     6.82663E+06    -1.10033E+06    -288.741E-03     581.187E-03    -292.445E-03     45.4757E-03    -289.141E-03     580.943E-03    -292.157E-03     42.5885E-03
            1043     7.39441E-03     165.490E-03    -68.8364E+06    -73.3699E+06     20.3900E+06    -971.835E+03    -287.872E-03     579.938E-03    -292.066E-03     49.9624E-03    -288.335E-03     579.838E-03    -291.758E-03     46.0224E-03
            1044     8.06999E-03     165.574E-03    -60.5010E+06    -45.7586E+06     32.8222E+06    -432.791E+03    -286.955E-03     578.619E-03    -291.663E-03     54.5222E-03    -287.503E-03     578.694E-03    -291.345E-03     49.3399E-03
            1045     8.74635E-03     165.664E-03    -52.9949E+06    -13.0602E+06     45.0090E+06     694.195E+03    -285.951E-03     577.189E-03    -291.239E-03     58.9893E-03    -286.611E-03     577.484E-03    -290.918E-03     52.4082E-03
            1046     9.42332E-03     165.759E-03    -45.3480E+06     31.6456E+06     57.9027E+06     2.15153E+06    -284.875E-03     575.661E-03    -290.785E-03     63.1023E-03    -285.684E-03     576.253E-03    -290.476E-03     54.9803E-03
            1047     10.1012E-03     165.859E-03    -37.1851E+06     75.7064E+06     70.3047E+06     3.52252E+06    -283.839E-03     574.160E-03    -290.321E-03     66.6972E-03    -284.814E-03     575.068E-03    -290.025E-03     56.8288E-03
            1048     10.7796E-03     165.961E-03    -29.5862E+06     87.7083E+06     80.1502E+06     3.96642E+06    -282.986E-03     572.880E-03    -289.894E-03     69.1770E-03    -284.095E-03     573.962E-03    -289.577E-03     57.4278E-03
            1049     11.4586E-03     166.063E-03    -21.4396E+06     90.8902E+06     95.9314E+06     4.34246E+06    -282.227E-03     571.748E-03    -289.522E-03     68.8941E-03    -283.433E-03     572.923E-03    -289.143E-03     55.4879E-03
            1050     12.1377E-03     166.158E-03    -13.1742E+06     115.909E+06     116.234E+06     3.85996E+06    -281.622E-03     570.788E-03    -289.167E-03     69.3446E-03    -283.067E-03     572.261E-03    -288.734E-03     53.2789E-03
            1051     12.8162E-03     166.253E-03    -6.12725E+06     134.312E+06     123.614E+06     2.89729E+06    -281.371E-03     570.167E-03    -288.795E-03     58.5701E-03    -282.672E-03     571.564E-03    -288.363E-03     43.0896E-03
            1052     671.003E-06     166.749E-03    -154.625E+06    -282.691E+06    -151.868E+06    -182.912E+03    -293.349E-03     586.703E-03    -293.353E-03     5.24149E-03    -293.493E-03     585.734E-03    -293.479E-03     5.39738E-03
            1053     1.34211E-03     166.760E-03    -150.448E+06    -270.801E+06    -139.938E+06    -445.204E+03    -293.164E-03     586.513E-03    -293.349E-03     9.53687E-03    -293.323E-03     585.582E-03    -293.437E-03     9.79747E-03
            1054     2.01338E-03     166.778E-03    -144.015E+06    -253.792E+06    -122.621E+06    -771.946E+03    -292.930E-03     586.235E-03    -293.305E-03     14.1096E-03    -293.110E-03     585.358E-03    -293.342E-03     14.4252E-03
            1055     2.68490E-03     166.802E-03    -136.091E+06    -233.576E+06    -102.232E+06    -1.20295E+06    -292.603E-03     585.842E-03    -293.239E-03     18.6579E-03    -292.807E-03     585.030E-03    -293.214E-03     18.9398E-03
            1056     3.35663E-03     166.834E-03    -126.834E+06    -211.776E+06    -80.8563E+06    -1.57252E+06    -292.214E-03     585.355E-03    -293.141E-03     23.1641E-03    -292.443E-03     584.616E-03    -293.054E-03     23.3061E-03
            1057     4.02880E-03     166.874E-03    -116.908E+06    -189.118E+06    -60.0084E+06    -1.80822E+06    -291.807E-03     584.820E-03    -293.013E-03     27.7049E-03    -292.060E-03     584.161E-03    -292.869E-03     27.5795E-03
            1058     4.70121E-03     166.921E-03    -106.886E+06    -166.310E+06    -40.8190E+06    -2.15150E+06    -291.353E-03     584.208E-03    -292.855E-03     32.2732E-03    -291.634E-03     583.638E-03    -292.663E-03     31.7281E-03
            1059     5.37398E-03     166.976E-03    -97.1257E+06    -143.918E+06    -23.8272E+06    -2.42385E+06    -290.754E-03     583.416E-03    -292.661E-03     36.7701E-03    -291.067E-03     582.941E-03    -292.431E-03     35.6386E-03
            1060     6.04744E-03     167.037E-03    -87.8025E+06    -121.312E+06    -8.51771E+06    -2.52080E+06    -290.030E-03     582.457E-03    -292.427E-03     41.2206E-03    -290.381E-03     582.090E-03    -292.166E-03     39.3546E-03
            1061     6.72138E-03     167.106E-03    -78.5446E+06    -98.1070E+06     5.88027E+06    -2.44090E+06    -289.184E-03     581.335E-03    -292.151E-03     45.5537E-03    -289.582E-03     581.089E-03    -291.866E-03     42.8311E-03
            1062     7.39616E-03     167.181E-03    -69.8552E+06    -74.2093E+06     19.1785E+06    -1.93882E+06    -288.245E-03     580.081E-03    -291.836E-03     49.8014E-03    -288.704E-03     579.973E-03    -291.531E-03     46.0506E-03
            1063     8.07162E-03     167.263E-03    -61.9653E+06    -48.1429E+06     31.3781E+06    -1.11996E+06    -287.316E-03     578.801E-03    -291.485E-03     54.0669E-03    -287.856E-03     578.859E-03    -291.168E-03     49.0737E-03
            1064     8.74764E-03     167.351E-03    -53.9328E+06    -16.4028E+06     43.7304E+06     13.6352E+03    -286.312E-03     577.416E-03    -291.104E-03     58.1622E-03    -286.958E-03     577.685E-03    -290.784E-03     51.7571E-03
            1065     9.42452E-03     167.444E-03    -46.1825E+06     26.5615E+06     56.2617E+06     1.95722E+06    -285.186E-03     575.874E-03    -290.687E-03     62.0210E-03    -285.975E-03     576.429E-03    -290.377E-03     54.0497E-03
            1066     10.1019E-03     167.542E-03    -39.3371E+06     73.5053E+06     68.5456E+06     3.22249E+06    -284.061E-03     574.308E-03    -290.247E-03     65.5561E-03    -285.025E-03     575.194E-03    -289.954E-03     55.8142E-03
            1067     10.7800E-03     167.642E-03    -32.2911E+06     89.9043E+06     78.1111E+06     2.15045E+06    -283.101E-03     572.932E-03    -289.831E-03     68.1238E-03    -284.208E-03     574.017E-03    -289.524E-03     56.4471E-03
            1068     11.4584E-03     167.742E-03    -24.6080E+06     90.0397E+06     90.1813E+06     602.037E+03    -282.308E-03     571.765E-03    -289.457E-03     68.1196E-03    -283.510E-03     572.938E-03    -289.101E-03     54.6936E-03
            1069     12.1373E-03     167.837E-03    -16.4784E+06     115.363E+06     110.286E+06     1.00348E+06    -281.562E-03     570.667E-03    -289.105E-03     69.2952E-03    -283.011E-03     572.147E-03    -288.697E-03     53.2152E-03
            1070     12.8165E-03     167.931E-03    -8.00633E+06     137.574E+06     123.337E+06     1.58436E+06    -280.871E-03     569.613E-03    -288.743E-03     58.7606E-03    -282.191E-03     571.036E-03    -288.314E-03     43.1795E-03
            1071     671.933E-06     168.451E-03    -156.728E+06    -281.014E+06    -153.768E+06    -438.911E+03    -292.078E-03     584.075E-03    -291.997E-03     5.38919E-03    -292.232E-03     583.120E-03    -292.131E-03     5.57016E-03
            1072     1.34394E-03     168.461E-03    -152.374E+06    -268.813E+06    -141.625E+06    -908.303E+03    -292.014E-03     584.082E-03    -292.068E-03     9.81931E-03    -292.183E-03     583.166E-03    -292.165E-03     10.1263E-03
            1073     2.01592E-03     168.479E-03    -145.847E+06    -251.494E+06    -123.985E+06    -1.47996E+06    -291.984E-03     584.085E-03    -292.101E-03     14.4638E-03    -292.174E-03     583.224E-03    -292.145E-03     14.8439E-03
            1074     2.68794E-03     168.503E-03    -137.451E+06    -230.956E+06    -103.061E+06    -2.09339E+06    -291.920E-03     584.052E-03    -292.132E-03     19.0936E-03    -292.133E-03     583.256E-03    -292.113E-03     19.4555E-03
            1075     3.36010E-03     168.535E-03    -128.106E+06    -209.103E+06    -81.4260E+06    -2.85356E+06    -291.821E-03     583.968E-03    -292.147E-03     23.6779E-03    -292.058E-03     583.244E-03    -292.065E-03     23.9102E-03
            1076     4.03232E-03     168.573E-03    -117.984E+06    -186.922E+06    -60.6690E+06    -3.60745E+06    -291.650E-03     583.788E-03    -292.138E-03     28.2605E-03    -291.911E-03     583.142E-03    -291.999E-03     28.2357E-03
            1077     4.70481E-03     168.620E-03    -107.650E+06    -164.656E+06    -41.6276E+06    -3.91256E+06    -291.356E-03     583.448E-03    -292.092E-03     32.7919E-03    -291.641E-03     582.887E-03    -291.905E-03     32.3629E-03
            1078     5.37770E-03     168.673E-03    -97.6853E+06    -142.482E+06    -24.4826E+06    -4.12258E+06    -290.963E-03     582.969E-03    -292.006E-03     37.1571E-03    -291.277E-03     582.502E-03    -291.780E-03     36.1551E-03
            1079     6.05087E-03     168.733E-03    -87.7954E+06    -120.124E+06    -8.85933E+06    -4.36895E+06    -290.465E-03     582.345E-03    -291.880E-03     41.3832E-03    -290.815E-03     581.982E-03    -291.623E-03     39.6567E-03
            1080     6.72453E-03     168.801E-03    -78.2469E+06    -97.8573E+06     5.41461E+06    -4.24167E+06    -289.774E-03     581.484E-03    -291.710E-03     45.3829E-03    -290.166E-03     581.235E-03    -291.428E-03     42.7911E-03
            1081     7.39873E-03     168.874E-03    -68.9911E+06    -75.3893E+06     18.6775E+06    -3.72621E+06    -288.918E-03     580.412E-03    -291.494E-03     49.3466E-03    -289.363E-03     580.290E-03    -291.191E-03     45.7235E-03
            1082     8.07362E-03     168.954E-03    -59.7051E+06    -50.3467E+06     31.4330E+06    -2.85533E+06    -287.964E-03     579.194E-03    -291.230E-03     53.3258E-03    -288.480E-03     579.228E-03    -290.913E-03     48.4725E-03
            1083     8.74922E-03     169.039E-03    -50.8270E+06    -20.3759E+06     43.7681E+06    -1.35819E+06    -286.890E-03     577.808E-03    -290.918E-03     57.1551E-03    -287.501E-03     578.039E-03    -290.596E-03     50.9104E-03
            1084     9.42543E-03     169.130E-03    -42.6886E+06     18.4446E+06     55.6692E+06     1.42928E+06    -285.668E-03     576.224E-03    -290.555E-03     60.9450E-03    -286.410E-03     576.718E-03    -290.242E-03     53.1508E-03
            1085     10.1028E-03     169.225E-03    -34.9590E+06     70.6119E+06     69.2823E+06     4.20501E+06    -284.347E-03     574.495E-03    -290.148E-03     64.5950E-03    -285.267E-03     575.340E-03    -289.853E-03     55.0545E-03
            1086     10.7808E-03     169.323E-03    -27.7189E+06     96.3176E+06     79.3069E+06     3.58382E+06    -283.225E-03     572.964E-03    -289.739E-03     67.5085E-03    -284.302E-03     574.055E-03    -289.442E-03     56.0245E-03
            1087     11.4595E-03     169.422E-03    -21.5206E+06     96.3130E+06     92.1242E+06    -129.811E+03    -282.376E-03     571.758E-03    -289.382E-03     68.0704E-03    -283.564E-03     572.944E-03    -289.030E-03     54.7561E-03
            1088     12.1385E-03     169.515E-03    -15.4926E+06     113.638E+06     111.380E+06    -1.99319E+06    -281.520E-03     570.565E-03    -289.044E-03     69.2377E-03    -282.958E-03     572.028E-03    -288.630E-03     53.1507E-03
            1089     12.8184E-03     169.607E-03    -7.32578E+06     134.767E+06     123.857E+06    -879.899E+03    -281.068E-03     569.757E-03    -288.689E-03     58.1871E-03    -282.381E-03     571.163E-03    -288.254E-03     42.4930E-03
            1090     673.004E-06     170.147E-03    -158.339E+06    -277.956E+06    -155.390E+06    -806.077E+03    -290.660E-03     581.222E-03    -290.562E-03     5.44848E-03    -290.824E-03     580.287E-03    -290.706E-03     5.63420E-03
            1091     1.34584E-03     170.158E-03    -153.876E+06    -265.473E+06    -142.970E+06    -1.58148E+06    -290.723E-03     581.391E-03    -290.669E-03     10.0009E-03    -290.902E-03     580.497E-03    -290.776E-03     10.3225E-03
            1092     2.01867E-03     170.176E-03    -147.050E+06    -247.784E+06    -124.964E+06    -2.43155E+06    -290.866E-03     581.632E-03    -290.765E-03     14.7801E-03    -291.066E-03     580.792E-03    -290.818E-03     15.1865E-03
            1093     2.69142E-03     170.201E-03    -138.529E+06    -227.066E+06    -103.849E+06    -3.41842E+06    -291.054E-03     581.934E-03    -290.880E-03     19.5248E-03    -291.277E-03     581.160E-03    -290.869E-03     19.9230E-03
            1094     3.36404E-03     170.232E-03    -128.719E+06    -204.932E+06    -81.8598E+06    -4.38307E+06    -291.239E-03     582.239E-03    -290.999E-03     24.1906E-03    -291.485E-03     581.537E-03    -290.925E-03     24.4745E-03
            1095     4.03662E-03     170.271E-03    -118.624E+06    -183.146E+06    -60.9076E+06    -5.26641E+06    -291.335E-03     582.441E-03    -291.106E-03     28.7591E-03    -291.603E-03     581.814E-03    -290.973E-03     28.7935E-03
            1096     4.70927E-03     170.317E-03    -108.401E+06    -161.703E+06    -41.9312E+06    -6.12544E+06    -291.308E-03     582.489E-03    -291.182E-03     33.1552E-03    -291.599E-03     581.943E-03    -291.000E-03     32.7892E-03
            1097     5.38203E-03     170.370E-03    -97.8920E+06    -139.961E+06    -24.7687E+06    -6.73752E+06    -291.194E-03     582.414E-03    -291.220E-03     37.3484E-03    -291.511E-03     581.958E-03    -290.999E-03     36.4297E-03
            1098     6.05492E-03     170.430E-03    -87.8471E+06    -118.395E+06    -9.30669E+06    -6.95061E+06    -290.891E-03     582.108E-03    -291.217E-03     41.3286E-03    -291.239E-03     581.750E-03    -290.964E-03     39.7010E-03
            1099     6.72815E-03     170.495E-03    -78.1841E+06    -96.8275E+06     4.89633E+06    -7.03529E+06    -290.359E-03     581.524E-03    -291.165E-03     45.1790E-03    -290.746E-03     581.276E-03    -290.887E-03     42.6938E-03
            1100     7.40186E-03     170.567E-03    -68.6320E+06    -75.0619E+06     18.1324E+06    -7.11670E+06    -289.663E-03     580.722E-03    -291.059E-03     49.0864E-03    -290.099E-03     580.596E-03    -290.760E-03     45.5652E-03
            1101     8.07613E-03     170.645E-03    -59.1759E+06    -52.1346E+06     30.4123E+06    -6.66803E+06    -288.722E-03     579.616E-03    -290.894E-03     52.9214E-03    -289.222E-03     579.633E-03    -290.581E-03     48.1840E-03
            1102     8.75125E-03     170.728E-03    -50.2449E+06    -25.7980E+06     42.2193E+06    -4.87265E+06    -287.552E-03     578.219E-03    -290.666E-03     56.5521E-03    -288.137E-03     578.411E-03    -290.345E-03     50.4505E-03
            1103     9.42739E-03     170.816E-03    -41.5577E+06     9.52441E+06     54.0595E+06    -2.06027E+06    -286.238E-03     576.608E-03    -290.370E-03     60.0923E-03    -286.941E-03     577.041E-03    -290.053E-03     52.4460E-03
            1104     10.1042E-03     170.909E-03    -32.8580E+06     62.5051E+06     68.4591E+06     1.49756E+06    -284.785E-03     574.796E-03    -290.011E-03     63.4865E-03    -285.661E-03     575.579E-03    -289.712E-03     54.0857E-03
            1105     10.7822E-03     171.004E-03    -25.2566E+06     99.6822E+06     80.1495E+06     3.62331E+06    -283.489E-03     573.115E-03    -289.626E-03     66.2397E-03    -284.540E-03     574.197E-03    -289.333E-03     54.8798E-03
            1106     11.4608E-03     171.101E-03    -18.6573E+06     107.012E+06     96.3645E+06     1.75999E+06    -282.515E-03     571.810E-03    -289.295E-03     66.7100E-03    -283.691E-03     573.020E-03    -288.942E-03     53.4955E-03
            1107     12.1397E-03     171.193E-03    -12.1448E+06     114.991E+06     114.878E+06    -506.961E+03    -281.745E-03     570.729E-03    -288.984E-03     68.0700E-03    -283.161E-03     572.177E-03    -288.559E-03     51.9937E-03
            1108     12.8178E-03     171.285E-03    -6.47743E+06     131.027E+06     123.115E+06    -693.835E+03    -281.350E-03     569.987E-03    -288.637E-03     58.0034E-03    -282.648E-03     571.370E-03    -288.202E-03     42.3314E-03
            1109     673.842E-06     171.839E-03    -159.167E+06    -273.233E+06    -156.220E+06    -1.17872E+06    -289.243E-03     578.407E-03    -289.165E-03     5.63960E-03    -289.417E-03     577.499E-03    -289.319E-03     5.81891E-03
            1110     1.34773E-03     171.850E-03    -154.688E+06    -260.392E+06    -143.700E+06    -2.30110E+06    -289.414E-03     578.695E-03    -289.280E-03     10.2746E-03    -289.604E-03     577.828E-03    -289.397E-03     10.5829E-03
            1111     2.02144E-03     171.868E-03    -147.800E+06    -242.399E+06    -125.533E+06    -3.61045E+06    -289.721E-03     579.149E-03    -289.428E-03     15.1007E-03    -289.932E-03     578.339E-03    -289.490E-03     15.4909E-03
            1112     2.69492E-03     171.894E-03    -139.132E+06    -221.574E+06    -104.214E+06    -4.85306E+06    -290.104E-03     579.718E-03    -289.614E-03     19.8708E-03    -290.338E-03     578.973E-03    -289.612E-03     20.2587E-03
            1113     3.36814E-03     171.927E-03    -129.629E+06    -199.684E+06    -82.2310E+06    -6.02489E+06    -290.510E-03     580.328E-03    -289.817E-03     24.5462E-03    -290.767E-03     579.654E-03    -289.751E-03     24.8307E-03
            1114     4.04115E-03     171.966E-03    -119.385E+06    -177.779E+06    -61.0617E+06    -7.23668E+06    -290.893E-03     580.916E-03    -290.022E-03     29.0614E-03    -291.172E-03     580.317E-03    -289.897E-03     29.1067E-03
            1115     4.71392E-03     172.013E-03    -108.763E+06    -156.601E+06    -41.7392E+06    -8.40478E+06    -291.189E-03     581.402E-03    -290.213E-03     33.4127E-03    -291.489E-03     580.881E-03    -290.037E-03     33.0694E-03
            1116     5.38657E-03     172.066E-03    -98.5891E+06    -136.167E+06    -24.8023E+06    -9.23010E+06    -291.293E-03     581.665E-03    -290.371E-03     37.5928E-03    -291.617E-03     581.227E-03    -290.155E-03     36.7188E-03
            1117     6.05934E-03     172.125E-03    -88.6832E+06    -115.460E+06    -9.63424E+06    -9.85771E+06    -291.164E-03     581.647E-03    -290.483E-03     41.4559E-03    -291.517E-03     581.303E-03    -290.235E-03     39.8996E-03
            1118     6.73239E-03     172.190E-03    -78.9743E+06    -94.4725E+06     4.24982E+06    -10.2543E+06    -290.827E-03     581.367E-03    -290.541E-03     45.1743E-03    -291.215E-03     581.128E-03    -290.268E-03     42.7871E-03
            1119     7.40579E-03     172.261E-03    -69.6712E+06    -73.1823E+06     17.0752E+06    -10.3446E+06    -290.274E-03     580.813E-03    -290.540E-03     48.8999E-03    -290.710E-03     580.693E-03    -290.247E-03     45.4840E-03
            1120     8.07971E-03     172.337E-03    -61.1259E+06    -52.3260E+06     28.5326E+06    -10.1173E+06    -289.440E-03     579.915E-03    -290.475E-03     52.4172E-03    -289.937E-03     579.927E-03    -290.167E-03     47.7868E-03
            1121     8.75428E-03     172.418E-03    -52.4907E+06    -28.9281E+06     39.5372E+06    -9.52369E+06    -288.322E-03     578.661E-03    -290.338E-03     55.7749E-03    -288.897E-03     578.832E-03    -290.022E-03     49.7724E-03
            1122     9.42958E-03     172.503E-03    -43.4244E+06     2.47052E+06     50.5490E+06    -7.76824E+06    -287.003E-03     577.127E-03    -290.123E-03     59.0330E-03    -287.685E-03     577.516E-03    -289.811E-03     51.4660E-03
            1123     10.1060E-03     172.593E-03    -34.7713E+06     49.3297E+06     63.7375E+06    -3.19617E+06    -285.527E-03     575.363E-03    -289.836E-03     62.1673E-03    -286.366E-03     576.069E-03    -289.538E-03     52.8543E-03
            1124     10.7832E-03     172.686E-03    -26.5721E+06     95.7079E+06     76.2890E+06     1.35118E+06    -284.020E-03     573.513E-03    -289.494E-03     64.9774E-03    -285.042E-03     574.560E-03    -289.213E-03     53.7382E-03
            1125     11.4611E-03     172.781E-03    -19.3901E+06     112.397E+06     92.8967E+06     2.37165E+06    -282.673E-03     571.853E-03    -289.180E-03     65.9523E-03    -283.836E-03     573.076E-03    -288.850E-03     52.8990E-03
            1126     12.1397E-03     172.871E-03    -13.0988E+06     117.321E+06     111.643E+06     1.34696E+06    -281.631E-03     570.513E-03    -288.882E-03     68.1847E-03    -283.040E-03     571.968E-03    -288.475E-03     52.2616E-03
            1127     12.8196E-03     172.962E-03    -6.08994E+06     131.534E+06     123.086E+06     535.110E+03    -281.155E-03     569.701E-03    -288.546E-03     58.8407E-03    -282.449E-03     571.083E-03    -288.112E-03     43.2929E-03
            1128     674.893E-06     173.526E-03    -158.698E+06    -266.883E+06    -155.726E+06    -1.55973E+06    -288.004E-03     575.907E-03    -287.903E-03     5.62164E-03    -288.186E-03     575.029E-03    -288.064E-03     5.78502E-03
            1129     1.34955E-03     173.538E-03    -154.194E+06    -254.035E+06    -143.159E+06    -2.87588E+06    -288.241E-03     576.286E-03    -288.045E-03     10.3265E-03    -288.438E-03     575.450E-03    -288.169E-03     10.6086E-03
            1130     2.02396E-03     173.557E-03    -147.498E+06    -235.603E+06    -124.858E+06    -4.23456E+06    -288.650E-03     576.880E-03    -288.230E-03     15.2232E-03    -288.870E-03     576.102E-03    -288.299E-03     15.5769E-03
            1131     2.69807E-03     173.584E-03    -139.151E+06    -214.502E+06    -103.386E+06    -5.86199E+06    -289.153E-03     577.615E-03    -288.462E-03     20.0622E-03    -289.398E-03     576.904E-03    -288.466E-03     20.4106E-03
            1132     3.37190E-03     173.618E-03    -129.301E+06    -192.677E+06    -81.1447E+06    -7.49047E+06    -289.721E-03     578.444E-03    -288.722E-03     24.7775E-03    -289.988E-03     577.803E-03    -288.661E-03     25.0210E-03
            1133     4.04533E-03     173.659E-03    -118.954E+06    -170.956E+06    -59.9313E+06    -8.93695E+06    -290.307E-03     579.301E-03    -288.994E-03     29.3544E-03    -290.595E-03     578.734E-03    -288.874E-03     29.3721E-03
            1134     4.71843E-03     173.707E-03    -108.819E+06    -150.391E+06    -40.9121E+06    -10.2560E+06    -290.804E-03     580.065E-03    -289.261E-03     33.7520E-03    -291.114E-03     579.573E-03    -289.090E-03     33.3986E-03
            1135     5.39134E-03     173.760E-03    -98.6226E+06    -130.779E+06    -24.2016E+06    -11.4738E+06    -291.122E-03     580.625E-03    -289.503E-03     37.9129E-03    -291.453E-03     580.211E-03    -289.291E-03     37.0453E-03
            1136     6.06419E-03     173.820E-03    -88.5897E+06    -110.965E+06    -9.34454E+06    -12.2922E+06    -291.248E-03     580.952E-03    -289.704E-03     41.6884E-03    -291.604E-03     580.627E-03    -289.462E-03     40.1780E-03
            1137     6.73700E-03     173.885E-03    -79.1172E+06    -91.0459E+06     4.00913E+06    -12.6532E+06    -291.145E-03     581.002E-03    -289.858E-03     45.2509E-03    -291.534E-03     580.776E-03    -289.591E-03     42.9401E-03
            1138     7.41001E-03     173.955E-03    -70.2842E+06    -70.9695E+06     16.2103E+06    -12.6205E+06    -290.743E-03     580.696E-03    -289.953E-03     48.8070E-03    -291.177E-03     580.582E-03    -289.667E-03     45.4950E-03
            1139     8.08342E-03     174.029E-03    -61.8859E+06    -50.5148E+06     27.6535E+06    -12.6199E+06    -290.051E-03     580.033E-03    -289.983E-03     52.1352E-03    -290.542E-03     580.046E-03    -289.681E-03     47.6490E-03
            1140     8.75742E-03     174.108E-03    -53.6760E+06    -28.6100E+06     38.2304E+06    -12.4084E+06    -289.058E-03     578.994E-03    -289.937E-03     55.3420E-03    -289.622E-03     579.156E-03    -289.626E-03     49.5115E-03
            1141     9.43233E-03     174.192E-03    -46.3283E+06    -1.25197E+06     47.7216E+06    -11.3064E+06    -287.744E-03     577.548E-03    -289.804E-03     58.5916E-03    -288.412E-03     577.909E-03    -289.497E-03     51.2242E-03
            1142     10.1079E-03     174.279E-03    -38.7813E+06     35.7487E+06     58.1868E+06    -8.01827E+06    -286.175E-03     575.761E-03    -289.586E-03     61.9247E-03    -286.984E-03     576.391E-03    -289.291E-03     52.8306E-03
            1143     10.7848E-03     174.369E-03    -30.7614E+06     85.9764E+06     68.4590E+06    -3.24737E+06    -284.411E-03     573.686E-03    -289.274E-03     65.0513E-03    -285.407E-03     574.679E-03    -289.012E-03     54.0359E-03
            1144     11.4630E-03     174.460E-03    -22.8120E+06     111.864E+06     84.5836E+06    -595.553E+03    -282.825E-03     571.795E-03    -288.970E-03     66.3437E-03    -283.974E-03     573.015E-03    -288.676E-03     53.4903E-03
            1145     12.1424E-03     174.549E-03    -14.4578E+06     117.102E+06     106.991E+06     396.280E+03    -281.712E-03     570.413E-03    -288.700E-03     68.6705E-03    -283.111E-03     571.865E-03    -288.314E-03     52.8749E-03
            1146     12.8212E-03     174.639E-03    -7.44350E+06     132.975E+06     124.504E+06     655.587E+03    -281.300E-03     569.705E-03    -288.405E-03     59.2351E-03    -282.599E-03     571.089E-03    -287.965E-03     43.7860E-03
            1147     675.341E-06     175.209E-03    -156.748E+06    -259.010E+06    -153.804E+06    -2.03354E+06    -287.095E-03     574.025E-03    -286.930E-03     5.62508E-03    -287.281E-03     573.181E-03    -287.096E-03     5.75682E-03
            1148     1.35069E-03     175.222E-03    -152.239E+06    -246.449E+06    -141.096E+06    -3.54473E+06    -287.287E-03     574.390E-03    -287.103E-03     10.3360E-03    -287.489E-03     573.585E-03    -287.230E-03     10.5802E-03
            1149     2.02583E-03     175.242E-03    -145.294E+06    -228.023E+06    -122.654E+06    -5.01495E+06    -287.689E-03     574.971E-03    -287.282E-03     15.2790E-03    -287.913E-03     574.225E-03    -287.354E-03     15.5845E-03
            1150     2.70067E-03     175.270E-03    -136.822E+06    -206.317E+06    -100.955E+06    -6.57981E+06    -288.242E-03     575.758E-03    -287.516E-03     20.1758E-03    -288.491E-03     575.081E-03    -287.523E-03     20.4748E-03
            1151     3.37506E-03     175.306E-03    -126.973E+06    -184.278E+06    -78.5242E+06    -8.40877E+06    -288.876E-03     576.665E-03    -287.789E-03     24.9749E-03    -289.146E-03     576.058E-03    -287.730E-03     25.1623E-03
            1152     4.04908E-03     175.349E-03    -116.443E+06    -163.085E+06    -57.3121E+06    -10.1358E+06    -289.511E-03     577.590E-03    -288.079E-03     29.6623E-03    -289.801E-03     577.054E-03    -287.960E-03     29.6301E-03
            1153     4.72271E-03     175.398E-03    -106.124E+06    -143.081E+06    -38.2813E+06    -11.6483E+06    -290.123E-03     578.492E-03    -288.369E-03     34.1564E-03    -290.432E-03     578.028E-03    -288.199E-03     33.7773E-03
            1154     5.39598E-03     175.453E-03    -96.0635E+06    -124.191E+06    -21.7500E+06    -12.8482E+06    -290.645E-03     579.292E-03    -288.647E-03     38.3653E-03    -290.973E-03     578.902E-03    -288.437E-03     37.5090E-03
            1155     6.06895E-03     175.513E-03    -86.6264E+06    -105.617E+06    -7.45882E+06    -13.7094E+06    -290.973E-03     579.873E-03    -288.899E-03     42.2625E-03    -291.326E-03     579.564E-03    -288.658E-03     40.8196E-03
            1156     6.74184E-03     175.578E-03    -77.6232E+06    -86.8921E+06     5.38647E+06    -14.2514E+06    -291.062E-03     580.174E-03    -289.112E-03     46.0009E-03    -291.446E-03     579.958E-03    -288.846E-03     43.7996E-03
            1157     7.41483E-03     175.648E-03    -68.9476E+06    -68.0319E+06     17.2619E+06    -14.5020E+06    -290.856E-03     580.129E-03    -289.273E-03     49.6582E-03    -291.282E-03     580.018E-03    -288.988E-03     46.5120E-03
            1158     8.08818E-03     175.722E-03    -60.5141E+06    -48.0278E+06      28.677E+06    -14.3366E+06    -290.317E-03     579.689E-03    -289.371E-03     53.0459E-03    -290.795E-03     579.698E-03    -289.070E-03     48.8219E-03
            1159     8.76197E-03     175.800E-03    -52.9306E+06    -27.5318E+06     39.0347E+06    -13.9399E+06    -289.432E-03     578.827E-03    -289.394E-03     56.2833E-03    -289.980E-03     578.976E-03    -289.083E-03     50.7828E-03
            1160     9.43640E-03     175.880E-03    -45.3316E+06    -3.59468E+06     48.2044E+06    -12.6183E+06    -288.178E-03     577.506E-03    -289.328E-03     59.5611E-03    -288.818E-03     577.832E-03    -289.016E-03     52.5738E-03
            1161     10.1121E-03     175.965E-03    -38.0780E+06     27.3873E+06     57.5530E+06    -10.0105E+06    -286.618E-03     575.788E-03    -289.169E-03     62.8670E-03    -287.388E-03     576.353E-03    -288.866E-03     54.1573E-03
            1162     10.7890E-03     176.051E-03    -31.4402E+06     76.7687E+06     66.4624E+06    -6.77032E+06    -284.971E-03     573.878E-03    -288.907E-03     65.8198E-03    -285.931E-03     574.806E-03    -288.640E-03     55.1107E-03
            1163     11.4667E-03     176.140E-03    -24.3093E+06     108.958E+06     81.1012E+06    -4.37820E+06    -283.634E-03     572.279E-03    -288.645E-03     66.9324E-03    -284.763E-03     573.473E-03    -288.363E-03     54.2714E-03
            1164     12.1447E-03     176.227E-03    -16.6950E+06     114.741E+06     102.330E+06    -3.33704E+06    -282.707E-03     571.144E-03    -288.436E-03     69.1006E-03    -284.097E-03     572.584E-03    -288.067E-03     53.3448E-03
            1165     12.8240E-03     176.316E-03    -7.66867E+06     130.186E+06     123.758E+06    -1.61696E+06    -282.332E-03     570.555E-03    -288.224E-03     59.5304E-03    -283.620E-03     571.920E-03    -287.783E-03     44.1003E-03
            1166     675.931E-06     176.890E-03    -153.056E+06    -249.282E+06    -150.061E+06    -2.40725E+06    -286.436E-03     572.691E-03    -286.255E-03     5.68626E-03    -286.623E-03     571.885E-03    -286.422E-03     5.79617E-03
            1167     1.35164E-03     176.903E-03    -148.426E+06    -236.871E+06    -137.306E+06    -4.41185E+06    -286.576E-03     573.003E-03    -286.427E-03     10.4267E-03    -286.777E-03     572.235E-03    -286.555E-03     10.6386E-03
            1168     2.02724E-03     176.924E-03    -141.419E+06    -219.104E+06    -119.085E+06    -6.35352E+06    -286.906E-03     573.488E-03    -286.582E-03     15.4046E-03    -287.127E-03     572.775E-03    -286.655E-03     15.6732E-03
            1169     2.70254E-03     176.954E-03    -132.445E+06    -197.841E+06    -97.5453E+06    -7.96629E+06    -287.359E-03     574.139E-03    -286.780E-03     20.3972E-03    -287.602E-03     573.493E-03    -286.789E-03     20.6603E-03
            1170     3.37756E-03     176.991E-03    -122.533E+06    -175.624E+06     -75.037E+06    -9.47693E+06    -287.895E-03     574.906E-03    -287.011E-03     25.3542E-03    -288.160E-03     574.331E-03    -286.954E-03     25.5173E-03
            1171     4.05221E-03     177.035E-03    -112.286E+06    -154.579E+06    -53.7282E+06    -11.0563E+06    -288.473E-03     575.733E-03    -287.260E-03     30.2482E-03    -288.758E-03     575.226E-03    -287.142E-03     30.2129E-03
            1172     4.72656E-03     177.086E-03    -101.784E+06    -135.022E+06    -34.3439E+06    -12.5439E+06    -289.084E-03     576.600E-03    -287.517E-03     35.0438E-03    -289.386E-03     576.162E-03    -287.345E-03     34.7016E-03
            1173     5.40047E-03     177.143E-03    -91.7025E+06    -117.135E+06    -17.5482E+06    -13.8378E+06    -289.657E-03     577.428E-03    -287.772E-03     39.5791E-03    -289.976E-03     577.057E-03    -287.557E-03     38.8070E-03
            1174     6.07417E-03     177.204E-03    -82.1298E+06    -99.7166E+06    -3.24038E+06    -14.7677E+06    -290.081E-03     578.092E-03    -288.011E-03     43.8291E-03    -290.421E-03     577.796E-03    -287.764E-03     42.5284E-03
            1175     6.74771E-03     177.270E-03    -73.2214E+06    -82.2859E+06     9.25232E+06    -15.3172E+06    -290.334E-03     578.558E-03    -288.224E-03     47.9140E-03    -290.701E-03     578.346E-03    -287.952E-03     45.9181E-03
            1176     7.42119E-03     177.340E-03    -64.8150E+06    -64.4732E+06     20.7128E+06    -15.4413E+06    -290.370E-03     578.772E-03    -288.402E-03     51.7856E-03    -290.775E-03     578.658E-03    -288.111E-03     48.9275E-03
            1177     8.09474E-03     177.414E-03    -56.9721E+06    -45.5118E+06     31.6096E+06    -15.2347E+06    -290.073E-03     578.605E-03    -288.533E-03     55.2530E-03    -290.528E-03     578.605E-03    -288.226E-03     51.4035E-03
            1178     8.76880E-03     177.490E-03    -49.3878E+06    -26.1689E+06     42.0040E+06    -14.7004E+06    -289.432E-03     578.036E-03    -288.604E-03     58.3954E-03    -289.951E-03     578.165E-03    -288.285E-03     53.3411E-03
            1179     9.44360E-03     177.569E-03    -42.1922E+06    -4.47442E+06     51.0422E+06    -14.1169E+06    -288.514E-03     577.115E-03    -288.601E-03     61.3210E-03    -289.119E-03     577.407E-03    -288.278E-03     54.8120E-03
            1180     10.1189E-03     177.650E-03    -34.3956E+06     24.1056E+06     60.6099E+06    -13.3211E+06    -287.397E-03     575.922E-03    -288.525E-03     64.0607E-03    -288.121E-03     576.434E-03    -288.207E-03     55.8103E-03
            1181     10.7951E-03     177.735E-03    -25.4334E+06     67.9245E+06     69.9831E+06    -10.2702E+06    -286.228E-03     574.596E-03    -288.368E-03     66.5293E-03    -287.119E-03     575.435E-03    -288.080E-03     56.2336E-03
            1182     11.4719E-03     177.822E-03    -17.6843E+06     101.343E+06     83.7276E+06    -5.05192E+06    -285.255E-03     573.466E-03    -288.211E-03     67.4411E-03    -286.316E-03     574.581E-03    -287.914E-03     55.1224E-03
            1183     12.1495E-03     177.907E-03    -12.1741E+06     114.698E+06     102.116E+06    -2.48678E+06    -284.623E-03     572.722E-03    -288.098E-03     69.5659E-03    -285.969E-03     574.136E-03    -287.736E-03     54.0194E-03
            1184     12.8261E-03     177.995E-03    -7.53302E+06     126.907E+06     121.478E+06    -2.62004E+06    -284.445E-03     572.453E-03    -288.008E-03     59.7381E-03    -285.712E-03     573.791E-03    -287.573E-03     44.3886E-03
            1185     676.080E-06     178.568E-03    -147.889E+06    -237.043E+06    -145.071E+06    -3.12292E+06    -285.894E-03     571.682E-03    -285.787E-03     5.75977E-03    -286.080E-03     570.922E-03    -285.955E-03     5.87568E-03
            1186     1.35222E-03     178.582E-03    -143.266E+06    -225.395E+06    -132.436E+06    -5.41941E+06    -285.973E-03     571.874E-03    -285.901E-03     10.6091E-03    -286.173E-03     571.149E-03    -286.029E-03     10.8352E-03
            1187     2.02818E-03     178.605E-03    -136.274E+06    -208.487E+06    -114.238E+06    -7.60681E+06    -286.149E-03     572.155E-03    -286.006E-03     15.7666E-03    -286.367E-03     571.480E-03    -286.077E-03     16.0612E-03
            1188     2.70408E-03     178.635E-03    -127.495E+06    -188.225E+06    -93.0240E+06    -9.57528E+06    -286.367E-03     572.495E-03    -286.128E-03     21.0148E-03    -286.605E-03     571.882E-03    -286.136E-03     21.3158E-03
            1189     3.37984E-03     178.673E-03    -117.728E+06    -166.910E+06    -71.0329E+06    -11.1501E+06    -286.666E-03     572.929E-03    -286.263E-03     26.2765E-03    -286.924E-03     572.382E-03    -286.205E-03     26.5086E-03
            1190     4.05546E-03     178.719E-03    -107.314E+06    -146.010E+06    -49.5212E+06    -12.4919E+06    -287.069E-03     573.480E-03    -286.411E-03     31.5568E-03    -287.344E-03     573.000E-03    -286.292E-03     31.6293E-03
            1191     4.73075E-03     178.771E-03    -96.7776E+06    -126.824E+06    -29.8847E+06    -13.8168E+06    -287.521E-03     574.091E-03    -286.571E-03     36.8293E-03    -287.812E-03     573.675E-03    -286.396E-03     36.6406E-03
            1192     5.40591E-03     178.829E-03    -86.5689E+06    -109.711E+06    -12.9227E+06    -15.0564E+06    -287.987E-03     574.721E-03    -286.734E-03     41.8762E-03    -288.292E-03     574.367E-03    -286.514E-03     41.3164E-03
            1193     6.08075E-03     178.891E-03    -76.7778E+06    -93.8021E+06     1.40968E+06    -15.8544E+06    -288.463E-03     575.359E-03    -286.896E-03     46.6454E-03    -288.783E-03     575.069E-03    -286.642E-03     45.6104E-03
            1194     6.75538E-03     178.958E-03    -67.6254E+06    -78.0585E+06     13.8125E+06    -15.8907E+06    -288.911E-03     575.968E-03    -287.056E-03     51.2166E-03    -289.254E-03     575.753E-03    -286.776E-03     49.5626E-03
            1195     7.42984E-03     179.029E-03    -59.5960E+06    -61.2468E+06     24.9507E+06    -15.5362E+06    -289.259E-03     576.470E-03    -287.211E-03     55.3764E-03    -289.636E-03     576.346E-03    -286.911E-03     52.9543E-03
            1196     8.10431E-03     179.103E-03    -52.2841E+06    -43.1934E+06     35.4066E+06    -14.9440E+06    -289.423E-03     576.775E-03    -287.353E-03     58.8697E-03    -289.848E-03     576.759E-03    -287.037E-03     55.5367E-03
            1197     8.77873E-03     179.179E-03    -45.5722E+06    -24.5858E+06     45.4071E+06    -14.2854E+06    -289.401E-03     576.877E-03    -287.475E-03     61.7584E-03    -289.889E-03     576.984E-03    -287.146E-03     57.3036E-03
            1198     9.45322E-03     179.257E-03    -39.4259E+06    -2.64926E+06     54.4218E+06    -13.8360E+06    -289.216E-03     576.782E-03    -287.566E-03     64.1007E-03    -289.789E-03     577.047E-03    -287.233E-03     58.2610E-03
            1199     10.1281E-03     179.337E-03    -33.8420E+06     27.2155E+06     63.8731E+06    -14.3388E+06    -288.850E-03     576.471E-03    -287.622E-03     66.1413E-03    -289.546E-03     576.959E-03    -287.293E-03     58.5910E-03
            1200     10.8031E-03     179.420E-03    -28.3437E+06     61.5494E+06     70.5133E+06    -14.1524E+06    -288.283E-03     575.911E-03    -287.628E-03     67.9554E-03    -289.141E-03     576.682E-03    -287.324E-03     58.2805E-03
            1201     11.4786E-03     179.505E-03    -20.8863E+06     86.3136E+06     79.0257E+06    -9.69550E+06    -287.694E-03     575.322E-03    -287.628E-03     68.4011E-03    -288.704E-03     576.335E-03    -287.328E-03     56.5540E-03
            1202     12.1538E-03     179.590E-03    -12.1443E+06     109.242E+06     97.1033E+06    -3.63187E+06    -287.386E-03     575.053E-03    -287.667E-03     70.3291E-03    -288.682E-03     576.412E-03    -287.322E-03     55.1500E-03
            1203     12.8298E-03     179.680E-03    -4.34903E+06     125.262E+06     119.352E+06    -277.169E+03    -287.652E-03     575.406E-03    -287.754E-03     60.2251E-03    -288.873E-03     576.711E-03    -287.333E-03     45.1512E-03
            1204     676.492E-06     180.246E-03    -141.496E+06    -223.235E+06    -138.500E+06    -3.28535E+06    -285.256E-03     570.412E-03    -285.156E-03     6.15420E-03    -285.440E-03     569.702E-03    -285.320E-03     6.32925E-03
            1205     1.35291E-03     180.260E-03    -137.411E+06    -212.107E+06    -126.298E+06    -5.82927E+06    -285.165E-03     570.394E-03    -285.229E-03     11.2967E-03    -285.363E-03     569.717E-03    -285.354E-03     11.6170E-03
            1206     2.02947E-03     180.283E-03    -130.640E+06    -195.995E+06    -108.449E+06    -8.60207E+06    -285.102E-03     570.350E-03    -285.247E-03     16.8096E-03    -285.317E-03     569.719E-03    -285.316E-03     17.2339E-03
            1207     2.70608E-03     180.313E-03    -122.139E+06    -177.137E+06    -87.6600E+06    -10.9132E+06    -285.047E-03     570.306E-03    -285.259E-03     22.4525E-03    -285.280E-03     569.730E-03    -285.263E-03     22.9287E-03
            1208     3.38282E-03     180.352E-03    -112.792E+06    -157.027E+06    -66.2859E+06    -12.6874E+06    -285.046E-03     570.311E-03    -285.265E-03     28.1988E-03    -285.297E-03     569.796E-03    -285.205E-03     28.6598E-03
            1209     4.05957E-03     180.398E-03    -102.799E+06    -137.346E+06    -45.5875E+06    -14.1426E+06    -285.141E-03     570.414E-03    -285.272E-03     34.0383E-03    -285.406E-03     569.958E-03    -285.152E-03     34.3939E-03
            1210     4.73639E-03     180.451E-03    -92.6346E+06    -119.062E+06    -26.4781E+06    -15.1565E+06    -285.325E-03     570.611E-03    -285.286E-03     39.8961E-03    -285.603E-03     570.214E-03    -285.111E-03     40.0509E-03
            1211     5.41311E-03     180.509E-03    -83.0425E+06    -102.869E+06    -9.74096E+06    -15.6927E+06    -285.637E-03     570.948E-03    -285.311E-03     45.5971E-03    -285.927E-03     570.606E-03    -285.090E-03     45.4684E-03
            1212     6.08977E-03     180.573E-03    -74.1449E+06    -88.1974E+06     4.42070E+06    -15.9505E+06    -286.145E-03     571.500E-03    -285.356E-03     51.0348E-03    -286.450E-03     571.216E-03    -285.098E-03     50.5064E-03
            1213     6.76612E-03     180.641E-03    -65.9015E+06    -74.4115E+06     16.2040E+06    -15.9101E+06    -286.832E-03     572.263E-03    -285.431E-03     56.1855E-03    -287.157E-03     572.043E-03    -285.147E-03     55.1180E-03
            1214     7.44207E-03     180.713E-03    -58.0853E+06    -59.2867E+06     26.6821E+06    -15.0870E+06    -287.637E-03     573.181E-03    -285.543E-03     60.7475E-03    -287.991E-03     573.040E-03    -285.240E-03     59.0173E-03
            1215     8.11748E-03     180.788E-03    -51.2814E+06    -42.5995E+06     36.5070E+06    -13.6339E+06    -288.543E-03     574.241E-03    -285.697E-03     64.4109E-03    -288.941E-03     574.199E-03    -285.379E-03     61.8726E-03
            1216     8.79242E-03     180.865E-03    -45.1764E+06    -22.9641E+06     46.5422E+06    -12.3760E+06    -289.503E-03     575.397E-03    -285.895E-03     67.2044E-03    -289.963E-03     575.481E-03    -285.563E-03     63.6565E-03
            1217     9.46677E-03     180.944E-03    -38.9853E+06     20.6137E+03     55.9759E+06    -11.8624E+06    -290.384E-03     576.507E-03    -286.123E-03     69.1653E-03    -290.926E-03     576.749E-03    -285.787E-03     64.3185E-03
            1218     10.1405E-03     181.025E-03    -33.0745E+06     31.7525E+06     66.2361E+06    -11.7116E+06    -290.968E-03     577.335E-03    -286.367E-03     70.5482E-03    -291.630E-03     577.800E-03    -286.034E-03     64.0393E-03
            1219     10.8139E-03     181.108E-03    -28.2706E+06     63.3724E+06     73.0689E+06    -12.4001E+06    -291.262E-03     577.863E-03    -286.601E-03     71.6170E-03    -292.080E-03     578.594E-03    -286.286E-03     62.9366E-03
            1220     11.4870E-03     181.193E-03    -23.5633E+06     76.9220E+06     78.6785E+06    -12.1871E+06    -291.469E-03     578.321E-03    -286.852E-03     71.3501E-03    -292.435E-03     579.249E-03    -286.536E-03     60.2583E-03
            1221     12.1606E-03     181.278E-03    -16.9165E+06     96.8670E+06     93.3445E+06    -8.63403E+06    -291.637E-03     578.774E-03    -287.137E-03     72.4188E-03    -292.893E-03     580.043E-03    -286.786E-03     57.7363E-03
            1222     12.8329E-03     181.369E-03    -11.3006E+06     118.121E+06     113.731E+06    -3.22924E+06    -292.109E-03     579.571E-03    -287.461E-03     61.4259E-03    -293.317E-03     580.828E-03    -287.047E-03     46.6587E-03
            1223     677.163E-06     181.921E-03    -135.591E+06    -209.832E+06    -132.608E+06    -2.90805E+06    -283.972E-03     567.879E-03    -283.908E-03     6.76684E-03    -284.153E-03     567.219E-03    -284.070E-03     7.05111E-03
            1224     1.35449E-03     181.935E-03    -131.347E+06    -198.372E+06    -120.336E+06    -5.44812E+06    -283.690E-03     567.606E-03    -283.916E-03     12.5284E-03    -283.885E-03     566.979E-03    -284.040E-03     13.0405E-03
            1225     2.03202E-03     181.957E-03    -125.350E+06    -182.908E+06    -102.853E+06    -7.91271E+06    -283.389E-03     567.225E-03    -283.835E-03     18.6801E-03    -283.602E-03     566.641E-03    -283.903E-03     19.3933E-03
            1226     2.70986E-03     181.987E-03    -118.010E+06    -165.190E+06    -82.7570E+06    -10.2564E+06    -283.046E-03     566.774E-03    -283.728E-03     24.9979E-03    -283.277E-03     566.239E-03    -283.731E-03     25.8610E-03
            1227     3.38798E-03     182.025E-03    -109.562E+06    -146.670E+06    -62.3107E+06    -12.1778E+06    -282.721E-03     566.316E-03    -283.595E-03     31.5230E-03    -282.968E-03     565.833E-03    -283.535E-03     32.4698E-03
            1228     4.06646E-03     182.071E-03    -100.968E+06    -128.911E+06    -43.0045E+06    -13.3072E+06    -282.494E-03     565.942E-03    -283.448E-03     38.1840E-03    -282.753E-03     565.510E-03    -283.330E-03     39.1282E-03
            1229     4.74517E-03     182.124E-03    -92.7961E+06    -112.195E+06    -25.4507E+06    -13.8429E+06    -282.450E-03     565.756E-03    -283.306E-03     44.8227E-03    -282.723E-03     565.374E-03    -283.136E-03     45.6723E-03
            1230     5.42410E-03     182.183E-03    -84.8718E+06    -97.0208E+06    -9.72813E+06    -14.1134E+06    -282.682E-03     565.872E-03    -283.190E-03     51.2808E-03    -282.968E-03     565.540E-03    -282.975E-03     51.9547E-03
            1231     6.10288E-03     182.247E-03    -77.2377E+06    -83.4611E+06     3.88245E+06    -14.0963E+06    -283.287E-03     566.409E-03    -283.122E-03     57.4655E-03    -283.587E-03     566.127E-03    -282.870E-03     57.8388E-03
            1232     6.78128E-03     182.317E-03    -70.1160E+06    -70.4865E+06     15.2939E+06    -13.9321E+06    -284.321E-03     567.446E-03    -283.125E-03     63.2297E-03    -284.639E-03     567.221E-03    -282.845E-03     63.1578E-03
            1233     7.45907E-03     182.391E-03    -63.2744E+06    -57.3122E+06     24.9271E+06    -13.7343E+06    -285.794E-03     569.014E-03    -283.219E-03     68.2231E-03    -286.138E-03     568.856E-03    -282.920E-03     67.5723E-03
            1234     8.13596E-03     182.468E-03    -55.7637E+06    -41.7782E+06     34.4771E+06    -13.2471E+06    -287.686E-03     571.108E-03    -283.422E-03     72.1048E-03    -288.065E-03     571.040E-03    -283.108E-03     70.7163E-03
            1235     8.81141E-03     182.548E-03    -47.8489E+06    -21.5006E+06     45.0324E+06    -12.7417E+06    -289.848E-03     573.589E-03    -283.741E-03     74.7876E-03    -290.278E-03     573.642E-03    -283.415E-03     72.4564E-03
            1236     9.48539E-03     182.631E-03    -40.3577E+06     2.01309E+06     55.5567E+06    -12.2697E+06    -292.039E-03     576.205E-03    -284.166E-03     76.2553E-03    -292.543E-03     576.412E-03    -283.833E-03     72.6801E-03
            1237     10.1580E-03     182.715E-03    -32.7201E+06     35.3894E+06     67.6888E+06    -12.2677E+06    -293.950E-03     578.621E-03    -284.671E-03     76.6157E-03    -294.567E-03     579.051E-03    -284.336E-03     71.3636E-03
            1238     10.8296E-03     182.800E-03    -24.6409E+06     64.1687E+06     75.9084E+06    -11.1923E+06    -295.497E-03     580.714E-03    -285.217E-03     76.2596E-03    -296.245E-03     581.383E-03    -284.895E-03     68.8210E-03
            1239     11.5001E-03     182.887E-03    -18.1467E+06     75.2837E+06     83.1403E+06    -9.63234E+06    -296.697E-03     582.513E-03    -285.816E-03     74.7043E-03    -297.583E-03     583.362E-03    -285.483E-03     64.7064E-03
            1240     12.1688E-03     182.974E-03    -13.1242E+06     89.2434E+06     95.4653E+06    -8.41010E+06    -297.503E-03     583.951E-03    -286.449E-03     75.0488E-03    -298.679E-03     585.121E-03    -286.082E-03     61.1442E-03
            1241     12.8376E-03     183.067E-03    -4.17611E+06     105.991E+06     113.369E+06    -5.99350E+06    -298.167E-03     585.265E-03    -287.098E-03     63.6060E-03    -299.286E-03     586.417E-03    -286.679E-03     49.2693E-03
            1242     678.699E-06     183.590E-03    -133.252E+06    -200.292E+06    -130.390E+06    -1.40566E+06    -281.360E-03     562.766E-03    -281.406E-03     7.94461E-03    -281.547E-03     562.145E-03    -281.574E-03     8.42269E-03
            1243     1.35767E-03     183.604E-03    -130.791E+06    -189.138E+06    -119.245E+06    -2.38530E+06    -280.978E-03     562.298E-03    -281.320E-03     14.6570E-03    -281.182E-03     561.711E-03    -281.452E-03     15.5286E-03
            1244     2.03699E-03     183.625E-03    -126.520E+06    -173.566E+06    -102.548E+06    -3.45176E+06    -280.473E-03     561.632E-03    -281.159E-03     21.8039E-03    -280.700E-03     561.089E-03    -281.237E-03     23.0526E-03
            1245     2.71677E-03     183.654E-03    -121.101E+06    -155.384E+06    -82.9109E+06    -4.78379E+06    -279.900E-03     560.851E-03    -280.952E-03     29.1440E-03    -280.149E-03     560.359E-03    -280.965E-03     30.7126E-03
            1246     3.39716E-03     183.691E-03    -115.172E+06    -137.417E+06    -63.1567E+06    -6.46378E+06    -279.361E-03     560.071E-03    -280.710E-03     36.6440E-03    -279.630E-03     559.626E-03    -280.660E-03     38.4524E-03
            1247     4.07807E-03     183.736E-03    -108.584E+06    -121.342E+06    -44.8461E+06    -7.96152E+06    -278.991E-03     559.446E-03    -280.455E-03     44.2058E-03    -279.274E-03     559.041E-03    -280.346E-03     46.1599E-03
            1248     4.75943E-03     183.787E-03    -101.394E+06    -105.887E+06    -28.3307E+06    -8.93215E+06    -278.950E-03     559.165E-03    -280.215E-03     51.6563E-03    -279.239E-03     558.799E-03    -280.056E-03     53.6623E-03
            1249     5.44083E-03     183.847E-03    -94.0268E+06    -91.0114E+06    -13.5841E+06    -9.82486E+06    -279.348E-03     559.375E-03    -280.026E-03     58.7991E-03    -279.644E-03     559.051E-03    -279.826E-03     60.7461E-03
            1250     6.12216E-03     183.912E-03    -86.4826E+06    -77.7923E+06    -528.255E+03    -10.9873E+06    -280.312E-03     560.237E-03    -279.925E-03     65.5396E-03    -280.612E-03     559.955E-03    -279.690E-03     67.2737E-03
            1251     6.80294E-03     183.984E-03    -78.3509E+06    -65.2099E+06     11.1239E+06    -12.2270E+06    -281.975E-03     561.920E-03    -279.946E-03     71.6241E-03    -282.283E-03     561.686E-03    -279.682E-03     72.9806E-03
            1252     7.48254E-03     184.061E-03    -69.8419E+06    -52.2914E+06     21.4834E+06    -13.4603E+06    -284.363E-03     564.481E-03    -280.118E-03     76.7070E-03    -284.684E-03     564.306E-03    -279.834E-03     77.5185E-03
            1253     8.16034E-03     184.143E-03    -61.4841E+06    -37.3072E+06     31.2327E+06    -14.8120E+06    -287.404E-03     567.870E-03    -280.467E-03     80.5094E-03    -287.752E-03     567.778E-03    -280.167E-03     80.5782E-03
            1254     8.83611E-03     184.229E-03    -53.1606E+06    -18.1630E+06     41.6008E+06    -15.6733E+06    -290.909E-03     571.911E-03    -281.001E-03     82.7627E-03    -291.306E-03     571.934E-03    -280.690E-03     81.8532E-03
            1255     9.50945E-03     184.317E-03    -44.6372E+06     4.16889E+06     52.7455E+06    -15.8137E+06    -294.596E-03     576.311E-03    -281.714E-03     83.3749E-03    -295.062E-03     576.481E-03    -281.392E-03     81.1848E-03
            1256     10.1802E-03     184.407E-03    -36.5287E+06     39.5998E+06     66.0624E+06    -15.8388E+06    -298.123E-03     580.696E-03    -282.572E-03     82.4566E-03    -298.704E-03     581.097E-03    -282.247E-03     78.5387E-03
            1257     10.8482E-03     184.498E-03    -28.7188E+06     62.6830E+06     72.6600E+06    -16.0264E+06    -301.096E-03     584.621E-03    -283.525E-03     80.5055E-03    -301.796E-03     585.231E-03    -283.211E-03     74.3036E-03
            1258     11.5143E-03     184.589E-03    -20.1793E+06     69.7159E+06     78.4610E+06    -14.2133E+06    -303.178E-03     587.727E-03    -284.549E-03     77.4627E-03    -303.992E-03     588.490E-03    -284.228E-03     68.5607E-03
            1259     12.1800E-03     184.679E-03    -11.6053E+06     84.2265E+06     92.4537E+06    -10.1302E+06    -304.488E-03     590.095E-03    -285.607E-03     76.6683E-03    -305.577E-03     591.174E-03    -285.250E-03     63.5990E-03
            1260     12.8437E-03     184.775E-03    -5.63260E+06     93.8688E+06     109.108E+06    -5.90273E+06    -305.556E-03     592.226E-03    -286.671E-03     64.3748E-03    -306.608E-03     593.276E-03    -286.253E-03     50.5840E-03
            1261     681.789E-06     185.249E-03    -153.741E+06    -199.336E+06    -150.088E+06     1.11652E+06    -276.750E-03     553.562E-03    -276.812E-03     9.58731E-03    -277.010E-03     553.001E-03    -277.050E-03     10.3650E-03
            1262     1.36370E-03     185.261E-03    -149.585E+06    -187.045E+06    -136.585E+06     1.31282E+06    -276.376E-03     553.097E-03    -276.721E-03     17.6291E-03    -276.647E-03     552.566E-03    -276.916E-03     19.0227E-03
            1263     2.04609E-03     185.281E-03    -143.332E+06    -171.049E+06    -117.581E+06     1.41146E+06    -275.865E-03     552.421E-03    -276.556E-03     26.1097E-03    -276.146E-03     551.925E-03    -276.688E-03     28.1132E-03
            1264     2.72910E-03     185.308E-03    -135.882E+06    -152.177E+06    -95.4800E+06     1.67392E+06    -275.351E-03     551.699E-03    -276.348E-03     34.6182E-03    -275.642E-03     551.242E-03    -276.408E-03     37.1758E-03
            1265     3.41260E-03     185.344E-03    -127.940E+06    -132.390E+06    -72.7092E+06     1.59445E+06    -274.982E-03     551.106E-03    -276.123E-03     43.0497E-03    -275.281E-03     550.689E-03    -276.109E-03     46.0675E-03
            1266     4.09659E-03     185.387E-03    -120.292E+06    -114.429E+06    -52.1299E+06     192.310E+03    -274.910E-03     550.820E-03    -275.910E-03     51.3026E-03    -275.212E-03     550.438E-03    -275.830E-03     54.6532E-03
            1267     4.78079E-03     185.439E-03    -112.627E+06    -98.4349E+06    -34.8464E+06    -2.37125E+06    -275.286E-03     551.026E-03    -275.739E-03     59.1950E-03    -275.585E-03     550.675E-03    -275.608E-03     62.7388E-03
            1268     5.46500E-03     185.499E-03    -104.408E+06    -82.7846E+06    -19.9041E+06    -5.22534E+06    -276.278E-03     551.933E-03    -275.655E-03     66.5257E-03    -276.571E-03     551.618E-03    -275.483E-03     70.1086E-03
            1269     6.14856E-03     185.566E-03    -95.6882E+06    -67.6164E+06    -6.43832E+06    -8.77165E+06    -278.050E-03     553.752E-03    -275.702E-03     73.2083E-03    -278.339E-03     553.479E-03    -275.498E-03     76.6409E-03
            1270     6.83090E-03     185.641E-03    -86.7154E+06    -54.4958E+06     5.46943E+06    -13.1868E+06    -280.672E-03     556.596E-03    -275.923E-03     79.0174E-03    -280.960E-03     556.366E-03    -275.691E-03     82.0870E-03
            1271     7.51144E-03     185.723E-03    -76.6595E+06    -42.3950E+06     16.3808E+06    -17.4302E+06    -284.142E-03     560.491E-03    -276.349E-03     83.6670E-03    -284.432E-03     560.311E-03    -276.094E-03     86.1587E-03
            1272     8.18968E-03     185.812E-03    -65.5533E+06    -29.1039E+06     26.9102E+06    -20.4632E+06    -288.353E-03     565.350E-03    -276.997E-03     86.9361E-03    -288.657E-03     565.240E-03    -276.725E-03     88.6111E-03
            1273     8.86473E-03     185.907E-03    -54.4165E+06    -13.4452E+06     37.6285E+06    -21.7968E+06    -293.133E-03     571.008E-03    -277.875E-03     88.6217E-03    -293.469E-03     570.995E-03    -277.588E-03     89.2271E-03
            1274     9.53629E-03     186.004E-03    -44.0413E+06     7.22758E+06     49.3901E+06    -21.9776E+06    -298.252E-03     577.228E-03    -278.976E-03     88.6110E-03    -298.649E-03     577.353E-03    -278.676E-03     87.8570E-03
            1275     10.2042E-03     186.104E-03    -34.6313E+06     40.4925E+06     62.6730E+06    -21.0356E+06    -303.243E-03     583.508E-03    -280.265E-03     86.9227E-03    -303.747E-03     583.853E-03    -279.960E-03     84.3857E-03
            1276     10.8688E-03     186.203E-03    -26.6145E+06     61.9859E+06     70.1878E+06    -18.7015E+06    -307.621E-03     589.314E-03    -281.692E-03     83.7012E-03    -308.240E-03     589.856E-03    -281.393E-03     78.7970E-03
            1277     11.5308E-03     186.301E-03    -20.9984E+06     68.2244E+06     76.8774E+06    -17.6707E+06    -310.850E-03     594.069E-03    -283.219E-03     79.0268E-03    -311.597E-03     594.763E-03    -282.903E-03     71.2041E-03
            1278     12.1899E-03     186.396E-03    -14.8081E+06     74.6463E+06     88.2747E+06    -16.3060E+06    -312.662E-03     597.432E-03    -284.770E-03     76.6469E-03    -313.670E-03     598.397E-03    -284.415E-03     64.3318E-03
            1279     12.8488E-03     186.496E-03    -8.29677E+06     75.7467E+06     103.671E+06    -8.20815E+06    -312.958E-03     599.235E-03    -286.277E-03     64.0448E-03    -313.937E-03     600.153E-03    -285.856E-03     50.6510E-03
            1280     686.430E-06     186.888E-03    -215.765E+06    -195.527E+06    -213.381E+06    -2.82401E+06    -269.993E-03     539.904E-03    -269.911E-03     11.0913E-03    -270.476E-03     539.541E-03    -270.382E-03     12.1011E-03
            1281     1.37315E-03     186.900E-03    -206.927E+06    -182.782E+06    -194.847E+06    -4.57566E+06    -269.783E-03     539.726E-03    -269.943E-03     20.1543E-03    -270.257E-03     539.377E-03    -270.353E-03     21.9886E-03
            1282     2.06009E-03     186.918E-03    -193.688E+06    -166.589E+06    -168.470E+06    -6.50369E+06    -269.646E-03     539.556E-03    -269.910E-03     29.6147E-03    -270.099E-03     539.215E-03    -270.230E-03     32.2674E-03
            1283     2.74727E-03     186.945E-03    -176.721E+06    -148.911E+06    -137.993E+06    -8.10266E+06    -269.665E-03     539.548E-03    -269.883E-03     38.8998E-03    -270.083E-03     539.207E-03    -270.101E-03     42.3093E-03
            1284     3.43468E-03     186.980E-03    -157.262E+06    -130.155E+06    -107.010E+06    -8.56102E+06    -270.020E-03     539.904E-03    -269.885E-03     47.8372E-03    -270.388E-03     539.560E-03    -270.003E-03     51.9177E-03
            1285     4.12201E-03     187.024E-03    -137.019E+06    -109.846E+06    -77.6246E+06    -8.43836E+06    -270.843E-03     540.789E-03    -269.946E-03     56.2450E-03    -271.158E-03     540.451E-03    -269.976E-03     60.8752E-03
            1286     4.80896E-03     187.076E-03    -118.032E+06    -90.8686E+06    -51.2239E+06    -9.21708E+06    -272.233E-03     542.337E-03    -270.104E-03     63.9576E-03    -272.498E-03     542.008E-03    -270.057E-03     68.9759E-03
            1287     5.49507E-03     187.138E-03    -100.953E+06    -73.7496E+06    -28.9949E+06    -11.2475E+06    -274.351E-03     544.740E-03    -270.389E-03     70.8853E-03    -274.572E-03     544.425E-03    -270.281E-03     76.0902E-03
            1288     6.17986E-03     187.209E-03    -86.1193E+06    -57.1745E+06    -10.5992E+06    -13.4188E+06    -277.290E-03     548.129E-03    -270.839E-03     76.9620E-03    -277.480E-03     547.841E-03    -270.684E-03     82.1357E-03
            1289     6.86266E-03     187.290E-03    -74.0425E+06    -42.5244E+06     5.16399E+06    -15.4543E+06    -281.048E-03     552.539E-03    -271.491E-03     82.0740E-03    -281.225E-03     552.288E-03    -271.296E-03     86.9794E-03
            1290     7.54288E-03     187.380E-03    -65.1524E+06    -28.2583E+06     18.1049E+06    -18.6122E+06    -285.537E-03     557.897E-03    -272.360E-03     86.0751E-03    -285.726E-03     557.703E-03    -272.134E-03     90.4290E-03
            1291     8.21975E-03     187.478E-03    -58.5387E+06    -16.0711E+06     28.0452E+06    -23.1322E+06    -290.649E-03     564.102E-03    -273.453E-03     88.8849E-03    -290.870E-03     563.978E-03    -273.204E-03     92.3766E-03
            1292     8.89325E-03     187.583E-03    -51.6859E+06    -3.53762E+06     37.5577E+06    -27.5276E+06    -296.363E-03     571.138E-03    -274.775E-03     90.3929E-03    -296.629E-03     571.101E-03    -274.507E-03     92.7313E-03
            1293     9.56274E-03     187.693E-03    -42.7114E+06     14.0737E+06     48.5657E+06    -30.6157E+06    -302.449E-03     578.770E-03    -276.321E-03     90.2934E-03    -302.778E-03     578.859E-03    -276.037E-03     91.1444E-03
            1294     10.2278E-03     187.805E-03    -31.8856E+06     36.3117E+06     60.1403E+06    -29.2375E+06    -308.443E-03     586.505E-03    -278.062E-03     88.4679E-03    -308.854E-03     586.760E-03    -277.768E-03     87.4183E-03
            1295     10.8886E-03     187.916E-03    -21.8113E+06     51.0361E+06     68.6107E+06    -22.8911E+06    -313.923E-03     593.879E-03    -279.956E-03     85.0664E-03    -314.427E-03     594.290E-03    -279.656E-03     81.6216E-03
            1296     11.5450E-03     188.025E-03    -13.7237E+06     67.1077E+06     79.9797E+06    -17.0106E+06    -318.181E-03     600.135E-03    -281.954E-03     80.3048E-03    -318.817E-03     600.731E-03    -281.632E-03     73.9235E-03
            1297     12.1994E-03     188.126E-03    -9.94861E+06     67.1325E+06     88.0045E+06    -13.9039E+06    -320.200E-03     604.152E-03    -283.952E-03     78.1229E-03    -321.090E-03     604.991E-03    -283.595E-03     67.0844E-03
            1298     12.8516E-03     188.230E-03    -6.41343E+06     53.5117E+06     102.106E+06    -9.99910E+06    -320.077E-03     605.959E-03    -285.881E-03     65.7265E-03    -320.962E-03     606.715E-03    -285.439E-03     52.9834E-03
            1299     692.243E-06     188.502E-03    -244.896E+06    -171.056E+06    -241.604E+06    -8.81815E+06    -262.823E-03     525.408E-03    -262.585E-03     10.3693E-03    -263.446E-03     525.251E-03    -263.190E-03     11.4529E-03
            1300     1.38430E-03     188.514E-03    -237.531E+06    -159.303E+06    -226.361E+06    -16.3723E+06    -262.914E-03     525.678E-03    -262.764E-03     18.8768E-03    -263.530E-03     525.538E-03    -263.320E-03     20.8229E-03
            1301     2.07626E-03     188.533E-03    -225.153E+06    -143.890E+06    -202.426E+06    -23.8666E+06    -263.337E-03     526.248E-03    -262.912E-03     27.7794E-03    -263.931E-03     526.117E-03    -263.389E-03     30.6177E-03
            1302     2.76798E-03     188.560E-03    -209.030E+06    -129.666E+06    -173.913E+06    -30.4106E+06    -264.150E-03     527.296E-03    -263.146E-03     36.5049E-03    -264.705E-03     527.151E-03    -263.524E-03     40.2020E-03
            1303     3.45911E-03     188.597E-03    -190.127E+06    -115.559E+06    -144.769E+06    -35.6223E+06    -265.490E-03     528.971E-03    -263.481E-03     44.8894E-03    -265.989E-03     528.802E-03    -263.762E-03     49.3764E-03
            1304     4.14932E-03     188.643E-03    -168.852E+06    -99.9062E+06    -116.256E+06    -38.7821E+06    -267.448E-03     531.389E-03    -263.941E-03     52.6580E-03    -267.879E-03     531.202E-03    -264.133E-03     57.8575E-03
            1305     4.83822E-03     188.699E-03    -146.015E+06    -82.1481E+06    -87.7576E+06    -39.8782E+06    -270.091E-03     534.648E-03    -264.557E-03     59.6873E-03    -270.452E-03     534.453E-03    -264.665E-03     65.4991E-03
            1306     5.52530E-03     188.766E-03    -123.248E+06    -65.9267E+06    -59.6984E+06    -39.8342E+06    -273.478E-03     538.834E-03    -265.356E-03     66.0155E-03    -273.769E-03     538.627E-03    -265.380E-03     72.2734E-03
            1307     6.21002E-03     188.844E-03    -101.215E+06    -52.9571E+06    -33.4746E+06    -38.5072E+06    -277.590E-03     543.943E-03    -266.353E-03     71.5574E-03    -277.816E-03     543.720E-03    -266.297E-03     78.0346E-03
            1308     6.89198E-03     188.934E-03    -80.1560E+06    -40.2793E+06    -9.53056E+06    -35.7052E+06    -282.351E-03     549.901E-03    -267.550E-03     76.2827E-03    -282.521E-03     549.673E-03    -267.423E-03     82.7367E-03
            1309     7.57065E-03     189.033E-03    -61.1991E+06    -23.8291E+06     12.1627E+06    -32.3209E+06    -287.625E-03     556.566E-03    -268.942E-03     80.0539E-03    -287.764E-03     556.370E-03    -268.758E-03     86.1805E-03
            1310     8.24608E-03     189.142E-03    -45.3341E+06    -7.42945E+06     31.3708E+06    -29.8466E+06    -293.413E-03     563.943E-03    -270.531E-03     82.8718E-03    -293.546E-03     563.800E-03    -270.297E-03     88.3326E-03
            1311     8.91735E-03     189.260E-03    -32.7993E+06     9.25268E+06     47.5449E+06    -30.0745E+06    -299.608E-03     571.917E-03    -272.309E-03     84.7279E-03    -299.763E-03     571.852E-03    -272.037E-03     89.1256E-03
            1312     9.58412E-03     189.383E-03    -24.3392E+06     25.4622E+06     59.0654E+06    -31.8335E+06    -305.869E-03     580.124E-03    -274.255E-03     85.4871E-03    -306.076E-03     580.165E-03    -273.961E-03     88.3690E-03
            1313     10.2465E-03     189.510E-03    -19.3269E+06     30.5023E+06     65.4495E+06    -30.6375E+06    -312.094E-03     588.447E-03    -276.353E-03     85.2527E-03    -312.366E-03     588.571E-03    -276.042E-03     86.2074E-03
            1314     10.9044E-03     189.636E-03    -15.2059E+06     36.8802E+06     71.6151E+06    -25.6104E+06    -318.056E-03     596.633E-03    -278.578E-03     83.7179E-03    -318.421E-03     596.870E-03    -278.251E-03     82.2871E-03
            1315     11.5591E-03     189.756E-03    -9.99619E+06     56.1419E+06     80.3867E+06    -19.5804E+06    -323.007E-03     603.883E-03    -280.876E-03     80.1849E-03    -323.513E-03     604.321E-03    -280.541E-03     75.7373E-03
            1316     12.2100E-03     189.868E-03    -3.47854E+06     53.8138E+06     87.5070E+06    -11.0490E+06    -326.005E-03     609.200E-03    -283.195E-03     77.0464E-03    -326.734E-03     609.856E-03    -282.831E-03     67.6425E-03
            1317     12.8620E-03     189.971E-03    -82.0919E+03     37.6857E+06     105.467E+06    -2.58342E+06    -326.740E-03     612.233E-03    -285.493E-03     64.2023E-03    -327.492E-03     612.813E-03    -285.020E-03     52.5864E-03
            1318     695.802E-06     190.095E-03    -186.279E+06    -128.534E+06    -183.321E+06    -11.6225E+06    -259.074E-03     518.056E-03    -258.982E-03     5.34058E-03    -259.553E-03     517.947E-03    -259.442E-03     6.19099E-03
            1319     1.39151E-03     190.107E-03    -181.747E+06    -116.775E+06    -171.685E+06    -21.2297E+06    -259.487E-03     518.639E-03    -259.151E-03     9.91323E-03    -259.976E-03     518.564E-03    -259.577E-03     11.5120E-03
            1320     2.08680E-03     190.128E-03    -175.390E+06    -102.997E+06    -155.182E+06    -31.2821E+06    -260.342E-03     519.787E-03    -259.445E-03     14.7737E-03    -260.840E-03     519.745E-03    -259.817E-03     17.1301E-03
            1321     2.78132E-03     190.158E-03    -166.979E+06    -92.2152E+06    -135.367E+06    -40.6216E+06    -261.717E-03     521.613E-03    -259.896E-03     19.6835E-03    -262.213E-03     521.580E-03    -260.197E-03     22.7761E-03
            1322     3.47465E-03     190.198E-03    -157.079E+06    -82.2294E+06    -114.920E+06    -48.9486E+06    -263.632E-03     524.138E-03    -260.506E-03     24.5662E-03    -264.117E-03     524.106E-03    -260.733E-03     28.3902E-03
            1323     4.16641E-03     190.249E-03    -146.383E+06    -72.7811E+06    -95.2699E+06    -56.0489E+06    -266.122E-03     527.397E-03    -261.276E-03     29.3765E-03    -266.590E-03     527.363E-03    -261.434E-03     33.9300E-03
            1324     4.85606E-03     190.311E-03    -134.496E+06    -62.1759E+06    -76.4182E+06    -61.1144E+06    -269.207E-03     531.417E-03    -262.210E-03     34.1496E-03    -269.653E-03     531.387E-03    -262.307E-03     39.4283E-03
            1325     5.54319E-03     190.386E-03    -121.045E+06    -52.4519E+06    -56.7314E+06    -63.3814E+06    -272.862E-03     536.185E-03    -263.323E-03     39.1010E-03    -273.278E-03     536.150E-03    -263.355E-03     45.0853E-03
            1326     6.22741E-03     190.473E-03    -106.527E+06    -45.1816E+06    -36.4691E+06    -63.8302E+06    -277.098E-03     541.712E-03    -264.613E-03     44.3695E-03    -277.473E-03     541.654E-03    -264.576E-03     50.9409E-03
            1327     6.90827E-03     190.573E-03    -91.1516E+06    -38.1341E+06    -17.2010E+06    -63.0255E+06    -281.890E-03     547.959E-03    -266.069E-03     49.8867E-03    -282.216E-03     547.877E-03    -265.967E-03     56.8822E-03
            1328     7.58576E-03     190.684E-03    -74.7572E+06    -27.5593E+06     1.83208E+06    -59.9582E+06    -287.255E-03     554.942E-03    -267.686E-03     55.3285E-03    -287.532E-03     554.852E-03    -267.529E-03     62.5484E-03
            1329     8.25913E-03     190.805E-03    -57.4929E+06    -13.4939E+06     21.6142E+06    -54.0613E+06    -293.140E-03     562.611E-03    -269.471E-03     60.6170E-03    -293.371E-03     562.529E-03    -269.260E-03     67.7881E-03
            1330     8.92843E-03     190.937E-03    -42.2949E+06     6.56985E+06     41.2458E+06    -46.5744E+06    -299.260E-03     570.667E-03    -271.407E-03     65.5914E-03    -299.468E-03     570.631E-03    -271.149E-03     72.2932E-03
            1331     9.59410E-03     191.074E-03    -31.2313E+06     21.6282E+06     58.9356E+06    -38.4008E+06    -305.571E-03     579.062E-03    -273.491E-03     69.6715E-03    -305.782E-03     579.069E-03    -273.182E-03     75.3405E-03
            1332     10.2561E-03     191.215E-03    -24.0566E+06     22.0765E+06     72.3039E+06    -30.7403E+06    -312.124E-03     587.841E-03    -275.716E-03     72.3540E-03    -312.353E-03     587.855E-03    -275.352E-03     76.3123E-03
            1333     10.9143E-03     191.355E-03    -18.5448E+06     24.4026E+06     79.5062E+06    -24.0951E+06    -318.506E-03     596.543E-03    -278.037E-03     73.0927E-03    -318.788E-03     596.617E-03    -277.648E-03     74.5251E-03
            1334     11.5674E-03     191.491E-03    -15.2724E+06     39.2454E+06     83.3381E+06    -16.0253E+06    -323.977E-03     604.390E-03    -280.413E-03     71.5154E-03    -324.382E-03     604.641E-03    -280.031E-03     69.4792E-03
            1335     12.2172E-03     191.614E-03    -14.7356E+06     33.9555E+06     85.0945E+06    -7.07549E+06    -327.973E-03     610.807E-03    -282.834E-03     70.5894E-03    -328.586E-03     611.243E-03    -282.436E-03     63.4139E-03
            1336     12.8602E-03     191.728E-03    -11.0162E+06     24.2070E+06     102.902E+06    -2.46326E+06    -329.616E-03     614.881E-03    -285.265E-03     60.9636E-03    -330.276E-03     615.290E-03    -284.769E-03     51.2388E-03
            1337     693.561E-06     191.685E-03    -95.0551E+06    -80.3045E+06     -90.434E+06    -11.4603E+06    -264.234E-03     528.216E-03    -263.982E-03    -5.03635E-03    -264.472E-03     528.080E-03    -264.180E-03    -4.55780E-03
            1338     1.38687E-03     191.698E-03    -91.1668E+06    -70.3595E+06    -83.0260E+06    -20.7581E+06    -264.448E-03     528.741E-03    -264.293E-03    -8.80426E-03    -264.696E-03     528.642E-03    -264.474E-03    -8.08407E-03
            1339     2.07951E-03     191.721E-03    -86.0513E+06    -58.2645E+06    -68.7227E+06    -29.8056E+06    -265.289E-03     529.950E-03    -264.661E-03    -12.4110E-03    -265.557E-03     529.891E-03    -264.795E-03    -11.4092E-03
            1340     2.77110E-03     191.754E-03    -79.8041E+06    -50.9228E+06    -51.5952E+06    -37.7499E+06    -266.527E-03     531.760E-03    -265.233E-03    -15.8537E-03    -266.809E-03     531.715E-03    -265.302E-03    -14.5115E-03
            1341     3.46133E-03     191.799E-03    -73.3779E+06    -44.5562E+06    -35.0998E+06    -44.3759E+06    -267.975E-03     533.936E-03    -265.961E-03    -19.0425E-03    -268.273E-03     533.904E-03    -265.965E-03    -17.2745E-03
            1342     4.14997E-03     191.855E-03    -67.5415E+06    -38.9646E+06    -20.2830E+06    -49.7685E+06    -269.559E-03     536.365E-03    -266.806E-03    -21.5738E-03    -269.878E-03     536.353E-03    -266.753E-03    -19.2811E-03
            1343     4.83690E-03     191.923E-03    -62.7984E+06    -34.1026E+06    -7.77901E+06    -53.9160E+06    -271.303E-03     539.048E-03    -267.745E-03    -23.1802E-03    -271.647E-03     539.060E-03    -267.643E-03    -20.2723E-03
            1344     5.52197E-03     192.004E-03    -59.4212E+06    -30.4459E+06     2.28150E+06    -56.8995E+06    -273.178E-03     541.940E-03    -268.762E-03    -23.5599E-03    -273.551E-03     541.979E-03    -268.620E-03    -19.9471E-03
            1345     6.20516E-03     192.099E-03    -57.1367E+06    -27.3849E+06     10.9221E+06    -58.7056E+06    -275.236E-03     545.082E-03    -269.846E-03    -22.3228E-03    -275.640E-03     545.148E-03    -269.669E-03    -17.9457E-03
            1346     6.88633E-03     192.207E-03    -55.6679E+06    -24.5368E+06     19.1094E+06    -59.4092E+06    -277.658E-03     548.657E-03    -270.999E-03    -19.3436E-03    -278.093E-03     548.748E-03    -270.787E-03    -14.1858E-03
            1347     7.56490E-03     192.329E-03    -54.8348E+06    -21.0223E+06     27.1078E+06    -58.8667E+06    -280.583E-03     552.804E-03    -272.222E-03    -14.4098E-03    -281.043E-03     552.917E-03    -271.976E-03    -8.48867E-03
            1348     8.24065E-03     192.462E-03    -54.2402E+06    -15.1043E+06     35.3951E+06    -56.9611E+06    -284.014E-03     557.528E-03    -273.514E-03    -7.37238E-03    -284.491E-03     557.660E-03    -273.237E-03    -836.038E-06
            1349     8.91348E-03     192.605E-03    -52.2268E+06    -4.21182E+06     45.5530E+06    -51.8647E+06    -288.048E-03     562.923E-03    -274.875E-03     1.63324E-03    -288.530E-03     563.079E-03    -274.566E-03     8.57296E-03
            1350     9.58251E-03     192.757E-03    -47.0892E+06     5.80516E+06     59.3584E+06    -43.6696E+06    -292.988E-03     569.318E-03    -276.329E-03     12.4953E-03    -293.453E-03     569.472E-03    -275.972E-03     19.5261E-03
            1351     10.2466E-03     192.913E-03    -38.7058E+06     7.49926E+06     74.0515E+06    -34.9165E+06    -298.909E-03     576.798E-03    -277.889E-03     25.3079E-03    -299.317E-03     576.891E-03    -277.473E-03     31.8677E-03
            1352     10.9052E-03     193.071E-03    -29.9789E+06     9.75981E+06     83.1596E+06    -26.5079E+06    -305.411E-03     584.934E-03    -279.523E-03     39.3304E-03    -305.751E-03     584.970E-03    -279.078E-03     44.5660E-03
            1353     11.5605E-03     193.220E-03    -19.4825E+06     19.5720E+06     91.2358E+06    -18.8702E+06    -312.517E-03     593.772E-03    -281.256E-03     52.6656E-03    -312.819E-03     593.815E-03    -280.800E-03     55.4156E-03
            1354     12.2120E-03     193.358E-03    -8.12550E+06     10.3010E+06     94.4927E+06    -9.94067E+06    -320.182E-03     603.326E-03    -283.144E-03     63.3834E-03    -320.520E-03     603.400E-03    -282.674E-03     61.7143E-03
            1355     12.8664E-03     193.478E-03     695.054E+03     12.5447E+06     105.540E+06    -1.44799E+06    -326.648E-03     611.862E-03    -285.214E-03     59.6128E-03    -327.020E-03     611.976E-03    -284.705E-03     54.9529E-03
            1356     681.026E-06     193.310E-03    -4.51095E+06    -36.4338E+06    -1.37318E+06    -8.89878E+06    -283.002E-03     564.867E-03    -281.864E-03    -18.1204E-03    -282.996E-03     564.659E-03    -281.812E-03    -18.4693E-03
            1357     1.36202E-03     193.324E-03    -4.14411E+06    -29.5462E+06     3.65713E+06    -16.0623E+06    -282.614E-03     565.382E-03    -282.768E-03    -33.1221E-03    -282.619E-03     565.194E-03    -282.701E-03    -33.6747E-03
            1358     2.04250E-03     193.349E-03    -3.41328E+06    -22.6401E+06     13.2154E+06    -21.4270E+06    -282.940E-03     566.178E-03    -283.238E-03    -49.0719E-03    -282.961E-03     566.005E-03    -283.134E-03    -49.7207E-03
            1359     2.72193E-03     193.385E-03    -2.96838E+06    -19.5493E+06     25.0886E+06    -25.2069E+06    -283.087E-03     566.944E-03    -283.857E-03    -64.9809E-03    -283.125E-03     566.767E-03    -283.699E-03    -65.6135E-03
            1360     3.40019E-03     193.431E-03    -2.94584E+06    -16.4987E+06     36.5255E+06    -28.1083E+06    -282.893E-03     567.441E-03    -284.548E-03    -80.3692E-03    -282.954E-03     567.267E-03    -284.338E-03    -80.8975E-03
            1361     4.07750E-03     193.489E-03    -3.43599E+06    -14.4672E+06     46.6843E+06    -30.0405E+06    -282.217E-03     567.481E-03    -285.264E-03    -94.8722E-03    -282.308E-03     567.314E-03    -285.004E-03    -95.1874E-03
            1362     4.75404E-03     193.560E-03    -4.63099E+06    -12.6532E+06     55.3230E+06    -31.1664E+06    -281.021E-03     566.985E-03    -285.964E-03    -108.140E-03    -281.151E-03     566.838E-03    -285.662E-03    -108.136E-03
            1363     5.42992E-03     193.643E-03    -6.41984E+06    -11.2629E+06     62.5222E+06    -31.7006E+06    -279.348E-03     565.975E-03    -286.627E-03    -120.008E-03    -279.527E-03     565.857E-03    -286.288E-03    -119.598E-03
            1364     6.10541E-03     193.739E-03    -8.43554E+06    -10.7630E+06     68.6309E+06    -31.7363E+06    -277.158E-03     564.390E-03    -287.232E-03    -130.066E-03    -277.394E-03     564.311E-03    -286.861E-03    -129.144E-03
            1365     6.78069E-03     193.848E-03    -10.6049E+06    -10.3212E+06     74.0691E+06    -31.2597E+06    -274.457E-03     562.213E-03    -287.757E-03    -137.787E-03    -274.756E-03     562.182E-03    -287.356E-03    -136.280E-03
            1366     7.45627E-03     193.971E-03    -12.7217E+06    -9.27489E+06     79.3453E+06    -30.5430E+06    -271.326E-03     559.498E-03    -288.172E-03    -142.525E-03    -271.689E-03     559.519E-03    -287.743E-03    -140.408E-03
            1367     8.13265E-03     194.106E-03    -14.7036E+06    -7.49017E+06     84.4383E+06    -29.2668E+06    -268.059E-03     556.511E-03    -288.452E-03    -143.627E-03    -268.479E-03     556.585E-03    -287.998E-03    -140.911E-03
            1368     8.80979E-03     194.254E-03    -16.2961E+06    -4.32461E+06     88.9429E+06    -27.6761E+06    -265.072E-03     553.655E-03    -288.583E-03    -140.398E-03    -265.535E-03     553.775E-03    -288.108E-03    -137.113E-03
            1369     9.48816E-03     194.411E-03    -17.4656E+06    -410.319E+03     92.5657E+06    -24.8819E+06    -262.629E-03     551.184E-03    -288.555E-03    -131.876E-03    -263.108E-03     551.333E-03    -288.066E-03    -128.046E-03
            1370     10.1685E-03     194.576E-03    -18.0038E+06     1.13136E+06     95.4697E+06    -21.6910E+06    -261.188E-03     549.560E-03    -288.372E-03    -117.169E-03    -261.638E-03     549.686E-03    -287.870E-03    -112.952E-03
            1371     10.8509E-03     194.744E-03    -17.5845E+06     21.3932E+03     97.5253E+06    -17.5940E+06    -261.775E-03     549.844E-03    -288.069E-03    -96.4570E-03    -262.149E-03     549.897E-03    -287.556E-03    -92.2133E-03
            1372     11.5316E-03     194.912E-03    -14.1926E+06     11.5851E+06     104.463E+06    -15.1203E+06    -265.620E-03     553.359E-03    -287.739E-03    -69.5885E-03    -265.924E-03     553.388E-03    -287.213E-03    -65.9291E-03
            1373     12.2063E-03     195.073E-03    -5.27639E+06    -9.35477E+06     100.406E+06    -11.1703E+06    -273.120E-03     560.591E-03    -287.471E-03    -34.4511E-03    -273.314E-03     560.496E-03    -286.948E-03    -32.7144E-03
            1374     12.8625E-03     195.221E-03     8.06151E+06    -4.08931E+06     91.4934E+06    -2.77711E+06    -282.214E-03     569.482E-03    -287.268E-03     2.69299E-03    -282.343E-03     569.405E-03    -286.816E-03     3.21299E-03
            1375     12.8048E-03     97.0081E-03    -5.71983E+06     78.0497E+06     95.4498E+06    -78.1991E+03    -288.509E-03     578.140E-03    -289.631E-03     59.8838E-03    -289.681E-03     579.292E-03    -289.259E-03     44.3434E-03
            1376     12.1307E-03     96.9073E-03    -10.2374E+06     75.2327E+06     95.6514E+06     620.945E+03    -288.899E-03     578.573E-03    -289.674E-03     72.1301E-03    -290.246E-03     579.874E-03    -289.290E-03     56.0360E-03
            1377     11.4561E-03     96.8037E-03    -16.1030E+06     60.3803E+06     87.3954E+06     1.94584E+06    -289.281E-03     578.977E-03    -289.696E-03     72.9172E-03    -290.450E-03     580.050E-03    -289.323E-03     59.0981E-03
            1378     10.7818E-03     96.6916E-03    -24.0326E+06     50.9516E+06     78.3144E+06     1.64610E+06    -289.540E-03     579.252E-03    -289.712E-03     74.9062E-03    -290.643E-03     580.224E-03    -289.360E-03     62.4268E-03
            1379     10.1075E-03     96.5774E-03    -30.5389E+06     48.2185E+06     71.4624E+06    -607.480E+03    -289.731E-03     579.463E-03    -289.731E-03     73.9057E-03    -290.730E-03     580.317E-03    -289.400E-03     63.0689E-03
            1380     9.43349E-03     96.4640E-03    -36.1344E+06     43.0475E+06     62.1731E+06    -2.06329E+06    -289.917E-03     579.656E-03    -289.739E-03     71.0036E-03    -290.795E-03     580.379E-03    -289.438E-03     61.8195E-03
            1381     8.75906E-03     96.3537E-03    -43.1908E+06     38.6035E+06     53.2962E+06    -2.00233E+06    -290.003E-03     579.748E-03    -289.745E-03     66.9713E-03    -290.780E-03     580.354E-03    -289.472E-03     59.3779E-03
            1382     8.08519E-03     96.2484E-03    -50.9943E+06     15.9413E+06     42.7811E+06    -772.197E+03    -290.007E-03     579.774E-03    -289.768E-03     62.1041E-03    -290.674E-03     580.193E-03    -289.503E-03     55.9822E-03
            1383     7.41117E-03     96.1499E-03    -59.0284E+06    -22.9596E+06     28.8477E+06     277.304E+03    -290.009E-03     579.804E-03    -289.795E-03     56.9145E-03    -290.557E-03     579.977E-03    -289.532E-03     52.1113E-03
            1384     6.73730E-03     96.0581E-03    -67.0880E+06    -57.9869E+06     14.4941E+06     382.886E+03    -289.987E-03     579.799E-03    -289.812E-03     51.7001E-03    -290.438E-03     579.764E-03    -289.558E-03     48.0338E-03
            1385     6.06335E-03     95.9741E-03    -75.3261E+06    -87.4627E+06    -112.333E+03     283.455E+03    -289.940E-03     579.757E-03    -289.817E-03     46.3708E-03    -290.317E-03     579.557E-03    -289.582E-03     43.6695E-03
            1386     5.38968E-03     95.8982E-03    -83.7113E+06    -114.010E+06    -15.6754E+06     210.626E+03    -289.850E-03     579.662E-03    -289.813E-03     41.0029E-03    -290.168E-03     579.324E-03    -289.604E-03     39.1146E-03
            1387     4.71588E-03     95.8308E-03    -92.4907E+06    -138.715E+06    -32.3369E+06     104.817E+03    -289.746E-03     579.549E-03    -289.803E-03     35.6302E-03    -290.019E-03     579.095E-03    -289.629E-03     34.3904E-03
            1388     4.04208E-03     95.7727E-03    -101.222E+06    -164.181E+06    -50.0326E+06     102.099E+03    -289.691E-03     579.482E-03    -289.791E-03     30.3068E-03    -289.923E-03     578.918E-03    -289.657E-03     29.5679E-03
            1389     3.36826E-03     95.7232E-03    -109.343E+06    -185.877E+06    -68.6488E+06     127.581E+03    -289.650E-03     579.418E-03    -289.768E-03     25.0792E-03    -289.850E-03     578.770E-03    -289.683E-03     24.7070E-03
            1390     2.69452E-03     95.6827E-03    -116.799E+06    -204.244E+06    -87.4360E+06     139.932E+03    -289.626E-03     579.365E-03    -289.738E-03     19.9406E-03    -289.800E-03     578.652E-03    -289.710E-03     19.8058E-03
            1391     2.02086E-03     95.6511E-03    -123.355E+06    -223.477E+06    -105.087E+06     105.308E+03    -289.635E-03     579.346E-03    -289.711E-03     14.8775E-03    -289.782E-03     578.566E-03    -289.733E-03     14.8661E-03
            1392     1.34724E-03     95.6286E-03    -128.529E+06    -238.821E+06    -119.696E+06    -1.84039E+03    -289.650E-03     579.334E-03    -289.684E-03     9.97936E-03    -289.775E-03     578.502E-03    -289.750E-03     10.0160E-03
            1393     673.610E-06     95.6147E-03    -132.008E+06    -249.272E+06    -129.638E+06    -13.9502E+03    -289.693E-03     579.323E-03    -289.630E-03     5.42210E-03    -289.805E-03     578.457E-03    -289.725E-03     5.45871E-03
            1394     12.8047E-03     95.3168E-03    -4.56969E+06     78.5653E+06     96.0943E+06    -1.03087E+06    -288.723E-03     578.361E-03    -289.638E-03     59.6489E-03    -289.891E-03     579.514E-03    -289.265E-03     44.0552E-03
            1395     12.1304E-03     95.2161E-03    -9.68644E+06     70.5939E+06     94.4126E+06     190.649E+03    -288.925E-03     578.600E-03    -289.675E-03     72.3747E-03    -290.263E-03     579.881E-03    -289.291E-03     56.2828E-03
            1396     11.4564E-03     95.1130E-03    -16.0170E+06     55.7230E+06     87.0323E+06     3.05776E+06    -289.224E-03     578.928E-03    -289.705E-03     73.2758E-03    -290.386E-03     579.979E-03    -289.327E-03     59.4997E-03
            1397     10.7819E-03     95.0014E-03    -21.7475E+06     58.1349E+06     81.8538E+06     3.01261E+06    -289.520E-03     579.243E-03    -289.723E-03     74.9235E-03    -290.626E-03     580.241E-03    -289.367E-03     62.4835E-03
            1398     10.1074E-03     94.8864E-03    -28.9307E+06     55.3215E+06     72.0683E+06    -136.678E+03    -289.820E-03     579.545E-03    -289.726E-03     73.5203E-03    -290.818E-03     580.429E-03    -289.404E-03     62.6962E-03
            1399     9.43308E-03     94.7726E-03    -37.0808E+06     42.7838E+06     59.5311E+06    -1.56459E+06    -290.070E-03     579.792E-03    -289.722E-03     70.4805E-03    -290.946E-03     580.516E-03    -289.432E-03     61.2927E-03
            1400     8.75947E-03     94.6621E-03    -44.9075E+06     36.8818E+06     51.0048E+06    -1.06656E+06    -290.099E-03     579.819E-03    -289.721E-03     66.4240E-03    -290.878E-03     580.422E-03    -289.454E-03     58.8055E-03
            1401     8.08539E-03     94.5570E-03    -53.0285E+06     13.6715E+06     40.6954E+06    -881.476E+03    -290.053E-03     579.789E-03    -289.735E-03     61.7337E-03    -290.725E-03     580.202E-03    -289.475E-03     55.5735E-03
            1402     7.41157E-03     94.4584E-03    -60.5297E+06    -24.1729E+06     27.7469E+06    -678.871E+03    -290.039E-03     579.796E-03    -289.757E-03     56.7457E-03    -290.591E-03     579.968E-03    -289.496E-03     51.9044E-03
            1403     6.73767E-03     94.3669E-03    -68.0379E+06    -58.1831E+06     14.2009E+06    -322.582E+03    -289.960E-03     579.731E-03    -289.771E-03     51.6635E-03    -290.415E-03     579.697E-03    -289.517E-03     47.9661E-03
            1404     6.06386E-03     94.2828E-03    -75.9935E+06    -87.4624E+06    -54.8465E+03    -123.193E+03    -289.838E-03     579.618E-03    -289.780E-03     46.4817E-03    -290.219E-03     579.418E-03    -289.543E-03     43.7657E-03
            1405     5.38987E-03     94.2071E-03    -84.3364E+06    -113.947E+06    -15.5778E+06    -32.1834E+03    -289.719E-03     579.504E-03    -289.785E-03     41.1813E-03    -290.041E-03     579.167E-03    -289.575E-03     39.2836E-03
            1406     4.71588E-03     94.1401E-03    -93.0177E+06    -138.795E+06    -32.4769E+06    -116.864E+03    -289.656E-03     579.443E-03    -289.786E-03     35.8437E-03    -289.932E-03     578.989E-03    -289.613E-03     34.6049E-03
            1407     4.04200E-03     94.0815E-03    -101.334E+06    -164.180E+06    -50.1080E+06    -248.126E+03    -289.664E-03     579.445E-03    -289.782E-03     30.4529E-03    -289.897E-03     578.881E-03    -289.647E-03     29.7151E-03
            1408     3.36832E-03     94.0323E-03    -109.282E+06    -185.866E+06    -68.6784E+06    -282.308E+03    -289.641E-03     579.402E-03    -289.761E-03     25.1694E-03    -289.841E-03     578.753E-03    -289.676E-03     24.7972E-03
            1409     2.69456E-03     93.9916E-03    -116.897E+06    -204.465E+06    -87.5332E+06    -290.528E+03    -289.606E-03     579.339E-03    -289.734E-03     20.0207E-03    -289.779E-03     578.626E-03    -289.706E-03     19.8865E-03
            1410     2.02086E-03     93.9601E-03    -123.494E+06    -223.532E+06    -105.119E+06    -213.030E+03    -289.619E-03     579.330E-03    -289.712E-03     14.9489E-03    -289.766E-03     578.551E-03    -289.734E-03     14.9407E-03
            1411     1.34719E-03     93.9375E-03    -128.739E+06    -238.956E+06    -119.821E+06    -95.4159E+03    -289.646E-03     579.337E-03    -289.691E-03     10.0418E-03    -289.773E-03     578.506E-03    -289.757E-03     10.0811E-03
            1412     673.601E-06     93.9238E-03    -132.080E+06    -249.381E+06    -129.672E+06    -7.68130E+03    -289.687E-03     579.342E-03    -289.655E-03     5.48485E-03    -289.799E-03     578.476E-03    -289.750E-03     5.51985E-03
            1413     12.8048E-03     93.6255E-03    -6.20979E+06     78.3605E+06     95.0349E+06    -276.458E+03    -288.482E-03     578.135E-03    -289.653E-03     60.1181E-03    -289.658E-03     579.292E-03    -289.282E-03     44.5860E-03
            1414     12.1305E-03     93.5258E-03    -12.7222E+06     66.8313E+06     91.8468E+06     82.6103E+03    -288.988E-03     578.684E-03    -289.696E-03     72.7461E-03    -290.335E-03     579.956E-03    -289.315E-03     56.6662E-03
            1415     11.4556E-03     93.4223E-03    -17.1003E+06     53.3288E+06     87.0137E+06    -628.939E+03    -289.553E-03     579.275E-03    -289.723E-03     73.2846E-03    -290.719E-03     580.318E-03    -289.340E-03     59.4220E-03
            1416     10.7816E-03     93.3099E-03    -21.2891E+06     58.3808E+06     84.1444E+06     88.0114E+03    -289.881E-03     579.606E-03    -289.725E-03     74.6586E-03    -290.988E-03     580.601E-03    -289.358E-03     62.1492E-03
            1417     10.1078E-03     93.1952E-03    -26.9825E+06     57.8120E+06     74.6270E+06     2.34382E+06    -290.087E-03     579.788E-03    -289.701E-03     73.1674E-03    -291.081E-03     580.675E-03    -289.373E-03     62.3696E-03
            1418     9.43415E-03     93.0811E-03    -34.6642E+06     44.7728E+06     61.2573E+06     2.57562E+06    -290.142E-03     579.820E-03    -289.678E-03     70.1325E-03    -291.010E-03     580.546E-03    -289.386E-03     60.9942E-03
            1419     8.75989E-03     92.9706E-03    -43.1152E+06     38.4510E+06     52.2341E+06     966.481E+03    -290.006E-03     579.679E-03    -289.673E-03     66.2413E-03    -290.781E-03     580.285E-03    -289.405E-03     58.6355E-03
            1420     8.08597E-03     92.8658E-03    -50.8444E+06     14.8244E+06     42.2518E+06    -336.429E+03    -289.914E-03     579.609E-03    -289.695E-03     61.7759E-03    -290.579E-03     580.023E-03    -289.431E-03     55.6221E-03
            1421     7.41184E-03     92.7671E-03    -59.0555E+06    -24.7068E+06     28.5866E+06    -923.408E+03    -289.885E-03     579.612E-03    -289.727E-03     56.9499E-03    -290.431E-03     579.778E-03    -289.463E-03     52.1114E-03
            1422     6.73789E-03     92.6758E-03    -67.5469E+06    -58.9666E+06     14.4874E+06    -1.08774E+06    -289.821E-03     579.574E-03    -289.753E-03     51.9893E-03    -290.274E-03     579.536E-03    -289.497E-03     48.2826E-03
            1423     6.06377E-03     92.5919E-03    -75.9687E+06    -88.2322E+06     123.141E+03    -877.045E+03    -289.728E-03     579.504E-03    -289.775E-03     46.8135E-03    -290.109E-03     579.301E-03    -289.537E-03     44.0933E-03
            1424     5.38974E-03     92.5163E-03    -84.3410E+06    -114.529E+06    -15.2364E+06    -508.196E+03    -289.682E-03     579.473E-03    -289.791E-03     41.3994E-03    -290.003E-03     579.133E-03    -289.579E-03     39.5070E-03
            1425     4.71586E-03     92.4490E-03    -92.2255E+06    -138.423E+06    -31.8142E+06    -383.051E+03    -289.670E-03     579.464E-03    -289.795E-03     35.9403E-03    -289.942E-03     579.010E-03    -289.619E-03     34.7160E-03
            1426     4.04205E-03     92.3905E-03    -100.453E+06    -164.038E+06    -49.6423E+06    -485.213E+03    -289.640E-03     579.432E-03    -289.792E-03     30.5165E-03    -289.869E-03     578.867E-03    -289.657E-03     29.7927E-03
            1427     3.36820E-03     92.3411E-03    -108.844E+06    -186.251E+06    -68.4093E+06    -478.384E+03    -289.634E-03     579.412E-03    -289.778E-03     25.2430E-03    -289.831E-03     578.760E-03    -289.692E-03     24.8748E-03
            1428     2.69451E-03     92.3007E-03    -116.466E+06    -204.741E+06    -87.3403E+06    -402.460E+03    -289.628E-03     579.381E-03    -289.753E-03     20.0799E-03    -289.800E-03     578.666E-03    -289.724E-03     19.9463E-03
            1429     2.02079E-03     92.2691E-03    -123.291E+06    -224.009E+06    -105.072E+06    -318.260E+03    -289.628E-03     579.361E-03    -289.733E-03     14.9943E-03    -289.774E-03     578.578E-03    -289.754E-03     14.9898E-03
            1430     1.34717E-03     92.2465E-03    -128.632E+06    -239.412E+06    -119.759E+06    -182.796E+03    -289.660E-03     579.377E-03    -289.717E-03     10.0565E-03    -289.785E-03     578.543E-03    -289.783E-03     10.0976E-03
            1431     673.542E-06     92.2326E-03    -131.903E+06    -249.683E+06    -129.592E+06    -131.350E+03    -289.699E-03     579.402E-03    -289.703E-03     5.47508E-03    -289.810E-03     578.534E-03    -289.798E-03     5.50493E-03
            1432     12.8037E-03     91.9357E-03    -5.18393E+06     77.0667E+06     94.4417E+06     1.08664E+06    -288.642E-03     578.311E-03    -289.669E-03     59.8017E-03    -289.804E-03     579.455E-03    -289.301E-03     44.3197E-03
            1433     12.1292E-03     91.8340E-03    -9.78495E+06     71.6210E+06     94.5488E+06    -475.137E+03    -289.359E-03     579.061E-03    -289.702E-03     72.0652E-03    -290.697E-03     580.344E-03    -289.319E-03     55.9329E-03
            1434     11.4563E-03     91.7303E-03    -15.7211E+06     56.3372E+06     87.1254E+06    -3.27589E+06    -289.852E-03     579.552E-03    -289.700E-03     72.6426E-03    -291.016E-03     580.607E-03    -289.323E-03     58.6565E-03
            1435     10.7825E-03     91.6186E-03    -21.8433E+06     49.5735E+06     80.2368E+06    -2.50305E+06    -290.064E-03     579.749E-03    -289.685E-03     74.3776E-03    -291.155E-03     580.706E-03    -289.324E-03     61.8077E-03
            1436     10.1084E-03     91.5033E-03    -27.5168E+06     51.7738E+06     74.5089E+06     820.916E+03    -290.079E-03     579.746E-03    -289.668E-03     73.2200E-03    -291.067E-03     580.605E-03    -289.330E-03     62.4028E-03
            1437     9.43432E-03     91.3896E-03    -33.2850E+06     45.9555E+06     64.2341E+06     2.56688E+06    -289.991E-03     579.642E-03    -289.650E-03     70.4898E-03    -290.860E-03     580.369E-03    -289.348E-03     61.3587E-03
            1438     8.76043E-03     91.2798E-03    -39.6455E+06     41.9084E+06     55.9477E+06     2.50623E+06    -289.856E-03     579.510E-03    -289.653E-03     66.7178E-03    -290.625E-03     580.124E-03    -289.377E-03     59.1516E-03
            1439     8.08604E-03     91.1748E-03    -47.7155E+06     17.8652E+06     45.4490E+06     1.80330E+06    -289.763E-03     579.450E-03    -289.687E-03     62.1765E-03    -290.421E-03     579.871E-03    -289.417E-03     56.0785E-03
            1440     7.41190E-03     91.0764E-03    -56.6302E+06    -22.8804E+06     30.8196E+06     772.074E+03    -289.722E-03     579.455E-03    -289.733E-03     57.2765E-03    -290.261E-03     579.623E-03    -289.464E-03     52.4875E-03
            1441     6.73759E-03     90.9850E-03    -65.5438E+06    -58.5150E+06     15.8071E+06    -56.5579E+03    -289.729E-03     579.501E-03    -289.772E-03     52.2051E-03    -290.174E-03     579.460E-03    -289.513E-03     48.5372E-03
            1442     6.06358E-03     90.9011E-03    -74.0209E+06    -88.4508E+06     967.348E+03    -406.658E+03    -289.754E-03     579.554E-03    -289.800E-03     46.8867E-03    -290.125E-03     579.345E-03    -289.560E-03     44.1868E-03
            1443     5.38964E-03     90.8254E-03    -82.2144E+06    -114.784E+06    -14.3887E+06    -581.156E+03    -289.746E-03     579.560E-03    -289.814E-03     41.4679E-03    -290.057E-03     579.214E-03    -289.601E-03     39.5933E-03
            1444     4.71579E-03     90.7579E-03    -91.0974E+06    -138.859E+06    -31.1636E+06    -504.921E+03    -289.694E-03     579.511E-03    -289.817E-03     36.0137E-03    -289.961E-03     579.052E-03    -289.639E-03     34.7952E-03
            1445     4.04190E-03     90.6997E-03    -99.9444E+06    -164.256E+06    -49.1441E+06    -247.525E+03    -289.650E-03     579.466E-03    -289.816E-03     30.5849E-03    -289.877E-03     578.898E-03    -289.679E-03     29.8687E-03
            1446     3.36813E-03     90.6500E-03    -108.272E+06    -186.460E+06    -67.9550E+06    -210.621E+03    -289.642E-03     579.447E-03    -289.805E-03     25.2765E-03    -289.837E-03     578.792E-03    -289.717E-03     24.9185E-03
            1447     2.69439E-03     90.6095E-03    -116.200E+06    -205.161E+06    -87.0383E+06    -176.508E+03    -289.652E-03     579.435E-03    -289.783E-03     20.0713E-03    -289.822E-03     578.716E-03    -289.752E-03     19.9404E-03
            1448     2.02076E-03     90.5780E-03    -122.984E+06    -224.321E+06    -104.787E+06    -70.0788E+03    -289.671E-03     579.431E-03    -289.761E-03     14.9978E-03    -289.815E-03     578.646E-03    -289.781E-03     14.9996E-03
            1449     1.34712E-03     90.5554E-03    -128.221E+06    -239.726E+06    -119.415E+06    -90.4305E+03    -289.692E-03     579.433E-03    -289.741E-03     10.0690E-03    -289.815E-03     578.596E-03    -289.805E-03     10.1172E-03
            1450     673.578E-06     90.5414E-03    -131.735E+06    -250.087E+06    -129.385E+06    -80.3398E+03    -289.731E-03     579.445E-03    -289.714E-03     5.46626E-03    -289.840E-03     578.574E-03    -289.808E-03     5.50231E-03
            1451     12.8045E-03     90.2439E-03    -5.28303E+06     77.1372E+06     93.8238E+06     12.5476E+03    -288.999E-03     578.636E-03    -289.637E-03     58.9917E-03    -290.153E-03     579.774E-03    -289.272E-03     43.4921E-03
            1452     12.1314E-03     90.1418E-03    -10.6761E+06     75.9470E+06     94.7129E+06    -966.196E+03    -289.326E-03     578.983E-03    -289.657E-03     71.6916E-03    -290.671E-03     580.285E-03    -289.278E-03     55.5551E-03
            1453     11.4565E-03     90.0390E-03    -16.3365E+06     60.4694E+06     86.4172E+06    -2.52185E+06    -289.651E-03     579.305E-03    -289.654E-03     72.7381E-03    -290.821E-03     580.381E-03    -289.286E-03     58.7958E-03
            1454     10.7827E-03     89.9265E-03    -22.4962E+06     43.5344E+06     76.8408E+06    -3.00636E+06    -289.887E-03     579.538E-03    -289.651E-03     74.7837E-03    -290.968E-03     580.471E-03    -289.298E-03     62.2391E-03
            1455     10.1087E-03     89.8124E-03    -28.9621E+06     44.9984E+06     71.9801E+06    -1.72220E+06    -289.847E-03     579.502E-03    -289.655E-03     73.7728E-03    -290.832E-03     580.335E-03    -289.318E-03     62.9356E-03
            1456     9.43441E-03     89.6989E-03    -35.1276E+06     44.0676E+06     63.1586E+06    -368.126E+03    -289.792E-03     579.447E-03    -289.655E-03     70.9936E-03    -290.667E-03     580.171E-03    -289.352E-03     61.8480E-03
            1457     8.75989E-03     89.5888E-03    -41.5666E+06     40.1097E+06     55.2482E+06     1.19677E+06    -289.757E-03     579.430E-03    -289.673E-03     67.1140E-03    -290.531E-03     580.039E-03    -289.395E-03     59.5652E-03
            1458     8.08582E-03     89.4840E-03    -48.6680E+06     19.1731E+06     45.7591E+06     2.52906E+06    -289.729E-03     579.443E-03    -289.714E-03     62.4280E-03    -290.395E-03     579.872E-03    -289.443E-03     56.3529E-03
            1459     7.41149E-03     89.3858E-03    -56.4035E+06    -19.3584E+06     31.8787E+06     2.13041E+06    -289.747E-03     579.509E-03    -289.762E-03     57.3850E-03    -290.292E-03     579.693E-03    -289.493E-03     52.6275E-03
            1460     6.73746E-03     89.2941E-03    -64.4173E+06    -56.5316E+06     16.7376E+06     1.13408E+06    -289.786E-03     579.586E-03    -289.800E-03     52.2137E-03    -290.229E-03     579.551E-03    -289.541E-03     48.5855E-03
            1461     6.06341E-03     89.2101E-03    -72.8287E+06    -87.3789E+06     1.57615E+06     436.022E+03    -289.797E-03     579.623E-03    -289.826E-03     46.8838E-03    -290.164E-03     579.417E-03    -289.586E-03     44.2096E-03
            1462     5.38953E-03     89.1341E-03    -81.8723E+06    -114.661E+06    -14.2515E+06     188.962E+03    -289.760E-03     579.600E-03    -289.841E-03     41.4855E-03    -290.070E-03     579.254E-03    -289.627E-03     39.6233E-03
            1463     4.71559E-03     89.0670E-03    -91.0699E+06    -139.347E+06    -31.1333E+06     200.498E+03    -289.707E-03     579.553E-03    -289.846E-03     36.0318E-03    -289.973E-03     579.092E-03    -289.668E-03     34.8193E-03
            1464     4.04180E-03     89.0084E-03    -99.8918E+06    -164.499E+06    -48.9421E+06     240.212E+03    -289.695E-03     579.541E-03    -289.846E-03     30.5994E-03    -289.922E-03     578.971E-03    -289.707E-03     29.8900E-03
            1465     3.36806E-03     88.9590E-03    -108.240E+06    -186.386E+06    -67.7723E+06     314.102E+03    -289.679E-03     579.510E-03    -289.832E-03     25.2818E-03    -289.873E-03     578.856E-03    -289.743E-03     24.9347E-03
            1466     2.69434E-03     88.9183E-03    -116.042E+06    -205.074E+06    -86.9311E+06     228.527E+03    -289.669E-03     579.478E-03    -289.809E-03     20.0805E-03    -289.838E-03     578.759E-03    -289.778E-03     19.9595E-03
            1467     2.02068E-03     88.8868E-03    -122.890E+06    -224.286E+06    -104.708E+06     123.444E+03    -289.699E-03     579.488E-03    -289.788E-03     15.0042E-03    -289.843E-03     578.703E-03    -289.809E-03     15.0097E-03
            1468     1.34712E-03     88.8641E-03    -128.215E+06    -239.746E+06    -119.368E+06     98.1492E+03    -289.725E-03     579.493E-03    -289.767E-03     10.0883E-03    -289.849E-03     578.655E-03    -289.830E-03     10.1416E-03
            1469     673.518E-06     88.8502E-03    -131.643E+06    -250.109E+06    -129.249E+06     76.3170E+03    -289.765E-03     579.494E-03    -289.728E-03     5.48449E-03    -289.874E-03     578.622E-03    -289.821E-03     5.52727E-03
            1470     12.8057E-03     88.5520E-03    -4.98181E+06     78.7704E+06     94.2867E+06    -523.300E+03    -288.920E-03     578.517E-03    -289.597E-03     59.6198E-03    -290.079E-03     579.665E-03    -289.233E-03     44.1591E-03
            1471     12.1306E-03     88.4514E-03    -10.1215E+06     76.2116E+06     95.3342E+06    -1.30026E+06    -289.070E-03     578.698E-03    -289.628E-03     72.2840E-03    -290.416E-03     580.002E-03    -289.247E-03     56.1856E-03
            1472     11.4570E-03     88.3474E-03    -16.3708E+06     62.1257E+06     87.1485E+06    -1.14779E+06    -289.284E-03     578.927E-03    -289.643E-03     73.1462E-03    -290.457E-03     580.010E-03    -289.273E-03     59.2942E-03
            1473     10.7826E-03     88.2361E-03    -24.0755E+06     44.0149E+06     75.5911E+06    -1.79417E+06    -289.554E-03     579.210E-03    -289.656E-03     75.1475E-03    -290.643E-03     580.151E-03    -289.307E-03     62.6605E-03
            1474     10.1080E-03     88.1214E-03    -31.3111E+06     42.1388E+06     69.0644E+06    -2.39222E+06    -289.726E-03     579.401E-03    -289.674E-03     74.0466E-03    -290.715E-03     580.228E-03    -289.345E-03     63.2166E-03
            1475     9.43382E-03     88.0081E-03    -37.8209E+06     41.3340E+06     60.6294E+06    -1.52279E+06    -289.784E-03     579.468E-03    -289.683E-03     71.1251E-03    -290.665E-03     580.185E-03    -289.385E-03     61.9785E-03
            1476     8.75975E-03     87.8980E-03    -44.9227E+06     36.8079E+06     52.3702E+06    -641.985E+03    -289.761E-03     579.465E-03    -289.704E-03     67.1310E-03    -290.542E-03     580.066E-03    -289.431E-03     59.5717E-03
            1477     8.08532E-03     87.7931E-03    -52.1151E+06     17.4637E+06     43.1063E+06    -209.599E+03    -289.781E-03     579.525E-03    -289.744E-03     62.3812E-03    -290.457E-03     579.953E-03    -289.478E-03     56.2681E-03
            1478     7.41134E-03     87.6947E-03    -58.7534E+06    -18.5261E+06     30.5592E+06     533.876E+03    -289.849E-03     579.636E-03    -289.788E-03     57.3257E-03    -290.405E-03     579.830E-03    -289.523E-03     52.5377E-03
            1479     6.73727E-03     87.6030E-03    -66.1689E+06    -55.2966E+06     16.0190E+06     898.671E+03    -289.846E-03     579.667E-03    -289.821E-03     52.1826E-03    -290.298E-03     579.642E-03    -289.565E-03     48.5448E-03
            1480     6.06332E-03     87.5190E-03    -74.7712E+06    -86.7578E+06     828.024E+03     947.379E+03    -289.796E-03     579.642E-03    -289.846E-03     46.8784E-03    -290.172E-03     579.443E-03    -289.608E-03     44.2119E-03
            1481     5.38932E-03     87.4431E-03    -83.4230E+06    -114.206E+06    -14.9477E+06     942.215E+03    -289.761E-03     579.624E-03    -289.863E-03     41.4405E-03    -290.078E-03     579.283E-03    -289.651E-03     39.5847E-03
            1482     4.71550E-03     87.3757E-03    -91.8633E+06    -138.721E+06    -31.8145E+06     668.637E+03    -289.735E-03     579.603E-03    -289.867E-03     35.9809E-03    -290.006E-03     579.147E-03    -289.692E-03     34.7785E-03
            1483     4.04167E-03     87.3172E-03    -100.419E+06    -164.361E+06    -49.6027E+06     393.014E+03    -289.721E-03     579.587E-03    -289.866E-03     30.5601E-03    -289.949E-03     579.019E-03    -289.730E-03     29.8573E-03
            1484     3.36794E-03     87.2676E-03    -108.742E+06    -186.234E+06    -68.1250E+06     317.604E+03    -289.701E-03     579.554E-03    -289.853E-03     25.2470E-03    -289.898E-03     578.901E-03    -289.766E-03     24.8965E-03
            1485     2.69427E-03     87.2271E-03    -116.520E+06    -204.638E+06    -87.1612E+06     338.906E+03    -289.688E-03     579.518E-03    -289.830E-03     20.0717E-03    -289.860E-03     578.803E-03    -289.800E-03     19.9546E-03
            1486     2.02064E-03     87.1954E-03    -123.266E+06    -223.961E+06    -104.940E+06     305.640E+03    -289.712E-03     579.523E-03    -289.811E-03     14.9983E-03    -289.858E-03     578.740E-03    -289.832E-03     15.0108E-03
            1487     1.34703E-03     87.1728E-03    -128.542E+06    -239.476E+06    -119.656E+06     193.407E+03    -289.749E-03     579.539E-03    -289.790E-03     10.0687E-03    -289.874E-03     578.704E-03    -289.855E-03     10.1245E-03
            1488     673.542E-06     87.1588E-03    -131.844E+06    -249.796E+06    -129.512E+06     100.261E+03    -289.785E-03     579.539E-03    -289.754E-03     5.46645E-03    -289.895E-03     578.670E-03    -289.848E-03     5.50858E-03
            1489     12.8047E-03     86.8612E-03      -4.371E+06     80.1126E+06     95.7491E+06    -697.149E+03    -288.715E-03     578.313E-03    -289.598E-03     59.9694E-03    -289.879E-03     579.468E-03    -289.229E-03     44.5055E-03
            1490     12.1316E-03     86.7597E-03    -10.7947E+06     75.1973E+06     95.8974E+06    -586.514E+03    -288.882E-03     578.523E-03    -289.641E-03     72.5240E-03    -290.235E-03     579.826E-03    -289.255E-03     56.4263E-03
            1491     11.4565E-03     86.6576E-03    -17.3300E+06     61.9237E+06     87.4609E+06     188.523E+03    -289.151E-03     578.815E-03    -289.664E-03     73.4115E-03    -290.329E-03     579.898E-03    -289.291E-03     59.6112E-03
            1492     10.7820E-03     86.5453E-03    -23.0779E+06     46.5944E+06     76.7356E+06     164.753E+03    -289.516E-03     579.198E-03    -289.682E-03     75.1267E-03    -290.603E-03     580.145E-03    -289.332E-03     62.7048E-03
            1493     10.1079E-03     86.4307E-03    -30.3084E+06     42.9835E+06     69.2270E+06    -610.956E+03    -289.732E-03     579.432E-03    -289.700E-03     73.7896E-03    -290.715E-03     580.260E-03    -289.372E-03     62.9950E-03
            1494     9.43364E-03     86.3172E-03    -38.4853E+06     40.2647E+06     59.6319E+06    -1.51578E+06    -289.829E-03     579.537E-03    -289.708E-03     70.8730E-03    -290.710E-03     580.251E-03    -289.412E-03     61.7076E-03
            1495     8.75930E-03     86.2070E-03    -45.3339E+06     36.2125E+06     51.4347E+06    -2.00533E+06    -289.830E-03     579.554E-03    -289.724E-03     66.9437E-03    -290.612E-03     580.155E-03    -289.454E-03     59.3412E-03
            1496     8.08533E-03     86.1021E-03    -52.4843E+06     15.6245E+06     41.6225E+06    -1.97593E+06    -289.834E-03     579.593E-03    -289.759E-03     62.2703E-03    -290.507E-03     580.014E-03    -289.497E-03     56.1298E-03
            1497     7.41114E-03     86.0034E-03    -60.6445E+06    -21.4372E+06     28.4566E+06    -1.23424E+06    -289.874E-03     579.676E-03    -289.801E-03     57.2521E-03    -290.433E-03     579.860E-03    -289.540E-03     52.4290E-03
            1498     6.73720E-03     85.9119E-03    -68.7863E+06    -56.6037E+06     14.3209E+06    -25.3480E+03    -289.868E-03     579.702E-03    -289.834E-03     52.1035E-03    -290.330E-03     579.677E-03    -289.580E-03     48.4316E-03
            1499     6.06316E-03     85.8278E-03    -76.4321E+06    -86.6168E+06    -163.534E+03     511.824E+03    -289.823E-03     579.679E-03    -289.856E-03     46.7813E-03    -290.206E-03     579.484E-03    -289.620E-03     44.1029E-03
            1500     5.38931E-03     85.7519E-03    -84.5119E+06    -113.708E+06    -15.7783E+06     325.943E+03    -289.779E-03     579.649E-03    -289.869E-03     41.3432E-03    -290.101E-03     579.313E-03    -289.661E-03     39.4804E-03
            1501     4.71542E-03     85.6845E-03    -92.8157E+06    -138.220E+06    -32.4648E+06     257.808E+03    -289.749E-03     579.622E-03    -289.873E-03     35.8928E-03    -290.023E-03     579.170E-03    -289.700E-03     34.6865E-03
            1502     4.04167E-03     85.6259E-03    -101.258E+06    -163.881E+06    -50.2730E+06     180.089E+03    -289.728E-03     579.598E-03    -289.870E-03     30.4652E-03    -289.960E-03     579.035E-03    -289.737E-03     29.7569E-03
            1503     3.36794E-03     85.5764E-03    -109.671E+06    -186.212E+06    -69.0163E+06     64.1866E+03    -289.704E-03     579.560E-03    -289.855E-03     25.1570E-03    -289.905E-03     578.910E-03    -289.771E-03     24.8007E-03
            1504     2.69424E-03     85.5357E-03    -117.291E+06    -204.616E+06    -87.8860E+06     139.616E+03    -289.701E-03     579.532E-03    -289.831E-03     19.9872E-03    -289.876E-03     578.819E-03    -289.804E-03     19.8692E-03
            1505     2.02061E-03     85.5041E-03    -123.906E+06    -223.680E+06    -105.548E+06     167.978E+03    -289.723E-03     579.530E-03    -289.807E-03     14.9241E-03    -289.871E-03     578.751E-03    -289.831E-03     14.9365E-03
            1506     1.34707E-03     85.4813E-03    -128.995E+06    -239.102E+06    -120.125E+06     116.655E+03    -289.743E-03     579.528E-03    -289.785E-03     10.0046E-03    -289.870E-03     578.696E-03    -289.851E-03     10.0587E-03
            1507     673.502E-06     85.4674E-03    -132.365E+06    -249.501E+06    -129.994E+06     35.7161E+03    -289.776E-03     579.528E-03    -289.752E-03     5.42691E-03    -289.888E-03     578.662E-03    -289.848E-03     5.46545E-03
            1508     12.8056E-03     85.1696E-03    -4.88146E+06     80.0834E+06     96.2976E+06     267.819E+03    -288.564E-03     578.183E-03    -289.620E-03     60.0477E-03    -289.735E-03     579.342E-03    -289.247E-03     44.5523E-03
            1509     12.1300E-03     85.0700E-03    -10.8670E+06     74.9162E+06     95.8364E+06     560.786E+03    -288.804E-03     578.471E-03    -289.667E-03     72.5994E-03    -290.157E-03     579.773E-03    -289.280E-03     56.5336E-03
            1510     11.4561E-03     84.9664E-03    -17.2544E+06     62.7364E+06     87.9027E+06    -38.2645E+03    -289.330E-03     579.018E-03    -289.689E-03     73.2900E-03    -290.508E-03     580.104E-03    -289.315E-03     59.4844E-03
            1511     10.7822E-03     84.8546E-03    -23.9471E+06     46.8018E+06     77.4510E+06    -390.423E+03    -289.676E-03     579.376E-03    -289.700E-03     74.8958E-03    -290.768E-03     580.324E-03    -289.346E-03     62.4383E-03
            1512     10.1077E-03     84.7397E-03    -30.0759E+06     43.5327E+06     70.5342E+06    -202.501E+03    -289.785E-03     579.497E-03    -289.712E-03     73.5860E-03    -290.769E-03     580.324E-03    -289.379E-03     62.7878E-03
            1513     9.43355E-03     84.6261E-03    -36.2587E+06     42.2643E+06     61.0555E+06    -515.051E+03    -289.843E-03     579.555E-03    -289.713E-03     70.6673E-03    -290.717E-03     580.274E-03    -289.416E-03     61.5062E-03
            1514     8.75953E-03     84.5160E-03    -44.2141E+06     37.1736E+06     51.6428E+06    -1.35819E+06    -289.842E-03     579.567E-03    -289.725E-03     66.7782E-03    -290.620E-03     580.170E-03    -289.457E-03     59.1699E-03
            1515     8.08520E-03     84.4109E-03    -52.7025E+06     14.4077E+06     41.0227E+06    -1.48725E+06    -289.841E-03     579.601E-03    -289.760E-03     62.1538E-03    -290.512E-03     580.017E-03    -289.499E-03     56.0145E-03
            1516     7.41120E-03     84.3123E-03    -60.7878E+06    -23.6849E+06     27.4532E+06    -1.12668E+06    -289.868E-03     579.670E-03    -289.802E-03     57.1348E-03    -290.422E-03     579.844E-03    -289.542E-03     52.3138E-03
            1517     6.73711E-03     84.2207E-03    -68.6509E+06    -58.3093E+06     13.4898E+06    -1.02296E+06    -289.886E-03     579.719E-03    -289.833E-03     52.0019E-03    -290.343E-03     579.686E-03    -289.582E-03     48.3139E-03
            1518     6.06328E-03     84.1366E-03    -76.6932E+06    -87.2626E+06    -646.814E+03    -716.007E+03    -289.861E-03     579.714E-03    -289.853E-03     46.7038E-03    -290.244E-03     579.517E-03    -289.618E-03     43.9990E-03
            1519     5.38932E-03     84.0607E-03    -84.9562E+06    -113.779E+06    -16.0531E+06    -335.494E+03    -289.812E-03     579.673E-03    -289.862E-03     41.2730E-03    -290.136E-03     579.338E-03    -289.654E-03     39.3987E-03
            1520     4.71552E-03     83.9932E-03    -93.3641E+06    -138.380E+06    -32.8436E+06    -227.908E+03    -289.767E-03     579.626E-03    -289.859E-03     35.8013E-03    -290.044E-03     579.176E-03    -289.688E-03     34.5842E-03
            1521     4.04171E-03     83.9346E-03    -101.815E+06    -163.877E+06    -50.7963E+06    -183.381E+03    -289.732E-03     579.582E-03    -289.851E-03     30.3516E-03    -289.967E-03     579.021E-03    -289.719E-03     29.6263E-03
            1522     3.36799E-03     83.8851E-03    -109.896E+06    -186.187E+06    -69.5785E+06    -151.903E+03    -289.713E-03     579.543E-03    -289.829E-03     25.0413E-03    -289.914E-03     578.894E-03    -289.748E-03     24.6768E-03
            1523     2.69432E-03     83.8444E-03    -117.535E+06    -204.845E+06    -88.5021E+06    -192.236E+03    -289.708E-03     579.504E-03    -289.797E-03     19.8682E-03    -289.883E-03     578.791E-03    -289.772E-03     19.7398E-03
            1524     2.02073E-03     83.8127E-03    -124.248E+06    -223.807E+06    -106.085E+06    -165.107E+03    -289.705E-03     579.469E-03    -289.764E-03     14.8184E-03    -289.854E-03     578.690E-03    -289.789E-03     14.8149E-03
            1525     1.34711E-03     83.7900E-03    -129.410E+06    -239.113E+06    -120.588E+06    -73.5223E+03    -289.701E-03     579.435E-03    -289.734E-03     9.92801E-03    -289.829E-03     578.605E-03    -289.803E-03     9.97038E-03
            1526     673.556E-06     83.7761E-03    -132.775E+06    -249.428E+06    -130.379E+06    -22.2508E+03    -289.728E-03     579.424E-03    -289.696E-03     5.37895E-03    -289.842E-03     578.559E-03    -289.794E-03     5.41352E-03
            1527     12.8041E-03     83.4800E-03    -4.54560E+06     79.2339E+06     95.4028E+06     1.20262E+03    -288.677E-03     578.318E-03    -289.641E-03     59.9740E-03    -289.847E-03     579.477E-03    -289.272E-03     44.4079E-03
            1528     12.1306E-03     83.3787E-03    -9.51185E+06     76.2197E+06     97.1318E+06     385.629E+03    -289.073E-03     578.758E-03    -289.685E-03     72.2668E-03    -290.420E-03     580.060E-03    -289.296E-03     56.1783E-03
            1529     11.4562E-03     83.2753E-03    -16.1669E+06     63.5999E+06     89.2322E+06     402.329E+03    -289.429E-03     579.126E-03    -289.697E-03     72.9583E-03    -290.605E-03     580.212E-03    -289.320E-03     59.1227E-03
            1530     10.7819E-03     83.1633E-03    -22.8987E+06     47.2584E+06     78.2341E+06     126.394E+03    -289.693E-03     579.395E-03    -289.703E-03     74.7886E-03    -290.783E-03     580.345E-03    -289.347E-03     62.3093E-03
            1531     10.1080E-03     83.0489E-03    -28.8300E+06     44.0592E+06     71.4742E+06    -199.037E+03    -289.827E-03     579.539E-03    -289.713E-03     73.6266E-03    -290.807E-03     580.366E-03    -289.378E-03     62.8293E-03
            1532     9.43378E-03     82.9351E-03    -35.9261E+06     42.4323E+06     61.5459E+06    -79.2539E+03    -289.872E-03     579.583E-03    -289.711E-03     70.7424E-03    -290.745E-03     580.301E-03    -289.413E-03     61.6021E-03
            1533     8.75941E-03     82.8250E-03    -43.5319E+06     38.1171E+06     52.3578E+06     280.575E+03    -289.859E-03     579.581E-03    -289.721E-03     66.7949E-03    -290.636E-03     580.186E-03    -289.452E-03     59.2173E-03
            1534     8.08540E-03     82.7198E-03    -51.2138E+06     15.0454E+06     41.9059E+06    -91.7912E+03    -289.855E-03     579.610E-03    -289.755E-03     62.1240E-03    -290.521E-03     580.027E-03    -289.493E-03     56.0083E-03
            1535     7.41123E-03     82.6212E-03    -59.3803E+06    -23.5830E+06     28.1077E+06    -795.660E+03    -289.891E-03     579.686E-03    -289.795E-03     57.1126E-03    -290.439E-03     579.857E-03    -289.534E-03     52.3033E-03
            1536     6.73729E-03     82.5295E-03    -67.7617E+06    -58.6540E+06     13.6496E+06    -1.05203E+06    -289.907E-03     579.730E-03    -289.822E-03     51.9676E-03    -290.360E-03     579.694E-03    -289.571E-03     48.2848E-03
            1537     6.06325E-03     82.4454E-03    -76.2673E+06    -88.5160E+06    -993.579E+03    -1.05599E+06    -289.902E-03     579.739E-03    -289.837E-03     46.6409E-03    -290.281E-03     579.536E-03    -289.603E-03     43.9236E-03
            1538     5.38947E-03     82.3694E-03    -84.5692E+06    -114.651E+06    -16.1204E+06    -754.490E+03    -289.865E-03     579.704E-03    -289.839E-03     41.1824E-03    -290.186E-03     579.365E-03    -289.631E-03     39.2840E-03
            1539     4.71564E-03     82.3019E-03    -93.2267E+06    -138.880E+06    -32.8608E+06    -468.039E+03    -289.791E-03     579.618E-03    -289.828E-03     35.7022E-03    -290.066E-03     579.165E-03    -289.655E-03     34.4605E-03
            1540     4.04192E-03     82.2434E-03    -101.784E+06    -164.251E+06    -50.8753E+06    -310.675E+03    -289.739E-03     579.549E-03    -289.810E-03     30.2660E-03    -289.974E-03     578.987E-03    -289.679E-03     29.5224E-03
            1541     3.36819E-03     82.1938E-03    -109.772E+06    -186.146E+06    -69.5096E+06    -178.630E+03    -289.706E-03     579.486E-03    -289.780E-03     24.9706E-03    -289.907E-03     578.838E-03    -289.699E-03     24.5922E-03
            1542     2.69454E-03     82.1532E-03    -117.450E+06    -204.923E+06    -88.4973E+06    -215.482E+03    -289.670E-03     579.410E-03    -289.741E-03     19.8361E-03    -289.844E-03     578.697E-03    -289.716E-03     19.6945E-03
            1543     2.02087E-03     82.1216E-03    -124.229E+06    -224.178E+06    -106.129E+06    -251.709E+03    -289.651E-03     579.356E-03    -289.705E-03     14.8258E-03    -289.799E-03     578.575E-03    -289.730E-03     14.8099E-03
            1544     1.34726E-03     82.0989E-03    -129.530E+06    -239.492E+06    -120.682E+06    -156.066E+03    -289.646E-03     579.320E-03    -289.674E-03     9.95412E-03    -289.774E-03     578.488E-03    -289.742E-03     9.98857E-03
            1545     673.624E-06     82.0851E-03    -132.901E+06    -249.697E+06    -130.533E+06    -68.1336E+03    -289.665E-03     579.298E-03    -289.633E-03     5.40986E-03    -289.779E-03     578.433E-03    -289.731E-03     5.44181E-03
            1546     12.8047E-03     81.7878E-03    -5.87811E+06     78.8561E+06     95.1287E+06    -889.003E+03    -288.812E-03     578.459E-03    -289.646E-03     59.3962E-03    -289.985E-03     579.614E-03    -289.277E-03     43.7856E-03
            1547     12.1303E-03     81.6873E-03    -11.6960E+06     75.6336E+06     96.0651E+06    -255.637E+03    -289.089E-03     578.772E-03    -289.682E-03     72.1540E-03    -290.446E-03     580.077E-03    -289.295E-03     56.0258E-03
            1548     11.4563E-03     81.5844E-03    -16.6233E+06     63.4023E+06     89.0889E+06     251.010E+03    -289.356E-03     579.054E-03    -289.698E-03     73.1469E-03    -290.535E-03     580.141E-03    -289.320E-03     59.3121E-03
            1549     10.7822E-03     81.4725E-03    -21.9171E+06     48.2640E+06     78.7672E+06     515.745E+03    -289.677E-03     579.383E-03    -289.706E-03     74.9603E-03    -290.764E-03     580.335E-03    -289.350E-03     62.5083E-03
            1550     10.1077E-03     81.3577E-03    -29.2754E+06     44.6086E+06     70.9612E+06     482.754E+03    -289.864E-03     579.578E-03    -289.714E-03     73.7049E-03    -290.846E-03     580.409E-03    -289.381E-03     62.9212E-03
            1551     9.43353E-03     81.2441E-03    -36.4493E+06     42.0350E+06     61.4228E+06     352.340E+03    -289.928E-03     579.641E-03    -289.713E-03     70.7706E-03    -290.803E-03     580.357E-03    -289.414E-03     61.6406E-03
            1552     8.75960E-03     81.1338E-03    -43.2885E+06     38.0553E+06     52.8909E+06     202.056E+03    -289.913E-03     579.634E-03    -289.721E-03     66.8270E-03    -290.690E-03     580.238E-03    -289.449E-03     59.2546E-03
            1553     8.08533E-03     81.0288E-03    -50.8726E+06     16.2632E+06      42.508E+06     146.959E+03    -289.923E-03     579.670E-03    -289.747E-03     62.1218E-03    -290.590E-03     580.091E-03    -289.485E-03     56.0036E-03
            1554     7.41133E-03     80.9300E-03    -58.8033E+06    -22.4686E+06     28.8035E+06    -27.3681E+03    -289.957E-03     579.737E-03    -289.780E-03     57.0351E-03    -290.505E-03     579.913E-03    -289.518E-03     52.2216E-03
            1555     6.73731E-03     80.8383E-03    -66.9310E+06    -58.4238E+06     14.2502E+06    -318.889E+03    -289.956E-03     579.757E-03    -289.801E-03     51.8442E-03    -290.406E-03     579.720E-03    -289.548E-03     48.1528E-03
            1556     6.06352E-03     80.7541E-03    -75.3648E+06    -88.6806E+06    -623.099E+03    -508.103E+03    -289.919E-03     579.727E-03    -289.808E-03     46.5386E-03    -290.294E-03     579.522E-03    -289.574E-03     43.8149E-03
            1557     5.38967E-03     80.6780E-03    -84.3028E+06    -115.621E+06    -16.2534E+06    -579.959E+03    -289.851E-03     579.657E-03    -289.806E-03     41.1529E-03    -290.170E-03     579.313E-03    -289.597E-03     39.2340E-03
            1558     4.71593E-03     80.6108E-03    -92.8688E+06    -139.365E+06    -32.7045E+06    -404.711E+03    -289.770E-03     579.563E-03    -289.793E-03     35.7550E-03    -290.044E-03     579.107E-03    -289.620E-03     34.4957E-03
            1559     4.04211E-03     80.5522E-03    -101.312E+06    -164.505E+06    -50.4444E+06    -284.327E+03    -289.713E-03     579.488E-03    -289.775E-03     30.3874E-03    -289.945E-03     578.923E-03    -289.642E-03     29.6415E-03
            1560     3.36842E-03     80.5027E-03    -109.907E+06    -186.647E+06    -69.2534E+06    -183.038E+03    -289.661E-03     579.407E-03    -289.746E-03     25.1307E-03    -289.862E-03     578.756E-03    -289.663E-03     24.7487E-03
            1561     2.69464E-03     80.4622E-03    -117.647E+06    -204.921E+06    -88.2439E+06    -47.4554E+03    -289.615E-03     579.325E-03    -289.710E-03     19.9892E-03    -289.791E-03     578.612E-03    -289.684E-03     19.8472E-03
            1562     2.02094E-03     80.4306E-03    -124.342E+06    -224.293E+06    -106.104E+06    -113.092E+03    -289.608E-03     579.288E-03    -289.680E-03     14.9479E-03    -289.757E-03     578.507E-03    -289.705E-03     14.9342E-03
            1563     1.34724E-03     80.4080E-03    -129.655E+06    -239.803E+06    -120.779E+06    -172.083E+03    -289.617E-03     579.271E-03    -289.654E-03     10.0424E-03    -289.746E-03     578.438E-03    -289.722E-03     10.0761E-03
            1564     673.616E-06     80.3942E-03    -133.149E+06    -250.135E+06    -130.790E+06    -110.260E+03    -289.642E-03     579.263E-03    -289.621E-03     5.45429E-03    -289.756E-03     578.395E-03    -289.719E-03     5.48228E-03
            1565     12.8048E-03     80.0968E-03     -5.1212E+06     79.1117E+06     95.6667E+06    -23.5231E+03    -288.633E-03     578.272E-03    -289.639E-03     59.5454E-03    -289.805E-03     579.429E-03    -289.267E-03     43.9562E-03
            1566     12.1306E-03     79.9965E-03    -10.7685E+06     75.8095E+06     95.9072E+06    -507.788E+03    -288.862E-03     578.544E-03    -289.682E-03     72.2899E-03    -290.216E-03     579.851E-03    -289.297E-03     56.1536E-03
            1567     11.4560E-03     79.8933E-03    -17.3829E+06     62.5669E+06     87.6080E+06    -644.032E+03    -289.353E-03     579.055E-03    -289.702E-03     73.2273E-03    -290.532E-03     580.141E-03    -289.330E-03     59.3920E-03
            1568     10.7817E-03     79.7814E-03    -23.6864E+06     46.6603E+06     77.5071E+06    -111.258E+03    -289.783E-03     579.494E-03    -289.711E-03     74.9147E-03    -290.874E-03     580.442E-03    -289.357E-03     62.4548E-03
            1569     10.1078E-03     79.6666E-03    -29.7211E+06     44.9885E+06     71.3178E+06     271.807E+03    -289.947E-03     579.663E-03    -289.716E-03     73.5468E-03    -290.932E-03     580.496E-03    -289.381E-03     62.7470E-03
            1570     9.43377E-03     79.5529E-03    -36.5214E+06     42.7959E+06     61.7101E+06     19.9836E+03    -289.989E-03     579.696E-03    -289.707E-03     70.5937E-03    -290.865E-03     580.416E-03    -289.408E-03     61.4420E-03
            1571     8.75943E-03     79.4427E-03    -43.7811E+06     37.8433E+06     52.8233E+06    -78.0423E+03    -289.981E-03     579.690E-03    -289.709E-03     66.6493E-03    -290.760E-03     580.294E-03    -289.436E-03     59.0550E-03
            1572     8.08553E-03     79.3374E-03    -51.1889E+06     16.4131E+06     42.7639E+06    -35.9304E+03    -289.973E-03     579.702E-03    -289.729E-03     61.9533E-03    -290.643E-03     580.125E-03    -289.465E-03     55.8022E-03
            1573     7.41156E-03     79.2387E-03    -58.9973E+06    -22.0544E+06     29.1181E+06     10.9974E+03    -289.969E-03     579.725E-03    -289.756E-03     56.9591E-03    -290.520E-03     579.904E-03    -289.493E-03     52.1165E-03
            1574     6.73773E-03     79.1470E-03    -67.1181E+06    -58.2253E+06     14.6991E+06     153.553E+03    -289.924E-03     579.700E-03    -289.776E-03     51.9131E-03    -290.377E-03     579.665E-03    -289.521E-03     48.2133E-03
            1575     6.06376E-03     79.0629E-03    -75.6103E+06    -88.4786E+06    -113.740E+03     300.346E+03    -289.842E-03     579.629E-03    -289.787E-03     46.7246E-03    -290.220E-03     579.425E-03    -289.550E-03     44.0063E-03
            1576     5.38985E-03     78.9870E-03    -84.2325E+06    -115.195E+06    -16.0961E+06     81.2004E+03    -289.763E-03     579.554E-03    -289.791E-03     41.3993E-03    -290.082E-03     579.212E-03    -289.582E-03     39.4970E-03
            1577     4.71591E-03     78.9196E-03    -92.9521E+06    -139.432E+06    -32.9580E+06    -311.905E+03    -289.709E-03     579.496E-03    -289.786E-03     36.0185E-03    -289.983E-03     579.040E-03    -289.614E-03     34.7724E-03
            1578     4.04213E-03     78.8612E-03    -101.531E+06    -164.988E+06    -50.5579E+06    -284.778E+03    -289.668E-03     579.447E-03    -289.779E-03     30.6336E-03    -289.900E-03     578.880E-03    -289.646E-03     29.8976E-03
            1579     3.36826E-03     78.8117E-03    -110.162E+06    -187.161E+06    -69.3031E+06    -225.965E+03    -289.631E-03     579.392E-03    -289.761E-03     25.3329E-03    -289.833E-03     578.739E-03    -289.676E-03     24.9587E-03
            1580     2.69456E-03     78.7713E-03    -118.102E+06    -205.290E+06    -88.3880E+06    -180.770E+03    -289.613E-03     579.345E-03    -289.732E-03     20.1467E-03    -289.790E-03     578.630E-03    -289.705E-03     20.0074E-03
            1581     2.02086E-03     78.7397E-03    -124.578E+06    -224.239E+06    -106.175E+06    -34.2480E+03    -289.622E-03     579.328E-03    -289.706E-03     15.0602E-03    -289.772E-03     578.548E-03    -289.732E-03     15.0531E-03
            1582     1.34723E-03     78.7171E-03    -129.895E+06    -239.986E+06    -121.001E+06    -28.1555E+03    -289.641E-03     579.325E-03    -289.684E-03     10.1080E-03    -289.770E-03     578.491E-03    -289.753E-03     10.1474E-03
            1583     673.602E-06     78.7032E-03    -133.342E+06    -250.422E+06    -130.954E+06    -25.5566E+03    -289.679E-03     579.328E-03    -289.649E-03     5.48594E-03    -289.794E-03     578.460E-03    -289.747E-03     5.51603E-03
            1584     12.8047E-03     78.4061E-03    -4.77370E+06     79.3687E+06     95.1863E+06    -160.130E+03    -288.561E-03     578.209E-03    -289.647E-03     59.9258E-03    -289.733E-03     579.369E-03    -289.279E-03     44.3533E-03
            1585     12.1301E-03     78.3059E-03    -10.5225E+06     75.3619E+06     95.9573E+06     407.763E+03    -289.056E-03     578.749E-03    -289.692E-03     72.3875E-03    -290.409E-03     580.053E-03    -289.307E-03     56.2730E-03
            1586     11.4560E-03     78.2024E-03    -16.9889E+06     62.8619E+06     87.9740E+06     650.928E+03    -289.537E-03     579.239E-03    -289.702E-03     72.9887E-03    -290.714E-03     580.324E-03    -289.328E-03     59.1600E-03
            1587     10.7821E-03     78.0900E-03    -23.5900E+06     47.1522E+06     77.6243E+06    -193.386E+03    -289.880E-03     579.580E-03    -289.700E-03     74.5903E-03    -290.971E-03     580.530E-03    -289.346E-03     62.1008E-03
            1588     10.1079E-03     77.9753E-03    -29.8857E+06     44.6085E+06     71.5606E+06    -606.733E+03    -289.998E-03     579.698E-03    -289.700E-03     73.2844E-03    -290.985E-03     580.529E-03    -289.364E-03     62.4420E-03
            1589     9.43376E-03     77.8617E-03    -36.6861E+06     42.6416E+06     62.1109E+06    -293.505E+03    -290.014E-03     579.701E-03    -289.686E-03     70.4055E-03    -290.892E-03     580.420E-03    -289.385E-03     61.2197E-03
            1590     8.76002E-03     77.7513E-03    -43.8403E+06     37.8860E+06     53.1041E+06    -288.886E+03    -289.944E-03     579.629E-03    -289.685E-03     66.6032E-03    -290.724E-03     580.234E-03    -289.411E-03     58.9829E-03
            1591     8.08586E-03     77.6462E-03    -51.3099E+06     15.9528E+06     43.0054E+06    -241.947E+03    -289.860E-03     579.570E-03    -289.710E-03     62.1174E-03    -290.531E-03     579.991E-03    -289.444E-03     55.9646E-03
            1592     7.41179E-03     77.5476E-03    -59.3782E+06    -22.6147E+06     29.2531E+06     46.5448E+03    -289.832E-03     579.580E-03    -289.748E-03     57.2901E-03    -290.385E-03     579.757E-03    -289.483E-03     52.4590E-03
            1593     6.73764E-03     77.4560E-03    -67.7789E+06    -58.5623E+06     14.5745E+06     300.892E+03    -289.804E-03     579.584E-03    -289.780E-03     52.3123E-03    -290.260E-03     579.549E-03    -289.524E-03     48.6296E-03
            1594     6.06362E-03     77.3720E-03    -76.0446E+06    -88.3365E+06    -176.617E+03     266.564E+03    -289.766E-03     579.570E-03    -289.804E-03     47.0938E-03    -290.147E-03     579.367E-03    -289.566E-03     44.3903E-03
            1595     5.38962E-03     77.2960E-03    -84.3374E+06    -114.350E+06    -15.8376E+06     133.673E+03    -289.730E-03     579.547E-03    -289.817E-03     41.6811E-03    -290.051E-03     579.208E-03    -289.608E-03     39.7961E-03
            1596     4.71574E-03     77.2287E-03    -93.0076E+06    -139.210E+06    -32.9471E+06     46.6084E+03    -289.691E-03     579.512E-03    -289.821E-03     36.2009E-03    -289.965E-03     579.058E-03    -289.649E-03     34.9727E-03
            1597     4.04184E-03     77.1701E-03    -101.904E+06    -165.278E+06    -50.9041E+06    -31.9158E+03    -289.670E-03     579.491E-03    -289.821E-03     30.7434E-03    -289.903E-03     578.924E-03    -289.688E-03     30.0155E-03
            1598     3.36814E-03     77.1207E-03    -110.217E+06    -187.139E+06    -69.5798E+06    -73.5459E+03    -289.655E-03     579.463E-03    -289.808E-03     25.4025E-03    -289.856E-03     578.811E-03    -289.725E-03     25.0337E-03
            1599     2.69438E-03     77.0802E-03    -117.735E+06    -205.500E+06    -88.5832E+06    -148.170E+03    -289.651E-03     579.436E-03    -289.785E-03     20.1975E-03    -289.825E-03     578.720E-03    -289.759E-03     20.0606E-03
            1600     2.02074E-03     77.0486E-03    -124.457E+06    -224.515E+06    -106.265E+06    -81.0321E+03    -289.671E-03     579.436E-03    -289.765E-03     15.1047E-03    -289.820E-03     578.654E-03    -289.790E-03     15.0974E-03
            1601     1.34710E-03     77.0260E-03    -129.688E+06    -239.985E+06    -120.886E+06     28.6861E+03    -289.698E-03     579.444E-03    -289.746E-03     10.1437E-03    -289.826E-03     578.610E-03    -289.814E-03     10.1850E-03
            1602     673.543E-06     77.0121E-03    -133.088E+06    -250.442E+06    -130.755E+06     9.13763E+03    -289.733E-03     579.455E-03    -289.722E-03     5.51753E-03    -289.847E-03     578.586E-03    -289.820E-03     5.54996E-03
            1603     12.8039E-03     76.7150E-03    -5.96253E+06     79.0510E+06     95.0212E+06     192.215E+03    -288.723E-03     578.377E-03    -289.653E-03     59.4931E-03    -289.892E-03     579.529E-03    -289.284E-03     43.9797E-03
            1604     12.1303E-03     76.6141E-03    -11.5446E+06     74.4584E+06     95.8588E+06    -39.6882E+03    -289.325E-03     579.012E-03    -289.686E-03     71.9116E-03    -290.679E-03     580.311E-03    -289.298E-03     55.7533E-03
            1605     11.4564E-03     76.5108E-03    -16.8954E+06     63.2972E+06     89.2674E+06     50.9667E+03    -289.676E-03     579.362E-03    -289.685E-03     72.7059E-03    -290.858E-03     580.449E-03    -289.306E-03     58.7976E-03
            1606     10.7822E-03     76.3986E-03    -22.6379E+06     48.7265E+06     79.4854E+06     241.567E+03    -289.851E-03     579.528E-03    -289.678E-03     74.4795E-03    -290.944E-03     580.483E-03    -289.318E-03     61.9582E-03
            1607     10.1084E-03     76.2841E-03    -29.7966E+06     44.9060E+06     71.7443E+06    -136.176E+03    -289.897E-03     579.571E-03    -289.675E-03     73.3145E-03    -290.884E-03     580.404E-03    -289.338E-03     62.4684E-03
            1608     9.43443E-03     76.1705E-03    -36.7095E+06     42.4371E+06     61.7320E+06    -500.464E+03    -289.842E-03     579.510E-03    -289.668E-03     70.6852E-03    -290.720E-03     580.230E-03    -289.367E-03     61.5128E-03
            1609     8.75997E-03     76.0604E-03    -43.8106E+06     37.8783E+06     52.9142E+06    -353.491E+03    -289.739E-03     579.421E-03    -289.682E-03     67.1064E-03    -290.519E-03     580.027E-03    -289.409E-03     59.5210E-03
            1610     8.08572E-03     75.9554E-03    -51.8190E+06     15.0921E+06     42.4479E+06    -143.539E+03    -289.715E-03     579.439E-03    -289.725E-03     62.6253E-03    -290.387E-03     579.858E-03    -289.459E-03     56.5085E-03
            1611     7.41142E-03     75.8568E-03    -59.9265E+06    -23.4956E+06     28.5158E+06     44.9849E+03    -289.749E-03     579.524E-03    -289.775E-03     57.6448E-03    -290.303E-03     579.699E-03    -289.511E-03     52.8357E-03
            1612     6.73730E-03     75.7651E-03    -67.7802E+06    -58.4404E+06     14.1614E+06    -1.77130E+03    -289.772E-03     579.589E-03    -289.816E-03     52.5079E-03    -290.228E-03     579.555E-03    -289.563E-03     48.8290E-03
            1613     6.06323E-03     75.6809E-03    -75.8667E+06    -88.0717E+06    -373.679E+03    -152.837E+03    -289.778E-03     579.625E-03    -289.847E-03     47.1915E-03    -290.158E-03     579.424E-03    -289.611E-03     44.4826E-03
            1614     5.38933E-03     75.6049E-03    -84.3708E+06    -114.686E+06    -15.8082E+06    -3.04237E+03    -289.762E-03     579.628E-03    -289.866E-03     41.7237E-03    -290.083E-03     579.288E-03    -289.656E-03     39.8310E-03
            1615     4.71544E-03     75.5375E-03    -93.1424E+06    -139.353E+06    -32.7537E+06     308.370E+03    -289.730E-03     579.602E-03    -289.872E-03     36.2082E-03    -290.005E-03     579.147E-03    -289.699E-03     34.9777E-03
            1616     4.04169E-03     75.4790E-03    -101.600E+06    -164.798E+06    -50.7782E+06     335.297E+03    -289.709E-03     579.581E-03    -289.872E-03     30.7344E-03    -289.942E-03     579.016E-03    -289.740E-03     30.0092E-03
            1617     3.36788E-03     75.4294E-03    -109.614E+06    -186.797E+06    -69.4561E+06     145.655E+03    -289.699E-03     579.561E-03    -289.861E-03     25.3879E-03    -289.898E-03     578.909E-03    -289.779E-03     25.0192E-03
            1618     2.69424E-03     75.3889E-03    -117.297E+06    -205.423E+06    -88.4315E+06     113.605E+03    -289.700E-03     579.541E-03    -289.841E-03     20.1797E-03    -289.873E-03     578.825E-03    -289.815E-03     20.0435E-03
            1619     2.02059E-03     75.3573E-03    -124.020E+06    -224.554E+06    -106.018E+06     47.9770E+03    -289.724E-03     579.548E-03    -289.823E-03     15.0859E-03    -289.871E-03     578.765E-03    -289.848E-03     15.0748E-03
            1620     1.34704E-03     75.3347E-03    -129.347E+06    -239.953E+06    -120.573E+06     6.01912E+03    -289.757E-03     579.563E-03    -289.807E-03     10.1290E-03    -289.883E-03     578.729E-03    -289.874E-03     10.1640E-03
            1621     673.503E-06     75.3207E-03    -132.772E+06    -250.292E+06    -130.486E+06     29.5555E+03    -289.780E-03     579.578E-03    -289.798E-03     5.49737E-03    -289.893E-03     578.709E-03    -289.895E-03     5.52631E-03
            1622     12.8052E-03     75.0236E-03    -5.67190E+06     79.3274E+06     96.3560E+06     577.408E+03    -288.870E-03     578.498E-03    -289.628E-03     59.0838E-03    -290.035E-03     579.644E-03    -289.253E-03     43.5909E-03
            1623     12.1308E-03     74.9224E-03    -10.4800E+06     75.4556E+06     97.4601E+06    -217.095E+03    -289.135E-03     578.794E-03    -289.659E-03     71.8049E-03    -290.485E-03     580.092E-03    -289.266E-03     55.6613E-03
            1624     11.4568E-03     74.8193E-03    -16.6802E+06     62.4920E+06     90.0721E+06    -773.899E+03    -289.459E-03     579.127E-03    -289.668E-03     72.9192E-03    -290.642E-03     580.212E-03    -289.284E-03     58.9968E-03
            1625     10.7828E-03     74.7077E-03    -23.2182E+06     47.1624E+06     79.2251E+06    -448.586E+03    -289.675E-03     579.345E-03    -289.670E-03     74.9526E-03    -290.771E-03     580.296E-03    -289.308E-03     62.4365E-03
            1626     10.1084E-03     74.5930E-03    -29.1230E+06     45.6090E+06     71.6895E+06     178.508E+03    -289.679E-03     579.356E-03    -289.677E-03     73.8823E-03    -290.665E-03     580.193E-03    -289.343E-03     63.0914E-03
            1627     9.43383E-03     74.4799E-03    -36.0008E+06     42.9611E+06     61.4714E+06     322.538E+03    -289.661E-03     579.348E-03    -289.687E-03     71.1769E-03    -290.536E-03     580.069E-03    -289.390E-03     62.0678E-03
            1628     8.75953E-03     74.3698E-03    -43.9131E+06     37.5695E+06     52.2730E+06     215.755E+03    -289.678E-03     579.393E-03    -289.715E-03     67.3798E-03    -290.458E-03     579.999E-03    -289.444E-03     59.8234E-03
            1629     8.08514E-03     74.2645E-03    -51.6581E+06     14.9038E+06     42.0174E+06     77.4336E+03    -289.721E-03     579.485E-03    -289.764E-03     62.6697E-03    -290.392E-03     579.903E-03    -289.500E-03     56.5524E-03
            1630     7.41105E-03     74.1659E-03    -59.3371E+06    -23.3608E+06     28.4517E+06    -180.783E+03    -289.788E-03     579.604E-03    -289.817E-03     57.6135E-03    -290.339E-03     579.779E-03    -289.555E-03     52.7905E-03
            1631     6.73698E-03     74.0740E-03    -67.3812E+06    -58.2896E+06     14.1119E+06    -258.805E+03    -289.826E-03     579.684E-03    -289.858E-03     52.4763E-03    -290.280E-03     579.651E-03    -289.605E-03     48.7800E-03
            1632     6.06304E-03     73.9898E-03    -75.7359E+06    -88.3715E+06    -529.114E+03    -32.5515E+03    -289.824E-03     579.712E-03    -289.888E-03     47.1556E-03    -290.203E-03     579.510E-03    -289.653E-03     44.4329E-03
            1633     5.38909E-03     73.9137E-03    -84.4834E+06    -115.336E+06    -16.2062E+06     197.003E+03    -289.802E-03     579.708E-03    -289.906E-03     41.6765E-03    -290.122E-03     579.366E-03    -289.698E-03     39.7727E-03
            1634     4.71527E-03     73.8462E-03    -93.0426E+06    -139.498E+06    -32.9268E+06     266.197E+03    -289.773E-03     579.686E-03    -289.913E-03     36.1570E-03    -290.047E-03     579.230E-03    -289.740E-03     34.9141E-03
            1635     4.04145E-03     73.7876E-03    -101.239E+06    -164.431E+06    -50.5230E+06     279.291E+03    -289.754E-03     579.668E-03    -289.913E-03     30.6807E-03    -289.986E-03     579.103E-03    -289.781E-03     29.9439E-03
            1636     3.36780E-03     73.7381E-03    -109.528E+06    -186.561E+06    -69.2658E+06     348.358E+03    -289.740E-03     579.642E-03    -289.902E-03     25.3285E-03    -289.939E-03     578.991E-03    -289.819E-03     24.9537E-03
            1637     2.69410E-03     73.6975E-03    -117.328E+06    -205.138E+06    -88.2634E+06     314.574E+03    -289.738E-03     579.620E-03    -289.882E-03     20.1325E-03    -289.912E-03     578.905E-03    -289.855E-03     19.9905E-03
            1638     2.02053E-03     73.6659E-03    -124.027E+06    -224.232E+06    -105.887E+06     245.610E+03    -289.763E-03     579.627E-03    -289.864E-03     15.0618E-03    -289.911E-03     578.846E-03    -289.888E-03     15.0464E-03
            1639     1.34697E-03     73.6431E-03    -129.300E+06    -239.734E+06    -120.509E+06     178.492E+03    -289.796E-03     579.643E-03    -289.847E-03     10.1195E-03    -289.923E-03     578.809E-03    -289.914E-03     10.1521E-03
            1640     673.478E-06     73.6292E-03    -132.723E+06    -250.023E+06    -130.361E+06     78.3614E+03    -289.834E-03     579.659E-03    -289.825E-03     5.48806E-03    -289.947E-03     578.791E-03    -289.922E-03     5.51525E-03
            1641     12.8054E-03     73.3326E-03    -4.75817E+06     79.7748E+06     96.8122E+06     128.236E+03    -288.692E-03     578.291E-03    -289.599E-03     59.5903E-03    -289.857E-03     579.442E-03    -289.224E-03     44.1049E-03
            1642     12.1312E-03     73.2317E-03    -11.1028E+06     74.9595E+06     96.2677E+06     189.104E+03    -288.855E-03     578.494E-03    -289.639E-03     72.2966E-03    -290.208E-03     579.794E-03    -289.250E-03     56.2032E-03
            1643     11.4566E-03     73.1285E-03    -17.0891E+06     63.1464E+06     88.1321E+06     37.1361E+03    -289.076E-03     578.739E-03    -289.663E-03     73.2823E-03    -290.258E-03     579.829E-03    -289.289E-03     59.4315E-03
            1644     10.7820E-03     73.0166E-03    -23.4966E+06     47.5363E+06     76.3752E+06    -489.442E+03    -289.392E-03     579.075E-03    -289.682E-03     75.3329E-03    -290.487E-03     580.033E-03    -289.335E-03     62.8538E-03
            1645     10.1077E-03     72.9026E-03    -30.5659E+06     43.7812E+06     69.0968E+06    -606.296E+03    -289.630E-03     579.340E-03    -289.710E-03     74.1004E-03    -290.617E-03     580.174E-03    -289.384E-03     63.3146E-03
            1646     9.43343E-03     72.7893E-03    -37.3798E+06     41.9205E+06     60.8321E+06     75.8898E+03    -289.766E-03     579.495E-03    -289.729E-03     71.1088E-03    -290.646E-03     580.214E-03    -289.431E-03     61.9800E-03
            1647     8.75915E-03     72.6788E-03    -43.7389E+06     37.8954E+06     52.6198E+06     370.817E+03    -289.776E-03     579.528E-03    -289.752E-03     67.2238E-03    -290.557E-03     580.136E-03    -289.480E-03     59.6322E-03
            1648     8.08509E-03     72.5736E-03    -50.9879E+06     15.6872E+06     42.3904E+06     197.868E+03    -289.767E-03     579.563E-03    -289.796E-03     62.5587E-03    -290.437E-03     579.985E-03    -289.533E-03     56.4155E-03
            1649     7.41085E-03     72.4747E-03    -59.0405E+06    -23.0947E+06     28.5708E+06     172.741E+03    -289.817E-03     579.665E-03    -289.848E-03     57.5633E-03    -290.367E-03     579.841E-03    -289.586E-03     52.7318E-03
            1650     6.73680E-03     72.3829E-03    -67.4411E+06    -58.6444E+06     13.8930E+06     287.135E+03    -289.861E-03     579.749E-03    -289.889E-03     52.4463E-03    -290.315E-03     579.715E-03    -289.637E-03     48.7397E-03
            1651     6.06280E-03     72.2985E-03    -76.1136E+06    -88.7867E+06    -1.01154E+06     334.623E+03    -289.862E-03     579.779E-03    -289.917E-03     47.1325E-03    -290.242E-03     579.577E-03    -289.683E-03     44.3938E-03
            1652     5.38895E-03     72.2223E-03    -84.6229E+06    -115.357E+06    -16.6378E+06     324.273E+03    -289.836E-03     579.770E-03    -289.934E-03     41.6544E-03    -290.157E-03     579.429E-03    -289.727E-03     39.7334E-03
            1653     4.71512E-03     72.1548E-03    -92.9871E+06    -139.129E+06    -33.2751E+06     225.729E+03    -289.800E-03     579.739E-03    -289.940E-03     36.1378E-03    -290.074E-03     579.286E-03    -289.770E-03     34.8794E-03
            1654     4.04142E-03     72.0962E-03    -101.556E+06    -164.604E+06    -50.8710E+06     231.437E+03    -289.778E-03     579.720E-03    -289.942E-03     30.6787E-03    -290.011E-03     579.156E-03    -289.810E-03     29.9280E-03
            1655     3.36768E-03     72.0466E-03    -109.849E+06    -186.554E+06    -69.4163E+06     377.485E+03    -289.764E-03     579.696E-03    -289.932E-03     25.3536E-03    -289.965E-03     579.046E-03    -289.849E-03     24.9688E-03
            1656     2.69408E-03     72.0060E-03    -117.450E+06    -204.656E+06    -88.3476E+06     383.111E+03    -289.764E-03     579.676E-03    -289.912E-03     20.1748E-03    -289.939E-03     578.964E-03    -289.887E-03     20.0260E-03
            1657     2.02046E-03     71.9743E-03    -124.126E+06    -223.858E+06    -105.984E+06     287.382E+03    -289.793E-03     579.688E-03    -289.895E-03     15.1012E-03    -289.942E-03     578.909E-03    -289.921E-03     15.0807E-03
            1658     1.34695E-03     71.9516E-03    -129.323E+06    -239.241E+06    -120.532E+06     193.790E+03    -289.827E-03     579.706E-03    -289.879E-03     10.1457E-03    -289.955E-03     578.875E-03    -289.947E-03     10.1754E-03
            1659     673.456E-06     71.9376E-03    -132.671E+06    -249.602E+06    -130.345E+06     105.357E+03    -289.880E-03     579.725E-03    -289.845E-03     5.51254E-03    -289.993E-03     578.859E-03    -289.942E-03     5.53973E-03
            1660     12.8051E-03     71.6412E-03    -4.17805E+06     79.4294E+06     96.1081E+06     35.9209E+03    -288.446E-03     578.050E-03    -289.604E-03     60.0292E-03    -289.609E-03     579.201E-03    -289.232E-03     44.5765E-03
            1661     12.1308E-03     71.5412E-03    -10.6261E+06     74.9635E+06     95.4912E+06    -11.0262E+03    -288.690E-03     578.346E-03    -289.656E-03     72.6700E-03    -290.041E-03     579.649E-03    -289.272E-03     56.5980E-03
            1662     11.4564E-03     71.4383E-03    -16.9211E+06     63.2004E+06     87.7728E+06     329.013E+03    -289.052E-03     578.742E-03    -289.690E-03     73.5184E-03    -290.234E-03     579.833E-03    -289.318E-03     59.6962E-03
            1663     10.7818E-03     71.3268E-03    -23.8623E+06     47.6420E+06     76.4598E+06     925.309E+03    -289.463E-03     579.176E-03    -289.713E-03     75.0902E-03    -290.557E-03     580.132E-03    -289.365E-03     62.6475E-03
            1664     10.1073E-03     71.2114E-03    -30.4835E+06     44.5854E+06     68.8347E+06     774.813E+03    -289.732E-03     579.464E-03    -289.732E-03     73.5651E-03    -290.716E-03     580.298E-03    -289.408E-03     62.7933E-03
            1665     9.43323E-03     71.0981E-03    -37.0661E+06     42.6946E+06     60.0164E+06    -289.956E+03    -289.787E-03     579.530E-03    -289.743E-03     70.7560E-03    -290.665E-03     580.254E-03    -289.451E-03     61.5977E-03
            1666     8.75913E-03     70.9878E-03    -44.4429E+06     37.3994E+06     51.6337E+06    -674.237E+03    -289.755E-03     579.524E-03    -289.769E-03     67.1780E-03    -290.538E-03     580.133E-03    -289.501E-03     59.5585E-03
            1667     8.08475E-03     70.8825E-03    -52.1820E+06     14.7200E+06     41.3897E+06    -22.0055E+03    -289.789E-03     579.604E-03    -289.816E-03     62.5830E-03    -290.462E-03     580.025E-03    -289.554E-03     56.4249E-03
            1668     7.41068E-03     70.7836E-03    -60.1507E+06    -23.4998E+06     27.7800E+06     572.428E+03    -289.851E-03     579.718E-03    -289.867E-03     57.5473E-03    -290.406E-03     579.895E-03    -289.607E-03     52.7017E-03
            1669     6.73663E-03     70.6915E-03    -68.3689E+06    -58.5671E+06     13.3013E+06     609.129E+03    -289.866E-03     579.774E-03    -289.907E-03     52.4179E-03    -290.325E-03     579.743E-03    -289.657E-03     48.6988E-03
            1670     6.06273E-03     70.6071E-03    -76.5471E+06    -88.4438E+06    -1.45311E+06     412.087E+03    -289.860E-03     579.797E-03    -289.937E-03     47.1372E-03    -290.243E-03     579.598E-03    -289.705E-03     44.3837E-03
            1671     5.38884E-03     70.5308E-03    -84.8351E+06    -114.975E+06    -16.9040E+06     223.185E+03    -289.835E-03     579.792E-03    -289.957E-03     41.7026E-03    -290.158E-03     579.455E-03    -289.752E-03     39.7689E-03
            1672     4.71505E-03     70.4633E-03    -93.3887E+06    -139.028E+06    -33.4848E+06     221.800E+03    -289.796E-03     579.764E-03    -289.967E-03     36.2171E-03    -290.073E-03     579.312E-03    -289.798E-03     34.9526E-03
            1673     4.04124E-03     70.4046E-03    -101.870E+06    -164.602E+06    -51.1004E+06     244.152E+03    -289.778E-03     579.753E-03    -289.975E-03     30.7804E-03    -290.012E-03     579.189E-03    -289.844E-03     30.0267E-03
            1674     3.36759E-03     70.3550E-03    -110.089E+06    -186.496E+06    -69.6172E+06     171.134E+03    -289.779E-03     579.750E-03    -289.970E-03     25.4637E-03    -289.981E-03     579.101E-03    -289.888E-03     25.0731E-03
            1675     2.69392E-03     70.3143E-03    -117.729E+06    -204.457E+06    -88.4596E+06     173.518E+03    -289.797E-03     579.751E-03    -289.955E-03     20.2775E-03    -289.974E-03     579.041E-03    -289.930E-03     20.1229E-03
            1676     2.02039E-03     70.2826E-03    -124.295E+06    -223.473E+06    -106.033E+06     167.330E+03    -289.836E-03     579.775E-03    -289.939E-03     15.1845E-03    -289.986E-03     578.998E-03    -289.965E-03     15.1605E-03
            1677     1.34688E-03     70.2598E-03    -129.500E+06    -238.887E+06    -120.633E+06     98.5406E+03    -289.873E-03     579.795E-03    -289.923E-03     10.2011E-03    -290.002E-03     578.966E-03    -289.992E-03     10.2287E-03
            1678     673.433E-06     70.2458E-03    -132.893E+06    -249.239E+06    -130.490E+06     96.0452E+03    -289.917E-03     579.810E-03    -289.893E-03     5.54752E-03    -290.032E-03     578.947E-03    -289.992E-03     5.57512E-03
            1679     12.8050E-03     69.9517E-03    -4.86773E+06     79.2663E+06     95.1883E+06     68.9607E+03    -288.462E-03     578.094E-03    -289.631E-03     60.0579E-03    -289.631E-03     579.251E-03    -289.263E-03     44.5373E-03
            1680     12.1301E-03     69.8506E-03    -10.8486E+06     75.5991E+06     96.0374E+06     645.336E+03    -288.710E-03     578.399E-03    -289.689E-03     72.5204E-03    -290.061E-03     579.701E-03    -289.303E-03     56.4804E-03
            1681     11.4555E-03     69.7477E-03    -17.3486E+06     61.7538E+06     88.4333E+06     774.675E+03    -289.299E-03     579.019E-03    -289.720E-03     73.2225E-03    -290.478E-03     580.100E-03    -289.342E-03     59.4109E-03
            1682     10.7817E-03     69.6354E-03    -22.3714E+06     47.2554E+06     79.2595E+06     981.409E+03    -289.718E-03     579.453E-03    -289.735E-03     74.9369E-03    -290.807E-03     580.400E-03    -289.374E-03     62.4848E-03
            1683     10.1079E-03     69.5206E-03    -28.4052E+06     46.4475E+06     71.7426E+06     810.662E+03    -289.738E-03     579.480E-03    -289.742E-03     73.5874E-03    -290.718E-03     580.317E-03    -289.410E-03     62.8137E-03
            1684     9.43337E-03     69.4074E-03    -35.9309E+06     43.6471E+06     60.5579E+06     850.629E+03    -289.700E-03     579.448E-03    -289.748E-03     70.7893E-03    -290.574E-03     580.174E-03    -289.457E-03     61.6508E-03
            1685     8.75882E-03     69.2969E-03    -44.1432E+06     37.4901E+06     51.2402E+06     925.006E+03    -289.726E-03     579.503E-03    -289.777E-03     67.1370E-03    -290.507E-03     580.112E-03    -289.511E-03     59.5254E-03
            1686     8.08473E-03     69.1913E-03    -52.4080E+06     14.3366E+06     40.9701E+06     503.341E+03    -289.769E-03     579.597E-03    -289.828E-03     62.5422E-03    -290.444E-03     580.018E-03    -289.568E-03     56.3685E-03
            1687     7.41063E-03     69.0923E-03    -60.4623E+06    -23.7850E+06     27.5670E+06     221.616E+03    -289.820E-03     579.703E-03    -289.883E-03     57.6168E-03    -290.377E-03     579.882E-03    -289.623E-03     52.7435E-03
            1688     6.73663E-03     69.0004E-03    -68.2029E+06    -58.2548E+06     13.5581E+06     273.975E+03    -289.842E-03     579.771E-03    -289.929E-03     52.5888E-03    -290.302E-03     579.742E-03    -289.678E-03     48.8558E-03
            1689     6.06258E-03     68.9157E-03    -76.3062E+06    -88.0357E+06    -1.07449E+06     249.172E+03    -289.840E-03     579.804E-03    -289.965E-03     47.3218E-03    -290.223E-03     579.607E-03    -289.732E-03     44.5671E-03
            1690     5.38869E-03     68.8394E-03    -84.8002E+06    -114.790E+06    -16.6895E+06     229.157E+03    -289.818E-03     579.809E-03    -289.991E-03     41.8553E-03    -290.142E-03     579.472E-03    -289.785E-03     39.9240E-03
            1691     4.71481E-03     68.7718E-03    -93.2998E+06    -138.999E+06    -33.3208E+06     198.012E+03    -289.788E-03     579.797E-03    -290.009E-03     36.3448E-03    -290.064E-03     579.345E-03    -289.839E-03     35.0817E-03
            1692     4.04108E-03     68.7131E-03    -101.813E+06    -164.451E+06    -50.9251E+06     158.574E+03    -289.787E-03     579.811E-03    -290.023E-03     30.9020E-03    -290.022E-03     579.248E-03    -289.892E-03     30.1471E-03
            1693     3.36735E-03     68.6633E-03    -110.119E+06    -186.288E+06    -69.5685E+06     134.612E+03    -289.811E-03     579.835E-03    -290.024E-03     25.5712E-03    -290.014E-03     579.187E-03    -289.942E-03     25.1794E-03
            1694     2.69379E-03     68.6226E-03    -117.842E+06    -204.368E+06    -88.5865E+06     54.6914E+03    -289.844E-03     579.856E-03    -290.012E-03     20.3609E-03    -290.021E-03     579.146E-03    -289.988E-03     20.2048E-03
            1695     2.02024E-03     68.5907E-03    -124.587E+06    -223.355E+06    -106.302E+06     24.6919E+03    -289.889E-03     579.888E-03    -289.998E-03     15.2477E-03    -290.041E-03     579.112E-03    -290.025E-03     15.2226E-03
            1696     1.34681E-03     68.5679E-03    -129.848E+06    -238.736E+06    -120.951E+06     43.2847E+03    -289.931E-03     579.914E-03    -289.984E-03     10.2463E-03    -290.061E-03     579.087E-03    -290.054E-03     10.2744E-03
            1697     673.387E-06     68.5539E-03    -133.237E+06    -249.072E+06    -130.853E+06     4.34521E+03    -289.984E-03     579.933E-03    -289.950E-03     5.56769E-03    -290.100E-03     579.072E-03    -290.050E-03     5.59398E-03
            1698     12.8041E-03     68.2603E-03    -5.74806E+06     77.8649E+06     93.9255E+06     356.016E+03    -288.649E-03     578.301E-03    -289.652E-03     59.6754E-03    -289.820E-03     579.456E-03    -289.287E-03     44.0760E-03
            1699     12.1302E-03     68.1604E-03    -10.5473E+06     75.9577E+06     96.5438E+06     978.600E+03    -289.049E-03     578.748E-03    -289.700E-03     72.1156E-03    -290.400E-03     580.052E-03    -289.312E-03     56.0149E-03
            1700     11.4562E-03     68.0563E-03    -15.8715E+06     63.6066E+06     89.2117E+06     346.622E+03    -289.316E-03     579.033E-03    -289.717E-03     72.9469E-03    -290.492E-03     580.120E-03    -289.341E-03     59.1052E-03
            1701     10.7819E-03     67.9442E-03    -22.2113E+06     47.3819E+06     78.0427E+06    -557.670E+03    -289.531E-03     579.262E-03    -289.731E-03     74.9843E-03    -290.620E-03     580.214E-03    -289.378E-03     62.4890E-03
            1702     10.1072E-03     67.8297E-03    -29.4389E+06     44.2159E+06     71.0089E+06     114.355E+03    -289.671E-03     579.426E-03    -289.755E-03     73.7935E-03    -290.657E-03     580.258E-03    -289.422E-03     62.9823E-03
            1703     9.43304E-03     67.7166E-03    -36.0137E+06     41.8059E+06     61.8698E+06     1.50381E+06    -289.746E-03     579.517E-03    -289.772E-03     70.9674E-03    -290.622E-03     580.235E-03    -289.471E-03     61.8187E-03
            1704     8.75906E-03     67.6059E-03    -42.4537E+06     38.1647E+06     53.4762E+06     2.24404E+06    -289.714E-03     579.513E-03    -289.800E-03     67.3849E-03    -290.494E-03     580.123E-03    -289.526E-03     59.7748E-03
            1705     8.08470E-03     67.5003E-03    -50.0910E+06     16.6446E+06     43.2386E+06     2.04688E+06    -289.701E-03     579.554E-03    -289.853E-03     62.8809E-03    -290.372E-03     579.982E-03    -289.589E-03     56.7222E-03
            1706     7.41042E-03     67.4013E-03    -58.5463E+06    -22.2939E+06     28.9741E+06     1.18568E+06    -289.772E-03     579.688E-03    -289.916E-03     57.9361E-03    -290.325E-03     579.870E-03    -289.654E-03     53.0765E-03
            1707     6.73624E-03     67.3090E-03    -67.3407E+06    -57.9906E+06     14.1038E+06     585.847E+03    -289.835E-03     579.803E-03    -289.968E-03     52.8352E-03    -290.292E-03     579.774E-03    -289.716E-03     49.1002E-03
            1708     6.06230E-03     67.2244E-03    -75.9300E+06    -87.8196E+06    -685.932E+03     497.077E+03    -289.851E-03     579.860E-03    -290.009E-03     47.5014E-03    -290.233E-03     579.663E-03    -289.775E-03     44.7423E-03
            1709     5.38838E-03     67.1479E-03    -84.4300E+06    -114.413E+06    -16.3663E+06     369.047E+03    -289.833E-03     579.872E-03    -290.039E-03     41.9817E-03    -290.156E-03     579.536E-03    -289.833E-03     40.0478E-03
            1710     4.71459E-03     67.0802E-03    -93.0586E+06    -138.788E+06    -33.1322E+06     224.989E+03    -289.813E-03     579.874E-03    -290.061E-03     36.4415E-03    -290.088E-03     579.423E-03    -289.891E-03     35.1748E-03
            1711     4.04079E-03     67.0214E-03    -101.587E+06    -164.294E+06    -50.7645E+06     161.627E+03    -289.828E-03     579.908E-03    -290.080E-03     30.9884E-03    -290.062E-03     579.345E-03    -289.948E-03     30.2273E-03
            1712     3.36718E-03     66.9715E-03    -109.825E+06    -186.089E+06    -69.3201E+06     77.0046E+03    -289.864E-03     579.947E-03    -290.083E-03     25.6368E-03    -290.066E-03     579.300E-03    -290.001E-03     25.2375E-03
            1713     2.69358E-03     66.9306E-03    -117.482E+06    -204.275E+06    -88.2420E+06     60.0816E+03    -289.903E-03     579.975E-03    -290.072E-03     20.3947E-03    -290.079E-03     579.265E-03    -290.047E-03     20.2343E-03
            1714     2.02013E-03     66.8987E-03    -124.134E+06    -223.308E+06    -105.901E+06     49.7665E+03    -289.950E-03     580.010E-03    -290.059E-03     15.2570E-03    -290.100E-03     579.233E-03    -290.085E-03     15.2292E-03
            1715     1.34669E-03     66.8757E-03    -129.376E+06    -238.685E+06    -120.537E+06     11.3208E+03    -289.992E-03     580.037E-03    -290.045E-03     10.2416E-03    -290.121E-03     579.209E-03    -290.114E-03     10.2666E-03
            1716     673.330E-06     66.8617E-03    -132.818E+06    -249.012E+06    -130.409E+06    -12.7278E+03    -290.044E-03     580.056E-03    -290.012E-03     5.56928E-03    -290.159E-03     579.194E-03    -290.110E-03     5.59462E-03
            1717     12.8045E-03     66.5693E-03    -5.40337E+06     78.1468E+06     95.2048E+06     389.060E+03    -288.644E-03     578.297E-03    -289.653E-03     59.2548E-03    -289.812E-03     579.448E-03    -289.282E-03     43.6659E-03
            1718     12.1304E-03     66.4682E-03    -10.3463E+06     77.4768E+06     96.6314E+06    -838.620E+03    -288.925E-03     578.621E-03    -289.696E-03     72.2258E-03    -290.281E-03     579.935E-03    -289.310E-03     56.0710E-03
            1719     11.4561E-03     66.3659E-03    -16.1403E+06     62.9613E+06     88.4562E+06    -516.819E+03    -289.195E-03     578.916E-03    -289.721E-03     73.4250E-03    -290.374E-03     580.005E-03    -289.347E-03     59.5720E-03
            1720     10.7815E-03     66.2540E-03    -23.3169E+06     46.1271E+06     77.1453E+06     1.04891E+06    -289.472E-03     579.216E-03    -289.744E-03     75.2109E-03    -290.564E-03     580.165E-03    -289.391E-03     62.7643E-03
            1721     10.1073E-03     66.1388E-03    -29.6716E+06     43.6915E+06     70.5306E+06     1.38325E+06    -289.607E-03     579.380E-03    -289.773E-03     73.7781E-03    -290.592E-03     580.210E-03    -289.441E-03     62.9949E-03
            1722     9.43304E-03     66.0255E-03    -36.7066E+06     41.3706E+06     61.0509E+06     759.303E+03    -289.635E-03     579.431E-03    -289.796E-03     71.1324E-03    -290.513E-03     580.149E-03    -289.497E-03     61.9808E-03
            1723     8.75846E-03     65.9151E-03    -44.0330E+06     36.6930E+06     52.4732E+06     870.534E+03    -289.645E-03     579.480E-03    -289.836E-03     67.7269E-03    -290.431E-03     580.088E-03    -289.563E-03     60.0997E-03
            1724     8.08411E-03     65.8094E-03    -51.2937E+06     16.8830E+06     42.9987E+06     1.66083E+06    -289.699E-03     579.596E-03    -289.897E-03     63.1427E-03    -290.378E-03     580.028E-03    -289.632E-03     56.9712E-03
            1725     7.40996E-03     65.7100E-03    -58.9158E+06    -20.3519E+06     29.6636E+06     1.86434E+06    -289.793E-03     579.757E-03    -289.963E-03     58.0777E-03    -290.353E-03     579.949E-03    -289.700E-03     53.2109E-03
            1726     6.73598E-03     65.6177E-03    -66.9140E+06    -56.5741E+06     14.9598E+06     1.39446E+06    -289.857E-03     579.876E-03    -290.019E-03     52.9470E-03    -290.316E-03     579.853E-03    -289.765E-03     49.2036E-03
            1727     6.06197E-03     65.5328E-03    -75.2572E+06    -87.0308E+06     62.8311E+03     850.245E+03    -289.883E-03     579.945E-03    -290.063E-03     47.6038E-03    -290.265E-03     579.751E-03    -289.827E-03     44.8344E-03
            1728     5.38811E-03     65.4563E-03    -83.7955E+06    -113.814E+06    -15.5967E+06     573.086E+03    -289.884E-03     579.979E-03    -290.095E-03     42.0529E-03    -290.206E-03     579.645E-03    -289.887E-03     40.1112E-03
            1729     4.71427E-03     65.3884E-03    -92.3607E+06    -138.366E+06    -32.3717E+06     409.013E+03    -289.881E-03     579.998E-03    -290.117E-03     36.4823E-03    -290.155E-03     579.547E-03    -289.944E-03     35.2071E-03
            1730     4.04062E-03     65.3295E-03    -100.913E+06    -163.890E+06    -50.1298E+06     210.528E+03    -289.902E-03     580.034E-03    -290.132E-03     31.0136E-03    -290.135E-03     579.472E-03    -289.999E-03     30.2378E-03
            1731     3.36697E-03     65.2794E-03    -109.218E+06    -185.890E+06    -68.8044E+06     87.6284E+03    -289.932E-03     580.064E-03    -290.132E-03     25.6389E-03    -290.132E-03     579.416E-03    -290.048E-03     25.2235E-03
            1732     2.69349E-03     65.2384E-03    -116.916E+06    -204.245E+06    -87.7483E+06     29.4150E+03    -289.961E-03     580.078E-03    -290.117E-03     20.3761E-03    -290.135E-03     579.367E-03    -290.090E-03     20.2006E-03
            1733     2.02002E-03     65.2064E-03    -123.589E+06    -223.242E+06    -105.388E+06     20.1851E+03    -289.999E-03     580.101E-03    -290.102E-03     15.2373E-03    -290.147E-03     579.323E-03    -290.126E-03     15.1970E-03
            1734     1.34667E-03     65.1834E-03    -128.815E+06    -238.631E+06    -119.992E+06     27.5670E+03    -290.036E-03     580.121E-03    -290.085E-03     10.2318E-03    -290.162E-03     579.291E-03    -290.152E-03     10.2482E-03
            1735     673.329E-06     65.1693E-03    -132.168E+06    -248.968E+06    -129.858E+06     11.8230E+03    -290.079E-03     580.135E-03    -290.057E-03     5.55723E-03    -290.191E-03     579.271E-03    -290.153E-03     5.57661E-03
            1736     12.8050E-03     64.8783E-03    -4.20974E+06     79.5599E+06     96.5224E+06     166.928E+03    -288.404E-03     578.054E-03    -289.650E-03     59.6542E-03    -289.572E-03     579.209E-03    -289.277E-03     44.1028E-03
            1737     12.1301E-03     64.7782E-03    -10.9528E+06     78.6831E+06     96.3058E+06     223.149E+03    -288.640E-03     578.343E-03    -289.703E-03     72.3665E-03    -290.000E-03     579.664E-03    -289.320E-03     56.2569E-03
            1738     11.4552E-03     64.6750E-03    -18.2427E+06     60.0872E+06     86.5791E+06     574.275E+03    -289.130E-03     578.869E-03    -289.739E-03     73.2540E-03    -290.312E-03     579.948E-03    -289.367E-03     59.4173E-03
            1739     10.7814E-03     64.5627E-03    -23.7142E+06     45.2790E+06     77.7259E+06     876.173E+03    -289.485E-03     579.255E-03    -289.771E-03     75.1975E-03    -290.578E-03     580.199E-03    -289.413E-03     62.7512E-03
            1740     10.1070E-03     64.4481E-03    -29.8190E+06     44.1035E+06     71.2537E+06     1.11721E+06    -289.538E-03     579.340E-03    -289.802E-03     73.9592E-03    -290.525E-03     580.171E-03    -289.467E-03     63.1866E-03
            1741     9.43237E-03     64.3351E-03    -37.0122E+06     42.2291E+06     61.1367E+06     1.35523E+06    -289.566E-03     579.395E-03    -289.829E-03     71.1813E-03    -290.447E-03     580.117E-03    -289.531E-03     62.0435E-03
            1742     8.75809E-03     64.2242E-03    -44.9014E+06     36.9602E+06     52.0327E+06     863.477E+03    -289.632E-03     579.504E-03    -289.873E-03     67.6315E-03    -290.422E-03     580.116E-03    -289.601E-03     59.9870E-03
            1743     8.08389E-03     64.1181E-03    -52.5469E+06     16.2573E+06     42.3936E+06     314.925E+03    -289.699E-03     579.637E-03    -289.938E-03     63.0900E-03    -290.384E-03     580.070E-03    -289.673E-03     56.8785E-03
            1744     7.40972E-03     64.0187E-03    -59.9203E+06    -20.3705E+06     29.4526E+06     347.333E+03    -289.786E-03     579.794E-03    -290.008E-03     58.1366E-03    -290.351E-03     579.989E-03    -289.745E-03     53.2344E-03
            1745     6.73557E-03     63.9261E-03    -67.4403E+06    -55.8246E+06     15.1985E+06     566.725E+03    -289.876E-03     579.944E-03    -290.068E-03     53.0423E-03    -290.340E-03     579.926E-03    -289.813E-03     49.2746E-03
            1746     6.06164E-03     63.8412E-03    -75.3192E+06    -86.1956E+06     493.100E+03     586.193E+03    -289.932E-03     580.045E-03    -290.113E-03     47.6532E-03    -290.317E-03     579.856E-03    -289.876E-03     44.8645E-03
            1747     5.38778E-03     63.7644E-03    -83.5431E+06    -113.319E+06    -15.1405E+06     429.920E+03    -289.955E-03     580.099E-03    -290.144E-03     42.0618E-03    -290.277E-03     579.767E-03    -289.934E-03     40.0988E-03
            1748     4.71411E-03     63.6965E-03    -91.9519E+06    -137.866E+06    -31.8672E+06     288.403E+03    -289.961E-03     580.123E-03    -290.162E-03     36.4892E-03    -290.236E-03     579.674E-03    -289.988E-03     35.1877E-03
            1749     4.04043E-03     63.6373E-03    -100.361E+06    -163.532E+06    -49.5713E+06     209.288E+03    -289.975E-03     580.147E-03    -290.172E-03     31.0390E-03    -290.207E-03     579.586E-03    -290.037E-03     30.2370E-03
            1750     3.36693E-03     63.5872E-03    -108.589E+06    -185.654E+06    -68.2130E+06     144.944E+03    -289.987E-03     580.154E-03    -290.167E-03     25.6802E-03    -290.185E-03     579.505E-03    -290.081E-03     25.2416E-03
            1751     2.69342E-03     63.5461E-03    -116.276E+06    -204.092E+06    -87.1717E+06     86.3343E+03    -289.999E-03     580.149E-03    -290.150E-03     20.4312E-03    -290.172E-03     579.437E-03    -290.121E-03     20.2364E-03
            1752     2.02002E-03     63.5140E-03    -122.963E+06    -223.195E+06    -104.794E+06     37.7216E+03    -290.031E-03     580.165E-03    -290.134E-03     15.2950E-03    -290.177E-03     579.386E-03    -290.156E-03     15.2392E-03
            1753     1.34662E-03     63.4910E-03    -128.196E+06    -238.581E+06    -119.373E+06     10.0145E+03    -290.066E-03     580.185E-03    -290.119E-03     10.2786E-03    -290.191E-03     579.354E-03    -290.184E-03     10.2843E-03
            1754     673.291E-06     63.4769E-03    -131.627E+06    -248.934E+06    -129.196E+06     16.2106E+03    -290.123E-03     580.204E-03    -290.081E-03     5.58437E-03    -290.234E-03     579.338E-03    -290.175E-03     5.59851E-03
            1755     12.8041E-03     63.1879E-03    -5.18057E+06     78.8504E+06     95.2977E+06    -267.896E+03    -288.367E-03     578.027E-03    -289.660E-03     59.7791E-03    -289.537E-03     579.182E-03    -289.290E-03     44.2376E-03
            1756     12.1299E-03     63.0876E-03    -9.85397E+06     75.4463E+06     95.8759E+06     848.090E+03    -288.791E-03     578.507E-03    -289.715E-03     72.2682E-03    -290.140E-03     579.810E-03    -289.331E-03     56.1630E-03
            1757     11.4560E-03     62.9843E-03    -15.6331E+06     59.9566E+06     87.8045E+06     2.27362E+06    -289.112E-03     578.862E-03    -289.750E-03     73.1269E-03    -290.283E-03     579.936E-03    -289.375E-03     59.2882E-03
            1758     10.7810E-03     62.8723E-03    -23.2210E+06     47.9566E+06     77.7276E+06     1.66483E+06    -289.303E-03     579.084E-03    -289.781E-03     75.0358E-03    -290.398E-03     580.042E-03    -289.428E-03     62.5656E-03
            1759     10.1065E-03     62.7575E-03    -30.7563E+06     43.7937E+06     69.8929E+06     589.775E+03    -289.456E-03     579.277E-03    -289.821E-03     73.7706E-03    -290.447E-03     580.111E-03    -289.490E-03     62.9581E-03
            1760     9.43241E-03     62.6442E-03    -36.9389E+06     41.9048E+06     61.9433E+06     647.057E+03    -289.574E-03     579.434E-03    -289.860E-03     71.1629E-03    -290.458E-03     580.156E-03    -289.558E-03     61.9799E-03
            1761     8.75804E-03     62.5333E-03    -42.9043E+06     38.7573E+06     54.0675E+06     724.750E+03    -289.628E-03     579.535E-03    -289.907E-03     67.8025E-03    -290.416E-03     580.151E-03    -289.630E-03     60.1383E-03
            1762     8.08362E-03     62.4270E-03    -50.2198E+06     17.2343E+06     43.7152E+06     221.806E+03    -289.687E-03     579.660E-03    -289.973E-03     63.2642E-03    -290.365E-03     580.094E-03    -289.707E-03     57.0375E-03
            1763     7.40934E-03     62.3274E-03    -58.3645E+06    -20.7257E+06     29.9583E+06    -28.9183E+03    -289.808E-03     579.855E-03    -290.047E-03     58.2406E-03    -290.367E-03     580.046E-03    -289.782E-03     53.3157E-03
            1764     6.73532E-03     62.2345E-03    -66.6700E+06    -56.0516E+06     15.4075E+06    -17.8751E+03    -289.920E-03     580.027E-03    -290.107E-03     53.0786E-03    -290.381E-03     580.008E-03    -289.852E-03     49.2801E-03
            1765     6.06142E-03     62.1492E-03    -74.9120E+06    -86.1220E+06     658.771E+03     2.26870E+03    -289.976E-03     580.128E-03    -290.151E-03     47.6754E-03    -290.361E-03     579.938E-03    -289.914E-03     44.8501E-03
            1766     5.38766E-03     62.0724E-03    -83.1879E+06    -113.011E+06    -14.8677E+06     25.6608E+03    -289.989E-03     580.171E-03    -290.183E-03     42.1267E-03    -290.311E-03     579.840E-03    -289.972E-03     40.1283E-03
            1767     4.71393E-03     62.0042E-03    -91.6346E+06    -137.758E+06    -31.5108E+06     6.75951E+03    -289.988E-03     580.191E-03    -290.203E-03     36.6156E-03    -290.263E-03     579.742E-03    -290.027E-03     35.2828E-03
            1768     4.04036E-03     61.9450E-03    -100.097E+06    -163.436E+06    -49.0979E+06     18.5514E+03    -289.999E-03     580.215E-03    -290.216E-03     31.2181E-03    -290.231E-03     579.654E-03    -290.080E-03     30.3911E-03
            1769     3.36678E-03     61.8948E-03    -108.331E+06    -185.559E+06    -67.6962E+06     32.5338E+03    -290.010E-03     580.226E-03    -290.216E-03     25.8895E-03    -290.208E-03     579.578E-03    -290.129E-03     25.4321E-03
            1770     2.69332E-03     61.8537E-03    -115.984E+06    -203.962E+06    -86.6199E+06     24.5026E+03    -290.032E-03     580.238E-03    -290.205E-03     20.6419E-03    -290.204E-03     579.525E-03    -290.175E-03     20.4320E-03
            1771     2.01989E-03     61.8215E-03    -122.643E+06    -223.111E+06    -104.286E+06    -6.97088E+03    -290.080E-03     580.275E-03    -290.195E-03     15.4730E-03    -290.225E-03     579.495E-03    -290.215E-03     15.4059E-03
            1772     1.34657E-03     61.7985E-03    -127.897E+06    -238.609E+06    -118.968E+06    -18.7984E+03    -290.127E-03     580.309E-03    -290.182E-03     10.4031E-03    -290.251E-03     579.477E-03    -290.246E-03     10.4015E-03
            1773     673.276E-06     61.7843E-03    -131.222E+06    -248.946E+06    -128.920E+06    -16.5362E+03    -290.172E-03     580.333E-03    -290.161E-03     5.66424E-03    -290.281E-03     579.466E-03    -290.254E-03     5.67522E-03
            1774     12.8044E-03     61.4973E-03    -5.27956E+06     78.5479E+06     95.2550E+06     411.032E+03    -288.435E-03     578.103E-03    -289.668E-03     59.4729E-03    -289.602E-03     579.254E-03    -289.298E-03     43.9339E-03
            1775     12.1300E-03     61.3964E-03    -11.9042E+06     73.5088E+06     93.8411E+06     286.561E+03    -288.697E-03     578.416E-03    -289.719E-03     72.2840E-03    -290.051E-03     579.716E-03    -289.339E-03     56.1694E-03
            1776     11.4552E-03     61.2938E-03    -17.7391E+06     57.6949E+06     86.4569E+06     526.503E+03    -289.058E-03     578.820E-03    -289.762E-03     73.3806E-03    -290.237E-03     579.891E-03    -289.388E-03     59.5053E-03
            1777     10.7812E-03     61.1820E-03    -22.0695E+06     48.5760E+06     79.8811E+06     1.76935E+06    -289.327E-03     579.131E-03    -289.804E-03     75.2140E-03    -290.424E-03     580.091E-03    -289.443E-03     62.7238E-03
            1778     10.1068E-03     61.0669E-03    -27.6973E+06     46.7400E+06     72.4204E+06     1.82081E+06    -289.406E-03     579.249E-03    -289.843E-03     73.9263E-03    -290.391E-03     580.092E-03    -289.508E-03     63.1170E-03
            1779     9.43198E-03     60.9536E-03    -35.2027E+06     43.4763E+06     61.7375E+06     315.725E+03    -289.505E-03     579.384E-03    -289.879E-03     71.3938E-03    -290.385E-03     580.114E-03    -289.582E-03     62.1981E-03
            1780     8.75751E-03     60.8422E-03    -42.8857E+06     38.3434E+06     53.1681E+06    -372.816E+03    -289.630E-03     579.563E-03    -289.932E-03     67.9573E-03    -290.419E-03     580.181E-03    -289.660E-03     60.2496E-03
            1781     8.08328E-03     60.7358E-03    -50.3607E+06     17.3484E+06     43.7714E+06     7.09156E+03    -289.727E-03     579.731E-03    -290.004E-03     63.3264E-03    -290.408E-03     580.168E-03    -289.737E-03     57.0500E-03
            1782     7.40920E-03     60.6358E-03    -58.0305E+06    -20.4066E+06     30.4909E+06     163.613E+03    -289.839E-03     579.917E-03    -290.078E-03     58.3350E-03    -290.400E-03     580.111E-03    -289.812E-03     53.3644E-03
            1783     6.73518E-03     60.5427E-03    -65.8852E+06    -55.7682E+06     16.2267E+06     13.0864E+03    -289.916E-03     580.057E-03    -290.141E-03     53.2534E-03    -290.376E-03     580.039E-03    -289.884E-03     49.4192E-03
            1784     6.06128E-03     60.4573E-03    -74.1839E+06    -86.1152E+06     1.38258E+06    -187.902E+03    -289.944E-03     580.136E-03    -290.193E-03     47.9251E-03    -290.327E-03     579.946E-03    -289.953E-03     45.0698E-03
            1785     5.38742E-03     60.3802E-03    -82.7648E+06    -113.282E+06    -14.3422E+06    -206.704E+03    -289.952E-03     580.186E-03    -290.235E-03     42.4382E-03    -290.273E-03     579.854E-03    -290.022E-03     40.4130E-03
            1786     4.71371E-03     60.3120E-03    -91.3184E+06    -137.808E+06    -31.0437E+06    -102.849E+03    -289.964E-03     580.232E-03    -290.267E-03     36.9561E-03    -290.238E-03     579.782E-03    -290.090E-03     35.6054E-03
            1787     4.04001E-03     60.2527E-03    -99.8727E+06    -163.554E+06    -48.7372E+06    -82.3017E+03    -290.001E-03     580.296E-03    -290.295E-03     31.5436E-03    -290.233E-03     579.734E-03    -290.156E-03     30.7039E-03
            1788     3.36648E-03     60.2023E-03    -108.211E+06    -185.602E+06    -67.4363E+06    -62.4059E+03    -290.045E-03     580.353E-03    -290.308E-03     26.1783E-03    -290.244E-03     579.704E-03    -290.219E-03     25.7095E-03
            1789     2.69300E-03     60.1610E-03    -115.970E+06    -203.962E+06    -86.5480E+06    -66.1405E+03    -290.097E-03     580.404E-03    -290.307E-03     20.8887E-03    -290.269E-03     579.692E-03    -290.276E-03     20.6674E-03
            1790     2.01967E-03     60.1288E-03    -122.720E+06    -223.169E+06    -104.378E+06    -45.9608E+03    -290.169E-03     580.474E-03    -290.305E-03     15.6693E-03    -290.315E-03     579.694E-03    -290.325E-03     15.5931E-03
            1791     1.34638E-03     60.1056E-03    -128.018E+06    -238.675E+06    -119.128E+06    -21.6634E+03    -290.234E-03     580.533E-03    -290.299E-03     10.5446E-03    -290.358E-03     579.701E-03    -290.363E-03     10.5362E-03
            1792     673.175E-06     60.0914E-03    -131.379E+06    -249.012E+06    -129.053E+06    -20.7249E+03    -290.289E-03     580.572E-03    -290.283E-03     5.72732E-03    -290.399E-03     579.706E-03    -290.377E-03     5.73176E-03
            1793     12.8044E-03     59.8064E-03    -4.79931E+06     77.4612E+06     94.2821E+06     621.479E+03    -288.362E-03     578.030E-03    -289.668E-03     59.6585E-03    -289.527E-03     579.180E-03    -289.302E-03     44.1120E-03
            1794     12.1297E-03     59.7066E-03    -9.63948E+06     74.0535E+06     94.1935E+06     1.11909E+06    -288.603E-03     578.329E-03    -289.726E-03     72.2918E-03    -289.950E-03     579.631E-03    -289.349E-03     56.1606E-03
            1795     11.4553E-03     59.6032E-03    -15.8059E+06     59.0714E+06     86.8191E+06     293.819E+03    -288.929E-03     578.706E-03    -289.776E-03     73.2773E-03    -290.102E-03     579.780E-03    -289.405E-03     59.3857E-03
            1796     10.7807E-03     59.4909E-03    -22.7082E+06     47.2069E+06     78.4782E+06    -1.06773E+06    -289.228E-03     579.054E-03    -289.826E-03     75.3802E-03    -290.326E-03     580.011E-03    -289.469E-03     62.8521E-03
            1797     10.1061E-03     59.3766E-03    -28.1338E+06     44.9322E+06     71.8009E+06    -235.222E+03    -289.463E-03     579.335E-03    -289.872E-03     74.2078E-03    -290.450E-03     580.173E-03    -289.537E-03     63.3551E-03
            1798     9.43183E-03     59.2628E-03    -33.5921E+06     44.7655E+06     63.6827E+06     1.43039E+06    -289.610E-03     579.521E-03    -289.910E-03     71.4915E-03    -290.489E-03     580.255E-03    -289.608E-03     62.2703E-03
            1799     8.75752E-03     59.1512E-03    -41.1034E+06     39.9528E+06     55.0977E+06     1.19603E+06    -289.646E-03     579.606E-03    -289.961E-03     67.9821E-03    -290.433E-03     580.230E-03    -289.683E-03     60.2547E-03
            1800     8.08323E-03     59.0444E-03    -49.3906E+06     17.8143E+06     44.8579E+06     186.554E+03    -289.670E-03     579.706E-03    -290.035E-03     63.5222E-03    -290.352E-03     580.144E-03    -289.765E-03     57.2192E-03
            1801     7.40900E-03     58.9444E-03    -57.3529E+06    -20.1598E+06     31.4139E+06    -167.925E+03    -289.758E-03     579.877E-03    -290.119E-03     58.7218E-03    -290.319E-03     580.073E-03    -289.850E-03     53.7209E-03
            1802     6.73488E-03     58.8510E-03    -65.5483E+06    -55.8192E+06     16.8795E+06    -136.736E+03    -289.832E-03     580.028E-03    -290.196E-03     53.7049E-03    -290.294E-03     580.010E-03    -289.936E-03     49.8480E-03
            1803     6.06086E-03     58.7654E-03    -73.8896E+06    -86.1736E+06     1.83018E+06     36.3916E+03    -289.874E-03     580.137E-03    -290.263E-03     48.3728E-03    -290.257E-03     579.947E-03    -290.022E-03     45.5035E-03
            1804     5.38696E-03     58.6882E-03    -82.4701E+06    -113.278E+06    -14.2725E+06     26.5867E+03    -289.915E-03     580.236E-03    -290.320E-03     42.8554E-03    -290.237E-03     579.904E-03    -290.108E-03     40.8154E-03
            1805     4.71314E-03     58.6197E-03     -91.191E+06    -138.039E+06    -31.2543E+06    -46.0363E+03    -289.970E-03     580.338E-03    -290.368E-03     37.3178E-03    -290.243E-03     579.888E-03    -290.192E-03     35.9488E-03
            1806     4.03953E-03     58.5601E-03    -99.7684E+06    -163.604E+06    -48.9756E+06     8.21707E+03    -290.046E-03     580.455E-03    -290.410E-03     31.8382E-03    -290.277E-03     579.893E-03    -290.273E-03     30.9809E-03
            1807     3.36600E-03     58.5095E-03    -108.091E+06    -185.615E+06    -67.6626E+06    -17.3862E+03    -290.125E-03     580.560E-03    -290.435E-03     26.4210E-03    -290.323E-03     579.911E-03    -290.347E-03     25.9346E-03
            1808     2.69263E-03     58.4681E-03    -115.816E+06    -204.104E+06    -86.6729E+06     12.4322E+03    -290.206E-03     580.651E-03    -290.445E-03     21.0845E-03    -290.378E-03     579.938E-03    -290.414E-03     20.8475E-03
            1809     2.01934E-03     58.4356E-03    -122.532E+06    -223.227E+06    -104.381E+06     56.0701E+03    -290.296E-03     580.747E-03    -290.451E-03     15.8151E-03    -290.441E-03     579.967E-03    -290.472E-03     15.7257E-03
            1810     1.34618E-03     58.4123E-03    -127.795E+06    -238.635E+06    -119.008E+06     42.8789E+03    -290.375E-03     580.828E-03    -290.453E-03     10.6393E-03    -290.498E-03     579.996E-03    -290.517E-03     10.6202E-03
            1811     673.060E-06     58.3980E-03    -131.377E+06    -249.033E+06    -128.867E+06     35.1854E+03    -290.469E-03     580.888E-03    -290.419E-03     5.78334E-03    -290.579E-03     580.021E-03    -290.511E-03     5.78353E-03
            1812     12.8039E-03     58.1161E-03    -4.35448E+06     76.1813E+06     94.2180E+06    -448.144E+03    -288.233E-03     577.910E-03    -289.678E-03     59.5664E-03    -289.392E-03     579.052E-03    -289.311E-03     44.0144E-03
            1813     12.1297E-03     58.0156E-03    -9.44695E+06     72.8550E+06     94.4688E+06    -159.271E+03    -288.582E-03     578.324E-03    -289.742E-03     72.3652E-03    -289.928E-03     579.621E-03    -289.362E-03     56.2094E-03
            1814     11.4552E-03     57.9130E-03    -14.8414E+06     60.8484E+06     87.2811E+06     472.097E+03    -288.897E-03     578.687E-03    -289.791E-03     73.3922E-03    -290.071E-03     579.772E-03    -289.421E-03     59.4766E-03
            1815     10.7804E-03     57.8012E-03    -20.8276E+06     49.2541E+06     78.5216E+06     543.087E+03    -289.189E-03     579.028E-03    -289.839E-03     75.2170E-03    -290.280E-03     579.992E-03    -289.488E-03     62.6976E-03
            1816     10.1059E-03     57.6854E-03    -28.4626E+06     43.7781E+06     70.7062E+06    -801.593E+03    -289.417E-03     579.308E-03    -289.891E-03     74.0620E-03    -290.403E-03     580.143E-03    -289.560E-03     63.1797E-03
            1817     9.43163E-03     57.5717E-03    -35.4344E+06     41.8370E+06     62.6339E+06    -1.13480E+06    -289.537E-03     579.477E-03    -289.941E-03     71.7677E-03    -290.423E-03     580.205E-03    -289.637E-03     62.4741E-03
            1818     8.75728E-03     57.4601E-03    -41.0277E+06     39.7188E+06     55.8257E+06     299.230E+03    -289.542E-03     579.545E-03    -290.003E-03     68.5307E-03    -290.333E-03     580.170E-03    -289.722E-03     60.7766E-03
            1819     8.08280E-03     57.3535E-03    -47.9433E+06     19.0913E+06     45.9442E+06     983.822E+03    -289.557E-03     579.647E-03    -290.091E-03     64.1093E-03    -290.237E-03     580.092E-03    -289.819E-03     57.8140E-03
            1820     7.40843E-03     57.2529E-03    -56.3967E+06    -19.5604E+06     31.6670E+06     716.440E+03    -289.669E-03     579.858E-03    -290.189E-03     59.2654E-03    -290.229E-03     580.057E-03    -289.921E-03     54.2646E-03
            1821     6.73423E-03     57.1594E-03    -64.9850E+06    -55.8587E+06     16.7570E+06     529.207E+03    -289.780E-03     580.063E-03    -290.282E-03     54.1651E-03    -290.241E-03     580.046E-03    -290.023E-03     50.2917E-03
            1822     6.06018E-03     57.0734E-03    -73.6294E+06    -86.2941E+06     1.66542E+06     478.275E+03    -289.862E-03     580.226E-03    -290.365E-03     48.7636E-03    -290.245E-03     580.037E-03    -290.125E-03     45.8726E-03
            1823     5.38627E-03     56.9959E-03    -82.3049E+06    -113.016E+06    -14.3224E+06     484.003E+03    -289.943E-03     580.379E-03    -290.436E-03     43.1859E-03    -290.265E-03     580.049E-03    -290.224E-03     41.1233E-03
            1824     4.71256E-03     56.9271E-03    -90.9994E+06    -137.842E+06    -31.3856E+06     434.164E+03    -290.029E-03     580.525E-03    -290.496E-03     37.6015E-03    -290.302E-03     580.077E-03    -290.321E-03     36.2073E-03
            1825     4.03894E-03     56.8672E-03    -99.7020E+06    -163.409E+06    -49.2575E+06     287.202E+03    -290.129E-03     580.677E-03    -290.548E-03     32.0961E-03    -290.360E-03     580.117E-03    -290.412E-03     31.2116E-03
            1826     3.36551E-03     56.8164E-03    -108.080E+06    -185.466E+06    -67.9350E+06     211.549E+03    -290.236E-03     580.818E-03    -290.583E-03     26.6487E-03    -290.434E-03     580.171E-03    -290.497E-03     26.1368E-03
            1827     2.69219E-03     56.7746E-03    -115.841E+06    -204.160E+06    -86.8269E+06     173.734E+03    -290.340E-03     580.941E-03    -290.601E-03     21.2724E-03    -290.512E-03     580.229E-03    -290.571E-03     21.0131E-03
            1828     2.01903E-03     56.7419E-03    -122.554E+06    -223.107E+06    -104.406E+06     159.253E+03    -290.446E-03     581.059E-03    -290.614E-03     15.9641E-03    -290.591E-03     580.280E-03    -290.634E-03     15.8567E-03
            1829     1.34594E-03     56.7185E-03    -127.825E+06    -238.473E+06    -118.987E+06     134.096E+03    -290.537E-03     581.156E-03    -290.619E-03     10.7445E-03    -290.661E-03     580.325E-03    -290.683E-03     10.7144E-03
            1830     672.954E-06     56.7041E-03    -131.271E+06    -248.784E+06    -128.874E+06     103.137E+03    -290.633E-03     581.224E-03    -290.591E-03     5.84772E-03    -290.743E-03     580.358E-03    -290.684E-03     5.84396E-03
            1831     12.8043E-03     56.4257E-03    -5.98724E+06     75.5810E+06     94.2082E+06    -95.6453E+03    -288.014E-03     577.690E-03    -289.676E-03     59.2799E-03    -289.178E-03     578.828E-03    -289.306E-03     43.7403E-03
            1832     12.1293E-03     56.3255E-03    -12.5546E+06     74.5554E+06     94.4390E+06    -443.985E+03    -288.331E-03     578.082E-03    -289.751E-03     72.1499E-03    -289.691E-03     579.389E-03    -289.369E-03     56.0111E-03
            1833     11.4546E-03     56.2225E-03    -18.3218E+06     59.8088E+06     87.2317E+06    -1.54569E+06    -288.842E-03     578.654E-03    -289.812E-03     73.3403E-03    -290.031E-03     579.737E-03    -289.436E-03     59.4013E-03
            1834     10.7806E-03     56.1102E-03    -23.3518E+06     47.1243E+06     79.1116E+06    -983.857E+03    -289.174E-03     579.041E-03    -289.866E-03     75.4755E-03    -290.279E-03     580.001E-03    -289.505E-03     62.9162E-03
            1835     10.1061E-03     55.9953E-03    -28.8059E+06     46.9911E+06     72.0076E+06    -77.9494E+03    -289.207E-03     579.127E-03    -289.920E-03     74.5439E-03    -290.205E-03     579.981E-03    -289.587E-03     63.6684E-03
            1836     9.43114E-03     55.8811E-03    -35.9286E+06     41.9699E+06     60.5318E+06    -1.12370E+06    -289.261E-03     579.239E-03    -289.978E-03     72.2361E-03    -290.150E-03     579.974E-03    -289.684E-03     62.9448E-03
            1837     8.75643E-03     55.7692E-03    -44.1681E+06     36.6565E+06     52.1060E+06    -1.65721E+06    -289.355E-03     579.420E-03    -290.065E-03     68.9616E-03    -290.156E-03     580.042E-03    -289.793E-03     61.1699E-03
            1838     8.08197E-03     55.6622E-03    -51.6364E+06     16.9770E+06     43.1349E+06    -607.754E+03    -289.485E-03     579.658E-03    -290.173E-03     64.5512E-03    -290.179E-03     580.104E-03    -289.907E-03     58.2036E-03
            1839     7.40764E-03     55.5615E-03    -58.8426E+06    -19.7184E+06     29.9778E+06     375.104E+03    -289.648E-03     579.933E-03    -290.286E-03     59.6680E-03    -290.221E-03     580.141E-03    -290.022E-03     54.6185E-03
            1840     6.73345E-03     55.4675E-03    -66.6421E+06    -55.7029E+06     15.5011E+06      558.13E+03    -289.783E-03     580.173E-03    -290.391E-03     54.5223E-03    -290.253E-03     580.165E-03    -290.136E-03     50.6035E-03
            1841     6.05943E-03     55.3813E-03    -74.7658E+06    -86.0988E+06     814.167E+03     611.585E+03    -289.896E-03     580.381E-03    -290.486E-03     49.1001E-03    -290.286E-03     580.198E-03    -290.248E-03     46.1671E-03
            1842     5.38558E-03     55.3033E-03    -83.1822E+06    -112.920E+06    -14.9589E+06     641.320E+03    -289.997E-03     580.566E-03    -290.568E-03     43.5162E-03    -290.325E-03     580.240E-03    -290.359E-03     41.4167E-03
            1843     4.71185E-03     55.2342E-03    -91.7964E+06    -137.404E+06    -31.8746E+06     597.558E+03    -290.102E-03     580.742E-03    -290.639E-03     37.9269E-03    -290.381E-03     580.299E-03    -290.466E-03     36.4970E-03
            1844     4.03833E-03     55.1739E-03    -100.281E+06    -162.962E+06    -49.5845E+06     518.837E+03    -290.230E-03     580.932E-03    -290.702E-03     32.4044E-03    -290.466E-03     580.377E-03    -290.568E-03     31.4863E-03
            1845     3.36495E-03     55.1227E-03    -108.586E+06    -185.133E+06    -68.2433E+06     400.797E+03    -290.361E-03     581.107E-03    -290.746E-03     26.9283E-03    -290.562E-03     580.463E-03    -290.662E-03     26.3851E-03
            1846     2.69175E-03     55.0806E-03    -116.297E+06    -203.857E+06    -87.1842E+06     296.699E+03    -290.486E-03     581.258E-03    -290.773E-03     21.5112E-03    -290.660E-03     580.549E-03    -290.744E-03     21.2254E-03
            1847     2.01865E-03     55.0477E-03    -122.993E+06    -222.868E+06    -104.810E+06     201.353E+03    -290.611E-03     581.402E-03    -290.791E-03     16.1521E-03    -290.759E-03     580.626E-03    -290.813E-03     16.0238E-03
            1848     1.34571E-03     55.0241E-03    -128.226E+06    -238.197E+06    -119.395E+06     136.658E+03    -290.715E-03     581.514E-03    -290.799E-03     10.8746E-03    -290.841E-03     580.685E-03    -290.865E-03     10.8300E-03
            1849     672.826E-06     55.0095E-03    -131.506E+06    -248.411E+06    -129.219E+06     65.4466E+03    -290.797E-03     581.586E-03    -290.789E-03     5.91862E-03    -290.908E-03     580.723E-03    -290.884E-03     5.90521E-03
            1850     12.8044E-03     54.7362E-03    -4.61809E+06     75.6927E+06     94.7091E+06     422.015E+03    -287.973E-03     577.638E-03    -289.665E-03     59.3516E-03    -289.132E-03     578.775E-03    -289.295E-03     43.8153E-03
            1851     12.1297E-03     54.6358E-03    -9.72726E+06     75.9875E+06     96.2902E+06     303.443E+03    -288.208E-03     577.956E-03    -289.748E-03     72.0399E-03    -289.558E-03     579.262E-03    -289.362E-03     55.9199E-03
            1852     11.4551E-03     54.5321E-03    -16.7614E+06     61.9475E+06     86.9423E+06    -4.39252E+03    -288.482E-03     578.295E-03    -289.813E-03     73.3205E-03    -289.665E-03     579.386E-03    -289.444E-03     59.4320E-03
            1853     10.7799E-03     54.4201E-03    -24.2709E+06     47.2910E+06     75.3092E+06    -1.52233E+06    -288.767E-03     578.649E-03    -289.881E-03     75.7503E-03    -289.874E-03     579.618E-03    -289.538E-03     63.1983E-03
            1854     10.1050E-03     54.3049E-03    -30.7730E+06     45.2528E+06     69.3142E+06    -2.14019E+06    -289.003E-03     578.971E-03    -289.969E-03     75.0103E-03    -290.009E-03     579.828E-03    -289.643E-03     64.0901E-03
            1855     9.43050E-03     54.1909E-03    -37.2886E+06     41.7255E+06     60.3509E+06    -782.346E+03    -289.186E-03     579.237E-03    -290.051E-03     72.6470E-03    -290.086E-03     579.977E-03    -289.756E-03     63.3325E-03
            1856     8.75582E-03     54.0786E-03    -44.3036E+06     37.0354E+06     51.6900E+06    -330.706E+03    -289.293E-03     579.438E-03    -290.145E-03     69.2209E-03    -290.098E-03     580.067E-03    -289.876E-03     61.4100E-03
            1857     8.08117E-03     53.9711E-03    -52.0959E+06     15.4288E+06     41.7585E+06    -962.721E+03    -289.414E-03     579.679E-03    -290.265E-03     64.7936E-03    -290.111E-03     580.125E-03    -290.004E-03     58.3910E-03
            1858     7.40680E-03     53.8698E-03    -60.2773E+06    -21.4887E+06     28.3795E+06    -913.218E+03    -289.601E-03     579.995E-03    -290.394E-03     59.9954E-03    -290.181E-03     580.202E-03    -290.133E-03     54.8717E-03
            1859     6.73262E-03     53.7755E-03    -68.1134E+06    -56.2797E+06     14.2734E+06    -284.500E+03    -289.782E-03     580.295E-03    -290.513E-03     54.9148E-03    -290.261E-03     580.291E-03    -290.261E-03     50.9325E-03
            1860     6.05859E-03     53.6888E-03    -76.1520E+06    -86.4726E+06    -256.313E+03     108.095E+03    -289.928E-03     580.550E-03    -290.622E-03     49.5148E-03    -290.326E-03     580.371E-03    -290.387E-03     46.5256E-03
            1861     5.38475E-03     53.6105E-03    -84.4608E+06    -112.911E+06    -15.8478E+06     291.881E+03    -290.056E-03     580.773E-03    -290.717E-03     43.9294E-03    -290.390E-03     580.453E-03    -290.510E-03     41.7770E-03
            1862     4.71109E-03     53.5408E-03    -92.8386E+06    -137.162E+06    -32.6152E+06     309.718E+03    -290.188E-03     580.989E-03    -290.800E-03     38.3250E-03    -290.473E-03     580.551E-03    -290.630E-03     36.8462E-03
            1863     4.03761E-03     53.4801E-03    -101.274E+06    -162.668E+06    -50.3038E+06     260.687E+03    -290.343E-03     581.218E-03    -290.875E-03     32.7834E-03    -290.584E-03     580.667E-03    -290.743E-03     31.8185E-03
            1864     3.36434E-03     53.4285E-03    -109.425E+06    -184.802E+06    -68.8782E+06     222.296E+03    -290.501E-03     581.431E-03    -290.930E-03     27.2755E-03    -290.707E-03     580.792E-03    -290.847E-03     26.6907E-03
            1865     2.69120E-03     53.3861E-03    -117.017E+06    -203.536E+06    -87.7590E+06     156.813E+03    -290.654E-03     581.618E-03    -290.964E-03     21.7997E-03    -290.832E-03     580.913E-03    -290.938E-03     21.4792E-03
            1866     2.01827E-03     53.3529E-03    -123.617E+06    -222.603E+06    -105.375E+06     98.3197E+03    -290.798E-03     581.786E-03    -290.988E-03     16.3726E-03    -290.949E-03     581.013E-03    -291.013E-03     16.2176E-03
            1867     1.34542E-03     53.3290E-03    -128.808E+06    -237.969E+06    -119.977E+06     45.7740E+03    -290.911E-03     581.912E-03    -291.000E-03     11.0271E-03    -291.040E-03     581.086E-03    -291.068E-03     10.9636E-03
            1868     672.697E-06     53.3143E-03    -132.047E+06    -248.208E+06    -129.811E+06     3.40303E+03    -290.995E-03     581.992E-03    -290.996E-03     5.99679E-03    -291.108E-03     581.131E-03    -291.094E-03     5.97124E-03
            1869     12.8044E-03     53.0461E-03    -4.59596E+06     74.8893E+06     95.1155E+06    -246.960E+03    -287.907E-03     577.580E-03    -289.672E-03     59.6454E-03    -289.067E-03     578.713E-03    -289.299E-03     44.1252E-03
            1870     12.1298E-03     52.9457E-03    -10.2391E+06     74.9285E+06     96.1767E+06     365.610E+03    -288.041E-03     577.802E-03    -289.761E-03     72.6202E-03    -289.396E-03     579.108E-03    -289.374E-03     56.5241E-03
            1871     11.4546E-03     52.8433E-03    -15.6494E+06     62.3619E+06     88.2704E+06     1.21635E+06    -288.266E-03     578.109E-03    -289.843E-03     73.8484E-03    -289.450E-03     579.202E-03    -289.469E-03     59.9971E-03
            1872     10.7796E-03     52.7308E-03    -22.0806E+06     51.0988E+06     77.7869E+06     1.57725E+06    -288.544E-03     578.472E-03    -289.927E-03     75.8876E-03    -289.649E-03     579.454E-03    -289.581E-03     63.4000E-03
            1873     10.1045E-03     52.6151E-03    -30.6337E+06     47.5033E+06     68.9598E+06     11.3307E+03    -288.796E-03     578.819E-03    -290.023E-03     74.9966E-03    -289.806E-03     579.690E-03    -289.703E-03     64.0894E-03
            1874     9.42956E-03     52.5003E-03    -38.6117E+06     40.1481E+06     58.2391E+06    -1.74022E+06    -289.072E-03     579.192E-03    -290.120E-03     72.8094E-03    -289.977E-03     579.934E-03    -289.831E-03     63.4384E-03
            1875     8.75499E-03     52.3877E-03    -45.2125E+06     36.1426E+06     50.9551E+06    -1.60190E+06    -289.222E-03     579.455E-03    -290.233E-03     69.5767E-03    -290.034E-03     580.087E-03    -289.965E-03     61.6914E-03
            1876     8.08049E-03     52.2800E-03    -52.1424E+06     15.2790E+06     41.6990E+06    -738.773E+03    -289.333E-03     579.702E-03    -290.369E-03     65.2709E-03    -290.035E-03     580.152E-03    -290.107E-03     58.8168E-03
            1877     7.40595E-03     52.1783E-03    -60.0041E+06    -22.0805E+06     28.0954E+06    -580.608E+03    -289.540E-03     580.054E-03    -290.514E-03     60.4980E-03    -290.121E-03     580.262E-03    -290.255E-03     55.3323E-03
            1878     6.73167E-03     52.0833E-03    -68.4388E+06    -57.4547E+06     13.5866E+06    -677.256E+03    -289.766E-03     580.417E-03    -290.651E-03     55.4047E-03    -290.247E-03     580.412E-03    -290.401E-03     51.3652E-03
            1879     6.05765E-03     51.9961E-03    -76.7939E+06    -87.1716E+06    -976.454E+03    -539.047E+03    -289.956E-03     580.732E-03    -290.776E-03     49.9957E-03    -290.358E-03     580.555E-03    -290.543E-03     46.9407E-03
            1880     5.38382E-03     51.9172E-03    -84.9980E+06    -113.263E+06    -16.3902E+06    -403.317E+03    -290.122E-03     581.010E-03    -290.887E-03     44.4061E-03    -290.461E-03     580.692E-03    -290.682E-03     42.1865E-03
            1881     4.71022E-03     51.8471E-03    -93.2724E+06    -137.338E+06    -32.9610E+06    -239.178E+03    -290.288E-03     581.274E-03    -290.986E-03     38.7987E-03    -290.576E-03     580.839E-03    -290.816E-03     37.2567E-03
            1882     4.03681E-03     51.7859E-03    -101.599E+06    -162.655E+06    -50.6020E+06    -172.177E+03    -290.477E-03     581.550E-03    -291.073E-03     33.2345E-03    -290.720E-03     581.002E-03    -290.943E-03     32.2119E-03
            1883     3.36361E-03     51.7337E-03    -109.745E+06    -184.782E+06    -69.1849E+06    -192.112E+03    -290.670E-03     581.809E-03    -291.139E-03     27.6785E-03    -290.878E-03     581.172E-03    -291.058E-03     27.0414E-03
            1884     2.69064E-03     51.6909E-03    -117.299E+06    -203.596E+06    -88.1103E+06    -152.096E+03    -290.848E-03     582.030E-03    -291.183E-03     22.1364E-03    -291.027E-03     581.326E-03    -291.158E-03     21.7731E-03
            1885     2.01780E-03     51.6573E-03    -123.882E+06    -222.622E+06    -105.732E+06    -86.7446E+03    -291.009E-03     582.222E-03    -291.213E-03     16.6323E-03    -291.161E-03     581.450E-03    -291.239E-03     16.4460E-03
            1886     1.34513E-03     51.6332E-03    -129.055E+06    -237.968E+06    -120.270E+06    -41.8931E+03    -291.134E-03     582.365E-03    -291.231E-03     11.2027E-03    -291.264E-03     581.540E-03    -291.300E-03     11.1187E-03
            1887     672.527E-06     51.6183E-03    -132.420E+06    -248.229E+06    -130.058E+06    -19.2923E+03    -291.234E-03     582.458E-03    -291.224E-03     6.09360E-03    -291.349E-03     581.598E-03    -291.322E-03     6.05764E-03
            1888     12.8041E-03     51.3565E-03    -5.86887E+06     74.4532E+06     93.6824E+06    -90.8799E+03    -287.578E-03     577.271E-03    -289.692E-03     59.8524E-03    -288.743E-03     578.407E-03    -289.323E-03     44.3570E-03
            1889     12.1287E-03     51.2567E-03    -11.1800E+06     73.6244E+06     95.3529E+06    -100.135E+03    -287.841E-03     577.642E-03    -289.801E-03     72.7854E-03    -289.199E-03     578.945E-03    -289.415E-03     56.6984E-03
            1890     11.4539E-03     51.1535E-03    -17.1223E+06     60.3631E+06     88.6736E+06     162.222E+03    -288.266E-03     578.166E-03    -289.899E-03     74.0149E-03    -289.458E-03     579.253E-03    -289.518E-03     60.1372E-03
            1891     10.7790E-03     51.0412E-03    -22.9770E+06     50.0410E+06     80.3934E+06     940.952E+03    -288.563E-03     578.558E-03    -289.995E-03     76.2048E-03    -289.680E-03     579.538E-03    -289.632E-03     63.6782E-03
            1892     10.1041E-03     50.9255E-03    -28.1105E+06     50.9382E+06     73.5883E+06     2.02496E+06    -288.703E-03     578.799E-03    -290.097E-03     75.4176E-03    -289.717E-03     579.682E-03    -289.762E-03     64.5151E-03
            1893     9.42918E-03     50.8101E-03    -35.0210E+06     44.4102E+06     61.1471E+06      1.3831E+06    -288.867E-03     579.066E-03    -290.199E-03     73.2121E-03    -289.770E-03     579.825E-03    -289.907E-03     63.8583E-03
            1894     8.75418E-03     50.6970E-03    -43.9936E+06     36.9750E+06     51.0645E+06    -730.068E+03    -289.014E-03     579.344E-03    -290.330E-03     70.0281E-03    -289.827E-03     579.984E-03    -290.065E-03     62.1113E-03
            1895     8.07932E-03     50.5888E-03    -52.6743E+06     13.6837E+06     40.9496E+06    -1.55145E+06    -289.238E-03     579.729E-03    -290.491E-03     65.8463E-03    -289.945E-03     580.179E-03    -290.230E-03     59.3224E-03
            1896     7.40488E-03     50.4865E-03    -60.3084E+06    -22.9365E+06     28.1854E+06    -977.429E+03    -289.522E-03     580.179E-03    -290.657E-03     61.1013E-03    -290.109E-03     580.389E-03    -290.396E-03     55.8652E-03
            1897     6.73062E-03     50.3909E-03    -67.9576E+06    -57.5968E+06     14.1571E+06    -743.283E+03    -289.772E-03     580.584E-03    -290.812E-03     55.9760E-03    -290.256E-03     580.580E-03    -290.559E-03     51.8726E-03
            1898     6.05657E-03     50.3030E-03     -76.068E+06    -87.5167E+06    -597.654E+03    -990.373E+03    -289.989E-03     580.942E-03    -290.953E-03     50.5481E-03    -290.391E-03     580.765E-03    -290.719E-03     47.4224E-03
            1899     5.38279E-03     50.2235E-03    -84.3955E+06    -113.993E+06    -16.2658E+06    -971.091E+03    -290.189E-03     581.272E-03    -291.083E-03     44.9613E-03    -290.527E-03     580.952E-03    -290.876E-03     42.6679E-03
            1900     4.70921E-03     50.1528E-03    -92.8116E+06    -138.196E+06    -32.9123E+06    -737.235E+03    -290.401E-03     581.599E-03    -291.199E-03     39.3512E-03    -290.687E-03     581.161E-03    -291.028E-03     37.7383E-03
            1901     4.03589E-03     50.0910E-03    -101.204E+06    -163.094E+06    -50.5187E+06    -477.316E+03    -290.637E-03     581.938E-03    -291.301E-03     33.7592E-03    -290.880E-03     581.389E-03    -291.170E-03     32.6726E-03
            1902     3.36283E-03     50.0383E-03    -109.424E+06    -185.131E+06    -69.2839E+06    -291.256E+03    -290.866E-03     582.245E-03    -291.379E-03     28.1460E-03    -291.073E-03     581.607E-03    -291.298E-03     27.4560E-03
            1903     2.68994E-03     49.9949E-03    -117.141E+06    -203.957E+06    -88.3127E+06    -162.039E+03    -291.071E-03     582.503E-03    -291.432E-03     22.5208E-03    -291.249E-03     581.797E-03    -291.408E-03     22.1160E-03
            1904     2.01729E-03     49.9610E-03    -123.823E+06    -222.859E+06    -105.874E+06    -72.6751E+03    -291.252E-03     582.723E-03    -291.470E-03     16.9218E-03    -291.403E-03     581.950E-03    -291.497E-03     16.7045E-03
            1905     1.34476E-03     49.9366E-03    -129.045E+06    -238.098E+06    -120.345E+06    -25.8214E+03    -291.392E-03     582.885E-03    -291.494E-03     11.3955E-03    -291.521E-03     582.060E-03    -291.563E-03     11.2908E-03
            1906     672.359E-06     49.9216E-03    -132.387E+06    -248.298E+06    -130.090E+06    -7.83091E+03    -291.501E-03     582.989E-03    -291.487E-03     6.20040E-03    -291.615E-03     582.129E-03    -291.586E-03     6.15341E-03
            1907     12.8034E-03     49.6676E-03    -4.21993E+06     75.2285E+06     93.8729E+06         930.641    -287.440E-03     577.157E-03    -289.717E-03     59.6231E-03    -288.596E-03     578.292E-03    -289.351E-03     44.1418E-03
            1908     12.1286E-03     49.5673E-03    -9.81194E+06     72.4682E+06     95.3557E+06     17.2405E+03    -287.737E-03     577.574E-03    -289.836E-03     72.4906E-03    -289.083E-03     578.866E-03    -289.450E-03     56.4178E-03
            1909     11.4535E-03     49.4641E-03    -16.2063E+06     60.5919E+06     87.6502E+06    -104.658E+03    -288.065E-03     578.003E-03    -289.939E-03     73.9313E-03    -289.251E-03     579.093E-03    -289.565E-03     60.0347E-03
            1910     10.7783E-03     49.3516E-03    -22.1486E+06     49.0933E+06     78.8346E+06    -640.012E+03    -288.353E-03     578.403E-03    -290.050E-03     76.4197E-03    -289.466E-03     579.383E-03    -289.695E-03     63.8403E-03
            1911     10.1032E-03     49.2356E-03    -28.0620E+06     47.4826E+06     73.4419E+06     37.0885E+03    -288.556E-03     578.737E-03    -290.181E-03     75.9621E-03    -289.573E-03     579.610E-03    -289.842E-03     64.9940E-03
            1912     9.42808E-03     49.1200E-03    -34.0758E+06     45.4958E+06     64.0852E+06     1.55728E+06    -288.732E-03     579.041E-03    -290.309E-03     73.8575E-03    -289.644E-03     579.807E-03    -290.005E-03     64.4596E-03
            1913     8.75310E-03     49.0066E-03    -40.5644E+06     40.5204E+06     54.7030E+06     2.14724E+06    -288.901E-03     579.356E-03    -290.455E-03     70.5744E-03    -289.713E-03     580.009E-03    -290.182E-03     62.6601E-03
            1914     8.07831E-03     48.8975E-03    -48.6746E+06     16.0220E+06     43.4792E+06     1.09498E+06    -289.159E-03     579.791E-03    -290.632E-03     66.3747E-03    -289.858E-03     580.248E-03    -290.368E-03     59.8334E-03
            1915     7.40369E-03     48.7944E-03    -57.6252E+06    -22.9569E+06     29.4897E+06    -270.472E+03    -289.487E-03     580.306E-03    -290.819E-03     61.6932E-03    -290.069E-03     580.516E-03    -290.554E-03     56.3946E-03
            1916     6.72941E-03     48.6981E-03    -66.2103E+06    -57.6150E+06     15.2281E+06    -551.622E+03    -289.777E-03     580.771E-03    -290.994E-03     56.6213E-03    -290.258E-03     580.769E-03    -290.738E-03     52.4452E-03
            1917     6.05539E-03     48.6096E-03    -74.7998E+06    -87.4738E+06     374.405E+03    -457.271E+03    -290.019E-03     581.176E-03    -291.157E-03     51.2063E-03    -290.420E-03     581.000E-03    -290.920E-03     48.0142E-03
            1918     5.38158E-03     48.5294E-03    -83.6894E+06    -114.224E+06    -15.6855E+06    -616.631E+03    -290.265E-03     581.573E-03    -291.308E-03     45.6279E-03    -290.603E-03     581.254E-03    -291.099E-03     43.2674E-03
            1919     4.70808E-03     48.4580E-03    -92.4629E+06    -139.073E+06    -32.9547E+06    -643.800E+03    -290.538E-03     581.980E-03    -291.442E-03     40.0012E-03    -290.824E-03     581.540E-03    -291.271E-03     38.3188E-03
            1920     4.03484E-03     48.3954E-03    -101.089E+06    -164.188E+06    -51.0485E+06    -314.267E+03    -290.825E-03     582.384E-03    -291.559E-03     34.3531E-03    -291.067E-03     581.832E-03    -291.429E-03     33.2043E-03
            1921     3.36188E-03     48.3421E-03    -109.437E+06    -185.561E+06    -69.6830E+06     4.46119E+03    -291.094E-03     582.743E-03    -291.650E-03     28.6506E-03    -291.301E-03     582.105E-03    -291.570E-03     27.9096E-03
            1922     2.68919E-03     48.2981E-03    -117.113E+06    -204.108E+06    -88.3888E+06     52.8253E+03    -291.326E-03     583.040E-03    -291.714E-03     22.9252E-03    -291.505E-03     582.335E-03    -291.690E-03     22.4781E-03
            1923     2.01669E-03     48.2637E-03    -123.735E+06    -222.967E+06    -105.796E+06     32.2988E+03    -291.527E-03     583.288E-03    -291.761E-03     17.2286E-03    -291.678E-03     582.515E-03    -291.787E-03     16.9777E-03
            1924     1.34437E-03     48.2390E-03    -128.901E+06    -238.125E+06    -120.209E+06     19.8527E+03    -291.681E-03     583.470E-03    -291.789E-03     11.6030E-03    -291.809E-03     582.644E-03    -291.858E-03     11.4753E-03
            1925     672.147E-06     48.2238E-03    -132.239E+06    -248.309E+06    -129.904E+06     10.6890E+03    -291.799E-03     583.585E-03    -291.786E-03     6.31397E-03    -291.913E-03     582.725E-03    -291.884E-03     6.25428E-03
            1926     12.8036E-03     47.9783E-03    -5.45854E+06     75.3850E+06     94.5128E+06    -207.369E+03    -287.312E-03     577.048E-03    -289.736E-03     59.3918E-03    -288.471E-03     578.181E-03    -289.365E-03     43.9315E-03
            1927     12.1283E-03     47.8783E-03    -10.9553E+06     72.2583E+06     94.8044E+06    -199.279E+03    -287.467E-03     577.329E-03    -289.862E-03     72.5648E-03    -288.818E-03     578.622E-03    -289.477E-03     56.5051E-03
            1928     11.4530E-03     47.7751E-03    -16.5953E+06     61.8555E+06     87.7491E+06    -645.112E+03    -287.742E-03     577.725E-03    -289.983E-03     74.2015E-03    -288.936E-03     578.826E-03    -289.610E-03     60.2922E-03
            1929     10.7776E-03     47.6625E-03    -23.1492E+06     49.1593E+06     77.8864E+06    -850.540E+03    -288.045E-03     578.160E-03    -290.115E-03     76.7107E-03    -289.168E-03     579.150E-03    -289.764E-03     64.0991E-03
            1930     10.1022E-03     47.5462E-03    -30.1772E+06     45.2344E+06     70.5787E+06    -876.878E+03    -288.284E-03     578.550E-03    -290.266E-03     76.3252E-03    -289.312E-03     579.426E-03    -289.935E-03     65.2815E-03
            1931     9.42698E-03     47.4299E-03    -36.6904E+06     43.3790E+06     61.8443E+06    -805.500E+03    -288.558E-03     578.978E-03    -290.420E-03     74.3672E-03    -289.485E-03     579.750E-03    -290.121E-03     64.8660E-03
            1932     8.75197E-03     47.3159E-03    -42.9785E+06     38.7281E+06     53.7740E+06     264.587E+03    -288.818E-03     579.411E-03    -290.593E-03     71.2192E-03    -289.646E-03     580.068E-03    -290.318E-03     63.2061E-03
            1933     8.07703E-03     47.2062E-03    -49.6463E+06     17.7147E+06     43.9389E+06     1.43932E+06    -289.080E-03     579.870E-03    -290.789E-03     67.1149E-03    -289.796E-03     580.345E-03    -290.523E-03     60.4982E-03
            1934     7.40240E-03     47.1023E-03    -57.1812E+06    -20.5041E+06     30.1905E+06     1.32160E+06    -289.412E-03     580.410E-03    -290.997E-03     62.4384E-03    -290.003E-03     580.637E-03    -290.734E-03     57.0842E-03
            1935     6.72803E-03     47.0051E-03    -65.8216E+06    -57.3912E+06     15.1948E+06     649.933E+03    -289.742E-03     580.941E-03    -291.199E-03     57.3682E-03    -290.227E-03     580.945E-03    -290.944E-03     53.1273E-03
            1936     6.05395E-03     46.9158E-03    -74.5324E+06    -87.2795E+06     442.182E+03     417.689E+03    -290.051E-03     581.440E-03    -291.389E-03     51.9642E-03    -290.456E-03     581.270E-03    -291.152E-03     48.7026E-03
            1937     5.38020E-03     46.8347E-03    -83.0050E+06    -113.076E+06    -15.2101E+06     99.3824E+03    -290.374E-03     581.937E-03    -291.563E-03     46.3818E-03    -290.715E-03     581.626E-03    -291.355E-03     43.9521E-03
            1938     4.70675E-03     46.7624E-03    -91.7039E+06    -140.075E+06    -32.2674E+06    -48.2062E+03    -290.723E-03     582.443E-03    -291.720E-03     40.7056E-03    -291.008E-03     581.999E-03    -291.545E-03     38.9515E-03
            1939     4.03365E-03     46.6991E-03    -100.440E+06    -165.513E+06    -50.2977E+06     508.573E+03    -291.062E-03     582.915E-03    -291.852E-03     34.9603E-03    -291.302E-03     582.356E-03    -291.718E-03     33.7508E-03
            1940     3.36088E-03     46.6449E-03    -108.924E+06    -184.890E+06    -69.1005E+06     580.371E+03    -291.352E-03     583.303E-03    -291.951E-03     29.1586E-03    -291.559E-03     582.668E-03    -291.871E-03     28.3661E-03
            1941     2.68834E-03     46.6003E-03    -116.682E+06    -203.811E+06    -87.9164E+06     230.289E+03    -291.607E-03     583.633E-03    -292.026E-03     23.3460E-03    -291.786E-03     582.929E-03    -292.001E-03     22.8518E-03
            1942     2.01605E-03     46.5655E-03    -123.317E+06    -222.805E+06    -105.374E+06     106.282E+03    -291.829E-03     583.910E-03    -292.081E-03     17.5554E-03    -291.979E-03     583.137E-03    -292.106E-03     17.2672E-03
            1943     1.34392E-03     46.5404E-03    -128.507E+06    -238.049E+06    -119.810E+06     45.3519E+03    -291.999E-03     584.115E-03    -292.116E-03     11.8259E-03    -292.127E-03     583.289E-03    -292.184E-03     11.6726E-03
            1944     671.934E-06     46.5250E-03    -131.841E+06    -248.250E+06    -129.536E+06     20.4953E+03    -292.128E-03     584.246E-03    -292.117E-03     6.43599E-03    -292.241E-03     583.384E-03    -292.214E-03     6.36240E-03
            1945     12.8033E-03     46.2898E-03    -4.92201E+06     75.7914E+06     94.5101E+06     1.03231E+03    -286.979E-03     576.728E-03    -289.749E-03     59.4277E-03    -288.135E-03     577.862E-03    -289.379E-03     44.0018E-03
            1946     12.1279E-03     46.1899E-03    -10.5201E+06     73.0603E+06     95.0481E+06    -482.078E+03    -287.121E-03     577.016E-03    -289.896E-03     72.7110E-03    -288.473E-03     578.314E-03    -289.511E-03     56.6596E-03
            1947     11.4522E-03     46.0867E-03    -16.6506E+06     62.0083E+06     87.7840E+06    -583.173E+03    -287.433E-03     577.473E-03    -290.039E-03     74.4635E-03    -288.633E-03     578.579E-03    -289.666E-03     60.5429E-03
            1948     10.7767E-03     45.9736E-03    -23.2035E+06     48.6018E+06     77.7984E+06    -474.629E+03    -287.782E-03     577.976E-03    -290.194E-03     77.1032E-03    -288.912E-03     578.971E-03    -289.842E-03     64.4567E-03
            1949     10.1013E-03     45.8572E-03    -29.7002E+06     45.6386E+06     70.9129E+06    -264.550E+03    -288.065E-03     578.432E-03    -290.367E-03     76.8534E-03    -289.101E-03     579.319E-03    -290.036E-03     65.7554E-03
            1950     9.42583E-03     45.7401E-03    -36.8150E+06     43.5968E+06     61.2684E+06    -222.409E+03    -288.346E-03     578.888E-03    -290.542E-03     74.9849E-03    -289.283E-03     579.672E-03    -290.246E-03     65.4259E-03
            1951     8.75054E-03     45.6252E-03    -44.8888E+06     36.9775E+06     51.6308E+06    -788.171E+03    -288.629E-03     579.369E-03    -290.739E-03     71.9254E-03    -289.472E-03     580.033E-03    -290.470E-03     63.8107E-03
            1952     8.07559E-03     45.5148E-03    -52.6524E+06     15.6258E+06     41.6030E+06    -792.532E+03    -288.959E-03     579.924E-03    -290.965E-03     67.9542E-03    -289.693E-03     580.406E-03    -290.703E-03     61.2066E-03
            1953     7.40085E-03     45.4099E-03    -60.0664E+06    -20.9125E+06     28.5158E+06     84.1076E+03    -289.345E-03     580.546E-03    -291.200E-03     63.3139E-03    -289.955E-03     580.786E-03    -290.940E-03     57.8468E-03
            1954     6.72644E-03     45.3119E-03    -67.3301E+06    -56.5410E+06     14.2781E+06      476.86E+03    -289.728E-03     581.157E-03    -291.429E-03     58.2037E-03    -290.228E-03     581.176E-03    -291.178E-03     53.8688E-03
            1955     6.05235E-03     45.2215E-03    -75.0747E+06    -86.8308E+06    -258.244E+03     166.992E+03    -290.114E-03     581.759E-03    -291.646E-03     52.7707E-03    -290.527E-03     581.598E-03    -291.412E-03     49.4151E-03
            1956     5.37864E-03     45.1395E-03    -83.3313E+06    -112.427E+06    -15.6003E+06     21.5798E+03    -290.517E-03     582.360E-03    -291.843E-03     47.1661E-03    -290.865E-03     582.058E-03    -291.637E-03     44.6406E-03
            1957     4.70532E-03     45.0660E-03    -91.7855E+06    -141.352E+06    -31.9622E+06     352.350E+03    -290.942E-03     582.966E-03    -292.024E-03     41.4286E-03    -291.230E-03     582.519E-03    -291.845E-03     39.5898E-03
            1958     4.03241E-03     45.0017E-03    -100.277E+06    -166.521E+06    -49.4522E+06     821.043E+03    -291.322E-03     583.493E-03    -292.171E-03     35.6009E-03    -291.563E-03     582.930E-03    -292.032E-03     34.3169E-03
            1959     3.35978E-03     44.9468E-03    -108.449E+06    -183.416E+06    -68.2076E+06     857.751E+03    -291.628E-03     583.906E-03    -292.278E-03     29.7138E-03    -291.839E-03     583.278E-03    -292.196E-03     28.8612E-03
            1960     2.68745E-03     44.9016E-03    -116.106E+06    -203.018E+06    -87.2723E+06     517.856E+03    -291.909E-03     584.273E-03    -292.364E-03     23.8041E-03    -292.088E-03     583.572E-03    -292.337E-03     23.2614E-03
            1961     2.01534E-03     44.8661E-03    -122.821E+06    -222.362E+06    -104.866E+06     285.007E+03    -292.155E-03     584.584E-03    -292.429E-03     17.9085E-03    -292.304E-03     583.812E-03    -292.453E-03     17.5820E-03
            1962     1.34345E-03     44.8406E-03    -128.066E+06    -237.779E+06    -119.371E+06     157.894E+03    -292.343E-03     584.816E-03    -292.473E-03     12.0687E-03    -292.470E-03     583.990E-03    -292.539E-03     11.8889E-03
            1963     671.681E-06     44.8250E-03    -131.459E+06    -248.039E+06    -129.124E+06     80.3739E+03    -292.485E-03     584.966E-03    -292.481E-03     6.57160E-03    -292.597E-03     584.105E-03    -292.576E-03     6.48311E-03
            1964     12.8031E-03     44.6017E-03    -4.96685E+06     76.3471E+06     94.4910E+06    -79.4545E+03    -286.649E-03     576.417E-03    -289.768E-03     59.3053E-03    -287.804E-03     577.552E-03    -289.399E-03     43.9059E-03
            1965     12.1274E-03     44.5020E-03    -10.5877E+06     73.8011E+06     95.4017E+06    -143.366E+03    -286.784E-03     576.720E-03    -289.936E-03     72.7315E-03    -288.140E-03     578.024E-03    -289.551E-03     56.6905E-03
            1966     11.4516E-03     44.3986E-03    -16.8368E+06     61.5392E+06     87.6723E+06    -168.108E+03    -287.090E-03     577.192E-03    -290.102E-03     74.6846E-03    -288.296E-03     578.302E-03    -289.729E-03     60.7446E-03
            1967     10.7758E-03     44.2852E-03    -23.4765E+06     48.5681E+06     77.6344E+06    -117.060E+03    -287.459E-03     577.740E-03    -290.281E-03     77.5073E-03    -288.598E-03     578.744E-03    -289.929E-03     64.8261E-03
            1968     10.1000E-03     44.1681E-03    -30.2965E+06     45.3403E+06     70.6876E+06    -210.629E+03    -287.801E-03     578.283E-03    -290.481E-03     77.4560E-03    -288.849E-03     579.179E-03    -290.150E-03     66.3022E-03
            1969     9.42455E-03     44.0504E-03    -36.7478E+06     43.3203E+06     61.5439E+06    -29.7611E+03    -288.123E-03     578.809E-03    -290.686E-03     75.7550E-03    -289.071E-03     579.602E-03    -290.388E-03     66.1169E-03
            1970     8.74918E-03     43.9348E-03    -43.4251E+06     38.2643E+06     52.5918E+06     111.447E+03    -288.437E-03     579.349E-03    -290.912E-03     72.7799E-03    -289.286E-03     580.027E-03    -290.642E-03     64.5919E-03
            1971     8.07392E-03     43.8232E-03    -51.2983E+06     15.4482E+06     41.6863E+06    -347.506E+03    -288.842E-03     580.008E-03    -291.166E-03     68.8443E-03    -289.580E-03     580.497E-03    -290.906E-03     62.0086E-03
            1972     7.39911E-03     43.7174E-03    -59.4874E+06    -22.2668E+06     27.9631E+06    -775.861E+03    -289.320E-03     580.750E-03    -291.430E-03     64.2071E-03    -289.934E-03     580.993E-03    -291.172E-03     58.6222E-03
            1973     6.72469E-03     43.6181E-03    -67.5437E+06    -56.9705E+06     13.8320E+06    -646.942E+03    -289.776E-03     581.460E-03    -291.685E-03     59.0806E-03    -290.283E-03     581.486E-03    -291.435E-03     54.6248E-03
            1974     6.05066E-03     43.5267E-03    -75.6906E+06    -86.8016E+06    -718.500E+03    -283.545E+03    -290.222E-03     582.146E-03    -291.924E-03     53.6392E-03    -290.644E-03     581.994E-03    -291.692E-03     50.1718E-03
            1975     5.37702E-03     43.4434E-03    -84.0871E+06    -112.833E+06    -16.3069E+06    -89.9382E+03    -290.686E-03     582.829E-03    -292.142E-03     48.0197E-03    -291.041E-03     582.532E-03    -291.938E-03     45.3883E-03
            1976     4.70383E-03     43.3688E-03    -92.5868E+06    -142.404E+06    -32.7744E+06     108.605E+03    -291.162E-03     583.504E-03    -292.342E-03     42.2269E-03    -291.455E-03     583.058E-03    -292.165E-03     40.2878E-03
            1977     4.03103E-03     43.3034E-03    -100.893E+06    -166.941E+06    -50.0158E+06     288.907E+03    -291.578E-03     584.085E-03    -292.507E-03     36.3143E-03    -291.824E-03     583.525E-03    -292.368E-03     34.9387E-03
            1978     3.35859E-03     43.2476E-03    -108.922E+06    -182.890E+06    -68.4405E+06     383.636E+03    -291.921E-03     584.550E-03    -292.629E-03     30.3324E-03    -292.136E-03     583.927E-03    -292.548E-03     29.4008E-03
            1979     2.68645E-03     43.2016E-03    -116.372E+06    -202.306E+06    -87.3085E+06     426.620E+03    -292.235E-03     584.963E-03    -292.728E-03     24.3140E-03    -292.417E-03     584.267E-03    -292.702E-03     23.7104E-03
            1980     2.01459E-03     43.1656E-03    -122.886E+06    -221.783E+06    -104.843E+06     336.887E+03    -292.505E-03     585.308E-03    -292.804E-03     18.3000E-03    -292.656E-03     584.540E-03    -292.828E-03     17.9286E-03
            1981     1.34292E-03     43.1396E-03    -128.041E+06    -237.294E+06    -119.315E+06     219.877E+03    -292.713E-03     585.570E-03    -292.857E-03     12.3416E-03    -292.841E-03     584.747E-03    -292.923E-03     12.1307E-03
            1982     671.424E-06     43.1237E-03    -131.367E+06    -247.614E+06    -129.047E+06     110.996E+03    -292.871E-03     585.743E-03    -292.872E-03     6.72462E-03    -292.983E-03     584.884E-03    -292.968E-03     6.61856E-03
            1983     12.8028E-03     42.9141E-03    -5.32069E+06     76.0895E+06     94.7700E+06     228.173E+03    -286.288E-03     576.079E-03    -289.792E-03     59.1639E-03    -287.443E-03     577.211E-03    -289.421E-03     43.7998E-03
            1984     12.1269E-03     42.8146E-03    -11.2487E+06     74.3089E+06     95.4470E+06     260.526E+03    -286.381E-03     576.361E-03    -289.980E-03     72.8585E-03    -287.743E-03     577.670E-03    -289.594E-03     56.8303E-03
            1985     11.4508E-03     42.7110E-03    -17.4061E+06     61.9914E+06     87.7855E+06    -63.8712E+03    -286.703E-03     576.876E-03    -290.173E-03     75.0674E-03    -287.920E-03     577.996E-03    -289.798E-03     61.1031E-03
            1986     10.7748E-03     42.5973E-03    -23.3161E+06     48.3379E+06     77.7998E+06    -271.334E+03    -287.114E-03     577.494E-03    -290.380E-03     78.0761E-03    -288.263E-03     578.506E-03    -290.027E-03     65.3438E-03
            1987     10.0989E-03     42.4794E-03    -29.5482E+06     45.4288E+06     70.7712E+06    -330.746E+03    -287.481E-03     578.090E-03    -290.609E-03     78.1537E-03    -288.537E-03     578.997E-03    -290.278E-03     66.9328E-03
            1988     9.42293E-03     42.3609E-03    -36.5206E+06     43.0385E+06     61.2468E+06    -623.576E+03    -287.863E-03     578.709E-03    -290.846E-03     76.5730E-03    -288.822E-03     579.514E-03    -290.549E-03     66.8325E-03
            1989     8.74731E-03     42.2442E-03    -43.8028E+06     37.6974E+06     52.4048E+06    -463.285E+03    -288.274E-03     579.379E-03    -291.105E-03     73.6866E-03    -289.137E-03     580.068E-03    -290.834E-03     65.3840E-03
            1990     8.07212E-03     42.1316E-03    -51.0297E+06     16.0511E+06     42.1893E+06    -60.7834E+03    -288.759E-03     580.148E-03    -291.389E-03     69.7780E-03    -289.508E-03     580.651E-03    -291.127E-03     62.8389E-03
            1991     7.39726E-03     42.0243E-03    -58.8396E+06    -21.7397E+06     28.4255E+06    -171.337E+03    -289.306E-03     580.987E-03    -291.681E-03     65.1477E-03    -289.928E-03     581.240E-03    -291.422E-03     59.4556E-03
            1992     6.72284E-03     41.9240E-03    -67.2353E+06    -57.7081E+06     13.7775E+06    -306.336E+03    -289.840E-03     581.801E-03    -291.962E-03     60.0398E-03    -290.353E-03     581.831E-03    -291.712E-03     55.4729E-03
            1993     6.04884E-03     41.8312E-03    -75.6027E+06    -87.3450E+06    -785.072E+03    -191.241E+03    -290.363E-03     582.588E-03    -292.225E-03     54.6217E-03    -290.792E-03     582.440E-03    -291.992E-03     51.0392E-03
            1994     5.37531E-03     41.7465E-03    -83.9764E+06    -113.216E+06    -16.4114E+06    -39.4732E+03    -290.882E-03     583.346E-03    -292.463E-03     48.9743E-03    -291.242E-03     583.053E-03    -292.259E-03     46.2323E-03
            1995     4.70221E-03     41.6706E-03    -92.4381E+06    -142.726E+06    -33.0663E+06    -24.0274E+03    -291.392E-03     584.073E-03    -292.682E-03     43.0969E-03    -291.688E-03     583.631E-03    -292.506E-03     41.0536E-03
            1996     4.02959E-03     41.6041E-03    -100.916E+06    -167.063E+06    -50.4225E+06    -65.6928E+03    -291.847E-03     584.712E-03    -292.865E-03     37.0847E-03    -292.095E-03     584.155E-03    -292.729E-03     35.6118E-03
            1997     3.35731E-03     41.5473E-03    -109.121E+06    -183.081E+06    -68.8864E+06    -43.3931E+03    -292.233E-03     585.238E-03    -293.005E-03     31.0038E-03    -292.451E-03     584.618E-03    -292.925E-03     29.9842E-03
            1998     2.68540E-03     41.5005E-03    -116.696E+06    -202.310E+06    -87.7058E+06     30.6301E+03    -292.584E-03     585.702E-03    -293.118E-03     24.8710E-03    -292.769E-03     585.009E-03    -293.094E-03     24.1936E-03
            1999     2.01376E-03     41.4638E-03    -123.222E+06    -221.506E+06    -105.164E+06     108.152E+03    -292.882E-03     586.088E-03    -293.206E-03     18.7314E-03    -293.036E-03     585.323E-03    -293.232E-03     18.3042E-03
            2000     1.34237E-03     41.4373E-03    -128.317E+06    -236.929E+06    -119.587E+06     104.508E+03    -293.113E-03     586.381E-03    -293.268E-03     12.6448E-03    -293.243E-03     585.561E-03    -293.336E-03     12.3950E-03
            2001     671.134E-06     41.4210E-03    -131.613E+06    -247.217E+06    -129.276E+06     68.5412E+03    -293.286E-03     586.574E-03    -293.288E-03     6.89199E-03    -293.399E-03     585.718E-03    -293.385E-03     6.76462E-03
            2002     12.8025E-03     41.2272E-03    -4.76084E+06     75.4510E+06     94.8151E+06     286.047E+03    -285.842E-03     575.658E-03    -289.817E-03     59.0981E-03    -286.992E-03     576.785E-03    -289.445E-03     43.7741E-03
            2003     12.1262E-03     41.1278E-03    -10.0139E+06     74.7376E+06     96.1112E+06     386.245E+03    -285.939E-03     575.971E-03    -290.032E-03     73.0226E-03    -287.298E-03     577.281E-03    -289.645E-03     57.0115E-03
            2004     11.4499E-03     41.0240E-03    -15.9300E+06     63.1179E+06     88.6776E+06     110.374E+03    -286.282E-03     576.536E-03    -290.254E-03     75.4852E-03    -287.501E-03     577.665E-03    -289.879E-03     61.5060E-03
            2005     10.7735E-03     40.9097E-03    -22.3785E+06     48.5562E+06     78.2879E+06    -275.137E+03    -286.746E-03     577.239E-03    -290.493E-03     78.7157E-03    -287.902E-03     578.261E-03    -290.139E-03     65.9377E-03
            2006     10.0973E-03     40.7911E-03    -29.0043E+06     45.3686E+06     71.2661E+06    -299.252E+03    -287.186E-03     577.941E-03    -290.755E-03     78.9296E-03    -288.253E-03     578.859E-03    -290.422E-03     67.6373E-03
            2007     9.42133E-03     40.6716E-03    -36.2005E+06     43.0573E+06     61.4620E+06    -72.0392E+03    -287.641E-03     578.663E-03    -291.021E-03     77.4134E-03    -288.612E-03     579.480E-03    -290.724E-03     67.5882E-03
            2008     8.74563E-03     40.5538E-03    -43.7183E+06     37.6698E+06     52.2751E+06    -163.688E+03    -288.123E-03     579.433E-03    -291.310E-03     74.6016E-03    -288.998E-03     580.135E-03    -291.040E-03     66.1940E-03
            2009     8.07020E-03     40.4396E-03    -51.4830E+06     15.6719E+06     41.9417E+06    -374.991E+03    -288.666E-03     580.292E-03    -291.626E-03     70.7842E-03    -289.429E-03     580.806E-03    -291.364E-03     63.7242E-03
            2010     7.39528E-03     40.3311E-03    -59.4304E+06    -22.0924E+06     28.1948E+06    -205.690E+03    -289.277E-03     581.225E-03    -291.949E-03     66.2126E-03    -289.912E-03     581.490E-03    -291.690E-03     60.3983E-03
            2011     6.72081E-03     40.2292E-03    -67.3171E+06    -57.7349E+06     13.7336E+06    -73.7209E+03    -289.901E-03     582.160E-03    -292.259E-03     61.1298E-03    -290.424E-03     582.199E-03    -292.009E-03     56.4382E-03
            2012     6.04688E-03     40.1349E-03    -75.5132E+06    -87.7326E+06    -905.841E+03    -136.948E+03    -290.516E-03     583.064E-03    -292.548E-03     55.7203E-03    -290.952E-03     582.922E-03    -292.315E-03     52.0072E-03
            2013     5.37344E-03     40.0488E-03    -83.9268E+06    -113.647E+06    -16.4450E+06    -57.2927E+03    -291.097E-03     583.906E-03    -292.809E-03     50.0208E-03    -291.462E-03     583.617E-03    -292.605E-03     47.1520E-03
            2014     4.70052E-03     39.9715E-03    -92.4358E+06    -142.730E+06    -33.0558E+06     30.2987E+03    -291.643E-03     584.691E-03    -293.048E-03     44.0638E-03    -291.944E-03     584.253E-03    -292.872E-03     41.9045E-03
            2015     4.02802E-03     39.9038E-03    -100.908E+06    -166.940E+06    -50.5543E+06    -25.6347E+03    -292.137E-03     585.387E-03    -293.251E-03     37.9592E-03    -292.389E-03     584.835E-03    -293.115E-03     36.3804E-03
            2016     3.35596E-03     39.8458E-03    -109.144E+06    -183.215E+06    -69.0903E+06    -106.023E+03    -292.568E-03     585.977E-03    -293.409E-03     31.7622E-03    -292.788E-03     585.359E-03    -293.331E-03     30.6482E-03
            2017     2.68426E-03     39.7980E-03    -116.768E+06    -202.562E+06    -87.9244E+06    -94.5331E+03    -292.959E-03     586.498E-03    -293.539E-03     25.4965E-03    -293.145E-03     585.806E-03    -293.516E-03     24.7395E-03
            2018     2.01290E-03     39.7606E-03    -123.371E+06    -221.620E+06    -105.400E+06    -58.1977E+03    -293.291E-03     586.931E-03    -293.640E-03     19.2177E-03    -293.446E-03     586.167E-03    -293.666E-03     18.7269E-03
            2019     1.34177E-03     39.7335E-03    -128.525E+06    -236.885E+06    -119.823E+06    -18.8646E+03    -293.546E-03     587.255E-03    -293.709E-03     12.9847E-03    -293.677E-03     586.437E-03    -293.779E-03     12.6899E-03
            2020     670.844E-06     39.7169E-03    -131.837E+06    -247.091E+06    -129.513E+06    -3.55789E+03    -293.734E-03     587.464E-03    -293.731E-03     7.08120E-03    -293.848E-03     586.610E-03    -293.829E-03     6.92853E-03
            2021     12.8021E-03     39.5411E-03    -5.10878E+06     75.2348E+06     94.5620E+06    -133.673E+03    -285.344E-03     575.188E-03    -289.844E-03     58.9789E-03    -286.493E-03     576.312E-03    -289.473E-03     43.6888E-03
            2022     12.1256E-03     39.4418E-03    -10.6775E+06     74.8939E+06     95.8976E+06    -268.660E+03    -285.455E-03     575.543E-03    -290.088E-03     73.1637E-03    -286.819E-03     576.857E-03    -289.702E-03     57.1586E-03
            2023     11.4488E-03     39.3377E-03    -16.5814E+06     63.3661E+06      88.454E+06    -227.715E+03    -285.833E-03     576.174E-03    -290.341E-03     75.8951E-03    -287.062E-03     577.313E-03    -289.967E-03     61.8877E-03
            2024     10.7722E-03     39.2227E-03    -22.6822E+06     48.6598E+06     78.1891E+06    -21.1196E+03    -286.355E-03     576.969E-03    -290.613E-03     79.3089E-03    -287.523E-03     578.002E-03    -290.260E-03     66.4826E-03
            2025     10.0958E-03     39.1030E-03    -29.6989E+06     45.0716E+06     70.8937E+06     25.6016E+03    -286.871E-03     577.780E-03    -290.909E-03     79.6877E-03    -287.953E-03     578.711E-03    -290.577E-03     68.3205E-03
            2026     9.41953E-03     38.9824E-03    -36.4552E+06     42.8434E+06     61.4548E+06     59.4284E+03    -287.411E-03     578.620E-03    -291.210E-03     78.3719E-03    -288.396E-03     579.450E-03    -290.912E-03     68.4564E-03
            2027     8.74363E-03     38.8630E-03    -43.1185E+06     38.1662E+06     52.8073E+06     188.139E+03    -287.959E-03     579.491E-03    -291.532E-03     75.7109E-03    -288.847E-03     580.209E-03    -291.261E-03     67.2000E-03
            2028     8.06818E-03     38.7476E-03    -50.8632E+06     15.6917E+06     42.2200E+06     155.141E+03    -288.569E-03     580.450E-03    -291.881E-03     71.9549E-03    -289.343E-03     580.977E-03    -291.619E-03     64.7767E-03
            2029     7.39314E-03     38.6373E-03    -59.0267E+06    -22.4625E+06     28.3349E+06    -26.2943E+03    -289.260E-03     581.498E-03    -292.237E-03     67.4254E-03    -289.906E-03     581.772E-03    -291.977E-03     61.4805E-03
            2030     6.71868E-03     38.5339E-03    -67.3123E+06    -57.8976E+06     13.7485E+06    -69.8544E+03    -289.969E-03     582.547E-03    -292.578E-03     62.3688E-03    -290.504E-03     582.598E-03    -292.328E-03     57.5329E-03
            2031     6.04477E-03     38.4378E-03    -75.6163E+06    -87.8462E+06    -1.02260E+06     13.1342E+03    -290.662E-03     583.558E-03    -292.896E-03     56.9564E-03    -291.108E-03     583.426E-03    -292.664E-03     53.0975E-03
            2032     5.37145E-03     38.3501E-03    -84.0592E+06    -113.914E+06    -16.6803E+06     17.4807E+03    -291.306E-03     584.489E-03    -293.183E-03     51.2056E-03    -291.680E-03     584.208E-03    -292.980E-03     48.1944E-03
            2033     4.69862E-03     38.2713E-03    -92.5453E+06    -142.858E+06    -33.2146E+06     27.2066E+03    -291.911E-03     585.358E-03    -293.447E-03     45.1810E-03    -292.219E-03     584.926E-03    -293.272E-03     42.8849E-03
            2034     4.02634E-03     38.2022E-03    -100.993E+06    -166.740E+06    -50.6231E+06     1.50408E+03    -292.459E-03     586.131E-03    -293.673E-03     38.9795E-03    -292.716E-03     585.585E-03    -293.537E-03     37.2741E-03
            2035     3.35448E-03     38.1430E-03    -109.213E+06    -183.213E+06    -69.1794E+06    -57.9727E+03    -292.936E-03     586.787E-03    -293.851E-03     32.6497E-03    -293.159E-03     586.173E-03    -293.773E-03     31.4248E-03
            2036     2.68304E-03     38.0942E-03    -116.846E+06    -202.744E+06    -88.0351E+06    -76.1043E+03    -293.370E-03     587.369E-03    -293.999E-03     26.2329E-03    -293.558E-03     586.678E-03    -293.976E-03     25.3829E-03
            2037     2.01194E-03     38.0559E-03    -123.451E+06    -221.777E+06    -105.517E+06    -51.9743E+03    -293.739E-03     587.851E-03    -294.113E-03     19.7897E-03    -293.895E-03     587.088E-03    -294.140E-03     19.2261E-03
            2038     1.34114E-03     38.0282E-03    -128.621E+06    -237.004E+06    -119.951E+06    -36.3474E+03    -294.018E-03     588.210E-03    -294.192E-03     13.3797E-03    -294.150E-03     587.392E-03    -294.261E-03     13.0343E-03
            2039     670.511E-06     38.0112E-03    -131.952E+06    -247.150E+06    -129.641E+06    -17.5436E+03    -294.224E-03     588.438E-03    -294.214E-03     7.30088E-03    -294.339E-03     587.583E-03    -294.312E-03     7.11974E-03
            2040     12.8018E-03     37.8558E-03    -5.08103E+06     75.7656E+06     94.7363E+06    -13.6582E+03    -284.813E-03     574.685E-03    -289.872E-03     58.8846E-03    -285.961E-03     575.809E-03    -289.501E-03     43.6336E-03
            2041     12.1248E-03     37.7565E-03    -10.7881E+06     75.3719E+06     95.8913E+06    -284.684E+03    -284.939E-03     575.086E-03    -290.147E-03     73.3416E-03    -286.308E-03     576.406E-03    -289.761E-03     57.3460E-03
            2042     11.4478E-03     37.6519E-03    -17.0227E+06     62.8132E+06     88.1404E+06    -363.400E+03    -285.374E-03     575.807E-03    -290.433E-03     76.3724E-03    -286.613E-03     576.953E-03    -290.059E-03     62.3312E-03
            2043     10.7709E-03     37.5361E-03    -23.4514E+06     47.9427E+06     77.6778E+06    -140.027E+03    -285.949E-03     576.688E-03    -290.739E-03     80.0403E-03    -287.131E-03     577.732E-03    -290.386E-03     67.1485E-03
            2044     10.0941E-03     37.4154E-03    -29.7496E+06     45.2560E+06     70.7052E+06    -26.8651E+03    -286.516E-03     577.586E-03    -291.070E-03     80.6224E-03    -287.613E-03     578.533E-03    -290.739E-03     69.1683E-03
            2045     9.41765E-03     37.2933E-03    -36.6104E+06     42.9368E+06      61.186E+06    -202.275E+03    -287.123E-03     578.532E-03    -291.409E-03     79.4520E-03    -288.125E-03     579.379E-03    -291.112E-03     69.4249E-03
            2046     8.74157E-03     37.1725E-03    -44.0127E+06     37.3608E+06     52.2476E+06    -193.053E+03    -287.755E-03     579.525E-03    -291.770E-03     76.9159E-03    -288.661E-03     580.257E-03    -291.500E-03     68.2685E-03
            2047     8.06590E-03     37.0552E-03    -51.5194E+06     15.4977E+06     42.0348E+06     130.429E+03    -288.459E-03     580.617E-03    -292.158E-03     73.2610E-03    -289.252E-03     581.160E-03    -291.895E-03     65.9368E-03
            2048     7.39085E-03     36.9433E-03    -59.3708E+06    -22.2460E+06     28.3293E+06     298.458E+03    -289.244E-03     581.794E-03    -292.550E-03     68.8147E-03    -289.906E-03     582.085E-03    -292.290E-03     62.7171E-03
            2049     6.71634E-03     36.8379E-03    -67.4324E+06    -57.9067E+06     13.7539E+06     266.468E+03    -290.036E-03     582.962E-03    -292.926E-03     63.8041E-03    -290.585E-03     583.026E-03    -292.675E-03     58.8084E-03
            2050     6.04250E-03     36.7400E-03    -75.7059E+06    -87.7943E+06    -1.04665E+06     203.957E+03    -290.799E-03     584.076E-03    -293.276E-03     58.3772E-03    -291.257E-03     583.956E-03    -293.044E-03     54.3557E-03
            2051     5.36921E-03     36.6504E-03    -84.1736E+06    -113.947E+06    -16.8187E+06     161.675E+03    -291.514E-03     585.109E-03    -293.596E-03     52.5565E-03    -291.897E-03     584.838E-03    -293.393E-03     49.3862E-03
            2052     4.69656E-03     36.5700E-03    -92.7187E+06    -142.814E+06    -33.4410E+06     98.2428E+03    -292.194E-03     586.084E-03    -293.889E-03     46.4494E-03    -292.510E-03     585.661E-03    -293.715E-03     43.9982E-03
            2053     4.02444E-03     36.4993E-03    -101.205E+06    -166.564E+06    -50.8689E+06    -15.3159E+03    -292.809E-03     586.950E-03    -294.141E-03     40.1441E-03    -293.074E-03     586.412E-03    -294.007E-03     38.2921E-03
            2054     3.35284E-03     36.4388E-03    -109.406E+06    -183.233E+06    -69.3814E+06    -81.8749E+03    -293.344E-03     587.688E-03    -294.344E-03     33.6775E-03    -293.572E-03     587.079E-03    -294.267E-03     32.3208E-03
            2055     2.68166E-03     36.3888E-03    -116.996E+06    -202.914E+06    -88.1981E+06    -70.2257E+03    -293.827E-03     588.339E-03    -294.512E-03     27.0972E-03    -294.019E-03     587.651E-03    -294.489E-03     26.1350E-03
            2056     2.01089E-03     36.3495E-03    -123.584E+06    -221.916E+06    -105.664E+06    -41.3735E+03    -294.235E-03     588.877E-03    -294.642E-03     20.4649E-03    -294.394E-03     588.116E-03    -294.669E-03     19.8133E-03
            2057     1.34041E-03     36.3212E-03    -128.736E+06    -237.100E+06    -120.074E+06    -18.1771E+03    -294.545E-03     589.278E-03    -294.733E-03     13.8465E-03    -294.677E-03     588.460E-03    -294.803E-03     13.4405E-03
            2058     670.153E-06     36.3037E-03    -132.052E+06    -247.230E+06    -129.742E+06    -9.53076E+03    -294.773E-03     589.531E-03    -294.758E-03     7.56051E-03    -294.889E-03     588.677E-03    -294.857E-03     7.34561E-03
            2059     12.8014E-03     36.1713E-03    -4.93939E+06     75.9670E+06     94.8552E+06    -33.6587E+03    -284.262E-03     574.163E-03    -289.901E-03     58.8439E-03    -285.409E-03     575.287E-03    -289.530E-03     43.6266E-03
            2060     12.1241E-03     36.0721E-03    -10.5711E+06     75.6399E+06     96.0828E+06     60.2541E+03    -284.402E-03     574.610E-03    -290.209E-03     73.6097E-03    -285.775E-03     575.936E-03    -289.823E-03     57.6225E-03
            2061     11.4467E-03     35.9668E-03    -16.7736E+06     62.8108E+06     88.2114E+06     40.9765E+03    -284.870E-03     575.400E-03    -290.530E-03     76.9795E-03    -286.119E-03     576.557E-03    -290.156E-03     62.9046E-03
            2062     10.7694E-03     35.8501E-03    -23.0319E+06     47.8493E+06     77.7783E+06    -147.417E+03    -285.499E-03     576.374E-03    -290.875E-03     80.9219E-03    -286.695E-03     577.432E-03    -290.522E-03     67.9551E-03
            2063     10.0924E-03     35.7280E-03    -29.6525E+06     45.0043E+06     70.7851E+06    -163.887E+03    -286.138E-03     577.384E-03    -291.246E-03     81.7222E-03    -287.252E-03     578.347E-03    -290.914E-03     70.1611E-03
            2064     9.41563E-03     35.6045E-03    -36.6463E+06     42.8921E+06     61.2635E+06     75.8528E+03    -286.818E-03     578.444E-03    -291.625E-03     80.7189E-03    -287.839E-03     579.309E-03    -291.328E-03     70.5645E-03
            2065     8.73930E-03     35.4818E-03    -44.0035E+06     37.3362E+06     52.1809E+06     110.749E+03    -287.530E-03     579.558E-03    -292.028E-03     78.3171E-03    -288.456E-03     580.309E-03    -291.758E-03     69.5232E-03
            2066     8.06353E-03     35.3628E-03    -51.8012E+06     14.9793E+06     41.7080E+06    -2.18569E+03    -288.323E-03     580.780E-03    -292.457E-03     74.7649E-03    -289.134E-03     581.340E-03    -292.195E-03     67.2715E-03
            2067     7.38830E-03     35.2487E-03    -59.7011E+06    -22.5965E+06     28.0776E+06     71.7163E+03    -289.202E-03     582.094E-03    -292.892E-03     70.4061E-03    -289.883E-03     582.401E-03    -292.632E-03     64.1203E-03
            2068     6.71379E-03     35.1413E-03    -67.7316E+06    -57.9730E+06     13.6166E+06     165.510E+03    -290.088E-03     583.396E-03    -293.308E-03     65.4380E-03    -290.655E-03     583.477E-03    -293.058E-03     60.2473E-03
            2069     6.03992E-03     35.0412E-03    -75.9536E+06    -87.8693E+06    -1.11400E+06     222.864E+03    -290.939E-03     584.637E-03    -293.698E-03     59.9811E-03    -291.412E-03     584.531E-03    -293.466E-03     55.7661E-03
            2070     5.36677E-03     34.9497E-03    -84.3420E+06    -113.937E+06    -16.8406E+06     262.375E+03    -291.737E-03     585.791E-03    -294.055E-03     54.0832E-03    -292.133E-03     585.532E-03    -293.851E-03     50.7257E-03
            2071     4.69422E-03     34.8674E-03    -92.8325E+06    -142.566E+06    -33.5298E+06     199.465E+03    -292.496E-03     586.878E-03    -294.382E-03     47.8792E-03    -292.822E-03     586.466E-03    -294.209E-03     45.2495E-03
            2072     4.02233E-03     34.7950E-03    -101.303E+06    -166.210E+06    -51.0433E+06     36.2076E+03    -293.187E-03     587.853E-03    -294.666E-03     41.4481E-03    -293.459E-03     587.324E-03    -294.533E-03     39.4302E-03
            2073     3.35096E-03     34.7330E-03    -109.528E+06    -183.263E+06    -69.5981E+06    -97.7111E+03    -293.793E-03     588.691E-03    -294.898E-03     34.8281E-03    -294.027E-03     588.087E-03    -294.821E-03     33.3212E-03
            2074     2.68012E-03     34.6816E-03    -117.133E+06    -203.151E+06    -88.3796E+06    -99.2390E+03    -294.336E-03     589.427E-03    -295.090E-03     28.0681E-03    -294.531E-03     588.741E-03    -295.068E-03     26.9768E-03
            2075     2.00967E-03     34.6413E-03    -123.705E+06    -222.067E+06    -105.809E+06    -51.0405E+03    -294.792E-03     590.032E-03    -295.241E-03     21.2260E-03    -294.952E-03     589.272E-03    -295.268E-03     20.4727E-03
            2076     1.33959E-03     34.6122E-03    -128.843E+06    -237.205E+06    -120.196E+06    -27.1087E+03    -295.139E-03     590.486E-03    -295.347E-03     14.3744E-03    -295.273E-03     589.669E-03    -295.417E-03     13.8975E-03
            2077     669.724E-06     34.5942E-03    -132.143E+06    -247.292E+06    -129.844E+06    -9.08868E+03    -295.393E-03     590.774E-03    -295.381E-03     7.85193E-03    -295.510E-03     589.920E-03    -295.480E-03     7.59757E-03
            2078     12.8010E-03     34.4878E-03    -5.14902E+06     75.8858E+06     94.7173E+06    -75.4568E+03    -283.657E-03     573.590E-03    -289.933E-03     58.8389E-03    -284.805E-03     574.715E-03    -289.562E-03     43.6546E-03
            2079     12.1233E-03     34.3884E-03    -10.7329E+06     75.3487E+06     95.9471E+06    -30.0071E+03    -283.811E-03     574.087E-03    -290.276E-03     74.0036E-03    -285.191E-03     575.419E-03    -289.890E-03     58.0102E-03
            2080     11.4455E-03     34.2825E-03    -16.6788E+06     62.9774E+06     88.2739E+06     25.2859E+03    -284.323E-03     574.960E-03    -290.637E-03     77.7327E-03    -285.586E-03     576.131E-03    -290.263E-03     63.6045E-03
            2081     10.7678E-03     34.1647E-03    -23.0574E+06     47.9238E+06     77.7737E+06     103.077E+03    -285.012E-03     576.035E-03    -291.023E-03     81.9395E-03    -286.226E-03     577.112E-03    -290.670E-03     68.8872E-03
            2082     10.0904E-03     34.0411E-03    -29.6876E+06     44.8130E+06     70.6603E+06     206.015E+03    -285.719E-03     577.156E-03    -291.437E-03     82.9842E-03    -286.854E-03     578.140E-03    -291.106E-03     71.3041E-03
            2083     9.41339E-03     33.9158E-03    -36.6314E+06     42.7134E+06     61.1653E+06     164.071E+03    -286.483E-03     578.345E-03    -291.862E-03     82.1801E-03    -287.526E-03     579.233E-03    -291.565E-03     71.8715E-03
            2084     8.73685E-03     33.7913E-03    -43.8932E+06     37.3338E+06     52.2264E+06     187.510E+03    -287.287E-03     579.598E-03    -292.311E-03     79.9281E-03    -288.235E-03     580.372E-03    -292.041E-03     70.9560E-03
            2085     8.06083E-03     33.6700E-03    -51.4921E+06     15.0149E+06     41.9039E+06     249.294E+03    -288.173E-03     580.961E-03    -292.788E-03     76.4843E-03    -289.005E-03     581.542E-03    -292.525E-03     68.7962E-03
            2086     7.38554E-03     33.5538E-03    -59.5515E+06    -22.8343E+06     28.1989E+06     191.916E+03    -289.151E-03     582.420E-03    -293.269E-03     72.1990E-03    -289.852E-03     582.746E-03    -293.008E-03     65.7025E-03
            2087     6.71092E-03     33.4439E-03    -67.7582E+06    -58.1569E+06     13.6022E+06     178.344E+03    -290.139E-03     583.870E-03    -293.730E-03     67.2438E-03    -290.724E-03     583.968E-03    -293.480E-03     61.8323E-03
            2088     6.03712E-03     33.3416E-03    -76.0470E+06    -88.0053E+06    -1.23356E+06     180.207E+03    -291.088E-03     585.251E-03    -294.163E-03     61.7402E-03    -291.577E-03     585.161E-03    -293.932E-03     57.3018E-03
            2089     5.36401E-03     33.2478E-03    -84.4416E+06    -114.100E+06    -16.9341E+06     216.355E+03    -291.975E-03     586.538E-03    -294.562E-03     55.7654E-03    -292.385E-03     586.291E-03    -294.359E-03     52.1886E-03
            2090     4.69165E-03     33.1635E-03    -92.9112E+06    -142.342E+06    -33.5760E+06     224.982E+03    -292.824E-03     587.754E-03    -294.930E-03     49.4559E-03    -293.161E-03     587.354E-03    -294.757E-03     46.6183E-03
            2091     4.01995E-03     33.0891E-03    -101.362E+06    -165.742E+06    -51.1180E+06     85.4572E+03    -293.602E-03     588.852E-03    -295.250E-03     42.8785E-03    -293.884E-03     588.334E-03    -295.118E-03     40.6699E-03
            2092     3.34889E-03     33.0254E-03    -109.558E+06    -183.196E+06    -69.6871E+06    -57.6949E+03    -294.291E-03     589.806E-03    -295.515E-03     36.0740E-03    -294.531E-03     589.209E-03    -295.439E-03     34.3983E-03
            2093     2.67836E-03     32.9725E-03    -117.152E+06    -203.393E+06    -88.4540E+06    -89.5544E+03    -294.905E-03     590.640E-03    -295.735E-03     29.0979E-03    -295.103E-03     589.957E-03    -295.712E-03     27.8643E-03
            2094     2.00832E-03     32.9310E-03    -123.726E+06    -222.242E+06    -105.871E+06    -58.5569E+03    -295.414E-03     591.321E-03    -295.906E-03     22.0190E-03    -295.577E-03     590.562E-03    -295.934E-03     21.1540E-03
            2095     1.33865E-03     32.9010E-03    -128.854E+06    -237.322E+06    -120.233E+06    -29.3796E+03    -295.801E-03     591.829E-03    -296.028E-03     14.9160E-03    -295.936E-03     591.013E-03    -296.098E-03     14.3614E-03
            2096     669.260E-06     32.8825E-03    -132.154E+06    -247.364E+06    -129.858E+06    -11.9339E+03    -296.077E-03     592.150E-03    -296.074E-03     8.14282E-03    -296.193E-03     591.296E-03    -296.173E-03     7.84590E-03
            2097     12.8006E-03     32.8053E-03    -5.03736E+06     76.0126E+06     94.7560E+06     27.7860E+03    -282.980E-03     572.949E-03    -289.969E-03     58.8927E-03    -284.129E-03     574.075E-03    -289.598E-03     43.7412E-03
            2098     12.1224E-03     32.7058E-03    -10.7363E+06     75.3268E+06     95.8820E+06    -42.5279E+03    -283.154E-03     573.506E-03    -290.352E-03     74.4967E-03    -284.543E-03     574.847E-03    -289.966E-03     58.4879E-03
            2099     11.4441E-03     32.5990E-03    -16.9919E+06     62.5911E+06     88.0392E+06     38.6242E+03    -283.729E-03     574.485E-03    -290.756E-03     78.6319E-03    -285.010E-03     575.672E-03    -290.381E-03     64.4342E-03
            2100     10.7661E-03     32.4799E-03    -23.2704E+06     47.6809E+06     77.5898E+06     202.917E+03    -284.487E-03     575.674E-03    -291.187E-03     83.1342E-03    -285.724E-03     576.772E-03    -290.834E-03     69.9734E-03
            2101     10.0883E-03     32.3547E-03    -29.7699E+06     44.8396E+06     70.5921E+06     211.740E+03    -285.269E-03     576.918E-03    -291.649E-03     84.4245E-03    -286.430E-03     577.927E-03    -291.318E-03     72.5977E-03
            2102     9.41094E-03     32.2274E-03    -36.7226E+06     42.7163E+06     61.1039E+06     201.184E+03    -286.122E-03     578.245E-03    -292.123E-03     83.8118E-03    -287.193E-03     579.160E-03    -291.826E-03     73.3240E-03
            2103     8.73410E-03     32.1007E-03    -44.0612E+06     37.1493E+06     52.1475E+06     234.335E+03    -287.029E-03     579.651E-03    -292.622E-03     81.6970E-03    -288.005E-03     580.452E-03    -292.352E-03     72.5191E-03
            2104     8.05792E-03     31.9771E-03    -51.7642E+06     14.8880E+06     41.8573E+06     279.749E+03    -288.027E-03     581.175E-03    -293.149E-03     78.3344E-03    -288.886E-03     581.783E-03    -292.886E-03     70.4207E-03
            2105     7.38245E-03     31.8583E-03    -59.5816E+06    -22.8069E+06     28.3158E+06     355.701E+03    -289.118E-03     582.797E-03    -293.678E-03     74.0821E-03    -289.844E-03     583.148E-03    -293.417E-03     67.3498E-03
            2106     6.70783E-03     31.7458E-03    -67.6287E+06    -58.1224E+06     13.7476E+06     335.234E+03    -290.209E-03     584.396E-03    -294.187E-03     69.1051E-03    -290.815E-03     584.516E-03    -293.936E-03     63.4529E-03
            2107     6.03401E-03     31.6409E-03    -75.9725E+06    -88.0288E+06    -1.20151E+06     259.602E+03    -291.249E-03     585.915E-03    -294.666E-03     63.5255E-03    -291.755E-03     585.843E-03    -294.434E-03     58.8458E-03
            2108     5.36103E-03     31.5447E-03    -84.4285E+06    -114.272E+06    -16.9640E+06     249.525E+03    -292.232E-03     587.343E-03    -295.110E-03     57.4595E-03    -292.657E-03     587.111E-03    -294.907E-03     53.6463E-03
            2109     4.68880E-03     31.4580E-03    -92.9288E+06    -142.210E+06    -33.6087E+06     216.397E+03    -293.183E-03     588.703E-03    -295.520E-03     51.0290E-03    -293.534E-03     588.317E-03    -295.347E-03     47.9658E-03
            2110     4.01737E-03     31.3815E-03    -101.362E+06    -165.272E+06    -51.1429E+06     86.8602E+03    -294.060E-03     589.937E-03    -295.877E-03     44.2826E-03    -294.352E-03     589.431E-03    -295.746E-03     41.8672E-03
            2111     3.34660E-03     31.3157E-03    -109.534E+06    -183.086E+06    -69.6951E+06    -59.8137E+03    -294.838E-03     591.011E-03    -296.174E-03     37.2775E-03    -295.085E-03     590.422E-03    -296.098E-03     35.4187E-03
            2112     2.67648E-03     31.2613E-03    -117.095E+06    -203.598E+06    -88.4262E+06    -83.1588E+03    -295.524E-03     591.943E-03    -296.420E-03     30.0774E-03    -295.726E-03     591.264E-03    -296.397E-03     28.6902E-03
            2113     2.00687E-03     31.2184E-03    -123.647E+06    -222.398E+06    -105.828E+06    -45.0539E+03    -296.085E-03     592.694E-03    -296.609E-03     22.7624E-03    -296.250E-03     591.938E-03    -296.636E-03     21.7778E-03
            2114     1.33768E-03     31.1874E-03    -128.772E+06    -237.427E+06    -120.173E+06    -21.1548E+03    -296.503E-03     593.245E-03    -296.742E-03     15.4191E-03    -296.639E-03     592.429E-03    -296.812E-03     14.7819E-03
            2115     668.762E-06     31.1683E-03    -132.059E+06    -247.420E+06    -129.784E+06    -8.63096E+03    -296.785E-03     593.590E-03    -296.805E-03     8.41504E-03    -296.902E-03     592.736E-03    -296.903E-03     8.07269E-03
            2116     12.8001E-03     31.1240E-03    -5.05838E+06     75.9019E+06     94.7028E+06     69.3964E+03    -282.235E-03     572.246E-03    -290.010E-03     59.0051E-03    -283.387E-03     573.375E-03    -289.640E-03     43.8832E-03
            2117     12.1214E-03     31.0242E-03    -10.7498E+06     75.2390E+06     95.8456E+06     248.483E+03    -282.434E-03     572.871E-03    -290.437E-03     75.1106E-03    -283.836E-03     574.224E-03    -290.052E-03     59.0816E-03
            2118     11.4426E-03     30.9163E-03    -16.8926E+06     62.5213E+06     88.0216E+06     264.346E+03    -283.076E-03     573.964E-03    -290.888E-03     79.6788E-03    -284.377E-03     575.172E-03    -290.515E-03     65.3994E-03
            2119     10.7641E-03     30.7958E-03    -23.2578E+06     47.6233E+06     77.5733E+06     153.660E+03    -283.929E-03     575.298E-03    -291.369E-03     84.4788E-03    -285.192E-03     576.423E-03    -291.017E-03     71.1886E-03
            2120     10.0859E-03     30.6687E-03    -29.8137E+06     44.7812E+06     70.5883E+06     197.079E+03    -284.819E-03     576.701E-03    -291.882E-03     86.0101E-03    -286.010E-03     577.740E-03    -291.550E-03     74.0157E-03
            2121     9.40824E-03     30.5393E-03    -36.7100E+06     42.6106E+06     61.1259E+06     283.834E+03    -285.791E-03     578.197E-03    -292.406E-03     85.5490E-03    -286.892E-03     579.142E-03    -292.109E-03     74.8645E-03
            2122     8.73116E-03     30.4101E-03    -43.9960E+06     37.1217E+06     52.1990E+06     300.319E+03    -286.823E-03     579.778E-03    -292.955E-03     83.4906E-03    -287.829E-03     580.608E-03    -292.684E-03     74.0912E-03
            2123     8.05476E-03     30.2838E-03    -51.6043E+06     14.7464E+06     41.9447E+06     274.008E+03    -287.943E-03     581.471E-03    -293.528E-03     80.1251E-03    -288.829E-03     582.105E-03    -293.265E-03     71.9731E-03
            2124     7.37926E-03     30.1622E-03    -59.5583E+06    -23.0407E+06     28.3908E+06     288.434E+03    -289.143E-03     583.245E-03    -294.103E-03     75.8386E-03    -289.893E-03     583.620E-03    -293.841E-03     68.8594E-03
            2125     6.70459E-03     30.0469E-03    -67.6885E+06    -58.1409E+06     13.8891E+06     359.991E+03    -290.325E-03     584.979E-03    -294.654E-03     70.7755E-03    -290.953E-03     585.120E-03    -294.402E-03     64.8771E-03
            2126     6.03085E-03     29.9392E-03    -75.9598E+06    -87.9601E+06    -1.07746E+06       358.3E+03    -291.453E-03     586.627E-03    -295.174E-03     65.0654E-03    -291.978E-03     586.574E-03    -294.942E-03     60.1475E-03
            2127     5.35795E-03     29.8402E-03    -84.3761E+06    -114.292E+06    -16.8766E+06     313.159E+03    -292.536E-03     588.193E-03    -295.657E-03     58.8621E-03    -292.976E-03     587.976E-03    -295.453E-03     54.8188E-03
            2128     4.68595E-03     29.7509E-03    -92.8479E+06    -141.975E+06    -33.5051E+06     232.719E+03    -293.582E-03     589.683E-03    -296.100E-03     52.2641E-03    -293.945E-03     589.309E-03    -295.927E-03     48.9848E-03
            2129     4.01477E-03     29.6720E-03    -101.269E+06    -164.778E+06    -51.0980E+06     46.4723E+03    -294.539E-03     591.025E-03    -296.486E-03     45.3351E-03    -294.840E-03     590.530E-03    -296.355E-03     42.7226E-03
            2130     3.34437E-03     29.6041E-03    -109.407E+06    -183.018E+06    -69.6566E+06    -92.5635E+03    -295.384E-03     592.191E-03    -296.807E-03     38.1559E-03    -295.637E-03     591.608E-03    -296.732E-03     36.1238E-03
            2131     2.67463E-03     29.5478E-03    -116.951E+06    -203.830E+06    -88.3527E+06    -90.8884E+03    -296.126E-03     593.199E-03    -297.073E-03     30.7835E-03    -296.333E-03     592.523E-03    -297.049E-03     29.2519E-03
            2132     2.00547E-03     29.5034E-03    -123.492E+06    -222.534E+06    -105.715E+06    -40.0838E+03    -296.729E-03     594.003E-03    -297.275E-03     23.2905E-03    -296.896E-03     593.248E-03    -297.302E-03     22.1944E-03
            2133     1.33672E-03     29.4714E-03    -128.600E+06    -237.499E+06    -120.030E+06    -11.5638E+03    -297.168E-03     594.585E-03    -297.417E-03     15.7720E-03    -297.305E-03     593.769E-03    -297.486E-03     15.0586E-03
            2134     668.287E-06     29.4516E-03    -131.884E+06    -247.448E+06    -129.622E+06    -1.97669E+03    -297.439E-03     594.946E-03    -297.507E-03     8.60783E-03    -297.555E-03     594.091E-03    -297.605E-03     8.22360E-03
            2135     12.7995E-03     29.4440E-03    -5.13470E+06     75.5882E+06     94.5596E+06     176.594E+03    -281.408E-03     571.466E-03    -290.058E-03     59.1624E-03    -282.563E-03     572.597E-03    -289.687E-03     44.0711E-03
            2136     12.1202E-03     29.3437E-03    -10.7687E+06     74.9819E+06     95.7703E+06     266.950E+03    -281.657E-03     572.191E-03    -290.534E-03     75.8290E-03    -283.074E-03     573.558E-03    -290.148E-03     59.7675E-03
            2137     11.4409E-03     29.2346E-03    -16.8560E+06     62.6643E+06     88.1003E+06     307.883E+03    -282.398E-03     573.434E-03    -291.036E-03     80.8379E-03    -283.723E-03     574.666E-03    -290.662E-03     66.4605E-03
            2138     10.7619E-03     29.1123E-03    -23.1516E+06     47.8014E+06     77.6367E+06     304.464E+03    -283.381E-03     574.948E-03    -291.567E-03     85.8905E-03    -284.673E-03     576.102E-03    -291.215E-03     72.4601E-03
            2139     10.0834E-03     28.9832E-03    -29.7622E+06     44.6874E+06     70.5471E+06     266.980E+03    -284.433E-03     576.561E-03    -292.128E-03     87.5856E-03    -285.655E-03     577.631E-03    -291.797E-03     75.4121E-03
            2140     9.40539E-03     28.8513E-03    -36.6817E+06     42.5411E+06     61.1468E+06     252.925E+03    -285.574E-03     578.272E-03    -292.698E-03     87.1765E-03    -286.707E-03     579.248E-03    -292.400E-03     76.2830E-03
            2141     8.72814E-03     28.7192E-03    -43.9358E+06     37.0918E+06     52.2774E+06     242.208E+03    -286.751E-03     580.037E-03    -293.286E-03     85.0716E-03    -287.786E-03     580.896E-03    -293.014E-03     75.4475E-03
            2142     8.05173E-03     28.5900E-03    -51.6331E+06     14.6054E+06     42.0257E+06     271.679E+03    -287.992E-03     581.885E-03    -293.893E-03     81.6039E-03    -288.905E-03     582.545E-03    -293.630E-03     73.2238E-03
            2143     7.37618E-03     28.4654E-03    -59.5636E+06    -23.2291E+06     28.5306E+06     309.129E+03    -289.293E-03     583.791E-03    -294.498E-03     77.1728E-03    -290.066E-03     584.187E-03    -294.235E-03     69.9669E-03
            2144     6.70162E-03     28.3470E-03    -67.6412E+06    -58.2476E+06     14.0623E+06     299.889E+03    -290.554E-03     585.629E-03    -295.075E-03     71.9144E-03    -291.201E-03     585.789E-03    -294.822E-03     65.7943E-03
            2145     6.02799E-03     28.2363E-03    -75.8524E+06    -87.8996E+06    -876.490E+03     287.627E+03    -291.756E-03     587.373E-03    -295.617E-03     66.0013E-03    -292.297E-03     587.335E-03    -295.384E-03     60.8717E-03
            2146     5.35533E-03     28.1344E-03    -84.1735E+06    -114.258E+06    -16.6530E+06     275.523E+03    -292.909E-03     589.025E-03    -296.116E-03     59.6104E-03    -293.361E-03     588.821E-03    -295.911E-03     55.3691E-03
            2147     4.68358E-03     28.0422E-03    -92.5770E+06    -141.620E+06    -33.2663E+06     199.851E+03    -293.999E-03     590.569E-03    -296.570E-03     52.8299E-03    -294.371E-03     590.206E-03    -296.397E-03     49.3723E-03
            2148     4.01272E-03     27.9607E-03    -100.967E+06    -164.276E+06    -50.9189E+06     35.3748E+03    -294.982E-03     591.945E-03    -296.963E-03     45.7472E-03    -295.290E-03     591.459E-03    -296.833E-03     42.9789E-03
            2149     3.34260E-03     27.8905E-03    -109.117E+06    -183.044E+06    -69.5319E+06    -62.9470E+03    -295.847E-03     593.139E-03    -297.291E-03     38.4392E-03    -296.104E-03     592.560E-03    -297.215E-03     36.2759E-03
            2150     2.67320E-03     27.8322E-03    -116.661E+06    -204.019E+06    -88.2009E+06    -41.0954E+03    -296.602E-03     594.163E-03    -297.561E-03     30.9680E-03    -296.810E-03     593.489E-03    -297.537E-03     29.3306E-03
            2151     2.00437E-03     27.7864E-03    -123.188E+06    -222.640E+06    -105.513E+06    -10.9170E+03    -297.214E-03     594.981E-03    -297.767E-03     23.3958E-03    -297.381E-03     594.226E-03    -297.793E-03     22.2195E-03
            2152     1.33600E-03     27.7532E-03    -128.287E+06    -237.528E+06    -119.774E+06     8.26728E+03    -297.661E-03     595.571E-03    -297.910E-03     15.8219E-03    -297.797E-03     594.756E-03    -297.979E-03     15.0546E-03
            2153     667.915E-06     27.7327E-03    -131.557E+06    -247.420E+06    -129.333E+06     11.1361E+03    -297.896E-03     595.934E-03    -298.038E-03     8.62889E-03    -298.012E-03     595.080E-03    -298.135E-03     8.21523E-03
            2154     12.7988E-03     27.7653E-03    -5.00148E+06     75.2910E+06     94.5600E+06     209.371E+03    -280.530E-03     570.640E-03    -290.110E-03     59.3418E-03    -281.688E-03     571.774E-03    -289.739E-03     44.2793E-03
            2155     12.1189E-03     27.6644E-03    -10.6489E+06     74.9428E+06     95.7936E+06     297.944E+03    -280.873E-03     571.509E-03    -290.636E-03     76.5614E-03    -282.305E-03     572.892E-03    -290.250E-03     60.4654E-03
            2156     11.4391E-03     27.5539E-03    -16.7933E+06     62.5854E+06     88.1103E+06     325.769E+03    -281.780E-03     572.967E-03    -291.188E-03     81.9586E-03    -283.128E-03     574.223E-03    -290.814E-03     67.4806E-03
            2157     10.7597E-03     27.4296E-03    -23.1375E+06     47.8296E+06     77.7128E+06     357.698E+03    -282.971E-03     574.736E-03    -291.764E-03     87.1407E-03    -284.291E-03     575.918E-03    -291.411E-03     73.5708E-03
            2158     10.0808E-03     27.2979E-03    -29.6606E+06     44.8582E+06     70.6754E+06     334.632E+03    -284.238E-03     576.600E-03    -292.362E-03     88.8359E-03    -285.488E-03     577.699E-03    -292.031E-03     76.4943E-03
            2159     9.40274E-03     27.1631E-03    -36.5426E+06     42.6024E+06     61.2333E+06     273.937E+03    -285.566E-03     578.525E-03    -292.959E-03     88.3114E-03    -286.725E-03     579.528E-03    -292.662E-03     77.2361E-03
            2160     8.72551E-03     27.0280E-03    -43.8688E+06     37.0664E+06     52.4121E+06     246.336E+03    -286.901E-03     580.466E-03    -293.565E-03     86.0042E-03    -287.959E-03     581.348E-03    -293.293E-03     76.2000E-03
            2161     8.04914E-03     26.8956E-03    -51.4550E+06     14.5858E+06     42.2971E+06     182.432E+03    -288.272E-03     582.454E-03    -294.181E-03     82.2775E-03    -289.204E-03     583.132E-03    -293.917E-03     73.7238E-03
            2162     7.37382E-03     26.7678E-03    -59.2442E+06    -23.3157E+06     28.8010E+06     101.561E+03    -289.653E-03     584.438E-03    -294.784E-03     77.5406E-03    -290.440E-03     584.848E-03    -294.520E-03     70.1697E-03
            2163     6.69950E-03     26.6461E-03    -67.2081E+06    -58.3860E+06     14.3178E+06     105.708E+03    -290.950E-03     586.301E-03    -295.352E-03     71.9968E-03    -291.607E-03     586.471E-03    -295.098E-03     65.7252E-03
            2164     6.02618E-03     26.5323E-03    -75.5149E+06    -88.0209E+06    -652.071E+03     187.665E+03    -292.171E-03     588.047E-03    -295.877E-03     65.8599E-03    -292.719E-03     588.018E-03    -295.643E-03     60.5959E-03
            2165     5.35381E-03     26.4273E-03    -83.8717E+06    -114.312E+06    -16.4590E+06     285.637E+03    -293.316E-03     589.670E-03    -296.354E-03     59.2790E-03    -293.773E-03     589.471E-03    -296.149E-03     54.9237E-03
            2166     4.68236E-03     26.3323E-03    -92.1881E+06    -141.175E+06    -33.1089E+06     262.611E+03    -294.369E-03     591.151E-03    -296.782E-03     52.3450E-03    -294.745E-03     590.794E-03    -296.609E-03     48.7944E-03
            2167     4.01174E-03     26.2482E-03    -100.622E+06    -163.836E+06    -50.8011E+06     118.724E+03    -295.304E-03     592.452E-03    -297.148E-03     45.1643E-03    -295.614E-03     591.971E-03    -297.018E-03     42.3219E-03
            2168     3.34189E-03     26.1757E-03    -108.757E+06    -183.065E+06    -69.3871E+06     63.4220E+03    -296.115E-03     593.564E-03    -297.450E-03     37.8139E-03    -296.372E-03     592.987E-03    -297.373E-03     35.5939E-03
            2169     2.67268E-03     26.1155E-03    -116.280E+06    -204.040E+06    -88.0200E+06     76.7036E+03    -296.808E-03     594.503E-03    -297.695E-03     30.3658E-03    -297.015E-03     593.829E-03    -297.671E-03     28.6865E-03
            2170     2.00402E-03     26.0681E-03    -122.785E+06    -222.609E+06    -105.260E+06     78.2549E+03    -297.365E-03     595.247E-03    -297.882E-03     22.8781E-03    -297.532E-03     594.493E-03    -297.908E-03     21.6721E-03
            2171     1.33577E-03     26.0338E-03    -127.864E+06    -237.432E+06    -119.439E+06     68.4035E+03    -297.778E-03     595.791E-03    -298.013E-03     15.4369E-03    -297.913E-03     594.975E-03    -298.080E-03     14.6506E-03
            2172     667.816E-06     26.0127E-03    -131.130E+06    -247.273E+06    -128.944E+06     40.8841E+03    -297.947E-03     596.127E-03    -298.180E-03     8.40727E-03    -298.061E-03     595.272E-03    -298.276E-03     7.98281E-03
            2173     12.7981E-03     26.0881E-03    -5.09908E+06     75.0079E+06     94.4320E+06     131.611E+03    -279.705E-03     569.866E-03    -290.160E-03     59.4930E-03    -280.868E-03     571.002E-03    -289.789E-03     44.4567E-03
            2174     12.1176E-03     25.9864E-03    -10.7026E+06     74.8004E+06     95.7170E+06     247.263E+03    -280.233E-03     570.964E-03    -290.731E-03     77.1775E-03    -281.679E-03     572.360E-03    -290.345E-03     61.0466E-03
            2175     11.4374E-03     25.8739E-03    -16.7695E+06     62.5151E+06     88.1202E+06     316.591E+03    -281.406E-03     572.726E-03    -291.319E-03     82.7803E-03    -282.775E-03     574.001E-03    -290.945E-03     68.2118E-03
            2176     10.7577E-03     25.7471E-03    -22.9795E+06     47.8880E+06     77.8548E+06     266.691E+03    -282.883E-03     574.804E-03    -291.920E-03     87.8584E-03    -284.223E-03     576.006E-03    -291.567E-03     74.1733E-03
            2177     10.0789E-03     25.6125E-03    -29.6047E+06     44.8966E+06     70.7939E+06     237.592E+03    -284.396E-03     576.924E-03    -292.528E-03     89.3080E-03    -285.663E-03     578.040E-03    -292.196E-03     76.8460E-03
            2178     9.40095E-03     25.4745E-03    -36.4528E+06     42.6868E+06     61.4094E+06     256.910E+03    -285.923E-03     579.041E-03    -293.118E-03     88.4046E-03    -287.093E-03     580.055E-03    -292.820E-03     77.2274E-03
            2179     8.72395E-03     25.3361E-03    -43.3915E+06     37.4177E+06     52.8897E+06     91.7109E+03    -287.404E-03     581.106E-03    -293.702E-03     85.6463E-03    -288.467E-03     581.994E-03    -293.429E-03     75.7616E-03
            2180     8.04803E-03     25.2003E-03    -50.8543E+06     14.6561E+06     42.7318E+06    -94.3801E+03    -288.852E-03     583.132E-03    -294.280E-03     81.4890E-03    -289.783E-03     583.810E-03    -294.014E-03     72.8758E-03
            2181     7.37316E-03     25.0692E-03    -58.7087E+06    -23.6347E+06     28.9528E+06     11.8982E+03    -290.241E-03     585.072E-03    -294.831E-03     76.3640E-03    -291.023E-03     585.478E-03    -294.567E-03     68.9636E-03
            2182     6.69931E-03     24.9444E-03    -66.8908E+06    -58.5898E+06     14.2418E+06     217.021E+03    -291.502E-03     586.839E-03    -295.337E-03     70.5181E-03    -292.153E-03     587.003E-03    -295.084E-03     64.2442E-03
            2183     6.02638E-03     24.8275E-03    -75.2571E+06    -88.1357E+06    -777.513E+03     335.032E+03    -292.649E-03     588.441E-03    -295.792E-03     64.1601E-03    -293.191E-03     588.406E-03    -295.559E-03     58.9120E-03
            2184     5.35438E-03     24.7196E-03    -83.6584E+06    -114.309E+06    -16.5827E+06     404.819E+03    -293.681E-03     589.874E-03    -296.194E-03     57.4109E-03    -294.132E-03     589.671E-03    -295.990E-03     53.0829E-03
            2185     4.68320E-03     24.6219E-03    -92.0796E+06    -140.644E+06    -33.2527E+06     370.657E+03    -294.594E-03     591.136E-03    -296.542E-03     50.3897E-03    -294.965E-03     590.777E-03    -296.371E-03     46.8735E-03
            2186     4.01280E-03     24.5354E-03    -100.438E+06    -163.337E+06    -50.8946E+06     241.647E+03    -295.372E-03     592.202E-03    -296.830E-03     43.2219E-03    -295.678E-03     591.719E-03    -296.702E-03     40.4165E-03
            2187     3.34300E-03     24.4609E-03    -108.515E+06    -182.966E+06    -69.4111E+06     170.101E+03    -296.017E-03     593.075E-03    -297.058E-03     35.9897E-03    -296.270E-03     592.494E-03    -296.982E-03     33.8048E-03
            2188     2.67375E-03     24.3990E-03    -115.956E+06    -203.877E+06    -87.9106E+06     177.795E+03    -296.548E-03     593.786E-03    -297.238E-03     28.7574E-03    -296.753E-03     593.110E-03    -297.214E-03     27.1096E-03
            2189     2.00492E-03     24.3502E-03    -122.389E+06    -222.386E+06    -105.019E+06     166.033E+03    -296.967E-03     594.338E-03    -297.371E-03     21.5797E-03    -297.131E-03     593.582E-03    -297.396E-03     20.3996E-03
            2190     1.33642E-03     24.3149E-03    -127.410E+06    -237.142E+06    -119.075E+06     126.834E+03    -297.277E-03     594.740E-03    -297.462E-03     14.5105E-03    -297.410E-03     593.924E-03    -297.529E-03     13.7425E-03
            2191     668.145E-06     24.2932E-03    -130.635E+06    -246.954E+06    -128.489E+06     70.2362E+03    -297.344E-03     594.990E-03    -297.647E-03     7.87026E-03    -297.457E-03     594.135E-03    -297.742E-03     7.45567E-03
            2192     12.7975E-03     24.4122E-03    -5.10367E+06     74.8292E+06     94.3919E+06     98.5706E+03    -279.151E-03     569.347E-03    -290.196E-03     59.5868E-03    -280.316E-03     570.486E-03    -289.825E-03     44.5705E-03
            2193     12.1167E-03     24.3092E-03    -10.7458E+06     74.6482E+06     95.7027E+06     135.894E+03    -280.002E-03     570.792E-03    -290.790E-03     77.5407E-03    -281.458E-03     572.198E-03    -290.405E-03     61.3729E-03
            2194     11.4364E-03     24.1942E-03    -16.7845E+06     62.4643E+06     88.1616E+06     98.4432E+03    -281.542E-03     572.928E-03    -291.386E-03     83.0740E-03    -282.923E-03     574.215E-03    -291.011E-03     68.4288E-03
            2195     10.7570E-03     24.0643E-03    -23.0457E+06     47.8889E+06     77.8799E+06     126.644E+03    -283.348E-03     575.319E-03    -291.971E-03     87.7096E-03    -284.693E-03     576.527E-03    -291.618E-03     73.9628E-03
            2196     10.0784E-03     23.9265E-03    -29.5438E+06     45.0163E+06     71.0168E+06     76.2368E+03    -285.118E-03     577.658E-03    -292.540E-03     88.5671E-03    -286.382E-03     578.771E-03    -292.207E-03     76.0744E-03
            2197     9.40108E-03     23.7850E-03    -36.2027E+06     42.9639E+06     61.7516E+06    -195.789E+03    -286.789E-03     579.858E-03    -293.068E-03     87.0291E-03    -287.949E-03     580.862E-03    -292.769E-03     75.8575E-03
            2198     8.72486E-03     23.6432E-03    -43.2108E+06     37.5574E+06     52.7916E+06    -305.687E+03    -288.299E-03     581.868E-03    -293.570E-03     83.7285E-03    -289.344E-03     582.741E-03    -293.298E-03     73.8926E-03
            2199     8.04964E-03     23.5042E-03    -50.8535E+06     14.1870E+06     42.1693E+06     6.11593E+03    -289.704E-03     583.755E-03    -294.051E-03     79.1434E-03    -290.615E-03     584.413E-03    -293.787E-03     70.6195E-03
            2200     7.37543E-03     23.3699E-03    -59.0248E+06    -24.1074E+06     28.2314E+06     403.614E+03    -291.010E-03     585.503E-03    -294.492E-03     73.6595E-03    -291.773E-03     585.889E-03    -294.231E-03     66.3735E-03
            2201     6.70218E-03     23.2423E-03    -67.2835E+06    -58.3809E+06     13.6233E+06     515.624E+03    -292.144E-03     587.019E-03    -294.875E-03     67.5587E-03    -292.780E-03     587.169E-03    -294.625E-03     61.4043E-03
            2202     6.02982E-03     23.1227E-03    -75.4750E+06    -87.8684E+06    -1.22256E+06     439.579E+03    -293.107E-03     588.305E-03    -295.198E-03     61.0510E-03    -293.636E-03     588.257E-03    -294.967E-03     55.9148E-03
            2203     5.35819E-03     23.0123E-03    -83.7348E+06    -114.049E+06    -16.8719E+06     384.909E+03    -293.902E-03     589.363E-03    -295.461E-03     54.2454E-03    -294.341E-03     589.149E-03    -295.259E-03     50.0179E-03
            2204     4.68725E-03     22.9125E-03    -92.0664E+06    -140.036E+06    -33.4540E+06     317.366E+03    -294.543E-03     590.212E-03    -295.669E-03     47.2765E-03    -294.906E-03     589.848E-03    -295.500E-03     43.8496E-03
            2205     4.01680E-03     22.8241E-03    -100.311E+06    -162.803E+06    -50.9958E+06     213.332E+03    -295.031E-03     590.852E-03    -295.821E-03     40.2708E-03    -295.331E-03     590.366E-03    -295.695E-03     37.5439E-03
            2206     3.34680E-03     22.7480E-03    -108.262E+06    -182.716E+06    -69.3532E+06     168.207E+03    -295.386E-03     591.309E-03    -295.923E-03     33.3111E-03    -295.634E-03     590.725E-03    -295.848E-03     31.1938E-03
            2207     2.67709E-03     22.6849E-03    -115.619E+06    -203.602E+06    -87.6918E+06     166.622E+03    -295.649E-03     591.640E-03    -295.991E-03     26.4548E-03    -295.849E-03     590.961E-03    -295.967E-03     24.8637E-03
            2208     2.00763E-03     22.6352E-03    -121.968E+06    -222.040E+06    -104.659E+06     149.659E+03    -295.836E-03     591.866E-03    -296.030E-03     19.7480E-03    -295.997E-03     591.109E-03    -296.054E-03     18.6130E-03
            2209     1.33833E-03     22.5992E-03    -126.920E+06    -236.755E+06    -118.620E+06     111.361E+03    -295.964E-03     592.013E-03    -296.049E-03     13.2191E-03    -296.095E-03     591.196E-03    -296.115E-03     12.4821E-03
            2210     669.145E-06     22.5771E-03    -130.107E+06    -246.532E+06    -127.967E+06     61.5000E+03    -295.897E-03     592.095E-03    -296.198E-03     7.13090E-03    -296.008E-03     591.240E-03    -296.292E-03     6.73386E-03
            2211     12.7974E-03     22.7369E-03    -5.18769E+06     74.7703E+06     94.5146E+06     12.1592E+03    -279.196E-03     569.397E-03    -290.201E-03     59.6593E-03    -280.365E-03     570.539E-03    -289.829E-03     44.6270E-03
            2212     12.1167E-03     22.6319E-03    -10.7492E+06     74.6276E+06     95.8085E+06     4.80075E+03    -280.461E-03     571.242E-03    -290.781E-03     77.6657E-03    -281.924E-03     572.654E-03    -290.395E-03     61.4388E-03
            2213     11.4368E-03     22.5138E-03    -16.8711E+06     62.4438E+06     88.2632E+06     36.9580E+03    -282.447E-03     573.781E-03    -291.334E-03     82.8205E-03    -283.831E-03     575.071E-03    -290.959E-03     68.1072E-03
            2214     10.7581E-03     22.3806E-03    -23.0974E+06     48.0030E+06     78.1155E+06    -106.319E+03    -284.585E-03     576.431E-03    -291.846E-03     86.6842E-03    -285.923E-03     577.631E-03    -291.491E-03     72.9085E-03
            2215     10.0806E-03     22.2392E-03    -29.3568E+06     45.4344E+06     71.1147E+06    -404.380E+03    -286.493E-03     578.803E-03    -292.310E-03     86.7563E-03    -287.738E-03     579.899E-03    -291.978E-03     74.2914E-03
            2216     9.40438E-03     22.0943E-03    -36.4064E+06     42.8638E+06     60.9101E+06    -370.544E+03    -288.145E-03     580.855E-03    -292.710E-03     84.5663E-03    -289.279E-03     581.835E-03    -292.414E-03     73.4816E-03
            2217     8.72911E-03     21.9495E-03    -44.0201E+06     36.6451E+06     51.1843E+06     153.950E+03    -289.557E-03     582.623E-03    -293.066E-03     80.7432E-03    -290.575E-03     583.467E-03    -292.800E-03     71.0378E-03
            2218     8.05481E-03     21.8075E-03    -51.8519E+06     13.8248E+06     40.6801E+06     588.304E+03    -290.810E-03     584.199E-03    -293.388E-03     75.7163E-03    -291.697E-03     584.832E-03    -293.130E-03     67.3353E-03
            2219     7.38146E-03     21.6706E-03    -59.7863E+06    -23.5941E+06     27.3109E+06     497.367E+03    -291.910E-03     585.567E-03    -293.657E-03     69.8975E-03    -292.653E-03     585.935E-03    -293.399E-03     62.7420E-03
            2220     6.70894E-03     21.5406E-03    -67.7387E+06    -57.7849E+06     13.1391E+06      269.57E+03    -292.788E-03     586.642E-03    -293.854E-03     63.5948E-03    -293.407E-03     586.777E-03    -293.606E-03     57.5541E-03
            2221     6.03707E-03     21.4189E-03    -75.6776E+06    -87.3814E+06    -1.41623E+06     209.647E+03    -293.436E-03     587.418E-03    -293.982E-03     56.9904E-03    -293.951E-03     587.358E-03    -293.752E-03     51.9529E-03
            2222     5.36575E-03     21.3068E-03    -83.6505E+06    -113.566E+06    -16.8264E+06     166.896E+03    -293.857E-03     587.902E-03    -294.045E-03     50.2032E-03    -294.285E-03     587.678E-03    -293.843E-03     46.0588E-03
            2223     4.69476E-03     21.2056E-03    -91.8678E+06    -139.437E+06    -33.3117E+06     111.371E+03    -294.086E-03     588.141E-03    -294.055E-03     43.3756E-03    -294.440E-03     587.770E-03    -293.886E-03     40.0171E-03
            2224     4.02404E-03     21.1163E-03    -100.050E+06    -162.319E+06    -50.7898E+06     66.2221E+03    -294.152E-03     588.170E-03    -294.018E-03     36.6358E-03    -294.445E-03     587.679E-03    -293.892E-03     33.9645E-03
            2225     3.35340E-03     21.0395E-03    -107.975E+06    -182.383E+06    -69.0751E+06     37.8844E+03    -294.100E-03     588.047E-03    -293.948E-03     30.0685E-03    -294.343E-03     587.460E-03    -293.872E-03     27.9946E-03
            2226     2.68281E-03     20.9759E-03    -115.281E+06    -203.265E+06    -87.3336E+06     26.2128E+03    -293.993E-03     587.856E-03    -293.864E-03     23.7208E-03    -294.190E-03     587.175E-03    -293.838E-03     22.1619E-03
            2227     2.01218E-03     20.9259E-03    -121.604E+06    -221.738E+06    -104.278E+06     16.9899E+03    -293.864E-03     587.640E-03    -293.776E-03     17.6144E-03    -294.023E-03     586.882E-03    -293.800E-03     16.5015E-03
            2228     1.34151E-03     20.8898E-03    -126.552E+06    -236.463E+06    -118.237E+06     17.6020E+03    -293.745E-03     587.445E-03    -293.700E-03     11.7479E-03    -293.875E-03     586.628E-03    -293.765E-03     11.0250E-03
            2229     670.769E-06     20.8676E-03    -129.727E+06    -246.231E+06    -127.592E+06     7.67269E+03    -293.524E-03     587.310E-03    -293.786E-03     6.32305E-03    -293.634E-03     586.455E-03    -293.879E-03     5.93327E-03
            2230     12.7978E-03     21.0611E-03    -5.15305E+06     74.8403E+06     94.6009E+06     2.11304E+03    -280.062E-03     570.220E-03    -290.158E-03     59.8328E-03    -281.238E-03     571.369E-03    -289.786E-03     44.7207E-03
            2231     12.1179E-03     20.9536E-03    -10.9081E+06     74.5390E+06     95.8633E+06    -28.9650E+03    -281.857E-03     572.528E-03    -290.671E-03     77.7534E-03    -283.332E-03     573.951E-03    -290.284E-03     61.3996E-03
            2232     11.4390E-03     20.8316E-03    -16.8787E+06     62.6796E+06     88.5184E+06    -193.643E+03    -284.259E-03     575.379E-03    -291.120E-03     82.2537E-03    -285.646E-03     576.673E-03    -290.744E-03     67.4255E-03
            2233     10.7618E-03     20.6946E-03    -22.9618E+06     48.3574E+06     77.9397E+06    -380.541E+03    -286.582E-03     578.072E-03    -291.490E-03     85.1993E-03    -287.908E-03     579.263E-03    -291.138E-03     71.3732E-03
            2234     10.0859E-03     20.5499E-03    -29.7656E+06     45.0161E+06     69.7752E+06    -113.773E+03    -288.478E-03     580.262E-03    -291.784E-03     84.4245E-03    -289.701E-03     581.337E-03    -291.457E-03     71.9911E-03
            2235     9.41094E-03     20.4023E-03    -37.1494E+06     42.0508E+06     59.3293E+06     433.341E+03    -290.010E-03     582.003E-03    -291.994E-03     81.4616E-03    -291.117E-03     582.956E-03    -291.704E-03     70.4627E-03
            2236     8.73704E-03     20.2548E-03    -44.7371E+06     35.8169E+06     50.0396E+06     752.242E+03    -291.230E-03     583.372E-03    -292.141E-03     76.9870E-03    -292.223E-03     584.188E-03    -291.878E-03     67.3727E-03
            2237     8.06402E-03     20.1106E-03    -52.2952E+06     14.6949E+06     40.2647E+06     668.188E+03    -292.199E-03     584.432E-03    -292.234E-03     71.4360E-03    -293.065E-03     585.048E-03    -291.978E-03     63.1330E-03
            2238     7.39171E-03     19.9718E-03    -59.8864E+06    -21.8676E+06     27.3852E+06     222.951E+03    -292.938E-03     585.195E-03    -292.257E-03     65.2116E-03    -293.664E-03     585.552E-03    -292.002E-03     58.1254E-03
            2239     6.71993E-03     19.8403E-03    -67.5219E+06    -57.0147E+06     13.2588E+06    -116.447E+03    -293.405E-03     585.603E-03    -292.198E-03     58.6190E-03    -294.006E-03     585.724E-03    -291.952E-03     52.6410E-03
            2240     6.04857E-03     19.7176E-03    -75.2532E+06    -86.8414E+06    -1.19154E+06    -209.462E+03    -293.573E-03     585.636E-03    -292.063E-03     51.8405E-03    -294.072E-03     585.563E-03    -291.834E-03     46.8573E-03
            2241     5.37737E-03     19.6050E-03    -83.2760E+06    -113.083E+06    -16.5314E+06    -237.189E+03    -293.454E-03     585.317E-03    -291.863E-03     45.0538E-03    -293.870E-03     585.084E-03    -291.661E-03     40.9524E-03
            2242     4.70617E-03     19.5036E-03    -91.4175E+06    -138.993E+06    -32.8423E+06    -201.267E+03    -293.113E-03     584.733E-03    -291.620E-03     38.4218E-03    -293.457E-03     584.354E-03    -291.450E-03     35.0939E-03
            2243     4.03476E-03     19.4144E-03    -99.5428E+06    -161.937E+06    -50.2133E+06    -159.019E+03    -292.616E-03     583.964E-03    -291.348E-03     32.0594E-03    -292.902E-03     583.467E-03    -291.219E-03     29.4070E-03
            2244     3.36308E-03     19.3380E-03    -107.404E+06    -181.988E+06    -68.4815E+06    -161.611E+03    -292.042E-03     583.108E-03    -291.066E-03     26.0288E-03    -292.280E-03     582.517E-03    -290.988E-03     23.9633E-03
            2245     2.69103E-03     19.2750E-03    -114.699E+06    -203.001E+06    -86.7764E+06    -149.107E+03    -291.476E-03     582.277E-03    -290.800E-03     20.3504E-03    -291.670E-03     581.593E-03    -290.773E-03     18.7911E-03
            2246     2.01865E-03     19.2255E-03    -121.034E+06    -221.556E+06    -103.719E+06    -107.953E+03    -290.970E-03     581.537E-03    -290.567E-03     15.0000E-03    -291.127E-03     580.777E-03    -290.589E-03     13.8819E-03
            2247     1.34595E-03     19.1899E-03    -125.993E+06    -236.361E+06    -117.686E+06    -78.5838E+03    -290.572E-03     580.956E-03    -290.384E-03     9.94481E-03    -290.700E-03     580.137E-03    -290.447E-03     9.21563E-03
            2248     673.035E-06     19.1680E-03    -129.163E+06    -246.153E+06    -127.050E+06    -51.8366E+03    -290.172E-03     580.579E-03    -290.407E-03     5.32913E-03    -290.280E-03     579.722E-03    -290.498E-03     4.93372E-03
            2249     12.7989E-03     19.3834E-03    -5.38057E+06     74.9440E+06     94.4833E+06     158.492E+03    -281.882E-03     571.934E-03    -290.051E-03     60.1916E-03    -283.073E-03     573.097E-03    -289.680E-03     44.9040E-03
            2250     12.1205E-03     19.2723E-03    -10.8939E+06     74.9800E+06     95.8055E+06    -76.9028E+03    -284.198E-03     574.639E-03    -290.441E-03     77.9454E-03    -285.692E-03     576.083E-03    -290.055E-03     61.3568E-03
            2251     11.4436E-03     19.1463E-03    -17.0687E+06     62.8476E+06     87.6861E+06    -208.634E+03    -286.924E-03     577.645E-03    -290.722E-03     81.6721E-03    -288.319E-03     578.949E-03    -290.349E-03     66.6581E-03
            2252     10.7682E-03     19.0058E-03    -23.8293E+06     47.8095E+06     76.2065E+06     201.761E+03    -289.338E-03     580.224E-03    -290.887E-03     83.4607E-03    -290.658E-03     581.410E-03    -290.541E-03     69.5409E-03
            2253     10.0941E-03     18.8584E-03    -30.6630E+06     44.0560E+06     68.6231E+06     653.074E+03    -291.171E-03     582.120E-03    -290.949E-03     81.5220E-03    -292.379E-03     583.176E-03    -290.625E-03     69.0574E-03
            2254     9.42119E-03     18.7084E-03    -37.3514E+06     41.7205E+06     59.6159E+06     755.410E+03    -292.506E-03     583.405E-03    -290.899E-03     77.5675E-03    -293.594E-03     584.335E-03    -290.607E-03     66.5595E-03
            2255     8.74911E-03     18.5593E-03    -44.2317E+06     36.2429E+06     50.8093E+06      550.69E+03    -293.405E-03     584.161E-03    -290.756E-03     72.2828E-03    -294.376E-03     584.957E-03    -290.490E-03     62.6592E-03
            2256     8.07762E-03     18.4138E-03    -51.5050E+06     16.2366E+06     41.0586E+06     201.398E+03    -293.949E-03     584.483E-03    -290.533E-03     66.0205E-03    -294.795E-03     585.084E-03    -290.277E-03     57.7062E-03
            2257     7.40657E-03     18.2743E-03    -58.9428E+06    -19.9199E+06     28.2646E+06    -153.328E+03    -294.178E-03     584.404E-03    -290.226E-03     59.1922E-03    -294.884E-03     584.749E-03    -289.971E-03     52.0934E-03
            2258     6.73577E-03     18.1426E-03    -66.5202E+06    -55.8798E+06     13.9918E+06    -460.974E+03    -294.030E-03     583.856E-03    -289.826E-03     52.1564E-03    -294.612E-03     583.964E-03    -289.579E-03     46.1593E-03
            2259     6.06489E-03     18.0203E-03    -74.3453E+06    -86.1598E+06    -508.717E+03    -607.974E+03    -293.485E-03     582.834E-03    -289.349E-03     45.1478E-03    -293.968E-03     582.748E-03    -289.119E-03     40.1372E-03
            2260     5.39370E-03     17.9086E-03    -82.3714E+06    -112.627E+06    -15.8295E+06    -610.009E+03    -292.609E-03     581.427E-03    -288.817E-03     38.4054E-03    -293.012E-03     581.183E-03    -288.614E-03     34.2690E-03
            2261     4.72191E-03     17.8087E-03    -90.4747E+06    -138.667E+06    -32.1349E+06    -530.001E+03    -291.519E-03     579.781E-03    -288.263E-03     32.0749E-03    -291.852E-03     579.394E-03    -288.091E-03     28.7053E-03
            2262     4.04943E-03     17.7212E-03    -98.5288E+06    -161.648E+06    -49.4423E+06    -444.971E+03    -290.316E-03     578.023E-03    -287.707E-03     26.2301E-03    -290.593E-03     577.519E-03    -287.577E-03     23.5315E-03
            2263     3.37612E-03     17.6466E-03    -106.343E+06    -181.739E+06    -67.6419E+06    -354.490E+03    -289.108E-03     576.284E-03    -287.176E-03     20.8904E-03    -289.339E-03     575.688E-03    -287.097E-03     18.7782E-03
            2264     2.70203E-03     17.5852E-03    -113.598E+06    -202.823E+06    -85.8191E+06    -245.530E+03    -288.000E-03     574.702E-03    -286.702E-03     16.0441E-03    -288.188E-03     574.014E-03    -286.672E-03     14.4414E-03
            2265     2.02723E-03     17.5372E-03    -119.904E+06    -221.459E+06    -102.660E+06    -179.755E+03    -287.060E-03     573.362E-03    -286.302E-03     11.6424E-03    -287.212E-03     572.597E-03    -286.320E-03     10.4872E-03
            2266     1.35185E-03     17.5027E-03    -124.849E+06    -236.350E+06    -116.579E+06    -120.916E+03    -286.346E-03     572.341E-03    -285.995E-03     7.62401E-03    -286.469E-03     571.518E-03    -286.055E-03     6.86740E-03
            2267     676.044E-06     17.4816E-03    -128.039E+06    -246.223E+06    -125.947E+06    -71.9530E+03    -285.736E-03     571.689E-03    -285.954E-03     4.04933E-03    -285.841E-03     570.829E-03    -286.041E-03     3.63876E-03
            2268     12.8012E-03     17.7021E-03    -5.02644E+06     74.7854E+06     94.5407E+06     254.386E+03    -284.855E-03     574.740E-03    -289.885E-03     61.1412E-03    -286.071E-03     575.930E-03    -289.514E-03     45.5523E-03
            2269     12.1248E-03     17.5869E-03    -10.9392E+06     75.2078E+06     94.8392E+06     487.272E+03    -287.549E-03     577.631E-03    -290.082E-03     78.3623E-03    -289.075E-03     579.111E-03    -289.701E-03     61.4131E-03
            2270     11.4500E-03     17.4569E-03    -17.5261E+06     62.4217E+06     85.8602E+06     958.235E+03    -290.507E-03     580.637E-03    -290.130E-03     80.7758E-03    -291.918E-03     581.959E-03    -289.766E-03     65.4941E-03
            2271     10.7772E-03     17.3131E-03    -23.9871E+06     47.5771E+06     75.5660E+06     1.11450E+06    -292.985E-03     583.012E-03    -290.027E-03     81.0549E-03    -294.305E-03     584.197E-03    -289.683E-03     66.9405E-03
            2272     10.1059E-03     17.1635E-03    -30.3583E+06     44.5668E+06     69.5073E+06     665.407E+03    -294.686E-03     584.467E-03    -289.781E-03     77.7897E-03    -295.886E-03     585.516E-03    -289.454E-03     65.1480E-03
            2273     9.43541E-03     17.0122E-03    -36.9131E+06     42.4240E+06     60.5794E+06     104.567E+03    -295.744E-03     585.124E-03    -289.380E-03     72.6813E-03    -296.818E-03     586.042E-03    -289.085E-03     61.5093E-03
            2274     8.76562E-03     16.8625E-03    -43.5553E+06     37.0327E+06     51.6241E+06    -297.105E+03    -296.240E-03     585.091E-03    -288.851E-03     66.2904E-03    -297.194E-03     585.873E-03    -288.583E-03     56.5080E-03
            2275     8.09621E-03     16.7172E-03    -50.3935E+06     17.6882E+06     41.9817E+06    -607.785E+03    -296.219E-03     584.432E-03    -288.214E-03     59.0168E-03    -297.046E-03     585.022E-03    -287.956E-03     50.5384E-03
            2276     7.42687E-03     16.5786E-03    -57.6416E+06    -18.2989E+06     29.2126E+06    -834.079E+03    -295.706E-03     583.179E-03    -287.473E-03     51.3832E-03    -296.395E-03     583.514E-03    -287.217E-03     44.1123E-03
            2277     6.75721E-03     16.4486E-03    -65.2158E+06    -54.7442E+06     14.9037E+06    -889.501E+03    -294.660E-03     581.294E-03    -286.634E-03     43.8181E-03    -295.225E-03     581.391E-03    -286.386E-03     37.6451E-03
            2278     6.08685E-03     16.3287E-03    -73.0089E+06    -85.3321E+06     421.941E+03    -866.534E+03    -293.128E-03     578.855E-03    -285.728E-03     36.6023E-03    -293.595E-03     578.759E-03    -285.496E-03     31.4168E-03
            2279     5.41541E-03     16.2202E-03    -80.9698E+06    -112.052E+06    -14.9085E+06    -842.911E+03    -291.264E-03     576.053E-03    -284.789E-03     29.9657E-03    -291.652E-03     575.798E-03    -284.583E-03     25.6584E-03
            2280     4.74271E-03     16.1236E-03    -89.0098E+06    -138.293E+06    -31.3650E+06    -739.279E+03    -289.231E-03     573.088E-03    -283.857E-03     24.0278E-03    -289.552E-03     572.692E-03    -283.684E-03     20.4936E-03
            2281     4.06861E-03     16.0396E-03    -97.0152E+06    -161.467E+06    -48.7015E+06    -563.570E+03    -287.164E-03     570.128E-03    -282.964E-03     18.8393E-03    -287.430E-03     569.616E-03    -282.832E-03     15.9855E-03
            2282     3.39313E-03     15.9683E-03    -104.773E+06    -181.574E+06    -66.6387E+06    -402.137E+03    -285.193E-03     567.333E-03    -282.140E-03     14.3876E-03    -285.414E-03     566.730E-03    -282.058E-03     12.1338E-03
            2283     2.71632E-03     15.9100E-03    -111.967E+06    -202.690E+06    -84.6367E+06    -244.667E+03    -283.443E-03     564.865E-03    -281.422E-03     10.6165E-03    -283.623E-03     564.171E-03    -281.389E-03     8.89232E-03
            2284     2.03836E-03     15.8646E-03    -118.226E+06    -221.367E+06    -101.398E+06    -87.3701E+03    -281.994E-03     562.824E-03    -280.830E-03     7.43967E-03    -282.138E-03     562.054E-03    -280.844E-03     6.18923E-03
            2285     1.35945E-03     15.8321E-03    -123.172E+06    -236.238E+06    -115.140E+06     10.4205E+03    -280.915E-03     561.302E-03    -280.386E-03     4.74183E-03    -281.032E-03     560.473E-03    -280.441E-03     3.92017E-03
            2286     679.894E-06     15.8121E-03    -126.369E+06    -246.111E+06    -124.352E+06     25.4300E+03    -280.084E-03     560.348E-03    -280.264E-03     2.46025E-03    -280.183E-03     559.482E-03    -280.346E-03     2.01501E-03
            2287     12.8036E-03     16.0150E-03    -4.84971E+06     74.5744E+06     93.8747E+06    -261.077E+03    -289.036E-03     578.706E-03    -289.671E-03     62.5792E-03    -290.291E-03     579.937E-03    -289.302E-03     46.5437E-03
            2288     12.1303E-03     15.8958E-03    -9.82620E+06     72.1045E+06     93.6418E+06     730.154E+03    -292.231E-03     581.839E-03    -289.608E-03     78.9215E-03    -293.794E-03     583.351E-03    -289.230E-03     61.4549E-03
            2289     11.4591E-03     15.7619E-03    -15.3974E+06     60.9989E+06     86.3638E+06     2.26907E+06    -295.328E-03     584.676E-03    -289.348E-03     79.5264E-03    -296.754E-03     586.014E-03    -288.982E-03     63.8213E-03
            2290     10.7895E-03     15.6153E-03    -21.6646E+06     50.1329E+06     78.4243E+06     2.18259E+06    -297.651E-03     586.544E-03    -288.892E-03     78.0073E-03    -298.978E-03     587.745E-03    -288.541E-03     63.5279E-03
            2291     10.1213E-03     15.4644E-03    -28.3224E+06     46.7749E+06     71.4924E+06     1.11774E+06    -299.149E-03     587.390E-03    -288.241E-03     73.1591E-03    -300.347E-03     588.446E-03    -287.910E-03     60.1614E-03
            2292     9.45405E-03     15.3129E-03    -35.1254E+06     44.3836E+06     61.8821E+06     155.116E+03    -299.934E-03     587.321E-03    -287.387E-03     66.5473E-03    -301.001E-03     588.242E-03    -287.091E-03     55.0086E-03
            2293     8.78733E-03     15.1640E-03    -42.0298E+06     38.7117E+06     52.5735E+06    -933.011E+03    -299.926E-03     586.286E-03    -286.360E-03     58.6770E-03    -300.869E-03     587.066E-03    -286.092E-03     48.5021E-03
            2294     8.12063E-03     15.0207E-03    -49.0517E+06     18.9133E+06     42.5641E+06    -1.57157E+06    -299.085E-03     584.276E-03    -285.191E-03     50.1659E-03    -299.899E-03     584.861E-03    -284.935E-03     41.2692E-03
            2295     7.45339E-03     14.8853E-03    -56.2409E+06    -17.2610E+06     29.5981E+06    -1.45228E+06    -297.502E-03     581.407E-03    -283.905E-03     41.6738E-03    -298.175E-03     581.735E-03    -283.651E-03     33.9801E-03
            2296     6.78507E-03     14.7596E-03    -63.6709E+06    -53.7860E+06     15.2445E+06    -1.20969E+06    -295.256E-03     577.784E-03    -282.528E-03     33.6124E-03    -295.806E-03     577.873E-03    -282.281E-03     27.0205E-03
            2297     6.11512E-03     14.6449E-03    -71.3182E+06    -84.5812E+06     756.948E+03    -1.03096E+06    -292.490E-03     573.592E-03    -281.102E-03     26.2664E-03    -292.941E-03     573.488E-03    -280.872E-03     20.6664E-03
            2298     5.44327E-03     14.5420E-03    -79.1727E+06    -111.356E+06    -14.3974E+06    -840.866E+03    -289.406E-03     569.083E-03    -279.677E-03     19.8516E-03    -289.779E-03     568.821E-03    -279.472E-03     15.1402E-03
            2299     4.76925E-03     14.4512E-03    -87.1959E+06    -137.861E+06    -30.5819E+06    -602.349E+03    -286.216E-03     564.517E-03    -278.302E-03     14.4795E-03    -286.523E-03     564.113E-03    -278.128E-03     10.5612E-03
            2300     4.09306E-03     14.3729E-03    -95.2040E+06    -161.232E+06    -47.9035E+06    -335.069E+03    -283.096E-03     560.111E-03    -277.015E-03     10.1643E-03    -283.349E-03     559.591E-03    -276.883E-03     6.95759E-03
            2301     3.41467E-03     14.3069E-03    -102.975E+06    -181.378E+06    -65.9584E+06    -54.3946E+03    -280.210E-03     556.065E-03    -275.855E-03     6.84299E-03    -280.421E-03     555.455E-03    -275.772E-03     4.27916E-03
            2302     2.73433E-03     14.2532E-03    -110.255E+06    -202.437E+06    -83.8479E+06     262.663E+03    -277.709E-03     552.571E-03    -274.862E-03     4.38461E-03    -277.880E-03     551.872E-03    -274.828E-03     2.40373E-03
            2303     2.05230E-03     14.2117E-03    -116.634E+06    -220.848E+06    -100.294E+06     406.673E+03    -275.682E-03     549.740E-03    -274.058E-03     2.64564E-03    -275.820E-03     548.967E-03    -274.070E-03     1.19798E-03
            2304     1.36895E-03     14.1819E-03    -121.601E+06    -235.565E+06    -113.749E+06     360.429E+03    -274.196E-03     547.660E-03    -273.463E-03     1.45984E-03    -274.309E-03     546.829E-03    -273.514E-03     504.178E-06
            2305     684.722E-06     14.1638E-03    -124.772E+06    -245.346E+06    -122.812E+06     211.063E+03    -273.135E-03     546.365E-03    -273.230E-03     650.585E-06    -273.230E-03     545.497E-03    -273.307E-03     132.948E-06
            2306     12.8067E-03     14.3205E-03    -5.10696E+06     75.0453E+06     93.4804E+06    -670.873E+03    -294.445E-03     583.850E-03    -289.406E-03     63.8869E-03    -295.751E-03     585.134E-03    -289.040E-03     47.2648E-03
            2307     12.1373E-03     14.1963E-03    -10.3216E+06     68.1358E+06     92.0214E+06    -522.347E+03    -298.131E-03     587.144E-03    -289.013E-03     79.2130E-03    -299.747E-03     588.699E-03    -288.637E-03     61.0517E-03
            2308     11.4702E-03     14.0591E-03    -15.3001E+06     57.7060E+06     85.6740E+06     643.033E+03    -301.392E-03     589.754E-03    -288.362E-03     78.0167E-03    -302.853E-03     591.118E-03    -287.995E-03     61.6438E-03
            2309     10.8049E-03     13.9111E-03    -20.2765E+06     51.3848E+06     80.6477E+06     1.60966E+06    -303.638E-03     591.099E-03    -287.461E-03     74.4741E-03    -304.991E-03     592.330E-03    -287.103E-03     59.3553E-03
            2310     10.1409E-03     13.7598E-03    -25.9970E+06     49.0507E+06     74.0061E+06     1.48527E+06    -304.946E-03     591.243E-03    -286.296E-03     67.5351E-03    -306.155E-03     592.320E-03    -285.960E-03     53.9149E-03
            2311     9.47774E-03     13.6092E-03    -32.3047E+06     47.1048E+06     63.7618E+06     589.839E+03    -305.278E-03     590.145E-03    -284.867E-03     58.9464E-03    -306.346E-03     591.083E-03    -284.570E-03     46.7382E-03
            2312     8.81491E-03     13.4629E-03    -38.9788E+06     41.5554E+06     53.7206E+06    -412.968E+03    -304.403E-03     587.623E-03    -283.221E-03     49.4093E-03    -305.341E-03     588.417E-03    -282.956E-03     38.5176E-03
            2313     8.15150E-03     13.3244E-03    -46.2848E+06     20.8578E+06     42.8764E+06    -990.483E+03    -302.370E-03     583.783E-03    -281.413E-03     39.7651E-03    -303.173E-03     584.374E-03    -281.162E-03     30.1335E-03
            2314     7.48663E-03     13.1953E-03    -54.0287E+06    -16.0126E+06     29.2511E+06    -1.02973E+06    -299.414E-03     578.905E-03    -279.491E-03     30.6541E-03    -300.076E-03     579.235E-03    -279.243E-03     22.2146E-03
            2315     6.81963E-03     13.0772E-03    -61.8264E+06    -52.6849E+06     14.7823E+06    -792.720E+03    -295.698E-03     573.196E-03    -277.498E-03     22.3898E-03    -296.236E-03     573.286E-03    -277.258E-03     15.0460E-03
            2316     6.15006E-03     12.9708E-03    -69.7698E+06    -83.7433E+06     234.519E+03    -457.161E+03    -291.450E-03     566.941E-03    -275.492E-03     15.2942E-03    -291.890E-03     566.837E-03    -275.268E-03     8.95244E-03
            2317     5.47745E-03     12.8766E-03    -78.0191E+06    -110.795E+06    -14.9291E+06    -3.41632E+03    -286.948E-03     560.481E-03    -273.533E-03     9.51839E-03    -287.312E-03     560.218E-03    -273.334E-03     4.09201E-03
            2318     4.80166E-03     12.7946E-03    -86.4393E+06    -136.571E+06    -30.9188E+06     218.756E+03    -282.448E-03     554.127E-03    -271.680E-03     5.06221E-03    -282.749E-03     553.726E-03    -271.511E-03     468.398E-06
            2319     4.12265E-03     12.7245E-03    -94.7029E+06    -160.604E+06    -48.0928E+06     232.775E+03    -278.165E-03     548.141E-03    -269.976E-03     1.84488E-03    -278.415E-03     547.622E-03    -269.847E-03    -1.98334E-03
            2320     3.44063E-03     12.6660E-03    -102.600E+06    -181.537E+06    -66.1063E+06     722.660E+03    -274.284E-03     542.747E-03    -268.463E-03    -268.673E-06    -274.491E-03     542.133E-03    -268.381E-03    -3.37522E-03
            2321     2.75593E-03     12.6188E-03    -109.916E+06    -201.353E+06    -83.6837E+06     1.11484E+06    -270.962E-03     538.141E-03    -267.179E-03    -1.43366E-03    -271.132E-03     537.444E-03    -267.146E-03    -3.86383E-03
            2322     2.06899E-03     12.5824E-03    -116.194E+06    -219.379E+06    -99.7490E+06     947.276E+03    -268.306E-03     534.454E-03    -266.148E-03    -1.81066E-03    -268.444E-03     533.685E-03    -266.160E-03    -3.60773E-03
            2323     1.38033E-03     12.5564E-03    -121.069E+06    -234.036E+06    -113.152E+06     672.175E+03    -266.365E-03     531.751E-03    -265.386E-03    -1.58761E-03    -266.478E-03     530.926E-03    -265.437E-03    -2.78364E-03
            2324     690.477E-06     12.5406E-03    -124.203E+06    -243.796E+06    -122.182E+06     374.822E+03    -265.066E-03     530.065E-03    -264.999E-03    -1.02949E-03    -265.161E-03     529.203E-03    -265.077E-03    -1.67694E-03
            2325     12.8109E-03     12.6160E-03    -5.32083E+06     76.0955E+06     94.0708E+06    -253.599E+03    -301.123E-03     590.199E-03    -289.076E-03     65.1899E-03    -302.491E-03     591.545E-03    -288.708E-03     47.8577E-03
            2326     12.1461E-03     12.4873E-03    -10.8398E+06     69.0002E+06     91.2258E+06    -1.26876E+06    -305.219E-03     593.494E-03    -288.275E-03     79.1847E-03    -306.907E-03     595.124E-03    -287.903E-03     60.1537E-03
            2327     11.4837E-03     12.3470E-03    -16.1111E+06     55.2309E+06     83.3611E+06    -2.02120E+06    -308.800E-03     595.947E-03    -287.147E-03     75.7071E-03    -310.311E-03     597.355E-03    -286.786E-03     58.4196E-03
            2328     10.8236E-03     12.1979E-03    -21.0847E+06     48.1544E+06     78.7450E+06    -1.33665E+06    -311.207E-03     596.897E-03    -285.690E-03     69.7154E-03    -312.598E-03     598.157E-03    -285.336E-03     53.5864E-03
            2329     10.1650E-03     12.0474E-03    -26.0516E+06     49.0503E+06     73.8159E+06    -664.713E+03    -312.149E-03     596.042E-03    -283.893E-03     60.4260E-03    -313.388E-03     597.151E-03    -283.557E-03     45.7337E-03
            2330     9.50716E-03     11.8997E-03    -31.4493E+06     47.8863E+06     63.6507E+06    -404.883E+03    -311.471E-03     593.248E-03    -281.777E-03     49.9252E-03    -312.556E-03     594.210E-03    -281.483E-03     36.6257E-03
            2331     8.84876E-03     11.7593E-03    -37.8484E+06     42.2549E+06     52.9338E+06     182.070E+03    -309.185E-03     588.613E-03    -279.428E-03     39.1250E-03    -310.131E-03     589.424E-03    -279.170E-03     27.1412E-03
            2332     8.18861E-03     11.6289E-03    -45.2332E+06     22.8301E+06     41.9283E+06     776.140E+03    -305.540E-03     582.470E-03    -276.930E-03     28.9056E-03    -306.349E-03     583.081E-03    -276.688E-03     18.1891E-03
            2333     7.52595E-03     11.5097E-03    -53.2057E+06    -13.1030E+06     28.1704E+06     931.819E+03    -300.858E-03     575.209E-03    -274.351E-03     19.9517E-03    -301.526E-03     575.563E-03    -274.114E-03     10.4331E-03
            2334     6.86004E-03     11.4028E-03    -61.5026E+06    -50.7944E+06     13.1916E+06     955.855E+03    -295.431E-03     567.185E-03    -271.754E-03     12.4561E-03    -295.976E-03     567.295E-03    -271.525E-03     4.05315E-03
            2335     6.19012E-03     11.3085E-03    -69.9396E+06    -82.3045E+06    -1.43287E+06     1.19431E+06    -289.587E-03     558.794E-03    -269.207E-03     6.51049E-03    -290.036E-03     558.707E-03    -268.993E-03    -850.833E-06
            2336     5.51601E-03     11.2264E-03    -78.3322E+06    -109.756E+06    -16.5531E+06     1.47649E+06    -283.657E-03     550.430E-03    -266.773E-03     2.05486E-03    -284.029E-03     550.183E-03    -266.583E-03    -4.33521E-03
            2337     4.83764E-03     11.1561E-03    -86.6114E+06    -134.103E+06    -32.3147E+06     1.46543E+06    -277.918E-03     542.427E-03    -264.508E-03    -1.04800E-03    -278.230E-03     542.047E-03    -264.350E-03    -6.53055E-03
            2338     4.15520E-03     11.0969E-03    -94.8969E+06    -159.224E+06    -48.4770E+06     1.32904E+06    -272.604E-03     535.066E-03    -262.462E-03    -2.99370E-03    -272.862E-03     534.560E-03    -262.336E-03    -7.61986E-03
            2339     3.46899E-03     11.0482E-03    -102.995E+06    -181.399E+06    -65.5230E+06     1.53793E+06    -267.864E-03     528.522E-03    -260.659E-03    -3.98805E-03    -268.078E-03     527.914E-03    -260.574E-03    -7.78756E-03
            2340     2.77946E-03     11.0091E-03    -110.352E+06    -199.339E+06    -83.2806E+06     1.60800E+06    -263.822E-03     522.947E-03    -259.125E-03    -4.19365E-03    -264.000E-03     522.264E-03    -259.093E-03    -7.19537E-03
            2341     2.08715E-03     10.9793E-03    -116.664E+06    -217.154E+06    -99.9883E+06     1.30213E+06    -260.590E-03     518.486E-03    -257.896E-03    -3.76267E-03    -260.735E-03     517.731E-03    -257.912E-03    -5.99909E-03
            2342     1.39268E-03     10.9581E-03    -121.588E+06    -231.888E+06    -113.572E+06     904.666E+03    -258.221E-03     515.209E-03    -256.987E-03    -2.85431E-03    -258.340E-03     514.396E-03    -257.043E-03    -4.35132E-03
            2343     696.748E-06     10.9453E-03    -124.762E+06    -241.698E+06    -122.493E+06     474.539E+03    -256.705E-03     513.151E-03    -256.446E-03    -1.69969E-03    -256.806E-03     512.301E-03    -256.527E-03    -2.51189E-03
            2344     12.8158E-03     10.8998E-03    -4.78060E+06     77.7657E+06     94.5794E+06    -419.999E+03    -309.291E-03     597.960E-03    -288.670E-03     66.5847E-03    -310.725E-03     599.380E-03    -288.302E-03     48.4005E-03
            2345     12.1565E-03     10.7664E-03    -9.74497E+06     72.5346E+06     92.0542E+06    -1.54113E+06    -314.088E-03     601.461E-03    -287.373E-03     78.5603E-03    -315.855E-03     603.184E-03    -287.004E-03     58.4411E-03
            2346     11.5004E-03     10.6232E-03    -15.3069E+06     54.8324E+06     82.8330E+06    -2.28468E+06    -318.052E-03     603.705E-03    -285.653E-03     72.0447E-03    -319.618E-03     605.172E-03    -285.296E-03     53.5455E-03
            2347     10.8468E-03     10.4733E-03    -21.2129E+06     45.8050E+06     76.6853E+06    -2.42632E+06    -320.181E-03     603.697E-03    -283.516E-03     63.2123E-03    -321.613E-03     604.997E-03    -283.168E-03     45.7084E-03
            2348     10.1948E-03     10.3255E-03    -27.4024E+06     47.9194E+06     71.2138E+06    -2.48894E+06    -320.017E-03     601.005E-03    -280.988E-03     51.7724E-03    -321.295E-03     602.152E-03    -280.661E-03     35.5740E-03
            2349     9.54223E-03     10.1847E-03    -33.8901E+06     45.2253E+06     60.6577E+06    -1.71238E+06    -317.558E-03     595.701E-03    -278.143E-03     40.0113E-03    -318.673E-03     596.684E-03    -277.856E-03     25.2337E-03
            2350     8.88783E-03     10.0537E-03    -40.4737E+06     38.9893E+06     49.3222E+06     148.089E+03    -313.149E-03     588.252E-03    -275.102E-03     29.0778E-03    -314.117E-03     589.075E-03    -274.854E-03     15.7046E-03
            2351     8.23050E-03     9.93569E-03    -47.5629E+06     22.8676E+06     38.7081E+06     2.06109E+06    -307.346E-03     579.332E-03    -271.986E-03     19.8255E-03    -308.181E-03     579.969E-03    -271.756E-03     7.80362E-03
            2352     7.56894E-03     9.83083E-03    -55.4485E+06    -9.71498E+06     25.9007E+06     3.03110E+06    -300.651E-03     569.534E-03    -268.882E-03     12.5770E-03    -301.354E-03     569.932E-03    -268.658E-03     1.84888E-03
            2353     6.90237E-03     9.73922E-03    -63.6775E+06    -47.5584E+06     10.9447E+06     3.12366E+06    -293.472E-03     559.331E-03    -265.859E-03     7.16636E-03    -294.054E-03     559.487E-03    -265.643E-03    -2.34727E-03
            2354     6.23071E-03     9.66024E-03    -71.8838E+06    -79.5461E+06    -3.27083E+06     2.85573E+06    -286.190E-03     549.173E-03    -262.983E-03     3.42021E-03    -286.677E-03     549.133E-03    -262.780E-03    -4.95284E-03
            2355     5.55383E-03     9.59323E-03    -80.0453E+06    -107.323E+06    -17.5544E+06     2.50476E+06    -279.146E-03     539.456E-03    -260.309E-03     1.03564E-03    -279.557E-03     539.252E-03    -260.126E-03    -6.25258E-03
            2356     4.87190E-03     9.53697E-03    -88.2504E+06    -131.860E+06    -32.8361E+06     2.35004E+06    -272.586E-03     530.460E-03    -257.874E-03    -338.684E-06    -272.934E-03     530.120E-03    -257.719E-03    -6.58613E-03
            2357     4.18529E-03     9.49055E-03    -96.4578E+06    -156.673E+06    -48.7840E+06     2.15583E+06    -266.695E-03     522.406E-03    -255.711E-03    -988.219E-06    -266.985E-03     521.938E-03    -255.588E-03    -6.24181E-03
            2358     3.49455E-03     9.45297E-03    -104.349E+06    -179.763E+06    -65.2397E+06     1.57900E+06    -261.573E-03     515.410E-03    -253.836E-03    -1.17162E-03    -261.814E-03     514.829E-03    -253.751E-03    -5.47830E-03
            2359     2.80023E-03     9.42344E-03    -111.687E+06    -197.886E+06    -82.6854E+06     1.39649E+06    -257.274E-03     509.529E-03    -252.256E-03    -1.09098E-03    -257.474E-03     508.868E-03    -252.220E-03    -4.48076E-03
            2360     2.10291E-03     9.40117E-03    -118.160E+06    -214.577E+06    -99.5990E+06     1.16375E+06    -253.859E-03     504.852E-03    -250.992E-03    -883.365E-06    -254.023E-03     504.120E-03    -251.008E-03    -3.39472E-03
            2361     1.40330E-03     9.38561E-03    -123.183E+06    -229.892E+06    -113.867E+06     525.842E+03    -251.373E-03     501.435E-03    -250.062E-03    -624.109E-06    -251.504E-03     500.640E-03    -250.120E-03    -2.30177E-03
            2362     702.088E-06     9.37628E-03    -126.438E+06    -240.237E+06    -123.477E+06     198.434E+03    -249.811E-03     499.297E-03    -249.487E-03    -362.144E-06    -249.921E-03     498.461E-03    -249.572E-03    -1.26813E-03
            2363     12.8218E-03     9.16908E-03    -5.25735E+06     79.7795E+06     95.0204E+06    -1.03748E+06    -319.832E-03     608.012E-03    -288.180E-03     67.9425E-03    -321.342E-03     609.511E-03    -287.812E-03     48.7238E-03
            2364     12.1697E-03     9.02977E-03    -10.5940E+06     74.1235E+06     92.1661E+06    -1.77745E+06    -325.319E-03     611.577E-03    -286.258E-03     76.9823E-03    -327.179E-03     613.396E-03    -285.889E-03     55.4038E-03
            2365     11.5214E-03     8.88390E-03    -16.0076E+06     54.7484E+06     82.2246E+06    -1.90097E+06    -329.017E-03     612.835E-03    -283.818E-03     66.9744E-03    -330.654E-03     614.374E-03    -283.463E-03     46.8239E-03
            2366     10.8755E-03     8.73564E-03     -21.705E+06     45.0959E+06     75.0563E+06    -1.66562E+06    -329.725E-03     610.640E-03    -280.915E-03     55.4252E-03    -331.202E-03     611.985E-03    -280.573E-03     36.2503E-03
            2367     10.2296E-03     8.59466E-03    -28.0532E+06     47.1482E+06     68.3776E+06    -1.27698E+06    -327.156E-03     604.799E-03    -277.642E-03     42.5093E-03    -328.460E-03     605.976E-03    -277.328E-03     24.6475E-03
            2368     9.58181E-03     8.46517E-03    -35.0013E+06     42.2833E+06     57.8295E+06    -344.252E+03    -321.764E-03     595.918E-03    -274.154E-03     31.0759E-03    -322.896E-03     596.912E-03    -273.875E-03     14.7912E-03
            2369     8.93010E-03     8.34989E-03    -42.6683E+06     34.4593E+06     46.0001E+06     1.49587E+06    -314.451E-03     585.056E-03    -270.604E-03     22.1672E-03    -315.438E-03     585.883E-03    -270.362E-03     7.53801E-03
            2370     8.27275E-03     8.24905E-03    -50.5684E+06     21.9975E+06     35.3089E+06     3.24886E+06    -306.121E-03     573.250E-03    -267.129E-03     15.8188E-03    -306.992E-03     573.919E-03    -266.911E-03     2.76275E-03
            2371     7.60944E-03     8.16261E-03    -58.0785E+06    -6.35676E+06     24.6040E+06     3.76520E+06    -297.425E-03     561.255E-03    -263.830E-03     11.7644E-03    -298.180E-03     561.711E-03    -263.613E-03     188.305E-06
            2372     6.94012E-03     8.08943E-03    -65.3527E+06    -43.7824E+06     11.7056E+06     3.51829E+06    -288.829E-03     549.586E-03    -260.757E-03     9.58082E-03    -289.468E-03     549.804E-03    -260.540E-03    -586.920E-06
            2373     6.26450E-03     8.02842E-03    -72.8332E+06    -76.2494E+06    -1.54902E+06     3.18719E+06    -280.695E-03     538.641E-03    -257.946E-03     8.66316E-03    -281.239E-03     538.661E-03    -257.738E-03    -165.159E-06
            2374     5.58308E-03     7.97777E-03    -80.7996E+06    -104.519E+06    -15.1107E+06     2.89140E+06    -273.281E-03     528.707E-03    -255.426E-03     8.43122E-03    -273.746E-03     528.558E-03    -255.233E-03     869.015E-06
            2375     4.89645E-03     7.93646E-03    -89.1299E+06    -129.711E+06    -29.5437E+06     2.48821E+06    -266.720E-03     519.927E-03    -253.207E-03     8.43596E-03    -267.117E-03     519.633E-03    -253.038E-03     2.06183E-03
            2376     4.20525E-03     7.90304E-03    -97.3567E+06    -153.338E+06    -45.6231E+06     1.63124E+06    -261.072E-03     512.361E-03    -251.288E-03     8.36489E-03    -261.408E-03     511.938E-03    -251.153E-03     3.09327E-03
            2377     3.51014E-03     7.87654E-03    -105.376E+06    -177.469E+06    -62.5940E+06     666.408E+03    -256.363E-03     506.035E-03    -249.672E-03     7.99329E-03    -256.640E-03     505.488E-03    -249.575E-03     3.74174E-03
            2378     2.81185E-03     7.85613E-03    -112.976E+06    -196.983E+06    -80.0156E+06    -44.9294E+03    -252.567E-03     500.911E-03    -248.344E-03     7.20133E-03    -252.794E-03     500.269E-03    -248.294E-03     3.89758E-03
            2379     2.11106E-03     7.84102E-03    -119.509E+06    -213.142E+06    -97.6776E+06    -602.335E+03    -249.649E-03     496.946E-03    -247.297E-03     5.94534E-03    -249.833E-03     496.232E-03    -247.303E-03     3.52154E-03
            2380     1.40839E-03     7.83070E-03    -124.710E+06    -229.697E+06    -113.485E+06    -878.518E+03    -247.592E-03     494.129E-03    -246.538E-03     4.27646E-03    -247.735E-03     493.343E-03    -246.591E-03     2.67041E-03
            2381     704.516E-06     7.82460E-03    -128.390E+06    -241.616E+06    -124.603E+06    -798.664E+03    -246.291E-03     492.402E-03    -246.111E-03     2.41220E-03    -246.408E-03     491.566E-03    -246.197E-03     1.54814E-03
            2382     12.8290E-03     7.41844E-03    -5.41665E+06     82.1393E+06     95.8658E+06    -1.03185E+06    -333.453E-03     621.070E-03    -287.617E-03     70.3101E-03    -335.053E-03     622.664E-03    -287.249E-03     49.9036E-03
            2383     12.1864E-03     7.27265E-03    -10.4659E+06     73.3797E+06     91.3802E+06    -2.10205E+06    -339.276E-03     624.194E-03    -284.918E-03     75.2875E-03    -341.243E-03     626.121E-03    -284.552E-03     51.7970E-03
            2384     11.5471E-03     7.12730E-03    -15.4686E+06     52.7508E+06     81.3287E+06    -1.38024E+06    -340.916E-03     622.572E-03    -281.656E-03     60.9952E-03    -342.626E-03     624.181E-03    -281.303E-03     38.7340E-03
            2385     10.9084E-03     6.98518E-03    -20.7622E+06     44.0393E+06     75.4719E+06    -363.124E+03    -337.863E-03     615.870E-03    -278.007E-03     47.3156E-03    -339.360E-03     617.235E-03    -277.663E-03     26.3992E-03
            2386     10.2679E-03     6.85761E-03    -26.7297E+06     45.7100E+06     67.1457E+06     845.676E+03    -330.962E-03     605.112E-03    -274.150E-03     35.2478E-03    -332.253E-03     606.280E-03    -273.842E-03     16.1860E-03
            2387     9.62164E-03     6.74748E-03    -33.8469E+06     39.2950E+06     55.4514E+06     2.85611E+06    -321.694E-03     591.999E-03    -270.305E-03     26.9143E-03    -322.812E-03     592.978E-03    -270.035E-03     9.87862E-03
            2388     8.96826E-03     6.65355E-03    -41.3696E+06     32.6943E+06     47.6464E+06     4.43829E+06    -311.250E-03     577.897E-03    -266.647E-03     22.0599E-03    -312.241E-03     578.722E-03    -266.396E-03     7.07555E-03
            2389     8.30776E-03     6.57467E-03    -48.5920E+06     25.1990E+06     41.1184E+06     3.84483E+06    -300.621E-03     563.894E-03    -263.272E-03     20.0192E-03    -301.518E-03     564.590E-03    -263.033E-03     6.94758E-03
            2390     7.63969E-03     6.50970E-03    -55.4776E+06    -2.04834E+06     31.1917E+06     2.29733E+06    -290.633E-03     550.878E-03    -260.245E-03     19.8162E-03    -291.421E-03     551.372E-03    -260.006E-03     8.51582E-03
            2391     6.96428E-03     6.45668E-03    -62.3933E+06    -42.0869E+06     18.3495E+06     1.99012E+06    -281.702E-03     539.279E-03    -257.578E-03     20.4589E-03    -282.370E-03     539.524E-03    -257.334E-03     10.8125E-03
            2392     6.28271E-03     6.41341E-03    -69.8191E+06    -74.5475E+06     6.01762E+06     2.33507E+06    -273.899E-03     529.153E-03    -255.254E-03     21.1482E-03    -274.469E-03     529.195E-03    -255.015E-03     13.0078E-03
            2393     5.59581E-03     6.37850E-03    -77.6370E+06    -102.089E+06    -6.83193E+06     1.96575E+06    -267.241E-03     520.499E-03    -253.258E-03     21.4354E-03    -267.728E-03     520.369E-03    -253.032E-03     14.6345E-03
            2394     4.90442E-03     6.35035E-03    -85.2528E+06    -126.192E+06    -20.7917E+06     511.231E+03    -261.694E-03     513.261E-03    -251.566E-03     21.0732E-03    -262.107E-03     512.984E-03    -251.364E-03     15.4475E-03
            2395     4.20944E-03     6.32802E-03    -92.6513E+06    -151.375E+06    -36.8528E+06    -857.870E+03    -257.192E-03     507.347E-03    -250.155E-03     19.9201E-03    -257.531E-03     506.927E-03    -249.985E-03     15.3338E-03
            2396     3.51159E-03     6.31055E-03    -99.9621E+06    -176.115E+06    -55.1784E+06    -1.59569E+06    -253.623E-03     502.618E-03    -248.995E-03     17.9647E-03    -253.892E-03     502.067E-03    -248.871E-03     14.3089E-03
            2397     2.81157E-03     6.29713E-03    -106.796E+06    -196.111E+06    -74.6079E+06    -2.63247E+06    -250.878E-03     498.940E-03    -248.062E-03     15.2939E-03    -251.087E-03     498.290E-03    -247.996E-03     12.4653E-03
            2398     2.10992E-03     6.28735E-03    -112.758E+06    -215.285E+06    -93.0860E+06    -2.91326E+06    -248.874E-03     496.222E-03    -247.349E-03     12.0219E-03    -249.030E-03     495.483E-03    -247.338E-03     9.94741E-03
            2399     1.40720E-03     6.28067E-03    -117.454E+06    -232.496E+06    -108.321E+06    -2.18300E+06    -247.515E-03     494.358E-03    -246.843E-03     8.33082E-03    -247.626E-03     493.541E-03    -246.877E-03     6.96006E-03
            2400     703.789E-06     6.27679E-03    -120.551E+06    -246.270E+06    -118.051E+06    -1.41705E+06    -246.595E-03     493.251E-03    -246.656E-03     4.59671E-03    -246.676E-03     492.372E-03    -246.715E-03     3.85928E-03
            2401     12.8359E-03     5.63940E-03    -4.81469E+06     85.2988E+06     94.0545E+06    -1.25003E+06    -350.143E-03     637.188E-03    -287.045E-03     75.2215E-03    -351.866E-03     638.923E-03    -286.692E-03     53.5078E-03
            2402     12.2049E-03     5.48985E-03    -8.98186E+06     72.3468E+06     89.2232E+06    -2.92893E+06    -354.762E-03     638.237E-03    -283.475E-03     74.3156E-03    -356.861E-03     640.305E-03    -283.121E-03     48.5830E-03
            2403     11.5758E-03     5.35100E-03    -12.7496E+06     48.8291E+06     80.9222E+06    -2.04637E+06    -351.295E-03     630.720E-03    -279.425E-03     56.5727E-03    -353.037E-03     632.361E-03    -279.073E-03     32.5182E-03
            2404     10.9433E-03     5.22731E-03    -17.2814E+06     40.6811E+06     78.4213E+06     147.709E+03    -341.637E-03     616.892E-03    -275.255E-03     43.0980E-03    -343.084E-03     618.200E-03    -274.896E-03     21.5351E-03
            2405     10.3021E-03     5.12416E-03    -23.3195E+06     42.1129E+06     71.2369E+06     2.89163E+06    -328.858E-03     600.072E-03    -271.213E-03     34.6676E-03    -330.075E-03     601.153E-03    -270.884E-03     16.0155E-03
            2406     9.65220E-03     5.03970E-03    -29.4045E+06     38.9366E+06     61.3464E+06     4.30124E+06    -315.640E-03     583.145E-03    -267.505E-03     31.3844E-03    -316.693E-03     584.058E-03    -267.212E-03     15.4506E-03
            2407     8.99353E-03     4.97223E-03    -34.7041E+06     37.0517E+06     57.1533E+06     2.77095E+06    -303.142E-03     567.383E-03    -264.241E-03     31.3115E-03    -304.080E-03     568.166E-03    -263.959E-03     17.8851E-03
            2408     8.32541E-03     4.91812E-03    -39.9307E+06     29.2352E+06     53.2552E+06     1.06482E+06    -292.015E-03     553.442E-03    -261.427E-03     32.4226E-03    -292.854E-03     554.091E-03    -261.145E-03     21.2166E-03
            2409     7.64937E-03     4.87472E-03    -46.7730E+06    -1.57693E+06     43.1734E+06     1.56552E+06    -282.624E-03     541.663E-03    -259.039E-03     33.2838E-03    -283.346E-03     542.090E-03    -258.753E-03     23.9943E-03
            2410     6.96746E-03     4.83960E-03    -55.3381E+06    -41.6217E+06     28.3147E+06     2.14228E+06    -274.898E-03     531.920E-03    -257.022E-03     33.4458E-03    -275.503E-03     532.100E-03    -256.740E-03     25.7761E-03
            2411     6.28061E-03     4.81137E-03    -63.5380E+06    -71.8002E+06     13.5610E+06     715.060E+03    -268.588E-03     523.911E-03    -255.323E-03     32.7650E-03    -269.099E-03     523.904E-03    -255.059E-03     26.4166E-03
            2412     5.58988E-03     4.78859E-03    -70.0486E+06    -98.4409E+06    -2.11378E+06    -1.90172E+06    -263.521E-03     517.424E-03    -253.903E-03     31.2089E-03    -263.943E-03     517.255E-03    -253.669E-03     25.9417E-03
            2413     4.89621E-03     4.77035E-03    -75.6545E+06    -124.172E+06    -19.3344E+06    -3.73719E+06    -259.508E-03     512.233E-03    -252.725E-03     28.8301E-03    -259.843E-03     511.915E-03    -252.531E-03     24.4777E-03
            2414     4.20018E-03     4.75577E-03    -81.3264E+06    -152.534E+06    -37.2046E+06    -4.08590E+06    -256.391E-03     508.155E-03    -251.764E-03     25.7330E-03    -256.644E-03     507.685E-03    -251.611E-03     22.1760E-03
            2415     3.50247E-03     4.74433E-03    -87.0404E+06    -177.394E+06    -54.9623E+06    -3.81001E+06    -253.998E-03     504.984E-03    -250.986E-03     22.0922E-03    -254.180E-03     504.387E-03    -250.877E-03     19.2380E-03
            2416     2.80339E-03     4.73558E-03    -92.7324E+06    -198.017E+06    -72.0156E+06    -3.17342E+06    -252.192E-03     502.562E-03    -250.369E-03     18.0475E-03    -252.319E-03     501.864E-03    -250.308E-03     15.8295E-03
            2417     2.10336E-03     4.72910E-03    -98.1446E+06    -219.711E+06    -86.8378E+06    -2.19190E+06    -250.898E-03     500.807E-03    -249.910E-03     13.7325E-03    -250.975E-03     500.007E-03    -249.883E-03     12.1010E-03
            2418     1.40262E-03     4.72473E-03    -102.465E+06    -236.804E+06    -98.0751E+06    -986.143E+03    -250.023E-03     499.612E-03    -249.589E-03     9.29718E-03    -250.065E-03     498.732E-03    -249.587E-03     8.21914E-03
            2419     701.407E-06     4.72221E-03    -105.203E+06    -249.577E+06    -104.544E+06         306.969    -249.313E-03     498.916E-03    -249.603E-03     5.05125E-03    -249.331E-03     497.977E-03    -249.611E-03     4.47885E-03
            2420     12.8417E-03     3.82457E-03    -5.64043E+06     86.0518E+06     90.9671E+06    -2.21982E+06    -372.168E-03     659.040E-03    -286.872E-03     90.4950E-03    -374.163E-03     661.055E-03    -286.534E-03     66.9220E-03
            2421     12.2227E-03     3.67898E-03    -9.31891E+06     70.9724E+06     85.3218E+06    -2.63457E+06    -370.054E-03     652.417E-03    -282.363E-03     74.9190E-03    -372.184E-03     654.526E-03    -282.026E-03     48.1793E-03
            2422     11.5996E-03     3.56144E-03    -14.0067E+06     50.4643E+06     78.3857E+06    -1.39977E+06    -355.537E-03     633.295E-03    -277.758E-03     54.7305E-03    -357.111E-03     634.779E-03    -277.419E-03     31.8619E-03
            2423     10.9660E-03     3.47201E-03    -19.7151E+06     40.9433E+06     76.6678E+06    -1.83777E+06    -337.795E-03     611.336E-03    -273.541E-03     46.1286E-03    -339.045E-03     612.446E-03    -273.188E-03     27.2802E-03
            2424     10.3204E-03     3.40394E-03    -23.8494E+06     39.3841E+06     74.5915E+06    -2.50664E+06    -321.031E-03     590.886E-03    -269.854E-03     43.3485E-03    -322.052E-03     591.751E-03    -269.504E-03     28.3818E-03
            2425     9.66221E-03     3.35146E-03    -26.7495E+06     38.6883E+06     68.5894E+06    -2.09494E+06    -306.651E-03     573.355E-03    -266.704E-03     42.7131E-03    -307.510E-03     574.061E-03    -266.378E-03     30.8515E-03
            2426     8.99345E-03     3.31034E-03    -30.9433E+06     39.1228E+06     59.1001E+06    -1.02396E+06    -294.830E-03     558.874E-03    -264.044E-03     42.0230E-03    -295.575E-03     559.479E-03    -263.760E-03     32.5564E-03
            2427     8.31805E-03     3.27753E-03    -37.9586E+06     25.6907E+06     44.9615E+06     1.11822E+06    -285.344E-03     547.166E-03    -261.822E-03     40.6965E-03    -285.989E-03     547.638E-03    -261.579E-03     33.1213E-03
            2428     7.63769E-03     3.25113E-03    -45.9940E+06    -5.03322E+06     28.7831E+06     3.29910E+06    -277.836E-03     537.817E-03    -259.980E-03     38.6744E-03    -278.377E-03     538.094E-03    -259.763E-03     32.5631E-03
            2429     6.95287E-03     3.22989E-03    -52.2884E+06    -36.2654E+06     12.7915E+06     1.71778E+06    -271.869E-03     530.311E-03    -258.442E-03     36.0863E-03    -272.311E-03     530.403E-03    -258.250E-03     31.0644E-03
            2430     6.26475E-03     3.21247E-03    -56.4912E+06    -64.9154E+06    -3.21511E+06    -2.81372E+06    -267.113E-03     524.266E-03    -257.152E-03     33.0662E-03    -267.464E-03     524.195E-03    -256.992E-03     28.8548E-03
            2431     5.57401E-03     3.19840E-03    -60.2571E+06     -96.235E+06    -19.2596E+06    -5.65262E+06    -263.359E-03     519.441E-03    -256.082E-03     29.7159E-03    -263.620E-03     519.203E-03    -255.952E-03     26.1637E-03
            2432     4.88110E-03     3.18695E-03    -64.5605E+06    -127.095E+06    -34.6020E+06    -5.54499E+06    -260.402E-03     515.603E-03    -255.200E-03     26.1475E-03    -260.586E-03     515.206E-03    -255.095E-03     23.1776E-03
            2433     4.18657E-03     3.17779E-03    -69.0446E+06    -156.583E+06    -48.2766E+06    -4.23414E+06    -258.086E-03     512.568E-03    -254.482E-03     22.4614E-03    -258.204E-03     512.025E-03    -254.397E-03     20.0087E-03
            2434     3.49063E-03     3.17055E-03    -73.2917E+06    -181.820E+06    -59.6786E+06    -2.68620E+06    -256.285E-03     510.193E-03    -253.907E-03     18.7289E-03    -256.350E-03     509.524E-03    -253.836E-03     16.7437E-03
            2435     2.79369E-03     3.16498E-03    -76.9569E+06    -202.656E+06    -68.8088E+06    -857.466E+03    -254.915E-03     508.373E-03    -253.458E-03     14.9827E-03    -254.937E-03     507.602E-03    -253.397E-03     13.4360E-03
            2436     2.09592E-03     3.16095E-03    -79.8633E+06    -222.816E+06    -75.2146E+06     554.405E+03    -253.921E-03     507.052E-03    -253.131E-03     11.2439E-03    -253.906E-03     506.180E-03    -253.068E-03     10.1083E-03
            2437     1.39758E-03     3.15824E-03    -82.1407E+06    -238.784E+06    -79.5209E+06     1.28459E+06    -253.250E-03     506.156E-03    -252.906E-03     7.54066E-03    -253.208E-03     505.205E-03    -252.838E-03     6.79212E-03
            2438     698.901E-06     3.15669E-03    -83.6560E+06    -247.495E+06    -82.8385E+06     1.35883E+06    -252.567E-03     505.618E-03    -253.051E-03     4.07559E-03    -252.510E-03     504.625E-03    -252.985E-03     3.68074E-03
            2439     12.8311E-03     1.94790E-03    -3.42997E+06     87.8383E+06     98.5967E+06    -743.202E+03    -409.947E-03     698.053E-03    -288.105E-03     105.261E-03    -411.837E-03     699.960E-03    -287.735E-03     83.4585E-03
            2440     12.2288E-03     1.83969E-03    -9.46727E+06     74.1647E+06     91.9262E+06    -1.23380E+06    -381.343E-03     663.823E-03    -282.480E-03     69.9035E-03    -382.789E-03     665.248E-03    -282.114E-03     51.0088E-03
            2441     11.6067E-03     1.77818E-03    -16.6694E+06     59.3121E+06     84.0948E+06    -1.13486E+06    -353.939E-03     631.603E-03    -277.664E-03     53.7165E-03    -354.917E-03     632.500E-03    -277.305E-03     39.9005E-03
            2442     10.9645E-03     1.73430E-03    -23.2668E+06     48.1884E+06     71.0597E+06    -4.55445E+06    -332.130E-03     605.779E-03    -273.649E-03     47.1015E-03    -332.898E-03     606.436E-03    -273.330E-03     36.6917E-03
            2443     10.3082E-03     1.70208E-03    -28.7556E+06     39.3677E+06     52.9431E+06    -6.98329E+06    -315.330E-03     585.632E-03    -270.303E-03     41.8556E-03    -315.943E-03     586.134E-03    -270.053E-03     34.1447E-03
            2444     9.64415E-03     1.67659E-03    -33.9656E+06     32.4882E+06     36.5281E+06    -6.19584E+06    -302.314E-03     569.834E-03    -267.521E-03     37.2690E-03    -302.824E-03     570.236E-03    -267.336E-03     31.4087E-03
            2445     8.97489E-03     1.65672E-03    -38.9675E+06     27.9777E+06     23.1053E+06    -1.32078E+06    -292.103E-03     557.302E-03    -265.199E-03     33.0248E-03    -292.547E-03     557.641E-03    -265.067E-03     28.4709E-03
            2446     8.29973E-03     1.64097E-03    -43.9224E+06     16.4550E+06     8.05353E+06     4.39624E+06    -284.023E-03     547.266E-03    -263.244E-03     29.1978E-03    -284.407E-03     547.531E-03    -263.164E-03     25.6225E-03
            2447     7.61956E-03     1.62800E-03    -47.7965E+06    -302.632E+03    -8.79598E+06     4.02098E+06    -277.583E-03     539.171E-03    -261.588E-03     25.7965E-03    -277.906E-03     539.350E-03    -261.562E-03     22.8856E-03
            2448     6.93601E-03     1.61736E-03    -49.8411E+06    -25.0322E+06    -22.2583E+06    -1.51029E+06    -272.432E-03     532.644E-03    -260.212E-03     22.7932E-03    -272.687E-03     532.698E-03    -260.214E-03     20.3015E-03
            2449     6.24936E-03     1.60880E-03    -51.7685E+06    -61.0492E+06    -32.2024E+06    -4.71228E+06    -268.303E-03     527.387E-03    -259.084E-03     20.0353E-03    -268.484E-03     527.260E-03    -259.081E-03     17.8927E-03
            2450     5.56015E-03     1.60179E-03    -54.9332E+06    -98.7283E+06    -40.3701E+06    -4.32165E+06    -264.979E-03     523.133E-03    -258.153E-03     17.4322E-03    -265.095E-03     522.820E-03    -258.132E-03     15.6175E-03
            2451     4.86894E-03     1.59612E-03    -58.4833E+06    -132.177E+06    -47.1126E+06    -2.99041E+06    -262.305E-03     519.690E-03    -257.385E-03     14.9807E-03    -262.370E-03     519.214E-03    -257.344E-03     13.4584E-03
            2452     4.17600E-03     1.59155E-03    -61.5258E+06    -161.181E+06    -52.6822E+06    -1.60139E+06    -260.172E-03     516.929E-03    -256.757E-03     12.6611E-03    -260.193E-03     516.312E-03    -256.698E-03     11.3996E-03
            2453     3.48180E-03     1.58797E-03    -63.7912E+06    -185.805E+06    -57.3327E+06    -503.572E+03    -258.499E-03     514.753E-03    -256.254E-03     10.4417E-03    -258.482E-03     514.016E-03    -256.179E-03     9.41665E-03
            2454     2.78652E-03     1.58524E-03    -65.1360E+06    -205.995E+06    -61.1066E+06     315.172E+03    -257.225E-03     513.088E-03    -255.863E-03     8.29102E-03    -257.174E-03     512.252E-03    -255.775E-03     7.48653E-03
            2455     2.09049E-03     1.58323E-03    -65.7151E+06    -223.856E+06    -63.0550E+06     951.721E+03    -256.309E-03     511.890E-03    -255.581E-03     6.19042E-03    -256.227E-03     510.963E-03    -255.476E-03     5.59699E-03
            2456     1.39395E-03     1.58190E-03    -65.9725E+06    -237.564E+06    -64.0765E+06     971.636E+03    -255.700E-03     511.091E-03    -255.390E-03     4.14631E-03    -255.596E-03     510.094E-03    -255.270E-03     3.75074E-03
            2457     697.048E-06     1.58118E-03    -66.0823E+06    -244.018E+06    -65.4712E+06     526.477E+03    -254.996E-03     510.619E-03    -255.622E-03     2.24916E-03    -254.879E-03     509.590E-03    -255.500E-03     2.03453E-03


