********************************************************************************
Field Output Report, written Wed May 29 00:51:25 2024

Source 1
---------

   ODB: G:/Abaqus_calc_2019/1740/Vel_5/odb/zeides_2a_32_red_150_cal_10_vel_5_fric_025.odb
   Step: Step-1
   Frame: Increment  12423349: Step Time =    1.624

Loc 1 : Nodal values from source 1

Output sorted by column "Nodal Label".

Field Output reported at nodes for region: DIE_2A_32_D0_36-1.Region_1
   Computation algorithm: EXTRAPOLATE_COMPUTE_AVERAGE
   Averaged at nodes
   Averaging regions: ODB_REGIONS

      Node Label     COORD.COOR1     COORD.COOR2
                          @Loc 1          @Loc 1
-------------------------------------------------
               1     22.6170E-03     117.948E-03


Field Output reported at nodes for region: DIE_2A_32_D0_36-1.Region_2
   Computation algorithm: EXTRAPOLATE_COMPUTE_AVERAGE
   Averaged at nodes
   Averaging regions: ODB_REGIONS

      Node Label     COORD.COOR1     COORD.COOR2
                          @Loc 1          @Loc 1
-------------------------------------------------
               1     22.6170E-03     117.948E-03


Field Output reported at nodes for part: WIRE-1
   Computation algorithm: EXTRAPOLATE_COMPUTE_AVERAGE
   Averaged at nodes
   Averaging regions: ODB_REGIONS

      Node Label     COORD.COOR1     COORD.COOR2           S.S11           S.S22           S.S33           S.S12         PE.PE11         PE.PE22         PE.PE33         PE.PE12         LE.LE11         LE.LE22         LE.LE33         LE.LE12
                          @Loc 1          @Loc 1          @Loc 1          @Loc 1          @Loc 1          @Loc 1          @Loc 1          @Loc 1          @Loc 1          @Loc 1          @Loc 1          @Loc 1          @Loc 1          @Loc 1
-------------------------------------------------------------------------------------------------------------------------------------------------------------------------------------------------------------------------------------------------
               1    -136.296E-09     56.3693E-03    -12.9121E+06    -59.6428E+06    -12.9666E+06    -144.463E+03    -15.4317E-03     30.9827E-03    -15.5509E-03     1.86310E-03    -15.3907E-03     30.7224E-03    -15.5105E-03     1.86100E-03
               2     17.7238E-03     57.4362E-03    -2.26509E+06     176.853E+06     82.7424E+06     132.182E+03    -26.3562E-03     41.9806E-03    -15.6245E-03     263.316E-03    -34.5907E-03     50.5950E-03    -15.4639E-03     270.772E-03
               3     17.4891E-03     114.150E-03     17.1258E+06    -15.7946E+06     19.4572E+06     8.77252E+06     11.8761E-03     11.8147E-03    -23.6908E-03     2.13107E-03     11.9305E-03     11.6566E-03    -23.5955E-03     2.24417E-03
               4    -1.51979E-06     112.998E-03     21.8271E+06     3.42337E+06     22.7930E+06    -2.20826E+06    -18.2561E-03     37.2549E-03    -18.9989E-03    -119.646E-06    -18.1846E-03     37.2081E-03    -18.9215E-03    -147.792E-06
               5    -16.1888E-09    -492.661E-18    -9.34773E+06    -55.0114E+06    -9.19486E+06    -450.046E+03    -12.8593E-03     25.6966E-03    -12.8373E-03     145.782E-06    -12.8120E-03     25.4489E-03    -12.7900E-03     140.359E-06
               6     17.6358E-03    -492.661E-18    -2.76212E+06     100.115E+06     67.8555E+06     10.7339E+06    -56.4332E-03     74.5655E-03    -18.1323E-03     68.5989E-03    -56.8787E-03     75.1607E-03    -17.9342E-03     68.3374E-03
               7     886.200E-06     56.3709E-03    -12.6263E+06    -59.3358E+06    -12.2553E+06    -37.4231E+03    -15.4777E-03     31.0055E-03    -15.5279E-03     3.38388E-03    -15.4369E-03     30.7451E-03    -15.4848E-03     3.38293E-03
               8     1.77237E-03     56.3755E-03    -11.9633E+06    -58.2069E+06    -10.4100E+06     167.009E+03    -15.5205E-03     31.0313E-03    -15.5108E-03     6.48128E-03    -15.4809E-03     30.7728E-03    -15.4611E-03     6.48251E-03
               9     2.65859E-03     56.3830E-03    -10.9855E+06    -59.2976E+06    -7.45612E+06     351.429E+03    -15.5308E-03     31.0587E-03    -15.5279E-03     9.70283E-03    -15.4890E-03     30.7891E-03    -15.4633E-03     9.70595E-03
              10     3.54475E-03     56.3936E-03    -9.82350E+06    -58.0738E+06    -4.84148E+06     439.538E+03    -15.5435E-03     31.0804E-03    -15.5369E-03     13.0755E-03    -15.5017E-03     30.8116E-03    -15.4627E-03     13.0792E-03
              11     4.43098E-03     56.4073E-03    -8.67143E+06    -55.5765E+06    -2.82940E+06     390.254E+03    -15.5644E-03     31.1045E-03    -15.5400E-03     16.5919E-03    -15.5236E-03     30.8438E-03    -15.4610E-03     16.5944E-03
              12     5.31716E-03     56.4244E-03    -7.47721E+06    -58.8497E+06    -651.833E+03     339.649E+03    -15.6196E-03     31.1730E-03    -15.5534E-03     20.2358E-03    -15.5716E-03     30.8914E-03    -15.4605E-03     20.2369E-03
              13     6.20335E-03     56.4448E-03    -6.41689E+06    -57.2406E+06     422.199E+03     346.757E+03    -15.6676E-03     31.2234E-03    -15.5558E-03     24.0880E-03    -15.6186E-03     30.9471E-03    -15.4613E-03     24.0883E-03
              14     7.08952E-03     56.4691E-03    -5.54325E+06    -55.0405E+06     1.48680E+06     289.280E+03    -15.7223E-03     31.2798E-03    -15.5575E-03     28.1335E-03    -15.6743E-03     31.0124E-03    -15.4622E-03     28.1319E-03
              15     7.97573E-03     56.4971E-03    -4.69960E+06    -52.6369E+06     2.33520E+06     245.463E+03    -15.7866E-03     31.3445E-03    -15.5578E-03     32.3502E-03    -15.7401E-03     31.0876E-03    -15.4630E-03     32.3465E-03
              16     8.86189E-03     56.5292E-03    -3.94798E+06    -50.1608E+06     3.48491E+06     242.851E+03    -15.8573E-03     31.4167E-03    -15.5594E-03     36.6274E-03    -15.8138E-03     31.1710E-03    -15.4635E-03     36.6215E-03
              17     9.74811E-03     56.5652E-03    -3.28659E+06    -51.4307E+06     4.05046E+06      186.75E+03    -15.9535E-03     31.5173E-03    -15.5637E-03     40.9223E-03    -15.9082E-03     31.2659E-03    -15.4642E-03     40.9126E-03
              18     10.6342E-03     56.6053E-03    -2.87099E+06    -45.8510E+06     1.31440E+06     157.346E+03    -16.0514E-03     31.5939E-03    -15.5426E-03     45.2806E-03    -16.0120E-03     31.3778E-03    -15.4654E-03     45.2664E-03
              19     11.5205E-03     56.6493E-03    -2.53262E+06    -41.5564E+06     2.98868E+06     69.4071E+03    -16.1478E-03     31.6935E-03    -15.5457E-03     49.5622E-03    -16.1217E-03     31.5023E-03    -15.4668E-03     49.5415E-03
              20     12.4066E-03     56.6974E-03    -2.27250E+06    -42.6899E+06     665.063E+03    -53.6609E+03    -16.3575E-03     31.8951E-03    -15.5376E-03     56.4463E-03    -16.3372E-03     31.7133E-03    -15.4691E-03     56.4169E-03
              21     13.2927E-03     56.7543E-03    -2.50359E+06    -40.5572E+06    -9.92431E+06    -213.468E+03    -16.4722E-03     31.9574E-03    -15.4852E-03     60.0609E-03    -16.4584E-03     31.8195E-03    -15.4724E-03     60.0215E-03
              22     14.1789E-03     56.8090E-03    -2.96516E+06    -22.9514E+06    -11.5967E+06    -282.158E+03    -16.5266E-03     31.9815E-03    -15.4549E-03     63.9725E-03    -16.5694E-03     31.9659E-03    -15.4753E-03     63.9274E-03
              23     15.0649E-03     56.8733E-03    -3.38292E+06     14.2026E+06    -12.4671E+06    -275.080E+03    -17.7514E-03     33.1501E-03    -15.3987E-03     95.5640E-03    -18.0307E-03     33.5039E-03    -15.4767E-03     95.5370E-03
              24     15.9514E-03     56.9868E-03    -3.51968E+06     78.1145E+06    -15.5012E+06     67.9195E+03    -21.0887E-03     36.3770E-03    -15.2883E-03     164.264E-03    -22.8860E-03     38.4841E-03    -15.4740E-03     164.796E-03
              25     16.8383E-03     57.1820E-03    -2.86676E+06     148.325E+06     33.9736E+06     297.543E+03    -24.8294E-03     40.2558E-03    -15.4264E-03     234.880E-03    -30.5104E-03     46.3546E-03    -15.4674E-03     239.145E-03
              26     17.7239E-03     58.4157E-03    -2.04205E+06     177.121E+06     82.4349E+06     147.839E+03    -25.9776E-03     41.6103E-03    -15.6328E-03     264.479E-03    -34.2534E-03     50.2686E-03    -15.4745E-03     271.984E-03
              27     17.7238E-03     59.3935E-03    -1.94144E+06     177.041E+06     83.0635E+06    -103.792E+03    -25.8942E-03     41.5345E-03    -15.6403E-03     265.022E-03    -34.1911E-03     50.2121E-03    -15.4789E-03     272.545E-03
              28     17.7238E-03     60.3706E-03    -2.15802E+06     177.235E+06     83.0847E+06     99.0513E+03    -26.0922E-03     41.7251E-03    -15.6329E-03     263.896E-03    -34.3480E-03     50.3614E-03    -15.4713E-03     271.385E-03
              29     17.7239E-03     61.3492E-03    -1.84765E+06     177.992E+06     83.1800E+06     448.452E+03    -26.1471E-03     41.7752E-03    -15.6281E-03     263.592E-03    -34.3881E-03     50.4003E-03    -15.4676E-03     271.073E-03
              30     17.7239E-03     62.3277E-03    -2.45125E+06     178.743E+06     82.2493E+06     376.115E+03    -26.0932E-03     41.7169E-03    -15.6237E-03     263.904E-03    -34.3515E-03     50.3625E-03    -15.4681E-03     271.396E-03
              31     17.7239E-03     63.3059E-03    -2.42328E+06     179.203E+06     81.9988E+06     33.6581E+03    -25.8463E-03     41.4727E-03    -15.6264E-03     263.822E-03    -34.1090E-03     50.1252E-03    -15.4727E-03     271.335E-03
              32     17.7239E-03     64.2834E-03    -1.31394E+06     179.345E+06     80.8838E+06     181.077E+03    -25.6450E-03     41.2602E-03    -15.6152E-03     263.976E-03    -33.9000E-03     49.9127E-03    -15.4690E-03     271.508E-03
              33     17.7246E-03     65.2613E-03    -3.22941E+06     177.974E+06     80.8434E+06    -784.436E+03    -26.1742E-03     41.7812E-03    -15.6070E-03     264.298E-03    -34.4583E-03     50.4512E-03    -15.4562E-03     271.784E-03
              34     17.7232E-03     66.2414E-03    -595.247E+03     177.856E+06     74.5754E+06    -29.7438E+03    -25.8411E-03     41.3999E-03    -15.5587E-03     264.580E-03    -34.1016E-03     50.0734E-03    -15.4429E-03     272.095E-03
              35     17.7268E-03     67.2161E-03    -2.80455E+06     178.261E+06     80.4746E+06     2.16560E+06    -26.8156E-03     42.4483E-03    -15.6327E-03     264.360E-03    -35.1401E-03     51.1622E-03    -15.4847E-03     271.864E-03
              36     17.7162E-03     68.2035E-03    -9.84775E+06     176.233E+06     85.4977E+06     1.14335E+06    -24.3263E-03     40.2005E-03    -15.8743E-03     261.718E-03    -32.5970E-03     48.8149E-03    -15.6880E-03     269.184E-03
              37     17.7235E-03     69.1628E-03     6.97214E+06     179.129E+06     72.8420E+06     4.30785E+06    -14.2186E-03     30.1417E-03    -15.9231E-03     250.557E-03    -21.7254E-03     38.1003E-03    -15.8287E-03     258.378E-03
              38     17.7262E-03     70.1084E-03     8.89561E+06     181.658E+06     78.1068E+06    -1.84306E+06    -23.1747E-03     38.7519E-03    -15.5772E-03     252.836E-03    -30.6888E-03     46.7215E-03    -15.4630E-03     259.998E-03
              39     17.7236E-03     71.1381E-03    -7.93324E+06     178.726E+06     86.6228E+06    -6.07272E+06    -38.1604E-03     53.4893E-03    -15.3289E-03     267.731E-03    -46.5436E-03     62.2339E-03    -15.1435E-03     273.851E-03
              40     17.7238E-03     72.1293E-03    -5.71560E+06     179.433E+06     81.8762E+06     1.84464E+06    -28.8055E-03     44.3962E-03    -15.5907E-03     275.833E-03    -37.6361E-03     53.6092E-03    -15.4332E-03     283.132E-03
              41     17.7239E-03     73.0765E-03    -3.06998E+06     181.582E+06     80.2191E+06     941.743E+03    -22.1072E-03     37.8453E-03    -15.7381E-03     271.251E-03    -30.6804E-03     46.8206E-03    -15.5958E-03     279.281E-03
              42     17.7235E-03     74.0595E-03    -3.29795E+06     182.442E+06     84.0309E+06     116.367E+03    -26.8021E-03     42.4220E-03    -15.6199E-03     262.344E-03    -34.9487E-03     50.9611E-03    -15.4595E-03     269.641E-03
              43     17.7237E-03     75.0426E-03    -2.41277E+06     184.647E+06     83.4395E+06     1.29997E+06    -27.2826E-03     42.8838E-03    -15.6012E-03     263.958E-03    -35.5222E-03     51.5284E-03    -15.4483E-03     271.258E-03
              44     17.7238E-03     76.0187E-03    -2.69361E+06     185.866E+06     82.1976E+06     253.385E+03    -26.0557E-03     41.6773E-03    -15.6216E-03     265.014E-03    -34.3619E-03     50.3953E-03    -15.4762E-03     272.501E-03
              45     17.7238E-03     76.9971E-03    -2.72396E+06     185.685E+06     83.3621E+06    -249.436E+03    -26.3940E-03     42.0145E-03    -15.6204E-03     264.414E-03    -34.6778E-03     50.7059E-03    -15.4689E-03     271.858E-03
              46     17.7236E-03     77.9765E-03    -2.14375E+06     185.778E+06     83.5747E+06     151.906E+03    -26.1500E-03     41.7786E-03    -15.6286E-03     264.055E-03    -34.4171E-03     50.4553E-03    -15.4770E-03     271.517E-03
              47     17.7239E-03     78.9532E-03    -1.81385E+06     185.635E+06     83.4882E+06    -26.4794E+03    -25.9013E-03     41.5331E-03    -15.6318E-03     264.041E-03    -34.1712E-03     50.2135E-03    -15.4809E-03     271.542E-03
              48     17.7237E-03     79.9318E-03    -1.75390E+06     186.762E+06     83.7246E+06     778.436E+03    -26.3237E-03     41.9411E-03    -15.6174E-03     263.632E-03    -34.5832E-03     50.6146E-03    -15.4671E-03     271.100E-03
              49     17.7239E-03     80.9110E-03    -2.57993E+06     188.806E+06      82.091E+06     998.222E+03    -26.2852E-03     41.8921E-03    -15.6068E-03     264.114E-03    -34.5741E-03     50.6040E-03    -15.4664E-03     271.594E-03
              50     17.7238E-03     81.8896E-03    -2.14285E+06     190.206E+06     81.5534E+06     481.496E+03    -25.8852E-03     41.4962E-03    -15.6110E-03     264.906E-03    -34.2069E-03     50.2490E-03    -15.4760E-03     272.437E-03
              51     17.7239E-03     82.8672E-03    -2.11340E+06     190.946E+06     82.0014E+06     291.667E+03    -25.7454E-03     41.3614E-03    -15.6160E-03     265.072E-03    -34.0698E-03     50.1183E-03    -15.4798E-03     272.615E-03
              52     17.7238E-03     83.8448E-03    -2.00887E+06     191.825E+06     81.8672E+06     390.562E+03    -25.8125E-03     41.4211E-03    -15.6086E-03     264.389E-03    -34.1074E-03     50.1524E-03    -15.4745E-03     271.910E-03
              53     17.7241E-03     84.8222E-03    -1.84922E+06     192.776E+06     81.1495E+06     430.508E+03    -25.9927E-03     41.5846E-03    -15.5919E-03     263.797E-03    -34.2624E-03     50.2967E-03    -15.4630E-03     271.289E-03
              54     17.7240E-03     85.8013E-03    -2.39909E+06     193.037E+06     80.0966E+06         523.297    -25.9904E-03     41.5717E-03    -15.5813E-03     263.911E-03    -34.2672E-03     50.2930E-03    -15.4572E-03     271.400E-03
              55     17.7243E-03     86.7794E-03    -1.76020E+06     192.739E+06     78.8194E+06    -227.303E+03    -25.4771E-03     41.0558E-03    -15.5787E-03     263.956E-03    -33.7485E-03     49.7766E-03    -15.4616E-03     271.489E-03
              56     17.7245E-03     87.7557E-03    -1.86485E+06     191.737E+06     79.2302E+06    -392.519E+03    -25.8068E-03     41.3737E-03    -15.5669E-03     263.964E-03    -34.0754E-03     50.0866E-03    -15.4461E-03     271.474E-03
              57     17.7243E-03     88.7352E-03    -2.20375E+06     192.264E+06     78.6575E+06     541.410E+03    -26.1227E-03     41.6696E-03    -15.5469E-03     263.075E-03    -34.3577E-03     50.3512E-03    -15.4292E-03     270.538E-03
              58     17.7248E-03     89.7127E-03    -2.31730E+06     193.110E+06     77.0424E+06     369.579E+03    -25.7161E-03     41.2508E-03    -15.5346E-03     263.048E-03    -33.9518E-03     49.9404E-03    -15.4261E-03     270.556E-03
              59     17.7249E-03     90.6903E-03    -2.05073E+06     192.422E+06     76.2269E+06    -513.584E+03    -25.8294E-03     41.3399E-03    -15.5105E-03     262.862E-03    -34.0581E-03     50.0233E-03    -15.4054E-03     270.355E-03
              60     17.7255E-03     91.6690E-03    -1.89238E+06     190.969E+06     74.7452E+06    -633.790E+03    -25.8812E-03     41.3633E-03    -15.4820E-03     262.792E-03    -34.1061E-03     50.0426E-03    -15.3825E-03     270.275E-03
              61     17.7257E-03     92.6472E-03    -1.43610E+06     190.024E+06     74.2734E+06    -134.858E+03    -25.8555E-03     41.3162E-03    -15.4607E-03     263.515E-03    -34.1034E-03     50.0182E-03    -15.3627E-03     271.019E-03
              62     17.7262E-03     93.6255E-03    -1.72376E+06     190.268E+06     73.3966E+06     304.635E+03    -26.1693E-03     41.5942E-03    -15.4250E-03     263.682E-03    -34.4234E-03     50.3048E-03    -15.3314E-03     271.161E-03
              63     17.7266E-03     94.6037E-03    -2.66992E+06     190.286E+06     73.3595E+06    -59.8659E+03    -26.7288E-03     42.1154E-03    -15.3866E-03     263.551E-03    -34.9901E-03     50.8300E-03    -15.2918E-03     270.982E-03
              64     17.7270E-03     95.5836E-03    -1.93985E+06     190.100E+06     73.7838E+06     40.8112E+03    -26.8814E-03     42.2414E-03    -15.3600E-03     263.505E-03    -35.1438E-03     50.9577E-03    -15.2639E-03     270.922E-03
              65     17.7275E-03     96.5623E-03    -1.76439E+06     189.546E+06     73.6847E+06    -272.396E+03    -26.8448E-03     42.1809E-03    -15.3360E-03     263.479E-03    -35.1032E-03     50.8921E-03    -15.2399E-03     270.893E-03
              66     17.7279E-03     97.5401E-03    -2.12409E+06     188.008E+06     74.3696E+06    -766.406E+03    -27.4752E-03     42.7752E-03    -15.3000E-03     261.914E-03    -35.6678E-03     51.4120E-03    -15.1977E-03     269.230E-03
              67     17.7282E-03     98.5200E-03    -2.58731E+06     186.008E+06     75.6106E+06    -893.197E+03    -28.3456E-03     43.6129E-03    -15.2672E-03     260.573E-03    -36.4763E-03     52.1755E-03    -15.1551E-03     267.755E-03
              68     17.7284E-03     99.5015E-03    -1.88129E+06     184.348E+06     77.2717E+06    -715.284E+03    -29.0406E-03     44.2820E-03    -15.2414E-03     260.565E-03    -37.1568E-03     52.8219E-03    -15.1197E-03     267.655E-03
              69     17.7289E-03     100.483E-03    -2.00174E+06     182.433E+06     78.3053E+06    -1.06852E+06    -29.6063E-03     44.8181E-03    -15.2118E-03     259.763E-03    -37.6728E-03     53.2980E-03    -15.0819E-03     266.741E-03
              70     17.7291E-03     101.464E-03    -1.90677E+06     179.444E+06     80.2480E+06    -1.41683E+06    -30.5948E-03     45.7719E-03    -15.1770E-03     258.971E-03    -38.5955E-03     54.1701E-03    -15.0332E-03     265.773E-03
              71     17.7297E-03     102.448E-03    -2.47557E+06     175.492E+06     81.3947E+06    -1.85791E+06    -31.8956E-03     47.0265E-03    -15.1309E-03     258.919E-03    -39.8411E-03     55.3502E-03    -14.9748E-03     265.493E-03
              72     17.7302E-03     103.432E-03    -1.59217E+06     171.606E+06     82.8851E+06    -1.57154E+06    -33.0213E-03     48.1040E-03    -15.0828E-03     258.899E-03    -40.8811E-03     56.3270E-03    -14.9148E-03     265.236E-03
              73     17.7310E-03     104.417E-03    -2.46704E+06     167.649E+06     85.2744E+06    -1.95457E+06    -34.3990E-03     49.4296E-03    -15.0306E-03     257.904E-03    -42.1328E-03     57.5025E-03    -14.8438E-03     263.914E-03
              74     17.7313E-03     105.404E-03    -1.40713E+06     163.474E+06     89.2380E+06    -2.21620E+06    -36.7459E-03     51.7039E-03    -14.9580E-03     257.269E-03    -44.3410E-03     59.6156E-03    -14.7468E-03     262.825E-03
              75     17.7324E-03     106.395E-03    -2.71676E+06     158.024E+06     88.0981E+06    -2.80271E+06    -40.3438E-03     55.1776E-03    -14.8337E-03     259.681E-03    -47.8860E-03     63.0160E-03    -14.6184E-03     264.673E-03
              76     17.7332E-03     107.392E-03    -2.43333E+06     150.939E+06     83.1630E+06    -3.36964E+06    -43.4259E-03     58.1256E-03    -14.6997E-03     262.827E-03    -50.8456E-03     65.8316E-03    -14.4992E-03     267.223E-03
              77     17.7345E-03     108.387E-03    -5.42871E+06     134.508E+06     66.8022E+06    -9.78123E+06    -44.8363E-03     59.4087E-03    -14.5725E-03     265.029E-03    -51.9166E-03     66.7536E-03    -14.4256E-03     268.693E-03
              78     17.7348E-03     109.382E-03     2.10869E+06     116.216E+06     54.4045E+06    -7.62345E+06    -45.8615E-03     60.3349E-03    -14.4734E-03     267.841E-03    -52.3148E-03     67.0507E-03    -14.3730E-03     270.693E-03
              79     17.7363E-03     110.379E-03    -11.9385E+06     86.7419E+06     23.5380E+06    -17.4458E+06    -40.8255E-03     55.2770E-03    -14.4514E-03     264.951E-03    -46.0040E-03     60.6530E-03    -14.4422E-03     266.856E-03
              80     17.7379E-03     111.353E-03     2.82568E+06     38.0444E+06     4.60933E+06    -25.9804E+06    -22.0384E-03     36.8163E-03    -14.7779E-03     247.057E-03    -24.9612E-03     39.8737E-03    -14.8141E-03     248.156E-03
              81     17.7395E-03     112.289E-03     8.55972E+06     3.31278E+06     5.36636E+06    -10.1964E+06     5.67484E-03     10.3983E-03    -16.0731E-03     187.903E-03     4.78747E-03     11.3214E-03    -16.0635E-03     188.369E-03
              82     17.6888E-03     113.193E-03    -7.49429E+06    -11.3131E+06     4.84773E+06     1.53667E+06     16.0651E-03     4.30254E-03    -20.3676E-03     72.0838E-03     15.9607E-03     4.30637E-03    -20.3161E-03     72.1608E-03
              83     16.6224E-03     113.973E-03     -52.172E+03     18.5820E+06     40.0711E+06     2.20775E+06     7.74295E-03     16.5009E-03    -24.2439E-03     14.8064E-03     7.64626E-03     16.5246E-03    -24.0704E-03     14.8347E-03
              84     15.7244E-03     113.830E-03    -11.4356E+06     -46.508E+03     52.5969E+06    -4.00016E+06    -10.8758E-03     35.7652E-03    -24.8894E-03     24.7258E-03    -11.0154E-03     35.7024E-03    -24.6098E-03     24.6656E-03
              85     14.8704E-03     113.675E-03    -1.03645E+06    -8.98435E+06     41.7909E+06    -5.86521E+06    -25.3045E-03     49.9062E-03    -24.6017E-03     14.1044E-03    -25.3704E-03     49.7933E-03    -24.3782E-03     14.0136E-03
              86     14.0125E-03     113.556E-03     5.82240E+06     1.19359E+06     42.3364E+06    -6.27518E+06    -25.3150E-03     49.3660E-03    -24.0510E-03     3.56162E-03    -25.3569E-03     49.2959E-03    -23.8495E-03     3.46793E-03
              87     13.1464E-03     113.466E-03     9.37015E+06    -5.12881E+06     49.8464E+06    -3.10764E+06    -26.5064E-03     50.1243E-03    -23.6180E-03    -99.5696E-06    -26.5287E-03     50.0093E-03    -23.3749E-03    -151.459E-06
              88     12.2796E-03     113.389E-03     11.5709E+06     1.13038E+06     46.9791E+06    -1.86313E+06    -28.2717E-03     51.3183E-03    -23.0466E-03    -1.40138E-03    -28.2869E-03     51.2363E-03    -22.8301E-03    -1.43672E-03
              89     11.4127E-03     113.323E-03     12.7503E+06    -2.66448E+06     43.9855E+06    -1.25798E+06    -28.5602E-03     50.9628E-03    -22.4026E-03    -1.55887E-03    -28.5590E-03     50.8650E-03    -22.1973E-03    -1.58528E-03
              90     10.5439E-03     113.264E-03     13.0336E+06     1.40375E+06     44.6778E+06    -1.10458E+06    -27.4809E-03     49.2363E-03    -21.7554E-03    -1.30745E-03    -27.4846E-03     49.1579E-03    -21.5529E-03    -1.33020E-03
              91     9.67271E-03     113.216E-03     13.0376E+06    -1.15377E+06     43.2353E+06    -1.30116E+06    -25.9378E-03     47.0960E-03    -21.1582E-03    -1.05382E-03    -25.9353E-03     47.0072E-03    -20.9592E-03    -1.07745E-03
              92     8.79924E-03     113.173E-03     12.9396E+06     825.556E+03     41.3472E+06    -1.31664E+06    -24.4119E-03     45.0376E-03    -20.6258E-03    -729.850E-06    -24.4096E-03     44.9619E-03    -20.4390E-03    -752.177E-06
              93     7.92368E-03     113.137E-03     12.9423E+06    -661.119E+03       37.75E+06    -1.44744E+06    -23.0578E-03     43.2229E-03    -20.1651E-03    -441.034E-06    -23.0479E-03     43.1452E-03    -19.9942E-03    -463.867E-06
              94     7.04654E-03     113.106E-03     13.3929E+06     687.457E+03     34.5417E+06    -1.70548E+06    -21.8608E-03     41.6365E-03    -19.7758E-03    -223.242E-06    -21.8457E-03     41.5697E-03    -19.6235E-03    -248.487E-06
              95     6.16796E-03     113.081E-03     14.3003E+06    -737.704E+03     30.2808E+06    -1.78779E+06    -20.8833E-03     40.3397E-03    -19.4564E-03    -74.3597E-06    -20.8554E-03     40.2707E-03    -19.3246E-03    -99.9757E-06
              96     5.28831E-03     113.058E-03     15.8235E+06     692.338E+03     27.2942E+06    -1.97584E+06    -20.1284E-03     39.3317E-03    -19.2033E-03    -26.7677E-06    -20.0905E-03     39.2720E-03    -19.0908E-03    -54.2662E-06
              97     4.40786E-03     113.041E-03     17.7191E+06    -1.08875E+06     26.6837E+06    -1.94624E+06    -19.5963E-03     38.6163E-03    -19.0199E-03    -16.3431E-06    -19.5454E-03     38.5459E-03    -18.9106E-03    -43.0213E-06
              98     3.52680E-03     113.026E-03     19.0244E+06    -145.954E+03     24.6084E+06    -1.18254E+06    -19.2047E-03     38.0744E-03    -18.8697E-03    -7.48283E-06    -19.1456E-03     38.0099E-03    -18.7740E-03    -23.9431E-06
              99     2.64538E-03     113.015E-03     20.4530E+06    -148.709E+03     21.9801E+06    -1.22559E+06    -18.9056E-03     37.6669E-03    -18.7614E-03    -71.9771E-06    -18.8354E-03     37.6042E-03    -18.6809E-03    -88.6440E-06
             100     1.76340E-03     113.006E-03     21.7722E+06    -1.05329E+06     22.6435E+06    -926.078E+03    -18.7698E-03     37.4744E-03    -18.7045E-03    -163.374E-06    -18.6928E-03     37.4042E-03    -18.6214E-03    -175.794E-06
             101     881.790E-06     113.001E-03     21.9361E+06     487.416E+03     22.5264E+06    -1.33618E+06    -18.4999E-03     37.3391E-03    -18.8392E-03    -161.265E-06    -18.4238E-03     37.2772E-03    -18.7591E-03    -178.463E-06
             102     873.415E-09     112.014E-03     18.7288E+06    -1.34463E+06     17.7341E+06    -927.483E+03    -16.9751E-03     34.0472E-03    -17.0721E-03     643.625E-06    -16.9048E-03     33.9883E-03    -17.0086E-03     631.773E-06
             103    -404.156E-09     111.037E-03     12.2688E+06    -5.18265E+06     12.4175E+06     225.634E+03    -14.3854E-03     28.6857E-03    -14.3003E-03     1.03863E-03    -14.3341E-03     28.6246E-03    -14.2485E-03     1.04142E-03
             104     86.7351E-09     110.064E-03     6.88574E+06    -7.80659E+06     7.69598E+06    -1.41654E+06    -12.4663E-03     25.1334E-03    -12.6671E-03     894.707E-06    -12.4314E-03     25.0737E-03    -12.6273E-03     876.283E-06
             105    -116.887E-09     109.092E-03    -2.41061E+06    -12.8256E+06    -2.81995E+06    -1.61039E+06    -11.4438E-03     22.8143E-03    -11.3705E-03     1.26093E-03    -11.4329E-03     22.7583E-03    -11.3625E-03     1.23996E-03
             106     271.867E-09     108.123E-03    -15.5093E+06    -17.7900E+06    -14.9313E+06    -1.64773E+06    -10.7417E-03     21.3548E-03    -10.6132E-03     1.61990E-03    -10.7714E-03     21.3105E-03    -10.6396E-03     1.59844E-03
             107    -193.070E-09     107.155E-03    -29.9036E+06    -24.8066E+06    -29.6820E+06    -2.51197E+06    -10.3291E-03     20.6226E-03    -10.2935E-03     1.81197E-03    -10.3993E-03     20.5854E-03    -10.3625E-03     1.77943E-03
             108     178.329E-09     106.187E-03    -47.6775E+06    -33.0925E+06    -47.6772E+06    -2.70653E+06    -10.2826E-03     20.5593E-03    -10.2767E-03     1.87595E-03    -10.4036E-03     20.5326E-03    -10.3980E-03     1.84095E-03
             109    -155.180E-09     105.219E-03    -63.5082E+06    -41.4069E+06    -63.7553E+06    -2.33568E+06    -10.5162E-03     21.0500E-03    -10.5338E-03     1.98876E-03    -10.6810E-03     21.0279E-03    -10.7005E-03     1.95857E-03
             110     95.7195E-09     104.250E-03    -65.7219E+06    -47.6862E+06    -65.7616E+06    -1.49687E+06    -10.9754E-03     21.8987E-03    -10.9233E-03     2.13508E-03    -11.1392E-03     21.8513E-03    -11.0877E-03     2.11573E-03
             111     53.3686E-09     103.280E-03    -52.1692E+06    -50.2240E+06    -53.1167E+06     132.869E+03    -11.5143E-03     22.9194E-03    -11.4050E-03     2.32929E-03    -11.6251E-03     22.8213E-03    -11.5221E-03     2.33093E-03
             112    -21.6145E-09     102.310E-03    -39.4271E+06    -46.4930E+06    -39.8364E+06     2.24419E+06    -11.9928E-03     24.0420E-03    -12.0492E-03     2.30696E-03    -12.0645E-03     23.9248E-03    -12.1238E-03     2.33585E-03
             113    -117.891E-09     101.338E-03    -31.0895E+06    -37.9777E+06    -31.2340E+06     2.90017E+06    -12.5707E-03     25.2067E-03    -12.6360E-03     2.20258E-03    -12.6256E-03     25.1076E-03    -12.6920E-03     2.23993E-03
             114     137.033E-09     100.365E-03    -26.7704E+06    -28.2043E+06    -26.7231E+06     3.01853E+06    -13.1397E-03     26.2030E-03    -13.0633E-03     2.22850E-03    -13.1937E-03     26.1400E-03    -13.1172E-03     2.26734E-03
             115    -22.6274E-09     99.3912E-03    -24.3038E+06    -19.6440E+06    -23.8567E+06     2.26519E+06    -13.5686E-03     27.0359E-03    -13.4672E-03     2.27170E-03    -13.6268E-03     27.0079E-03    -13.5228E-03     2.30080E-03
             116     90.6178E-09     98.4166E-03    -21.2291E+06    -13.4422E+06    -21.1280E+06     1.53578E+06    -13.9496E-03     27.7918E-03    -13.8422E-03     2.13641E-03    -14.0053E-03     27.7864E-03    -13.8976E-03     2.15609E-03
             117     30.5344E-09     97.4414E-03    -17.1664E+06    -9.51864E+06    -16.7590E+06     772.388E+03    -14.3125E-03     28.5185E-03    -14.2061E-03     2.08235E-03    -14.3600E-03     28.5206E-03    -14.2512E-03     2.09217E-03
             118     39.4780E-09     96.4652E-03    -11.4755E+06    -8.89284E+06    -11.1584E+06    -454.487E+03    -14.6306E-03     29.2064E-03    -14.5759E-03     2.09688E-03    -14.6586E-03     29.1952E-03    -14.6021E-03     2.09081E-03
             119    -11.1976E-09     95.4885E-03    -9.73230E+06    -11.2271E+06    -9.84468E+06    -832.507E+03    -14.8413E-03     29.6767E-03    -14.8353E-03     2.10849E-03    -14.8592E-03     29.6494E-03    -14.8542E-03     2.09753E-03
             120    -10.1006E-09     94.5115E-03    -9.68118E+06    -14.3197E+06    -9.53593E+06    -956.499E+03    -14.9843E-03     30.0293E-03    -15.0450E-03     2.12242E-03    -14.9979E-03     29.9860E-03    -15.0579E-03     2.10983E-03
             121    -77.0322E-09     93.5342E-03    -7.10787E+06    -17.7578E+06    -7.25747E+06    -1.20100E+06    -15.1356E-03     30.3640E-03    -15.2284E-03     2.08871E-03    -15.1346E-03     30.2965E-03    -15.2286E-03     2.07295E-03
             122    -4.47507E-09     92.5566E-03    -6.61875E+06    -20.9265E+06    -6.78586E+06    -856.830E+03    -15.2714E-03     30.5899E-03    -15.3186E-03     2.05235E-03    -15.2641E-03     30.5052E-03    -15.3126E-03     2.04104E-03
             123    -1.91585E-09     91.5789E-03    -8.49709E+06    -24.1126E+06    -8.27557E+06    -1.00397E+06    -15.3601E-03     30.7387E-03    -15.3786E-03     2.04126E-03    -15.3554E-03     30.6429E-03    -15.3727E-03     2.02804E-03
             124    -24.2357E-09     90.6010E-03    -9.25748E+06    -27.6297E+06    -9.38604E+06    -1.17952E+06    -15.4410E-03     30.8838E-03    -15.4428E-03     2.02983E-03    -15.4334E-03     30.7731E-03    -15.4362E-03     2.01434E-03
             125     43.4152E-09     89.6231E-03    -9.61580E+06    -30.9855E+06    -9.66564E+06    -908.478E+03    -15.4919E-03     31.0047E-03    -15.5128E-03     1.97003E-03    -15.4808E-03     30.8782E-03    -15.5022E-03     1.95805E-03
             126    -102.286E-09     88.6452E-03    -9.18904E+06    -33.4009E+06    -9.31981E+06    -571.031E+03    -15.5635E-03     31.0963E-03    -15.5328E-03     1.91744E-03    -15.5472E-03     30.9566E-03    -15.5177E-03     1.90984E-03
             127     211.936E-09     87.6668E-03    -10.7452E+06    -35.3285E+06    -10.6098E+06    -553.498E+03    -15.6451E-03     31.1334E-03    -15.4883E-03     2.02852E-03    -15.6320E-03     30.9882E-03    -15.4746E-03     2.02112E-03
             128    -44.5657E-09     86.6888E-03    -13.0433E+06    -37.7160E+06    -12.9608E+06    -896.377E+03    -15.5785E-03     31.1178E-03    -15.5392E-03     2.12000E-03    -15.5700E-03     30.9673E-03    -15.5305E-03     2.10815E-03
             129    -54.7480E-09     85.7107E-03    -14.1701E+06    -40.7786E+06    -14.2338E+06    -1.02357E+06    -15.5365E-03     31.1191E-03    -15.5826E-03     1.98850E-03    -15.5273E-03     30.9568E-03    -15.5741E-03     1.97503E-03
             130     69.4927E-09     84.7327E-03    -14.5823E+06    -43.6653E+06    -14.7825E+06    -599.908E+03    -15.6060E-03     31.1382E-03    -15.5322E-03     2.01708E-03    -15.5939E-03     30.9629E-03    -15.5217E-03     2.00906E-03
             131     41.9547E-09     83.7543E-03    -14.9109E+06    -45.3120E+06    -14.8451E+06    -409.671E+03    -15.5914E-03     31.1462E-03    -15.5548E-03     2.17009E-03    -15.5785E-03     30.9632E-03    -15.5417E-03     2.16450E-03
             132    -90.3661E-09     82.7764E-03    -15.5053E+06    -46.8906E+06    -15.4501E+06    -433.475E+03    -15.5312E-03     31.1176E-03    -15.5864E-03     2.15396E-03    -15.5181E-03     30.9285E-03    -15.5732E-03     2.14807E-03
             133     39.1457E-09     81.7983E-03    -15.5580E+06     -48.204E+06    -15.5274E+06    -418.479E+03    -15.5216E-03     31.0937E-03    -15.5720E-03     2.06993E-03    -15.5067E-03     30.8981E-03    -15.5572E-03     2.06424E-03
             134    -79.3601E-09     80.8205E-03    -15.4592E+06    -49.4527E+06    -15.4809E+06    -511.986E+03    -15.5575E-03     31.1421E-03    -15.5846E-03     1.99687E-03    -15.5404E-03     30.9402E-03    -15.5679E-03     1.98997E-03
             135     69.0364E-09     79.8422E-03    -15.5882E+06    -50.8951E+06    -15.6681E+06    -385.228E+03    -15.5982E-03     31.1822E-03    -15.5840E-03     1.97833E-03    -15.5793E-03     30.9734E-03    -15.5659E-03     1.97311E-03
             136    -36.6735E-09     78.8641E-03    -15.6279E+06    -51.9621E+06    -15.6998E+06    -242.622E+03    -15.6089E-03     31.1947E-03    -15.5858E-03     2.03588E-03    -15.5887E-03     30.9807E-03    -15.5663E-03     2.03250E-03
             137     41.9959E-09     77.8860E-03    -15.8963E+06    -53.1346E+06    -15.8471E+06    -322.092E+03    -15.5976E-03     31.2398E-03    -15.6422E-03     2.04483E-03    -15.5768E-03     31.0205E-03    -15.6213E-03     2.04039E-03
             138    -128.135E-09     76.9078E-03    -15.7909E+06    -54.1170E+06    -15.9080E+06    -244.652E+03    -15.6141E-03     31.2763E-03    -15.6622E-03     2.04440E-03    -15.5913E-03     31.0521E-03    -15.6404E-03     2.04096E-03
             139     125.434E-09     75.9296E-03    -15.7648E+06    -54.8459E+06    -15.6539E+06    -40.7589E+03    -15.6713E-03     31.2976E-03    -15.6263E-03     2.05924E-03    -15.6477E-03     31.0694E-03    -15.6022E-03     2.05845E-03
             140    -44.0903E-09     74.9514E-03    -14.9722E+06    -55.3750E+06    -14.8874E+06    -355.029E+03    -15.6628E-03     31.2979E-03    -15.6351E-03     2.03510E-03    -15.6355E-03     31.0647E-03    -15.6075E-03     2.03025E-03
             141     10.3980E-09     73.9733E-03    -14.2119E+06    -56.3064E+06    -14.5219E+06    -406.263E+03    -15.6188E-03     31.3065E-03    -15.6877E-03     2.00497E-03    -15.5869E-03     31.0671E-03    -15.6581E-03     1.99945E-03
             142    -104.647E-09     72.9951E-03    -14.4650E+06    -56.5214E+06    -14.5311E+06     71.5024E+03    -15.6137E-03     31.3124E-03    -15.6987E-03     1.99495E-03    -15.5828E-03     31.0723E-03    -15.6684E-03     1.99560E-03
             143     45.2432E-09     72.0168E-03    -15.3259E+06    -56.9551E+06    -14.9679E+06    -200.229E+03    -15.6215E-03     31.2627E-03    -15.6411E-03     2.04385E-03    -15.5935E-03     31.0222E-03    -15.6112E-03     2.04099E-03
             144    -18.9883E-09     71.0387E-03    -15.4374E+06    -58.2643E+06    -15.4892E+06    -348.477E+03    -15.6200E-03     31.2139E-03    -15.5940E-03     2.10411E-03    -15.5899E-03     30.9679E-03    -15.5645E-03     2.09931E-03
             145     35.6749E-09     70.0606E-03    -14.6258E+06    -58.3843E+06    -14.9290E+06     432.942E+03    -15.6181E-03     31.2037E-03    -15.5856E-03     2.09173E-03    -15.5846E-03     30.9551E-03    -15.5543E-03     2.09700E-03
             146    -694.801E-12     69.0825E-03    -13.2149E+06    -57.4171E+06    -12.9763E+06     325.170E+03    -15.6181E-03     31.1723E-03    -15.5542E-03     2.04177E-03    -15.5818E-03     30.9236E-03    -15.5166E-03     2.04567E-03
             147     79.2420E-09     68.1045E-03    -12.7386E+06    -57.5197E+06    -12.6592E+06    -372.459E+03    -15.6090E-03     31.1325E-03    -15.5234E-03     2.04486E-03    -15.5707E-03     30.8821E-03    -15.4849E-03     2.03976E-03
             148    -7.62753E-09     67.1265E-03    -14.1566E+06    -58.8943E+06    -14.2168E+06    -460.338E+03    -15.5761E-03     31.1228E-03    -15.5467E-03     2.09029E-03    -15.5406E-03     30.8699E-03    -15.5119E-03     2.08404E-03
             149    -15.1429E-09     66.1484E-03    -14.7745E+06    -60.1828E+06    -14.8492E+06    -421.649E+03    -15.5687E-03     31.1088E-03    -15.5402E-03     2.10851E-03    -15.5334E-03     30.8513E-03    -15.5057E-03     2.10276E-03
             150     85.0062E-09     65.1705E-03    -11.8857E+06    -60.4021E+06    -12.3092E+06     346.980E+03    -15.5872E-03     31.1290E-03    -15.5417E-03     2.09958E-03    -15.5410E-03     30.8625E-03    -15.4985E-03     2.10375E-03
             151    -81.5731E-09     64.1925E-03    -10.8613E+06    -58.7861E+06    -10.4650E+06     733.189E+03    -15.5706E-03     31.1264E-03    -15.5558E-03     2.00320E-03    -15.5242E-03     30.8638E-03    -15.5072E-03     2.01239E-03
             152     106.466E-09     63.2146E-03    -13.0676E+06    -58.7301E+06    -12.4994E+06    -699.956E+03    -15.5627E-03     31.1044E-03    -15.5417E-03     2.09740E-03    -15.5245E-03     30.8483E-03    -15.5001E-03     2.08806E-03
             153    -90.1675E-09     62.2364E-03    -13.7678E+06    -60.8113E+06    -14.2102E+06    -762.944E+03    -15.5453E-03     31.0838E-03    -15.5386E-03     2.14645E-03    -15.5051E-03     30.8208E-03    -15.5015E-03     2.13628E-03
             154     78.1615E-09     61.2586E-03    -12.2127E+06    -61.1225E+06    -12.4768E+06     521.807E+03    -15.5281E-03     31.0483E-03    -15.5202E-03     2.05332E-03    -15.4822E-03     30.7789E-03    -15.4762E-03     2.05976E-03
             155    -57.4467E-09     60.2808E-03    -11.8737E+06    -59.8959E+06    -11.5132E+06     199.264E+03    -15.5093E-03     31.0642E-03    -15.5549E-03     2.05643E-03    -15.4648E-03     30.7990E-03    -15.5084E-03     2.05871E-03
             156    -42.3437E-09     59.3026E-03    -12.9644E+06    -60.2337E+06    -12.9655E+06    -399.519E+03    -15.5164E-03     31.0625E-03    -15.5461E-03     2.11554E-03    -15.4748E-03     30.7993E-03    -15.5048E-03     2.11008E-03
             157     86.8836E-09     58.3248E-03    -12.2605E+06    -60.5953E+06    -12.7065E+06     223.027E+03    -15.5612E-03     31.0142E-03    -15.4530E-03     2.16248E-03    -15.5160E-03     30.7479E-03    -15.4109E-03     2.16506E-03
             158     52.6313E-09     57.3469E-03    -12.9327E+06    -59.8181E+06    -12.6196E+06     290.611E+03    -15.5053E-03     30.9797E-03    -15.4744E-03     2.07975E-03    -15.4647E-03     30.7181E-03    -15.4320E-03     2.08322E-03
             159     6.04323E-09     55.3914E-03    -12.8275E+06    -59.7096E+06    -12.7925E+06     25.1414E+03    -15.4856E-03     31.0001E-03    -15.5145E-03     1.74512E-03    -15.4443E-03     30.7391E-03    -15.4733E-03     1.74524E-03
             160     71.5089E-09     54.4135E-03    -13.0363E+06    -59.6107E+06    -12.8372E+06     45.9762E+03    -15.5464E-03     31.0242E-03    -15.4778E-03     1.84020E-03    -15.5062E-03     30.7641E-03    -15.4367E-03     1.84058E-03
             161    -27.3341E-09     53.4355E-03    -12.5980E+06    -59.1962E+06    -12.8396E+06     79.8496E+03    -15.5371E-03     31.0426E-03    -15.5055E-03     1.93374E-03    -15.4954E-03     30.7840E-03    -15.4656E-03     1.93454E-03
             162     34.2707E-09     52.4576E-03    -12.8351E+06    -59.1344E+06    -12.7998E+06     92.7446E+03    -15.5085E-03     31.0419E-03    -15.5334E-03     2.06254E-03    -15.4681E-03     30.7838E-03    -15.4930E-03     2.06346E-03
             163    -87.2841E-09     51.4795E-03    -12.7553E+06    -59.0254E+06    -12.8170E+06     14.1008E+03    -15.4746E-03     31.0116E-03    -15.5370E-03     2.11689E-03    -15.4339E-03     30.7540E-03    -15.4970E-03     2.11676E-03
             164     26.4860E-09     50.5017E-03    -13.0340E+06    -59.0477E+06    -13.0099E+06    -34.5057E+03    -15.4778E-03     30.9536E-03    -15.4758E-03     2.06522E-03    -15.4382E-03     30.6965E-03    -15.4363E-03     2.06448E-03
             165     35.6116E-09     49.5239E-03    -12.9018E+06    -59.0222E+06    -12.9221E+06    -45.6721E+03    -15.5026E-03     30.9226E-03    -15.4200E-03     2.03341E-03    -15.4625E-03     30.6654E-03    -15.3804E-03     2.03256E-03
             166     45.9813E-09     48.5462E-03    -12.9089E+06    -58.8783E+06    -12.8456E+06    -76.8453E+03    -15.4518E-03     30.8617E-03    -15.4099E-03     2.04869E-03    -15.4120E-03     30.6050E-03    -15.3700E-03     2.04741E-03
             167    -54.9735E-09     47.5683E-03    -13.0374E+06    -58.9330E+06    -13.1227E+06     15.9422E+03    -15.3804E-03     30.7492E-03    -15.3688E-03     2.14519E-03    -15.3408E-03     30.4929E-03    -15.3301E-03     2.14506E-03
             168     80.8190E-09     46.5908E-03    -13.1459E+06    -58.9360E+06    -13.1032E+06     67.4833E+03    -15.3378E-03     30.6527E-03    -15.3149E-03     2.15818E-03    -15.2987E-03     30.3965E-03    -15.2759E-03     2.15873E-03
             169    -68.3949E-09     45.6134E-03    -13.2667E+06    -59.1279E+06    -12.9776E+06    -94.3435E+03    -15.2943E-03     30.5658E-03    -15.2715E-03     2.04951E-03    -15.2557E-03     30.3087E-03    -15.2314E-03     2.04800E-03
             170     97.1122E-09     44.6360E-03    -13.1517E+06    -59.4989E+06    -13.1771E+06     15.0605E+03    -15.2574E-03     30.4585E-03    -15.2011E-03     1.92856E-03    -15.2174E-03     30.1997E-03    -15.1616E-03     1.92848E-03
             171    -28.6126E-09     43.6588E-03    -13.4272E+06    -59.5856E+06    -13.4284E+06    -12.5699E+03    -15.1767E-03     30.3307E-03    -15.1540E-03     1.88710E-03    -15.1376E-03     30.0722E-03    -15.1153E-03     1.88666E-03
             172    -1.95281E-09     42.6816E-03    -13.8724E+06    -59.7698E+06    -14.0379E+06    -86.1031E+03    -15.0908E-03     30.2316E-03    -15.1408E-03     1.89979E-03    -15.0528E-03     29.9737E-03    -15.1042E-03     1.89841E-03
             173    -60.3820E-09     41.7045E-03    -13.8239E+06    -59.4563E+06    -13.8550E+06     232.655E+03    -15.0328E-03     30.1452E-03    -15.1124E-03     1.90848E-03    -14.9953E-03     29.8885E-03    -15.0754E-03     1.91122E-03
             174    -20.9723E-09     40.7275E-03    -13.4599E+06    -58.8575E+06    -13.3840E+06     38.8702E+03    -14.9748E-03     30.0124E-03    -15.0376E-03     1.90573E-03    -14.9370E-03     29.7575E-03    -14.9996E-03     1.90596E-03
             175    -10.3534E-09     39.7506E-03    -10.3105E+06    -58.6743E+06    -10.7301E+06     293.476E+03    -14.9560E-03     29.8838E-03    -14.9278E-03     1.92742E-03    -14.9066E-03     29.6214E-03    -14.8814E-03     1.93093E-03
             176     84.6620E-09     38.7739E-03    -10.6806E+06    -58.1658E+06    -10.1206E+06    -7.48084E+03    -14.8958E-03     29.7268E-03    -14.8310E-03     1.93813E-03    -14.8499E-03     29.4666E-03    -14.7818E-03     1.93776E-03
             177    -39.9321E-09     37.7974E-03    -13.8022E+06    -59.0429E+06    -13.8440E+06    -511.550E+03    -14.7550E-03     29.4895E-03    -14.7346E-03     1.92100E-03    -14.7180E-03     29.2349E-03    -14.6982E-03     1.91413E-03
             178     28.7078E-09     36.8210E-03    -13.8478E+06    -60.4057E+06    -13.9667E+06    -343.800E+03    -14.6374E-03     29.2732E-03    -14.6358E-03     1.90406E-03    -14.5985E-03     29.0119E-03    -14.5979E-03     1.89935E-03
             179    -18.1155E-09     35.8451E-03    -12.5152E+06    -61.3647E+06    -12.4309E+06    -134.857E+03    -14.5327E-03     29.0447E-03    -14.5120E-03     1.80062E-03    -14.4879E-03     28.7745E-03    -14.4670E-03     1.79864E-03
             180     43.1652E-09     34.8692E-03    -12.4827E+06    -60.7524E+06    -12.5854E+06     459.731E+03    -14.3826E-03     28.7413E-03    -14.3588E-03     1.70493E-03    -14.3383E-03     28.4744E-03    -14.3155E-03     1.71065E-03
             181    -29.0400E-09     33.8939E-03    -13.2984E+06    -60.0989E+06    -13.0812E+06    -86.4345E+03    -14.2376E-03     28.4364E-03    -14.1988E-03     1.61265E-03    -14.1977E-03     28.1746E-03    -14.1578E-03     1.61133E-03
             182     84.6157E-09     32.9185E-03    -12.3568E+06    -60.3012E+06    -12.5955E+06    -117.911E+03    -14.0970E-03     28.1146E-03    -14.0176E-03     1.59418E-03    -14.0528E-03     27.8497E-03    -13.9752E-03     1.59243E-03
             183    -3.62875E-09     31.9437E-03    -12.2824E+06    -59.9709E+06    -12.1556E+06     246.767E+03    -13.8685E-03     27.7112E-03    -13.8427E-03     1.63517E-03    -13.8250E-03     27.4472E-03    -13.7987E-03     1.63813E-03
             184    -31.8734E-09     30.9692E-03    -11.7399E+06    -59.4285E+06    -11.7092E+06    -10.2810E+03    -13.6363E-03     27.2828E-03    -13.6466E-03     1.60989E-03    -13.5915E-03     27.0202E-03    -13.6019E-03     1.60953E-03
             185     47.6782E-09     29.9953E-03    -11.7229E+06    -59.3931E+06    -11.8054E+06     13.9897E+03    -13.4321E-03     26.8527E-03    -13.4206E-03     1.60458E-03    -13.3872E-03     26.5903E-03    -13.3765E-03     1.60455E-03
             186    -45.6678E-09     29.0215E-03    -11.8317E+06    -59.6280E+06    -11.8087E+06     110.273E+03    -13.1751E-03     26.3537E-03    -13.1787E-03     1.57232E-03    -13.1303E-03     26.0903E-03    -13.1341E-03     1.57354E-03
             187     35.8279E-09     28.0486E-03    -11.8619E+06    -59.8543E+06    -11.8140E+06    -17.3100E+03    -12.9262E-03     25.8048E-03    -12.8787E-03     1.48754E-03    -12.8812E-03     25.5404E-03    -12.8337E-03     1.48713E-03
             188     57.4147E-09     27.0761E-03    -12.0043E+06    -59.9542E+06    -11.9979E+06    -112.696E+03    -12.6607E-03     25.2759E-03    -12.6152E-03     1.40577E-03    -12.6160E-03     25.0114E-03    -12.5709E-03     1.40413E-03
             189    -71.2917E-09     26.1041E-03    -12.0201E+06    -60.0278E+06    -12.0021E+06    -134.292E+03    -12.3651E-03     24.7396E-03    -12.3745E-03     1.31980E-03    -12.3204E-03     24.4748E-03    -12.3301E-03     1.31790E-03
             190     67.2289E-09     25.1325E-03    -11.7478E+06    -60.5997E+06    -11.8483E+06    -148.989E+03    -12.0941E-03     24.1694E-03    -12.0753E-03     1.29129E-03    -12.0474E-03     23.9011E-03    -12.0296E-03     1.28922E-03
             191    -32.2491E-09     24.1618E-03    -10.8713E+06    -60.5000E+06    -11.0129E+06     72.7364E+03    -11.7938E-03     23.5658E-03    -11.7720E-03     1.23860E-03    -11.7441E-03     23.2955E-03    -11.7236E-03     1.23939E-03
             192     33.0860E-09     23.1913E-03    -10.3859E+06    -60.1001E+06    -10.3600E+06     414.438E+03    -11.5120E-03     22.9681E-03    -11.4560E-03     1.16189E-03    -11.4614E-03     22.6981E-03    -11.4056E-03     1.16710E-03
             193     64.8431E-09     22.2218E-03    -9.57264E+06    -59.0026E+06    -9.48854E+06     240.277E+03    -11.2165E-03     22.3928E-03    -11.1763E-03     1.12705E-03    -11.1647E-03     22.1259E-03    -11.1243E-03     1.13002E-03
             194    -91.5559E-09     21.2524E-03    -8.80082E+06    -58.0495E+06    -9.10180E+06     341.361E+03    -10.9144E-03     21.8347E-03    -10.9204E-03     1.07658E-03    -10.8606E-03     21.5709E-03    -10.8689E-03     1.08086E-03
             195     102.910E-09     20.2839E-03    -8.35912E+06    -56.7700E+06    -8.22604E+06     425.911E+03    -10.7013E-03     21.3449E-03    -10.6436E-03     1.00501E-03    -10.6485E-03     21.0856E-03    -10.5903E-03     1.01039E-03
             196    -11.0895E-09     19.3156E-03    -5.53987E+06    -54.5533E+06    -5.63915E+06     697.714E+03    -10.5021E-03     20.9282E-03    -10.4261E-03     942.901E-06    -10.4421E-03     20.6721E-03    -10.3672E-03     951.792E-06
             197     52.2315E-09     18.3478E-03    -2.38963E+06    -51.6015E+06    -2.36915E+06     1.21237E+06    -10.2760E-03     20.5262E-03    -10.2502E-03     907.872E-06    -10.2092E-03     20.2756E-03    -10.1838E-03     923.411E-06
             198    -48.4141E-09     17.3802E-03     83.8237E+03    -48.1513E+06     27.7458E+03     1.04562E+06    -10.0481E-03     20.0637E-03    -10.0156E-03     872.565E-06    -9.97747E-03     19.8233E-03    -9.94578E-03     885.948E-06
             199     100.755E-09     16.4133E-03     2.22149E+06    -45.2719E+06     2.28454E+06     920.284E+03    -9.84104E-03     19.5769E-03    -9.73587E-03     758.847E-06    -9.76719E-03     19.3445E-03    -9.66202E-03     770.619E-06
             200     34.1214E-09     15.4470E-03     3.42963E+06    -42.7696E+06     3.55020E+06     540.308E+03    -9.57581E-03     19.0570E-03    -9.48121E-03     595.920E-06    -9.50139E-03     18.8335E-03    -9.40642E-03     602.804E-06
             201     192.136E-12     14.4807E-03     2.82176E+06    -41.4743E+06     2.69685E+06     308.961E+03    -9.24673E-03     18.4025E-03    -9.15580E-03     465.939E-06    -9.17602E-03     18.1876E-03    -9.08627E-03     469.867E-06
             202     125.548E-09     13.5157E-03     492.078E+03    -41.3159E+06     734.188E+03     133.877E+03    -8.85712E-03     17.6106E-03    -8.75345E-03     306.601E-06    -8.79547E-03     17.4027E-03    -8.69058E-03     308.284E-06
             203    -64.1458E-09     12.5512E-03    -1.44875E+06    -41.0285E+06    -1.61080E+06     55.9423E+03    -8.35872E-03     16.6248E-03    -8.26609E-03     114.600E-06    -8.30382E-03     16.4246E-03    -8.21255E-03     115.260E-06
             204     165.819E-09     11.5876E-03    -3.90039E+06    -40.6811E+06    -3.76823E+06     35.4202E+03    -7.75077E-03     15.3648E-03    -7.61398E-03     83.5183E-06    -7.70552E-03     15.1729E-03    -7.56818E-03     83.9077E-06
             205    -21.9609E-09     10.6257E-03    -7.11764E+06    -41.1064E+06    -6.91998E+06    -406.274E+03    -7.06758E-03     14.0396E-03    -6.97204E-03     80.4267E-06    -7.03322E-03     13.8549E-03    -6.93671E-03     75.1249E-06
             206     50.6895E-09     9.66479E-03    -9.81423E+06    -42.0076E+06    -9.85063E+06    -289.154E+03    -6.60333E-03     13.1233E-03    -6.51996E-03     92.6563E-06    -6.57689E-03     12.9423E-03    -6.49408E-03     88.8610E-06
             207     68.7490E-09     8.70458E-03    -10.6280E+06    -42.4181E+06    -10.4220E+06     26.3193E+03    -6.53878E-03     13.0003E-03    -6.46151E-03     296.971E-06    -6.51499E-03     12.8192E-03    -6.43670E-03     297.239E-06
             208    -48.1850E-09     7.74387E-03    -9.46461E+06    -42.8082E+06    -9.27591E+06    -417.662E+03    -6.89344E-03     13.7770E-03    -6.88352E-03     493.838E-06    -6.86495E-03     13.5906E-03    -6.85411E-03     488.385E-06
             209     47.0376E-09     6.78215E-03    -7.46010E+06    -44.0294E+06    -7.60189E+06    -792.948E+03    -7.63841E-03     15.2932E-03    -7.65481E-03     663.614E-06    -7.60055E-03     15.0954E-03    -7.61816E-03     653.333E-06
             210    -77.2273E-09     5.81845E-03    -5.31543E+06    -45.8357E+06    -5.39757E+06    -569.957E+03    -8.61670E-03     17.2487E-03    -8.63198E-03     768.132E-06    -8.56870E-03     17.0355E-03    -8.58480E-03     760.734E-06
             211     78.7717E-09     4.85295E-03    -3.07670E+06    -48.0933E+06    -3.16655E+06    -321.525E+03    -9.69279E-03     19.3591E-03    -9.66635E-03     797.513E-06    -9.63352E-03     19.1282E-03    -9.60799E-03     793.351E-06
             212    -34.7110E-09     3.88526E-03    -942.629E+03    -50.1033E+06    -725.356E+03    -551.969E+03    -10.6865E-03     21.3879E-03    -10.7014E-03     735.694E-06    -10.6172E-03     21.1403E-03    -10.6310E-03     728.549E-06
             213    -33.8581E-09     2.91596E-03    -1.57540E+06    -52.2227E+06    -1.71583E+06    -847.541E+03    -11.5580E-03     23.1730E-03    -11.6150E-03     575.321E-06    -11.4872E-03     22.9172E-03    -11.5456E-03     564.265E-06
             214    -1.35139E-09     1.94480E-03    -5.69408E+06    -53.8740E+06    -6.06601E+06    -396.403E+03    -12.2777E-03     24.5529E-03    -12.2751E-03     408.733E-06    -12.2186E-03     24.3012E-03    -12.2191E-03     403.574E-06
             215     35.7973E-09     972.691E-06    -8.80078E+06    -54.6468E+06    -8.68668E+06    -162.792E+03    -12.7178E-03     25.4052E-03    -12.6873E-03     241.288E-06    -12.6692E-03     25.1579E-03    -12.6388E-03     239.425E-06
             216     888.483E-06    -492.661E-18    -9.52232E+06    -55.1080E+06    -9.73036E+06    -21.1687E+03    -12.8804E-03     25.7299E-03    -12.8495E-03     211.265E-06    -12.8335E-03     25.4825E-03    -12.8045E-03     211.206E-06
             217     1.77692E-03    -492.661E-18    -9.54267E+06    -55.5036E+06     -10.809E+06    -328.476E+03    -12.9421E-03     25.8162E-03    -12.8741E-03     359.755E-06    -12.8935E-03     25.5681E-03    -12.8339E-03     355.512E-06
             218     2.66529E-03    -492.661E-18    -9.42393E+06    -56.1471E+06    -12.3720E+06    -554.664E+03    -13.0462E-03     25.9489E-03    -12.9027E-03     549.657E-06    -12.9939E-03     25.6997E-03    -12.8695E-03     542.458E-06
             219     3.55351E-03    -492.661E-18    -9.48547E+06    -57.6233E+06    -14.1352E+06    -562.187E+03    -13.1983E-03     26.1431E-03    -12.9448E-03     754.274E-06    -13.1416E-03     25.8892E-03    -12.9182E-03     746.974E-06
             220     4.44164E-03    -492.661E-18    -9.15571E+06    -59.0920E+06    -16.0832E+06    -1.12348E+06    -13.3943E-03     26.3939E-03    -12.9996E-03     965.350E-06    -13.3310E-03     26.1350E-03    -12.9811E-03     950.785E-06
             221     5.32950E-03    -492.661E-18    -8.63973E+06    -60.0544E+06    -18.6651E+06    -1.09519E+06    -13.6300E-03     26.6941E-03    -13.0641E-03     1.20871E-03    -13.5590E-03     26.4334E-03    -13.0579E-03     1.19449E-03
             222     6.21717E-03    -492.661E-18    -8.08355E+06    -62.1458E+06    -22.9239E+06    -1.56918E+06    -13.9124E-03     27.0478E-03    -13.1355E-03     1.46929E-03    -13.8294E-03     26.7820E-03    -13.1483E-03     1.44893E-03
             223     7.10457E-03    -492.661E-18    -6.69624E+06    -64.5813E+06    -28.9161E+06    -2.55303E+06    -14.2421E-03     27.4532E-03    -13.2112E-03     1.77197E-03    -14.1400E-03     27.1819E-03    -13.2524E-03     1.73889E-03
             224     7.99162E-03    -492.661E-18    -4.37980E+06    -67.1072E+06    -32.6342E+06    -3.22626E+06    -14.6229E-03     27.9340E-03    -13.3111E-03     2.10983E-03    -14.5002E-03     27.6521E-03    -13.3706E-03     2.06800E-03
             225     8.87840E-03    -492.661E-18    -1.24690E+06    -68.5324E+06    -35.6092E+06    -3.77490E+06    -15.0863E-03     28.5145E-03    -13.4283E-03     2.48427E-03    -14.9415E-03     28.2253E-03    -13.5052E-03     2.43530E-03
             226     9.76461E-03    -492.661E-18     2.70127E+06    -65.9372E+06    -41.9974E+06    -4.47698E+06    -15.6386E-03     29.1794E-03    -13.5409E-03     3.06439E-03    -15.4685E-03     28.9067E-03    -13.6592E-03     3.00632E-03
             227     10.6501E-03    -492.661E-18     6.80175E+06    -58.4893E+06    -46.5051E+06    -4.91161E+06    -16.2474E-03     29.9240E-03    -13.6766E-03     3.58036E-03    -16.0612E-03     29.6891E-03    -13.8341E-03     3.51652E-03
             228     11.5357E-03    -492.661E-18     11.0133E+06    -44.6027E+06    -44.5571E+06    -4.38409E+06    -17.0717E-03     30.9341E-03    -13.8624E-03     4.26178E-03    -16.8874E-03     30.7597E-03    -14.0364E-03     4.20454E-03
             229     12.4194E-03    -492.661E-18     14.5777E+06    -22.2616E+06    -36.2655E+06    -3.50260E+06    -18.1291E-03     32.2367E-03    -14.1076E-03     5.46450E-03    -17.9714E-03     32.1569E-03    -14.2778E-03     5.41863E-03
             230     13.3022E-03    -492.661E-18     15.1103E+06     10.9580E+06    -25.4028E+06    -817.896E+03    -19.3884E-03     33.7904E-03    -14.4020E-03     6.96980E-03    -19.2920E-03     33.8603E-03    -14.5669E-03     6.95765E-03
             231     14.1840E-03    -492.661E-18     12.3316E+06     39.2634E+06    -10.4398E+06     1.38207E+06    -21.6540E-03     36.4600E-03    -14.8059E-03     8.64083E-03    -21.6343E-03     36.6538E-03    -14.9329E-03     8.65604E-03
             232     15.0633E-03    -492.661E-18     13.1377E+06     59.6804E+06     20.7378E+06    -3.43580E+06    -25.1686E-03     40.5950E-03    -15.4264E-03     10.6630E-03    -25.2197E-03     40.8446E-03    -15.4283E-03     10.6157E-03
             233     15.9370E-03    -492.661E-18     10.7000E+06     76.1243E+06     51.8806E+06    -964.497E+03    -30.0988E-03     46.3376E-03    -16.2388E-03     19.0043E-03    -30.2357E-03     46.6317E-03    -16.1053E-03     18.9702E-03
             234     16.7987E-03    -492.661E-18     1.34791E+06     90.3952E+06     64.8292E+06     8.44102E+06    -44.7509E-03     62.1570E-03    -17.4061E-03     47.3769E-03    -45.0680E-03     62.6115E-03    -17.2149E-03     47.2658E-03
             235     17.6907E-03     1.04425E-03    -778.084E+03     107.573E+06     66.8780E+06     7.34321E+06    -52.4372E-03     69.6622E-03    -17.2250E-03     77.9716E-03    -52.9848E-03     70.3986E-03    -17.0454E-03     77.7067E-03
             236     17.7052E-03     2.07666E-03    -755.556E+03     120.525E+06     69.3442E+06     6.29205E+06    -53.8568E-03     69.7929E-03    -15.9360E-03     101.636E-03    -54.7481E-03     70.9153E-03    -15.7630E-03     101.313E-03
             237     17.7098E-03     3.11808E-03    -3.01602E+06     132.839E+06     78.5803E+06     5.90516E+06    -61.6120E-03     77.0569E-03    -15.4449E-03     130.538E-03    -63.0822E-03     78.7666E-03    -15.2403E-03     130.073E-03
             238     17.7114E-03     4.15535E-03    -1.20297E+06     143.417E+06     87.3251E+06     3.57018E+06    -63.2177E-03     78.5271E-03    -15.3095E-03     157.620E-03    -65.3884E-03     80.9539E-03    -15.0790E-03     157.210E-03
             239     17.7145E-03     5.18576E-03    -2.24309E+06     148.890E+06     88.6946E+06     2.03372E+06    -60.6318E-03     75.9144E-03    -15.2826E-03     177.740E-03    -63.4611E-03     79.0097E-03    -15.0517E-03     177.702E-03
             240     17.7150E-03     6.20667E-03    -2.11542E+06     153.777E+06     88.0570E+06     1.97639E+06    -55.7645E-03     71.0860E-03    -15.3216E-03     189.641E-03    -59.0831E-03     74.6888E-03    -15.1012E-03     190.178E-03
             241     17.7170E-03     7.21720E-03    -1.13884E+06     158.142E+06     87.4921E+06     1.65132E+06    -50.6784E-03     66.0615E-03    -15.3831E-03     197.907E-03    -54.3809E-03     70.0683E-03    -15.1733E-03     199.037E-03
             242     17.7170E-03     8.22411E-03    -2.78409E+06     159.360E+06     85.8880E+06    -370.225E+03    -47.8792E-03     63.2916E-03    -15.4124E-03     204.377E-03    -51.9336E-03     67.6534E-03    -15.2100E-03     205.952E-03
             243     17.7178E-03     9.22880E-03    -2.59120E+06     160.421E+06     85.9116E+06     230.363E+03    -46.3555E-03     61.7890E-03    -15.4335E-03     210.972E-03    -50.7721E-03     66.5174E-03    -15.2328E-03     212.965E-03
             244     17.7180E-03     10.2340E-03    -2.59699E+06     162.191E+06     83.9701E+06     1.30770E+06    -44.1418E-03     59.5958E-03    -15.4540E-03     219.031E-03    -48.9441E-03     64.7218E-03    -15.2655E-03     221.476E-03
             245     17.7194E-03     11.2334E-03    -2.21108E+06     163.349E+06     82.4617E+06     749.022E+03    -41.9797E-03     57.4440E-03    -15.4642E-03     225.535E-03    -47.1379E-03     62.9353E-03    -15.2856E-03     228.408E-03
             246     17.7195E-03     12.2288E-03    -1.71948E+06     164.656E+06     82.4881E+06     499.105E+03    -41.2314E-03     56.6813E-03    -15.4499E-03     229.738E-03    -46.6855E-03     62.4749E-03    -15.2738E-03     232.930E-03
             247     17.7205E-03     13.2278E-03    -1.65303E+06     165.535E+06     81.8431E+06     715.732E+03    -40.9271E-03     56.3563E-03    -15.4292E-03     234.609E-03    -46.6938E-03     62.4678E-03    -15.2576E-03     238.081E-03
             248     17.7206E-03     14.2234E-03    -2.12404E+06     165.886E+06     81.9596E+06     278.331E+03    -40.3139E-03     55.7396E-03    -15.4256E-03     238.741E-03    -46.3759E-03     62.1453E-03    -15.2533E-03     242.521E-03
             249     17.7211E-03     15.2169E-03    -2.05166E+06     166.700E+06     81.5588E+06     544.901E+03    -39.5063E-03     54.9284E-03    -15.4221E-03     240.891E-03    -45.7801E-03     61.5503E-03    -15.2531E-03     244.963E-03
             250     17.7216E-03     16.2104E-03    -1.83688E+06     167.720E+06     81.3925E+06     461.657E+03    -38.8479E-03     54.2656E-03    -15.4178E-03     243.831E-03    -45.3472E-03     61.1180E-03    -15.2513E-03     248.172E-03
             251     17.7218E-03     17.2038E-03    -1.79118E+06     168.593E+06     82.0831E+06     478.290E+03    -38.4418E-03     53.8643E-03    -15.4225E-03     246.962E-03    -45.1794E-03     60.9561E-03    -15.2540E-03     251.550E-03
             252     17.7218E-03     18.1958E-03    -1.89670E+06     169.239E+06     81.7850E+06     496.776E+03    -37.7817E-03     53.2153E-03    -15.4336E-03     249.758E-03    -44.7390E-03     60.5296E-03    -15.2674E-03     254.605E-03
             253     17.7221E-03     19.1866E-03    -2.37406E+06     169.273E+06     80.6456E+06     183.604E+03    -37.4667E-03     52.8978E-03    -15.4310E-03     253.896E-03    -44.6561E-03     60.4460E-03    -15.2698E-03     258.977E-03
             254     17.7225E-03     20.1798E-03    -2.09061E+06     170.006E+06     80.3187E+06     88.2777E+03    -35.8409E-03     51.2955E-03    -15.4546E-03     255.483E-03    -43.1730E-03     58.9908E-03    -15.2965E-03     260.867E-03
             255     17.7226E-03     21.1626E-03    -2.00874E+06     170.682E+06     80.4033E+06     151.316E+03    -34.2957E-03     49.7810E-03    -15.4854E-03     256.406E-03    -41.6993E-03     57.5503E-03    -15.3279E-03     262.040E-03
             256     17.7227E-03     22.1510E-03    -1.53362E+06     171.282E+06     80.7167E+06     779.135E+03    -33.9714E-03     49.4526E-03    -15.4812E-03     256.902E-03    -41.4136E-03     57.2635E-03    -15.3238E-03     262.627E-03
             257     17.7233E-03     23.1371E-03    -1.81475E+06     171.605E+06     82.1869E+06     498.101E+03    -32.6702E-03     48.1811E-03    -15.5109E-03     256.798E-03    -40.1853E-03     56.0606E-03    -15.3461E-03     262.722E-03
             258     17.7225E-03     24.1195E-03    -2.96738E+06     171.529E+06     83.2149E+06    -57.3168E+03    -33.8190E-03     49.3213E-03    -15.5024E-03     260.585E-03    -41.5379E-03     57.3976E-03    -15.3307E-03     266.551E-03
             259     17.7231E-03     25.1132E-03    -1.88762E+06     172.655E+06     82.2051E+06     295.864E+03    -34.1308E-03     49.6087E-03    -15.4779E-03     261.974E-03    -41.9787E-03     57.8246E-03    -15.3145E-03     268.037E-03
             260     17.7234E-03     26.0941E-03    -2.74569E+06     172.357E+06     81.2462E+06    -195.906E+03    -30.9446E-03     46.4883E-03    -15.5437E-03     261.346E-03    -38.8003E-03     54.7105E-03    -15.3834E-03     267.807E-03
             261     17.7229E-03     27.0740E-03    -1.97097E+06     173.197E+06     81.4933E+06     804.422E+03    -29.2186E-03     44.8046E-03    -15.5860E-03     260.440E-03    -37.0039E-03     52.9614E-03    -15.4268E-03     267.048E-03
             262     17.7236E-03     28.0555E-03    -983.663E+03     174.205E+06     81.8862E+06     396.296E+03    -29.5613E-03     45.1281E-03    -15.5668E-03     260.184E-03    -37.3266E-03     53.2708E-03    -15.4085E-03     266.722E-03
             263     17.7233E-03     29.0373E-03    -2.01282E+06     173.523E+06     83.2436E+06    -415.638E+03    -30.5315E-03     46.0773E-03    -15.5458E-03     259.995E-03    -38.3271E-03     54.2404E-03    -15.3783E-03     266.489E-03
             264     17.7234E-03     30.0217E-03    -2.46654E+06     173.795E+06     83.0779E+06     368.716E+03    -30.2525E-03     45.8036E-03    -15.5511E-03     259.907E-03    -38.1004E-03     54.0188E-03    -15.3842E-03     266.501E-03
             265     17.7235E-03     31.0031E-03    -2.38523E+06     174.544E+06     82.3104E+06     447.726E+03    -29.1115E-03     44.6855E-03    -15.5740E-03     261.186E-03    -37.0401E-03     52.9865E-03    -15.4120E-03     267.966E-03
             266     17.7235E-03     31.9841E-03    -2.28824E+06     175.299E+06     82.6907E+06     286.527E+03    -28.6490E-03     44.2344E-03    -15.5854E-03     261.626E-03    -36.6148E-03     52.5747E-03    -15.4229E-03     268.497E-03
             267     17.7235E-03     32.9647E-03    -2.31791E+06     175.907E+06     82.7597E+06     200.710E+03    -28.4429E-03     44.0309E-03    -15.5880E-03     261.473E-03    -36.4278E-03     52.3920E-03    -15.4259E-03     268.394E-03
             268     17.7236E-03     33.9449E-03    -2.30588E+06     176.331E+06     82.1015E+06     272.952E+03    -28.1952E-03     43.7817E-03    -15.5864E-03     261.662E-03    -36.2089E-03     52.1750E-03    -15.4283E-03     268.646E-03
             269     17.7237E-03     34.9260E-03    -2.61702E+06     176.069E+06     81.7724E+06    -243.979E+03    -27.9505E-03     43.5425E-03    -15.5920E-03     262.575E-03    -36.0165E-03     51.9871E-03    -15.4346E-03     269.618E-03
             270     17.7236E-03     35.9062E-03    -1.95066E+06     175.633E+06     82.1335E+06    -198.985E+03    -27.6182E-03     43.2206E-03    -15.6023E-03     263.096E-03    -35.7202E-03     51.7009E-03    -15.4435E-03     270.211E-03
             271     17.7237E-03     36.8848E-03    -2.14719E+06     175.285E+06     81.6265E+06    -138.396E+03    -27.4142E-03     43.0149E-03    -15.6007E-03     262.789E-03    -35.5158E-03     51.4945E-03    -15.4436E-03     269.948E-03
             272     17.7238E-03     37.8648E-03    -2.18463E+06     175.043E+06     81.1809E+06    -168.432E+03    -27.3310E-03     42.9269E-03    -15.5958E-03     262.743E-03    -35.4457E-03     51.4197E-03    -15.4406E-03     269.931E-03
             273     17.7239E-03     38.8445E-03    -1.81685E+06     175.298E+06     80.0461E+06     273.205E+03    -26.9600E-03     42.5491E-03    -15.5891E-03     263.448E-03    -35.1119E-03     51.0847E-03    -15.4405E-03     270.708E-03
             274     17.7244E-03     39.8233E-03    -2.71724E+06     174.759E+06     80.0816E+06    -276.729E+03    -26.8226E-03     42.4139E-03    -15.5913E-03     264.152E-03    -35.0150E-03     50.9848E-03    -15.4404E-03     271.449E-03
             275     17.7236E-03     40.8030E-03    -1.24785E+06     174.918E+06     76.2349E+06    -51.0104E+03    -26.5348E-03     42.0921E-03    -15.5573E-03     264.577E-03    -34.7231E-03     50.6759E-03    -15.4279E-03     271.905E-03
             276     17.7261E-03     41.7794E-03    -2.69713E+06     174.966E+06     82.0859E+06     1.43653E+06    -27.3291E-03     42.9434E-03    -15.6143E-03     263.559E-03    -35.5343E-03     51.5221E-03    -15.4537E-03     270.857E-03
             277     17.7184E-03     42.7643E-03    -12.2012E+06     167.710E+06     84.9949E+06    -2.26847E+06    -26.1106E-03     41.9254E-03    -15.8148E-03     260.315E-03    -34.2874E-03     50.4081E-03    -15.6153E-03     267.535E-03
             278     17.7215E-03     43.7305E-03     10.0766E+06     169.359E+06     56.7717E+06     2.95055E+06    -16.7334E-03     32.5188E-03    -15.7854E-03     250.638E-03    -24.1924E-03     40.4515E-03    -15.7617E-03     258.206E-03
             279     17.7283E-03     44.6803E-03     13.9701E+06     172.796E+06     62.8686E+06    -1.30131E+06    -24.0604E-03     39.5609E-03    -15.5005E-03     258.234E-03    -31.6698E-03     47.6569E-03    -15.4569E-03     265.384E-03
             280     17.7214E-03     45.7075E-03    -12.6886E+06     166.797E+06     85.6662E+06    -5.24663E+06    -38.5912E-03     53.9677E-03    -15.3765E-03     270.012E-03    -46.9631E-03     62.6458E-03    -15.1716E-03     276.063E-03
             281     17.7239E-03     46.6927E-03    -9.06794E+06     170.304E+06     79.5168E+06     3.78766E+06    -29.3069E-03     44.9221E-03    -15.6152E-03     272.845E-03    -37.9382E-03     53.8989E-03    -15.4514E-03     279.961E-03
             282     17.7232E-03     47.6443E-03    -2.16725E+06     175.579E+06     80.0471E+06     1.66983E+06    -22.7558E-03     38.4936E-03    -15.7378E-03     269.473E-03    -31.2145E-03     47.3367E-03    -15.5890E-03     277.391E-03
             283     17.7238E-03     48.6314E-03    -2.26301E+06     175.612E+06     83.1983E+06    -158.483E+03    -26.6334E-03     42.2679E-03    -15.6345E-03     262.527E-03    -34.7564E-03     50.7650E-03    -15.4699E-03     269.815E-03
             284     17.7235E-03     49.6080E-03    -2.39247E+06     175.852E+06     82.8925E+06     150.829E+03    -27.0570E-03     42.6748E-03    -15.6178E-03     263.599E-03    -35.2559E-03     51.2491E-03    -15.4548E-03     270.899E-03
             285     17.7239E-03     50.5879E-03    -2.13172E+06     176.209E+06     82.3441E+06     240.739E+03    -26.4752E-03     42.0983E-03    -15.6231E-03     263.568E-03    -34.6896E-03     50.6919E-03    -15.4638E-03     270.971E-03
             286     17.7238E-03     51.5668E-03    -2.29851E+06     176.180E+06     82.7784E+06    -86.3140E+03    -26.3517E-03     41.9823E-03    -15.6306E-03     264.832E-03    -34.6266E-03     50.6344E-03    -15.4689E-03     272.275E-03
             287     17.7238E-03     52.5452E-03    -2.13572E+06     176.351E+06     82.9003E+06     55.7049E+03    -26.2054E-03     41.8399E-03    -15.6345E-03     264.645E-03    -34.4780E-03     50.4906E-03    -15.4726E-03     272.109E-03
             288     17.7239E-03     53.5225E-03    -2.06806E+06     176.354E+06     82.7428E+06     87.5694E+03    -26.1445E-03     41.7775E-03    -15.6329E-03     264.333E-03    -34.4013E-03     50.4130E-03    -15.4719E-03     271.801E-03
             289     17.7238E-03     54.5014E-03    -2.25319E+06     176.615E+06     83.1133E+06     182.524E+03    -26.3773E-03     42.0077E-03    -15.6304E-03     264.264E-03    -34.6322E-03     50.6405E-03    -15.4677E-03     271.706E-03
             290     17.7237E-03     55.4800E-03    -2.16241E+06     176.886E+06     83.4289E+06     39.0802E+03    -26.3190E-03     41.9532E-03    -15.6342E-03     264.035E-03    -34.5668E-03     50.5793E-03    -15.4704E-03     271.478E-03
             291     17.7238E-03     56.4574E-03    -1.98994E+06     176.755E+06     83.5013E+06    -146.405E+03    -26.3229E-03     41.9548E-03    -15.6319E-03     263.435E-03    -34.5556E-03     50.5657E-03    -15.4678E-03     270.887E-03
             292     886.209E-06     57.3489E-03    -12.7571E+06    -59.3838E+06    -12.1129E+06     110.533E+03    -15.5160E-03     31.0055E-03    -15.4895E-03     3.46893E-03    -15.4760E-03     30.7449E-03    -15.4455E-03     3.46987E-03
             293     1.77240E-03     57.3534E-03    -12.1174E+06    -58.4900E+06    -10.4696E+06     102.212E+03    -15.5226E-03     31.0342E-03    -15.5115E-03     6.46287E-03    -15.4833E-03     30.7745E-03    -15.4615E-03     6.46327E-03
             294     2.65855E-03     57.3609E-03    -11.0858E+06    -59.6610E+06    -7.53880E+06     363.113E+03    -15.5319E-03     31.0610E-03    -15.5291E-03     9.70243E-03    -15.4900E-03     30.7898E-03    -15.4642E-03     9.70570E-03
             295     3.54477E-03     57.3714E-03    -9.77660E+06    -58.1090E+06    -4.87602E+06     381.712E+03    -15.5473E-03     31.0852E-03    -15.5380E-03     13.0661E-03    -15.5052E-03     30.8163E-03    -15.4639E-03     13.0691E-03
             296     4.43095E-03     57.3852E-03    -8.44514E+06    -55.6367E+06    -2.77827E+06     347.204E+03    -15.5707E-03     31.1126E-03    -15.5419E-03     16.5867E-03    -15.5287E-03     30.8512E-03    -15.4629E-03     16.5886E-03
             297     5.31715E-03     57.4023E-03    -7.34999E+06    -58.9018E+06    -611.028E+03     370.108E+03    -15.6224E-03     31.1781E-03    -15.5557E-03     20.2363E-03    -15.5737E-03     30.8960E-03    -15.4626E-03     20.2377E-03
             298     6.20332E-03     57.4228E-03    -6.31651E+06    -57.2802E+06     465.118E+03     335.705E+03    -15.6696E-03     31.2275E-03    -15.5580E-03     24.0917E-03    -15.6200E-03     30.9509E-03    -15.4634E-03     24.0919E-03
             299     7.08953E-03     57.4470E-03    -5.36022E+06    -55.0199E+06     1.59667E+06     322.726E+03    -15.7273E-03     31.2873E-03    -15.5600E-03     28.1368E-03    -15.6786E-03     31.0195E-03    -15.4644E-03     28.1357E-03
             300     7.97568E-03     57.4751E-03    -4.59521E+06    -52.6161E+06     2.47552E+06     270.077E+03    -15.7940E-03     31.3549E-03    -15.5609E-03     32.3461E-03    -15.7471E-03     31.0978E-03    -15.4656E-03     32.3427E-03
             301     8.86189E-03     57.5071E-03    -3.84489E+06    -50.2140E+06     3.57748E+06     258.262E+03    -15.8659E-03     31.4287E-03    -15.5628E-03     36.6270E-03    -15.8219E-03     31.1825E-03    -15.4666E-03     36.6213E-03
             302     9.74803E-03     57.5432E-03    -3.19689E+06    -51.3881E+06     4.15744E+06     291.228E+03    -15.9637E-03     31.5314E-03    -15.5677E-03     40.9220E-03    -15.9182E-03     31.2800E-03    -15.4678E-03     40.9136E-03
             303     10.6342E-03     57.5832E-03    -2.76329E+06    -45.8446E+06     1.40401E+06     237.036E+03    -16.0572E-03     31.6040E-03    -15.5468E-03     45.2729E-03    -16.0175E-03     31.3876E-03    -15.4693E-03     45.2597E-03
             304     11.5204E-03     57.6274E-03    -2.48017E+06    -41.4236E+06     3.05424E+06     166.409E+03    -16.1555E-03     31.7054E-03    -15.5499E-03     49.5677E-03    -16.1294E-03     31.5147E-03    -15.4710E-03     49.5482E-03
             305     12.4065E-03     57.6754E-03    -2.27985E+06    -42.5306E+06     779.511E+03     13.3050E+03    -16.3658E-03     31.9082E-03    -15.5424E-03     56.4400E-03    -16.3459E-03     31.7270E-03    -15.4735E-03     56.4115E-03
             306     13.2927E-03     57.7323E-03    -2.46103E+06    -40.3339E+06    -9.84037E+06    -156.057E+03    -16.5031E-03     31.9939E-03    -15.4907E-03     60.0480E-03    -16.4896E-03     31.8570E-03    -15.4779E-03     60.0093E-03
             307     14.1787E-03     57.7870E-03    -3.10273E+06    -22.8646E+06    -11.6628E+06    -317.723E+03    -16.5377E-03     31.9990E-03    -15.4613E-03     63.8666E-03    -16.5810E-03     31.9839E-03    -15.4819E-03     63.8210E-03
             308     15.0651E-03     57.8513E-03    -3.55324E+06     14.3634E+06    -12.3940E+06    -358.239E+03    -17.8689E-03     33.2778E-03    -15.4089E-03     95.6548E-03    -18.1504E-03     33.6336E-03    -15.4865E-03     95.6259E-03
             309     15.9507E-03     57.9654E-03    -4.10351E+06     77.8110E+06    -15.8742E+06    -184.547E+03    -21.2225E-03     36.5275E-03    -15.3050E-03     163.918E-03    -23.0191E-03     38.6318E-03    -15.4913E-03     164.446E-03
             310     16.8367E-03     58.1589E-03    -3.29467E+06     147.848E+06     33.2838E+06     32.3457E+03    -24.6369E-03     40.0773E-03    -15.4404E-03     234.918E-03    -30.3357E-03     46.1927E-03    -15.4836E-03     239.203E-03
             311     886.197E-06     58.3268E-03    -12.1400E+06    -59.5344E+06    -11.8402E+06     196.167E+03    -15.5431E-03     31.0272E-03    -15.4842E-03     3.49332E-03    -15.5001E-03     30.7646E-03    -15.4395E-03     3.49536E-03
             312     1.77234E-03     58.3313E-03    -11.6077E+06    -58.6923E+06    -9.65168E+06     187.021E+03    -15.5241E-03     31.0465E-03    -15.5224E-03     6.44504E-03    -15.4831E-03     30.7839E-03    -15.4687E-03     6.44653E-03
             313     2.65858E-03     58.3388E-03    -10.4971E+06    -59.9933E+06    -6.95589E+06     271.409E+03    -15.5355E-03     31.0719E-03    -15.5364E-03     9.69823E-03    -15.4910E-03     30.7974E-03    -15.4690E-03     9.70031E-03
             314     3.54474E-03     58.3494E-03    -9.31631E+06    -58.0850E+06    -4.86346E+06     315.648E+03    -15.5529E-03     31.0943E-03    -15.5414E-03     13.0649E-03    -15.5085E-03     30.8247E-03    -15.4680E-03     13.0670E-03
             315     4.43093E-03     58.3631E-03    -8.27932E+06    -55.7725E+06    -2.86091E+06     319.067E+03    -15.5763E-03     31.1217E-03    -15.5454E-03     16.5925E-03    -15.5332E-03     30.8595E-03    -15.4669E-03     16.5940E-03
             316     5.31713E-03     58.3802E-03    -7.12474E+06    -58.9917E+06    -555.937E+03     371.996E+03    -15.6260E-03     31.1857E-03    -15.5597E-03     20.2379E-03    -15.5761E-03     30.9027E-03    -15.4666E-03     20.2394E-03
             317     6.20332E-03     58.4007E-03    -6.11625E+06    -57.2845E+06     588.520E+03     377.342E+03    -15.6746E-03     31.2368E-03    -15.5621E-03     24.0891E-03    -15.6242E-03     30.9596E-03    -15.4673E-03     24.0898E-03
             318     7.08948E-03     58.4250E-03    -5.25700E+06    -55.0211E+06     1.68083E+06     311.686E+03    -15.7309E-03     31.2949E-03    -15.5640E-03     28.1370E-03    -15.6818E-03     31.0269E-03    -15.4682E-03     28.1357E-03
             319     7.97567E-03     58.4530E-03    -4.35911E+06    -52.5930E+06     2.63171E+06     277.970E+03    -15.7968E-03     31.3618E-03    -15.5650E-03     32.3491E-03    -15.7491E-03     31.1042E-03    -15.4692E-03     32.3458E-03
             320     8.86183E-03     58.4852E-03    -3.61263E+06    -50.2943E+06     3.72283E+06     291.956E+03    -15.8747E-03     31.4419E-03    -15.5671E-03     36.6335E-03    -15.8297E-03     31.1947E-03    -15.4703E-03     36.6282E-03
             321     9.74803E-03     58.5212E-03    -2.94095E+06    -51.4810E+06     4.25927E+06     365.850E+03    -15.9760E-03     31.5482E-03    -15.5722E-03     40.9315E-03    -15.9291E-03     31.2958E-03    -15.4720E-03     40.9241E-03
             322     10.6341E-03     58.5613E-03    -2.58570E+06    -45.8013E+06     1.61118E+06     416.505E+03    -16.0717E-03     31.6242E-03    -15.5525E-03     45.2791E-03    -16.0314E-03     31.4075E-03    -15.4742E-03     45.2682E-03
             323     11.5203E-03     58.6053E-03    -2.41124E+06    -41.3804E+06     3.24209E+06     356.437E+03    -16.1589E-03     31.7148E-03    -15.5559E-03     49.5829E-03    -16.1329E-03     31.5239E-03    -15.4762E-03     49.5659E-03
             324     12.4065E-03     58.6535E-03    -2.29206E+06    -42.2174E+06     994.736E+03     175.871E+03    -16.3722E-03     31.9204E-03    -15.5482E-03     56.4548E-03    -16.3531E-03     31.7405E-03    -15.4787E-03     56.4283E-03
             325     13.2926E-03     58.7103E-03    -2.53874E+06    -40.0604E+06    -9.62636E+06    -154.020E+03    -16.5294E-03     32.0268E-03    -15.4974E-03     60.1164E-03    -16.5171E-03     31.8911E-03    -15.4838E-03     60.0777E-03
             326     14.1786E-03     58.7654E-03    -2.80340E+06    -22.6942E+06    -11.3102E+06    -362.264E+03    -16.6153E-03     32.0863E-03    -15.4710E-03     63.8912E-03    -16.6581E-03     32.0714E-03    -15.4906E-03     63.8447E-03
             327     15.0646E-03     58.8290E-03    -3.13266E+06     14.1271E+06    -12.2373E+06    -232.205E+03    -17.8478E-03     33.2664E-03    -15.4186E-03     95.9836E-03    -18.1275E-03     33.6206E-03    -15.4957E-03     95.9566E-03
             328     15.9508E-03     58.9445E-03    -3.80753E+06     77.5021E+06    -15.9231E+06    -164.687E+03    -21.2123E-03     36.5234E-03    -15.3110E-03     164.372E-03    -23.0092E-03     38.6281E-03    -15.4975E-03     164.901E-03
             329     16.8371E-03     59.1367E-03    -3.09265E+06     147.900E+06     33.6828E+06    -174.668E+03    -24.6696E-03     40.1162E-03    -15.4467E-03     235.271E-03    -30.3805E-03     46.2436E-03    -15.4882E-03     239.565E-03
             330     886.158E-06     59.3047E-03    -12.6415E+06    -59.7092E+06    -12.3574E+06    -109.468E+03    -15.5116E-03     31.0468E-03    -15.5352E-03     3.48471E-03    -15.4702E-03     30.7847E-03    -15.4920E-03     3.48280E-03
             331     1.77238E-03     59.3092E-03    -11.8069E+06    -58.8921E+06    -10.2383E+06     177.821E+03    -15.5206E-03     31.0490E-03    -15.5284E-03     6.46270E-03    -15.4795E-03     30.7866E-03    -15.4770E-03     6.46407E-03
             332     2.65851E-03     59.3167E-03    -10.5671E+06    -59.8965E+06    -7.25489E+06    -15.1913E+03    -15.5448E-03     31.0855E-03    -15.5408E-03     9.70943E-03    -15.5004E-03     30.8120E-03    -15.4749E-03     9.70780E-03
             333     3.54473E-03     59.3273E-03    -9.08759E+06    -58.4079E+06    -5.00466E+06     93.1342E+03    -15.5598E-03     31.1069E-03    -15.5471E-03     13.0683E-03    -15.5136E-03     30.8356E-03    -15.4743E-03     13.0676E-03
             334     4.43092E-03     59.3410E-03    -7.91558E+06    -55.9372E+06    -2.86806E+06     414.474E+03    -15.5828E-03     31.1339E-03    -15.5511E-03     16.5834E-03    -15.5376E-03     30.8704E-03    -15.4729E-03     16.5862E-03
             335     5.31710E-03     59.3581E-03    -7.02933E+06    -59.0251E+06    -554.525E+03     395.926E+03    -15.6320E-03     31.1974E-03    -15.5654E-03     20.2343E-03    -15.5816E-03     30.9141E-03    -15.4724E-03     20.2361E-03
             336     6.20326E-03     59.3787E-03    -6.03498E+06    -57.3626E+06     598.498E+03     388.308E+03    -15.6769E-03     31.2447E-03    -15.5677E-03     24.0943E-03    -15.6261E-03     30.9670E-03    -15.4728E-03     24.0952E-03
             337     7.08946E-03     59.4030E-03    -5.06687E+06    -54.8778E+06     1.78447E+06     295.817E+03    -15.7304E-03     31.2993E-03    -15.5690E-03     28.1470E-03    -15.6806E-03     31.0316E-03    -15.4731E-03     28.1455E-03
             338     7.97562E-03     59.4310E-03    -4.22120E+06    -52.6514E+06     2.65297E+06     189.138E+03    -15.8011E-03     31.3705E-03    -15.5694E-03     32.3603E-03    -15.7526E-03     31.1124E-03    -15.4737E-03     32.3558E-03
             339     8.86182E-03     59.4631E-03    -3.35293E+06     -50.384E+06     3.81389E+06     256.341E+03    -15.8818E-03     31.4535E-03    -15.5717E-03     36.6431E-03    -15.8355E-03     31.2054E-03    -15.4748E-03     36.6373E-03
             340     9.74794E-03     59.4992E-03    -2.63673E+06    -51.6997E+06     4.38920E+06     402.160E+03    -15.9818E-03     31.5591E-03    -15.5772E-03     40.9432E-03    -15.9334E-03     31.3050E-03    -15.4765E-03     40.9362E-03
             341     10.6341E-03     59.5392E-03    -2.23140E+06    -45.9972E+06     1.75492E+06     665.020E+03    -16.0787E-03     31.6361E-03    -15.5574E-03     45.3077E-03    -16.0366E-03     31.4177E-03    -15.4787E-03     45.3000E-03
             342     11.5202E-03     59.5835E-03    -2.20371E+06    -41.2761E+06     3.43016E+06     755.678E+03    -16.1673E-03     31.7283E-03    -15.5609E-03     49.6057E-03    -16.1407E-03     31.5373E-03    -15.4807E-03     49.5938E-03
             343     12.4064E-03     59.6314E-03    -2.28355E+06    -41.9117E+06     1.15595E+06     515.457E+03    -16.3775E-03     31.9307E-03    -15.5532E-03     56.5079E-03    -16.3592E-03     31.7521E-03    -15.4833E-03     56.4859E-03
             344     13.2925E-03     59.6886E-03    -2.66521E+06    -39.3264E+06    -9.32910E+06    -43.7528E+03    -16.5134E-03     32.0154E-03    -15.5019E-03     60.1928E-03    -16.5032E-03     31.8831E-03    -15.4877E-03     60.1555E-03
             345     14.1786E-03     59.7433E-03    -3.05645E+06    -22.4573E+06    -11.2769E+06    -665.191E+03    -16.6258E-03     32.1003E-03    -15.4745E-03     64.1202E-03    -16.6706E-03     32.0872E-03    -15.4939E-03     64.0697E-03
             346     15.0647E-03     59.8077E-03    -3.09582E+06     13.5914E+06    -12.4145E+06    -675.627E+03    -17.7585E-03     33.1777E-03    -15.4192E-03     96.0308E-03    -18.0367E-03     33.5292E-03    -15.4965E-03     95.9990E-03
             347     15.9511E-03     59.9217E-03     -3.3284E+06     77.2074E+06    -15.7299E+06    -246.878E+03    -21.0449E-03     36.3497E-03    -15.3048E-03     164.537E-03    -22.8421E-03     38.4548E-03    -15.4906E-03     165.067E-03
             348     16.8374E-03     60.1160E-03    -2.82283E+06     148.023E+06     33.9177E+06     31.4947E+03    -24.7175E-03     40.1550E-03    -15.4375E-03     235.029E-03    -30.4098E-03     46.2644E-03    -15.4784E-03     239.308E-03
             349     886.154E-06     60.2825E-03    -11.8476E+06    -59.8083E+06    -11.2976E+06     118.241E+03    -15.5191E-03     31.0625E-03    -15.5435E-03     3.48056E-03    -15.4751E-03     30.7973E-03    -15.4961E-03     3.48158E-03
             350     1.77234E-03     60.2872E-03    -11.6254E+06    -59.0872E+06    -10.6010E+06     102.336E+03    -15.5334E-03     31.0658E-03    -15.5323E-03     6.47607E-03    -15.4905E-03     30.8026E-03    -15.4828E-03     6.47646E-03
             351     2.65856E-03     60.2946E-03    -11.2040E+06    -59.5643E+06    -8.33496E+06     46.4715E+03    -15.5486E-03     31.0913E-03    -15.5427E-03     9.70339E-03    -15.5063E-03     30.8220E-03    -15.4818E-03     9.70256E-03
             352     3.54468E-03     60.3052E-03    -10.3705E+06    -58.5517E+06    -5.84719E+06    -199.099E+03    -15.5644E-03     31.1165E-03    -15.5520E-03     13.0782E-03    -15.5232E-03     30.8475E-03    -15.4813E-03     13.0737E-03
             353     4.43086E-03     60.3190E-03    -8.91659E+06    -56.4683E+06    -3.90451E+06     85.6252E+03    -15.5845E-03     31.1398E-03    -15.5553E-03     16.5977E-03    -15.5421E-03     30.8765E-03    -15.4800E-03     16.5963E-03
             354     5.31705E-03     60.3361E-03    -7.49199E+06    -59.0000E+06    -1.15191E+06     424.199E+03    -15.6314E-03     31.2008E-03    -15.5694E-03     20.2537E-03    -15.5825E-03     30.9192E-03    -15.4788E-03     20.2559E-03
             355     6.20324E-03     60.3566E-03    -6.27936E+06    -57.2189E+06     376.256E+03     150.827E+03    -15.6782E-03     31.2506E-03    -15.5724E-03     24.1103E-03    -15.6285E-03     30.9744E-03    -15.4784E-03     24.1080E-03
             356     7.08941E-03     60.3809E-03    -5.14307E+06    -55.0112E+06     1.54510E+06     174.669E+03    -15.7356E-03     31.3090E-03    -15.5734E-03     28.1565E-03    -15.6857E-03     31.0411E-03    -15.4785E-03     28.1534E-03
             357     7.97560E-03     60.4090E-03    -4.20854E+06    -52.4189E+06     2.74645E+06     124.283E+03    -15.8062E-03     31.3810E-03    -15.5749E-03     32.3687E-03    -15.7581E-03     31.1240E-03    -15.4790E-03     32.3635E-03
             358     8.86173E-03     60.4412E-03    -3.11466E+06    -50.3810E+06     3.91855E+06    -195.713E+03    -15.8824E-03     31.4594E-03    -15.5770E-03     36.6541E-03    -15.8351E-03     31.2108E-03    -15.4798E-03     36.6424E-03
             359     9.74795E-03     60.4772E-03    -1.90747E+06     -52.355E+06     4.49993E+06     226.168E+03    -15.9814E-03     31.5634E-03    -15.5820E-03     40.9604E-03    -15.9285E-03     31.3048E-03    -15.4808E-03     40.9511E-03
             360     10.6340E-03     60.5173E-03    -1.57103E+06    -46.6710E+06     1.86579E+06     1.08682E+06    -16.0773E-03     31.6388E-03    -15.5615E-03     45.3287E-03    -16.0311E-03     31.4159E-03    -15.4822E-03     45.3265E-03
             361     11.5203E-03     60.5614E-03    -1.93182E+06    -41.3290E+06     3.66127E+06     1.54922E+06    -16.1739E-03     31.7389E-03    -15.5649E-03     49.6308E-03    -16.1462E-03     31.5469E-03    -15.4839E-03     49.6292E-03
             362     12.4063E-03     60.6096E-03    -2.25722E+06    -41.0427E+06     1.58999E+06     957.368E+03    -16.3779E-03     31.9351E-03    -15.5572E-03     56.5398E-03    -16.3613E-03     31.7602E-03    -15.4865E-03     56.5234E-03
             363     13.2925E-03     60.6665E-03    -2.41945E+06    -38.4823E+06    -8.83424E+06    -56.4563E+03    -16.4842E-03     31.9891E-03    -15.5049E-03     60.2142E-03    -16.4747E-03     31.8600E-03    -15.4897E-03     60.1768E-03
             364     14.1786E-03     60.7215E-03    -2.88512E+06    -21.8382E+06    -10.9318E+06    -802.843E+03    -16.5281E-03     32.0010E-03    -15.4730E-03     64.2379E-03    -16.5733E-03     31.9902E-03    -15.4918E-03     64.1860E-03
             365     15.0648E-03     60.7857E-03    -3.32438E+06     13.5570E+06    -12.4135E+06    -1.32001E+06    -17.7235E-03     33.1373E-03    -15.4137E-03     95.9925E-03    -18.0027E-03     33.4888E-03    -15.4906E-03     95.9526E-03
             366     15.9509E-03     60.8997E-03    -3.32089E+06     76.2302E+06    -15.9844E+06    -472.716E+03    -21.0850E-03     36.3843E-03    -15.2993E-03     164.638E-03    -22.8852E-03     38.4897E-03    -15.4849E-03     165.166E-03
             367     16.8375E-03     61.0941E-03    -2.60129E+06     147.783E+06     33.7374E+06     474.510E+03    -24.7441E-03     40.1764E-03    -15.4324E-03     235.128E-03    -30.4323E-03     46.2822E-03    -15.4742E-03     239.408E-03
             368     886.212E-06     61.2605E-03    -11.8862E+06    -59.8516E+06    -11.7791E+06     174.440E+03    -15.5416E-03     31.0687E-03    -15.5271E-03     3.47562E-03    -15.4971E-03     30.8040E-03    -15.4820E-03     3.47738E-03
             369     1.77233E-03     61.2651E-03    -11.1235E+06    -59.1867E+06    -9.74799E+06     5.22883E+03    -15.5514E-03     31.0939E-03    -15.5425E-03     6.47202E-03    -15.5071E-03     30.8283E-03    -15.4893E-03     6.47115E-03
             370     2.65846E-03     61.2726E-03    -10.0113E+06    -59.5913E+06    -7.08130E+06     148.687E+03    -15.5535E-03     31.1087E-03    -15.5551E-03     9.71058E-03    -15.5071E-03     30.8357E-03    -15.4896E-03     9.71107E-03
             371     3.54468E-03     61.2832E-03    -9.02893E+06    -58.1947E+06    -4.64420E+06     39.1233E+03    -15.5694E-03     31.1310E-03    -15.5616E-03     13.0907E-03    -15.5238E-03     30.8601E-03    -15.4873E-03     13.0893E-03
             372     4.43086E-03     61.2969E-03    -8.54453E+06    -57.1288E+06    -3.16522E+06     122.060E+03    -15.5940E-03     31.1589E-03    -15.5649E-03     16.6052E-03    -15.5498E-03     30.8907E-03    -15.4855E-03     16.6042E-03
             373     5.31704E-03     61.3140E-03    -7.71254E+06    -58.9207E+06    -1.78418E+06     190.670E+03    -15.6361E-03     31.2082E-03    -15.5721E-03     20.2679E-03    -15.5875E-03     30.9282E-03    -15.4844E-03     20.2670E-03
             374     6.20320E-03     61.3346E-03    -6.70522E+06    -56.9874E+06    -151.015E+03     91.4213E+03    -15.6848E-03     31.2606E-03    -15.5758E-03     24.1184E-03    -15.6367E-03     30.9869E-03    -15.4842E-03     24.1154E-03
             375     7.08938E-03     61.3589E-03    -5.66671E+06    -54.9772E+06     1.27558E+06    -194.923E+03    -15.7415E-03     31.3204E-03    -15.5789E-03     28.1669E-03    -15.6939E-03     31.0538E-03    -15.4845E-03     28.1591E-03
             376     7.97551E-03     61.3870E-03    -4.22878E+06    -52.2040E+06     2.24111E+06    -374.484E+03    -15.8034E-03     31.3811E-03    -15.5777E-03     32.3935E-03    -15.7550E-03     31.1259E-03    -15.4847E-03     32.3818E-03
             377     8.86173E-03     61.4191E-03    -3.27333E+06    -50.2073E+06     3.66081E+06    -383.087E+03    -15.8779E-03     31.4583E-03    -15.5804E-03     36.6756E-03    -15.8312E-03     31.2112E-03    -15.4846E-03     36.6616E-03
             378     9.74785E-03     61.4552E-03    -2.73775E+06    -53.2435E+06     3.99062E+06    -132.373E+03    -15.9782E-03     31.5643E-03    -15.5860E-03     40.9747E-03    -15.9274E-03     31.3031E-03    -15.4849E-03     40.9608E-03
             379     10.6341E-03     61.4953E-03    -1.95756E+06    -48.2052E+06     1.48382E+06     1.12447E+06    -16.0757E-03     31.6416E-03    -15.5659E-03     45.3399E-03    -16.0286E-03     31.4121E-03    -15.4857E-03     45.3382E-03
             380     11.5202E-03     61.5395E-03    -1.28432E+06    -41.4808E+06     4.00153E+06     1.95948E+06    -16.1704E-03     31.7392E-03    -15.5688E-03     49.6562E-03    -16.1396E-03     31.5450E-03    -15.4868E-03     49.6599E-03
             381     12.4064E-03     61.5876E-03    -1.14160E+06    -40.0246E+06     2.42002E+06     1.60432E+06    -16.3735E-03     31.9339E-03    -15.5604E-03     56.5495E-03    -16.3540E-03     31.7613E-03    -15.4886E-03     56.5414E-03
             382     13.2924E-03     61.6446E-03    -1.82084E+06    -36.8571E+06    -8.00807E+06     125.776E+03    -16.4782E-03     31.9855E-03    -15.5074E-03     60.1928E-03    -16.4693E-03     31.8625E-03    -15.4913E-03     60.1577E-03
             383     14.1787E-03     61.6994E-03    -2.04599E+06    -21.1736E+06    -10.2473E+06    -1.24723E+06    -16.4629E-03     31.9365E-03    -15.4736E-03     64.1103E-03    -16.5057E-03     31.9266E-03    -15.4912E-03     64.0530E-03
             384     15.0650E-03     61.7638E-03    -2.53745E+06     13.2519E+06    -11.9683E+06    -939.769E+03    -17.6707E-03     33.0818E-03    -15.4111E-03     95.9456E-03    -17.9459E-03     33.4297E-03    -15.4865E-03     95.9107E-03
             385     15.9513E-03     61.8779E-03    -4.27614E+06     75.2698E+06    -16.3891E+06    -437.917E+03    -21.1551E-03     36.4517E-03    -15.2966E-03     164.632E-03    -22.9583E-03     38.5545E-03    -15.4815E-03     165.160E-03
             386     16.8374E-03     62.0722E-03    -3.80190E+06     147.283E+06     32.8334E+06    -25.6291E+03    -24.7796E-03     40.2095E-03    -15.4299E-03     235.211E-03    -30.4792E-03     46.3233E-03    -15.4738E-03     239.490E-03
             387     886.126E-06     62.2385E-03    -13.6242E+06    -59.6571E+06    -13.4771E+06    -390.324E+03    -15.5387E-03     31.0775E-03    -15.5388E-03     3.51248E-03    -15.5006E-03     30.8188E-03    -15.5000E-03     3.50694E-03
             388     1.77232E-03     62.2430E-03    -12.8682E+06    -59.1362E+06    -10.9031E+06    -203.856E+03    -15.5401E-03     31.0870E-03    -15.5470E-03     6.47503E-03    -15.5029E-03     30.8259E-03    -15.4971E-03     6.47146E-03
             389     2.65851E-03     62.2505E-03    -11.2186E+06    -59.2871E+06    -7.82852E+06    -581.436E+03    -15.5572E-03     31.1153E-03    -15.5581E-03     9.72964E-03    -15.5161E-03     30.8466E-03    -15.4950E-03     9.72070E-03
             390     3.54465E-03     62.2611E-03    -9.18930E+06     -58.571E+06    -5.15721E+06    -276.655E+03    -15.5766E-03     31.1424E-03    -15.5658E-03     13.0901E-03    -15.5305E-03     30.8707E-03    -15.4934E-03     13.0845E-03
             391     4.43083E-03     62.2749E-03    -7.63202E+06    -57.6914E+06    -2.43522E+06     485.282E+03    -15.6049E-03     31.1791E-03    -15.5742E-03     16.5907E-03    -15.5564E-03     30.9058E-03    -15.4917E-03     16.5944E-03
             392     5.31698E-03     62.2920E-03    -6.87216E+06    -58.5064E+06    -878.984E+03     385.879E+03    -15.6490E-03     31.2304E-03    -15.5814E-03     20.2598E-03    -15.5981E-03     30.9500E-03    -15.4910E-03     20.2615E-03
             393     6.20317E-03     62.3126E-03    -6.02281E+06    -56.8803E+06    -195.052E+03    -26.1225E+03    -15.6897E-03     31.2707E-03    -15.5810E-03     24.1278E-03    -15.6383E-03     30.9965E-03    -15.4908E-03     24.1233E-03
             394     7.08931E-03     62.3369E-03    -4.95597E+06    -54.2550E+06     1.21919E+06    -472.750E+03    -15.7382E-03     31.3202E-03    -15.5820E-03     28.1921E-03    -15.6880E-03     31.0562E-03    -15.4900E-03     28.1807E-03
             395     7.97552E-03     62.3650E-03    -4.29611E+06    -52.3416E+06     1.83928E+06    -719.599E+03    -15.8008E-03     31.3811E-03    -15.5803E-03     32.4196E-03    -15.7519E-03     31.1259E-03    -15.4890E-03     32.4035E-03
             396     8.86166E-03     62.3971E-03    -3.94832E+06    -50.7263E+06     3.03940E+06     6.10314E+03    -15.8774E-03     31.4602E-03    -15.5828E-03     36.6943E-03    -15.8325E-03     31.2123E-03    -15.4883E-03     36.6853E-03
             397     9.74789E-03     62.4332E-03    -3.83896E+06    -53.1761E+06     3.88042E+06     190.346E+03    -15.9792E-03     31.5699E-03    -15.5907E-03     40.9761E-03    -15.9339E-03     31.3109E-03    -15.4886E-03     40.9664E-03
             398     10.6339E-03     62.4733E-03    -3.18368E+06    -49.6784E+06    -182.843E+03     151.477E+03    -16.0729E-03     31.6380E-03    -15.5651E-03     45.3652E-03    -16.0274E-03     31.4053E-03    -15.4893E-03     45.3509E-03
             399     11.5202E-03     62.5175E-03    -1.63133E+06    -42.2406E+06     2.26979E+06     1.09131E+06    -16.1588E-03     31.7233E-03    -15.5645E-03     49.7178E-03    -16.1262E-03     31.5283E-03    -15.4895E-03     49.7103E-03
             400     12.4063E-03     62.5657E-03     162.855E+03    -39.1487E+06     2.60183E+06     1.01524E+06    -16.3703E-03     31.9301E-03    -15.5598E-03     56.5872E-03    -16.3458E-03     31.7597E-03    -15.4903E-03     56.5716E-03
             401     13.2925E-03     62.6226E-03     1.07062E+06    -35.5964E+06    -6.77603E+06     426.560E+03    -16.4954E-03     32.0044E-03    -15.5089E-03     60.1863E-03    -16.4757E-03     31.8817E-03    -15.4928E-03     60.1551E-03
             402     14.1785E-03     62.6776E-03    -1.33847E+06    -20.6715E+06    -9.44551E+06     396.046E+03    -16.5009E-03     31.9795E-03    -15.4787E-03     63.9561E-03    -16.5419E-03     31.9698E-03    -15.4940E-03     63.9198E-03
             403     15.0648E-03     62.7414E-03    -3.90596E+06     13.4933E+06    -11.9358E+06    -324.728E+03    -17.7274E-03     33.1461E-03    -15.4187E-03     95.8543E-03    -18.0103E-03     33.4976E-03    -15.4923E-03     95.8269E-03
             404     15.9511E-03     62.8563E-03    -3.84184E+06     74.7754E+06    -15.9906E+06    -497.688E+03    -21.1878E-03     36.4952E-03    -15.3074E-03     164.426E-03    -22.9863E-03     38.5919E-03    -15.4902E-03     164.951E-03
             405     16.8373E-03     63.0504E-03    -3.03129E+06     146.655E+06     32.8546E+06    -12.1371E+03    -24.6569E-03     40.0940E-03    -15.4371E-03     234.915E-03    -30.3510E-03     46.2027E-03    -15.4811E-03     239.206E-03
             406     886.155E-06     63.2164E-03    -12.8301E+06    -59.5866E+06    -11.8349E+06    -216.637E+03    -15.5507E-03     31.0991E-03    -15.5484E-03     3.49915E-03    -15.5111E-03     30.8371E-03    -15.5026E-03     3.49585E-03
             407     1.77232E-03     63.2210E-03    -12.3557E+06    -58.8355E+06    -10.6429E+06    -55.9121E+03    -15.5481E-03     31.1017E-03    -15.5536E-03     6.48453E-03    -15.5092E-03     30.8409E-03    -15.5036E-03     6.48287E-03
             408     2.65846E-03     63.2285E-03    -12.0121E+06    -58.3731E+06    -8.74559E+06    -656.233E+03    -15.5650E-03     31.1256E-03    -15.5605E-03     9.71719E-03    -15.5279E-03     30.8640E-03    -15.5022E-03     9.70729E-03
             409     3.54462E-03     63.2391E-03    -11.3458E+06    -59.1521E+06    -6.73263E+06    -798.735E+03    -15.5773E-03     31.1472E-03    -15.5700E-03     13.0865E-03    -15.5388E-03     30.8780E-03    -15.5014E-03     13.0742E-03
             410     4.43078E-03     63.2528E-03    -9.84192E+06    -58.6347E+06    -4.74134E+06    -91.9847E+03    -15.6003E-03     31.1750E-03    -15.5747E-03     16.6138E-03    -15.5581E-03     30.9035E-03    -15.4992E-03     16.6100E-03
             411     5.31697E-03     63.2700E-03    -7.83877E+06    -57.7923E+06    -2.14138E+06     68.2626E+03    -15.6428E-03     31.2244E-03    -15.5816E-03     20.2915E-03    -15.5959E-03     30.9507E-03    -15.4972E-03     20.2891E-03
             412     6.20309E-03     63.2906E-03    -6.07105E+06    -56.3285E+06    -968.726E+03    -677.837E+03    -15.6826E-03     31.2636E-03    -15.5810E-03     24.1561E-03    -15.6311E-03     30.9934E-03    -15.4954E-03     24.1432E-03
             413     7.08933E-03     63.3149E-03    -5.16751E+06    -54.4805E+06     256.907E+03    -378.118E+03    -15.7305E-03     31.3113E-03    -15.5808E-03     28.2276E-03    -15.6796E-03     31.0479E-03    -15.4930E-03     28.2175E-03
             414     7.97546E-03     63.3430E-03    -5.18769E+06    -52.2109E+06     2.04880E+06     53.4033E+03    -15.8016E-03     31.3865E-03    -15.5849E-03     32.4322E-03    -15.7577E-03     31.1329E-03    -15.4914E-03     32.4260E-03
             415     8.86168E-03     63.3751E-03    -4.96548E+06    -51.7386E+06     2.91107E+06     205.908E+03    -15.8800E-03     31.4678E-03    -15.5878E-03     36.7111E-03    -15.8385E-03     31.2165E-03    -15.4910E-03     36.7047E-03
             416     9.74777E-03     63.4113E-03    -3.55831E+06    -52.0543E+06     3.85713E+06    -117.030E+03    -15.9748E-03     31.5658E-03    -15.5910E-03     41.0164E-03    -15.9296E-03     31.3120E-03    -15.4911E-03     41.0027E-03
             417     10.6340E-03     63.4513E-03    -2.17199E+06    -50.1091E+06     103.117E+03    -712.190E+03    -16.0704E-03     31.6379E-03    -15.5674E-03     45.3860E-03    -16.0197E-03     31.4012E-03    -15.4911E-03     45.3605E-03
             418     11.5201E-03     63.4955E-03    -1.49171E+06    -43.7661E+06     724.551E+03     48.2752E+03    -16.1462E-03     31.7056E-03    -15.5593E-03     49.8132E-03    -16.1084E-03     31.5050E-03    -15.4901E-03     49.7924E-03
             419     12.4064E-03     63.5438E-03    -900.101E+03    -37.5780E+06     1.72476E+06    -188.081E+03    -16.3572E-03     31.9114E-03    -15.5542E-03     56.7169E-03    -16.3390E-03     31.7516E-03    -15.4897E-03     56.6858E-03
             420     13.2924E-03     63.6008E-03    -1.37175E+06    -37.4833E+06    -7.38006E+06     601.978E+03    -16.4866E-03     31.9979E-03    -15.5113E-03     60.2277E-03    -16.4754E-03     31.8701E-03    -15.4919E-03     60.1988E-03
             421     14.1787E-03     63.6556E-03    -2.22367E+06    -20.8442E+06    -8.83427E+06     2.57368E+06    -16.5679E-03     32.0523E-03    -15.4844E-03     64.0147E-03    -16.6142E-03     32.0424E-03    -15.4952E-03     64.0062E-03
             422     15.0647E-03     63.7196E-03    -3.49198E+06     16.7257E+06    -10.1856E+06     740.173E+03    -17.8588E-03     33.2877E-03    -15.4289E-03     96.0801E-03    -18.1484E-03     33.6539E-03    -15.4991E-03     96.0657E-03
             423     15.9505E-03     63.8345E-03    -5.12608E+06     74.0994E+06    -15.9817E+06    -1.33061E+06    -21.1604E-03     36.4795E-03    -15.3191E-03     164.754E-03    -22.9687E-03     38.5790E-03    -15.4990E-03     165.274E-03
             424     16.8368E-03     64.0284E-03    -3.42937E+06     145.588E+06     32.0810E+06    -559.336E+03    -24.4719E-03     39.9090E-03    -15.4371E-03     235.154E-03    -30.1679E-03     46.0167E-03    -15.4829E-03     239.451E-03
             425     886.152E-06     64.1944E-03    -10.5466E+06    -59.7407E+06    -9.89632E+06     322.538E+03    -15.5692E-03     31.1322E-03    -15.5630E-03     3.44041E-03    -15.5208E-03     30.8633E-03    -15.5105E-03     3.44409E-03
             426     1.77230E-03     64.1990E-03    -9.98912E+06    -58.7962E+06    -8.80748E+06     152.592E+03    -15.5656E-03     31.1336E-03    -15.5680E-03     6.48295E-03    -15.5176E-03     30.8670E-03    -15.5123E-03     6.48397E-03
             427     2.65844E-03     64.2065E-03    -9.61008E+06    -57.8560E+06    -6.62468E+06     261.688E+03    -15.5705E-03     31.1444E-03    -15.5739E-03     9.72720E-03    -15.5252E-03     30.8789E-03    -15.5092E-03     9.72914E-03
             428     3.54460E-03     64.2170E-03    -9.54447E+06    -59.0460E+06    -4.36925E+06     51.9408E+03    -15.5885E-03     31.1730E-03    -15.5844E-03     13.0932E-03    -15.5446E-03     30.8982E-03    -15.5068E-03     13.0918E-03
             429     4.43077E-03     64.2308E-03    -9.22303E+06    -58.8619E+06    -4.13801E+06    -376.191E+03    -15.6076E-03     31.1902E-03    -15.5826E-03     16.6269E-03    -15.5629E-03     30.9158E-03    -15.5045E-03     16.6195E-03
             430     5.31692E-03     64.2479E-03    -8.00097E+06    -56.8641E+06    -3.69304E+06    -1.12399E+06    -15.6285E-03     31.2050E-03    -15.5765E-03     20.3236E-03    -15.5815E-03     30.9385E-03    -15.5010E-03     20.3058E-03
             431     6.20316E-03     64.2686E-03    -6.64032E+06    -56.0316E+06    -1.20632E+06    -1.24477E+06    -15.6785E-03     31.2608E-03    -15.5822E-03     24.1719E-03    -15.6300E-03     30.9933E-03    -15.4974E-03     24.1517E-03
             432     7.08927E-03     64.2928E-03    -5.74540E+06    -56.0162E+06     812.325E+03    -197.183E+03    -15.7382E-03     31.3271E-03    -15.5889E-03     28.2152E-03    -15.6888E-03     31.0561E-03    -15.4952E-03     28.2073E-03
             433     7.97551E-03     64.3210E-03    -4.86191E+06    -52.0741E+06     2.26382E+06     624.696E+03    -15.8017E-03     31.3894E-03    -15.5878E-03     32.4419E-03    -15.7567E-03     31.1357E-03    -15.4939E-03     32.4431E-03
             434     8.86160E-03     64.3531E-03    -3.80843E+06    -51.4711E+06     3.96233E+06     51.2400E+03    -15.8805E-03     31.4735E-03    -15.5930E-03     36.7029E-03    -15.8351E-03     31.2204E-03    -15.4930E-03     36.6945E-03
             435     9.74786E-03     64.3892E-03    -2.76148E+06    -50.8481E+06     4.47412E+06    -984.355E+03    -15.9687E-03     31.5613E-03    -15.5925E-03     41.0579E-03    -15.9222E-03     31.3115E-03    -15.4924E-03     41.0331E-03
             436     10.6339E-03     64.4294E-03    -2.21243E+06    -50.6031E+06     2.14814E+06    -921.616E+03    -16.0664E-03     31.6457E-03    -15.5793E-03     45.3370E-03    -16.0181E-03     31.4037E-03    -15.4920E-03     45.3088E-03
             437     11.5202E-03     64.4734E-03    -1.52703E+06    -44.3002E+06     2.11148E+06    -688.617E+03    -16.1434E-03     31.7112E-03    -15.5678E-03     49.7981E-03    -16.1070E-03     31.5060E-03    -15.4908E-03     49.7678E-03
             438     12.4064E-03     64.5219E-03    -1.09655E+06    -37.4246E+06     2.10030E+06    -109.336E+03    -16.3302E-03     31.8861E-03    -15.5559E-03     56.7160E-03    -16.3137E-03     31.7268E-03    -15.4895E-03     56.6860E-03
             439     13.2926E-03     64.5788E-03    -1.37595E+06    -39.8376E+06    -6.91338E+06     1.16478E+06    -16.4715E-03     31.9870E-03    -15.5155E-03     60.1622E-03    -16.4576E-03     31.8468E-03    -15.4903E-03     60.1406E-03
             440     14.1786E-03     64.6336E-03    -770.297E+03    -21.1759E+06    -8.65590E+06     1.41937E+06    -16.5941E-03     32.0762E-03    -15.4821E-03     64.1883E-03    -16.6332E-03     32.0625E-03    -15.4936E-03     64.1648E-03
             441     15.0647E-03     64.6981E-03    -107.167E+03     18.6644E+06    -7.51422E+06     1.72632E+06    -17.8059E-03     33.2374E-03    -15.4315E-03     96.2343E-03    -18.0856E-03     33.6048E-03    -15.4960E-03     96.2332E-03
             442     15.9510E-03     64.8126E-03    -1.56983E+06     75.9697E+06    -12.9949E+06     861.817E+03    -20.9399E-03     36.2545E-03    -15.3146E-03     164.897E-03    -22.7363E-03     38.3527E-03    -15.4874E-03     165.452E-03
             443     16.8377E-03     65.0064E-03    -3.12926E+06     145.052E+06     33.1353E+06    -646.884E+03    -24.5871E-03     40.0144E-03    -15.4273E-03     235.445E-03    -30.2922E-03     46.1272E-03    -15.4674E-03     239.731E-03
             444     886.118E-06     65.1724E-03    -11.6284E+06    -59.8132E+06    -11.5131E+06     116.544E+03    -15.5815E-03     31.1374E-03    -15.5558E-03     3.49118E-03    -15.5361E-03     30.8721E-03    -15.5098E-03     3.49218E-03
             445     1.77226E-03     65.1770E-03    -10.7739E+06    -58.9296E+06    -9.28161E+06    -24.3502E+03    -15.5649E-03     31.1382E-03    -15.5733E-03     6.48500E-03    -15.5200E-03     30.8727E-03    -15.5186E-03     6.48375E-03
             446     2.65846E-03     65.1845E-03    -9.48188E+06    -58.3848E+06    -6.18620E+06     448.784E+03    -15.5673E-03     31.1480E-03    -15.5807E-03     9.72638E-03    -15.5212E-03     30.8789E-03    -15.5132E-03     9.73073E-03
             447     3.54461E-03     65.1951E-03    -8.02062E+06    -58.8902E+06    -2.92451E+06     728.880E+03    -15.5991E-03     31.1912E-03    -15.5922E-03     13.0861E-03    -15.5499E-03     30.9130E-03    -15.5098E-03     13.0935E-03
             448     4.43074E-03     65.2088E-03    -6.46906E+06    -57.3389E+06    -1.14533E+06    -434.552E+03    -15.6202E-03     31.2149E-03    -15.5948E-03     16.6130E-03    -15.5682E-03     30.9398E-03    -15.5080E-03     16.6048E-03
             449     5.31694E-03     65.2259E-03    -5.60344E+06    -56.2841E+06     -809.83E+03    -1.29198E+06    -15.6423E-03     31.2328E-03    -15.5905E-03     20.3000E-03    -15.5884E-03     30.9616E-03    -15.5049E-03     20.2800E-03
             450     6.20309E-03     65.2465E-03    -5.58362E+06    -56.5579E+06     488.329E+03    -803.302E+03    -15.6898E-03     31.2841E-03    -15.5943E-03     24.1540E-03    -15.6377E-03     31.0100E-03    -15.5018E-03     24.1394E-03
             451     7.08928E-03     65.2709E-03    -4.95417E+06    -56.8784E+06     2.08759E+06    -393.590E+03    -15.7559E-03     31.3565E-03    -15.6006E-03     28.1817E-03    -15.7031E-03     31.0782E-03    -15.5005E-03     28.1713E-03
             452     7.97539E-03     65.2989E-03    -3.49133E+06    -52.6296E+06     2.58403E+06     35.3602E+03    -15.8092E-03     31.4029E-03    -15.5938E-03     32.4238E-03    -15.7570E-03     31.1440E-03    -15.4995E-03     32.4174E-03
             453     8.86166E-03     65.3312E-03    -2.15427E+06    -50.0229E+06     4.93041E+06    -273.159E+03    -15.8904E-03     31.4891E-03    -15.5987E-03     36.6551E-03    -15.8403E-03     31.2395E-03    -15.4984E-03     36.6424E-03
             454     9.74774E-03     65.3671E-03    -2.04765E+06    -51.0672E+06     5.90726E+06    -275.188E+03    -15.9810E-03     31.5857E-03    -15.6047E-03     40.9460E-03    -15.9327E-03     31.3317E-03    -15.4981E-03     40.9302E-03
             455     10.6340E-03     65.4075E-03    -2.72439E+06    -50.2595E+06     3.08949E+06    -251.168E+03    -16.0784E-03     31.6692E-03    -15.5908E-03     45.2139E-03    -16.0346E-03     31.4283E-03    -15.4985E-03     45.1942E-03
             456     11.5200E-03     65.4513E-03    -2.52166E+06    -43.4133E+06     1.99977E+06    -1.55381E+06    -16.1503E-03     31.7251E-03    -15.5749E-03     49.6659E-03    -16.1200E-03     31.5260E-03    -15.4983E-03     49.6242E-03
             457     12.4063E-03     65.5001E-03    -1.38285E+06    -39.9436E+06     738.303E+03    -497.013E+03    -16.3024E-03     31.8620E-03    -15.5597E-03     56.6296E-03    -16.2817E-03     31.6925E-03    -15.4960E-03     56.5946E-03
             458     13.2924E-03     65.5567E-03    -724.167E+03    -40.3385E+06    -6.84996E+06     921.193E+03    -16.4473E-03     31.9672E-03    -15.5198E-03     60.0802E-03    -16.4296E-03     31.8235E-03    -15.4945E-03     60.0553E-03
             459     14.1787E-03     65.6119E-03    -759.136E+03    -20.4159E+06    -8.46366E+06     83.2734E+03    -16.5270E-03     32.0102E-03    -15.4831E-03     64.2101E-03    -16.5676E-03     32.0001E-03    -15.4948E-03     64.1695E-03
             460     15.0648E-03     65.6761E-03    -401.227E+03     16.4628E+06    -7.26021E+06     756.658E+03    -17.5937E-03     33.0234E-03    -15.4297E-03     96.0744E-03    -17.8702E-03     33.3780E-03    -15.4893E-03     96.0622E-03
             461     15.9512E-03     65.7905E-03    -628.247E+03     77.1248E+06    -11.1183E+06     2.76762E+06    -20.9165E-03     36.2255E-03    -15.3090E-03     164.444E-03    -22.7081E-03     38.3210E-03    -15.4755E-03     165.018E-03
             462     16.8382E-03     65.9838E-03    -892.449E+03     147.308E+06     31.3565E+06     1.79545E+06    -24.5509E-03     39.9505E-03    -15.3996E-03     235.371E-03    -30.2422E-03     46.0706E-03    -15.4551E-03     239.690E-03
             463     886.174E-06     66.1505E-03    -14.3113E+06    -59.4408E+06    -13.8303E+06    -440.034E+03    -15.5647E-03     31.1150E-03    -15.5503E-03     3.49526E-03    -15.5298E-03     30.8588E-03    -15.5126E-03     3.48908E-03
             464     1.77229E-03     66.1549E-03    -13.1668E+06    -58.8154E+06    -11.1484E+06    -457.997E+03    -15.5648E-03     31.1325E-03    -15.5677E-03     6.47985E-03    -15.5292E-03     30.8737E-03    -15.5190E-03     6.47300E-03
             465     2.65841E-03     66.1625E-03    -11.6303E+06    -59.3393E+06    -7.85883E+06    -3.28426E+03    -15.5741E-03     31.1551E-03    -15.5811E-03     9.73439E-03    -15.5349E-03     30.8869E-03    -15.5175E-03     9.73292E-03
             466     3.54457E-03     66.1731E-03    -9.49805E+06    -58.4015E+06    -4.55508E+06    -118.452E+03    -15.5908E-03     31.1812E-03    -15.5903E-03     13.1040E-03    -15.5474E-03     30.9098E-03    -15.5146E-03     13.1005E-03
             467     4.43075E-03     66.1868E-03    -7.39477E+06    -55.6043E+06    -1.15402E+06    -1.00629E+06    -15.6191E-03     31.2168E-03    -15.5977E-03     16.6121E-03    -15.5743E-03     30.9517E-03    -15.5121E-03     16.5965E-03
             468     5.31688E-03     66.2039E-03    -6.19372E+06    -56.8956E+06     850.898E+03    -722.504E+03    -15.6641E-03     31.2708E-03    -15.6066E-03     20.2728E-03    -15.6147E-03     30.9949E-03    -15.5109E-03     20.2601E-03
             469     6.20304E-03     66.2245E-03    -5.51946E+06    -56.9191E+06     954.201E+03    -80.7070E+03    -15.7079E-03     31.3134E-03    -15.6055E-03     24.1338E-03    -15.6556E-03     31.0367E-03    -15.5102E-03     24.1286E-03
             470     7.08920E-03     66.2488E-03    -4.88594E+06    -56.3620E+06     1.95528E+06    -528.028E+03    -15.7718E-03     31.3804E-03    -15.6086E-03     28.1702E-03    -15.7193E-03     31.1048E-03    -15.5101E-03     28.1580E-03
             471     7.97536E-03     66.2770E-03    -4.00267E+06    -53.3097E+06     2.52217E+06    -700.775E+03    -15.8409E-03     31.4474E-03    -15.6065E-03     32.3673E-03    -15.7902E-03     31.1859E-03    -15.5107E-03     32.3513E-03
             472     8.86148E-03     66.3091E-03    -3.28988E+06    -49.4242E+06     4.08248E+06    -312.157E+03    -15.9184E-03     31.5272E-03    -15.6088E-03     36.6095E-03    -15.8737E-03     31.2835E-03    -15.5120E-03     36.5962E-03
             473     9.74763E-03     66.3454E-03    -2.74195E+06    -52.4347E+06     5.01309E+06     515.669E+03    -16.0283E-03     31.6477E-03    -15.6194E-03     40.7896E-03    -15.9803E-03     31.3892E-03    -15.5143E-03     40.7838E-03
             474     10.6337E-03     66.3853E-03    -2.05393E+06    -48.6479E+06     2.67891E+06     228.636E+03    -16.1310E-03     31.7357E-03    -15.6047E-03     45.0659E-03    -16.0857E-03     31.5026E-03    -15.5177E-03     45.0523E-03
             475     11.5199E-03     66.4297E-03    -2.29095E+06    -41.9068E+06     1.90331E+06    -1.13907E+06    -16.2337E-03     31.8289E-03    -15.5952E-03     49.3547E-03    -16.2045E-03     31.6373E-03    -15.5216E-03     49.3179E-03
             476     12.4061E-03     66.4775E-03    -3.16672E+06    -42.8118E+06    -1.78352E+06    -811.180E+03    -16.3760E-03     31.9580E-03    -15.5820E-03     56.0955E-03    -16.3567E-03     31.7807E-03    -15.5243E-03     56.0559E-03
             477     13.2924E-03     66.5351E-03    -3.65716E+06    -40.3913E+06    -9.76397E+06     404.309E+03    -16.5143E-03     32.0564E-03    -15.5421E-03     59.5246E-03    -16.5073E-03     31.9214E-03    -15.5271E-03     59.4924E-03
             478     14.1784E-03     66.5895E-03    -4.63931E+06    -19.4157E+06    -11.0783E+06     266.297E+03    -16.6192E-03     32.1315E-03    -15.5123E-03     63.1570E-03    -16.6773E-03     32.1363E-03    -15.5328E-03     63.1178E-03
             479     15.0648E-03     66.6545E-03    -6.97058E+06     14.0957E+06    -13.6658E+06     634.293E+03    -17.7516E-03     33.2106E-03    -15.4590E-03     94.1092E-03    -18.0494E-03     33.5733E-03    -15.5377E-03     94.0921E-03
             480     15.9516E-03     66.7675E-03    -6.35710E+06     76.1412E+06    -17.2938E+06     203.748E+03    -20.5029E-03     35.8384E-03    -15.3355E-03     162.432E-03    -22.3082E-03     37.9416E-03    -15.5232E-03     162.968E-03
             481     16.8365E-03     66.9635E-03    -3.52188E+06     149.656E+06     32.4013E+06     436.241E+03    -24.4970E-03     39.9431E-03    -15.4461E-03     234.500E-03    -30.2225E-03     46.0934E-03    -15.4960E-03     238.780E-03
             482     886.096E-06     67.1284E-03    -14.0387E+06    -58.6136E+06    -13.5645E+06    -548.062E+03    -15.5665E-03     31.1213E-03    -15.5548E-03     3.49982E-03    -15.5319E-03     30.8685E-03    -15.5173E-03     3.49224E-03
             483     1.77228E-03     67.1330E-03    -13.5724E+06    -58.6315E+06    -11.4705E+06    -516.287E+03    -15.5687E-03     31.1390E-03    -15.5703E-03     6.48243E-03    -15.5350E-03     30.8822E-03    -15.5229E-03     6.47482E-03
             484     2.65842E-03     67.1405E-03    -12.2416E+06    -59.5600E+06    -8.38649E+06    -534.370E+03    -15.5842E-03     31.1693E-03    -15.5851E-03     9.72819E-03    -15.5471E-03     30.9016E-03    -15.5229E-03     9.71985E-03
             485     3.54456E-03     67.1511E-03    -10.5162E+06    -57.3559E+06    -5.57416E+06    -1.03960E+06    -15.5920E-03     31.1838E-03    -15.5917E-03     13.1178E-03    -15.5537E-03     30.9206E-03    -15.5212E-03     13.1024E-03
             486     4.43071E-03     67.1648E-03    -9.19991E+06    -55.1017E+06    -2.71851E+06    -1.20725E+06    -15.6228E-03     31.2215E-03    -15.5987E-03     16.6209E-03    -15.5854E-03     30.9638E-03    -15.5191E-03     16.6027E-03
             487     5.31686E-03     67.1820E-03    -7.87728E+06    -57.8684E+06    -27.6764E+03    -624.216E+03    -15.6827E-03     31.2975E-03    -15.6148E-03     20.2610E-03    -15.6390E-03     31.0205E-03    -15.5196E-03     20.2496E-03
             488     6.20297E-03     67.2025E-03    -6.43563E+06    -57.0941E+06     826.336E+03    -119.969E+03    -15.7366E-03     31.3547E-03    -15.6180E-03     24.1114E-03    -15.6885E-03     31.0786E-03    -15.5218E-03     24.1057E-03
             489     7.08911E-03     67.2269E-03    -5.50292E+06    -55.5476E+06     1.55371E+06    -225.861E+03    -15.8003E-03     31.4208E-03    -15.6206E-03     28.1528E-03    -15.7514E-03     31.1508E-03    -15.5243E-03     28.1445E-03
             490     7.97520E-03     67.2551E-03    -5.17712E+06    -53.3445E+06     1.58147E+06    -593.611E+03    -15.8846E-03     31.5052E-03    -15.6206E-03     32.3401E-03    -15.8384E-03     31.2466E-03    -15.5278E-03     32.3254E-03
             491     8.86129E-03     67.2873E-03    -4.81306E+06    -50.1812E+06     1.81994E+06    -146.413E+03    -15.9753E-03     31.5969E-03    -15.6216E-03     36.5913E-03    -15.9338E-03     31.3549E-03    -15.5328E-03     36.5801E-03
             492     9.74738E-03     67.3234E-03    -3.85643E+06    -52.8250E+06     2.69011E+06     84.6102E+03    -16.1183E-03     31.7541E-03    -15.6358E-03     40.7551E-03    -16.0720E-03     31.4988E-03    -15.5402E-03     40.7436E-03
             493     10.6334E-03     67.3636E-03    -2.78269E+06    -47.6801E+06     1.29229E+06    -267.784E+03    -16.2614E-03     31.8920E-03    -15.6305E-03     44.9590E-03    -16.2193E-03     31.6669E-03    -15.5509E-03     44.9386E-03
             494     11.5194E-03     67.4077E-03    -2.26070E+06    -41.2828E+06     2.39404E+06    -210.022E+03    -16.4158E-03     32.0555E-03    -15.6397E-03     49.1920E-03    -16.3884E-03     31.8666E-03    -15.5646E-03     49.1668E-03
             495     12.4050E-03     67.4562E-03    -2.41930E+06    -43.6217E+06    -1.85643E+06    -158.915E+03    -16.6687E-03     32.3077E-03    -15.6390E-03     55.6848E-03    -16.6450E-03     32.1260E-03    -15.5815E-03     55.6527E-03
             496     13.2910E-03     67.5126E-03    -2.35456E+06    -41.0411E+06    -11.1340E+06    -94.7767E+03    -16.8186E-03     32.4267E-03    -15.6081E-03     59.1584E-03    -16.8028E-03     32.2891E-03    -15.6008E-03     59.1187E-03
             497     14.1767E-03     67.5687E-03    -2.45285E+06    -19.6405E+06    -12.1225E+06     1.03466E+06    -17.1787E-03     32.7790E-03    -15.6003E-03     62.6456E-03    -17.2250E-03     32.7820E-03    -15.6289E-03     62.6142E-03
             498     15.0620E-03     67.6319E-03    -769.834E+03     14.2855E+06    -13.6923E+06     347.436E+03    -18.5482E-03     34.1292E-03    -15.5810E-03     92.8965E-03    -18.8202E-03     34.4889E-03    -15.6691E-03     92.8705E-03
             499     15.9464E-03     67.7468E-03     915.945E+03     77.1188E+06    -16.8213E+06    -409.695E+03    -21.4776E-03     36.9886E-03    -15.5110E-03     158.171E-03    -23.2690E-03     39.1056E-03    -15.7083E-03     158.677E-03
             500     16.8383E-03     67.9353E-03    -4.68852E+06     149.838E+06     34.4377E+06     863.412E+03    -23.8611E-03     39.5296E-03    -15.6685E-03     229.667E-03    -29.5653E-03     45.6494E-03    -15.7067E-03     233.923E-03
             501     886.173E-06     68.1064E-03    -12.5715E+06    -58.0226E+06    -11.7714E+06    -192.576E+03    -15.5948E-03     31.1458E-03    -15.5510E-03     3.48321E-03    -15.5563E-03     30.8912E-03    -15.5075E-03     3.48022E-03
             502     1.77225E-03     68.1110E-03    -11.8908E+06    -58.3698E+06    -9.78511E+06    -264.894E+03    -15.5855E-03     31.1694E-03    -15.5839E-03     6.48993E-03    -15.5461E-03     30.9090E-03    -15.5310E-03     6.48556E-03
             503     2.65838E-03     68.1185E-03    -10.8810E+06    -58.8569E+06    -7.44205E+06    -786.365E+03    -15.5990E-03     31.1949E-03    -15.5959E-03     9.71473E-03    -15.5575E-03     30.9274E-03    -15.5320E-03     9.70313E-03
             504     3.54452E-03     68.1291E-03    -10.0508E+06    -56.7893E+06    -5.41785E+06    -946.191E+03    -15.6105E-03     31.2117E-03    -15.6012E-03     13.0982E-03    -15.5709E-03     30.9505E-03    -15.5314E-03     13.0840E-03
             505     4.43066E-03     68.1429E-03    -9.33875E+06    -55.0187E+06    -3.34869E+06    -868.953E+03    -15.6392E-03     31.2464E-03    -15.6072E-03     16.6136E-03    -15.6018E-03     30.9902E-03    -15.5306E-03     16.5997E-03
             506     5.31678E-03     68.1600E-03    -8.43014E+06    -58.4285E+06    -1.03915E+06    -646.771E+03    -15.7039E-03     31.3280E-03    -15.6241E-03     20.2568E-03    -15.6607E-03     31.0505E-03    -15.5324E-03     20.2451E-03
             507     6.20288E-03     68.1807E-03    -7.39388E+06    -57.3218E+06    -57.0394E+03    -308.660E+03    -15.7654E-03     31.3955E-03    -15.6301E-03     24.1108E-03    -15.7205E-03     31.1210E-03    -15.5365E-03     24.1025E-03
             508     7.08896E-03     68.2050E-03    -6.38551E+06    -55.3512E+06     241.175E+03    -141.307E+03    -15.8330E-03     31.4651E-03    -15.6321E-03     28.1702E-03    -15.7869E-03     31.1992E-03    -15.5414E-03     28.1630E-03
             509     7.97505E-03     68.2332E-03    -5.60357E+06    -52.9441E+06     426.529E+03    -226.298E+03    -15.9268E-03     31.5612E-03    -15.6344E-03     32.3817E-03    -15.8817E-03     31.3070E-03    -15.5474E-03     32.3717E-03
             510     8.86109E-03     68.2654E-03    -4.81199E+06    -50.8568E+06     807.378E+03    -317.066E+03    -16.0520E-03     31.6928E-03    -15.6408E-03     36.6408E-03    -16.0081E-03     31.4489E-03    -15.5561E-03     36.6274E-03
             511     9.74705E-03     68.3017E-03    -3.94448E+06    -52.3066E+06     1.96110E+06    -436.642E+03    -16.2091E-03     31.8692E-03    -15.6601E-03     40.8740E-03    -16.1630E-03     31.6177E-03    -15.5687E-03     40.8557E-03
             512     10.6329E-03     68.3419E-03    -3.21637E+06    -47.4453E+06     633.490E+03    -724.984E+03    -16.3757E-03     32.0377E-03    -15.6620E-03     45.1605E-03    -16.3351E-03     31.8154E-03    -15.5854E-03     45.1341E-03
             513     11.5187E-03     68.3862E-03    -2.33289E+06    -41.7580E+06     2.37195E+06    -546.134E+03    -16.5319E-03     32.2125E-03    -15.6806E-03     49.5828E-03    -16.5041E-03     32.0213E-03    -15.6048E-03     49.5532E-03
             514     12.4046E-03     68.4346E-03    -1.29106E+06    -43.3895E+06     -436.75E+03    -186.450E+03    -16.8895E-03     32.5816E-03    -15.6921E-03     56.3800E-03    -16.8627E-03     32.3975E-03    -15.6295E-03     56.3473E-03
             515     13.2897E-03     68.4916E-03    -1.60349E+06    -41.4268E+06    -10.6030E+06    -262.223E+03    -17.0594E-03     32.7279E-03    -15.6685E-03     60.0598E-03    -17.0402E-03     32.5867E-03    -15.6591E-03     60.0179E-03
             516     14.1755E-03     68.5469E-03    -1.28269E+06    -21.4749E+06    -11.5234E+06     417.107E+03    -17.2512E-03     32.9163E-03    -15.6651E-03     65.0359E-03    -17.2896E-03     32.9073E-03    -15.6897E-03     64.9976E-03
             517     15.0595E-03     68.6133E-03    -913.832E+03     19.2857E+06    -10.2781E+06    -1.50506E+06    -19.5780E-03     35.2509E-03    -15.6729E-03     96.2741E-03    -19.8711E-03     35.6391E-03    -15.7509E-03     96.2194E-03
             518     15.9456E-03     68.7241E-03    -6.62044E+06     77.4097E+06    -14.1911E+06    -900.893E+03    -24.8883E-03     40.6129E-03    -15.7245E-03     161.183E-03    -26.8052E-03     42.8219E-03    -15.8981E-03     161.647E-03
             519     16.8186E-03     68.9192E-03    -2.27968E+06     144.479E+06     28.1207E+06     3.38916E+06    -21.1997E-03     37.0484E-03    -15.8487E-03     225.622E-03    -26.6172E-03     42.8900E-03    -15.9143E-03     230.036E-03
             520     886.091E-06     69.0845E-03    -12.9389E+06    -58.0594E+06    -12.1626E+06     220.870E+03    -15.6041E-03     31.1784E-03    -15.5743E-03     3.45985E-03    -15.5668E-03     30.9248E-03    -15.5322E-03     3.46219E-03
             521     1.77225E-03     69.0890E-03    -12.2072E+06    -57.7544E+06    -10.4802E+06    -208.559E+03    -15.5908E-03     31.1864E-03    -15.5955E-03     6.46956E-03    -15.5530E-03     30.9305E-03    -15.5465E-03     6.46592E-03
             522     2.65837E-03     69.0965E-03    -11.4141E+06    -58.1921E+06    -8.15064E+06    -555.376E+03    -15.6077E-03     31.2129E-03    -15.6052E-03     9.71221E-03    -15.5687E-03     30.9505E-03    -15.5450E-03     9.70359E-03
             523     3.54446E-03     69.1071E-03    -10.6101E+06    -56.7671E+06    -5.96538E+06    -525.959E+03    -15.6297E-03     31.2426E-03    -15.6129E-03     13.0952E-03    -15.5921E-03     30.9831E-03    -15.5451E-03     13.0864E-03
             524     4.43059E-03     69.1209E-03    -9.73619E+06    -54.8339E+06    -4.11535E+06    -466.705E+03    -15.6589E-03     31.2778E-03    -15.6189E-03     16.6198E-03    -15.6226E-03     31.0242E-03    -15.5458E-03     16.6112E-03
             525     5.31669E-03     69.1381E-03    -8.86652E+06    -58.6027E+06    -2.29797E+06    -444.674E+03    -15.7196E-03     31.3540E-03    -15.6344E-03     20.2753E-03    -15.6764E-03     31.0780E-03    -15.5481E-03     20.2662E-03
             526     6.20278E-03     69.1587E-03    -7.83312E+06    -57.3771E+06    -1.52584E+06    -429.977E+03    -15.7817E-03     31.4209E-03    -15.6392E-03     24.1467E-03    -15.7367E-03     31.1488E-03    -15.5522E-03     24.1369E-03
             527     7.08886E-03     69.1832E-03    -6.65857E+06    -55.3140E+06    -575.678E+03    -499.691E+03    -15.8592E-03     31.5039E-03    -15.6447E-03     28.2231E-03    -15.8134E-03     31.2398E-03    -15.5577E-03     28.2112E-03
             528     7.97490E-03     69.2114E-03    -5.42655E+06    -52.8255E+06     330.654E+03    -494.836E+03    -15.9595E-03     31.6106E-03    -15.6511E-03     32.4782E-03    -15.9135E-03     31.3569E-03    -15.5650E-03     32.4648E-03
             529     8.86088E-03     69.2437E-03    -4.40150E+06    -50.6567E+06     1.60753E+06    -630.192E+03    -16.0752E-03     31.7375E-03    -15.6623E-03     36.8062E-03    -16.0306E-03     31.4928E-03    -15.5744E-03     36.7888E-03
             530     9.74683E-03     69.2800E-03    -3.61326E+06    -52.2607E+06     2.46799E+06    -657.635E+03    -16.2109E-03     31.8904E-03    -15.6794E-03     41.1694E-03    -16.1639E-03     31.6378E-03    -15.5861E-03     41.1484E-03
             531     10.6327E-03     69.3204E-03    -3.13415E+06    -46.8559E+06     920.631E+03    -864.640E+03    -16.3521E-03     32.0289E-03    -15.6768E-03     45.6109E-03    -16.3123E-03     31.8089E-03    -15.5997E-03     45.5830E-03
             532     11.5187E-03     69.3647E-03    -2.80511E+06    -42.2904E+06     2.78542E+06    -977.724E+03    -16.4848E-03     32.1786E-03    -15.6938E-03     50.1318E-03    -16.4591E-03     31.9848E-03    -15.6145E-03     50.0969E-03
             533     12.4044E-03     69.4133E-03    -2.46161E+06    -43.5674E+06     345.691E+03    -706.893E+03    -16.7392E-03     32.4381E-03    -15.6989E-03     57.3013E-03    -16.7189E-03     32.2534E-03    -15.6304E-03     57.2626E-03
             534     13.2903E-03     69.4707E-03    -2.40922E+06    -41.6165E+06    -10.4266E+06    -116.948E+03    -17.0140E-03     32.6774E-03    -15.6634E-03     61.0885E-03    -16.9990E-03     32.5363E-03    -15.6517E-03     61.0486E-03
             535     14.1760E-03     69.5255E-03    -3.87491E+06    -21.8952E+06    -11.5748E+06    -619.538E+03    -17.2392E-03     32.8985E-03    -15.6593E-03     65.6500E-03    -17.2906E-03     32.8920E-03    -15.6798E-03     65.5978E-03
             536     15.0641E-03     69.5918E-03    -10.3408E+06     20.1664E+06    -11.8752E+06     1.58640E+06    -19.1882E-03     34.8407E-03    -15.6525E-03     99.0974E-03    -19.5248E-03     35.2466E-03    -15.7261E-03     99.0854E-03
             537     15.9425E-03     69.7114E-03    -13.4748E+06     75.7863E+06    -16.2400E+06     3.07714E+06    -20.2519E-03     35.7892E-03    -15.5373E-03     171.517E-03    -22.1260E-03     37.9311E-03    -15.7089E-03     172.165E-03
             538     16.8301E-03     69.9043E-03    -1.33192E+06     143.782E+06     30.9773E+06    -290.012E+03    -21.3433E-03     36.8535E-03    -15.5102E-03     234.484E-03    -26.6933E-03     42.6215E-03    -15.5618E-03     238.690E-03
             539     886.102E-06     70.0625E-03    -14.4331E+06    -58.1522E+06    -14.3930E+06     147.367E+03    -15.6081E-03     31.2014E-03    -15.5933E-03     3.48730E-03    -15.5749E-03     30.9527E-03    -15.5600E-03     3.48870E-03
             540     1.77218E-03     70.0671E-03    -13.8277E+06    -57.0457E+06    -12.4502E+06    -304.981E+03    -15.5969E-03     31.2007E-03    -15.6038E-03     6.48051E-03    -15.5653E-03     30.9536E-03    -15.5633E-03     6.47563E-03
             541     2.65831E-03     70.0746E-03    -12.7173E+06    -57.9169E+06    -9.10181E+06    -486.414E+03    -15.6161E-03     31.2334E-03    -15.6174E-03     9.72381E-03    -15.5826E-03     30.9756E-03    -15.5604E-03     9.71607E-03
             542     3.54443E-03     70.0852E-03    -11.3720E+06    -56.7881E+06    -6.48086E+06    -426.487E+03    -15.6446E-03     31.2716E-03    -15.6270E-03     13.0994E-03    -15.6101E-03     31.0138E-03    -15.5605E-03     13.0919E-03
             543     4.43051E-03     70.0991E-03    -10.1421E+06    -54.7355E+06    -4.83843E+06    -365.675E+03    -15.6735E-03     31.3050E-03    -15.6314E-03     16.6337E-03    -15.6384E-03     31.0536E-03    -15.5616E-03     16.6264E-03
             544     5.31661E-03     70.1162E-03    -8.90170E+06    -58.3832E+06    -2.90772E+06    -510.523E+03    -15.7308E-03     31.3773E-03    -15.6465E-03     20.3060E-03    -15.6873E-03     31.1033E-03    -15.5634E-03     20.2960E-03
             545     6.20269E-03     70.1369E-03    -7.65344E+06    -57.1814E+06    -1.75402E+06    -747.535E+03    -15.7915E-03     31.4435E-03    -15.6520E-03     24.1908E-03    -15.7456E-03     31.1725E-03    -15.5667E-03     24.1769E-03
             546     7.08876E-03     70.1613E-03    -6.51818E+06    -55.0849E+06    -377.474E+03    -906.729E+03    -15.8671E-03     31.5259E-03    -15.6588E-03     28.2940E-03    -15.8213E-03     31.2624E-03    -15.5713E-03     28.2769E-03
             547     7.97477E-03     70.1896E-03    -5.50482E+06    -52.8384E+06     786.638E+03    -971.059E+03    -15.9411E-03     31.6061E-03    -15.6650E-03     32.5928E-03    -15.8961E-03     31.3517E-03    -15.5765E-03     32.5733E-03
             548     8.86084E-03     70.2220E-03    -4.59797E+06    -50.4606E+06     2.11663E+06    -868.702E+03    -16.0085E-03     31.6795E-03    -15.6709E-03     36.9886E-03    -15.9659E-03     31.4352E-03    -15.5805E-03     36.9682E-03
             549     9.74689E-03     70.2583E-03    -3.77702E+06    -52.2497E+06     2.74680E+06    -886.175E+03    -16.1143E-03     31.7933E-03    -15.6789E-03     41.4219E-03    -16.0684E-03     31.5405E-03    -15.5840E-03     41.3982E-03
             550     10.6330E-03     70.2986E-03    -3.21680E+06    -46.5679E+06     659.011E+03    -819.960E+03    -16.2355E-03     31.8994E-03    -15.6639E-03     45.9384E-03    -16.1960E-03     31.6813E-03    -15.5884E-03     45.9113E-03
             551     11.5189E-03     70.3432E-03    -3.05924E+06    -42.3857E+06     2.45766E+06    -751.392E+03    -16.3247E-03     31.9958E-03    -15.6711E-03     50.4575E-03    -16.2996E-03     31.8022E-03    -15.5929E-03     50.4259E-03
             552     12.4051E-03     70.3916E-03    -3.19528E+06    -43.9409E+06    -518.907E+03    -616.157E+03    -16.4462E-03     32.1058E-03    -15.6595E-03     57.6174E-03    -16.4274E-03     31.9211E-03    -15.5938E-03     57.5806E-03
             553     13.2912E-03     70.4491E-03    -3.54585E+06    -42.0183E+06    -11.2227E+06    -265.105E+03    -16.8203E-03     32.4304E-03    -15.6101E-03     61.8884E-03    -16.8095E-03     32.2905E-03    -15.6002E-03     61.8470E-03
             554     14.1765E-03     70.5049E-03    -4.14149E+06    -21.7172E+06    -11.8608E+06     690.557E+03    -17.4109E-03     33.0178E-03    -15.6069E-03     66.9018E-03    -17.4672E-03     33.0166E-03    -15.6287E-03     66.8645E-03
             555     15.0583E-03     70.5711E-03    -3.22825E+06     14.0232E+06    -11.5186E+06     3.98844E+06    -16.2267E-03     31.7482E-03    -15.5215E-03     100.219E-03    -16.5038E-03     32.0971E-03    -15.5948E-03     100.259E-03
             556     15.9535E-03     70.6881E-03     1.00067E+06     76.9594E+06    -12.4359E+06     3.81196E+06    -13.4050E-03     28.5583E-03    -15.1533E-03     163.488E-03    -14.9542E-03     30.4187E-03    -15.3285E-03     164.208E-03
             557     16.8673E-03     70.8622E-03    -1.98872E+06     150.596E+06     38.4282E+06    -2.43336E+06    -25.1185E-03     40.2256E-03    -15.1071E-03     233.411E-03    -30.6397E-03     46.1644E-03    -15.1304E-03     237.135E-03
             558     886.091E-06     71.0406E-03    -14.8957E+06    -57.7890E+06    -14.5466E+06    -396.529E+03    -15.6169E-03     31.2202E-03    -15.6033E-03     3.48835E-03    -15.5863E-03     30.9741E-03    -15.5706E-03     3.48274E-03
             559     1.77220E-03     71.0452E-03    -13.9930E+06    -56.5351E+06    -12.4602E+06    -515.045E+03    -15.6190E-03     31.2357E-03    -15.6168E-03     6.47937E-03    -15.5889E-03     30.9915E-03    -15.5768E-03     6.47178E-03
             560     2.65828E-03     71.0527E-03    -13.0250E+06    -57.7231E+06    -9.49390E+06    -558.039E+03    -15.6367E-03     31.2692E-03    -15.6324E-03     9.73297E-03    -15.6045E-03     31.0133E-03    -15.5773E-03     9.72431E-03
             561     3.54434E-03     71.0633E-03    -11.7668E+06    -56.7322E+06    -6.95044E+06    -524.486E+03    -15.6532E-03     31.2951E-03    -15.6419E-03     13.1110E-03    -15.6200E-03     31.0389E-03    -15.5774E-03     13.1022E-03
             562     4.43045E-03     71.0772E-03    -10.3745E+06    -54.4840E+06    -5.03447E+06    -645.973E+03    -15.6806E-03     31.3263E-03    -15.6457E-03     16.6522E-03    -15.6467E-03     31.0767E-03    -15.5768E-03     16.6413E-03
             563     5.31654E-03     71.0944E-03    -8.95089E+06    -58.0062E+06    -2.79664E+06    -879.311E+03    -15.7380E-03     31.3986E-03    -15.6606E-03     20.3337E-03    -15.6955E-03     31.1264E-03    -15.5775E-03     20.3190E-03
             564     6.20261E-03     71.1150E-03    -7.70213E+06    -56.8331E+06    -1.55488E+06    -1.06634E+06    -15.7920E-03     31.4573E-03    -15.6652E-03     24.2341E-03    -15.7472E-03     31.1878E-03    -15.5794E-03     24.2161E-03
             565     7.08867E-03     71.1395E-03    -6.65528E+06    -54.8550E+06    -277.364E+03    -1.18704E+06    -15.8415E-03     31.5103E-03    -15.6688E-03     28.3519E-03    -15.7967E-03     31.2480E-03    -15.5810E-03     28.3312E-03
             566     7.97476E-03     71.1678E-03    -5.71928E+06    -52.6827E+06     836.710E+03    -1.21641E+06    -15.8810E-03     31.5503E-03    -15.6693E-03     32.6442E-03    -15.8373E-03     31.2969E-03    -15.5804E-03     32.6216E-03
             567     8.86089E-03     71.2001E-03    -4.79386E+06    -50.5783E+06     2.01741E+06    -1.14126E+06    -15.9242E-03     31.5914E-03    -15.6673E-03     37.0283E-03    -15.8822E-03     31.3470E-03    -15.5769E-03     37.0046E-03
             568     9.74706E-03     71.2365E-03    -3.96845E+06    -52.0451E+06     2.64998E+06    -1.04104E+06    -15.9983E-03     31.6644E-03    -15.6661E-03     41.4543E-03    -15.9535E-03     31.4130E-03    -15.5716E-03     41.4288E-03
             569     10.6332E-03     71.2769E-03    -3.40217E+06    -46.8062E+06     2.37222E+03    -924.421E+03    -16.0711E-03     31.7094E-03    -15.6382E-03     45.9938E-03    -16.0312E-03     31.4912E-03    -15.5654E-03     45.9656E-03
             570     11.5195E-03     71.3214E-03    -2.83813E+06    -42.3442E+06     2.07135E+06    -675.280E+03    -16.1302E-03     31.7639E-03    -15.6336E-03     50.4744E-03    -16.1033E-03     31.5706E-03    -15.5578E-03     50.4441E-03
             571     12.4056E-03     71.3697E-03    -2.40071E+06    -44.3650E+06    -473.555E+03    -365.619E+03    -16.2213E-03     31.8329E-03    -15.6116E-03     57.4523E-03    -16.1978E-03     31.6447E-03    -15.5461E-03     57.4191E-03
             572     13.2920E-03     71.4269E-03    -2.70426E+06    -42.2974E+06    -11.3976E+06    -45.7447E+03    -16.3987E-03     31.9405E-03    -15.5418E-03     62.5067E-03    -16.3831E-03     31.7982E-03    -15.5336E-03     62.4692E-03
             573     14.1781E-03     71.4843E-03    -3.22006E+06    -23.9151E+06    -12.9934E+06     1.11176E+06    -16.1660E-03     31.6531E-03    -15.4872E-03     67.9591E-03    -16.2106E-03     31.6390E-03    -15.5128E-03     67.9327E-03
             574     15.0674E-03     71.5501E-03    -19.1299E+03     12.9653E+06    -11.4840E+06     396.450E+03    -15.2038E-03     30.5539E-03    -15.3501E-03     94.5984E-03    -15.4397E-03     30.8691E-03    -15.4263E-03     94.5982E-03
             575     15.9595E-03     71.6510E-03     1.29296E+06     79.2020E+06    -11.7145E+06    -1.44018E+06    -19.6033E-03     34.7688E-03    -15.1655E-03     151.493E-03    -21.1434E-03     36.6278E-03    -15.3408E-03     151.882E-03
             576     16.8279E-03     71.8373E-03    -3.21963E+06     151.226E+06     35.5006E+06     131.397E+03    -26.7120E-03     42.0546E-03    -15.3426E-03     231.385E-03    -32.4775E-03     48.2432E-03    -15.3797E-03     235.418E-03
             577     886.074E-06     72.0188E-03    -15.0594E+06    -56.8268E+06    -14.3787E+06    -504.950E+03    -15.6244E-03     31.2617E-03    -15.6374E-03     3.45649E-03    -15.5963E-03     31.0205E-03    -15.6050E-03     3.44948E-03
             578     1.77213E-03     72.0233E-03    -14.3043E+06    -56.1793E+06    -12.7971E+06    -712.654E+03    -15.6308E-03     31.2663E-03    -15.6355E-03     6.47416E-03    -15.6023E-03     31.0247E-03    -15.5973E-03     6.46402E-03
             579     2.65820E-03     72.0309E-03    -13.2426E+06    -57.5784E+06    -10.0096E+06    -590.414E+03    -15.6452E-03     31.2925E-03    -15.6473E-03     9.73989E-03    -15.6136E-03     31.0385E-03    -15.5946E-03     9.73081E-03
             580     3.54431E-03     72.0415E-03    -11.9150E+06    -56.3581E+06    -7.20712E+06    -759.538E+03    -15.6621E-03     31.3177E-03    -15.6556E-03     13.1355E-03    -15.6299E-03     31.0640E-03    -15.5926E-03     13.1237E-03
             581     4.43038E-03     72.0553E-03    -10.4282E+06    -54.0338E+06    -4.89471E+06    -1.07094E+06    -15.6881E-03     31.3479E-03    -15.6598E-03     16.6773E-03    -15.6553E-03     31.1005E-03    -15.5908E-03     16.6608E-03
             582     5.31647E-03     72.0725E-03    -9.02946E+06    -57.6634E+06    -2.62678E+06    -1.22005E+06    -15.7395E-03     31.4131E-03    -15.6736E-03     20.3596E-03    -15.6980E-03     31.1425E-03    -15.5901E-03     20.3405E-03
             583     6.20253E-03     72.0932E-03    -7.81257E+06    -56.5057E+06    -1.49239E+06    -1.31267E+06    -15.7775E-03     31.4528E-03    -15.6753E-03     24.2627E-03    -15.7338E-03     31.1851E-03    -15.5895E-03     24.2415E-03
             584     7.08863E-03     72.1177E-03    -6.77003E+06    -54.5892E+06    -342.290E+03    -1.39988E+06    -15.8043E-03     31.4783E-03    -15.6740E-03     28.3567E-03    -15.7605E-03     31.2176E-03    -15.5867E-03     28.3333E-03
             585     7.97477E-03     72.1459E-03    -5.80833E+06    -52.5320E+06     629.143E+03    -1.43603E+06    -15.8372E-03     31.5061E-03    -15.6689E-03     32.6184E-03    -15.7939E-03     31.2538E-03    -15.5811E-03     32.5930E-03
             586     8.86094E-03     72.1782E-03    -4.91243E+06    -50.5874E+06     1.82357E+06    -1.38112E+06    -15.8785E-03     31.5413E-03    -15.6628E-03     36.9562E-03    -15.8368E-03     31.2973E-03    -15.5732E-03     36.9293E-03
             587     9.74711E-03     72.2145E-03    -4.08064E+06    -52.0829E+06     2.43940E+06    -1.24257E+06    -15.9195E-03     31.5760E-03    -15.6565E-03     41.3207E-03    -15.8748E-03     31.3249E-03    -15.5628E-03     41.2926E-03
             588     10.6334E-03     72.2549E-03    -3.41512E+06    -46.8002E+06    -74.5762E+03    -1.14164E+06    -15.9532E-03     31.5752E-03    -15.6220E-03     45.7739E-03    -15.9131E-03     31.3571E-03    -15.5496E-03     45.7431E-03
             589     11.5197E-03     72.2993E-03    -2.90640E+06    -42.6611E+06     1.80058E+06    -933.283E+03    -15.9911E-03     31.5999E-03    -15.6088E-03     50.1354E-03    -15.9635E-03     31.4053E-03    -15.5337E-03     50.1021E-03
             590     12.4062E-03     72.3477E-03    -2.40424E+06    -44.5965E+06    -439.489E+03    -604.322E+03    -16.1074E-03     31.6890E-03    -15.5816E-03     56.8441E-03    -16.0832E-03     31.4992E-03    -15.5157E-03     56.8082E-03
             591     13.2927E-03     72.4044E-03    -2.21881E+06    -42.7626E+06    -11.2187E+06    -349.681E+03    -16.1021E-03     31.6042E-03    -15.5022E-03     61.6616E-03    -16.0830E-03     31.4581E-03    -15.4930E-03     61.6213E-03
             592     14.1798E-03     72.4620E-03    -1.93941E+06    -24.6082E+06    -11.9655E+06    -431.756E+03    -15.5534E-03     30.9830E-03    -15.4295E-03     64.3480E-03    -15.5850E-03     30.9550E-03    -15.4509E-03     64.3049E-03
             593     15.0674E-03     72.5235E-03    -2.56502E+06     14.1961E+06    -11.7259E+06    -630.034E+03    -17.5296E-03     32.8790E-03    -15.3494E-03     90.0866E-03    -17.7748E-03     33.1994E-03    -15.4249E-03     90.0498E-03
             594     15.9470E-03     72.6328E-03    -4.78968E+06     78.2553E+06    -15.8325E+06    -123.867E+03    -24.2592E-03     39.5907E-03    -15.3315E-03     159.946E-03    -26.0255E-03     41.6638E-03    -15.5172E-03     160.311E-03
             595     16.8316E-03     72.8320E-03    -4.55560E+06     149.974E+06     32.0145E+06     666.512E+03    -25.3382E-03     40.8885E-03    -15.5503E-03     238.882E-03    -31.1824E-03     47.1568E-03    -15.6011E-03     243.278E-03
             596     886.029E-06     72.9969E-03    -14.3810E+06    -55.8356E+06    -14.0164E+06    -290.803E+03    -15.6251E-03     31.2998E-03    -15.6747E-03     3.45302E-03    -15.5956E-03     31.0620E-03    -15.6430E-03     3.44878E-03
             597     1.77210E-03     73.0015E-03    -13.9337E+06    -55.7186E+06    -12.2152E+06    -659.295E+03    -15.6404E-03     31.2944E-03    -15.6539E-03     6.50064E-03    -15.6117E-03     31.0538E-03    -15.6140E-03     6.49119E-03
             598     2.65820E-03     73.0090E-03    -12.9066E+06    -57.3736E+06    -9.45756E+06    -745.173E+03    -15.6557E-03     31.3191E-03    -15.6634E-03     9.75315E-03    -15.6235E-03     31.0648E-03    -15.6088E-03     9.74208E-03
             599     3.54425E-03     73.0196E-03    -11.5803E+06    -55.5982E+06    -7.16800E+06    -1.07995E+06    -15.6713E-03     31.3384E-03    -15.6671E-03     13.1527E-03    -15.6385E-03     31.0879E-03    -15.6055E-03     13.1368E-03
             600     4.43033E-03     73.0335E-03    -10.2822E+06    -53.5990E+06    -4.97704E+06    -1.36799E+06    -15.6922E-03     31.3624E-03    -15.6701E-03     16.6985E-03    -15.6592E-03     31.1170E-03    -15.6024E-03     16.6782E-03
             601     5.31641E-03     73.0507E-03    -9.02599E+06    -57.3164E+06    -2.61521E+06    -1.46660E+06    -15.7326E-03     31.4152E-03    -15.6826E-03     20.3859E-03    -15.6916E-03     31.1463E-03    -15.5995E-03     20.3636E-03
             602     6.20249E-03     73.0714E-03    -7.86694E+06    -56.2073E+06    -1.53230E+06    -1.53278E+06    -15.7563E-03     31.4372E-03    -15.6809E-03     24.2753E-03    -15.7132E-03     31.1711E-03    -15.5957E-03     24.2513E-03
             603     7.08862E-03     73.0958E-03    -6.82894E+06    -54.2895E+06    -460.665E+03    -1.59355E+06    -15.7854E-03     31.4614E-03    -15.6760E-03     28.3493E-03    -15.7420E-03     31.2024E-03    -15.5897E-03     28.3234E-03
             604     7.97475E-03     73.1240E-03    -5.90989E+06    -52.3463E+06     471.946E+03    -1.64692E+06    -15.8265E-03     31.4954E-03    -15.6690E-03     32.5854E-03    -15.7837E-03     31.2445E-03    -15.5821E-03     32.5572E-03
             605     8.86092E-03     73.1563E-03    -5.03478E+06    -50.5237E+06     1.64524E+06    -1.61066E+06    -15.8652E-03     31.5271E-03    -15.6618E-03     36.8865E-03    -15.8240E-03     31.2838E-03    -15.5730E-03     36.8567E-03
             606     9.74714E-03     73.1925E-03    -4.16959E+06    -52.0843E+06     2.20911E+06    -1.52900E+06    -15.9137E-03     31.5684E-03    -15.6547E-03     41.1721E-03    -15.8691E-03     31.3177E-03    -15.5621E-03     41.1403E-03
             607     10.6334E-03     73.2327E-03    -3.51202E+06    -46.8066E+06    -305.433E+03    -1.39793E+06    -15.9641E-03     31.5849E-03    -15.6208E-03     45.5525E-03    -15.9241E-03     31.3672E-03    -15.5494E-03     45.5184E-03
             608     11.5197E-03     73.2772E-03    -2.97275E+06    -42.9407E+06     1.48757E+06    -1.18014E+06    -15.9977E-03     31.6065E-03    -15.6089E-03     49.7444E-03    -15.9695E-03     31.4110E-03    -15.5349E-03     49.7079E-03
             609     12.4060E-03     73.3254E-03    -2.47994E+06    -44.7434E+06    -871.340E+03    -938.066E+03    -16.2056E-03     31.7909E-03    -15.5853E-03     56.3003E-03    -16.1807E-03     31.6009E-03    -15.5212E-03     56.2600E-03
             610     13.2922E-03     73.3823E-03    -2.19922E+06    -42.8364E+06    -11.3950E+06    -1.01272E+06    -16.2621E-03     31.7787E-03    -15.5166E-03     60.6473E-03    -16.2417E-03     31.6315E-03    -15.5083E-03     60.5982E-03
             611     14.1783E-03     73.4390E-03    -2.30031E+06    -24.1173E+06    -12.1639E+06    -873.161E+03    -16.2129E-03     31.6827E-03    -15.4698E-03     63.4142E-03    -16.2463E-03     31.6576E-03    -15.4923E-03     63.3627E-03
             612     15.0637E-03     73.5015E-03    -3.27948E+06     13.0035E+06    -13.0843E+06     72.6021E+03    -17.9447E-03     33.3554E-03    -15.4107E-03     94.0977E-03    -18.2094E-03     33.6926E-03    -15.4902E-03     94.0680E-03
             613     15.9516E-03     73.6165E-03    -3.35510E+06     76.9964E+06    -16.6880E+06     824.643E+03    -20.9924E-03     36.2910E-03    -15.2986E-03     164.863E-03    -22.7836E-03     38.3920E-03    -15.4888E-03     165.409E-03
             614     16.8412E-03     73.8063E-03    -2.96498E+06     151.063E+06     34.2014E+06     532.286E+03    -24.6037E-03     40.0301E-03    -15.4264E-03     235.148E-03    -30.2434E-03     46.0963E-03    -15.4701E-03     239.348E-03
             615     886.054E-06     73.9751E-03    -14.1059E+06    -55.2044E+06    -13.7644E+06    -335.784E+03    -15.6366E-03     31.3082E-03    -15.6715E-03     3.45820E-03    -15.6070E-03     31.0728E-03    -15.6399E-03     3.45338E-03
             616     1.77212E-03     73.9796E-03    -13.5117E+06    -55.1348E+06    -11.4166E+06    -462.993E+03    -15.6591E-03     31.3226E-03    -15.6635E-03     6.49581E-03    -15.6302E-03     31.0831E-03    -15.6210E-03     6.48890E-03
             617     2.65814E-03     73.9872E-03    -12.3914E+06    -56.8116E+06    -8.80019E+06    -873.034E+03    -15.6683E-03     31.3436E-03    -15.6753E-03     9.75824E-03    -15.6353E-03     31.0904E-03    -15.6190E-03     9.74553E-03
             618     3.54421E-03     73.9978E-03    -11.2504E+06    -54.8212E+06    -7.13586E+06    -1.22139E+06    -15.6718E-03     31.3467E-03    -15.6749E-03     13.1744E-03    -15.6385E-03     31.0995E-03    -15.6148E-03     13.1567E-03
             619     4.43030E-03     74.0117E-03    -10.2250E+06    -53.1212E+06    -5.17170E+06    -1.46691E+06    -15.6838E-03     31.3587E-03    -15.6750E-03     16.7275E-03    -15.6509E-03     31.1160E-03    -15.6090E-03     16.7059E-03
             620     5.31638E-03     74.0289E-03    -9.13153E+06    -56.9017E+06    -2.83895E+06    -1.63134E+06    -15.7169E-03     31.4015E-03    -15.6846E-03     20.4141E-03    -15.6768E-03     31.1352E-03    -15.6030E-03     20.3897E-03
             621     6.20249E-03     74.0495E-03    -8.01004E+06    -55.8832E+06    -1.71892E+06    -1.73917E+06    -15.7448E-03     31.4257E-03    -15.6808E-03     24.2909E-03    -15.7026E-03     31.1616E-03    -15.5968E-03     24.2642E-03
             622     7.08862E-03     74.0739E-03    -6.98636E+06    -54.0022E+06    -686.149E+03    -1.79438E+06    -15.7818E-03     31.4566E-03    -15.6748E-03     28.3563E-03    -15.7394E-03     31.1997E-03    -15.5898E-03     28.3278E-03
             623     7.97475E-03     74.1021E-03    -6.05498E+06    -52.0675E+06     210.862E+03    -1.84738E+06    -15.8263E-03     31.4937E-03    -15.6674E-03     32.5833E-03    -15.7843E-03     31.2448E-03    -15.5821E-03     32.5526E-03
             624     8.86092E-03     74.1344E-03    -5.15944E+06    -50.3964E+06     1.33837E+06    -1.87962E+06    -15.8750E-03     31.5358E-03    -15.6608E-03     36.8638E-03    -15.8342E-03     31.2938E-03    -15.5735E-03     36.8305E-03
             625     9.74709E-03     74.1706E-03    -4.28958E+06    -52.0108E+06     1.87894E+06    -1.81447E+06    -15.9527E-03     31.6085E-03    -15.6558E-03     41.1398E-03    -15.9084E-03     31.3589E-03    -15.5648E-03     41.1042E-03
             626     10.6333E-03     74.2108E-03    -3.59853E+06    -46.8579E+06    -692.349E+03    -1.70192E+06    -16.0305E-03     31.6565E-03    -15.6260E-03     45.5280E-03    -15.9904E-03     31.4393E-03    -15.5563E-03     45.4898E-03
             627     11.5194E-03     74.2552E-03    -2.96575E+06    -43.1215E+06     1.09573E+06    -1.49771E+06    -16.0887E-03     31.7083E-03    -15.6196E-03     49.7141E-03    -16.0597E-03     31.5125E-03    -15.5473E-03     49.6733E-03
             628     12.4057E-03     74.3033E-03    -2.33489E+06    -44.8174E+06    -1.12996E+06    -1.33151E+06    -16.3221E-03     31.9246E-03    -15.6026E-03     56.5535E-03    -16.2963E-03     31.7347E-03    -15.5398E-03     56.5077E-03
             629     13.2916E-03     74.3606E-03    -2.41194E+06    -42.7091E+06    -11.6260E+06    -1.28184E+06    -16.3204E-03     31.8588E-03    -15.5384E-03     60.8197E-03    -16.3008E-03     31.7127E-03    -15.5311E-03     60.7670E-03
             630     14.1782E-03     74.4164E-03    -3.08280E+06    -24.7892E+06    -13.2508E+06    -962.163E+03    -16.1455E-03     31.6319E-03    -15.4864E-03     64.5647E-03    -16.1831E-03     31.6090E-03    -15.5123E-03     64.5123E-03
             631     15.0653E-03     74.4802E-03    -3.04508E+06     12.5062E+06    -13.5852E+06    -674.081E+03    -17.1232E-03     32.5233E-03    -15.4001E-03     95.1286E-03    -17.3916E-03     32.8647E-03    -15.4818E-03     95.1007E-03
             632     15.9521E-03     74.5918E-03    -3.11351E+06     76.0859E+06    -16.8579E+06     72.1104E+03    -20.4633E-03     35.7226E-03    -15.2593E-03     161.938E-03    -22.2086E-03     37.7759E-03    -15.4494E-03     162.473E-03
             633     16.8376E-03     74.7836E-03    -2.98183E+06     150.958E+06     33.2695E+06     1.06401E+06    -25.0718E-03     40.4651E-03    -15.3933E-03     233.250E-03    -30.7114E-03     46.5335E-03    -15.4415E-03     237.437E-03
             634     886.061E-06     74.9533E-03    -14.8198E+06    -54.8135E+06    -14.3344E+06    -258.868E+03    -15.6628E-03     31.3081E-03    -15.6453E-03     3.47143E-03    -15.6365E-03     31.0765E-03    -15.6160E-03     3.46761E-03
             635     1.77206E-03     74.9579E-03    -14.1755E+06    -54.4669E+06    -12.4817E+06    -459.438E+03    -15.6604E-03     31.3216E-03    -15.6612E-03     6.50582E-03    -15.6342E-03     31.0880E-03    -15.6241E-03     6.49897E-03
             636     2.65815E-03     74.9654E-03    -13.0142E+06    -55.8636E+06    -9.55133E+06    -1.02144E+06    -15.6618E-03     31.3353E-03    -15.6734E-03     9.78367E-03    -15.6322E-03     31.0888E-03    -15.6213E-03     9.76906E-03
             637     3.54421E-03     74.9760E-03    -11.6799E+06    -54.2869E+06    -7.19160E+06    -1.33061E+06    -15.6628E-03     31.3379E-03    -15.6750E-03     13.2042E-03    -15.6324E-03     31.0941E-03    -15.6153E-03     13.1851E-03
             638     4.43029E-03     74.9898E-03    -10.4712E+06    -52.5040E+06    -5.30245E+06    -1.52529E+06    -15.6698E-03     31.3422E-03    -15.6724E-03     16.7529E-03    -15.6389E-03     31.1031E-03    -15.6076E-03     16.7306E-03
             639     5.31642E-03     75.0070E-03    -9.33240E+06    -56.4040E+06    -3.14197E+06    -1.77575E+06    -15.7049E-03     31.3844E-03    -15.6795E-03     20.4304E-03    -15.6661E-03     31.1213E-03    -15.5999E-03     20.4041E-03
             640     6.20252E-03     75.0277E-03    -8.20204E+06    -55.4645E+06    -2.00979E+06    -1.94825E+06    -15.7405E-03     31.4158E-03    -15.6753E-03     24.3076E-03    -15.6994E-03     31.1546E-03    -15.5931E-03     24.2783E-03
             641     7.08864E-03     75.0521E-03    -7.15080E+06    -53.6922E+06    -994.832E+03    -2.05012E+06    -15.7788E-03     31.4482E-03    -15.6694E-03     28.3705E-03    -15.7372E-03     31.1935E-03    -15.5861E-03     28.3386E-03
             642     7.97478E-03     75.0802E-03    -6.17182E+06    -51.7625E+06    -127.003E+03    -2.10258E+06    -15.8264E-03     31.4885E-03    -15.6621E-03     32.5990E-03    -15.7850E-03     31.2418E-03    -15.5788E-03     32.5649E-03
             643     8.86094E-03     75.1125E-03    -5.25552E+06    -50.1521E+06     1.04349E+06    -2.16467E+06    -15.8878E-03     31.5445E-03    -15.6567E-03     36.8827E-03    -15.8474E-03     31.3044E-03    -15.5712E-03     36.8456E-03
             644     9.74709E-03     75.1486E-03    -4.36203E+06    -51.9515E+06     1.58430E+06    -2.14720E+06    -15.9769E-03     31.6307E-03    -15.6538E-03     41.1972E-03    -15.9326E-03     31.3819E-03    -15.5643E-03     41.1573E-03
             645     10.6332E-03     75.1889E-03    -3.64591E+06    -46.8424E+06    -980.579E+03    -2.02777E+06    -16.0516E-03     31.6775E-03    -15.6259E-03     45.6192E-03    -16.0114E-03     31.4609E-03    -15.5576E-03     45.5767E-03
             646     11.5194E-03     75.2332E-03    -3.07665E+06    -43.1907E+06     779.625E+03    -1.91120E+06    -16.1071E-03     31.7278E-03    -15.6207E-03     49.8958E-03    -16.0782E-03     31.5324E-03    -15.5497E-03     49.8496E-03
             647     12.4056E-03     75.2813E-03    -2.59080E+06    -44.9429E+06    -1.44188E+06    -1.73450E+06    -16.2644E-03     31.8665E-03    -15.6020E-03     56.8970E-03    -16.2395E-03     31.6770E-03    -15.5403E-03     56.8460E-03
             648     13.2920E-03     75.3386E-03    -2.64700E+06    -42.7912E+06    -11.8011E+06    -1.41449E+06    -16.2073E-03     31.7399E-03    -15.5326E-03     60.7607E-03    -16.1885E-03     31.5940E-03    -15.5257E-03     60.7065E-03
             649     14.1786E-03     75.3936E-03    -3.16393E+06    -25.1408E+06    -13.3519E+06    -1.23400E+06    -16.0315E-03     31.5062E-03    -15.4747E-03     64.3152E-03    -16.0692E-03     31.4821E-03    -15.5004E-03     64.2600E-03
             650     15.0652E-03     75.4577E-03    -3.77575E+06     12.1185E+06    -14.0234E+06    -833.820E+03    -17.3644E-03     32.7573E-03    -15.3929E-03     94.6740E-03    -17.6343E-03     33.0975E-03    -15.4751E-03     94.6425E-03
             651     15.9512E-03     75.5699E-03    -4.81513E+06     74.9367E+06    -17.8871E+06     134.156E+03    -21.2956E-03     36.5757E-03    -15.2801E-03     162.644E-03    -23.0656E-03     38.6465E-03    -15.4712E-03     163.157E-03
             652     16.8365E-03     75.7633E-03    -4.10233E+06     150.477E+06     32.0127E+06     469.605E+03    -24.9802E-03     40.4046E-03    -15.4244E-03     234.951E-03    -30.6762E-03     46.5274E-03    -15.4766E-03     239.212E-03
             653     886.026E-06     75.9315E-03    -15.4368E+06    -54.4946E+06    -15.0756E+06    -186.031E+03    -15.6578E-03     31.2953E-03    -15.6376E-03     3.48526E-03    -15.6339E-03     31.0673E-03    -15.6116E-03     3.48239E-03
             654     1.77212E-03     75.9361E-03    -14.6955E+06    -53.5553E+06    -13.3249E+06    -657.603E+03    -15.6416E-03     31.2920E-03    -15.6504E-03     6.51804E-03    -15.6181E-03     31.0649E-03    -15.6180E-03     6.50863E-03
             655     2.65816E-03     75.9436E-03    -13.6139E+06    -54.8036E+06    -10.1637E+06    -1.23566E+06    -15.6474E-03     31.3083E-03    -15.6608E-03     9.80206E-03    -15.6215E-03     31.0689E-03    -15.6124E-03     9.78468E-03
             656     3.54424E-03     75.9542E-03    -12.2186E+06    -53.7888E+06    -7.30099E+06    -1.55026E+06    -15.6521E-03     31.3176E-03    -15.6655E-03     13.2207E-03    -15.6249E-03     31.0773E-03    -15.6063E-03     13.1988E-03
             657     4.43035E-03     75.9680E-03    -10.8260E+06    -51.8686E+06    -5.36087E+06    -1.71576E+06    -15.6629E-03     31.3261E-03    -15.6633E-03     16.7624E-03    -15.6345E-03     31.0908E-03    -15.5992E-03     16.7377E-03
             658     5.31644E-03     75.9852E-03    -9.55013E+06    -55.7921E+06    -3.36052E+06    -1.95515E+06    -15.7006E-03     31.3708E-03    -15.6702E-03     20.4359E-03    -15.6634E-03     31.1114E-03    -15.5923E-03     20.4074E-03
             659     6.20256E-03     76.0058E-03    -8.38407E+06    -54.9459E+06    -2.31286E+06    -2.19565E+06    -15.7316E-03     31.3977E-03    -15.6661E-03     24.3171E-03    -15.6918E-03     31.1398E-03    -15.5858E-03     24.2845E-03
             660     7.08870E-03     76.0302E-03    -7.29727E+06    -53.2852E+06    -1.28514E+06    -2.36533E+06    -15.7728E-03     31.4332E-03    -15.6604E-03     28.3794E-03    -15.7321E-03     31.1811E-03    -15.5790E-03     28.3435E-03
             661     7.97483E-03     76.0584E-03    -6.28226E+06    -51.4738E+06    -437.320E+03    -2.42684E+06    -15.8241E-03     31.4776E-03    -15.6536E-03     32.6126E-03    -15.7831E-03     31.2329E-03    -15.5720E-03     32.5743E-03
             662     8.86100E-03     76.0905E-03    -5.34785E+06    -49.7981E+06     775.413E+03    -2.47987E+06    -15.8849E-03     31.5336E-03    -15.6487E-03     36.9118E-03    -15.8450E-03     31.2957E-03    -15.5649E-03     36.8707E-03
             663     9.74716E-03     76.1267E-03    -4.45323E+06    -51.8051E+06     1.31642E+06    -2.52926E+06    -15.9684E-03     31.6145E-03    -15.6461E-03     41.2470E-03    -15.9245E-03     31.3671E-03    -15.5580E-03     41.2022E-03
             664     10.6333E-03     76.1669E-03    -3.73072E+06    -46.8477E+06    -1.30081E+06    -2.41717E+06    -16.0218E-03     31.6389E-03    -15.6171E-03     45.6564E-03    -15.9816E-03     31.4229E-03    -15.5502E-03     45.6089E-03
             665     11.5196E-03     76.2112E-03    -3.17107E+06    -43.1784E+06     496.400E+03    -2.23148E+06    -16.0661E-03     31.6760E-03    -15.6098E-03     49.9567E-03    -16.0374E-03     31.4812E-03    -15.5402E-03     49.9064E-03
             666     12.4059E-03     76.2593E-03    -2.75629E+06    -45.0595E+06    -1.83014E+06    -2.04611E+06    -16.2151E-03     31.8035E-03    -15.5884E-03     56.8358E-03    -16.1903E-03     31.6143E-03    -15.5282E-03     56.7809E-03
             667     13.2922E-03     76.3163E-03    -2.74660E+06    -43.0796E+06    -12.2419E+06    -1.66412E+06    -16.2583E-03     31.7783E-03    -15.5200E-03     60.4117E-03    -16.2389E-03     31.6317E-03    -15.5148E-03     60.3542E-03
             668     14.1785E-03     76.3713E-03    -3.27576E+06    -25.4267E+06    -13.6963E+06    -1.17218E+06    -16.2346E-03     31.7063E-03    -15.4717E-03     64.0036E-03    -16.2717E-03     31.6812E-03    -15.4986E-03     63.9483E-03
             669     15.0650E-03     76.4353E-03    -3.97051E+06     11.1120E+06    -14.6984E+06    -571.586E+03    -17.5143E-03     32.9137E-03    -15.3993E-03     95.1580E-03    -17.7848E-03     33.2521E-03    -15.4832E-03     95.1286E-03
             670     15.9512E-03     76.5486E-03    -4.18126E+06     74.3698E+06    -18.2159E+06    -63.0416E+03    -21.0856E-03     36.3676E-03    -15.2820E-03     163.568E-03    -22.8645E-03     38.4486E-03    -15.4749E-03     164.092E-03
             671     16.8380E-03     76.7417E-03    -3.41337E+06     150.773E+06     32.7926E+06    -95.4107E+03    -24.9107E-03     40.3319E-03    -15.4212E-03     235.013E-03    -30.6040E-03     46.4533E-03    -15.4709E-03     239.263E-03
             672     886.076E-06     76.9097E-03    -15.5210E+06    -53.8254E+06    -15.1427E+06    -427.481E+03    -15.6186E-03     31.2678E-03    -15.6492E-03     3.47235E-03    -15.5961E-03     31.0434E-03    -15.6244E-03     3.46636E-03
             673     1.77211E-03     76.9143E-03    -14.7436E+06    -52.5555E+06    -13.1429E+06    -863.482E+03    -15.6219E-03     31.2582E-03    -15.6364E-03     6.51450E-03    -15.6004E-03     31.0359E-03    -15.6045E-03     6.50243E-03
             674     2.65822E-03     76.9217E-03    -13.6624E+06    -53.7529E+06    -10.1604E+06    -1.35259E+06    -15.6314E-03     31.2762E-03    -15.6448E-03     9.80145E-03    -15.6072E-03     31.0421E-03    -15.5979E-03     9.78257E-03
             675     3.54430E-03     76.9323E-03    -12.4105E+06    -53.1096E+06    -7.52000E+06    -1.72258E+06    -15.6437E-03     31.2937E-03    -15.6501E-03     13.2181E-03    -15.6181E-03     31.0574E-03    -15.5927E-03     13.1939E-03
             676     4.43039E-03     76.9461E-03    -11.0717E+06    -51.2184E+06    -5.48864E+06    -1.97718E+06    -15.6576E-03     31.3078E-03    -15.6501E-03     16.7608E-03    -15.6313E-03     31.0762E-03    -15.5872E-03     16.7327E-03
             677     5.31651E-03     76.9633E-03    -9.74334E+06    -55.1277E+06    -3.49730E+06    -2.22073E+06    -15.6926E-03     31.3508E-03    -15.6582E-03     20.4376E-03    -15.6572E-03     31.0952E-03    -15.5816E-03     20.4056E-03
             678     6.20262E-03     76.9839E-03    -8.51795E+06    -54.3139E+06    -2.55316E+06    -2.47830E+06    -15.7248E-03     31.3789E-03    -15.6542E-03     24.3233E-03    -15.6862E-03     31.1247E-03    -15.5758E-03     24.2871E-03
             679     7.08876E-03     77.0083E-03    -7.44220E+06    -52.7842E+06    -1.54170E+06    -2.69541E+06    -15.7661E-03     31.4153E-03    -15.6492E-03     28.3835E-03    -15.7265E-03     31.1664E-03    -15.5696E-03     28.3433E-03
             680     7.97491E-03     77.0364E-03    -6.42114E+06    -51.1230E+06    -700.504E+03    -2.81313E+06    -15.8160E-03     31.4588E-03    -15.6428E-03     32.6135E-03    -15.7759E-03     31.2165E-03    -15.5629E-03     32.5703E-03
             681     8.86108E-03     77.0686E-03    -5.41905E+06    -49.4362E+06     514.357E+03    -2.86804E+06    -15.8743E-03     31.5122E-03    -15.6379E-03     36.9196E-03    -15.8350E-03     31.2767E-03    -15.5558E-03     36.8735E-03
             682     9.74726E-03     77.1047E-03    -4.49607E+06    -51.5006E+06     1.13201E+06    -2.92574E+06    -15.9455E-03     31.5807E-03    -15.6352E-03     41.2352E-03    -15.9020E-03     31.3351E-03    -15.5483E-03     41.1852E-03
             683     10.6335E-03     77.1449E-03    -3.76719E+06    -46.8500E+06    -1.58758E+06    -2.85016E+06    -15.9970E-03     31.6019E-03    -15.6049E-03     45.6013E-03    -15.9565E-03     31.3863E-03    -15.5395E-03     45.5483E-03
             684     11.5197E-03     77.1891E-03    -3.10267E+06    -43.2149E+06     220.447E+03    -2.63876E+06    -16.0513E-03     31.6483E-03    -15.5970E-03     49.8917E-03    -16.0217E-03     31.4537E-03    -15.5288E-03     49.8362E-03
             685     12.4060E-03     77.2373E-03    -2.52651E+06    -45.1750E+06    -1.99810E+06    -2.36701E+06    -16.2373E-03     31.8145E-03    -15.5772E-03     56.7182E-03    -16.2109E-03     31.6246E-03    -15.5180E-03     56.6591E-03
             686     13.2922E-03     77.2942E-03    -2.53033E+06    -43.6059E+06    -12.6094E+06    -1.94985E+06    -16.3424E-03     31.8550E-03    -15.5126E-03     60.3474E-03    -16.3206E-03     31.7060E-03    -15.5087E-03     60.2861E-03
             687     14.1785E-03     77.3492E-03    -2.92514E+06    -26.1651E+06    -14.1152E+06    -1.24028E+06    -16.3586E-03     31.8295E-03    -15.4709E-03     64.0394E-03    -16.3927E-03     31.8012E-03    -15.4993E-03     63.9827E-03
             688     15.0648E-03     77.4129E-03    -3.27023E+06     10.6786E+06    -14.7952E+06    -613.195E+03    -17.5855E-03     32.9899E-03    -15.4044E-03     95.3613E-03    -17.8533E-03     33.3269E-03    -15.4891E-03     95.3312E-03
             689     15.9514E-03     77.5267E-03    -3.90933E+06     74.0533E+06    -18.4096E+06    -659.145E+03    -21.1135E-03     36.4035E-03    -15.2899E-03     163.337E-03    -22.8929E-03     38.4852E-03    -15.4837E-03     163.856E-03
             690     16.8373E-03     77.7197E-03    -3.26075E+06     150.557E+06     32.6329E+06    -356.970E+03    -24.8138E-03     40.2436E-03    -15.4297E-03     234.411E-03    -30.5000E-03     46.3580E-03    -15.4801E-03     238.666E-03
             691     886.043E-06     77.8879E-03    -15.5969E+06    -52.8153E+06    -15.0665E+06    -539.785E+03    -15.6027E-03     31.2336E-03    -15.6309E-03     3.46893E-03    -15.5822E-03     31.0143E-03    -15.6071E-03     3.46148E-03
             692     1.77218E-03     77.8924E-03    -14.8691E+06    -51.5477E+06    -13.2267E+06    -987.527E+03    -15.6063E-03     31.2258E-03    -15.6195E-03     6.50651E-03    -15.5868E-03     31.0088E-03    -15.5893E-03     6.49285E-03
             693     2.65824E-03     77.8999E-03    -13.7819E+06    -52.7452E+06    -10.3283E+06    -1.43334E+06    -15.6186E-03     31.2470E-03    -15.6285E-03     9.79191E-03    -15.5962E-03     31.0184E-03    -15.5836E-03     9.77198E-03
             694     3.54435E-03     77.9105E-03    -12.4900E+06    -52.2100E+06    -7.72173E+06    -1.85608E+06    -15.6328E-03     31.2674E-03    -15.6347E-03     13.2084E-03    -15.6086E-03     31.0360E-03    -15.5794E-03     13.1825E-03
             695     4.43046E-03     77.9243E-03    -11.1920E+06    -50.4531E+06    -5.73567E+06    -2.21935E+06    -15.6462E-03     31.2817E-03    -15.6355E-03     16.7495E-03    -15.6213E-03     31.0545E-03    -15.5747E-03     16.7182E-03
             696     5.31658E-03     77.9414E-03    -9.86780E+06    -54.3876E+06    -3.62233E+06    -2.54053E+06    -15.6844E-03     31.3293E-03    -15.6449E-03     20.4226E-03    -15.6505E-03     31.0778E-03    -15.5698E-03     20.3865E-03
             697     6.20270E-03     77.9620E-03    -8.59384E+06    -53.6104E+06    -2.67338E+06    -2.83479E+06    -15.7180E-03     31.3597E-03    -15.6417E-03     24.3104E-03    -15.6806E-03     31.1093E-03    -15.5649E-03     24.2696E-03
             698     7.08884E-03     77.9864E-03    -7.44346E+06    -52.1939E+06    -1.65612E+06    -3.05803E+06    -15.7585E-03     31.3959E-03    -15.6374E-03     28.3747E-03    -15.7196E-03     31.1501E-03    -15.5592E-03     28.3299E-03
             699     7.97499E-03     78.0145E-03    -6.39822E+06    -50.6362E+06    -796.634E+03    -3.22936E+06    -15.8086E-03     31.4403E-03    -15.6317E-03     32.6011E-03    -15.7690E-03     31.2005E-03    -15.5530E-03     32.5525E-03
             700     8.86117E-03     78.0467E-03    -5.38718E+06    -49.0685E+06     357.564E+03    -3.32458E+06    -15.8594E-03     31.4861E-03    -15.6266E-03     36.9050E-03    -15.8203E-03     31.2525E-03    -15.5459E-03     36.8530E-03
             701     9.74736E-03     78.0828E-03    -4.42891E+06    -51.1620E+06     1.02103E+06    -3.34131E+06    -15.9276E-03     31.5511E-03    -15.6236E-03     41.2078E-03    -15.8840E-03     31.3073E-03    -15.5378E-03     41.1525E-03
             702     10.6336E-03     78.1229E-03    -3.66594E+06    -46.7043E+06    -1.69053E+06    -3.32390E+06    -15.9948E-03     31.5885E-03    -15.5936E-03     45.5600E-03    -15.9539E-03     31.3737E-03    -15.5291E-03     45.5009E-03
             703     11.5198E-03     78.1671E-03    -3.01413E+06    -43.2900E+06     35.5951E+03    -3.13720E+06    -16.0579E-03     31.6446E-03    -15.5867E-03     49.8630E-03    -16.0275E-03     31.4497E-03    -15.5194E-03     49.8010E-03
             704     12.4061E-03     78.2152E-03    -2.43352E+06    -45.3362E+06    -2.13488E+06    -2.83759E+06    -16.2455E-03     31.8139E-03    -15.5684E-03     56.7225E-03    -16.2183E-03     31.6232E-03    -15.5098E-03     56.6574E-03
             705     13.2923E-03     78.2722E-03    -2.23446E+06    -44.1130E+06    -12.7309E+06    -2.40336E+06    -16.3674E-03     31.8730E-03    -15.5056E-03     60.3586E-03    -16.3433E-03     31.7212E-03    -15.5020E-03     60.2913E-03
             706     14.1786E-03     78.3270E-03    -2.34190E+06    -26.9666E+06    -14.1925E+06    -1.75798E+06    -16.4478E-03     31.9156E-03    -15.4678E-03     64.0741E-03    -16.4780E-03     31.8829E-03    -15.4963E-03     64.0103E-03
             707     15.0649E-03     78.3910E-03     -2.4682E+06     10.1669E+06    -14.5563E+06     -991.01E+03    -17.7298E-03     33.1384E-03    -15.4085E-03     95.5719E-03    -17.9947E-03     33.4728E-03    -15.4925E-03     95.5359E-03
             708     15.9506E-03     78.5048E-03    -3.35275E+06     73.8097E+06    -18.1319E+06    -386.409E+03    -21.2538E-03     36.5534E-03    -15.2996E-03     164.152E-03    -23.0418E-03     38.6441E-03    -15.4924E-03     164.676E-03
             709     16.8363E-03     78.6985E-03    -2.99822E+06     150.303E+06     32.6324E+06    -117.416E+03    -24.7561E-03     40.1929E-03    -15.4368E-03     235.045E-03    -30.4530E-03     46.3181E-03    -15.4873E-03     239.326E-03
             710     886.119E-06     78.8660E-03    -15.4540E+06    -51.6730E+06    -15.0839E+06    -528.379E+03    -15.6057E-03     31.1993E-03    -15.5936E-03     3.45429E-03    -15.5860E-03     30.9854E-03    -15.5717E-03     3.44701E-03
             711     1.77215E-03     78.8705E-03    -14.8407E+06    -50.4369E+06    -13.3432E+06    -1.07837E+06    -15.5990E-03     31.2024E-03    -15.6034E-03     6.49053E-03    -15.5807E-03     30.9912E-03    -15.5755E-03     6.47569E-03
             712     2.65830E-03     78.8780E-03    -13.7969E+06    -51.7089E+06    -10.4660E+06    -1.56669E+06    -15.6080E-03     31.2228E-03    -15.6148E-03     9.78475E-03    -15.5869E-03     30.9996E-03    -15.5722E-03     9.76309E-03
             713     3.54438E-03     78.8886E-03    -12.5219E+06    -51.2138E+06    -7.88767E+06    -2.01391E+06    -15.6191E-03     31.2403E-03    -15.6212E-03     13.1962E-03    -15.5963E-03     31.0142E-03    -15.5682E-03     13.1682E-03
             714     4.43051E-03     78.9024E-03    -11.2215E+06    -49.4996E+06    -5.91006E+06    -2.45744E+06    -15.6344E-03     31.2564E-03    -15.6220E-03     16.7342E-03    -15.6107E-03     31.0343E-03    -15.5635E-03     16.6999E-03
             715     5.31663E-03     78.9195E-03    -9.92093E+06    -53.5079E+06    -3.77447E+06    -2.86563E+06    -15.6783E-03     31.3106E-03    -15.6323E-03     20.4084E-03    -15.6457E-03     31.0638E-03    -15.5592E-03     20.3681E-03
             716     6.20275E-03     78.9401E-03    -8.66237E+06    -52.8030E+06    -2.73788E+06    -3.22666E+06    -15.7108E-03     31.3413E-03    -15.6305E-03     24.2871E-03    -15.6749E-03     31.0951E-03    -15.5551E-03     24.2412E-03
             717     7.08891E-03     78.9644E-03    -7.49707E+06    -51.5313E+06    -1.77233E+06    -3.50227E+06    -15.7476E-03     31.3740E-03    -15.6265E-03     28.3527E-03    -15.7097E-03     31.1318E-03    -15.5497E-03     28.3021E-03
             718     7.97507E-03     78.9925E-03    -6.40538E+06    -50.0646E+06    -927.951E+03    -3.67302E+06    -15.7955E-03     31.4161E-03    -15.6206E-03     32.5831E-03    -15.7566E-03     31.1794E-03    -15.5434E-03     32.5288E-03
             719     8.86125E-03     79.0247E-03    -5.39505E+06    -48.6036E+06     240.432E+03    -3.79487E+06    -15.8444E-03     31.4599E-03    -15.6154E-03     36.8766E-03    -15.8058E-03     31.2288E-03    -15.5359E-03     36.8185E-03
             720     9.74748E-03     79.0608E-03    -4.40298E+06    -50.8219E+06      905.66E+03    -3.85281E+06    -15.9190E-03     31.5314E-03    -15.6124E-03     41.1760E-03    -15.8756E-03     31.2893E-03    -15.5278E-03     41.1141E-03
             721     10.6337E-03     79.1009E-03    -3.61848E+06    -46.4584E+06    -1.73438E+06    -3.80542E+06    -15.9989E-03     31.5826E-03    -15.5837E-03     45.5238E-03    -15.9581E-03     31.3690E-03    -15.5197E-03     45.4584E-03
             722     11.5199E-03     79.1450E-03    -2.98461E+06    -43.3319E+06    -93.2567E+03    -3.64688E+06    -16.0651E-03     31.6431E-03    -15.5780E-03     49.8092E-03    -16.0344E-03     31.4482E-03    -15.5113E-03     49.7406E-03
             723     12.4062E-03     79.1932E-03    -2.38940E+06    -45.4431E+06    -2.31950E+06    -3.37813E+06    -16.2567E-03     31.8175E-03    -15.5607E-03     56.6768E-03    -16.2289E-03     31.6265E-03    -15.5030E-03     56.6046E-03
             724     13.2925E-03     79.2501E-03    -2.20114E+06    -44.4009E+06    -12.8488E+06    -3.06350E+06    -16.3919E-03     31.8922E-03    -15.5003E-03     60.2989E-03    -16.3670E-03     31.7391E-03    -15.4970E-03     60.2230E-03
             725     14.1786E-03     79.3050E-03    -2.18911E+06    -27.6415E+06    -14.3523E+06    -2.52279E+06    -16.4904E-03     31.9553E-03    -15.4650E-03     64.1455E-03    -16.5188E-03     31.9195E-03    -15.4935E-03     64.0717E-03
             726     15.0647E-03     79.3691E-03    -2.25582E+06     9.14856E+06    -14.8478E+06    -1.72923E+06    -17.6996E-03     33.1053E-03    -15.4057E-03     95.7703E-03    -17.9629E-03     33.4361E-03    -15.4899E-03     95.7253E-03
             727     15.9513E-03     79.4831E-03    -2.46258E+06     72.6145E+06    -18.0604E+06    -349.625E+03    -21.0429E-03     36.3330E-03    -15.2900E-03     164.528E-03    -22.8267E-03     38.4182E-03    -15.4821E-03     165.059E-03
             728     16.8384E-03     79.6771E-03    -2.14144E+06     150.333E+06     33.0185E+06     701.499E+03    -24.8137E-03     40.2358E-03    -15.4220E-03     235.134E-03    -30.5017E-03     46.3541E-03    -15.4718E-03     239.410E-03
             729     886.076E-06     79.8441E-03    -15.3435E+06    -50.4754E+06    -15.0256E+06    -647.778E+03    -15.5893E-03     31.1761E-03    -15.5867E-03     3.42471E-03    -15.5710E-03     30.9679E-03    -15.5664E-03     3.41588E-03
             730     1.77222E-03     79.8486E-03    -14.7598E+06    -49.2134E+06    -13.3670E+06    -1.15861E+06    -15.5864E-03     31.1774E-03    -15.5910E-03     6.48946E-03    -15.5695E-03     30.9722E-03    -15.5651E-03     6.47357E-03
             731     2.65829E-03     79.8561E-03    -13.8054E+06    -50.5703E+06    -10.5725E+06    -1.68455E+06    -15.6009E-03     31.2037E-03    -15.6028E-03     9.77999E-03    -15.5814E-03     30.9864E-03    -15.5623E-03     9.75680E-03
             732     3.54443E-03     79.8667E-03    -12.5205E+06    -50.1078E+06    -7.99444E+06    -2.21496E+06    -15.6097E-03     31.2198E-03    -15.6101E-03     13.1813E-03    -15.5884E-03     30.9993E-03    -15.5593E-03     13.1507E-03
             733     4.43054E-03     79.8805E-03    -11.2041E+06    -48.4127E+06    -6.00648E+06    -2.71734E+06    -15.6248E-03     31.2359E-03    -15.6111E-03     16.7176E-03    -15.6024E-03     31.0193E-03    -15.5547E-03     16.6799E-03
             734     5.31668E-03     79.8976E-03    -9.91452E+06    -52.4770E+06    -3.87763E+06    -3.20038E+06    -15.6666E-03     31.2880E-03    -15.6214E-03     20.3957E-03    -15.6353E-03     31.0465E-03    -15.5503E-03     20.3511E-03
             735     6.20282E-03     79.9182E-03    -8.65689E+06    -51.8738E+06    -2.82188E+06    -3.62151E+06    -15.7029E-03     31.3228E-03    -15.6199E-03     24.2732E-03    -15.6682E-03     31.0814E-03    -15.5463E-03     24.2222E-03
             736     7.08896E-03     79.9425E-03    -7.50606E+06    -50.7635E+06    -1.82453E+06    -3.94166E+06    -15.7386E-03     31.3551E-03    -15.6165E-03     28.3344E-03    -15.7018E-03     31.1168E-03    -15.5412E-03     28.2782E-03
             737     7.97514E-03     79.9706E-03    -6.45670E+06    -49.4505E+06    -1.04581E+06    -4.13791E+06    -15.7811E-03     31.3916E-03    -15.6105E-03     32.5566E-03    -15.7431E-03     31.1581E-03    -15.5346E-03     32.4963E-03
             738     8.86135E-03     80.0027E-03    -5.43623E+06    -48.0173E+06     102.331E+03    -4.28908E+06    -15.8389E-03     31.4442E-03    -15.6052E-03     36.8369E-03    -15.8011E-03     31.2163E-03    -15.5272E-03     36.7725E-03
             739     9.74754E-03     80.0388E-03    -4.48144E+06    -50.4129E+06     744.408E+03    -4.37749E+06    -15.9218E-03     31.5250E-03    -15.6032E-03     41.1300E-03    -15.8792E-03     31.2854E-03    -15.5199E-03     41.0613E-03
             740     10.6338E-03     80.0788E-03    -3.70116E+06    -46.2278E+06    -1.93325E+06    -4.31769E+06    -16.0055E-03     31.5812E-03    -15.5758E-03     45.4779E-03    -15.9651E-03     31.3692E-03    -15.5130E-03     45.4059E-03
             741     11.5200E-03     80.1230E-03    -3.03799E+06    -43.2272E+06    -324.637E+03    -4.18004E+06    -16.0863E-03     31.6580E-03    -15.5717E-03     49.7376E-03    -16.0556E-03     31.4641E-03    -15.5063E-03     49.6621E-03
             742     12.4062E-03     80.1710E-03    -2.40759E+06    -45.5338E+06    -2.62997E+06    -3.95656E+06    -16.2858E-03     31.8424E-03    -15.5566E-03     56.6271E-03    -16.2575E-03     31.6515E-03    -15.5003E-03     56.5475E-03
             743     13.2924E-03     80.2281E-03    -2.29920E+06    -44.5378E+06    -13.1065E+06    -3.61661E+06    -16.4033E-03     31.9015E-03    -15.4982E-03     60.2609E-03    -16.3783E-03     31.7483E-03    -15.4959E-03     60.1778E-03
             744     14.1787E-03     80.2829E-03    -2.68048E+06    -28.1799E+06    -14.8827E+06    -3.17277E+06    -16.4807E-03     31.9436E-03    -15.4629E-03     64.2032E-03    -16.5101E-03     31.9065E-03    -15.4925E-03     64.1211E-03
             745     15.0650E-03     80.3473E-03    -3.01591E+06     8.20266E+06    -15.6072E+06    -2.53760E+06    -17.7016E-03     33.1052E-03    -15.4036E-03     95.6125E-03    -17.9661E-03     33.4334E-03    -15.4891E-03     95.5573E-03
             746     15.9511E-03     80.4607E-03    -3.50989E+06     70.4592E+06    -19.0184E+06    -707.091E+03    -21.0297E-03     36.3202E-03    -15.2904E-03     164.004E-03    -22.8095E-03     38.3927E-03    -15.4826E-03     164.528E-03
             747     16.8370E-03     80.6550E-03    -3.21910E+06     149.652E+06     31.5521E+06     868.529E+03    -24.7716E-03     40.1892E-03    -15.4176E-03     235.103E-03    -30.4696E-03     46.3155E-03    -15.4721E-03     239.382E-03
             748     886.103E-06     80.8222E-03    -15.3116E+06    -49.1645E+06    -14.9237E+06    -710.458E+03    -15.5702E-03     31.1510E-03    -15.5808E-03     3.44328E-03    -15.5537E-03     30.9492E-03    -15.5620E-03     3.43362E-03
             749     1.77220E-03     80.8267E-03    -14.7681E+06    -47.9784E+06    -13.3137E+06    -1.20686E+06    -15.5833E-03     31.1640E-03    -15.5806E-03     6.49062E-03    -15.5684E-03     30.9648E-03    -15.5562E-03     6.47412E-03
             750     2.65835E-03     80.8342E-03    -13.7848E+06    -49.2752E+06    -10.5368E+06    -1.80708E+06    -15.5941E-03     31.1885E-03    -15.5944E-03     9.75924E-03    -15.5764E-03     30.9775E-03    -15.5556E-03     9.73447E-03
             751     3.54443E-03     80.8448E-03    -12.5302E+06    -48.8382E+06    -8.02541E+06    -2.42056E+06    -15.6015E-03     31.2032E-03    -15.6017E-03     13.1641E-03    -15.5820E-03     30.9891E-03    -15.5529E-03     13.1308E-03
             752     4.43058E-03     80.8585E-03    -11.2307E+06    -47.2048E+06    -6.09644E+06    -3.00813E+06    -15.6138E-03     31.2162E-03    -15.6024E-03     16.7062E-03    -15.5932E-03     31.0058E-03    -15.5481E-03     16.6648E-03
             753     5.31671E-03     80.8757E-03    -9.91273E+06    -51.3138E+06    -3.96364E+06    -3.55121E+06    -15.6543E-03     31.2664E-03    -15.6122E-03     20.3820E-03    -15.6245E-03     31.0308E-03    -15.5432E-03     20.3328E-03
             754     6.20286E-03     80.8962E-03    -8.63517E+06    -50.8058E+06    -2.89236E+06    -4.05012E+06    -15.6903E-03     31.3006E-03    -15.6103E-03     24.2569E-03    -15.6569E-03     31.0646E-03    -15.5386E-03     24.2004E-03
             755     7.08903E-03     80.9205E-03    -7.46175E+06    -49.9256E+06    -1.85346E+06    -4.39071E+06    -15.7329E-03     31.3403E-03    -15.6074E-03     28.3064E-03    -15.6971E-03     31.1061E-03    -15.5335E-03     28.2443E-03
             756     7.97519E-03     80.9486E-03    -6.38443E+06    -48.7617E+06    -1.09495E+06    -4.58909E+06    -15.7800E-03     31.3820E-03    -15.6020E-03     32.5205E-03    -15.7426E-03     31.1520E-03    -15.5276E-03     32.4543E-03
             757     8.86139E-03     80.9807E-03    -5.42042E+06    -47.3250E+06    -71.7905E+03    -4.77200E+06    -15.8382E-03     31.4353E-03    -15.5970E-03     36.8071E-03    -15.8011E-03     31.2111E-03    -15.5209E-03     36.7364E-03
             758     9.74760E-03     81.0167E-03    -4.48236E+06    -49.9470E+06     512.279E+03    -4.87864E+06    -15.9302E-03     31.5263E-03    -15.5961E-03     41.1013E-03    -15.8880E-03     31.2894E-03    -15.5146E-03     41.0261E-03
             759     10.6338E-03     81.0568E-03    -3.72900E+06    -45.9652E+06    -2.23404E+06    -4.83405E+06    -16.0190E-03     31.5891E-03    -15.5701E-03     45.4515E-03    -15.9787E-03     31.3788E-03    -15.5092E-03     45.3728E-03
             760     11.5200E-03     81.1010E-03    -3.10010E+06    -43.0229E+06    -631.106E+03    -4.70878E+06    -16.1103E-03     31.6782E-03    -15.5679E-03     49.7224E-03    -16.0798E-03     31.4858E-03    -15.5042E-03     49.6400E-03
             761     12.4062E-03     81.1490E-03    -2.60099E+06    -45.5713E+06    -2.98178E+06    -4.49863E+06    -16.3118E-03     31.8669E-03    -15.5551E-03     56.6087E-03    -16.2838E-03     31.6766E-03    -15.5002E-03     56.5220E-03
             762     13.2924E-03     81.2060E-03    -2.55522E+06    -44.7883E+06    -13.5477E+06    -4.09163E+06    -16.4285E-03     31.9270E-03    -15.4985E-03     60.2213E-03    -16.4038E-03     31.7735E-03    -15.4976E-03     60.1320E-03
             763     14.1786E-03     81.2608E-03    -2.96475E+06    -28.5431E+06    -15.2576E+06    -3.55372E+06    -16.4873E-03     31.9520E-03    -15.4647E-03     64.1655E-03    -16.5168E-03     31.9139E-03    -15.4953E-03     64.0785E-03
             764     15.0647E-03     81.3253E-03    -3.82525E+06      7.0703E+06    -16.3563E+06    -2.64845E+06    -17.8001E-03     33.2082E-03    -15.4081E-03     95.7279E-03    -18.0660E-03     33.5331E-03    -15.4946E-03     95.6702E-03
             765     15.9508E-03     81.4390E-03    -4.48145E+06     68.0943E+06    -20.2503E+06    -848.673E+03    -21.2138E-03     36.5159E-03    -15.3021E-03     163.962E-03    -22.9940E-03     38.5807E-03    -15.4956E-03     164.481E-03
             766     16.8375E-03     81.6329E-03    -3.36094E+06     148.910E+06     30.6517E+06     400.726E+03    -24.6461E-03     40.0742E-03    -15.4281E-03     235.330E-03    -30.3598E-03     46.2158E-03    -15.4859E-03     239.630E-03
             767     886.157E-06     81.8003E-03    -15.3477E+06    -47.8451E+06    -14.8756E+06    -703.208E+03    -15.5559E-03     31.1239E-03    -15.5680E-03     3.47918E-03    -15.5415E-03     30.9287E-03    -15.5508E-03     3.46961E-03
             768     1.77222E-03     81.8048E-03    -14.6958E+06    -46.6450E+06    -13.1274E+06    -1.26896E+06    -15.5859E-03     31.1569E-03    -15.5710E-03     6.49494E-03    -15.5727E-03     30.9641E-03    -15.5477E-03     6.47763E-03
             769     2.65831E-03     81.8123E-03    -13.6531E+06    -47.8943E+06    -10.3265E+06    -1.88777E+06    -15.5882E-03     31.1763E-03    -15.5881E-03     9.76018E-03    -15.5721E-03     30.9717E-03    -15.5505E-03     9.73437E-03
             770     3.54446E-03     81.8228E-03    -12.4517E+06    -47.4159E+06    -7.90622E+06    -2.57256E+06    -15.5930E-03     31.1880E-03    -15.5950E-03     13.1547E-03    -15.5754E-03     30.9808E-03    -15.5477E-03     13.1195E-03
             771     4.43060E-03     81.8366E-03    -11.2048E+06    -45.8089E+06    -6.05727E+06    -3.27853E+06    -15.6050E-03     31.2001E-03    -15.5951E-03     16.6949E-03    -15.5864E-03     30.9966E-03    -15.5427E-03     16.6500E-03
             772     5.31675E-03     81.8537E-03    -9.89473E+06    -49.9897E+06    -4.00313E+06    -3.94538E+06    -15.6449E-03     31.2492E-03    -15.6043E-03     20.3680E-03    -15.6169E-03     31.0202E-03    -15.5375E-03     20.3137E-03
             773     6.20290E-03     81.8743E-03    -8.61962E+06    -49.6400E+06    -2.98091E+06    -4.47569E+06    -15.6811E-03     31.2833E-03    -15.6022E-03     24.2397E-03    -15.6492E-03     31.0533E-03    -15.5326E-03     24.1777E-03
             774     7.08907E-03     81.8985E-03    -7.46939E+06    -48.9897E+06    -1.99505E+06    -4.86503E+06    -15.7256E-03     31.3250E-03    -15.5993E-03     28.2847E-03    -15.6910E-03     31.0957E-03    -15.5274E-03     28.2165E-03
             775     7.97524E-03     81.9266E-03    -6.39373E+06    -48.0211E+06    -1.30695E+06    -5.08334E+06    -15.7802E-03     31.3745E-03    -15.5943E-03     32.5001E-03    -15.7436E-03     31.1485E-03    -15.5219E-03     32.4276E-03
             776     8.86143E-03     81.9587E-03    -5.40300E+06    -46.5893E+06    -302.184E+03    -5.22123E+06    -15.8435E-03     31.4336E-03    -15.5901E-03     36.7941E-03    -15.8070E-03     31.2134E-03    -15.5162E-03     36.7176E-03
             777     9.74763E-03     81.9948E-03    -4.51414E+06    -49.3459E+06     308.315E+03    -5.38335E+06    -15.9382E-03     31.5289E-03    -15.5907E-03     41.0903E-03    -15.8966E-03     31.2952E-03    -15.5111E-03     41.0087E-03
             778     10.6338E-03     82.0348E-03    -3.75681E+06    -45.6797E+06    -2.47413E+06    -5.37823E+06    -16.0319E-03     31.5981E-03    -15.5662E-03     45.4384E-03    -15.9918E-03     31.3897E-03    -15.5069E-03     45.3528E-03
             779     11.5200E-03     82.0790E-03    -3.13499E+06    -42.8148E+06    -861.795E+03    -5.20848E+06    -16.1228E-03     31.6882E-03    -15.5654E-03     49.7383E-03    -16.0925E-03     31.4972E-03    -15.5031E-03     49.6495E-03
             780     12.4062E-03     82.1270E-03    -2.62774E+06    -45.5256E+06    -3.17027E+06    -4.97175E+06    -16.3366E-03     31.8910E-03    -15.5544E-03     56.6123E-03    -16.3085E-03     31.7012E-03    -15.5004E-03     56.5195E-03
             781     13.2923E-03     82.1840E-03    -2.59704E+06    -45.0800E+06    -13.8929E+06    -4.55505E+06    -16.4808E-03     31.9808E-03    -15.5000E-03     60.2489E-03    -16.4554E-03     31.8264E-03    -15.5003E-03     60.1535E-03
             782     14.1785E-03     82.2389E-03    -3.07629E+06    -29.1863E+06    -15.6591E+06    -3.78799E+06    -16.5134E-03     31.9822E-03    -15.4688E-03     64.1466E-03    -16.5419E-03     31.9415E-03    -15.5003E-03     64.0564E-03
             783     15.0648E-03     82.3032E-03    -3.45609E+06     5.67521E+06    -16.6693E+06    -2.57156E+06    -17.8029E-03     33.2158E-03    -15.4129E-03     96.0375E-03    -18.0651E-03     33.5342E-03    -15.4994E-03     95.9806E-03
             784     15.9508E-03     82.4177E-03    -3.91228E+06     66.1244E+06    -20.6947E+06    -1.25573E+06    -21.2565E-03     36.5633E-03    -15.3067E-03     164.167E-03    -23.0320E-03     38.6196E-03    -15.5004E-03     164.680E-03
             785     16.8364E-03     82.6106E-03    -3.20218E+06     148.249E+06     30.5677E+06    -183.268E+03    -24.6099E-03     40.0430E-03    -15.4332E-03     235.242E-03    -30.3231E-03     46.1826E-03    -15.4906E-03     239.542E-03
             786     886.100E-06     82.7783E-03    -15.1916E+06    -46.4640E+06    -14.7316E+06    -736.091E+03    -15.5511E-03     31.1271E-03    -15.5760E-03     3.51049E-03    -15.5382E-03     30.9384E-03    -15.5603E-03     3.50050E-03
             787     1.77225E-03     82.7829E-03    -14.4625E+06    -45.2293E+06    -12.9246E+06    -1.34886E+06    -15.5684E-03     31.1373E-03    -15.5689E-03     6.47070E-03    -15.5564E-03     30.9509E-03    -15.5469E-03     6.45236E-03
             788     2.65838E-03     82.7903E-03    -13.4370E+06    -46.4770E+06    -10.1101E+06    -1.97389E+06    -15.5769E-03     31.1584E-03    -15.5815E-03     9.74890E-03    -15.5622E-03     30.9603E-03    -15.5451E-03     9.72198E-03
             789     3.54447E-03     82.8009E-03    -12.2267E+06    -45.8915E+06    -7.65851E+06    -2.66718E+06    -15.5902E-03     31.1784E-03    -15.5881E-03     13.1514E-03    -15.5740E-03     30.9781E-03    -15.5421E-03     13.1149E-03
             790     4.43062E-03     82.8146E-03    -11.0310E+06    -44.1895E+06    -5.86552E+06    -3.47505E+06    -15.6039E-03     31.1928E-03    -15.5889E-03     16.6783E-03    -15.5871E-03     30.9969E-03    -15.5382E-03     16.6309E-03
             791     5.31677E-03     82.8318E-03    -9.80640E+06    -48.4509E+06    -3.93070E+06    -4.30769E+06    -15.6391E-03     31.2374E-03    -15.5984E-03     20.3458E-03    -15.6130E-03     31.0159E-03    -15.5335E-03     20.2868E-03
             792     6.20293E-03     82.8523E-03    -8.52343E+06    -48.3718E+06    -3.06206E+06    -4.97057E+06    -15.6720E-03     31.2677E-03    -15.5957E-03     24.2200E-03    -15.6413E-03     31.0439E-03    -15.5285E-03     24.1516E-03
             793     7.08910E-03     82.8766E-03    -7.29497E+06    -47.9733E+06    -2.08402E+06    -5.34783E+06    -15.7174E-03     31.3100E-03    -15.5926E-03     28.2715E-03    -15.6832E-03     31.0856E-03    -15.5229E-03     28.1971E-03
             794     7.97529E-03     82.9046E-03    -6.31027E+06    -47.2390E+06    -1.41449E+06    -5.53615E+06    -15.7800E-03     31.3680E-03    -15.5880E-03     32.4858E-03    -15.7439E-03     31.1460E-03    -15.5175E-03     32.4074E-03
             795     8.86147E-03     82.9367E-03    -5.38630E+06    -45.7892E+06    -466.020E+03    -5.71863E+06    -15.8496E-03     31.4340E-03    -15.5844E-03     36.7802E-03    -15.8139E-03     31.2181E-03    -15.5126E-03     36.6973E-03
             796     9.74765E-03     82.9727E-03    -4.43612E+06    -48.6581E+06     235.586E+03    -5.87723E+06    -15.9384E-03     31.5247E-03    -15.5863E-03     41.0923E-03    -15.8973E-03     31.2945E-03    -15.5081E-03     41.0043E-03
             797     10.6338E-03     83.0128E-03    -3.76633E+06    -45.3111E+06    -2.64459E+06    -5.87667E+06    -16.0317E-03     31.5938E-03    -15.5621E-03     45.4642E-03    -15.9919E-03     31.3874E-03    -15.5042E-03     45.3721E-03
             798     11.5200E-03     83.0569E-03    -3.21764E+06    -42.6180E+06    -1.14343E+06    -5.71496E+06    -16.1272E-03     31.6886E-03    -15.5615E-03     49.7858E-03    -16.0971E-03     31.4991E-03    -15.5007E-03     49.6905E-03
             799     12.4062E-03     83.1051E-03    -2.70235E+06    -45.4378E+06    -3.37173E+06    -5.44027E+06    -16.3519E-03     31.9037E-03    -15.5518E-03     56.6877E-03    -16.3241E-03     31.7147E-03    -15.4988E-03     56.5888E-03
             800     13.2924E-03     83.1620E-03    -2.68067E+06    -45.3307E+06    -14.1353E+06    -5.02009E+06    -16.5147E-03     32.0140E-03    -15.4992E-03     60.3604E-03    -16.4891E-03     31.8589E-03    -15.5003E-03     60.2589E-03
             801     14.1784E-03     83.2170E-03    -2.92850E+06    -29.9437E+06    -15.9005E+06    -4.24155E+06    -16.5832E-03     32.0547E-03    -15.4715E-03     64.1628E-03    -16.6098E-03     32.0106E-03    -15.5033E-03     64.0664E-03
             802     15.0645E-03     83.2810E-03    -3.04788E+06     4.33668E+06    -16.8055E+06    -3.17679E+06    -17.7495E-03     33.1660E-03    -15.4166E-03     96.1480E-03    -18.0078E-03     33.4777E-03    -15.5025E-03     96.0839E-03
             803     15.9509E-03     83.3961E-03    -3.41565E+06     63.9861E+06    -20.9205E+06    -1.68670E+06    -21.1317E-03     36.4366E-03    -15.3049E-03     164.456E-03    -22.9035E-03     38.4841E-03    -15.4973E-03     164.968E-03
             804     16.8376E-03     83.5891E-03    -2.87119E+06     147.438E+06     30.3396E+06    -176.010E+03    -24.6213E-03     40.0477E-03    -15.4265E-03     235.032E-03    -30.3185E-03     46.1702E-03    -15.4844E-03     239.323E-03
             805     886.112E-06     83.7565E-03    -14.7078E+06    -44.9445E+06    -14.2878E+06    -744.832E+03    -15.5733E-03     31.1352E-03    -15.5619E-03     3.53489E-03    -15.5608E-03     30.9527E-03    -15.5468E-03     3.52478E-03
             806     1.77220E-03     83.7609E-03    -14.0426E+06    -43.7551E+06    -12.5915E+06    -1.41401E+06    -15.5559E-03     31.1249E-03    -15.5691E-03     6.48102E-03    -15.5445E-03     30.9449E-03    -15.5482E-03     6.46184E-03
             807     2.65835E-03     83.7684E-03    -13.0198E+06    -44.9710E+06    -9.81202E+06    -2.11043E+06    -15.5697E-03     31.1471E-03    -15.5775E-03     9.73755E-03    -15.5555E-03     30.9555E-03    -15.5424E-03     9.70887E-03
             808     3.54451E-03     83.7790E-03    -11.8121E+06    -44.3582E+06    -7.42464E+06    -2.80041E+06    -15.5861E-03     31.1692E-03    -15.5831E-03     13.1352E-03    -15.5704E-03     30.9756E-03    -15.5388E-03     13.0971E-03
             809     4.43063E-03     83.7927E-03    -10.6276E+06    -42.4480E+06    -5.60272E+06    -3.58799E+06    -15.6016E-03     31.1855E-03    -15.5839E-03     16.6596E-03    -15.5856E-03     30.9973E-03    -15.5349E-03     16.6107E-03
             810     5.31678E-03     83.8098E-03    -9.50106E+06    -46.6171E+06    -3.69197E+06    -4.56591E+06    -15.6346E-03     31.2281E-03    -15.5934E-03     20.3296E-03    -15.6100E-03     31.0149E-03    -15.5305E-03     20.2673E-03
             811     6.20293E-03     83.8303E-03    -8.38648E+06    -46.9051E+06    -2.98289E+06    -5.40066E+06    -15.6633E-03     31.2538E-03    -15.5905E-03     24.2058E-03    -15.6342E-03     31.0370E-03    -15.5252E-03     24.1319E-03
             812     7.08913E-03     83.8546E-03    -7.36829E+06    -46.9606E+06    -2.20436E+06    -5.82547E+06    -15.7117E-03     31.2988E-03    -15.5871E-03     28.2631E-03    -15.6792E-03     31.0798E-03    -15.5193E-03     28.1825E-03
             813     7.97530E-03     83.8827E-03    -6.27487E+06    -46.3373E+06    -1.45713E+06    -6.05840E+06    -15.7748E-03     31.3577E-03    -15.5829E-03     32.4847E-03    -15.7398E-03     31.1401E-03    -15.5139E-03     32.3996E-03
             814     8.86148E-03     83.9147E-03     -5.2004E+06    -44.9387E+06    -506.066E+03    -6.26279E+06    -15.8378E-03     31.4165E-03    -15.5787E-03     36.7950E-03    -15.8023E-03     31.2046E-03    -15.5086E-03     36.7051E-03
             815     9.74769E-03     83.9508E-03    -4.30198E+06    -47.9807E+06     168.760E+03    -6.36087E+06    -15.9280E-03     31.5081E-03    -15.5801E-03     41.1251E-03    -15.8871E-03     31.2811E-03    -15.5035E-03     41.0308E-03
             816     10.6339E-03     83.9908E-03    -3.62141E+06    -44.8879E+06    -2.64779E+06    -6.31710E+06    -16.0249E-03     31.5812E-03    -15.5562E-03     45.5076E-03    -15.9850E-03     31.3767E-03    -15.4991E-03     45.4099E-03
             817     11.5201E-03     84.0350E-03    -3.15864E+06    -42.3747E+06    -1.20748E+06    -6.12281E+06    -16.1262E-03     31.6819E-03    -15.5556E-03     49.8412E-03    -16.0961E-03     31.4936E-03    -15.4957E-03     49.7407E-03
             818     12.4063E-03     84.0830E-03    -2.81191E+06    -45.3434E+06    -3.50032E+06    -5.87478E+06    -16.3527E-03     31.8991E-03    -15.5464E-03     56.7660E-03    -16.3254E-03     31.7109E-03    -15.4940E-03     56.6615E-03
             819     13.2924E-03     84.1401E-03    -2.82368E+06    -45.5339E+06    -14.3392E+06    -5.51707E+06    -16.5128E-03     32.0068E-03    -15.4941E-03     60.4749E-03    -16.4873E-03     31.8513E-03    -15.4956E-03     60.3670E-03
             820     14.1785E-03     84.1951E-03    -3.01767E+06    -30.5756E+06    -16.0973E+06    -4.94419E+06    -16.6070E-03     32.0745E-03    -15.4675E-03     64.3640E-03    -16.6331E-03     32.0280E-03    -15.4993E-03     64.2585E-03
             821     15.0646E-03     84.2593E-03    -3.20279E+06     3.23804E+06    -17.0445E+06    -3.96948E+06    -17.7272E-03     33.1404E-03    -15.4133E-03     96.2189E-03    -17.9848E-03     33.4476E-03    -15.4985E-03     96.1451E-03
             822     15.9510E-03     84.3735E-03    -3.79926E+06     61.5541E+06    -21.5364E+06    -2.12267E+06    -21.0124E-03     36.3098E-03    -15.2974E-03     164.780E-03    -22.7860E-03     38.3509E-03    -15.4888E-03     165.292E-03
             823     16.8368E-03     84.5678E-03    -3.05112E+06     146.107E+06     29.5169E+06    -244.357E+03    -24.6383E-03     40.0508E-03    -15.4125E-03     235.122E-03    -30.3251E-03     46.1598E-03    -15.4723E-03     239.403E-03
             824     886.095E-06     84.7344E-03    -14.2409E+06    -43.2221E+06    -14.0282E+06    -956.475E+03    -15.5756E-03     31.1232E-03    -15.5476E-03     3.46593E-03    -15.5637E-03     30.9483E-03    -15.5345E-03     3.45310E-03
             825     1.77228E-03     84.7390E-03    -13.5084E+06    -42.2181E+06    -12.2709E+06    -1.60215E+06    -15.5564E-03     31.1204E-03    -15.5640E-03     6.48884E-03    -15.5450E-03     30.9467E-03    -15.5445E-03     6.46722E-03
             826     2.65837E-03     84.7465E-03    -12.5399E+06    -43.4064E+06    -9.57858E+06    -2.24740E+06    -15.5762E-03     31.1505E-03    -15.5744E-03     9.73650E-03    -15.5622E-03     30.9657E-03    -15.5411E-03     9.70605E-03
             827     3.54447E-03     84.7571E-03    -11.2784E+06    -42.6568E+06    -7.17438E+06    -3.07716E+06    -15.5803E-03     31.1608E-03    -15.5805E-03     13.1273E-03    -15.5647E-03     30.9745E-03    -15.5382E-03     13.0856E-03
             828     4.43065E-03     84.7708E-03    -9.91391E+06    -40.7823E+06    -5.33921E+06    -3.86591E+06    -15.5883E-03     31.1677E-03    -15.5794E-03     16.6514E-03    -15.5716E-03     30.9865E-03    -15.5326E-03     16.5989E-03
             829     5.31680E-03     84.7879E-03    -8.72686E+06    -44.6204E+06    -3.16469E+06    -4.69826E+06    -15.6257E-03     31.2138E-03    -15.5881E-03     20.3227E-03    -15.6009E-03     31.0088E-03    -15.5266E-03     20.2587E-03
             830     6.20297E-03     84.8083E-03    -7.81720E+06    -45.2833E+06    -2.18645E+06    -5.56134E+06    -15.6628E-03     31.2501E-03    -15.5872E-03     24.1990E-03    -15.6344E-03     31.0395E-03    -15.5212E-03     24.1230E-03
             831     7.08914E-03     84.8326E-03    -6.89050E+06    -45.7117E+06    -1.59094E+06    -6.20427E+06    -15.7048E-03     31.2886E-03    -15.5837E-03     28.2680E-03    -15.6726E-03     31.0743E-03    -15.5154E-03     28.1826E-03
             832     7.97533E-03     84.8606E-03    -5.84962E+06    -45.2242E+06    -1.28740E+06    -6.68367E+06    -15.7520E-03     31.3284E-03    -15.5764E-03     32.5070E-03    -15.7167E-03     31.1155E-03    -15.5088E-03     32.4139E-03
             833     8.86156E-03     84.8927E-03    -4.81966E+06    -44.1599E+06    -467.665E+03    -6.85489E+06    -15.8155E-03     31.3858E-03    -15.5703E-03     36.8308E-03    -15.7793E-03     31.1771E-03    -15.5016E-03     36.7333E-03
             834     9.74778E-03     84.9287E-03    -3.91027E+06    -47.3575E+06     273.154E+03    -6.79797E+06    -15.9151E-03     31.4862E-03    -15.5711E-03     41.1669E-03    -15.8733E-03     31.2616E-03    -15.4954E-03     41.0671E-03
             835     10.6340E-03     84.9688E-03    -3.43266E+06    -44.5191E+06    -2.54765E+06    -6.62039E+06    -16.0185E-03     31.5661E-03    -15.5476E-03     45.5566E-03    -15.9783E-03     31.3630E-03    -15.4908E-03     45.4550E-03
             836     11.5202E-03     85.0129E-03    -3.14677E+06    -42.1198E+06    -1.16283E+06    -6.39052E+06    -16.1170E-03     31.6641E-03    -15.5471E-03     49.9094E-03    -16.0872E-03     31.4770E-03    -15.4873E-03     49.8054E-03
             837     12.4064E-03     85.0611E-03    -2.81076E+06    -45.0551E+06    -3.47559E+06    -6.24095E+06    -16.3445E-03     31.8820E-03    -15.5375E-03     56.8650E-03    -16.3176E-03     31.6953E-03    -15.4855E-03     56.7558E-03
             838     13.2925E-03     85.1181E-03    -2.82416E+06    -45.5694E+06    -14.3919E+06    -6.04938E+06    -16.4892E-03     31.9739E-03    -15.4846E-03     60.5730E-03    -16.4636E-03     31.8182E-03    -15.4864E-03     60.4584E-03
             839     14.1787E-03     85.1732E-03    -3.12748E+06    -31.0566E+06    -16.2710E+06    -5.52948E+06    -16.5576E-03     32.0140E-03    -15.4564E-03     64.4734E-03    -16.5832E-03     31.9654E-03    -15.4882E-03     64.3606E-03
             840     15.0649E-03     85.2373E-03    -3.57733E+06     2.02507E+06    -17.4300E+06    -4.55668E+06    -17.7831E-03     33.1865E-03    -15.4034E-03     96.1128E-03    -18.0404E-03     33.4889E-03    -15.4883E-03     96.0311E-03
             841     15.9511E-03     85.3515E-03    -4.19676E+06     58.9527E+06    -22.0720E+06    -2.63426E+06    -21.0579E-03     36.3509E-03    -15.2929E-03     164.528E-03    -22.8293E-03     38.3806E-03    -15.4827E-03     165.034E-03
             842     16.8384E-03     85.5457E-03    -3.46212E+06     144.581E+06     28.7536E+06    -652.154E+03    -24.6001E-03     40.0067E-03    -15.4065E-03     235.102E-03    -30.2885E-03     46.1126E-03    -15.4674E-03     239.380E-03
             843     886.126E-06     85.7126E-03    -14.0113E+06    -41.0652E+06    -13.8245E+06    -1.31642E+06    -15.5487E-03     31.1207E-03    -15.5719E-03     3.43386E-03    -15.5391E-03     30.9559E-03    -15.5612E-03     3.41639E-03
             844     1.77221E-03     85.7171E-03    -13.4324E+06    -40.6601E+06    -12.3087E+06    -1.88726E+06    -15.5586E-03     31.1217E-03    -15.5631E-03     6.47365E-03    -15.5490E-03     30.9558E-03    -15.5462E-03     6.44836E-03
             845     2.65836E-03     85.7246E-03    -12.1879E+06    -41.5313E+06    -9.49343E+06    -2.69582E+06    -15.5660E-03     31.1382E-03    -15.5722E-03     9.73123E-03    -15.5531E-03     30.9622E-03    -15.5418E-03     9.69499E-03
             846     3.54450E-03     85.7351E-03    -10.5313E+06    -40.6921E+06    -6.96361E+06    -3.68671E+06    -15.5700E-03     31.1456E-03    -15.5756E-03     13.1280E-03    -15.5539E-03     30.9678E-03    -15.5361E-03     13.0784E-03
             847     4.43065E-03     85.7488E-03    -8.98612E+06    -39.1835E+06    -5.00259E+06    -4.43761E+06    -15.5762E-03     31.1495E-03    -15.5733E-03     16.6597E-03    -15.5576E-03     30.9744E-03    -15.5285E-03     16.5998E-03
             848     5.31684E-03     85.7659E-03    -7.75280E+06    -43.0485E+06    -2.69098E+06    -4.84886E+06    -15.6161E-03     31.1973E-03    -15.5812E-03     20.3249E-03    -15.5894E-03     30.9981E-03    -15.5210E-03     20.2590E-03
             849     6.20299E-03     85.7864E-03    -6.91341E+06    -43.4738E+06    -1.30559E+06    -5.47158E+06    -15.6528E-03     31.2341E-03    -15.5813E-03     24.2020E-03    -15.6237E-03     31.0299E-03    -15.5148E-03     24.1272E-03
             850     7.08918E-03     85.8106E-03    -6.10085E+06    -43.8945E+06    -687.021E+03    -6.53275E+06    -15.6841E-03     31.2611E-03    -15.5769E-03     28.2797E-03    -15.6519E-03     31.0534E-03    -15.5079E-03     28.1901E-03
             851     7.97541E-03     85.8386E-03    -5.11811E+06    -44.0043E+06    -820.972E+03    -7.23261E+06    -15.7285E-03     31.2952E-03    -15.5667E-03     32.5311E-03    -15.6920E-03     31.0867E-03    -15.4996E-03     32.4310E-03
             852     8.86165E-03     85.8706E-03    -4.29710E+06    -43.4790E+06    -331.083E+03    -7.31025E+06    -15.7954E-03     31.3540E-03    -15.5586E-03     36.8644E-03    -15.7578E-03     31.1478E-03    -15.4910E-03     36.7611E-03
             853     9.74787E-03     85.9067E-03    -3.72266E+06    -46.8880E+06     323.920E+03    -7.08626E+06    -15.8933E-03     31.4519E-03    -15.5587E-03     41.2131E-03    -15.8513E-03     31.2293E-03    -15.4837E-03     41.1097E-03
             854     10.6341E-03     85.9467E-03    -3.36737E+06    -44.2498E+06    -2.39515E+06    -6.74898E+06    -15.9976E-03     31.5328E-03    -15.5352E-03     45.6279E-03    -15.9577E-03     31.3308E-03    -15.4781E-03     45.5247E-03
             855     11.5203E-03     85.9909E-03    -3.09295E+06    -41.6435E+06    -962.717E+03    -6.61117E+06    -16.1042E-03     31.6384E-03    -15.5342E-03     49.9986E-03    -16.0751E-03     31.4532E-03    -15.4742E-03     49.8918E-03
             856     12.4066E-03     86.0390E-03    -2.68444E+06    -44.6126E+06    -3.28723E+06    -6.68062E+06    -16.3318E-03     31.8562E-03    -15.5244E-03     56.9700E-03    -16.3052E-03     31.6712E-03    -15.4723E-03     56.8552E-03
             857     13.2927E-03     86.0962E-03    -2.59786E+06    -45.3797E+06    -14.2088E+06    -6.59555E+06    -16.4919E-03     31.9640E-03    -15.4721E-03     60.6375E-03    -16.4656E-03     31.8086E-03    -15.4736E-03     60.5159E-03
             858     14.1789E-03     86.1510E-03    -2.93636E+06    -31.5443E+06    -16.1825E+06    -6.12682E+06    -16.5655E-03     32.0109E-03    -15.4454E-03     64.4713E-03    -16.5895E-03     31.9595E-03    -15.4763E-03     64.3508E-03
             859     15.0650E-03     86.2156E-03    -3.36927E+06     651.114E+03    -17.3547E+06    -4.89439E+06    -17.8575E-03     33.2539E-03    -15.3964E-03     96.1982E-03    -18.1122E-03     33.5493E-03    -15.4792E-03     96.1117E-03
             860     15.9510E-03     86.3296E-03    -3.95595E+06     56.5050E+06    -21.9561E+06    -2.90722E+06    -21.3111E-03     36.6084E-03    -15.2973E-03     164.371E-03    -23.0781E-03     38.6256E-03    -15.4833E-03     164.867E-03
             861     16.8365E-03     86.5232E-03    -3.02409E+06     142.823E+06     28.1399E+06    -1.01350E+06    -24.5181E-03     39.9297E-03    -15.4115E-03     234.877E-03    -30.2007E-03     46.0269E-03    -15.4735E-03     239.168E-03
             862     886.106E-06     86.6907E-03    -12.7869E+06    -38.5848E+06    -12.1352E+06    -1.34814E+06    -15.5736E-03     31.1277E-03    -15.5542E-03     3.48572E-03    -15.5638E-03     30.9712E-03    -15.5404E-03     3.46783E-03
             863     1.77223E-03     86.6952E-03    -11.9167E+06    -38.6987E+06    -10.5905E+06    -2.25792E+06    -15.5586E-03     31.1263E-03    -15.5678E-03     6.47965E-03    -15.5467E-03     30.9655E-03    -15.5473E-03     6.44957E-03
             864     2.65836E-03     86.7026E-03    -10.6817E+06    -39.1117E+06    -8.66608E+06    -3.39904E+06    -15.5537E-03     31.1224E-03    -15.5687E-03     9.75208E-03    -15.5380E-03     30.9551E-03    -15.5398E-03     9.70677E-03
             865     3.54451E-03     86.7132E-03    -9.37744E+06    -38.5714E+06    -6.73072E+06    -4.47855E+06    -15.5565E-03     31.1231E-03    -15.5666E-03     13.1254E-03    -15.5380E-03     30.9539E-03    -15.5307E-03     13.0656E-03
             866     4.43070E-03     86.7268E-03    -8.14073E+06    -37.6580E+06    -4.87490E+06    -5.03277E+06    -15.5645E-03     31.1277E-03    -15.5632E-03     16.6618E-03    -15.5441E-03     30.9588E-03    -15.5211E-03     16.5943E-03
             867     5.31686E-03     86.7439E-03    -7.00332E+06    -41.9550E+06    -2.75693E+06    -5.21339E+06    -15.5968E-03     31.1660E-03    -15.5692E-03     20.3456E-03    -15.5678E-03     30.9712E-03    -15.5120E-03     20.2750E-03
             868     6.20307E-03     86.7644E-03    -5.99844E+06    -41.8495E+06    -1.33249E+06    -5.45492E+06    -15.6227E-03     31.1886E-03    -15.5659E-03     24.2297E-03    -15.5913E-03     30.9912E-03    -15.5032E-03     24.1551E-03
             869     7.08929E-03     86.7886E-03    -5.29457E+06    -41.3211E+06    -54.0259E+03    -6.62146E+06    -15.6566E-03     31.2179E-03    -15.5613E-03     28.3021E-03    -15.6250E-03     31.0209E-03    -15.4940E-03     28.2114E-03
             870     7.97552E-03     86.8165E-03    -4.72841E+06    -42.9235E+06    -233.255E+03    -7.54758E+06    -15.7064E-03     31.2587E-03    -15.5523E-03     32.5632E-03    -15.6703E-03     31.0542E-03    -15.4844E-03     32.4591E-03
             871     8.86177E-03     86.8486E-03    -4.47888E+06    -43.1089E+06    -393.871E+03    -7.20903E+06    -15.7657E-03     31.3075E-03    -15.5418E-03     36.9246E-03    -15.7295E-03     31.1035E-03    -15.4748E-03     36.8227E-03
             872     9.74805E-03     86.8845E-03    -4.39855E+06    -46.1806E+06     195.570E+03    -7.06080E+06    -15.8594E-03     31.3998E-03    -15.5405E-03     41.2934E-03    -15.8215E-03     31.1819E-03    -15.4662E-03     41.1904E-03
             873     10.6343E-03     86.9247E-03    -4.01324E+06    -43.9586E+06    -2.53944E+06    -7.08853E+06    -15.9685E-03     31.4850E-03    -15.5165E-03     45.7214E-03    -15.9319E-03     31.2855E-03    -15.4596E-03     45.6139E-03
             874     11.5206E-03     86.9688E-03    -3.30802E+06    -40.8933E+06    -912.529E+03    -7.08566E+06    -16.0892E-03     31.6041E-03    -15.5149E-03     50.1155E-03    -16.0623E-03     31.4229E-03    -15.4554E-03     50.0027E-03
             875     12.4068E-03     87.0171E-03    -2.52406E+06    -43.8830E+06    -3.04082E+06    -7.39355E+06    -16.3302E-03     31.8364E-03    -15.5062E-03     57.0712E-03    -16.3041E-03     31.6544E-03    -15.4541E-03     56.9473E-03
             876     13.2930E-03     87.0741E-03    -2.13420E+06    -45.4069E+06    -14.0597E+06    -7.24765E+06    -16.5091E-03     31.9645E-03    -15.4555E-03     60.7764E-03    -16.4807E-03     31.8082E-03    -15.4569E-03     60.6464E-03
             877     14.1790E-03     87.1293E-03    -2.42959E+06    -31.9441E+06    -15.8626E+06    -6.61910E+06    -16.5884E-03     32.0205E-03    -15.4320E-03     64.5897E-03    -16.6098E-03     31.9658E-03    -15.4615E-03     64.4628E-03
             878     15.0652E-03     87.1933E-03    -2.64993E+06     -982.42E+03    -16.9659E+06    -5.31680E+06    -17.8296E-03     33.2143E-03    -15.3847E-03     96.5690E-03    -18.0794E-03     33.5004E-03    -15.4642E-03     96.4772E-03
             879     15.9512E-03     87.3083E-03    -2.70790E+06     54.1560E+06    -21.5729E+06    -3.01894E+06    -21.2707E-03     36.5525E-03    -15.2818E-03     165.236E-03    -23.0352E-03     38.5623E-03    -15.4643E-03     165.733E-03
             880     16.8375E-03     87.5019E-03    -2.37295E+06     141.317E+06     28.5774E+06    -1.05156E+06    -24.6766E-03     40.0730E-03    -15.3963E-03     235.390E-03    -30.3593E-03     46.1660E-03    -15.4549E-03     239.672E-03
             881     886.116E-06     87.6688E-03    -10.4424E+06    -36.0118E+06    -9.91423E+06    -1.18927E+06    -15.5970E-03     31.1242E-03    -15.5272E-03     3.43981E-03    -15.5825E-03     30.9739E-03    -15.5094E-03     3.42398E-03
             882     1.77223E-03     87.6732E-03    -9.87521E+06    -36.0639E+06    -8.94736E+06    -2.53895E+06    -15.5473E-03     31.1086E-03    -15.5613E-03     6.47090E-03    -15.5315E-03     30.9556E-03    -15.5394E-03     6.43719E-03
             883     2.65839E-03     87.6807E-03    -9.16680E+06    -36.2403E+06    -7.87601E+06    -3.97715E+06    -15.5434E-03     31.0996E-03    -15.5562E-03     9.75337E-03    -15.5254E-03     30.9432E-03    -15.5297E-03     9.70060E-03
             884     3.54455E-03     87.6912E-03    -8.25773E+06    -36.2995E+06    -6.42847E+06    -5.10147E+06    -15.5407E-03     31.0926E-03    -15.5518E-03     13.1401E-03    -15.5204E-03     30.9327E-03    -15.5193E-03     13.0723E-03
             885     4.43072E-03     87.7049E-03    -7.37394E+06    -36.3554E+06    -4.95048E+06    -5.48945E+06    -15.5440E-03     31.0907E-03    -15.5467E-03     16.6792E-03    -15.5215E-03     30.9273E-03    -15.5080E-03     16.6058E-03
             886     5.31696E-03     87.7219E-03    -6.44098E+06    -40.6872E+06    -2.94692E+06    -5.69005E+06    -15.5652E-03     31.1152E-03    -15.5501E-03     20.3665E-03    -15.5350E-03     30.9262E-03    -15.4965E-03     20.2899E-03
             887     6.20319E-03     87.7423E-03    -5.12787E+06    -40.5066E+06    -1.45887E+06    -6.10172E+06    -15.5865E-03     31.1301E-03    -15.5436E-03     24.2539E-03    -15.5525E-03     30.9384E-03    -15.4847E-03     24.1711E-03
             888     7.08945E-03     87.7665E-03    -3.76991E+06    -38.7590E+06     746.329E+03    -6.86299E+06    -15.6220E-03     31.1603E-03    -15.5384E-03     28.3408E-03    -15.5876E-03     30.9728E-03    -15.4730E-03     28.2470E-03
             889     7.97570E-03     87.7945E-03    -3.27989E+06    -42.2382E+06     1.92435E+06    -7.15639E+06    -15.6788E-03     31.2163E-03    -15.5375E-03     32.5817E-03    -15.6396E-03     31.0100E-03    -15.4619E-03     32.4826E-03
             890     8.86201E-03     87.8264E-03    -3.29756E+06    -42.9538E+06     1.29153E+06    -6.68680E+06    -15.7348E-03     31.2596E-03    -15.5247E-03     36.9669E-03    -15.6953E-03     31.0521E-03    -15.4512E-03     36.8718E-03
             891     9.74829E-03     87.8625E-03    -3.14083E+06    -44.9123E+06     1.34488E+06    -6.80008E+06    -15.8281E-03     31.3460E-03    -15.5179E-03     41.3663E-03    -15.7874E-03     31.1309E-03    -15.4415E-03     41.2667E-03
             892     10.6346E-03     87.9025E-03    -3.07147E+06    -43.4339E+06    -1.70441E+06    -7.14569E+06    -15.9467E-03     31.4401E-03    -15.4933E-03     45.8167E-03    -15.9074E-03     31.2406E-03    -15.4344E-03     45.7086E-03
             893     11.5208E-03     87.9468E-03    -2.75324E+06    -39.5394E+06    -447.805E+03    -7.74098E+06    -16.0679E-03     31.5571E-03    -15.4892E-03     50.2668E-03    -16.0408E-03     31.3812E-03    -15.4301E-03     50.1456E-03
             894     12.4071E-03     87.9950E-03    -1.79118E+06    -42.9412E+06    -2.45176E+06    -8.43939E+06    -16.3300E-03     31.8122E-03    -15.4821E-03     57.2400E-03    -16.3025E-03     31.6330E-03    -15.4295E-03     57.1027E-03
             895     13.2932E-03     88.0522E-03    -1.27876E+06    -45.8225E+06    -13.8184E+06    -8.03035E+06    -16.5159E-03     31.9487E-03    -15.4328E-03     60.9576E-03    -16.4831E-03     31.7888E-03    -15.4336E-03     60.8175E-03
             896     14.1794E-03     88.1073E-03    -1.63763E+06    -32.5557E+06    -15.3944E+06    -6.82733E+06    -16.5908E-03     32.0028E-03    -15.4121E-03     64.7037E-03    -16.6080E-03     31.9434E-03    -15.4395E-03     64.5742E-03
             897     15.0655E-03     88.1715E-03    -2.19949E+06    -2.06745E+06    -16.4794E+06    -5.88052E+06    -17.7843E-03     33.1500E-03    -15.3657E-03     96.6107E-03    -18.0309E-03     33.4292E-03    -15.4419E-03     96.5121E-03
             898     15.9521E-03     88.2861E-03    -2.67345E+06     50.8140E+06    -21.7964E+06    -3.89232E+06    -21.1499E-03     36.4104E-03    -15.2605E-03     164.918E-03    -22.9076E-03     38.4022E-03    -15.4393E-03     165.408E-03
             899     16.8390E-03     88.4800E-03    -2.52641E+06     139.282E+06     28.0680E+06    -825.129E+03    -24.7654E-03     40.1406E-03    -15.3751E-03     234.606E-03    -30.4263E-03     46.2055E-03    -15.4331E-03     238.865E-03
             900     886.105E-06     88.6468E-03    -9.22315E+06    -33.5724E+06    -9.31636E+06    -1.16547E+06    -15.5494E-03     31.0865E-03    -15.5371E-03     3.40367E-03    -15.5332E-03     30.9457E-03    -15.5216E-03     3.38816E-03
             901     1.77228E-03     88.6513E-03    -9.10183E+06    -32.8963E+06    -8.74454E+06    -2.64665E+06    -15.5281E-03     31.0662E-03    -15.5381E-03     6.47826E-03    -15.5133E-03     30.9276E-03    -15.5209E-03     6.44318E-03
             902     2.65842E-03     88.6587E-03    -8.59308E+06    -32.9750E+06    -7.28435E+06    -4.36014E+06    -15.5157E-03     31.0499E-03    -15.5342E-03     9.75073E-03    -15.5005E-03     30.9082E-03    -15.5103E-03     9.69304E-03
             903     3.54463E-03     88.6692E-03    -7.83110E+06    -33.9180E+06    -5.86766E+06    -5.56298E+06    -15.5108E-03     31.0403E-03    -15.5294E-03     13.1569E-03    -15.4926E-03     30.8908E-03    -15.4982E-03     13.0832E-03
             904     4.43085E-03     88.6828E-03    -6.94659E+06    -35.0947E+06    -4.47871E+06    -5.92339E+06    -15.5141E-03     31.0380E-03    -15.5239E-03     16.6934E-03    -15.4920E-03     30.8796E-03    -15.4854E-03     16.6145E-03
             905     5.31707E-03     88.6998E-03    -5.79405E+06    -38.9224E+06    -2.50121E+06    -6.34695E+06    -15.5300E-03     31.0546E-03    -15.5245E-03     20.3921E-03    -15.4998E-03     30.8728E-03    -15.4722E-03     20.3069E-03
             906     6.20333E-03     88.7202E-03    -4.42055E+06    -38.8128E+06    -1.13967E+06    -7.16540E+06    -15.5459E-03     31.0614E-03    -15.5155E-03     24.2949E-03    -15.5113E-03     30.8766E-03    -15.4585E-03     24.1984E-03
             907     7.08963E-03     88.7444E-03    -3.30135E+06    -37.3692E+06     824.484E+03    -7.38169E+06    -15.5739E-03     31.0813E-03    -15.5074E-03     28.3977E-03    -15.5393E-03     30.8999E-03    -15.4443E-03     28.2973E-03
             908     7.97596E-03     88.7723E-03    -2.54655E+06    -42.1082E+06     3.06020E+06    -6.74559E+06    -15.6385E-03     31.1499E-03    -15.5114E-03     32.6154E-03    -15.5975E-03     30.9414E-03    -15.4313E-03     32.5217E-03
             909     8.86223E-03     88.8042E-03    -2.00050E+06    -42.3843E+06     2.76459E+06    -6.41772E+06    -15.6989E-03     31.1965E-03    -15.4977E-03     37.0207E-03    -15.6558E-03     30.9879E-03    -15.4195E-03     36.9291E-03
             910     9.74861E-03     88.8403E-03    -1.50365E+06    -43.5924E+06     2.09554E+06    -6.74890E+06    -15.7875E-03     31.2720E-03    -15.4845E-03     41.4798E-03    -15.7416E-03     31.0599E-03    -15.4087E-03     41.3810E-03
             911     10.6349E-03     88.8803E-03    -1.01047E+06    -42.5216E+06    -836.308E+03    -7.17265E+06    -15.9170E-03     31.3766E-03    -15.4595E-03     45.9662E-03    -15.8699E-03     31.1773E-03    -15.4006E-03     45.8578E-03
             912     11.5212E-03     88.9246E-03    -577.069E+03    -37.4827E+06     526.755E+03    -8.10339E+06    -16.0441E-03     31.4978E-03    -15.4537E-03     50.4609E-03    -16.0104E-03     31.3275E-03    -15.3959E-03     50.3353E-03
             913     12.4075E-03     88.9729E-03    -427.153E+03    -41.8900E+06    -1.58238E+06    -9.02796E+06    -16.3171E-03     31.7662E-03    -15.4491E-03     57.4682E-03    -16.2855E-03     31.5890E-03    -15.3957E-03     57.3234E-03
             914     13.2937E-03     89.0301E-03    -843.179E+03    -46.6015E+06    -13.6543E+06    -8.49292E+06    -16.5417E-03     31.9440E-03    -15.4023E-03     61.1581E-03    -16.5058E-03     31.7792E-03    -15.4017E-03     61.0121E-03
             915     14.1797E-03     89.0853E-03    -1.51384E+06    -33.6687E+06    -15.2729E+06    -7.04966E+06    -16.6610E-03     32.0477E-03    -15.3867E-03     64.8045E-03    -16.6764E-03     31.9825E-03    -15.4121E-03     64.6719E-03
             916     15.0659E-03     89.1494E-03    -2.36364E+06    -2.26137E+06    -15.5971E+06    -5.99754E+06    -17.9165E-03     33.2675E-03    -15.3509E-03     96.4819E-03    -18.1652E-03     33.5449E-03    -15.4222E-03     96.3811E-03
             917     15.9518E-03     89.2641E-03    -3.72693E+06     47.3582E+06    -21.8412E+06    -4.07142E+06    -21.4036E-03     36.6626E-03    -15.2591E-03     164.924E-03    -23.1669E-03     38.6441E-03    -15.4315E-03     165.407E-03
             918     16.8369E-03     89.4582E-03    -3.44295E+06     136.143E+06     26.5922E+06    -1.07567E+06    -24.7269E-03     40.0986E-03    -15.3718E-03     234.752E-03    -30.3915E-03     46.1573E-03    -15.4312E-03     239.028E-03
             919     886.191E-06     89.6249E-03    -9.20266E+06    -30.8212E+06    -9.08471E+06    -1.55770E+06    -15.4980E-03     31.0063E-03    -15.5083E-03     3.43080E-03    -15.4861E-03     30.8789E-03    -15.4957E-03     3.41023E-03
             920     1.77231E-03     89.6294E-03    -8.50971E+06    -29.6716E+06    -7.79765E+06    -2.86120E+06    -15.4932E-03     30.9949E-03    -15.5017E-03     6.49159E-03    -15.4815E-03     30.8703E-03    -15.4853E-03     6.45375E-03
             921     2.65853E-03     89.6367E-03    -7.79697E+06    -29.2928E+06    -5.80842E+06    -4.58338E+06    -15.4821E-03     30.9832E-03    -15.5011E-03     9.77044E-03    -15.4703E-03     30.8566E-03    -15.4763E-03     9.70989E-03
             922     3.54473E-03     89.6472E-03    -6.89493E+06    -31.5921E+06    -3.69559E+06    -5.82813E+06    -15.4786E-03     30.9811E-03    -15.5025E-03     13.1652E-03    -15.4622E-03     30.8388E-03    -15.4652E-03     13.0881E-03
             923     4.43097E-03     89.6608E-03    -6.01893E+06    -33.6068E+06    -2.64971E+06    -6.21203E+06    -15.4730E-03     30.9691E-03    -15.4961E-03     16.7027E-03    -15.4510E-03     30.8141E-03    -15.4519E-03     16.6200E-03
             924     5.31726E-03     89.6777E-03    -5.05322E+06    -36.4655E+06    -1.89866E+06    -7.10500E+06    -15.4802E-03     30.9677E-03    -15.4875E-03     20.4275E-03    -15.4507E-03     30.7963E-03    -15.4368E-03     20.3327E-03
             925     6.20357E-03     89.6981E-03    -4.21144E+06    -37.2128E+06    -1.27998E+06    -7.76215E+06    -15.4926E-03     30.9671E-03    -15.4745E-03     24.3494E-03    -15.4591E-03     30.7903E-03    -15.4208E-03     24.2453E-03
             926     7.08991E-03     89.7222E-03    -3.84072E+06    -36.8609E+06    -305.774E+03    -7.43211E+06    -15.5134E-03     30.9752E-03    -15.4619E-03     28.4744E-03    -15.4805E-03     30.7988E-03    -15.4044E-03     28.3735E-03
             927     7.97625E-03     89.7501E-03    -3.40477E+06    -42.0504E+06     1.47646E+06    -6.87763E+06    -15.5709E-03     31.0329E-03    -15.4620E-03     32.7292E-03    -15.5319E-03     30.8282E-03    -15.3887E-03     32.6340E-03
             928     8.86265E-03     89.7820E-03    -2.50869E+06    -41.4035E+06     2.12693E+06    -6.75951E+06    -15.6356E-03     31.0845E-03    -15.4489E-03     37.1640E-03    -15.5955E-03     30.8823E-03    -15.3746E-03     37.0682E-03
             929     9.74902E-03     89.8180E-03    -1.43612E+06    -42.2493E+06     1.87271E+06    -7.29190E+06    -15.7285E-03     31.1635E-03    -15.4349E-03     41.6745E-03    -15.6839E-03     30.9583E-03    -15.3622E-03     41.5689E-03
             930     10.6354E-03     89.8581E-03    -583.974E+03    -41.5010E+06    -1.17598E+06    -7.76802E+06    -15.8687E-03     31.2769E-03    -15.4082E-03     46.2154E-03    -15.8203E-03     31.0826E-03    -15.3531E-03     46.0996E-03
             931     11.5217E-03     89.9024E-03    -231.630E+03    -35.5607E+06     853.810E+03    -8.28372E+06    -16.0211E-03     31.4261E-03    -15.4050E-03     50.7271E-03    -15.9889E-03     31.2644E-03    -15.3489E-03     50.5993E-03
             932     12.4081E-03     89.9508E-03    -74.3637E+03    -40.4838E+06    -162.107E+03    -9.08033E+06    -16.3168E-03     31.7256E-03    -15.4087E-03     57.7168E-03    -16.2876E-03     31.5528E-03    -15.3507E-03     57.5714E-03
             933     13.2942E-03     90.0081E-03    -256.588E+03    -47.6790E+06    -12.9137E+06    -8.67729E+06    -16.5769E-03     31.9422E-03    -15.3653E-03     61.4128E-03    -16.5376E-03     31.7702E-03    -15.3604E-03     61.2645E-03
             934     14.1803E-03     90.0634E-03    -1.16879E+06    -34.9248E+06    -14.9512E+06    -6.93817E+06    -16.7891E-03     32.1443E-03    -15.3552E-03     65.1056E-03    -16.8017E-03     32.0722E-03    -15.3776E-03     64.9742E-03
             935     15.0660E-03     90.1277E-03    -2.56041E+06    -2.75192E+06    -14.6083E+06    -5.46148E+06    -18.0824E-03     33.4147E-03    -15.3323E-03     96.7618E-03    -18.3340E-03     33.6898E-03    -15.3977E-03     96.6671E-03
             936     15.9520E-03     90.2424E-03    -3.81590E+06     44.5087E+06    -21.1429E+06    -3.69366E+06    -21.4221E-03     36.6693E-03    -15.2471E-03     165.499E-03    -23.1888E-03     38.6417E-03    -15.4119E-03     165.992E-03
             937     16.8391E-03     90.4370E-03    -3.16406E+06     133.549E+06     26.4195E+06    -1.46989E+06    -24.7328E-03     40.0867E-03    -15.3538E-03     235.117E-03    -30.3955E-03     46.1355E-03    -15.4108E-03     239.390E-03
             938     886.175E-06     90.6029E-03    -9.05935E+06    -27.2937E+06    -8.71653E+06    -1.98401E+06    -15.4418E-03     30.8855E-03    -15.4437E-03     3.46148E-03    -15.4348E-03     30.7750E-03    -15.4346E-03     3.43541E-03
             939     1.77245E-03     90.6073E-03    -8.21618E+06    -26.5278E+06    -6.95155E+06    -3.34564E+06    -15.4412E-03     30.8876E-03    -15.4464E-03     6.50933E-03    -15.4337E-03     30.7770E-03    -15.4308E-03     6.46526E-03
             940     2.65866E-03     90.6147E-03    -7.34328E+06    -25.8753E+06    -4.51671E+06    -4.48693E+06    -15.4353E-03     30.8859E-03    -15.4506E-03     9.79428E-03    -15.4281E-03     30.7739E-03    -15.4250E-03     9.73500E-03
             941     3.54490E-03     90.6251E-03    -6.69343E+06    -29.0175E+06    -2.16533E+06    -5.67715E+06    -15.4296E-03     30.8865E-03    -15.4569E-03     13.1853E-03    -15.4182E-03     30.7546E-03    -15.4160E-03     13.1101E-03
             942     4.43118E-03     90.6386E-03    -5.70396E+06    -31.8185E+06    -1.71948E+06    -6.48458E+06    -15.4171E-03     30.8657E-03    -15.4487E-03     16.7369E-03    -15.3975E-03     30.7179E-03    -15.4028E-03     16.6508E-03
             943     5.31752E-03     90.6555E-03    -5.08990E+06    -33.8194E+06    -2.10090E+06    -7.20446E+06    -15.4104E-03     30.8422E-03    -15.4319E-03     20.4744E-03    -15.3845E-03     30.6843E-03    -15.3860E-03     20.3784E-03
             944     6.20388E-03     90.6758E-03    -4.88019E+06    -35.8158E+06    -2.24321E+06    -7.84923E+06    -15.4142E-03     30.8291E-03    -15.4149E-03     24.4183E-03    -15.3846E-03     30.6615E-03    -15.3671E-03     24.3131E-03
             945     7.09029E-03     90.6999E-03    -4.34139E+06    -36.6563E+06    -1.71248E+06    -7.52496E+06    -15.4284E-03     30.8266E-03    -15.3982E-03     28.5814E-03    -15.3962E-03     30.6539E-03    -15.3473E-03     28.4795E-03
             946     7.97676E-03     90.7277E-03    -3.52697E+06    -41.3723E+06     475.822E+03    -7.18841E+06    -15.4812E-03     30.8768E-03    -15.3956E-03     32.8857E-03    -15.4423E-03     30.6771E-03    -15.3281E-03     32.7866E-03
             947     8.86319E-03     90.7596E-03    -2.38036E+06    -40.1140E+06     1.91745E+06    -7.63908E+06    -15.5510E-03     30.9333E-03    -15.3823E-03     37.3608E-03    -15.5117E-03     30.7376E-03    -15.3111E-03     37.2539E-03
             948     9.74969E-03     90.7956E-03    -1.04725E+06    -40.8281E+06     2.44585E+06    -8.20415E+06    -15.6585E-03     31.0286E-03    -15.3701E-03     41.9044E-03    -15.6147E-03     30.8290E-03    -15.2971E-03     41.7872E-03
             949     10.6361E-03     90.8357E-03    -530.194E+03    -41.0707E+06    -859.414E+03    -8.07033E+06    -15.8123E-03     31.1561E-03    -15.3438E-03     46.5015E-03    -15.7647E-03     30.9633E-03    -15.2878E-03     46.3820E-03
             950     11.5225E-03     90.8801E-03    -675.630E+03    -33.8959E+06     1.02593E+06    -8.14874E+06    -15.9909E-03     31.3310E-03    -15.3400E-03     51.0934E-03    -15.9635E-03     31.1779E-03    -15.2848E-03     50.9676E-03
             951     12.4087E-03     90.9287E-03    -578.504E+03    -38.4943E+06     802.502E+03    -9.37738E+06    -16.3265E-03     31.6773E-03    -15.3508E-03     58.1062E-03    -16.3041E-03     31.5139E-03    -15.2901E-03     57.9572E-03
             952     13.2949E-03     90.9861E-03    -960.664E+03    -49.4700E+06    -13.2379E+06    -8.66410E+06    -16.6354E-03     31.9478E-03    -15.3125E-03     61.8095E-03    -16.5966E-03     31.7684E-03    -15.3055E-03     61.6613E-03
             953     14.1809E-03     91.0415E-03    -2.24902E+06    -36.3316E+06    -15.3738E+06    -6.44305E+06    -16.8623E-03     32.1709E-03    -15.3086E-03     65.5910E-03    -16.8781E-03     32.0943E-03    -15.3295E-03     65.4659E-03
             954     15.0668E-03     91.1062E-03    -3.05390E+06    -3.29448E+06    -13.6365E+06    -5.50540E+06    -18.2056E-03     33.5041E-03    -15.2985E-03     97.0938E-03    -18.4619E-03     33.7774E-03    -15.3575E-03     96.9980E-03
             955     15.9528E-03     91.2204E-03    -3.33569E+06     42.1028E+06    -19.7681E+06    -3.90556E+06    -21.5162E-03     36.7415E-03    -15.2253E-03     165.224E-03    -23.2762E-03     38.6965E-03    -15.3804E-03     165.713E-03
             956     16.8384E-03     91.4148E-03    -2.73841E+06     131.405E+06     26.5907E+06    -1.57871E+06    -24.7590E-03     40.0911E-03    -15.3321E-03     234.748E-03    -30.4132E-03     46.1249E-03    -15.3857E-03     239.015E-03
             957     886.322E-06     91.5807E-03    -8.31305E+06    -23.3392E+06    -7.85645E+06    -1.94856E+06    -15.3695E-03     30.7453E-03    -15.3758E-03     3.47302E-03    -15.3657E-03     30.6523E-03    -15.3692E-03     3.44742E-03
             958     1.77253E-03     91.5852E-03     -7.8174E+06    -23.0178E+06    -6.31685E+06    -3.63880E+06    -15.3739E-03     30.7514E-03    -15.3775E-03     6.51394E-03    -15.3705E-03     30.6569E-03    -15.3643E-03     6.46611E-03
             959     2.65884E-03     91.5925E-03    -6.96043E+06    -23.6588E+06    -3.99283E+06    -4.30853E+06    -15.3575E-03     30.7398E-03    -15.3823E-03     9.80415E-03    -15.3523E-03     30.6376E-03    -15.3579E-03     9.74722E-03
             960     3.54515E-03     91.6029E-03    -6.00942E+06    -25.7546E+06    -1.58554E+06    -5.30703E+06    -15.3479E-03     30.7323E-03    -15.3843E-03     13.2187E-03    -15.3386E-03     30.6148E-03    -15.3462E-03     13.1484E-03
             961     4.43149E-03     91.6163E-03    -5.13348E+06    -29.6531E+06    -543.264E+03    -6.67750E+06    -15.3435E-03     30.7229E-03    -15.3795E-03     16.7810E-03    -15.3259E-03     30.5834E-03    -15.3317E-03     16.6924E-03
             962     5.31789E-03     91.6331E-03    -4.14609E+06    -31.7698E+06    -960.718E+03    -7.22810E+06    -15.3266E-03     30.6876E-03    -15.3610E-03     20.5396E-03    -15.3007E-03     30.5370E-03    -15.3137E-03     20.4433E-03
             963     6.20435E-03     91.6534E-03    -3.57779E+06    -34.1099E+06    -1.12122E+06    -7.67143E+06    -15.3197E-03     30.6610E-03    -15.3413E-03     24.5019E-03    -15.2876E-03     30.4984E-03    -15.2922E-03     24.3992E-03
             964     7.09086E-03     91.6774E-03    -3.39115E+06    -36.3615E+06    -878.140E+03    -7.68098E+06    -15.3290E-03     30.6514E-03    -15.3224E-03     28.6911E-03    -15.2937E-03     30.4775E-03    -15.2692E-03     28.5873E-03
             965     7.97739E-03     91.7052E-03    -2.54602E+06    -39.8367E+06     661.241E+03    -7.96282E+06    -15.3739E-03     30.6853E-03    -15.3114E-03     33.0555E-03    -15.3325E-03     30.4915E-03    -15.2467E-03     32.9467E-03
             966     8.86396E-03     91.7371E-03    -1.43601E+06    -38.8838E+06     2.29586E+06    -8.40047E+06    -15.4485E-03     30.7451E-03    -15.2966E-03     37.5836E-03    -15.4067E-03     30.5536E-03    -15.2267E-03     37.4671E-03
             967     9.75049E-03     91.7731E-03    -889.393E+03    -39.4483E+06     3.24104E+06    -8.66767E+06    -15.5700E-03     30.8559E-03    -15.2859E-03     42.1737E-03    -15.5284E-03     30.6617E-03    -15.2112E-03     42.0509E-03
             968     10.6370E-03     91.8132E-03    -225.726E+03    -41.1771E+06     243.559E+03    -8.49824E+06    -15.7532E-03     31.0168E-03    -15.2636E-03     46.8258E-03    -15.7054E-03     30.8213E-03    -15.2024E-03     46.7011E-03
             969     11.5234E-03     91.8578E-03     409.433E+03    -32.7572E+06     2.29251E+06    -8.04902E+06    -15.9633E-03     31.2234E-03    -15.2602E-03     51.5129E-03    -15.9338E-03     31.0725E-03    -15.2018E-03     51.3887E-03
             970     12.4099E-03     91.9065E-03    -324.471E+03    -36.4629E+06     3.05041E+06    -8.39992E+06    -16.3414E-03     31.6219E-03    -15.2805E-03     58.4760E-03    -16.3239E-03     31.4649E-03    -15.2119E-03     58.3397E-03
             971     13.2959E-03     91.9640E-03    -2.10775E+06    -51.2572E+06    -12.6509E+06    -8.00341E+06    -16.7175E-03     31.9668E-03    -15.2493E-03     62.1901E-03    -16.6829E-03     31.7795E-03    -15.2352E-03     62.0504E-03
             972     14.1818E-03     92.0198E-03    -2.76720E+06    -37.2971E+06    -15.2680E+06    -6.83477E+06    -16.9591E-03     32.2094E-03    -15.2503E-03     65.9601E-03    -16.9765E-03     32.1289E-03    -15.2686E-03     65.8298E-03
             973     15.0677E-03     92.0844E-03    -2.56465E+06    -3.28623E+06    -11.7727E+06    -6.11587E+06    -18.4106E-03     33.6683E-03    -15.2578E-03     97.4297E-03    -18.6687E-03     33.9398E-03    -15.3081E-03     97.3248E-03
             974     15.9529E-03     92.1995E-03    -2.66171E+06     39.3203E+06    -18.3146E+06    -4.18242E+06    -21.7829E-03     36.9849E-03    -15.2020E-03     165.111E-03    -23.5376E-03     38.9228E-03    -15.3468E-03     165.590E-03
             975     16.8393E-03     92.3927E-03    -2.06262E+06     128.898E+06     27.0076E+06    -1.33531E+06    -24.8450E-03     40.1595E-03    -15.3145E-03     234.776E-03    -30.5051E-03     46.1915E-03    -15.3634E-03     239.049E-03
             976     886.295E-06     92.5585E-03    -6.79813E+06    -19.6291E+06    -6.53006E+06    -1.60765E+06    -15.2792E-03     30.5838E-03    -15.3046E-03     3.49424E-03    -15.2752E-03     30.5052E-03    -15.2989E-03     3.47305E-03
             977     1.77269E-03     92.5629E-03    -6.97855E+06    -19.4471E+06    -5.25381E+06    -3.08919E+06    -15.2774E-03     30.5706E-03    -15.2932E-03     6.53534E-03    -15.2765E-03     30.4912E-03    -15.2812E-03     6.49464E-03
             978     2.65905E-03     92.5702E-03    -6.48972E+06    -21.5455E+06    -3.62816E+06    -4.30950E+06    -15.2564E-03     30.5489E-03    -15.2925E-03     9.82610E-03    -15.2525E-03     30.4560E-03    -15.2700E-03     9.76921E-03
             979     3.54548E-03     92.5805E-03    -5.53198E+06    -22.8222E+06    -1.73093E+06    -5.18023E+06    -15.2371E-03     30.5237E-03    -15.2866E-03     13.2599E-03    -15.2295E-03     30.4204E-03    -15.2541E-03     13.1913E-03
             980     4.43193E-03     92.5940E-03    -4.75955E+06    -26.8358E+06     525.841E+03    -6.39679E+06    -15.2304E-03     30.5149E-03    -15.2845E-03     16.8276E-03    -15.2165E-03     30.3873E-03    -15.2361E-03     16.7427E-03
             981     5.31840E-03     92.6106E-03    -4.06072E+06    -29.8581E+06     356.297E+03    -7.54612E+06    -15.2147E-03     30.4814E-03    -15.2668E-03     20.6054E-03    -15.1929E-03     30.3383E-03    -15.2158E-03     20.5052E-03
             982     6.20497E-03     92.6308E-03    -3.42120E+06    -32.9142E+06    -406.391E+03    -7.57316E+06    -15.2038E-03     30.4468E-03    -15.2430E-03     24.5951E-03    -15.1737E-03     30.2889E-03    -15.1924E-03     24.4938E-03
             983     7.09155E-03     92.6547E-03    -2.80199E+06    -34.9894E+06     14.4210E+03    -7.82981E+06    -15.2082E-03     30.4300E-03    -15.2219E-03     28.8202E-03    -15.1732E-03     30.2608E-03    -15.1670E-03     28.7146E-03
             984     7.97823E-03     92.6825E-03    -2.04340E+06    -37.8357E+06     957.386E+03    -8.77817E+06    -15.2433E-03     30.4476E-03    -15.2043E-03     33.2527E-03    -15.2027E-03     30.2626E-03    -15.1417E-03     33.1336E-03
             985     8.86489E-03     92.7143E-03    -1.34717E+06    -38.3851E+06     2.32502E+06    -8.78480E+06    -15.3221E-03     30.5103E-03    -15.1882E-03     37.8419E-03    -15.2805E-03     30.3209E-03    -15.1190E-03     37.7207E-03
             986     9.75159E-03     92.7504E-03    -934.095E+03    -38.1564E+06     3.97699E+06    -8.50474E+06    -15.4651E-03     30.6440E-03    -15.1789E-03     42.4963E-03    -15.4266E-03     30.4552E-03    -15.1024E-03     42.3759E-03
             987     10.6381E-03     92.7906E-03    -996.038E+03    -40.6786E+06     1.46252E+06    -8.77967E+06    -15.6905E-03     30.8535E-03    -15.1630E-03     47.2004E-03    -15.6489E-03     30.6597E-03    -15.0953E-03     47.0724E-03
             988     11.5247E-03     92.8352E-03    -1.03034E+06    -32.9191E+06     2.58359E+06    -8.18318E+06    -15.9415E-03     31.1030E-03    -15.1615E-03     51.9926E-03    -15.9193E-03     30.9528E-03    -15.0994E-03     51.8669E-03
             989     12.4109E-03     92.8843E-03    -861.042E+03    -35.6640E+06     4.27664E+06    -7.17703E+06    -16.3612E-03     31.5518E-03    -15.1905E-03     58.9735E-03    -16.3494E-03     31.3978E-03    -15.1162E-03     58.8531E-03
             990     13.2970E-03     92.9419E-03    -977.786E+03    -50.8108E+06    -10.8519E+06    -7.54349E+06    -16.8185E-03     31.9882E-03    -15.1697E-03     62.7191E-03    -16.7817E-03     31.7991E-03    -15.1489E-03     62.5852E-03
             991     14.1828E-03     92.9980E-03    -1.46066E+06    -37.8283E+06    -14.5109E+06    -7.56162E+06    -17.1647E-03     32.3449E-03    -15.1802E-03     66.4812E-03    -17.1765E-03     32.2593E-03    -15.1958E-03     66.3410E-03
             992     15.0683E-03     93.0630E-03    -1.95130E+06    -3.99021E+06    -10.2139E+06    -6.29345E+06    -18.5630E-03     33.7691E-03    -15.2061E-03     98.0339E-03    -18.8203E-03     34.0349E-03    -15.2486E-03     97.9261E-03
             993     15.9540E-03     93.1785E-03    -2.69022E+06     36.2613E+06    -17.2191E+06    -4.32913E+06    -21.8914E-03     37.0532E-03    -15.1617E-03     165.370E-03    -23.6445E-03     38.9753E-03    -15.2965E-03     165.847E-03
             994     16.8394E-03     93.3707E-03    -2.49411E+06     125.896E+06     26.6121E+06    -1.36357E+06    -25.0864E-03     40.3651E-03    -15.2788E-03     234.718E-03    -30.7471E-03     46.3867E-03    -15.3246E-03     238.975E-03
             995     886.471E-06     93.5360E-03    -7.03289E+06    -16.8603E+06    -6.77987E+06    -1.32817E+06    -15.1463E-03     30.3473E-03    -15.2010E-03     3.52224E-03    -15.1471E-03     30.2833E-03    -15.2002E-03     3.50467E-03
             996     1.77288E-03     93.5405E-03    -6.80225E+06    -16.2921E+06    -5.14792E+06    -2.32291E+06    -15.1504E-03     30.3240E-03    -15.1736E-03     6.55996E-03    -15.1534E-03     30.2599E-03    -15.1658E-03     6.52919E-03
             997     2.65938E-03     93.5477E-03    -6.31939E+06    -18.4758E+06    -2.85498E+06    -4.00983E+06    -15.1339E-03     30.3081E-03    -15.1743E-03     9.85812E-03    -15.1347E-03     30.2292E-03    -15.1526E-03     9.80517E-03
             998     3.54587E-03     93.5579E-03    -5.62832E+06    -20.7870E+06    -1.30641E+06    -5.01352E+06    -15.1031E-03     30.2701E-03    -15.1669E-03     13.3063E-03    -15.0995E-03     30.1765E-03    -15.1352E-03     13.2400E-03
             999     4.43246E-03     93.5713E-03    -4.81928E+06    -23.6585E+06     228.182E+03    -6.06409E+06    -15.0776E-03     30.2332E-03    -15.1556E-03     16.8972E-03    -15.0682E-03     30.1220E-03    -15.1131E-03     16.8168E-03
            1000     5.31908E-03     93.5879E-03    -4.50251E+06    -28.0077E+06     1.10743E+06    -6.95467E+06    -15.0686E-03     30.2103E-03    -15.1418E-03     20.6836E-03    -15.0528E-03     30.0759E-03    -15.0891E-03     20.5912E-03
            1001     6.20574E-03     93.6080E-03    -4.34697E+06    -31.5064E+06     30.4679E+03    -7.55915E+06    -15.0569E-03     30.1726E-03    -15.1157E-03     24.7115E-03    -15.0340E-03     30.0224E-03    -15.0636E-03     24.6106E-03
            1002     7.09249E-03     93.6318E-03    -3.55940E+06    -32.8987E+06    -370.539E+03    -8.41879E+06    -15.0508E-03     30.1378E-03    -15.0870E-03     28.9941E-03    -15.0220E-03     29.9806E-03    -15.0360E-03     28.8812E-03
            1003     7.97926E-03     93.6595E-03    -3.24235E+06    -36.4588E+06     977.395E+03    -8.61515E+06    -15.0874E-03     30.1581E-03    -15.0707E-03     33.4791E-03    -15.0547E-03     29.9816E-03    -15.0082E-03     33.3624E-03
            1004     8.86610E-03     93.6913E-03    -3.39931E+06    -37.5779E+06     1.91330E+06    -8.72934E+06    -15.1750E-03     30.2282E-03    -15.0532E-03     38.1465E-03    -15.1442E-03     30.0463E-03    -14.9842E-03     38.0264E-03
            1005     9.75286E-03     93.7274E-03    -3.09726E+06    -37.7313E+06     3.41977E+06    -8.44651E+06    -15.3432E-03     30.3874E-03    -15.0442E-03     42.8957E-03    -15.3152E-03     30.2045E-03    -14.9679E-03     42.7764E-03
            1006     10.6396E-03     93.7678E-03    -3.04842E+06    -39.5499E+06     2.44707E+06    -8.07864E+06    -15.6058E-03     30.6433E-03    -15.0375E-03     47.6740E-03    -15.5774E-03     30.4566E-03    -14.9635E-03     47.5554E-03
            1007     11.5260E-03     93.8126E-03    -3.01555E+06    -32.9173E+06     2.61508E+06    -8.30303E+06    -15.8967E-03     30.9345E-03    -15.0377E-03     52.6065E-03    -15.8844E-03     30.7870E-03    -14.9726E-03     52.4796E-03
            1008     12.4125E-03     93.8620E-03    -1.83699E+06    -35.9230E+06     3.20147E+06    -7.93584E+06    -16.3833E-03     31.4507E-03    -15.0674E-03     59.7074E-03    -16.3743E-03     31.2984E-03    -14.9967E-03     59.5774E-03
            1009     13.2985E-03     93.9199E-03    -1.38914E+06    -49.6218E+06    -9.83945E+06    -7.48311E+06    -16.9512E-03     32.0172E-03    -15.0659E-03     63.4668E-03    -16.9201E-03     31.8334E-03    -15.0412E-03     63.3336E-03
            1010     14.1841E-03     93.9765E-03    -2.13659E+06    -37.4557E+06    -13.3432E+06    -7.76584E+06    -17.3755E-03     32.4706E-03    -15.0951E-03     67.1953E-03    -17.3937E-03     32.3870E-03    -15.1044E-03     67.0519E-03
            1011     15.0696E-03     94.0417E-03    -2.24738E+06    -5.60473E+06    -9.52997E+06    -6.97934E+06    -18.7167E-03     33.8527E-03    -15.1361E-03     98.4512E-03    -18.9751E-03     34.1110E-03    -15.1723E-03     98.3340E-03
            1012     15.9551E-03     94.1570E-03    -2.52499E+06     32.8346E+06    -16.1073E+06    -3.96786E+06    -22.0068E-03     37.1135E-03    -15.1066E-03     165.494E-03    -23.7548E-03     39.0158E-03    -15.2311E-03     165.972E-03
            1013     16.8409E-03     94.3499E-03    -2.81749E+06     123.441E+06     27.1782E+06    -1.02947E+06    -25.4415E-03     40.6769E-03    -15.2354E-03     234.693E-03    -31.1009E-03     46.6858E-03    -15.2745E-03     238.928E-03
            1014     886.524E-06     94.5134E-03    -9.23378E+06    -14.3814E+06    -8.85797E+06    -1.43561E+06    -14.9979E-03     30.0286E-03    -15.0307E-03     3.54672E-03    -15.0102E-03     29.9832E-03    -15.0408E-03     3.52778E-03
            1015     1.77317E-03     94.5177E-03    -8.24214E+06    -13.7251E+06    -6.81985E+06    -2.33971E+06    -14.9940E-03     30.0094E-03    -15.0154E-03     6.57863E-03    -15.0054E-03     29.9627E-03    -15.0177E-03     6.54769E-03
            1016     2.65975E-03     94.5249E-03    -7.34138E+06    -15.4315E+06    -3.47282E+06    -3.40196E+06    -14.9632E-03     29.9814E-03    -15.0181E-03     9.88800E-03    -14.9727E-03     29.9200E-03    -15.0025E-03     9.84296E-03
            1017     3.54643E-03     94.5351E-03    -6.59021E+06    -18.6970E+06    -1.12639E+06    -4.52647E+06    -14.9303E-03     29.9430E-03    -15.0127E-03     13.3606E-03    -14.9348E-03     29.8609E-03    -14.9816E-03     13.3006E-03
            1018     4.43314E-03     94.5484E-03    -6.13510E+06    -20.9755E+06    -359.499E+03    -5.48587E+06    -14.8955E-03     29.8895E-03    -14.9940E-03     16.9870E-03    -14.8957E-03     29.7945E-03    -14.9565E-03     16.9143E-03
            1019     5.31993E-03     94.5649E-03    -5.60312E+06    -26.3534E+06     780.538E+03    -6.21332E+06    -14.8824E-03     29.8618E-03    -14.9794E-03     20.7985E-03    -14.8740E-03     29.7377E-03    -14.9291E-03     20.7158E-03
            1020     6.20675E-03     94.5849E-03    -4.83171E+06    -28.8143E+06     1.07959E+06    -7.39783E+06    -14.8723E-03     29.8274E-03    -14.9551E-03     24.8568E-03    -14.8573E-03     29.6897E-03    -14.9009E-03     24.7581E-03
            1021     7.09363E-03     94.6086E-03    -4.71438E+06    -31.3465E+06     440.077E+03    -8.25676E+06    -14.8688E-03     29.7947E-03    -14.9259E-03     29.1751E-03    -14.8491E-03     29.6457E-03    -14.8714E-03     29.0645E-03
            1022     7.98062E-03     94.6363E-03    -4.65943E+06    -35.7270E+06     1.35261E+06    -8.08718E+06    -14.9108E-03     29.8188E-03    -14.9080E-03     33.7297E-03    -14.8866E-03     29.6473E-03    -14.8427E-03     33.6201E-03
            1023     8.86754E-03     94.6681E-03    -4.69912E+06    -36.4994E+06     2.48432E+06    -7.83446E+06    -15.0131E-03     29.9038E-03    -14.8907E-03     38.4839E-03    -14.9910E-03     29.7283E-03    -14.8186E-03     38.3758E-03
            1024     9.75449E-03     94.7042E-03    -5.41878E+06    -37.5778E+06     2.99882E+06    -7.58427E+06    -15.1919E-03     30.0725E-03    -14.8806E-03     43.3704E-03    -15.1749E-03     29.8942E-03    -14.8032E-03     43.2627E-03
            1025     10.6412E-03     94.7448E-03    -5.31622E+06    -38.1454E+06     2.10200E+06    -7.95196E+06    -15.4800E-03     30.3545E-03    -14.8745E-03     48.3074E-03    -15.4643E-03     30.1784E-03    -14.8009E-03     48.1909E-03
            1026     11.5279E-03     94.7898E-03    -4.03296E+06    -31.5188E+06     3.01418E+06    -8.91804E+06    -15.8477E-03     30.7295E-03    -14.8818E-03     53.3332E-03    -15.8429E-03     30.5898E-03    -14.8152E-03     53.1988E-03
            1027     12.4142E-03     94.8395E-03    -2.86063E+06    -36.2330E+06     2.41777E+06    -9.08405E+06    -16.4395E-03     31.3577E-03    -14.9183E-03     60.5501E-03    -16.4341E-03     31.2066E-03    -14.8495E-03     60.4055E-03
            1028     13.3002E-03     94.8980E-03    -2.10000E+06    -49.9482E+06    -9.88112E+06    -7.93847E+06    -17.1108E-03     32.0462E-03    -14.9354E-03     64.3651E-03    -17.0831E-03     31.8624E-03    -14.9093E-03     64.2258E-03
            1029     14.1857E-03     94.9550E-03    -2.09135E+06    -35.8170E+06    -11.9420E+06    -7.91391E+06    -17.5997E-03     32.5863E-03    -14.9866E-03     67.9378E-03    -17.6231E-03     32.5098E-03    -14.9913E-03     67.7918E-03
            1030     15.0709E-03     95.0205E-03    -2.55787E+06    -7.45012E+06    -8.83633E+06    -7.40205E+06    -19.1187E-03     34.1721E-03    -15.0535E-03     98.8292E-03    -19.3791E-03     34.4227E-03    -15.0832E-03     98.7040E-03
            1031     15.9561E-03     95.1358E-03    -3.16321E+06     28.5433E+06    -15.6170E+06    -3.86068E+06    -22.4487E-03     37.5048E-03    -15.0561E-03     165.068E-03    -24.1920E-03     39.3835E-03    -15.1710E-03     165.535E-03
            1032     16.8415E-03     95.3284E-03    -2.77990E+06     121.441E+06     27.8059E+06    -787.900E+03    -25.6805E-03     40.8854E-03    -15.2049E-03     234.168E-03    -31.3361E-03     46.8816E-03    -15.2379E-03     238.389E-03
            1033     886.786E-06     95.4903E-03    -9.69631E+06    -11.3901E+06    -9.43626E+06    -1.56266E+06    -14.8262E-03     29.6592E-03    -14.8331E-03     3.54377E-03    -14.8443E-03     29.6302E-03    -14.8497E-03     3.52324E-03
            1034     1.77344E-03     95.4947E-03    -9.64449E+06    -11.8308E+06    -8.27513E+06    -2.28410E+06    -14.7881E-03     29.6131E-03    -14.8250E-03     6.60232E-03    -14.8072E-03     29.5800E-03    -14.8352E-03     6.57216E-03
            1035     2.66027E-03     95.5018E-03    -9.44816E+06    -13.3058E+06    -5.87263E+06    -2.66383E+06    -14.7468E-03     29.5636E-03    -14.8168E-03     9.93884E-03    -14.7663E-03     29.5194E-03    -14.8132E-03     9.90343E-03
            1036     3.54710E-03     95.5119E-03    -8.98158E+06    -16.2920E+06    -2.49674E+06    -3.64644E+06    -14.7128E-03     29.5250E-03    -14.8122E-03     13.4249E-03    -14.7307E-03     29.4605E-03    -14.7881E-03     13.3764E-03
            1037     4.43402E-03     95.5251E-03    -8.50488E+06    -19.3005E+06    -426.324E+03     -4.3072E+06    -14.6782E-03     29.4772E-03    -14.7990E-03     17.0701E-03    -14.6925E-03     29.3940E-03    -14.7608E-03     17.0127E-03
            1038     5.32096E-03     95.5416E-03    -8.22141E+06    -23.7434E+06    -156.797E+03    -5.52572E+06    -14.6515E-03     29.4281E-03    -14.7766E-03     20.9298E-03    -14.6586E-03     29.3222E-03    -14.7311E-03     20.8561E-03
            1039     6.20800E-03     95.5615E-03    -8.11212E+06    -26.5267E+06    -47.0637E+03    -6.75394E+06    -14.6376E-03     29.3876E-03    -14.7500E-03     25.0324E-03    -14.6406E-03     29.2677E-03    -14.7000E-03     24.9423E-03
            1040     7.09508E-03     95.5851E-03    -8.23966E+06    -30.1189E+06     402.029E+03    -7.03938E+06    -14.6508E-03     29.3778E-03    -14.7269E-03     29.3857E-03    -14.6504E-03     29.2400E-03    -14.6693E-03     29.2911E-03
            1041     7.98216E-03     95.6126E-03    -8.45151E+06    -34.6212E+06     482.471E+03    -7.48159E+06    -14.6961E-03     29.4017E-03    -14.7055E-03     34.0364E-03    -14.6911E-03     29.2424E-03    -14.6407E-03     33.9350E-03
            1042     8.86934E-03     95.6445E-03    -8.45846E+06    -36.6968E+06     762.733E+03    -6.84626E+06    -14.7997E-03     29.4855E-03    -14.6858E-03     38.9155E-03    -14.7935E-03     29.3168E-03    -14.6165E-03     38.8205E-03
            1043     9.75639E-03     95.6807E-03    -7.96791E+06    -36.1792E+06     1.92690E+06    -6.75553E+06    -15.0005E-03     29.6756E-03    -14.6751E-03     43.9503E-03    -14.9965E-03     29.5093E-03    -14.6015E-03     43.8538E-03
            1044     10.6435E-03     95.7215E-03    -7.02973E+06    -35.7947E+06     1.26145E+06    -8.46756E+06    -15.3531E-03     30.0239E-03    -14.6708E-03     49.0615E-03    -15.3479E-03     29.8630E-03    -14.6024E-03     48.9389E-03
            1045     11.5301E-03     95.7668E-03    -6.08329E+06    -29.9551E+06     2.42277E+06    -9.66024E+06    -15.8167E-03     30.5061E-03    -14.6894E-03     54.1774E-03    -15.8235E-03     30.3779E-03    -14.6250E-03     54.0338E-03
            1046     12.4165E-03     95.8170E-03    -4.74135E+06    -35.6125E+06     1.89598E+06    -10.1803E+06    -16.5009E-03     31.2417E-03    -14.7408E-03     61.5536E-03    -16.5052E-03     31.0972E-03    -14.6728E-03     61.3951E-03
            1047     13.3024E-03     95.8760E-03    -3.24097E+06    -51.1447E+06    -11.5158E+06    -9.67724E+06    -17.2966E-03     32.0686E-03    -14.7720E-03     65.5167E-03    -17.2709E-03     31.8832E-03    -14.7507E-03     65.3549E-03
            1048     14.1876E-03     95.9338E-03    -2.82736E+06    -35.2799E+06    -11.6433E+06    -8.09860E+06    -17.9317E-03     32.7855E-03    -14.8538E-03     68.8339E-03    -17.9611E-03     32.7134E-03    -14.8568E-03     68.6845E-03
            1049     15.0726E-03     95.9995E-03    -3.70275E+06    -8.93434E+06    -7.76653E+06    -6.67413E+06    -19.6238E-03     34.5825E-03    -14.9587E-03     99.6189E-03    -19.8924E-03     34.8288E-03    -14.9792E-03     99.4998E-03
            1050     15.9568E-03     96.1158E-03    -4.44601E+06     24.1877E+06    -15.9515E+06    -4.29036E+06    -23.1502E-03     38.1462E-03    -14.9961E-03     165.521E-03    -24.9003E-03     40.0128E-03    -15.1044E-03     165.967E-03
            1051     16.8411E-03     96.3071E-03    -3.13050E+06     119.336E+06     27.9512E+06    -1.39480E+06    -26.0594E-03     41.2336E-03    -15.1742E-03     234.136E-03    -31.7178E-03     47.2235E-03    -15.2030E-03     238.338E-03
            1052     886.816E-06     96.4670E-03    -11.9018E+06    -9.12764E+06    -11.0364E+06    -667.567E+03    -14.5887E-03     29.1704E-03    -14.5818E-03     3.55596E-03    -14.6188E-03     29.1583E-03    -14.6065E-03     3.54702E-03
            1053     1.77391E-03     96.4712E-03    -12.3406E+06    -10.3811E+06    -9.95316E+06    -1.21650E+06    -14.5346E-03     29.1174E-03    -14.5828E-03     6.64436E-03    -14.5668E-03     29.0978E-03    -14.5996E-03     6.62804E-03
            1054     2.66088E-03     96.4783E-03    -12.1237E+06    -12.0006E+06    -7.36643E+06    -1.67926E+06    -14.5015E-03     29.0766E-03    -14.5751E-03     9.99024E-03    -14.5341E-03     29.0450E-03    -14.5770E-03     9.96763E-03
            1055     3.54795E-03     96.4883E-03    -11.7136E+06    -14.3718E+06    -3.77943E+06    -2.19673E+06    -14.4569E-03     29.0276E-03    -14.5707E-03     13.4898E-03    -14.4893E-03     28.9784E-03    -14.5518E-03     13.4602E-03
            1056     4.43505E-03     96.5014E-03    -11.2559E+06    -18.0924E+06    -1.05047E+06    -2.84191E+06    -14.4139E-03     28.9738E-03    -14.5599E-03     17.1639E-03    -14.4428E-03     28.9015E-03    -14.5226E-03     17.1256E-03
            1057     5.32225E-03     96.5177E-03    -11.1940E+06    -20.9836E+06    -312.854E+03    -3.75635E+06    -14.3787E-03     28.9142E-03    -14.5355E-03     21.0633E-03    -14.4043E-03     28.8265E-03    -14.4904E-03     21.0127E-03
            1058     6.20949E-03     96.5376E-03    -12.0442E+06    -25.0699E+06    -966.427E+03    -4.65827E+06    -14.3626E-03     28.8687E-03    -14.5061E-03     25.2151E-03    -14.3859E-03     28.7630E-03    -14.4571E-03     25.1523E-03
            1059     7.09680E-03     96.5611E-03    -12.8105E+06    -28.5234E+06    -1.32382E+06    -5.45359E+06    -14.3757E-03     28.8537E-03    -14.4780E-03     29.6553E-03    -14.3978E-03     28.7330E-03    -14.4247E-03     29.5815E-03
            1060     7.98415E-03     96.5886E-03    -13.0941E+06    -33.2200E+06    -1.19444E+06    -6.14171E+06    -14.4333E-03     28.8899E-03    -14.4565E-03     34.3925E-03    -14.4510E-03     28.7466E-03    -14.3953E-03     34.3088E-03
            1061     8.87148E-03     96.6204E-03    -12.7211E+06    -36.7461E+06    -1.35646E+06    -6.48122E+06    -14.5541E-03     28.9906E-03    -14.4365E-03     39.4087E-03    -14.5658E-03     28.8306E-03    -14.3715E-03     39.3189E-03
            1062     9.75886E-03     96.6568E-03    -11.0273E+06    -33.6079E+06     211.076E+03    -7.59744E+06    -14.8019E-03     29.2267E-03    -14.4248E-03     44.6222E-03    -14.8142E-03     29.0799E-03    -14.3590E-03     44.5154E-03
            1063     10.6459E-03     96.6977E-03    -9.20620E+06    -33.4753E+06     967.151E+03    -9.00036E+06    -15.2365E-03     29.6700E-03    -14.4335E-03     49.8980E-03    -15.2449E-03     29.5240E-03    -14.3667E-03     49.7691E-03
            1064     11.5327E-03     96.7437E-03    -8.17222E+06    -28.2995E+06     2.33363E+06    -9.89547E+06    -15.7887E-03     30.2543E-03    -14.4656E-03     55.1566E-03    -15.8081E-03     30.1374E-03    -14.4011E-03     55.0104E-03
            1065     12.4191E-03     96.7942E-03    -7.36291E+06    -33.6858E+06     1.95217E+06    -11.1940E+06    -16.5787E-03     31.1135E-03    -14.5347E-03     62.6385E-03    -16.5992E-03     30.9825E-03    -14.4654E-03     62.4670E-03
            1066     13.3049E-03     96.8541E-03    -6.50950E+06    -51.9500E+06    -13.0009E+06    -11.5481E+06    -17.4970E-03     32.0816E-03    -14.5846E-03     66.7525E-03    -17.4847E-03     31.8995E-03    -14.5649E-03     66.5664E-03
            1067     14.1899E-03     96.9126E-03    -5.57667E+06    -37.4461E+06    -12.7668E+06    -9.17092E+06    -18.2899E-03     32.9865E-03    -14.6966E-03     70.0475E-03    -18.3298E-03     32.9107E-03    -14.6980E-03     69.8832E-03
            1068     15.0742E-03     96.9792E-03    -4.72164E+06    -10.0987E+06    -7.24290E+06    -6.68567E+06    -20.0626E-03     34.8987E-03    -14.8361E-03     100.688E-03    -20.3391E-03     35.1436E-03    -14.8508E-03     100.566E-03
            1069     15.9588E-03     97.0958E-03    -4.40677E+06     21.2426E+06    -15.8255E+06    -4.84977E+06    -23.6960E-03     38.5997E-03    -14.9036E-03     166.381E-03    -25.4491E-03     40.4585E-03    -15.0072E-03     166.806E-03
            1070     16.8430E-03     97.2879E-03    -3.28165E+06     116.653E+06     28.5202E+06    -2.21442E+06    -26.7039E-03     41.8233E-03    -15.1194E-03     233.694E-03    -32.3317E-03     47.7708E-03    -15.1412E-03     237.828E-03
            1071     887.298E-06     97.4430E-03    -17.0590E+06    -9.23707E+06    -15.4689E+06     859.004E+03    -14.2857E-03     28.5243E-03    -14.2386E-03     3.56464E-03    -14.3350E-03     28.5255E-03    -14.2779E-03     3.57544E-03
            1072     1.77439E-03     97.4472E-03    -16.7440E+06    -9.44549E+06    -12.1457E+06     528.466E+03    -14.2465E-03     28.5247E-03    -14.2783E-03     6.69297E-03    -14.2989E-03     28.5194E-03    -14.3010E-03     6.69924E-03
            1073     2.66165E-03     97.4542E-03    -16.2799E+06    -11.3254E+06    -8.55681E+06     8.96875E+03    -14.2110E-03     28.4972E-03    -14.2861E-03     10.0562E-03    -14.2637E-03     28.4767E-03    -14.2889E-03     10.0555E-03
            1074     3.54892E-03     97.4642E-03    -15.8196E+06    -13.5478E+06    -5.55983E+06    -193.827E+03    -14.1551E-03     28.4368E-03    -14.2816E-03     13.5690E-03    -14.2067E-03     28.4002E-03    -14.2668E-03     13.5654E-03
            1075     4.43633E-03     97.4772E-03    -15.4508E+06    -16.7220E+06    -2.84775E+06    -867.367E+03    -14.1000E-03     28.3693E-03    -14.2694E-03     17.2742E-03    -14.1492E-03     28.3126E-03    -14.2370E-03     17.2616E-03
            1076     5.32376E-03     97.4934E-03    -15.3172E+06    -19.8928E+06    -1.32386E+06    -1.32158E+06    -14.0595E-03     28.3069E-03    -14.2473E-03     21.2122E-03    -14.1059E-03     28.2320E-03    -14.2029E-03     21.1933E-03
            1077     6.21130E-03     97.5131E-03    -15.5738E+06    -23.5788E+06    -1.51919E+06    -1.80214E+06    -14.0448E-03     28.2617E-03    -14.2169E-03     25.4180E-03    -14.0871E-03     28.1693E-03    -14.1677E-03     25.3924E-03
            1078     7.09886E-03     97.5366E-03    -16.2088E+06    -26.3806E+06    -2.28964E+06    -3.22092E+06    -14.0585E-03     28.2425E-03    -14.1840E-03     29.9400E-03    -14.0992E-03     28.1387E-03    -14.1337E-03     29.8954E-03
            1079     7.98649E-03     97.5640E-03    -16.3590E+06    -31.5394E+06    -2.18604E+06    -4.74286E+06    -14.1377E-03     28.3002E-03    -14.1625E-03     34.7629E-03    -14.1725E-03     28.1713E-03    -14.1040E-03     34.6977E-03
            1080     8.87408E-03     97.5958E-03    -15.1308E+06    -34.3627E+06    -1.43612E+06    -6.82490E+06    -14.3116E-03     28.4594E-03    -14.1478E-03     39.9180E-03    -14.3385E-03     28.3148E-03    -14.0832E-03     39.8243E-03
            1081     9.76155E-03     97.6323E-03    -13.2226E+06    -31.1191E+06    -392.973E+03    -8.79529E+06    -14.6071E-03     28.7466E-03    -14.1395E-03     45.3468E-03    -14.6328E-03     28.6161E-03    -14.0772E-03     45.2251E-03
            1082     10.6489E-03     97.6738E-03    -11.8497E+06    -32.1466E+06     286.842E+03    -9.34863E+06    -15.1038E-03     29.2632E-03    -14.1595E-03     50.8294E-03    -15.1261E-03     29.1285E-03    -14.0942E-03     50.6965E-03
            1083     11.5357E-03     97.7200E-03    -10.9351E+06    -26.2446E+06     2.15790E+06    -9.97628E+06    -15.7648E-03     29.9720E-03    -14.2072E-03     56.2728E-03    -15.8006E-03     29.8696E-03    -14.1425E-03     56.1260E-03
            1084     12.4221E-03     97.7716E-03    -9.68397E+06    -30.5559E+06     2.15922E+06    -11.8533E+06    -16.6968E-03     30.9931E-03    -14.2964E-03     63.9097E-03    -16.7339E-03     30.8812E-03    -14.2272E-03     63.7298E-03
            1085     13.3077E-03     97.8320E-03    -8.62639E+06    -51.9549E+06    -13.8221E+06    -12.8850E+06    -17.7472E-03     32.1186E-03    -14.3714E-03     68.1396E-03    -17.7451E-03     31.9416E-03    -14.3527E-03     67.9358E-03
            1086     14.1926E-03     97.8918E-03    -7.78944E+06    -40.6007E+06    -15.0213E+06    -11.0404E+06    -18.6410E-03     33.1514E-03    -14.5104E-03     71.3895E-03    -18.6856E-03     33.0678E-03    -14.5153E-03     71.2000E-03
            1087     15.0769E-03     97.9590E-03    -6.18440E+06    -11.3002E+06    -7.85716E+06    -8.58875E+06    -20.6452E-03     35.3350E-03    -14.6898E-03     101.636E-03    -20.9306E-03     35.5811E-03    -14.7038E-03     101.486E-03
            1088     15.9604E-03     98.0761E-03    -4.41710E+06     18.5919E+06    -15.6185E+06    -6.17177E+06    -24.3320E-03     39.1342E-03    -14.8022E-03     166.509E-03    -26.0845E-03     40.9823E-03    -14.9009E-03     166.903E-03
            1089     16.8439E-03     98.2686E-03    -3.14655E+06     112.926E+06     28.9699E+06    -2.71759E+06    -27.3904E-03     42.4530E-03    -15.0626E-03     232.825E-03    -32.9809E-03     48.3492E-03    -15.0769E-03     236.874E-03
            1090     887.457E-06     98.4184E-03    -21.1418E+06    -12.0609E+06    -19.5197E+06     2.18736E+06    -13.9300E-03     27.8075E-03    -13.8776E-03     3.59164E-03    -13.9897E-03     27.8064E-03    -13.9270E-03     3.61962E-03
            1091     1.77506E-03     98.4226E-03    -20.9938E+06    -10.1572E+06    -15.5506E+06     2.92150E+06    -13.8925E-03     27.8146E-03    -13.9222E-03     6.71717E-03    -13.9602E-03     27.8169E-03    -13.9548E-03     6.75441E-03
            1092     2.66255E-03     98.4296E-03    -20.6098E+06    -11.1391E+06    -10.8877E+06     2.53850E+06    -13.8558E-03     27.7929E-03    -13.9371E-03     10.1202E-03    -13.9269E-03     27.7829E-03    -13.9455E-03     10.1522E-03
            1093     3.55017E-03     98.4394E-03    -19.7316E+06    -13.6887E+06    -6.76061E+06     2.10458E+06    -13.8089E-03     27.7496E-03    -13.9407E-03     13.6638E-03    -13.8781E-03     27.7197E-03    -13.9260E-03     13.6900E-03
            1094     4.43779E-03     98.4523E-03    -19.0255E+06    -15.8627E+06    -3.62941E+06     1.79741E+06    -13.7531E-03     27.6840E-03    -13.9309E-03     17.3978E-03    -13.8203E-03     27.6379E-03    -13.8985E-03     17.4197E-03
            1095     5.32558E-03     98.4684E-03    -18.6327E+06    -19.5769E+06    -2.10897E+06     1.19563E+06    -13.7119E-03     27.6223E-03    -13.9104E-03     21.3658E-03    -13.7740E-03     27.5549E-03    -13.8656E-03     21.3796E-03
            1096     6.21339E-03     98.4881E-03    -18.0197E+06    -22.2439E+06    -1.93146E+06     345.350E+03    -13.6929E-03     27.5721E-03    -13.8792E-03     25.6209E-03    -13.7487E-03     27.4905E-03    -13.8305E-03     25.6233E-03
            1097     7.10128E-03     98.5114E-03    -17.7255E+06    -24.5139E+06    -2.13643E+06    -720.327E+03    -13.7188E-03     27.5659E-03    -13.8471E-03     30.2124E-03    -13.7699E-03     27.4732E-03    -13.7965E-03     30.2005E-03
            1098     7.98917E-03     98.5389E-03    -17.9497E+06    -28.3337E+06    -2.04510E+06    -3.06440E+06    -13.8286E-03     27.6543E-03    -13.8257E-03     35.1608E-03    -13.8760E-03     27.5434E-03    -13.7689E-03     35.1177E-03
            1099     8.87701E-03     98.5707E-03    -17.6921E+06    -30.0011E+06    -1.46419E+06    -6.76103E+06    -14.0448E-03     27.8601E-03    -13.8153E-03     40.4934E-03    -14.0906E-03     27.7408E-03    -13.7534E-03     40.4010E-03
            1100     9.76471E-03     98.6075E-03    -17.1308E+06    -29.3540E+06    -1.22908E+06    -8.79626E+06    -14.3975E-03     28.2150E-03    -13.8175E-03     46.1160E-03    -14.4439E-03     28.0999E-03    -13.7562E-03     45.9948E-03
            1101     10.6522E-03     98.6493E-03    -16.1271E+06    -30.5740E+06    -916.878E+03    -9.67590E+06    -14.9676E-03     28.8163E-03    -13.8487E-03     51.8520E-03    -15.0116E-03     28.6972E-03    -13.7855E-03     51.7156E-03
            1102     11.5391E-03     98.6964E-03    -13.4327E+06    -23.4362E+06     1.97327E+06    -11.4688E+06    -15.7392E-03     29.6529E-03    -13.9137E-03     57.5348E-03    -15.7912E-03     29.5683E-03    -13.8504E-03     57.3692E-03
            1103     12.4254E-03     98.7485E-03    -10.3969E+06    -27.7746E+06     2.66951E+06    -13.0964E+06    -16.8166E-03     30.8425E-03    -14.0258E-03     65.3718E-03    -16.8624E-03     30.7450E-03    -13.9571E-03     65.1760E-03
            1104     13.3110E-03     98.8103E-03    -9.49845E+06    -51.5771E+06    -12.7404E+06    -13.3176E+06    -18.0819E-03     32.2194E-03    -14.1375E-03     69.7146E-03    -18.0872E-03     32.0449E-03    -14.1127E-03     69.5045E-03
            1105     14.1954E-03     98.8708E-03    -9.09723E+06    -41.6720E+06    -15.0129E+06    -12.9311E+06    -19.2167E-03     33.5309E-03    -14.3142E-03     72.7662E-03    -19.2686E-03     33.4462E-03    -14.3157E-03     72.5502E-03
            1106     15.0791E-03     98.9393E-03    -6.66856E+06    -12.9831E+06    -8.24431E+06    -11.7605E+06    -21.4059E-03     35.9452E-03    -14.5393E-03     102.790E-03    -21.6957E-03     36.1891E-03    -14.5520E-03     102.593E-03
            1107     15.9618E-03     99.0578E-03    -4.60285E+06     13.9653E+06    -16.1160E+06    -8.06922E+06    -25.1420E-03     39.8466E-03    -14.7046E-03     166.846E-03    -26.8886E-03     41.6731E-03    -14.7988E-03     167.196E-03
            1108     16.8449E-03     99.2490E-03    -3.07803E+06     108.450E+06     28.9287E+06    -3.08304E+06    -28.1300E-03     43.1424E-03    -15.0123E-03     232.592E-03    -33.7055E-03     49.0079E-03    -15.0205E-03     236.575E-03
            1109     887.914E-06     99.3931E-03    -24.3699E+06    -17.7026E+06    -22.9078E+06     3.67341E+06    -13.5385E-03     27.0326E-03    -13.4941E-03     3.67807E-03    -13.6013E-03     27.0129E-03    -13.5477E-03     3.72526E-03
            1110     1.77568E-03     99.3973E-03    -24.4078E+06    -13.3082E+06    -19.7472E+06     5.48432E+06    -13.4817E-03     27.0044E-03    -13.5227E-03     6.74657E-03    -13.5558E-03     27.0019E-03    -13.5667E-03     6.81696E-03
            1111     2.66364E-03     99.4042E-03    -24.2087E+06    -11.8035E+06    -14.2706E+06     5.56884E+06    -13.4361E-03     26.9681E-03    -13.5320E-03     10.1658E-03    -13.5194E-03     26.9649E-03    -13.5511E-03     10.2370E-03
            1112     3.55155E-03     99.4140E-03    -23.7336E+06    -14.3001E+06    -8.69983E+06     4.96456E+06    -13.4014E-03     26.9430E-03    -13.5415E-03     13.7541E-03    -13.4869E-03     26.9186E-03    -13.5299E-03     13.8173E-03
            1113     4.43959E-03     99.4268E-03    -22.9397E+06    -16.2050E+06    -4.93245E+06     4.68772E+06    -13.3659E-03     26.9031E-03    -13.5372E-03     17.5292E-03    -13.4502E-03     26.8627E-03    -13.5051E-03     17.5886E-03
            1114     5.32762E-03     99.4428E-03    -22.2425E+06    -18.8615E+06    -3.06194E+06     3.90604E+06    -13.3369E-03     26.8581E-03    -13.5212E-03     21.5353E-03    -13.4167E-03     26.8009E-03    -13.4769E-03     21.5843E-03
            1115     6.21577E-03     99.4623E-03    -21.7252E+06    -20.8333E+06    -2.86644E+06     2.25847E+06    -13.3198E-03     26.8135E-03    -13.4937E-03     25.8322E-03    -13.3947E-03     26.7456E-03    -13.4463E-03     25.8595E-03
            1116     7.10398E-03     99.4856E-03    -20.5199E+06    -23.0264E+06    -3.11844E+06     578.013E+03    -13.3584E-03     26.8222E-03    -13.4638E-03     30.5017E-03    -13.4241E-03     26.7423E-03    -13.4163E-03     30.5069E-03
            1117     7.99220E-03     99.5131E-03    -18.3023E+06    -23.7289E+06    -1.69429E+06    -2.36882E+06    -13.4971E-03     26.9427E-03    -13.4456E-03     35.5941E-03    -13.5534E-03     26.8547E-03    -13.3931E-03     35.5604E-03
            1118     8.88031E-03     99.5451E-03    -16.6311E+06    -25.7202E+06     133.630E+03    -5.78685E+06    -13.7727E-03     27.2194E-03    -13.4467E-03     41.0797E-03    -13.8215E-03     27.1175E-03    -13.3847E-03     41.0003E-03
            1119     9.76827E-03     99.5820E-03    -16.2499E+06    -28.0131E+06     523.925E+03    -7.31480E+06    -14.2122E-03     27.6780E-03    -13.4657E-03     46.8735E-03    -14.2585E-03     27.5656E-03    -13.3989E-03     46.7719E-03
            1120     10.6558E-03     99.6244E-03    -15.4869E+06    -26.4311E+06     742.359E+03    -9.90628E+06    -14.8405E-03     28.3483E-03    -13.5078E-03     52.9188E-03    -14.8895E-03     28.2463E-03    -13.4433E-03     52.7799E-03
            1121     11.5429E-03     99.6722E-03    -13.6348E+06    -19.7929E+06     2.31543E+06    -13.4432E+06    -15.6968E-03     29.2826E-03    -13.5857E-03     58.9490E-03    -15.7555E-03     29.2159E-03    -13.5257E-03     58.7585E-03
            1122     12.4292E-03     99.7255E-03    -12.0361E+06    -26.9917E+06     2.10553E+06    -14.0182E+06    -16.9454E-03     30.6683E-03    -13.7229E-03     67.0303E-03    -17.0000E-03     30.5783E-03    -13.6558E-03     66.8227E-03
            1123     13.3146E-03     99.7883E-03    -10.8992E+06    -50.3363E+06    -12.0538E+06    -13.9592E+06    -18.4363E-03     32.3086E-03    -13.8723E-03     71.6300E-03    -18.4524E-03     32.1423E-03    -13.8438E-03     71.4110E-03
            1124     14.1986E-03     99.8506E-03    -9.10365E+06    -40.0473E+06    -14.1608E+06    -15.2850E+06    -19.9006E-03     33.9926E-03    -14.0921E-03     74.8900E-03    -19.9591E-03     33.9178E-03    -14.0916E-03     74.6410E-03
            1125     15.0813E-03     99.9202E-03    -6.84640E+06    -14.7741E+06    -8.60937E+06    -14.9645E+06    -22.3014E-03     36.6723E-03    -14.3709E-03     104.582E-03    -22.5951E-03     36.9142E-03    -14.3826E-03     104.337E-03
            1126     15.9639E-03     100.040E-03    -5.07700E+06     7.08687E+06    -17.3604E+06    -10.1040E+06    -26.1182E-03     40.7148E-03    -14.5966E-03     167.520E-03    -27.8492E-03     42.5033E-03    -14.6863E-03     167.815E-03
            1127     16.8456E-03     100.231E-03    -3.21519E+06     102.984E+06     28.5527E+06    -3.70685E+06    -28.9392E-03     43.8968E-03    -14.9576E-03     232.159E-03    -34.4722E-03     49.7012E-03    -14.9595E-03     236.056E-03
            1128     888.179E-06     100.367E-03    -26.6775E+06    -25.9238E+06    -25.7037E+06     4.79419E+06    -13.0933E-03     26.1685E-03    -13.0751E-03     3.67410E-03    -13.1517E-03     26.1150E-03    -13.1274E-03     3.73580E-03
            1129     1.77652E-03     100.371E-03    -26.7500E+06    -19.1762E+06    -22.5404E+06     7.89119E+06    -13.0204E-03     26.1005E-03    -13.0802E-03     6.79774E-03    -13.0936E-03     26.0761E-03    -13.1263E-03     6.89926E-03
            1130     2.66477E-03     100.378E-03    -26.9721E+06    -14.0763E+06    -17.2759E+06     9.02420E+06    -12.9744E-03     26.0513E-03    -13.0769E-03     10.2447E-03    -13.0639E-03     26.0452E-03    -13.1038E-03     10.3606E-03
            1131     3.55319E-03     100.388E-03    -26.6391E+06    -15.2098E+06    -11.2885E+06     8.35523E+06    -12.9506E-03     26.0367E-03    -13.0861E-03     13.8611E-03    -13.0455E-03     26.0158E-03    -13.0819E-03     13.9682E-03
            1132     4.44153E-03     100.400E-03    -25.7250E+06    -17.2491E+06    -6.49698E+06     7.62030E+06    -12.9401E-03     26.0305E-03    -13.0904E-03     17.6665E-03    -13.0345E-03     25.9912E-03    -13.0606E-03     17.7639E-03
            1133     5.33000E-03     100.416E-03    -24.3408E+06    -17.8736E+06    -3.61052E+06     6.35088E+06    -12.9312E-03     26.0130E-03    -13.0819E-03     21.7108E-03    -13.0221E-03     25.9645E-03    -13.0387E-03     21.7916E-03
            1134     6.21846E-03     100.436E-03    -22.8370E+06    -19.0986E+06    -2.62395E+06     4.24599E+06    -12.9479E-03     26.0117E-03    -13.0638E-03     26.0589E-03    -13.0311E-03     25.9537E-03    -13.0162E-03     26.1121E-03
            1135     7.10697E-03     100.459E-03    -21.3900E+06    -20.1930E+06    -2.77000E+06     1.19591E+06    -13.0118E-03     26.0539E-03    -13.0421E-03     30.8120E-03    -13.0863E-03     25.9888E-03    -12.9956E-03     30.8254E-03
            1136     7.99548E-03     100.487E-03    -19.6587E+06    -18.8287E+06    -1.74974E+06    -2.80478E+06    -13.1609E-03     26.1899E-03    -13.0290E-03     36.0324E-03    -13.2308E-03     26.1283E-03    -12.9819E-03     35.9934E-03
            1137     8.88394E-03     100.519E-03    -17.6465E+06    -22.9046E+06     229.386E+03    -5.50419E+06    -13.4949E-03     26.5389E-03    -13.0440E-03     41.6706E-03    -13.5528E-03     26.4522E-03    -12.9841E-03     41.5954E-03
            1138     9.77201E-03     100.556E-03    -14.6693E+06    -25.4480E+06     1.92836E+06    -7.65370E+06    -13.9955E-03     27.0744E-03    -13.0790E-03     47.6887E-03    -14.0394E-03     26.9703E-03    -13.0112E-03     47.5834E-03
            1139     10.6598E-03     100.599E-03    -11.2625E+06    -21.1313E+06     3.38977E+06    -10.7817E+06    -14.6751E-03     27.8085E-03    -13.1333E-03     54.0713E-03    -14.7142E-03     27.7227E-03    -13.0694E-03     53.9218E-03
            1140     11.5470E-03     100.648E-03    -10.6416E+06    -17.3353E+06     4.06164E+06    -12.2939E+06    -15.6565E-03     28.8862E-03    -13.2298E-03     60.4651E-03    -15.7061E-03     28.8248E-03    -13.1689E-03     60.2899E-03
            1141     12.4334E-03     100.702E-03    -11.2453E+06    -25.1492E+06     3.36394E+06    -13.6037E+06    -17.0807E-03     30.4737E-03    -13.3930E-03     68.9093E-03    -17.1361E-03     30.3902E-03    -13.3234E-03     68.7072E-03
            1142     13.3186E-03     100.767E-03    -9.39496E+06    -47.2465E+06    -10.8292E+06    -16.4192E+06    -18.7621E-03     32.3340E-03    -13.5719E-03     73.8623E-03    -18.7778E-03     32.1801E-03    -13.5439E-03     73.6111E-03
            1143     14.2024E-03     100.830E-03    -6.95650E+06    -38.1693E+06    -13.0956E+06    -17.7383E+06    -20.5036E-03     34.3370E-03    -13.8334E-03     77.3953E-03    -20.5584E-03     34.2697E-03    -13.8335E-03     77.1124E-03
            1144     15.0849E-03     100.902E-03    -5.82849E+06    -15.9875E+06    -7.88771E+06    -16.7682E+06    -23.3217E-03     37.4947E-03    -14.1730E-03     106.606E-03    -23.6163E-03     37.7349E-03    -14.1808E-03     106.330E-03
            1145     15.9656E-03     101.022E-03    -5.49236E+06    -770.596E+03    -18.5223E+06    -11.8815E+06    -27.2626E-03     41.7290E-03    -14.4663E-03     168.502E-03    -28.9732E-03     43.4711E-03    -14.5499E-03     168.737E-03
            1146     16.8469E-03     101.214E-03    -3.65709E+06     96.2365E+06     28.4954E+06    -4.66012E+06    -29.9458E-03     44.8373E-03    -14.8915E-03     232.032E-03    -35.4253E-03     50.5628E-03    -14.8833E-03     235.799E-03
            1147     888.681E-06     101.340E-03    -30.6248E+06    -35.5320E+06    -29.8951E+06     4.96978E+06    -12.5578E-03     25.1695E-03    -12.6118E-03     3.69185E-03    -12.6159E-03     25.0798E-03    -12.6653E-03     3.75586E-03
            1148     1.77737E-03     101.344E-03    -29.5497E+06    -28.0028E+06    -25.8134E+06     9.39678E+06    -12.5220E-03     25.1030E-03    -12.5811E-03     6.86096E-03    -12.5917E-03     25.0433E-03    -12.6267E-03     6.98197E-03
            1149     2.66619E-03     101.351E-03    -28.7988E+06    -18.6663E+06    -19.7165E+06     12.2713E+06    -12.4839E-03     25.0588E-03    -12.5750E-03     10.3129E-03    -12.5722E-03     25.0359E-03    -12.6047E-03     10.4708E-03
            1150     3.55492E-03     101.360E-03    -28.2203E+06    -16.1338E+06    -13.1887E+06     11.6412E+06    -12.4758E-03     25.0611E-03    -12.5852E-03     13.9661E-03    -12.5745E-03     25.0405E-03    -12.5869E-03     14.1158E-03
            1151     4.44376E-03     101.373E-03    -26.4481E+06    -18.0638E+06    -7.57848E+06     9.78329E+06    -12.4904E-03     25.0895E-03    -12.5990E-03     17.8109E-03    -12.5857E-03     25.0486E-03    -12.5724E-03     17.9364E-03
            1152     5.33254E-03     101.389E-03    -23.9008E+06    -16.7804E+06    -3.46680E+06     7.85098E+06    -12.5119E-03     25.1127E-03    -12.6008E-03     21.8811E-03    -12.6024E-03     25.0688E-03    -12.5592E-03     21.9814E-03
            1153     6.22143E-03     101.409E-03    -21.1451E+06    -16.8549E+06    -1.38382E+06     5.04249E+06    -12.5707E-03     25.1665E-03    -12.5958E-03     26.2765E-03    -12.6505E-03     25.1154E-03    -12.5476E-03     26.3403E-03
            1154     7.11024E-03     101.432E-03    -18.4125E+06    -16.2564E+06    -332.851E+03     1.58781E+06    -12.6773E-03     25.2661E-03    -12.5888E-03     31.1041E-03    -12.7461E-03     25.2127E-03    -12.5402E-03     31.1229E-03
            1155     7.99905E-03     101.459E-03    -17.4000E+06    -14.9525E+06     567.124E+03    -1.42588E+06    -12.8681E-03     25.4590E-03    -12.5909E-03     36.4425E-03    -12.9356E-03     25.4099E-03    -12.5411E-03     36.4217E-03
            1156     8.88766E-03     101.492E-03    -17.5308E+06    -19.3791E+06     703.334E+03    -4.70746E+06    -13.1990E-03     25.8132E-03    -12.6142E-03     42.2730E-03    -13.2620E-03     25.7431E-03    -12.5572E-03     42.2085E-03
            1157     9.77612E-03     101.530E-03    -16.1229E+06    -19.9817E+06     1.54957E+06    -9.57028E+06    -13.6932E-03     26.3486E-03    -12.6554E-03     48.5794E-03    -13.7514E-03     26.2742E-03    -12.5953E-03     48.4499E-03
            1158     10.6642E-03     101.573E-03    -13.8149E+06    -18.3498E+06     3.05368E+06    -12.2535E+06    -14.4607E-03     27.1883E-03    -12.7276E-03     55.3016E-03    -14.5158E-03     27.1203E-03    -12.6657E-03     55.1339E-03
            1159     11.5516E-03     101.623E-03    -11.2990E+06    -16.8845E+06     4.66634E+06    -11.7396E+06    -15.5859E-03     28.4328E-03    -12.8469E-03     62.1008E-03    -15.6400E-03     28.3734E-03    -12.7827E-03     61.9335E-03
            1160     12.4379E-03     101.679E-03    -8.26965E+06    -19.5103E+06     6.45128E+06    -14.1806E+06    -17.1591E-03     30.1922E-03    -13.0331E-03     71.0121E-03    -17.2123E-03     30.1281E-03    -12.9606E-03     70.8029E-03
            1161     13.3231E-03     101.745E-03    -6.01039E+06    -42.5891E+06    -7.64354E+06    -18.9129E+06    -19.0974E-03     32.3426E-03    -13.2452E-03     76.3632E-03    -19.1085E-03     32.2034E-03    -13.2130E-03     76.0794E-03
            1162     14.2065E-03     101.811E-03    -4.75090E+06    -38.1916E+06    -11.7605E+06    -19.5594E+06    -21.1741E-03     34.7250E-03    -13.5509E-03     80.1597E-03    -21.2226E-03     34.6553E-03    -13.5474E-03     79.8508E-03
            1163     15.0881E-03     101.885E-03    -4.11637E+06    -17.1037E+06    -5.88749E+06    -17.3588E+06    -24.3461E-03     38.3010E-03    -13.9549E-03     108.996E-03    -24.6397E-03     38.5365E-03    -13.9536E-03     108.703E-03
            1164     15.9686E-03     102.007E-03    -3.69863E+06    -8.13364E+06    -17.7955E+06    -12.4726E+06    -28.4450E-03     42.7633E-03    -14.3183E-03     169.133E-03    -30.1096E-03     44.4376E-03    -14.3901E-03     169.316E-03
            1165     16.8489E-03     102.197E-03    -2.96530E+06     88.6482E+06     28.2528E+06    -5.23514E+06    -31.1646E-03     45.9732E-03    -14.8086E-03     231.678E-03    -36.5707E-03     51.6016E-03    -14.7916E-03     235.289E-03
            1166     889.176E-06     102.312E-03    -38.1415E+06    -44.2709E+06    -37.6997E+06     3.81998E+06    -12.0132E-03     24.0537E-03    -12.0405E-03     3.74492E-03    -12.0849E-03     23.9425E-03    -12.1095E-03     3.79411E-03
            1167     1.77839E-03     102.316E-03    -34.5150E+06    -37.7778E+06    -32.0946E+06     7.82112E+06    -12.0111E-03     24.0455E-03    -12.0344E-03     6.88803E-03    -12.0823E-03     23.9532E-03    -12.0901E-03     6.98877E-03
            1168     2.66755E-03     102.323E-03     -30.036E+06    -26.3664E+06    -23.6666E+06     12.4084E+06    -11.9733E-03     24.0128E-03    -12.0396E-03     10.3671E-03    -12.0509E-03     23.9589E-03    -12.0761E-03     10.5269E-03
            1169     3.55687E-03     102.332E-03    -26.9450E+06    -17.8484E+06    -14.3751E+06     13.8942E+06    -11.9730E-03     24.0270E-03    -12.0540E-03     14.0439E-03    -12.0611E-03     23.9977E-03    -12.0609E-03     14.2227E-03
            1170     4.44605E-03     102.345E-03    -25.0226E+06    -17.4047E+06    -7.74702E+06     11.2795E+06    -12.0256E-03     24.1010E-03    -12.0754E-03     17.9435E-03    -12.1144E-03     24.0616E-03    -12.0526E-03     18.0884E-03
            1171     5.33533E-03     102.361E-03    -22.4766E+06    -15.9650E+06    -3.28414E+06     8.44367E+06    -12.0948E-03     24.1853E-03    -12.0905E-03     22.0462E-03    -12.1795E-03     24.1431E-03    -12.0512E-03     22.1543E-03
            1172     6.22448E-03     102.380E-03    -20.0585E+06    -13.7795E+06    -542.282E+03     5.51329E+06    -12.1833E-03     24.2837E-03    -12.1004E-03     26.4639E-03    -12.2632E-03     24.2450E-03    -12.0540E-03     26.5339E-03
            1173     7.11369E-03     102.404E-03    -18.2542E+06    -12.5009E+06     664.976E+03     1.75223E+06    -12.3290E-03     24.4392E-03    -12.1102E-03     31.3522E-03    -12.4038E-03     24.4029E-03    -12.0623E-03     31.3733E-03
            1174     8.00276E-03     102.431E-03    -15.6690E+06    -12.6521E+06     1.72700E+06    -792.613E+03    -12.5534E-03     24.6822E-03    -12.1288E-03     36.7979E-03    -12.6171E-03     24.6404E-03    -12.0791E-03     36.7855E-03
            1175     8.89171E-03     102.464E-03    -12.7097E+06    -13.8454E+06     3.43588E+06    -4.17762E+06    -12.8808E-03     25.0447E-03    -12.1638E-03     42.8088E-03    -12.9314E-03     24.9910E-03    -12.1082E-03     42.7516E-03
            1176     9.78044E-03     102.502E-03    -11.7972E+06    -13.7432E+06     4.97975E+06    -8.73935E+06    -13.4068E-03     25.6261E-03    -12.2193E-03     49.3701E-03    -13.4570E-03     25.5712E-03    -12.1574E-03     49.2520E-03
            1177     10.6688E-03     102.546E-03    -12.4415E+06    -16.5739E+06     5.04680E+06    -11.3606E+06    -14.2468E-03     26.5548E-03    -12.3080E-03     56.4464E-03    -14.3000E-03     26.4904E-03    -12.2407E-03     56.2910E-03
            1178     11.5563E-03     102.597E-03    -11.1198E+06    -14.5313E+06     5.50492E+06    -13.7356E+06    -15.4397E-03     27.8777E-03    -12.4381E-03     63.8108E-03    -15.4971E-03     27.8281E-03    -12.3733E-03     63.6186E-03
            1179     12.4429E-03     102.655E-03    -7.02261E+06    -13.2555E+06     8.19220E+06    -17.3696E+06    -17.1594E-03     29.8003E-03    -12.6409E-03     73.3119E-03    -17.2177E-03     29.7629E-03    -12.5705E-03     73.0623E-03
            1180     13.3280E-03     102.723E-03    -4.45749E+06    -38.7248E+06    -4.79422E+06    -19.8132E+06    -19.4096E-03     32.3009E-03    -12.8913E-03     79.2154E-03    -19.4232E-03     32.1752E-03    -12.8527E-03     78.9197E-03
            1181     14.2110E-03     102.791E-03    -5.05009E+06    -38.2750E+06    -11.3611E+06    -20.0860E+06    -21.8992E-03     35.1392E-03    -13.2400E-03     83.4255E-03    -21.9524E-03     35.0716E-03    -13.2340E-03     83.1070E-03
            1182     15.0921E-03     102.868E-03    -4.68395E+06    -18.5204E+06    -5.92125E+06    -18.5341E+06    -25.4681E-03     39.1758E-03    -13.7077E-03     111.913E-03    -25.7672E-03     39.4098E-03    -13.7037E-03     111.594E-03
            1183     15.9710E-03     102.992E-03    -3.62652E+06    -15.8492E+06    -18.2565E+06    -13.2303E+06    -29.8692E-03     44.0230E-03    -14.1538E-03     169.929E-03    -31.4804E-03     45.6181E-03    -14.2169E-03     170.044E-03
            1184     16.8499E-03     103.182E-03    -2.56476E+06     80.6584E+06     27.6521E+06    -5.38284E+06    -32.4972E-03     47.2178E-03    -14.7206E-03     231.229E-03    -37.8063E-03     52.7239E-03    -14.6956E-03     234.668E-03
            1185     889.692E-06     103.282E-03    -50.3389E+06    -48.8561E+06    -50.6560E+06     749.114E+03    -11.4913E-03     22.9281E-03    -11.4368E-03     3.75498E-03    -11.5986E-03     22.8305E-03    -11.5463E-03     3.76456E-03
            1186     1.77929E-03     103.286E-03    -44.8218E+06    -44.1385E+06    -43.8821E+06     2.33015E+06    -11.4609E-03     22.9358E-03    -11.4749E-03     6.89573E-03    -11.5574E-03     22.8437E-03    -11.5653E-03     6.92566E-03
            1187     2.66904E-03     103.293E-03    -35.9650E+06    -34.9008E+06    -33.3102E+06     5.98364E+06    -11.4489E-03     22.9370E-03    -11.4881E-03     10.4106E-03    -11.5298E-03     22.8629E-03    -11.5519E-03     10.4875E-03
            1188     3.55873E-03     103.303E-03    -26.6822E+06    -23.1548E+06    -20.1411E+06     10.7756E+06    -11.4634E-03     22.9718E-03    -11.5084E-03     14.0695E-03    -11.5341E-03     22.9240E-03    -11.5369E-03     14.2081E-03
            1189     4.44853E-03     103.316E-03    -21.3463E+06    -17.0558E+06    -9.14647E+06     12.1078E+06    -11.5399E-03     23.0798E-03    -11.5398E-03     17.9605E-03    -11.6088E-03     23.0388E-03    -11.5299E-03     18.1163E-03
            1190     5.33807E-03     103.332E-03    -19.6956E+06    -14.6868E+06    -2.70643E+06     9.60669E+06    -11.6609E-03     23.2330E-03    -11.5722E-03     22.1204E-03    -11.7343E-03     23.1923E-03    -11.5358E-03     22.2437E-03
            1191     6.22771E-03     103.351E-03    -17.7037E+06    -10.4050E+06     1.27079E+06     5.92759E+06    -11.8058E-03     23.4058E-03    -11.6000E-03     26.5861E-03    -11.8814E-03     23.3779E-03    -11.5529E-03     26.6616E-03
            1192     7.11714E-03     103.375E-03    -15.2920E+06    -9.05433E+06     2.96030E+06     2.38258E+06    -11.9903E-03     23.6185E-03    -11.6282E-03     31.5194E-03    -12.0586E-03     23.5917E-03    -11.5781E-03     31.5488E-03
            1193     8.00653E-03     103.403E-03    -13.6357E+06    -9.45961E+06     3.13882E+06    -1.28885E+06    -12.2160E-03     23.8755E-03    -11.6595E-03     37.0303E-03    -12.2761E-03     23.8444E-03    -11.6103E-03     37.0118E-03
            1194     8.89583E-03     103.436E-03    -11.3810E+06    -8.31383E+06     4.98142E+06    -5.42055E+06    -12.5512E-03     24.2569E-03    -11.7057E-03     43.1798E-03    -12.6051E-03     24.2265E-03    -11.6523E-03     43.1070E-03
            1195     9.78488E-03     103.474E-03    -8.96775E+06    -10.5055E+06     7.29367E+06    -7.59790E+06    -13.1196E-03     24.8980E-03    -11.7784E-03     49.9895E-03    -13.1634E-03     24.8515E-03    -11.7137E-03     49.8868E-03
            1196     10.6733E-03     103.519E-03    -7.64817E+06    -12.7503E+06     8.28926E+06    -9.70212E+06    -13.9688E-03     25.8476E-03    -11.8787E-03     57.4720E-03    -14.0077E-03     25.7900E-03    -11.8077E-03     57.3389E-03
            1197     11.5613E-03     103.571E-03    -6.82587E+06    -8.47271E+06     8.90964E+06    -14.3221E+06    -15.2015E-03     27.2179E-03    -12.0163E-03     65.4707E-03    -15.2504E-03     27.1866E-03    -11.9496E-03     65.2722E-03
            1198     12.4480E-03     103.630E-03    -7.18617E+06    -8.60083E+06     9.24639E+06    -18.0932E+06    -17.0683E-03     29.2974E-03    -12.2291E-03     75.7007E-03    -17.1349E-03     29.2811E-03    -12.1600E-03     75.4429E-03
            1199     13.3332E-03     103.700E-03    -8.03238E+06    -36.0202E+06    -3.69737E+06    -19.9936E+06    -19.5901E-03     32.1012E-03    -12.5112E-03     82.4196E-03    -19.6267E-03     31.9924E-03    -12.4658E-03     82.1220E-03
            1200     14.2160E-03     103.772E-03    -6.91769E+06    -36.5521E+06    -10.5423E+06    -21.1339E+06    -22.5713E-03     35.4706E-03    -12.8993E-03     87.3099E-03    -22.6395E-03     35.4152E-03    -12.8890E-03     86.9754E-03
            1201     15.0961E-03     103.852E-03    -5.36496E+06    -19.9928E+06    -6.34680E+06    -20.3877E+06    -26.6571E-03     40.0845E-03    -13.4274E-03     115.515E-03    -26.9603E-03     40.3163E-03    -13.4223E-03     115.161E-03
            1202     15.9745E-03     103.979E-03    -4.97455E+06    -24.9895E+06    -20.3473E+06    -14.5916E+06    -31.4719E-03     45.4301E-03    -13.9582E-03     171.751E-03    -33.0283E-03     46.9393E-03    -14.0165E-03     171.783E-03
            1203     16.8519E-03     104.168E-03    -3.73682E+06     72.1400E+06     26.4808E+06    -5.93533E+06    -34.0935E-03     48.7086E-03    -14.6151E-03     230.998E-03    -39.2834E-03     54.0645E-03    -14.5819E-03     234.212E-03
            1204     890.017E-06     104.252E-03    -64.1111E+06    -47.0606E+06    -64.1048E+06    -2.63912E+06    -10.9384E-03     21.8688E-03    -10.9304E-03     3.67964E-03    -11.0976E-03     21.8196E-03    -11.0897E-03     3.64551E-03
            1205     1.78022E-03     104.256E-03    -59.6631E+06    -44.0672E+06    -59.0661E+06    -4.22413E+06    -10.9157E-03     21.8546E-03    -10.9389E-03     6.90396E-03    -11.0645E-03     21.8064E-03    -11.0838E-03     6.84931E-03
            1206     2.67029E-03     104.263E-03    -51.9908E+06    -38.6411E+06    -50.1753E+06    -4.04939E+06    -10.9442E-03     21.8966E-03    -10.9525E-03     10.3878E-03    -11.0753E-03     21.8516E-03    -11.0719E-03     10.3353E-03
            1207     3.56052E-03     104.273E-03    -40.0404E+06    -30.2629E+06    -36.7500E+06    -364.269E+03    -10.9817E-03     21.9643E-03    -10.9825E-03     13.9988E-03    -11.0848E-03     21.9243E-03    -11.0643E-03     13.9938E-03
            1208     4.45061E-03     104.286E-03    -26.2754E+06    -21.1553E+06    -21.0242E+06     5.18535E+06    -11.0494E-03     22.0718E-03    -11.0224E-03     17.7761E-03    -11.1197E-03     22.0347E-03    -11.0588E-03     17.8425E-03
            1209     5.34086E-03     104.302E-03    -16.1737E+06    -14.5357E+06    -6.62607E+06     7.79486E+06    -11.1881E-03     22.2609E-03    -11.0728E-03     21.9296E-03    -11.2384E-03     22.2214E-03    -11.0614E-03     22.0296E-03
            1210     6.23071E-03     104.322E-03    -12.3115E+06    -7.77951E+06     2.99899E+06     6.51350E+06    -11.3947E-03     22.5186E-03    -11.1239E-03     26.4763E-03    -11.4497E-03     22.4935E-03    -11.0797E-03     26.5596E-03
            1211     7.12057E-03     104.345E-03    -11.2274E+06    -5.59680E+06     6.14615E+06     3.25044E+06    -11.6337E-03     22.8028E-03    -11.1691E-03     31.4499E-03    -11.6912E-03     22.7827E-03    -11.1140E-03     31.4907E-03
            1212     8.01026E-03     104.373E-03    -9.29106E+06    -4.13128E+06     7.35056E+06    -1.36001E+06    -11.8993E-03     23.1148E-03    -11.2155E-03     37.0167E-03    -11.9514E-03     23.0979E-03    -11.1593E-03     36.9974E-03
            1213     8.89978E-03     104.407E-03    -8.00883E+06    -4.24466E+06     8.23443E+06    -5.15949E+06    -12.2570E-03     23.5309E-03    -11.2738E-03     43.2930E-03    -12.3046E-03     23.5110E-03    -11.2149E-03     43.2239E-03
            1214     9.78904E-03     104.446E-03    -7.96421E+06    -8.83474E+06     8.13921E+06    -6.99709E+06    -12.7805E-03     24.1319E-03    -11.3514E-03     50.3404E-03    -12.8225E-03     24.0906E-03    -11.2864E-03     50.2462E-03
            1215     10.6780E-03     104.491E-03    -6.66981E+06    -7.30187E+06     9.62688E+06    -9.96063E+06    -13.5776E-03     25.0303E-03    -11.4527E-03     58.2654E-03    -13.6206E-03     24.9958E-03    -11.3843E-03     58.1300E-03
            1216     11.5662E-03     104.544E-03    -5.68171E+06    -3.15894E+06     11.5900E+06    -13.1321E+06    -14.8571E-03     26.4558E-03    -11.5987E-03     66.9178E-03    -14.9105E-03     26.4443E-03    -11.5280E-03     66.7361E-03
            1217     12.4534E-03     104.605E-03    -7.17207E+06    -5.39458E+06     11.3521E+06    -14.5182E+06    -16.8591E-03     28.6780E-03    -11.8189E-03     77.9256E-03    -16.9317E-03     28.6730E-03    -11.7439E-03     77.7157E-03
            1218     13.3387E-03     104.678E-03    -9.17897E+06    -29.8658E+06    -268.155E+03    -18.6317E+06    -19.6097E-03     31.7289E-03    -12.1192E-03     85.6862E-03    -19.6646E-03     31.6460E-03    -12.0639E-03     85.4075E-03
            1219     14.2215E-03     104.753E-03    -8.45875E+06    -32.3813E+06    -7.69898E+06    -24.1947E+06    -23.0200E-03     35.5575E-03    -12.5375E-03     91.7030E-03    -23.1066E-03     35.5216E-03    -12.5168E-03     91.3277E-03
            1220     15.1013E-03     104.837E-03    -5.36559E+06    -23.7506E+06    -5.08373E+06    -22.8146E+06    -27.7276E-03     40.8473E-03    -13.1197E-03     119.765E-03    -28.0281E-03     41.0594E-03    -13.1029E-03     119.369E-03
            1221     15.9783E-03     104.966E-03    -4.61859E+06    -34.8801E+06    -21.4949E+06    -15.1851E+06    -33.0463E-03     46.7682E-03    -13.7219E-03     174.200E-03    -34.5187E-03     48.1629E-03    -13.7721E-03     174.152E-03
            1222     16.8543E-03     105.157E-03    -3.42697E+06     63.6069E+06     26.0392E+06    -6.49255E+06    -36.1391E-03     50.6142E-03    -14.4751E-03     231.325E-03    -41.1818E-03     55.7951E-03    -14.4322E-03     234.244E-03
            1223     890.488E-06     105.221E-03    -63.2425E+06    -40.2382E+06    -62.9405E+06    -4.18302E+06    -10.5083E-03     21.0344E-03    -10.5260E-03     3.56175E-03    -10.6748E-03     21.0163E-03    -10.6907E-03     3.50768E-03
            1224     1.78093E-03     105.225E-03    -61.8807E+06    -38.2397E+06    -60.3160E+06    -7.74134E+06    -10.5271E-03     21.0518E-03    -10.5247E-03     6.78248E-03    -10.6936E-03     21.0378E-03    -10.6811E-03     6.68241E-03
            1225     2.67145E-03     105.232E-03    -58.9680E+06    -35.7359E+06    -55.4590E+06    -10.2425E+06    -10.5780E-03     21.1240E-03    -10.5460E-03     10.1811E-03    -10.7406E-03     21.1113E-03    -10.6860E-03     10.0486E-03
            1226     3.56179E-03     105.242E-03    -53.4579E+06    -32.0532E+06    -48.4710E+06    -10.9508E+06    -10.6130E-03     21.1883E-03    -10.5752E-03     13.7278E-03    -10.7636E-03     21.1759E-03    -10.6936E-03     13.5861E-03
            1227     4.45231E-03     105.255E-03    -43.0628E+06    -26.1430E+06    -38.7345E+06    -8.61189E+06    -10.6555E-03     21.2590E-03    -10.6035E-03     17.4225E-03    -10.7769E-03     21.2470E-03    -10.6968E-03     17.3108E-03
            1228     5.34272E-03     105.271E-03    -28.6161E+06    -18.3649E+06    -25.1926E+06    -3.59096E+06    -10.7488E-03     21.3893E-03    -10.6405E-03     21.4262E-03    -10.8290E-03     21.3758E-03    -10.6983E-03     21.3792E-03
            1229     6.23333E-03     105.291E-03    -15.2861E+06    -9.54525E+06    -8.24817E+06     1.56548E+06    -10.9190E-03     21.6199E-03    -10.7010E-03     25.8672E-03    -10.9699E-03     21.6067E-03    -10.7062E-03     25.8866E-03
            1230     7.12351E-03     105.315E-03    -7.90714E+06    -2.80336E+06     5.48925E+06     2.71974E+06    -11.1980E-03     21.9706E-03    -10.7727E-03     30.8720E-03    -11.2419E-03     21.9607E-03    -10.7297E-03     30.9059E-03
            1231     8.01350E-03     105.343E-03    -6.44668E+06     1.02451E+06     10.7005E+06    -310.072E+03    -11.5444E-03     22.3791E-03    -10.8347E-03     36.5353E-03    -11.5945E-03     22.3789E-03    -10.7733E-03     36.5298E-03
            1232     8.90332E-03     105.377E-03    -6.50628E+06    -991.749E+03     10.7024E+06    -3.57853E+06    -11.9317E-03     22.8300E-03    -10.8984E-03     42.9088E-03    -11.9798E-03     22.8205E-03    -10.8340E-03     42.8604E-03
            1233     9.79291E-03     105.416E-03    -5.01496E+06    -5.57796E+06     10.6231E+06    -6.63559E+06    -12.4185E-03     23.3960E-03    -10.9775E-03     50.1532E-03    -12.4536E-03     23.3627E-03    -10.9090E-03     50.0643E-03
            1234     10.6821E-03     105.462E-03    -3.83124E+06    -2.38084E+06     12.4487E+06    -9.71144E+06    -13.1644E-03     24.2412E-03    -11.0767E-03     58.4839E-03    -13.2034E-03     24.2220E-03    -11.0055E-03     58.3530E-03
            1235     11.5709E-03     105.517E-03    -4.09749E+06    -1.02137E+06     14.3994E+06    -10.9708E+06    -14.4493E-03     25.6735E-03    -11.2242E-03     67.7613E-03    -14.5003E-03     25.6646E-03    -11.1448E-03     67.6093E-03
            1236     12.4583E-03     105.579E-03    -4.44589E+06    -3.17102E+06     14.9970E+06    -11.3329E+06    -16.5094E-03     27.9522E-03    -11.4428E-03     79.6303E-03    -16.5742E-03     27.9465E-03    -11.3568E-03     79.4638E-03
            1237     13.3441E-03     105.655E-03    -4.50413E+06    -19.1192E+06     7.40785E+06    -16.7473E+06    -19.4501E-03     31.1995E-03    -11.7494E-03     88.6865E-03    -19.5053E-03     31.1495E-03    -11.6781E-03     88.4344E-03
            1238     14.2271E-03     105.733E-03    -5.89964E+06    -25.6549E+06    -1.17663E+06    -23.9791E+06    -23.2978E-03     35.4855E-03    -12.1877E-03     95.8020E-03    -23.3888E-03     35.4681E-03    -12.1478E-03     95.4294E-03
            1239     15.1067E-03     105.822E-03    -7.81777E+06    -28.2426E+06    -3.28127E+06    -24.6029E+06    -28.4927E-03     41.3010E-03    -12.8084E-03     123.767E-03    -28.7950E-03     41.4851E-03    -12.7725E-03     123.339E-03
            1240     15.9830E-03     105.955E-03    -6.21950E+06    -45.2006E+06    -21.5194E+06    -17.4408E+06    -34.1950E-03     47.6583E-03    -13.4634E-03     176.720E-03    -35.5525E-03     48.8958E-03    -13.4964E-03     176.564E-03
            1241     16.8582E-03     106.146E-03    -3.43637E+06     54.0471E+06     24.6655E+06    -7.43666E+06    -38.5996E-03     52.8947E-03    -14.2951E-03     233.253E-03    -43.4995E-03     57.9030E-03    -14.2452E-03     235.810E-03
            1242     890.726E-06     106.189E-03    -47.5114E+06    -31.8391E+06    -47.1450E+06    -4.39489E+06    -10.3068E-03     20.5936E-03    -10.2868E-03     3.36990E-03    -10.4297E-03     20.5719E-03    -10.4075E-03     3.31306E-03
            1243     1.78146E-03     106.193E-03    -47.4109E+06    -30.2542E+06    -45.1728E+06    -7.70487E+06    -10.3582E-03     20.6735E-03    -10.3153E-03     6.48585E-03    -10.4859E-03     20.6565E-03    -10.4285E-03     6.38616E-03
            1244     2.67202E-03     106.200E-03    -47.1879E+06    -29.2342E+06    -42.7885E+06    -10.9287E+06    -10.4154E-03     20.7642E-03    -10.3488E-03     9.75686E-03    -10.5470E-03     20.7486E-03    -10.4519E-03     9.61544E-03
            1245     3.56272E-03     106.210E-03    -46.3805E+06    -27.3142E+06    -40.5628E+06    -13.8405E+06    -10.4658E-03     20.8438E-03    -10.3780E-03     13.1345E-03    -10.5994E-03     20.8334E-03    -10.4740E-03     12.9553E-03
            1246     4.45325E-03     106.223E-03    -44.7689E+06    -25.2178E+06    -37.6419E+06    -15.7395E+06    -10.5151E-03     20.9211E-03    -10.4060E-03     16.7120E-03    -10.6480E-03     20.9147E-03    -10.4927E-03     16.5082E-03
            1247     5.34388E-03     106.239E-03    -40.1392E+06    -21.1523E+06    -33.8838E+06    -15.1748E+06    -10.5551E-03     20.9811E-03    -10.4260E-03     20.5420E-03    -10.6763E-03     20.9830E-03    -10.5065E-03     20.3453E-03
            1248     6.23438E-03     106.259E-03    -29.6251E+06    -14.2978E+06    -25.3459E+06    -11.5853E+06    -10.6007E-03     21.0511E-03    -10.4504E-03     24.7666E-03    -10.6918E-03     21.0597E-03    -10.5134E-03     24.6161E-03
            1249     7.12524E-03     106.284E-03    -15.6785E+06    -5.19953E+06    -9.76071E+06    -5.81703E+06    -10.7605E-03     21.2616E-03    -10.5012E-03     29.5946E-03    -10.8178E-03     21.2731E-03    -10.5197E-03     29.5184E-03
            1250     8.01573E-03     106.312E-03    -5.68869E+06     2.06315E+06     5.82341E+06    -1.54442E+06    -11.0866E-03     21.6604E-03    -10.5737E-03     35.1962E-03    -11.1273E-03     21.6713E-03    -10.5394E-03     35.1748E-03
            1251     8.90583E-03     106.346E-03    -2.53137E+06     2.53349E+06     12.9920E+06    -2.11365E+06    -11.5229E-03     22.1689E-03    -10.6460E-03     41.6543E-03    -11.5594E-03     22.1677E-03    -10.5811E-03     41.6251E-03
            1252     9.79572E-03     106.386E-03    -2.54963E+06    -482.929E+03     13.8524E+06    -6.10982E+06    -12.0424E-03     22.7610E-03    -10.7185E-03     49.0583E-03    -12.0768E-03     22.7444E-03    -10.6449E-03     48.9767E-03
            1253     10.6854E-03     106.433E-03    -1.99691E+06     455.874E+03     15.6462E+06    -8.84223E+06    -12.7769E-03     23.5905E-03    -10.8136E-03     57.7312E-03    -12.8145E-03     23.5773E-03    -10.7332E-03     57.6126E-03
            1254     11.5743E-03     106.488E-03    -1.15122E+06    -366.056E+03     17.8613E+06    -9.05182E+06    -14.0005E-03     24.9535E-03    -10.9530E-03     67.6309E-03    -14.0407E-03     24.9365E-03    -10.8615E-03     67.5056E-03
            1255     12.4623E-03     106.553E-03    -752.145E+03    -790.159E+03     19.5059E+06    -9.69431E+06    -16.0294E-03     27.1875E-03    -11.1581E-03     80.3965E-03    -16.0819E-03     27.1780E-03    -11.0583E-03     80.2542E-03
            1256     13.3487E-03     106.631E-03    -2.01294E+06    -8.81512E+06     15.2717E+06    -13.7579E+06    -19.0348E-03     30.4915E-03    -11.4567E-03     90.8969E-03    -19.0985E-03     30.4726E-03    -11.3647E-03     90.6870E-03
            1257     14.2319E-03     106.714E-03    -5.12533E+06    -17.4361E+06     5.90905E+06    -20.1463E+06    -23.3558E-03     35.2512E-03    -11.8954E-03     99.6983E-03    -23.4596E-03     35.2580E-03    -11.8331E-03     99.3768E-03
            1258     15.1110E-03     106.808E-03    -5.97418E+06    -27.1748E+06     2.59289E+06    -23.5841E+06    -28.9103E-03     41.4483E-03    -12.5380E-03     127.353E-03    -29.1972E-03     41.6102E-03    -12.4769E-03     126.933E-03
            1259     15.9875E-03     106.944E-03    -6.20751E+06    -54.6331E+06    -17.6356E+06    -20.0581E+06    -35.2453E-03     48.4868E-03    -13.2415E-03     178.672E-03    -36.4556E-03     49.5325E-03    -13.2414E-03     178.394E-03
            1260     16.8624E-03     107.137E-03    -4.80787E+06     40.4978E+06     22.2999E+06    -9.73341E+06    -41.0115E-03     55.1428E-03    -14.1313E-03     235.520E-03    -45.7179E-03     59.9116E-03    -14.0716E-03     237.670E-03
            1261     890.812E-06     107.157E-03    -30.2673E+06    -24.0406E+06    -29.5674E+06    -3.77208E+06    -10.3480E-03     20.6601E-03    -10.3121E-03     3.15281E-03    -10.4215E-03     20.6269E-03    -10.3812E-03     3.10393E-03
            1262     1.78148E-03     107.161E-03    -30.5607E+06    -23.0236E+06    -28.6927E+06    -6.51793E+06    -10.3990E-03     20.7466E-03    -10.3476E-03     6.02062E-03    -10.4769E-03     20.7175E-03    -10.4134E-03     5.93613E-03
            1263     2.67223E-03     107.168E-03    -30.3768E+06    -21.8268E+06    -26.8654E+06    -9.75204E+06    -10.4778E-03     20.8619E-03    -10.3841E-03     9.07735E-03    -10.5591E-03     20.8359E-03    -10.4428E-03     8.95094E-03
            1264     3.56274E-03     107.178E-03    -30.2467E+06    -20.8773E+06    -24.7524E+06    -12.7098E+06    -10.5762E-03     21.0036E-03    -10.4274E-03     12.1945E-03    -10.6614E-03     20.9792E-03    -10.4771E-03     12.0296E-03
            1265     4.45332E-03     107.191E-03    -30.2639E+06    -20.0262E+06    -22.5753E+06    -14.9737E+06    -10.6554E-03     21.1281E-03    -10.4727E-03     15.5080E-03    -10.7452E-03     21.1049E-03    -10.5127E-03     15.3138E-03
            1266     5.34372E-03     107.207E-03    -30.3740E+06    -18.0907E+06    -21.1307E+06    -17.2586E+06    -10.6995E-03     21.2073E-03    -10.5079E-03     19.0874E-03    -10.7949E-03     21.1920E-03    -10.5433E-03     18.8634E-03
            1267     6.23433E-03     107.227E-03    -29.8602E+06    -14.4990E+06    -20.9033E+06    -18.7242E+06    -10.7079E-03     21.2322E-03    -10.5243E-03     23.0393E-03    -10.8065E-03     21.2339E-03    -10.5645E-03     22.7962E-03
            1268     7.12474E-03     107.252E-03    -25.5211E+06    -9.88280E+06    -17.6868E+06    -16.8252E+06    -10.6857E-03     21.2215E-03    -10.5358E-03     27.5371E-03    -10.7741E-03     21.2355E-03    -10.5729E-03     27.3184E-03
            1269     8.01558E-03     107.281E-03    -15.0370E+06    -2.14756E+06    -8.61283E+06    -11.4099E+06    -10.7478E-03     21.3012E-03    -10.5534E-03     32.8027E-03    -10.8083E-03     21.3257E-03    -10.5716E-03     32.6539E-03
            1270     8.90635E-03     107.315E-03    -3.49731E+06     2.49204E+06     4.71863E+06    -6.28980E+06    -11.0496E-03     21.6499E-03    -10.6003E-03     39.1002E-03    -11.0788E-03     21.6618E-03    -10.5753E-03     39.0172E-03
            1271     9.79661E-03     107.355E-03     2.46510E+06     3.88171E+06     16.1312E+06    -5.50963E+06    -11.5959E-03     22.2690E-03    -10.6732E-03     46.6097E-03    -11.6144E-03     22.2633E-03    -10.6017E-03     46.5363E-03
            1272     10.6864E-03     107.402E-03     3.31903E+06     2.60612E+06     20.0383E+06    -7.42837E+06    -12.3789E-03     23.1322E-03    -10.7533E-03     55.6107E-03    -12.3984E-03     23.1146E-03    -10.6617E-03     55.5113E-03
            1273     11.5758E-03     107.459E-03     2.71037E+06    -972.700E+03     21.4949E+06    -7.09465E+06    -13.5558E-03     24.4267E-03    -10.8710E-03     66.0450E-03    -13.5788E-03     24.3936E-03    -10.7660E-03     65.9469E-03
            1274     12.4642E-03     107.525E-03     2.00321E+06     2.56395E+06     24.7786E+06    -7.51219E+06    -15.4659E-03     26.5189E-03    -11.0530E-03     79.6505E-03    -15.5124E-03     26.5097E-03    -10.9357E-03     79.5398E-03
            1275     13.3509E-03     107.606E-03     432.775E+03    -3.83331E+06     21.8387E+06    -9.16942E+06    -18.4188E-03     29.7431E-03    -11.3244E-03     91.5974E-03    -18.4792E-03     29.7283E-03    -11.2103E-03     91.4516E-03
            1276     14.2352E-03     107.693E-03    -2.92959E+06    -6.46456E+06     14.2561E+06    -14.2676E+06    -22.7739E-03     34.5037E-03    -11.7298E-03     102.549E-03    -22.8828E-03     34.5382E-03    -11.6449E-03     102.309E-03
            1277     15.1148E-03     107.794E-03    -5.84004E+06    -22.5196E+06     8.16605E+06    -21.7905E+06    -28.8339E-03     41.1855E-03    -12.3516E-03     130.285E-03    -29.1065E-03     41.3340E-03    -12.2696E-03     129.888E-03
            1278     15.9911E-03     107.931E-03    -7.44150E+06    -61.5232E+06    -14.9642E+06    -20.0771E+06    -36.6228E-03     49.7116E-03    -13.0888E-03     181.173E-03    -37.6956E-03     50.5834E-03    -13.0636E-03     180.803E-03
            1279     16.8627E-03     108.131E-03    -6.87784E+06     28.6347E+06     16.0185E+06    -12.8369E+06    -42.8930E-03     56.9032E-03    -14.0102E-03     238.226E-03    -47.3137E-03     61.3549E-03    -13.9617E-03     239.923E-03
            1280     890.473E-06     108.125E-03    -15.3487E+06    -17.6152E+06    -14.7264E+06    -2.83825E+06    -10.7213E-03     21.3714E-03    -10.6501E-03     2.81223E-03    -10.7510E-03     21.3272E-03    -10.6760E-03     2.77532E-03
            1281     1.78102E-03     108.129E-03    -15.2816E+06    -16.4810E+06    -14.2078E+06    -5.62305E+06    -10.7465E-03     21.4457E-03    -10.6992E-03     5.38812E-03    -10.7785E-03     21.4061E-03    -10.7242E-03     5.31503E-03
            1282     2.67138E-03     108.136E-03    -15.6469E+06    -15.2925E+06    -12.9439E+06    -8.37725E+06    -10.8510E-03     21.5866E-03    -10.7356E-03     8.11786E-03    -10.8884E-03     21.5517E-03    -10.7555E-03     8.00895E-03
            1283     3.56176E-03     108.147E-03    -16.3716E+06    -15.0803E+06    -11.2655E+06    -10.6687E+06    -10.9701E-03     21.7579E-03    -10.7877E-03     10.8971E-03    -11.0140E-03     21.7227E-03    -10.7985E-03     10.7583E-03
            1284     4.45188E-03     108.160E-03    -17.0105E+06    -14.6054E+06    -9.98070E+06    -12.9209E+06    -11.0841E-03     21.9262E-03    -10.8421E-03     13.8506E-03    -11.1339E-03     21.8927E-03    -10.8462E-03     13.6824E-03
            1285     5.34212E-03     108.176E-03    -17.2624E+06    -12.5882E+06    -7.78298E+06    -15.1171E+06    -11.1732E-03     22.0705E-03    -10.8973E-03     17.0294E-03    -11.2306E-03     22.0444E-03    -10.8929E-03     16.8325E-03
            1286     6.23206E-03     108.196E-03    -17.6404E+06    -10.4319E+06    -5.47311E+06    -17.0608E+06    -11.2148E-03     22.1613E-03    -10.9464E-03     20.5521E-03    -11.2808E-03     22.1434E-03    -10.9331E-03     20.3298E-03
            1287     7.12227E-03     108.220E-03    -18.5292E+06    -9.10854E+06    -5.09047E+06    -18.5674E+06    -11.1712E-03     22.1456E-03    -10.9743E-03     24.5962E-03    -11.2443E-03     22.1352E-03    -10.9597E-03     24.3543E-03
            1288     8.01241E-03     108.249E-03    -18.3406E+06     -4.8835E+06    -6.54646E+06    -18.6143E+06    -11.0381E-03     22.0046E-03    -10.9664E-03     29.3411E-03    -11.1145E-03     22.0174E-03    -10.9655E-03     29.0986E-03
            1289     8.90301E-03     108.283E-03    -13.8795E+06    -2.00376E+06    -2.38735E+06    -14.9406E+06    -10.9756E-03     21.9387E-03    -10.9631E-03     35.0623E-03    -11.0400E-03     21.9536E-03    -10.9520E-03     34.8673E-03
            1290     9.79382E-03     108.324E-03    -6.53237E+06     3.15478E+06     7.56051E+06    -9.77003E+06    -11.1825E-03     22.1605E-03    -10.9780E-03     42.1909E-03    -11.2324E-03     22.1764E-03    -10.9353E-03     42.0626E-03
            1291     10.6842E-03     108.372E-03    -1.78867E+06     3.72068E+06     15.8694E+06    -7.03142E+06    -11.8279E-03     22.8446E-03    -11.0167E-03     51.2857E-03    -11.8676E-03     22.8452E-03    -10.9402E-03     51.1922E-03
            1292     11.5737E-03     108.429E-03     831.262E+03    -1.22176E+06     22.2054E+06    -6.87574E+06    -13.0487E-03     24.1541E-03    -11.1053E-03     62.3178E-03    -13.0796E-03     24.1192E-03    -10.9937E-03     62.2244E-03
            1293     12.4624E-03     108.496E-03     2.43129E+06     2.71828E+06     27.3559E+06    -5.32128E+06    -14.8707E-03     26.1179E-03    -11.2473E-03     76.4884E-03    -14.9136E-03     26.0998E-03    -11.1180E-03     76.4097E-03
            1294     13.3500E-03     108.579E-03     1.33648E+06    -1.34659E+06     26.5386E+06    -4.65552E+06    -17.5749E-03     29.0477E-03    -11.4728E-03     89.9187E-03    -17.6316E-03     29.0275E-03    -11.3401E-03     89.8374E-03
            1295     14.2344E-03     108.671E-03    -1.06588E+06     3.58780E+06     21.6879E+06    -8.79351E+06    -21.5420E-03     33.3516E-03    -11.8097E-03     102.761E-03    -21.6485E-03     33.4045E-03    -11.7049E-03     102.602E-03
            1296     15.1163E-03     108.777E-03    -4.73056E+06    -13.5400E+06     14.1838E+06    -16.4096E+06    -27.8796E-03     40.2351E-03    -12.3555E-03     131.736E-03    -28.1261E-03     40.3759E-03    -12.2581E-03     131.416E-03
            1297     15.9921E-03     108.921E-03    -5.09408E+06    -63.2161E+06    -11.9429E+06    -21.8092E+06    -36.7615E-03     49.8143E-03    -13.0528E-03     184.098E-03    -37.6596E-03     50.5049E-03    -13.0135E-03     183.650E-03
            1298     16.8644E-03     109.125E-03    -459.687E+03     16.5439E+06     11.1550E+06    -14.9855E+06    -43.7452E-03     57.6843E-03    -13.9390E-03     241.499E-03    -47.7017E-03     61.6657E-03    -13.9065E-03     242.691E-03
            1299     889.909E-06     109.094E-03    -2.54334E+06    -12.1569E+06    -2.93347E+06    -2.75394E+06    -11.4482E-03     22.8424E-03    -11.3942E-03     2.38612E-03    -11.4389E-03     22.7898E-03    -11.3876E-03     2.35023E-03
            1300     1.77974E-03     109.098E-03    -3.00408E+06    -10.8787E+06    -2.39463E+06    -4.77775E+06    -11.5180E-03     22.9583E-03    -11.4403E-03     4.68221E-03    -11.5139E-03     22.9118E-03    -11.4321E-03     4.61985E-03
            1301     2.66955E-03     109.106E-03    -3.64280E+06    -10.0661E+06    -1.30065E+06    -6.76167E+06    -11.6384E-03     23.1290E-03    -11.4907E-03     6.96192E-03    -11.6402E-03     23.0859E-03    -11.4773E-03     6.87359E-03
            1302     3.55913E-03     109.116E-03    -4.03125E+06    -10.1803E+06     91.8383E+03    -8.71766E+06    -11.7706E-03     23.3235E-03    -11.5528E-03     9.28839E-03    -11.7764E-03     23.2785E-03    -11.5318E-03     9.17441E-03
            1303     4.44879E-03     109.130E-03    -4.52514E+06    -9.70574E+06     2.05005E+06    -10.5702E+06    -11.9252E-03     23.5487E-03    -11.6235E-03     11.7537E-03    -11.9371E-03     23.5041E-03    -11.5926E-03     11.6154E-03
            1304     5.33804E-03     109.146E-03    -5.63937E+06    -8.00516E+06     3.36214E+06    -12.3719E+06    -12.0470E-03     23.7398E-03    -11.6927E-03     14.4172E-03    -12.0691E-03     23.7036E-03    -11.6561E-03     14.2551E-03
            1305     6.22748E-03     109.166E-03    -7.15817E+06    -6.31568E+06     4.67404E+06    -13.7646E+06    -12.1244E-03     23.8827E-03    -11.7584E-03     17.4059E-03    -12.1587E-03     23.8555E-03    -11.7155E-03     17.2255E-03
            1306     7.11666E-03     109.190E-03    -8.38814E+06    -5.06798E+06     6.73710E+06    -15.2356E+06    -12.1509E-03     23.9696E-03    -11.8186E-03     20.8069E-03    -12.1965E-03     23.9477E-03    -11.7654E-03     20.6071E-03
            1307     8.00605E-03     109.219E-03    -10.2400E+06    -3.60429E+06     8.30968E+06    -15.8028E+06    -12.0759E-03     23.9375E-03    -11.8616E-03     24.8320E-03    -12.1354E-03     23.9236E-03    -11.7999E-03     24.6247E-03
            1308     8.89545E-03     109.252E-03    -13.1919E+06    -3.76689E+06     7.15417E+06    -15.5895E+06    -11.8778E-03     23.7491E-03    -11.8713E-03     29.7363E-03    -11.9504E-03     23.7406E-03    -11.8109E-03     29.5318E-03
            1309     9.78526E-03     109.293E-03    -14.1735E+06    -857.504E+03     6.50565E+06    -13.1669E+06    -11.6783E-03     23.5289E-03    -11.8507E-03     35.8783E-03    -11.7593E-03     23.5376E-03    -11.7963E-03     35.7052E-03
            1310     10.6757E-03     109.341E-03    -11.0397E+06     2.29764E+06     13.3842E+06    -9.60478E+06    -11.8119E-03     23.6627E-03    -11.8508E-03     44.0448E-03    -11.8921E-03     23.6729E-03    -11.7712E-03     43.9178E-03
            1311     11.5659E-03     109.399E-03    -6.87951E+06    -65.4515E+03     21.8587E+06    -8.48842E+06    -12.5973E-03     24.4846E-03    -11.8873E-03     54.8340E-03    -12.6664E-03     24.4656E-03    -11.7679E-03     54.7209E-03
            1312     12.4549E-03     109.468E-03    -3.32751E+06    -1.94461E+06     26.5741E+06    -5.91554E+06    -14.0295E-03     25.9867E-03    -11.9572E-03     69.2719E-03    -14.0883E-03     25.9497E-03    -11.8167E-03     69.1893E-03
            1313     13.3424E-03     109.552E-03    -429.730E+03    -216.327E+03     29.7986E+06    -2.64880E+06    -16.3218E-03     28.4180E-03    -12.0962E-03     84.3533E-03    -16.3828E-03     28.3904E-03    -11.9463E-03     84.3054E-03
            1314     14.2288E-03     109.648E-03    -1.42631E+06      9.1518E+06     29.6529E+06    -3.50919E+06    -19.9384E-03     32.2790E-03    -12.3406E-03     98.7976E-03    -20.0445E-03     32.3268E-03    -12.2035E-03     98.7199E-03
            1315     15.1111E-03     109.758E-03    -5.18788E+06    -188.338E+03     26.1695E+06    -9.45442E+06    -26.1563E-03     38.9396E-03    -12.7834E-03     129.133E-03    -26.3856E-03     39.0743E-03    -12.6447E-03     128.920E-03
            1316     15.9902E-03     109.909E-03    -9.94527E+06    -52.8863E+06    -2.92122E+06    -21.5276E+06    -35.3043E-03     48.6836E-03    -13.3793E-03     181.240E-03    -36.0327E-03     49.1977E-03    -13.3028E-03     180.782E-03
            1317     16.8646E-03     110.117E-03    -12.3880E+06    -1.14597E+06    -3.13262E+06    -23.3659E+06    -40.6175E-03     54.6863E-03    -14.0688E-03     237.853E-03    -43.7779E-03     57.8080E-03    -14.0648E-03     238.504E-03
            1318     888.911E-06     110.065E-03     6.62097E+06    -7.21095E+06     7.28589E+06    -2.16691E+06    -12.5992E-03     25.2434E-03    -12.6442E-03     1.92756E-03    -12.5661E-03     25.1874E-03    -12.6070E-03     1.89919E-03
            1319     1.77775E-03     110.070E-03     6.03478E+06    -6.59413E+06     6.77766E+06    -3.77311E+06    -12.7904E-03     25.4466E-03    -12.6562E-03     3.79440E-03    -12.7606E-03     25.3950E-03    -12.6215E-03     3.74481E-03
            1320     2.66633E-03     110.077E-03     5.38592E+06    -5.97065E+06     7.24746E+06    -5.28684E+06    -12.9221E-03     25.6502E-03    -12.7282E-03     5.54209E-03    -12.8972E-03     25.6021E-03    -12.6911E-03     5.47251E-03
            1321     3.55496E-03     110.088E-03     4.60749E+06    -6.04756E+06     8.72376E+06    -6.88827E+06    -13.0898E-03     25.8999E-03    -12.8102E-03     7.37391E-03    -13.0709E-03     25.8505E-03    -12.7645E-03     7.28318E-03
            1322     4.44317E-03     110.101E-03     3.76322E+06    -6.09925E+06     9.85817E+06    -8.20183E+06    -13.2603E-03     26.1570E-03    -12.8967E-03     9.28146E-03    -13.2474E-03     26.1070E-03    -12.8440E-03     9.17326E-03
            1323     5.33151E-03     110.118E-03     2.61242E+06    -4.50405E+06     10.9940E+06    -9.11030E+06    -13.4281E-03     26.4128E-03    -12.9847E-03     11.3452E-03    -13.4251E-03     26.3710E-03    -12.9270E-03     11.2248E-03
            1324     6.21947E-03     110.138E-03     1.42403E+06    -2.99177E+06     13.1767E+06    -10.3057E+06    -13.5953E-03     26.6755E-03    -13.0802E-03     13.6539E-03    -13.6038E-03     26.6401E-03    -13.0121E-03     13.5174E-03
            1325     7.10749E-03     110.162E-03    -384.218E+03    -2.05805E+06     15.5323E+06    -11.0377E+06    -13.7398E-03     26.9183E-03    -13.1785E-03     16.2730E-03    -13.7625E-03     26.8870E-03    -13.0973E-03     16.1265E-03
            1326     7.99526E-03     110.191E-03    -2.54194E+06    -2.44682E+06     17.1913E+06    -10.7952E+06    -13.8384E-03     27.1104E-03    -13.2720E-03     19.3326E-03    -13.8741E-03     27.0781E-03    -13.1788E-03     19.1887E-03
            1327     8.88313E-03     110.224E-03    -3.91219E+06    -1.85905E+06     18.9059E+06    -10.6412E+06    -13.8496E-03     27.2031E-03    -13.3535E-03     23.0685E-03    -13.8958E-03     27.1737E-03    -13.2507E-03     22.9261E-03
            1328     9.77108E-03     110.264E-03    -4.63485E+06    -2.13496E+06     20.4783E+06    -10.9683E+06    -13.7757E-03     27.1948E-03    -13.4191E-03     27.7985E-03    -13.8280E-03     27.1631E-03    -13.3069E-03     27.6516E-03
            1329     10.6591E-03     110.312E-03    -5.05993E+06     13.8167E+03     23.5565E+06    -9.59125E+06    -13.6092E-03     27.0768E-03    -13.4676E-03     34.1568E-03    -13.6716E-03     27.0524E-03    -13.3425E-03     34.0277E-03
            1330     11.5476E-03     110.369E-03    -5.02695E+06     379.858E+03     27.4365E+06    -7.86053E+06    -13.5340E-03     27.0363E-03    -13.5024E-03     42.9635E-03    -13.6026E-03     27.0084E-03    -13.3585E-03     42.8571E-03
            1331     12.4367E-03     110.439E-03    -3.66685E+06    -5.18338E+06     28.8619E+06    -6.70675E+06    -13.7636E-03     27.2848E-03    -13.5212E-03     55.4924E-03    -13.8202E-03     27.2259E-03    -13.3641E-03     55.4010E-03
            1332     13.3259E-03     110.523E-03     868.200E+03    -2.40120E+06     33.1021E+06    -4.74302E+06    -14.8465E-03     28.4008E-03    -13.5543E-03     70.8460E-03    -14.8938E-03     28.3467E-03    -13.3866E-03     70.7776E-03
            1333     14.2122E-03     110.623E-03     6.22984E+06     7.96980E+06     40.4467E+06    -426.619E+03    -17.8042E-03     31.4808E-03    -13.6766E-03     87.0121E-03    -17.8648E-03     31.4747E-03    -13.4949E-03     86.9878E-03
            1334     15.0966E-03     110.736E-03     3.80530E+06     9.15371E+06     40.8768E+06     529.252E+03    -24.2998E-03     38.2807E-03    -13.9809E-03     118.444E-03    -24.4567E-03     38.3654E-03    -13.7953E-03     118.383E-03
            1335     15.9751E-03     110.894E-03    -3.95804E+06    -25.8899E+06     20.1797E+06    -12.3933E+06    -32.6009E-03     47.0679E-03    -14.4671E-03     169.608E-03    -33.1034E-03     47.4065E-03    -14.3229E-03     169.289E-03
            1336     16.8480E-03     111.105E-03    -2.30488E+06    -9.31159E+06     3.47800E+06    -24.4680E+06    -29.2566E-03     44.0167E-03    -14.7601E-03     222.311E-03    -31.1013E-03     45.8119E-03    -14.7259E-03     222.606E-03
            1337     887.445E-06     111.039E-03     12.0969E+06    -3.58553E+06     12.5299E+06    -1.05161E+06    -14.4820E-03     28.8435E-03    -14.3615E-03     1.59974E-03    -14.4344E-03     28.7901E-03    -14.3112E-03     1.58571E-03
            1338     1.77451E-03     111.044E-03     11.6584E+06    -3.29042E+06     12.9687E+06    -2.65506E+06    -14.6540E-03     29.1293E-03    -14.4753E-03     2.64565E-03    -14.6100E-03     29.0770E-03    -14.4226E-03     2.61037E-03
            1339     2.66168E-03     111.051E-03     11.0107E+06    -2.94852E+06     13.3880E+06    -3.71512E+06    -14.8153E-03     29.3878E-03    -14.5724E-03     3.75140E-03    -14.7757E-03     29.3375E-03    -14.5172E-03     3.70196E-03
            1340     3.54843E-03     111.062E-03     10.2004E+06    -2.85271E+06     13.8522E+06    -4.84463E+06    -14.9945E-03     29.6635E-03    -14.6691E-03     4.94596E-03    -14.9598E-03     29.6143E-03    -14.6104E-03     4.88142E-03
            1341     4.43524E-03     111.076E-03     9.19149E+06    -3.54383E+06     15.3301E+06    -5.76058E+06    -15.2058E-03     29.9836E-03    -14.7778E-03     6.19831E-03    -15.1774E-03     29.9304E-03    -14.7093E-03     6.12137E-03
            1342     5.32162E-03     111.093E-03     8.62320E+06    -2.08100E+06     17.9931E+06    -6.57125E+06    -15.4753E-03     30.3754E-03    -14.9001E-03     7.58266E-03    -15.4559E-03     30.3266E-03    -14.8196E-03     7.49461E-03
            1343     6.20787E-03     111.114E-03     7.92470E+06    -659.737E+03     20.8309E+06    -7.01012E+06    -15.8054E-03     30.8451E-03    -15.0397E-03     9.07674E-03    -15.7959E-03     30.8005E-03    -14.9461E-03     8.98231E-03
            1344     7.09369E-03     111.138E-03     6.79701E+06    -1.06138E+06     23.4109E+06    -6.68562E+06    -16.1881E-03     31.3878E-03    -15.1996E-03     10.7277E-03    -16.1877E-03     31.3391E-03    -15.0909E-03     10.6366E-03
            1345     7.97924E-03     111.167E-03     5.94557E+06    -984.697E+03     26.4572E+06    -6.76824E+06    -16.6072E-03     31.9863E-03    -15.3791E-03     12.5896E-03    -16.6158E-03     31.9351E-03    -15.2540E-03     12.4965E-03
            1346     8.86435E-03     111.200E-03     5.27314E+06    -980.613E+03     29.4151E+06    -6.84930E+06    -17.0382E-03     32.6131E-03    -15.5749E-03     14.8479E-03    -17.0549E-03     32.5588E-03    -15.4340E-03     14.7527E-03
            1347     9.74897E-03     111.240E-03     4.13249E+06    -513.896E+03     31.8608E+06    -6.76974E+06    -17.4135E-03     33.1938E-03    -15.7803E-03     17.8152E-03    -17.4408E-03     33.1404E-03    -15.6262E-03     17.7200E-03
            1348     10.6334E-03     111.287E-03     3.34084E+06    -1.42271E+06     33.6141E+06    -6.47873E+06    -17.5978E-03     33.5824E-03    -15.9846E-03     21.8713E-03    -17.6309E-03     33.5235E-03    -15.8194E-03     21.7790E-03
            1349     11.5178E-03     111.343E-03     3.65333E+06     63.2671E+03     35.4224E+06    -5.47793E+06    -17.4007E-03     33.5655E-03    -16.1648E-03     27.4418E-03    -17.4378E-03     33.5112E-03    -15.9931E-03     27.3621E-03
            1350     12.4027E-03     111.411E-03     4.62093E+06    -4.66000E+06     35.5460E+06    -5.72253E+06    -16.6634E-03     32.9600E-03    -16.2966E-03     35.3266E-03    -16.6894E-03     32.8807E-03    -16.1189E-03     35.2444E-03
            1351     13.2889E-03     111.494E-03     6.12570E+06    -4.55657E+06     38.6883E+06    -6.32432E+06    -15.5182E-03     31.8799E-03    -16.3617E-03     46.6198E-03    -15.5416E-03     31.7948E-03    -16.1706E-03     46.5312E-03
            1352     14.1775E-03     111.595E-03     10.9832E+06     1.97466E+06     45.1557E+06    -3.65438E+06    -15.9384E-03     32.3299E-03    -16.3916E-03     62.1790E-03    -15.9601E-03     32.2660E-03    -16.1846E-03     62.1221E-03
            1353     15.0622E-03     111.713E-03     19.5911E+06     6.82602E+06     50.5567E+06     3.19760E+06    -21.3042E-03     37.8321E-03    -16.5279E-03     95.4507E-03    -21.3363E-03     37.8119E-03    -16.3134E-03     95.4529E-03
            1354     15.9403E-03     111.876E-03     25.9786E+06     1.14614E+06     52.5847E+06    -2.64532E+06    -26.1561E-03     42.9680E-03    -16.8119E-03     143.767E-03    -26.3283E-03     43.0851E-03    -16.5883E-03     143.636E-03
            1355     16.8231E-03     112.083E-03     18.2180E+06    -4.25947E+06     28.3681E+06    -11.4121E+06    -10.5087E-03     27.0338E-03    -16.5251E-03     177.821E-03    -11.0947E-03     27.5923E-03    -16.4035E-03     177.908E-03
            1356     885.118E-06     112.017E-03     18.2541E+06    -882.554E+03     17.7754E+06    -1.03364E+06    -17.0828E-03     34.1599E-03    -17.0771E-03     696.452E-06    -17.0161E-03     34.1034E-03    -17.0134E-03     682.894E-06
            1357     1.77020E-03     112.022E-03     17.4932E+06    -1.49092E+06     18.7648E+06    -1.48777E+06    -17.2588E-03     34.3872E-03    -17.1284E-03     928.044E-06    -17.1968E-03     34.3268E-03    -17.0577E-03     908.087E-06
            1358     2.65476E-03     112.030E-03     16.9392E+06    -878.140E+03     19.2120E+06    -2.02130E+06    -17.4205E-03     34.6343E-03    -17.2138E-03     1.34144E-03    -17.3628E-03     34.5771E-03    -17.1410E-03     1.31418E-03
            1359     3.53944E-03     112.041E-03     15.9642E+06    -886.746E+03     20.1584E+06    -2.55283E+06    -17.6549E-03     34.9729E-03    -17.3179E-03     1.77870E-03    -17.6035E-03     34.9157E-03    -17.2390E-03     1.74414E-03
            1360     4.42368E-03     112.055E-03     14.9327E+06    -1.69683E+06     22.7937E+06    -3.16721E+06    -17.9759E-03     35.4322E-03    -17.4563E-03     2.21255E-03    -17.9324E-03     35.3687E-03    -17.3615E-03     2.16958E-03
            1361     5.30771E-03     112.073E-03     13.8829E+06    -237.570E+03     24.8178E+06    -3.82765E+06    -18.4071E-03     36.0262E-03    -17.6192E-03     2.71297E-03    -18.3739E-03     35.9686E-03    -17.5149E-03     2.66092E-03
            1362     6.19120E-03     112.093E-03     12.6569E+06    -274.178E+03     27.3022E+06    -3.50296E+06    -19.0021E-03     36.8284E-03    -17.8263E-03     3.21671E-03    -18.9788E-03     36.7688E-03    -17.7077E-03     3.16818E-03
            1363     7.07406E-03     112.119E-03     11.8968E+06    -221.037E+03     31.0156E+06    -3.32167E+06    -19.7616E-03     37.8480E-03    -18.0864E-03     3.70507E-03    -19.7477E-03     37.7843E-03    -17.9483E-03     3.65806E-03
            1364     7.95610E-03     112.148E-03     11.3870E+06    -225.132E+03     34.6257E+06    -3.22085E+06    -20.6716E-03     39.0698E-03    -18.3982E-03     4.20543E-03    -20.6657E-03     39.0016E-03    -18.2412E-03     4.15868E-03
            1365     8.83714E-03     112.182E-03     10.7958E+06    -149.508E+03     37.6310E+06    -3.18503E+06    -21.6938E-03     40.4544E-03    -18.7606E-03     4.80674E-03    -21.6956E-03     40.3831E-03    -18.5879E-03     4.75918E-03
            1366     9.71724E-03     112.222E-03     10.4971E+06    -341.234E+03     40.0103E+06    -2.82001E+06    -22.7711E-03     41.9425E-03    -19.1714E-03     5.67191E-03    -22.7781E-03     41.8672E-03    -18.9860E-03     5.62756E-03
            1367     10.5962E-03     112.270E-03     10.2658E+06    -171.582E+03     41.6061E+06    -3.04917E+06    -23.7994E-03     43.4222E-03    -19.6228E-03     6.90010E-03    -23.8107E-03     43.3458E-03    -19.4294E-03     6.85121E-03
            1368     11.4739E-03     112.326E-03     9.94401E+06    -1.40933E+06     41.3982E+06    -2.77470E+06    -24.3697E-03     44.4608E-03    -20.0911E-03     8.61433E-03    -24.3813E-03     44.3789E-03    -19.8965E-03     8.56762E-03
            1369     12.3512E-03     112.393E-03     9.81223E+06    -1.25851E+06     43.1592E+06    -3.51657E+06    -23.7763E-03     44.3138E-03    -20.5376E-03     11.3281E-03    -23.7921E-03     44.2302E-03    -20.3342E-03     11.2714E-03
            1370     13.2291E-03     112.472E-03     9.17884E+06    -5.15863E+06     46.0904E+06    -4.71158E+06    -21.7132E-03     42.6083E-03    -20.8951E-03     15.9174E-03    -21.7315E-03     42.5014E-03    -20.6705E-03     15.8461E-03
            1371     14.1096E-03     112.568E-03     7.86270E+06     176.160E+03     43.7339E+06    -6.20352E+06    -20.3263E-03     41.4434E-03    -21.1171E-03     24.6874E-03    -20.3571E-03     41.3679E-03    -20.9100E-03     24.5973E-03
            1372     14.9941E-03     112.686E-03     9.74601E+06    -3.60635E+06     47.1033E+06    -3.95608E+06    -22.2387E-03     43.6575E-03    -21.4188E-03     47.1747E-03    -22.2701E-03     43.5635E-03    -21.1922E-03     47.1047E-03
            1373     15.8757E-03     112.854E-03     14.2968E+06     5.16486E+06     59.9233E+06    -1.78477E+06    -16.1981E-03     37.8285E-03    -21.6304E-03     75.0775E-03    -16.2756E-03     37.7974E-03    -21.3590E-03     75.0211E-03
            1374     16.7627E-03     113.043E-03     4.35187E+06     9.06864E+06     35.7899E+06    -1.41606E+06     3.91442E-03     17.0779E-03    -20.9923E-03     79.2375E-03     3.79161E-03     17.1367E-03    -20.8328E-03     79.2281E-03
            1375     16.8370E-03     56.2030E-03    -3.00928E+06     148.172E+06     34.1614E+06     44.0384E+03    -24.9743E-03     40.4021E-03    -15.4278E-03     234.850E-03    -30.6556E-03     46.4997E-03    -15.4675E-03     239.108E-03
            1376     15.9514E-03     56.0092E-03    -3.56704E+06     78.3247E+06    -15.4958E+06     269.547E+03    -21.1533E-03     36.4358E-03    -15.2825E-03     164.312E-03    -22.9503E-03     38.5431E-03    -15.4683E-03     164.844E-03
            1377     15.0651E-03     55.8950E-03    -2.87867E+06     14.3885E+06    -12.2281E+06     119.170E+03    -17.6535E-03     33.0478E-03    -15.3943E-03     95.6859E-03    -17.9297E-03     33.4004E-03    -15.4722E-03     95.6648E-03
            1378     14.1789E-03     55.8311E-03    -2.58931E+06    -23.0118E+06    -11.4777E+06    -92.4821E+03    -16.5438E-03     31.9968E-03    -15.4531E-03     63.9905E-03    -16.5848E-03     31.9802E-03    -15.4733E-03     63.9478E-03
            1379     13.2928E-03     55.7763E-03    -2.27594E+06    -40.5891E+06    -9.85555E+06    -146.562E+03    -16.4853E-03     31.9677E-03    -15.4823E-03     60.0886E-03    -16.4705E-03     31.8292E-03    -15.4694E-03     60.0502E-03
            1380     12.4067E-03     55.7194E-03    -2.21214E+06    -42.8466E+06     581.314E+03    -86.6067E+03    -16.3451E-03     31.8793E-03    -15.5342E-03     56.4499E-03    -16.3241E-03     31.6967E-03    -15.4660E-03     56.4202E-03
            1381     11.5204E-03     55.6714E-03    -2.51346E+06    -41.6845E+06     2.88615E+06     31.8559E+03    -16.1381E-03     31.6810E-03    -15.5429E-03     49.5709E-03    -16.1116E-03     31.4892E-03    -15.4644E-03     49.5497E-03
            1382     10.6343E-03     55.6273E-03    -2.84578E+06    -45.8862E+06     1.22032E+06     98.6760E+03    -16.0493E-03     31.5893E-03    -15.5400E-03     45.2852E-03    -16.0096E-03     31.3731E-03    -15.4633E-03     45.2702E-03
            1383     9.74809E-03     55.5873E-03    -3.35289E+06    -51.4690E+06     3.89447E+06     149.568E+03    -15.9518E-03     31.5129E-03    -15.5610E-03     40.9319E-03    -15.9065E-03     31.2617E-03    -15.4621E-03     40.9217E-03
            1384     8.86194E-03     55.5512E-03    -4.03210E+06    -50.2123E+06     3.38623E+06     208.575E+03    -15.8525E-03     31.4096E-03    -15.5571E-03     36.6318E-03    -15.8092E-03     31.1639E-03    -15.4615E-03     36.6254E-03
            1385     7.97571E-03     55.5192E-03    -4.79736E+06    -52.5959E+06     2.27407E+06     260.311E+03    -15.7795E-03     31.3355E-03    -15.5560E-03     32.3489E-03    -15.7334E-03     31.0791E-03    -15.4614E-03     32.3454E-03
            1386     7.08955E-03     55.4911E-03    -5.61601E+06    -55.0660E+06     1.41805E+06     264.407E+03    -15.7177E-03     31.2740E-03    -15.5563E-03     28.1313E-03    -15.6699E-03     31.0067E-03    -15.4612E-03     28.1294E-03
            1387     6.20334E-03     55.4670E-03    -6.54104E+06    -57.2296E+06     368.064E+03     300.976E+03    -15.6646E-03     31.2195E-03    -15.5549E-03     24.0879E-03    -15.6161E-03     30.9436E-03    -15.4606E-03     24.0876E-03
            1388     5.31717E-03     55.4464E-03    -7.56690E+06    -58.8057E+06    -705.859E+03     347.923E+03    -15.6151E-03     31.1680E-03    -15.5529E-03     20.2313E-03    -15.5675E-03     30.8868E-03    -15.4602E-03     20.2325E-03
            1389     4.43094E-03     55.4294E-03    -8.66792E+06    -55.5542E+06    -2.84215E+06     368.015E+03    -15.5649E-03     31.1048E-03    -15.5399E-03     16.5846E-03    -15.5241E-03     30.8443E-03    -15.4610E-03     16.5868E-03
            1390     3.54477E-03     55.4156E-03    -9.83648E+06    -57.9371E+06    -4.85148E+06     353.592E+03    -15.5443E-03     31.0808E-03    -15.5364E-03     13.0700E-03    -15.5028E-03     30.8127E-03    -15.4624E-03     13.0726E-03
            1391     2.65855E-03     55.4051E-03    -10.9839E+06    -59.0323E+06    -7.41036E+06     293.375E+03    -15.5304E-03     31.0576E-03    -15.5272E-03     9.69276E-03    -15.4891E-03     30.7893E-03    -15.4627E-03     9.69513E-03
            1392     1.77238E-03     55.3976E-03    -11.9578E+06    -57.9233E+06    -10.3277E+06     190.276E+03    -15.5156E-03     31.0269E-03    -15.5113E-03     6.46425E-03    -15.4764E-03     30.7697E-03    -15.4616E-03     6.46579E-03
            1393     886.197E-06     55.3931E-03    -12.6118E+06    -59.2473E+06    -12.1461E+06     72.5280E+03    -15.4986E-03     31.0091E-03    -15.5105E-03     3.31488E-03    -15.4580E-03     30.7490E-03    -15.4670E-03     3.31537E-03
            1394     16.8376E-03     55.2239E-03    -3.34761E+06     147.858E+06     34.0411E+06    -110.923E+03    -24.9507E-03     40.3814E-03    -15.4307E-03     234.518E-03    -30.6324E-03     46.4774E-03    -15.4701E-03     238.767E-03
            1395     15.9515E-03     55.0312E-03    -3.91695E+06     78.1706E+06    -15.5634E+06    -44.4489E+03    -21.1721E-03     36.4553E-03    -15.2833E-03     163.733E-03    -22.9632E-03     38.5551E-03    -15.4687E-03     164.259E-03
            1396     15.0651E-03     54.9172E-03    -3.03901E+06     14.6670E+06    -12.2715E+06     212.051E+03    -17.6679E-03     33.0597E-03    -15.3918E-03     95.7724E-03    -17.9455E-03     33.4142E-03    -15.4700E-03     95.7525E-03
            1397     14.1788E-03     54.8529E-03    -2.54555E+06    -22.8408E+06    -11.5284E+06     113.558E+03    -16.5232E-03     31.9737E-03    -15.4505E-03     63.9766E-03    -16.5640E-03     31.9579E-03    -15.4714E-03     63.9367E-03
            1398     13.2928E-03     54.7982E-03    -2.19574E+06    -40.5347E+06    -9.91686E+06    -2.42367E+03    -16.4884E-03     31.9686E-03    -15.4803E-03     60.0350E-03    -16.4731E-03     31.8304E-03    -15.4679E-03     59.9983E-03
            1399     12.4066E-03     54.7414E-03    -2.16487E+06    -42.9362E+06     480.584E+03    -4.22336E+03    -16.3377E-03     31.8700E-03    -15.5323E-03     56.4447E-03    -16.3163E-03     31.6871E-03    -15.4645E-03     56.4161E-03
            1400     11.5205E-03     54.6934E-03    -2.54874E+06    -41.7754E+06     2.72879E+06     13.0768E+03    -16.1294E-03     31.6707E-03    -15.5414E-03     49.5795E-03    -16.1026E-03     31.4787E-03    -15.4634E-03     49.5581E-03
            1401     10.6343E-03     54.6493E-03    -2.95488E+06    -45.9623E+06     1.06711E+06     92.6298E+03    -16.0451E-03     31.5841E-03    -15.5390E-03     45.2876E-03    -16.0056E-03     31.3679E-03    -15.4627E-03     45.2726E-03
            1402     9.74813E-03     54.6093E-03    -3.44382E+06    -51.4895E+06     3.77341E+06     145.103E+03    -15.9531E-03     31.5132E-03    -15.5601E-03     40.9315E-03    -15.9080E-03     31.2622E-03    -15.4616E-03     40.9212E-03
            1403     8.86190E-03     54.5733E-03    -4.14001E+06    -50.2646E+06     3.24238E+06     178.206E+03    -15.8544E-03     31.4103E-03    -15.5559E-03     36.6329E-03    -15.8114E-03     31.1648E-03    -15.4608E-03     36.6262E-03
            1404     7.97575E-03     54.5412E-03    -4.83755E+06    -52.6071E+06     2.23934E+06     224.938E+03    -15.7776E-03     31.3327E-03    -15.5552E-03     32.3458E-03    -15.7316E-03     31.0764E-03    -15.4607E-03     32.3418E-03
            1405     7.08952E-03     54.5132E-03    -5.64829E+06    -55.0370E+06     1.39625E+06     254.727E+03    -15.7134E-03     31.2690E-03    -15.5556E-03     28.1292E-03    -15.6658E-03     31.0019E-03    -15.4607E-03     28.1272E-03
            1406     6.20335E-03     54.4890E-03    -6.55311E+06    -57.2391E+06     346.458E+03     262.886E+03    -15.6623E-03     31.2170E-03    -15.5547E-03     24.0746E-03    -15.6139E-03     30.9411E-03    -15.4605E-03     24.0738E-03
            1407     5.31714E-03     54.4685E-03    -7.57901E+06    -58.7833E+06    -700.387E+03     294.898E+03    -15.6194E-03     31.1719E-03    -15.5525E-03     20.2133E-03    -15.5718E-03     30.8908E-03    -15.4598E-03     20.2138E-03
            1408     4.43098E-03     54.4514E-03     -8.6893E+06    -55.4873E+06    -2.86926E+06     309.706E+03    -15.5671E-03     31.1056E-03    -15.5385E-03     16.5632E-03    -15.5264E-03     30.8454E-03    -15.4598E-03     16.5647E-03
            1409     3.54476E-03     54.4377E-03    -9.82102E+06    -57.8033E+06    -4.83737E+06     292.512E+03    -15.5408E-03     31.0758E-03    -15.5349E-03     13.0620E-03    -15.4994E-03     30.8083E-03    -15.4611E-03     13.0639E-03
            1410     2.65859E-03     54.4272E-03    -11.0174E+06    -58.8529E+06    -7.42401E+06     231.908E+03    -15.5289E-03     31.0547E-03    -15.5258E-03     9.69659E-03    -15.4880E-03     30.7874E-03    -15.4616E-03     9.69817E-03
            1411     1.77239E-03     54.4197E-03    -11.9497E+06    -57.7134E+06    -10.3265E+06     161.981E+03    -15.5078E-03     31.0199E-03    -15.5121E-03     6.45860E-03    -15.4689E-03     30.7637E-03    -15.4627E-03     6.45977E-03
            1412     886.183E-06     54.4152E-03    -12.6473E+06    -59.0718E+06    -12.1213E+06     96.0467E+03    -15.5213E-03     31.0150E-03    -15.4937E-03     3.35839E-03    -15.4812E-03     30.7558E-03    -15.4503E-03     3.35918E-03
            1413     16.8375E-03     54.2454E-03    -3.13690E+06     147.927E+06     34.0696E+06     101.469E+03    -24.8720E-03     40.3023E-03    -15.4302E-03     234.619E-03    -30.5521E-03     46.3975E-03    -15.4698E-03     238.869E-03
            1414     15.9512E-03     54.0530E-03    -4.03471E+06     78.1298E+06    -15.6842E+06    -63.0536E+03    -21.1687E-03     36.4537E-03    -15.2851E-03     163.597E-03    -22.9561E-03     38.5497E-03    -15.4709E-03     164.123E-03
            1415     15.0652E-03     53.9392E-03    -3.55319E+06     14.6641E+06    -12.5306E+06    -37.6281E+03    -17.7783E-03     33.1681E-03    -15.3899E-03     95.6612E-03    -18.0586E-03     33.5242E-03    -15.4686E-03     95.6372E-03
            1416     14.1790E-03     53.8749E-03    -2.76860E+06    -22.7036E+06    -11.5480E+06     121.918E+03    -16.4880E-03     31.9346E-03    -15.4465E-03     63.9819E-03    -16.5300E-03     31.9196E-03    -15.4673E-03     63.9423E-03
            1417     13.2928E-03     53.8202E-03    -2.22000E+06    -40.5198E+06    -9.89311E+06     138.819E+03    -16.4443E-03     31.9230E-03    -15.4787E-03     60.0200E-03    -16.4291E-03     31.7848E-03    -15.4662E-03     59.9854E-03
            1418     12.4067E-03     53.7634E-03    -2.18945E+06    -42.9061E+06     496.495E+03     98.5796E+03    -16.3372E-03     31.8692E-03    -15.5320E-03     56.4320E-03    -16.3159E-03     31.6864E-03    -15.4642E-03     56.4046E-03
            1419     11.5204E-03     53.7154E-03    -2.58975E+06    -41.8202E+06     2.71993E+06     98.4059E+03    -16.1278E-03     31.6689E-03    -15.5411E-03     49.5708E-03    -16.1012E-03     31.4768E-03    -15.4632E-03     49.5505E-03
            1420     10.6343E-03     53.6713E-03    -3.01183E+06    -45.9966E+06     1.04933E+06     101.852E+03    -16.0402E-03     31.5792E-03    -15.5390E-03     45.2802E-03    -16.0009E-03     31.3629E-03    -15.4627E-03     45.2653E-03
            1421     9.74808E-03     53.6313E-03    -3.52148E+06    -51.5297E+06     3.73735E+06     126.671E+03    -15.9525E-03     31.5127E-03    -15.5602E-03     40.9219E-03    -15.9077E-03     31.2617E-03    -15.4617E-03     40.9114E-03
            1422     8.86195E-03     53.5953E-03    -4.17871E+06    -50.2468E+06     3.21051E+06     142.877E+03    -15.8559E-03     31.4117E-03    -15.5559E-03     36.6232E-03    -15.8130E-03     31.1663E-03    -15.4609E-03     36.6160E-03
            1423     7.97571E-03     53.5633E-03    -4.91936E+06    -52.6571E+06     2.13869E+06     159.297E+03    -15.7822E-03     31.3367E-03    -15.5545E-03     32.3368E-03    -15.7364E-03     31.0804E-03    -15.4603E-03     32.3320E-03
            1424     7.08957E-03     53.5353E-03    -5.67474E+06    -55.0357E+06     1.39110E+06     207.331E+03    -15.7161E-03     31.2709E-03    -15.5548E-03     28.1132E-03    -15.6686E-03     31.0039E-03    -15.4598E-03     28.1106E-03
            1425     6.20333E-03     53.5111E-03    -6.56245E+06    -57.2150E+06     341.990E+03     228.629E+03    -15.6629E-03     31.2163E-03    -15.5534E-03     24.0572E-03    -15.6145E-03     30.9405E-03    -15.4592E-03     24.0560E-03
            1426     5.31719E-03     53.4906E-03    -7.59068E+06    -58.7716E+06    -710.550E+03     240.542E+03    -15.6196E-03     31.1705E-03    -15.5509E-03     20.2031E-03    -15.5722E-03     30.8895E-03    -15.4582E-03     20.2030E-03
            1427     4.43097E-03     53.4736E-03    -8.69127E+06      -55.41E+06    -2.86270E+06     253.460E+03    -15.5648E-03     31.1015E-03    -15.5367E-03     16.5517E-03    -15.5243E-03     30.8417E-03    -15.4581E-03     16.5525E-03
            1428     3.54478E-03     53.4598E-03    -9.85960E+06    -57.7054E+06    -4.89872E+06     234.287E+03    -15.5369E-03     31.0700E-03    -15.5332E-03     13.0624E-03    -15.4957E-03     30.8032E-03    -15.4597E-03     13.0635E-03
            1429     2.65856E-03     53.4493E-03    -11.0122E+06    -58.7091E+06    -7.44942E+06     187.950E+03    -15.5202E-03     31.0461E-03    -15.5259E-03     9.69942E-03    -15.4794E-03     30.7794E-03    -15.4620E-03     9.70044E-03
            1430     1.77237E-03     53.4418E-03    -11.9953E+06    -57.5894E+06    -10.3514E+06     136.149E+03    -15.5023E-03     31.0184E-03    -15.5161E-03     6.44574E-03    -15.4638E-03     30.7629E-03    -15.4669E-03     6.44659E-03
            1431     886.170E-06     53.4373E-03    -12.5226E+06    -58.8464E+06    -12.1802E+06     94.5960E+03    -15.5171E-03     31.0278E-03    -15.5107E-03     3.39976E-03    -15.4766E-03     30.7696E-03    -15.4681E-03     3.40053E-03
            1432     16.8374E-03     53.2675E-03    -3.02442E+06     147.922E+06     34.2162E+06     200.491E+03    -24.8138E-03     40.2507E-03    -15.4369E-03     234.647E-03    -30.4927E-03     46.3448E-03    -15.4759E-03     238.909E-03
            1433     15.9512E-03     53.0745E-03    -3.79531E+06     78.3413E+06    -15.2745E+06     156.057E+03    -21.2595E-03     36.5514E-03    -15.2919E-03     163.474E-03    -23.0434E-03     38.6442E-03    -15.4764E-03     163.999E-03
            1434     15.0652E-03     52.9611E-03    -3.40328E+06     14.5278E+06    -12.5403E+06    -9.11245E+03    -17.8430E-03     33.2337E-03    -15.3907E-03     95.4752E-03    -18.1217E-03     33.5882E-03    -15.4695E-03     95.4509E-03
            1435     14.1790E-03     52.8970E-03    -2.84808E+06    -22.8022E+06    -11.5675E+06     95.1852E+03    -16.5013E-03     31.9463E-03    -15.4450E-03     63.9835E-03    -16.5434E-03     31.9309E-03    -15.4656E-03     63.9436E-03
            1436     13.2929E-03     52.8422E-03    -2.32291E+06    -40.4948E+06    -9.87478E+06     195.935E+03    -16.4210E-03     31.8984E-03    -15.4775E-03     60.0770E-03    -16.4063E-03     31.7604E-03    -15.4647E-03     60.0432E-03
            1437     12.4066E-03     52.7854E-03    -2.18857E+06    -42.8676E+06     554.768E+03     198.154E+03    -16.3286E-03     31.8605E-03    -15.5318E-03     56.3978E-03    -16.3074E-03     31.6777E-03    -15.4637E-03     56.3718E-03
            1438     11.5205E-03     52.7374E-03    -2.55213E+06    -41.7708E+06     2.81547E+06     173.751E+03    -16.1241E-03     31.6655E-03    -15.5414E-03     49.5587E-03    -16.0975E-03     31.4734E-03    -15.4631E-03     49.5394E-03
            1439     10.6342E-03     52.6934E-03    -2.97742E+06    -45.9931E+06     1.12153E+06     134.537E+03    -16.0402E-03     31.5796E-03    -15.5394E-03     45.2846E-03    -16.0009E-03     31.3632E-03    -15.4628E-03     45.2701E-03
            1440     9.74814E-03     52.6533E-03    -3.46704E+06    -51.5088E+06     3.81758E+06     103.668E+03    -15.9528E-03     31.5134E-03    -15.5606E-03     40.9149E-03    -15.9078E-03     31.2622E-03    -15.4618E-03     40.9041E-03
            1441     8.86189E-03     52.6174E-03    -4.16073E+06    -50.2730E+06     3.26626E+06     106.787E+03    -15.8607E-03     31.4166E-03    -15.5560E-03     36.6081E-03    -15.8177E-03     31.1710E-03    -15.4607E-03     36.6004E-03
            1442     7.97576E-03     52.5853E-03    -4.88292E+06    -52.6481E+06     2.14004E+06     125.814E+03    -15.7892E-03     31.3428E-03    -15.5536E-03     32.3155E-03    -15.7433E-03     31.0864E-03    -15.4595E-03     32.3103E-03
            1443     7.08954E-03     52.5574E-03    -5.69993E+06    -55.0722E+06     1.32819E+06     143.383E+03    -15.7217E-03     31.2745E-03    -15.5527E-03     28.0922E-03    -15.6742E-03     31.0073E-03    -15.4580E-03     28.0888E-03
            1444     6.20339E-03     52.5331E-03    -6.57795E+06    -57.2047E+06     313.716E+03     190.135E+03    -15.6624E-03     31.2132E-03    -15.5508E-03     24.0425E-03    -15.6141E-03     30.9376E-03    -15.4567E-03     24.0408E-03
            1445     5.31716E-03     52.5127E-03    -7.61008E+06    -58.7449E+06    -760.236E+03     198.865E+03    -15.6123E-03     31.1607E-03    -15.5484E-03     20.1890E-03    -15.5649E-03     30.8800E-03    -15.4560E-03     20.1883E-03
            1446     4.43098E-03     52.4956E-03    -8.72438E+06    -55.3571E+06    -2.89035E+06     190.755E+03    -15.5656E-03     31.1000E-03    -15.5344E-03     16.5352E-03    -15.5253E-03     30.8406E-03    -15.4559E-03     16.5351E-03
            1447     3.54477E-03     52.4820E-03    -9.86213E+06    -57.6044E+06    -4.91278E+06     181.009E+03    -15.5402E-03     31.0698E-03    -15.5296E-03     13.0300E-03    -15.4991E-03     30.8035E-03    -15.4564E-03     13.0304E-03
            1448     2.65859E-03     52.4714E-03    -11.0234E+06    -58.6137E+06    -7.49563E+06     147.084E+03    -15.5113E-03     31.0335E-03    -15.5222E-03     9.67137E-03    -15.4707E-03     30.7675E-03    -15.4587E-03     9.67186E-03
            1449     1.77237E-03     52.4639E-03    -11.9724E+06    -57.4646E+06    -10.3524E+06     103.342E+03    -15.4955E-03     31.0103E-03    -15.5148E-03     6.42984E-03    -15.4571E-03     30.7554E-03    -15.4659E-03     6.43027E-03
            1450     886.178E-06     52.4594E-03    -12.5878E+06    -58.7226E+06    -12.1270E+06     88.9569E+03    -15.5034E-03     31.0281E-03    -15.5247E-03     3.44944E-03    -15.4634E-03     30.7705E-03    -15.4820E-03     3.45012E-03
            1451     16.8369E-03     52.2885E-03    -3.22880E+06     147.562E+06     34.0163E+06     10.0247E+03    -24.8539E-03     40.2898E-03    -15.4360E-03     234.488E-03    -30.5346E-03     46.3843E-03    -15.4752E-03     238.743E-03
            1452     15.9512E-03     52.0964E-03    -3.68551E+06     78.3116E+06    -15.2065E+06     206.124E+03    -21.2165E-03     36.5067E-03    -15.2902E-03     163.078E-03    -22.9923E-03     38.5916E-03    -15.4745E-03     163.601E-03
            1453     15.0650E-03     51.9827E-03    -2.98536E+06     14.8636E+06    -12.1485E+06     377.555E+03    -17.7917E-03     33.1829E-03    -15.3911E-03     95.2012E-03    -18.0676E-03     33.5361E-03    -15.4691E-03     95.1820E-03
            1454     14.1790E-03     51.9191E-03    -2.93406E+06    -22.9041E+06    -11.7037E+06     215.915E+03    -16.5273E-03     31.9717E-03    -15.4444E-03     63.8093E-03    -16.5693E-03     31.9559E-03    -15.4654E-03     63.7708E-03
            1455     13.2928E-03     51.8642E-03    -2.53341E+06    -40.5160E+06    -9.97719E+06     160.811E+03    -16.4202E-03     31.8963E-03    -15.4761E-03     60.0865E-03    -16.4064E-03     31.7586E-03    -15.4635E-03     60.0523E-03
            1456     12.4068E-03     51.8074E-03    -2.32154E+06    -42.8282E+06     550.691E+03     195.087E+03    -16.2925E-03     31.8245E-03    -15.5320E-03     56.4285E-03    -16.2720E-03     31.6421E-03    -15.4638E-03     56.4025E-03
            1457     11.5204E-03     51.7595E-03    -2.62666E+06    -41.7376E+06     2.82967E+06     185.948E+03    -16.1204E-03     31.6636E-03    -15.5432E-03     49.6058E-03    -16.0943E-03     31.4717E-03    -15.4647E-03     49.5868E-03
            1458     10.6343E-03     51.7154E-03    -2.96809E+06    -45.8980E+06     1.17013E+06     123.735E+03    -16.0516E-03     31.5925E-03    -15.5409E-03     45.3022E-03    -16.0124E-03     31.3764E-03    -15.4642E-03     45.2876E-03
            1459     9.74806E-03     51.6754E-03    -3.44734E+06    -51.4912E+06     3.81515E+06     73.8764E+03    -15.9667E-03     31.5277E-03    -15.5610E-03     40.9204E-03    -15.9217E-03     31.2766E-03    -15.4622E-03     40.9093E-03
            1460     8.86196E-03     51.6394E-03    -4.10550E+06    -50.3011E+06     3.29796E+06     87.7438E+03    -15.8751E-03     31.4302E-03    -15.5551E-03     36.5894E-03    -15.8319E-03     31.1843E-03    -15.4597E-03     36.5815E-03
            1461     7.97573E-03     51.6074E-03    -4.86823E+06    -52.6424E+06     2.14337E+06     111.497E+03    -15.7962E-03     31.3475E-03    -15.5513E-03     32.2856E-03    -15.7502E-03     31.0911E-03    -15.4572E-03     32.2802E-03
            1462     7.08960E-03     51.5794E-03    -5.66311E+06    -55.0816E+06     1.28439E+06     116.584E+03    -15.7247E-03     31.2740E-03    -15.5493E-03     28.0615E-03    -15.6769E-03     31.0068E-03    -15.4548E-03     28.0577E-03
            1463     6.20337E-03     51.5553E-03    -6.56972E+06    -57.2346E+06     262.390E+03     136.718E+03    -15.6634E-03     31.2100E-03    -15.5466E-03     24.0090E-03    -15.6149E-03     30.9342E-03    -15.4527E-03     24.0066E-03
            1464     5.31721E-03     51.5347E-03    -7.58009E+06    -58.6947E+06    -763.803E+03     170.128E+03    -15.6128E-03     31.1562E-03    -15.5434E-03     20.1542E-03    -15.5653E-03     30.8757E-03    -15.4511E-03     20.1532E-03
            1465     4.43099E-03     51.5178E-03    -8.71621E+06    -55.3141E+06    -2.93523E+06     158.777E+03    -15.5646E-03     31.0929E-03    -15.5283E-03     16.5086E-03    -15.5242E-03     30.8337E-03    -15.4501E-03     16.5081E-03
            1466     3.54482E-03     51.5040E-03    -9.89289E+06    -57.5445E+06    -4.92427E+06     139.648E+03    -15.5376E-03     31.0602E-03    -15.5226E-03     12.9971E-03    -15.4967E-03     30.7942E-03    -15.4495E-03     12.9970E-03
            1467     2.65861E-03     51.4936E-03    -11.0585E+06    -58.5114E+06    -7.50276E+06     109.222E+03    -15.5080E-03     31.0217E-03    -15.5137E-03     9.65665E-03    -15.4677E-03     30.7562E-03    -15.4503E-03     9.65667E-03
            1468     1.77239E-03     51.4860E-03    -12.0660E+06    -57.3780E+06    -10.4281E+06     65.3514E+03    -15.4900E-03     30.9937E-03    -15.5037E-03     6.42785E-03    -15.4520E-03     30.7395E-03    -15.4551E-03     6.42779E-03
            1469     886.175E-06     51.4816E-03    -12.6281E+06    -58.6335E+06    -12.1848E+06     30.7906E+03    -15.4829E-03     31.0032E-03    -15.5203E-03     3.46725E-03    -15.4432E-03     30.7462E-03    -15.4779E-03     3.46716E-03
            1470     16.8379E-03     51.3103E-03    -3.11008E+06     147.353E+06     33.6687E+06     101.306E+03    -24.9473E-03     40.3761E-03    -15.4288E-03     234.713E-03    -30.6268E-03     46.4700E-03    -15.4696E-03     238.957E-03
            1471     15.9514E-03     51.1181E-03    -3.80897E+06     78.1966E+06    -15.5269E+06     409.646E+03    -21.2600E-03     36.5400E-03    -15.2799E-03     162.852E-03    -23.0334E-03     38.6225E-03    -15.4654E-03     163.375E-03
            1472     15.0653E-03     51.0047E-03    -3.73484E+06     15.0102E+06    -12.3297E+06     487.341E+03    -17.7022E-03     33.0842E-03    -15.3820E-03     94.7636E-03    -17.9798E-03     33.4375E-03    -15.4600E-03     94.7462E-03
            1473     14.1790E-03     50.9410E-03    -3.17489E+06    -22.6408E+06    -11.7543E+06     309.529E+03    -16.3740E-03     31.8152E-03    -15.4412E-03     63.7402E-03    -16.4171E-03     31.8008E-03    -15.4625E-03     63.7036E-03
            1474     13.2930E-03     50.8863E-03    -2.61446E+06    -40.5126E+06    -10.0654E+06     162.319E+03    -16.3642E-03     31.8437E-03    -15.4795E-03     60.2202E-03    -16.3508E-03     31.7064E-03    -15.4673E-03     60.1861E-03
            1475     12.4065E-03     50.8296E-03    -2.58424E+06    -42.8553E+06     432.954E+03     132.674E+03    -16.2979E-03     31.8358E-03    -15.5379E-03     56.6165E-03    -16.2785E-03     31.6539E-03    -15.4699E-03     56.5898E-03
            1476     11.5205E-03     50.7814E-03    -2.75443E+06    -41.6536E+06     2.75751E+06     78.2598E+03    -16.1554E-03     31.7034E-03    -15.5480E-03     49.6768E-03    -16.1299E-03     31.5123E-03    -15.4698E-03     49.6563E-03
            1477     10.6342E-03     50.7375E-03    -3.03337E+06    -45.8599E+06     1.07670E+06     48.7210E+03    -16.0860E-03     31.6291E-03    -15.5432E-03     45.3029E-03    -16.0470E-03     31.4134E-03    -15.4669E-03     45.2873E-03
            1478     9.74813E-03     50.6973E-03    -3.46946E+06    -51.4806E+06     3.75129E+06     56.9164E+03    -15.9989E-03     31.5594E-03    -15.5605E-03     40.8939E-03    -15.9539E-03     31.3085E-03    -15.4621E-03     40.8825E-03
            1479     8.86192E-03     50.6615E-03    -4.17121E+06    -50.3322E+06     3.20334E+06     74.4088E+03    -15.8935E-03     31.4456E-03    -15.5521E-03     36.5409E-03    -15.8504E-03     31.1997E-03    -15.4570E-03     36.5328E-03
            1480     7.97581E-03     50.6294E-03    -4.89330E+06    -52.6326E+06     2.11391E+06     86.6967E+03    -15.8050E-03     31.3515E-03    -15.5465E-03     32.2345E-03    -15.7591E-03     31.0952E-03    -15.4525E-03     32.2288E-03
            1481     7.08960E-03     50.6015E-03    -5.71343E+06    -55.0879E+06     1.22961E+06     96.8316E+03    -15.7288E-03     31.2718E-03    -15.5430E-03     28.0119E-03    -15.6812E-03     31.0047E-03    -15.4486E-03     28.0079E-03
            1482     6.20345E-03     50.5773E-03    -6.60635E+06    -57.2323E+06     181.553E+03     108.478E+03    -15.6672E-03     31.2057E-03    -15.5385E-03     23.9574E-03    -15.6187E-03     30.9301E-03    -15.4451E-03     23.9547E-03
            1483     5.31724E-03     50.5569E-03    -7.63177E+06    -58.6926E+06    -834.235E+03     116.678E+03    -15.6143E-03     31.1479E-03    -15.5336E-03     20.1119E-03    -15.5670E-03     30.8676E-03    -15.4416E-03     20.1101E-03
            1484     4.43107E-03     50.5398E-03    -8.72445E+06    -55.2690E+06    -2.92448E+06     136.738E+03    -15.5535E-03     31.0714E-03    -15.5178E-03     16.4755E-03    -15.5133E-03     30.8124E-03    -15.4397E-03     16.4747E-03
            1485     3.54482E-03     50.5262E-03    -9.88460E+06    -57.4798E+06    -4.90686E+06     107.459E+03    -15.5233E-03     31.0359E-03    -15.5127E-03     12.9685E-03    -15.4825E-03     30.7703E-03    -15.4395E-03     12.9679E-03
            1486     2.65863E-03     50.5157E-03    -11.1074E+06    -58.4383E+06    -7.46068E+06     80.3891E+03    -15.5047E-03     31.0078E-03    -15.5031E-03     9.63465E-03    -15.4648E-03     30.7427E-03    -15.4396E-03     9.63429E-03
            1487     1.77243E-03     50.5082E-03    -12.1147E+06    -57.2937E+06    -10.4151E+06     57.8108E+03    -15.4890E-03     30.9768E-03    -15.4878E-03     6.42957E-03    -15.4514E-03     30.7231E-03    -15.4392E-03     6.42941E-03
            1488     886.226E-06     50.5037E-03    -12.7687E+06    -58.6232E+06    -12.3032E+06    -5.09440E+03    -15.4830E-03     30.9627E-03    -15.4797E-03     3.45322E-03    -15.4439E-03     30.7062E-03    -15.4377E-03     3.45267E-03
            1489     16.8369E-03     50.3323E-03    -3.25560E+06     147.301E+06     33.5727E+06     332.602E+03    -25.0470E-03     40.4670E-03    -15.4200E-03     234.410E-03    -30.6976E-03     46.5315E-03    -15.4610E-03     238.628E-03
            1490     15.9515E-03     50.1389E-03    -4.37887E+06     77.7515E+06    -15.8823E+06     452.168E+03    -21.2761E-03     36.5427E-03    -15.2666E-03     162.560E-03    -23.0490E-03     38.6221E-03    -15.4524E-03     163.078E-03
            1491     15.0657E-03     50.0272E-03    -3.64028E+06     15.1421E+06    -12.3279E+06     423.244E+03    -17.5164E-03     32.8885E-03    -15.3721E-03     94.3444E-03    -17.7916E-03     33.2402E-03    -15.4504E-03     94.3274E-03
            1492     14.1791E-03     49.9632E-03    -3.03052E+06    -22.2353E+06    -11.5041E+06     388.562E+03    -16.1351E-03     31.5794E-03    -15.4442E-03     64.1252E-03    -16.1786E-03     31.5665E-03    -15.4651E-03     64.0906E-03
            1493     13.2924E-03     49.9085E-03    -2.72053E+06    -40.4593E+06    -10.1026E+06     241.709E+03    -16.3613E-03     31.8520E-03    -15.4906E-03     60.4637E-03    -16.3484E-03     31.7150E-03    -15.4785E-03     60.4306E-03
            1494     12.4065E-03     49.8514E-03    -2.44454E+06    -42.7594E+06     557.581E+03     25.9904E+03    -16.4103E-03     31.9567E-03    -15.5464E-03     56.5947E-03    -16.3905E-03     31.7748E-03    -15.4781E-03     56.5664E-03
            1495     11.5202E-03     49.8035E-03    -2.68763E+06    -41.6193E+06     2.75896E+06    -25.4959E+03    -16.2137E-03     31.7638E-03    -15.5501E-03     49.5406E-03    -16.1878E-03     31.5726E-03    -15.4721E-03     49.5187E-03
            1496     10.6343E-03     49.7593E-03    -3.01829E+06    -45.8763E+06     1.06135E+06    -10.7165E+03    -16.1215E-03     31.6629E-03    -15.5414E-03     45.1940E-03    -16.0823E-03     31.4471E-03    -15.4652E-03     45.1776E-03
            1497     9.74809E-03     49.7194E-03    -3.52056E+06    -51.5259E+06     3.68764E+06     43.1361E+03    -16.0221E-03     31.5778E-03    -15.5557E-03     40.7840E-03    -15.9772E-03     31.3268E-03    -15.4574E-03     40.7724E-03
            1498     8.86204E-03     49.6834E-03    -4.18609E+06    -50.3020E+06     3.15563E+06     52.4449E+03    -15.9024E-03     31.4473E-03    -15.5449E-03     36.4521E-03    -15.8594E-03     31.2017E-03    -15.4501E-03     36.4437E-03
            1499     7.97583E-03     49.6515E-03    -4.93335E+06    -52.6725E+06     2.07000E+06     53.8919E+03    -15.8140E-03     31.3515E-03    -15.5375E-03     32.1602E-03    -15.7681E-03     31.0952E-03    -15.4437E-03     32.1540E-03
            1500     7.08971E-03     49.6235E-03    -5.72007E+06    -55.0760E+06     1.25288E+06     82.2661E+03    -15.7334E-03     31.2655E-03    -15.5321E-03     27.9375E-03    -15.6858E-03     30.9985E-03    -15.4376E-03     27.9333E-03
            1501     6.20350E-03     49.5994E-03    -6.63557E+06    -57.2222E+06     198.236E+03     77.9753E+03    -15.6643E-03     31.1902E-03    -15.5258E-03     23.9001E-03    -15.6161E-03     30.9146E-03    -15.4322E-03     23.8970E-03
            1502     5.31734E-03     49.5789E-03    -7.66073E+06    -58.6938E+06    -823.363E+03     73.1058E+03    -15.6071E-03     31.1266E-03    -15.5195E-03     20.0634E-03    -15.5600E-03     30.8463E-03    -15.4274E-03     20.0611E-03
            1503     4.43111E-03     49.5620E-03    -8.75142E+06    -55.2451E+06    -2.89076E+06     58.6621E+03    -15.5443E-03     31.0468E-03    -15.5024E-03     16.4253E-03    -15.5043E-03     30.7879E-03    -15.4241E-03     16.4235E-03
            1504     3.54490E-03     49.5483E-03    -9.91003E+06    -57.4270E+06    -4.86224E+06     61.5998E+03    -15.5133E-03     31.0089E-03    -15.4956E-03     12.9189E-03    -15.4729E-03     30.7435E-03    -15.4222E-03     12.9177E-03
            1505     2.65867E-03     49.5378E-03    -11.0962E+06    -58.3885E+06    -7.44935E+06     48.4832E+03    -15.4887E-03     30.9730E-03    -15.4842E-03     9.58322E-03    -15.4489E-03     30.7080E-03    -15.4207E-03     9.58246E-03
            1506     1.77244E-03     49.5303E-03    -12.0694E+06    -57.2485E+06    -10.3619E+06     20.3329E+03    -15.4678E-03     30.9370E-03    -15.4692E-03     6.41400E-03    -15.4301E-03     30.6833E-03    -15.4205E-03     6.41335E-03
            1507     886.227E-06     49.5259E-03    -12.6942E+06    -58.5839E+06    -12.2123E+06    -10.9205E+03    -15.4841E-03     30.9270E-03    -15.4429E-03     3.44952E-03    -15.4448E-03     30.6705E-03    -15.4006E-03     3.44890E-03
            1508     16.8388E-03     49.3548E-03    -3.49896E+06     146.732E+06     33.3679E+06     413.541E+03    -25.2356E-03     40.6403E-03    -15.4047E-03     233.789E-03    -30.8617E-03     46.6781E-03    -15.4455E-03     237.964E-03
            1509     15.9519E-03     49.1602E-03    -3.42731E+06     77.8222E+06    -15.5681E+06     647.910E+03    -20.7173E-03     35.9770E-03    -15.2596E-03     162.456E-03    -22.4695E-03     38.0384E-03    -15.4453E-03     162.986E-03
            1510     15.0655E-03     49.0496E-03    -3.28017E+06     15.2749E+06    -12.2036E+06     765.976E+03    -17.2957E-03     32.6836E-03    -15.3878E-03     94.9960E-03    -17.5693E-03     33.0351E-03    -15.4663E-03     94.9855E-03
            1511     14.1786E-03     48.9860E-03    -3.56820E+06    -21.8644E+06    -11.7889E+06     551.988E+03    -16.4621E-03     31.9194E-03    -15.4574E-03     64.3305E-03    -16.5084E-03     31.9097E-03    -15.4794E-03     64.2965E-03
            1512     13.2925E-03     48.9302E-03    -2.47577E+06    -40.0236E+06    -9.84404E+06     33.6494E+03    -16.5183E-03     32.0086E-03    -15.4903E-03     60.3412E-03    -16.5048E-03     31.8728E-03    -15.4779E-03     60.3052E-03
            1513     12.4064E-03     48.8733E-03    -2.11691E+06    -42.8424E+06     629.889E+03    -31.1587E+03    -16.4730E-03     32.0104E-03    -15.5374E-03     56.1529E-03    -16.4513E-03     31.8273E-03    -15.4691E-03     56.1237E-03
            1514     11.5206E-03     48.8253E-03    -2.48866E+06    -41.5159E+06     2.93811E+06     22.4557E+03    -16.2035E-03     31.7418E-03    -15.5383E-03     49.2547E-03    -16.1769E-03     31.5504E-03    -15.4598E-03     49.2335E-03
            1515     10.6343E-03     48.7814E-03    -2.97708E+06    -45.9669E+06     1.09339E+06    -1.76981E+03    -16.1110E-03     31.6398E-03    -15.5288E-03     45.0438E-03    -16.0715E-03     31.4234E-03    -15.4524E-03     45.0276E-03
            1516     9.74830E-03     48.7412E-03    -3.46971E+06    -51.5246E+06     3.72829E+06     21.4922E+03    -16.0084E-03     31.5510E-03    -15.5426E-03     40.6330E-03    -15.9632E-03     31.2998E-03    -15.4442E-03     40.6212E-03
            1517     8.86209E-03     48.7055E-03    -4.17052E+06    -50.2988E+06     3.18656E+06     31.9495E+03    -15.8954E-03     31.4266E-03    -15.5313E-03     36.3552E-03    -15.8523E-03     31.1809E-03    -15.4363E-03     36.3466E-03
            1518     7.97599E-03     48.6735E-03    -4.90080E+06    -52.6930E+06     2.12262E+06     41.0644E+03    -15.8155E-03     31.3382E-03    -15.5226E-03     32.0669E-03    -15.7696E-03     31.0816E-03    -15.4285E-03     32.0606E-03
            1519     7.08981E-03     48.6457E-03    -5.71255E+06    -55.0755E+06     1.34426E+06     41.5770E+03    -15.7310E-03     31.2463E-03    -15.5153E-03     27.8506E-03    -15.6835E-03     30.9791E-03    -15.4205E-03     27.8459E-03
            1520     6.20364E-03     48.6215E-03    -6.59527E+06    -57.2104E+06     347.896E+03     39.5745E+03    -15.6573E-03     31.1647E-03    -15.5074E-03     23.8236E-03    -15.6091E-03     30.8889E-03    -15.4131E-03     23.8200E-03
            1521     5.31742E-03     48.6011E-03    -7.61575E+06    -58.6633E+06    -690.487E+03     19.9847E+03    -15.5968E-03     31.0958E-03    -15.4990E-03     19.9876E-03    -15.5496E-03     30.8154E-03    -15.4064E-03     19.9846E-03
            1522     4.43122E-03     48.5841E-03    -8.75040E+06    -55.2361E+06    -2.81189E+06        -763.662    -15.5369E-03     31.0160E-03    -15.4791E-03     16.3558E-03    -15.4970E-03     30.7571E-03    -15.4004E-03     16.3533E-03
            1523     3.54499E-03     48.5705E-03    -9.93305E+06    -57.4181E+06    -4.81994E+06    -10.8786E+03    -15.5012E-03     30.9697E-03    -15.4684E-03     12.8622E-03    -15.4609E-03     30.7043E-03    -15.3949E-03     12.8602E-03
            1524     2.65877E-03     48.5600E-03    -11.0897E+06    -58.3531E+06    -7.46065E+06    -19.0017E+03    -15.4694E-03     30.9221E-03    -15.4527E-03     9.52909E-03    -15.4296E-03     30.6574E-03    -15.3893E-03     9.52746E-03
            1525     1.77251E-03     48.5526E-03    -12.0668E+06    -57.2651E+06    -10.4484E+06    -16.0091E+03    -15.4359E-03     30.8707E-03    -15.4348E-03     6.35337E-03    -15.3981E-03     30.6171E-03    -15.3865E-03     6.35226E-03
            1526     886.231E-06     48.5480E-03    -12.6894E+06    -58.5356E+06    -12.2229E+06    -47.4037E+03    -15.4374E-03     30.8577E-03    -15.4204E-03     3.42656E-03    -15.3981E-03     30.6014E-03    -15.3782E-03     3.42547E-03
            1527     16.8376E-03     48.3723E-03    -2.57656E+06     146.636E+06     33.7806E+06     460.501E+03    -24.5394E-03     39.9813E-03    -15.4418E-03     234.582E-03    -30.1467E-03     46.0020E-03    -15.4818E-03     238.770E-03
            1528     15.9522E-03     48.1860E-03    -4.45446E+06     76.8486E+06    -16.7349E+06     1.69087E+06    -21.1715E-03     36.4790E-03    -15.3075E-03     164.498E-03    -22.9490E-03     38.5621E-03    -15.4962E-03     165.046E-03
            1529     15.0633E-03     48.0704E-03    -4.78746E+06     15.8199E+06    -12.4293E+06     1.14179E+06    -18.3722E-03     33.7728E-03    -15.4005E-03     93.9889E-03    -18.6505E-03     34.1262E-03    -15.4787E-03     93.9700E-03
            1530     14.1790E-03     48.0077E-03    -3.04584E+06    -20.7273E+06    -10.7970E+06    -293.637E+03    -16.5919E-03     32.0259E-03    -15.4340E-03     62.6430E-03    -16.6357E-03     32.0166E-03    -15.4535E-03     62.5977E-03
            1531     13.2930E-03     47.9522E-03    -2.22650E+06    -40.3311E+06    -9.84659E+06    -283.526E+03    -16.4754E-03     31.9333E-03    -15.4579E-03     60.1018E-03    -16.4606E-03     31.7959E-03    -15.4454E-03     60.0618E-03
            1532     12.4071E-03     47.8950E-03    -2.15040E+06    -42.8929E+06     669.065E+03     35.9240E+03    -16.3674E-03     31.8752E-03    -15.5078E-03     55.8327E-03    -16.3456E-03     31.6915E-03    -15.4392E-03     55.8048E-03
            1533     11.5207E-03     47.8476E-03    -2.51248E+06    -41.5644E+06     2.85822E+06     75.8415E+03    -16.1199E-03     31.6325E-03    -15.5126E-03     49.1851E-03    -16.0931E-03     31.4409E-03    -15.4344E-03     49.1648E-03
            1534     10.6347E-03     47.8031E-03    -2.86574E+06    -45.8690E+06     1.11358E+06     32.6659E+03    -16.0643E-03     31.5706E-03    -15.5063E-03     44.9686E-03    -16.0244E-03     31.3544E-03    -15.4301E-03     44.9529E-03
            1535     9.74845E-03     47.7635E-03    -3.35066E+06    -51.5809E+06     3.79678E+06    -9.07241E+03    -15.9747E-03     31.4968E-03    -15.5221E-03     40.5568E-03    -15.9289E-03     31.2450E-03    -15.4234E-03     40.5448E-03
            1536     8.86233E-03     47.7274E-03    -4.00477E+06    -50.3298E+06     3.39053E+06     31.1834E+03    -15.8872E-03     31.3983E-03    -15.5111E-03     36.2745E-03    -15.8435E-03     31.1519E-03    -15.4154E-03     36.2659E-03
            1537     7.97615E-03     47.6956E-03    -4.78098E+06    -52.6754E+06     2.28099E+06     39.2414E+03    -15.8010E-03     31.3021E-03    -15.5011E-03     31.9742E-03    -15.7547E-03     31.0452E-03    -15.4064E-03     31.9679E-03
            1538     7.08998E-03     47.6677E-03    -5.60893E+06    -55.0560E+06     1.51214E+06     11.5814E+03    -15.7243E-03     31.2166E-03    -15.4923E-03     27.7686E-03    -15.6766E-03     30.9491E-03    -15.3967E-03     27.7636E-03
            1539     6.20380E-03     47.6437E-03    -6.52604E+06    -57.1879E+06     521.771E+03      -8.568E+03    -15.6560E-03     31.1374E-03    -15.4814E-03     23.7333E-03    -15.6077E-03     30.8614E-03    -15.3864E-03     23.7291E-03
            1540     5.31761E-03     47.6232E-03    -7.57462E+06    -58.6480E+06    -521.383E+03    -28.0913E+03    -15.5889E-03     31.0580E-03    -15.4692E-03     19.8982E-03    -15.5417E-03     30.7773E-03    -15.3758E-03     19.8946E-03
            1541     4.43137E-03     47.6064E-03    -8.71995E+06    -55.2101E+06    -2.68793E+06    -57.6488E+03    -15.5171E-03     30.9627E-03    -15.4456E-03     16.2738E-03    -15.4773E-03     30.7037E-03    -15.3663E-03     16.2705E-03
            1542     3.54513E-03     47.5927E-03    -9.90952E+06    -57.4299E+06    -4.81051E+06    -76.4579E+03    -15.4739E-03     30.9056E-03    -15.4317E-03     12.7926E-03    -15.4335E-03     30.6400E-03    -15.3581E-03     12.7897E-03
            1543     2.65886E-03     47.5823E-03    -11.1537E+06    -58.3968E+06    -7.55426E+06    -38.6900E+03    -15.4416E-03     30.8539E-03    -15.4123E-03     9.48569E-03    -15.4019E-03     30.5892E-03    -15.3492E-03     9.48380E-03
            1544     1.77262E-03     47.5748E-03    -12.1790E+06    -57.2859E+06    -10.5740E+06     2.93921E+03    -15.4040E-03     30.7925E-03    -15.3885E-03     6.31301E-03    -15.3666E-03     30.5391E-03    -15.3406E-03     6.31214E-03
            1545     886.330E-06     47.5704E-03    -12.8092E+06    -58.5593E+06    -12.4349E+06     15.8430E+03    -15.3828E-03     30.7576E-03    -15.3748E-03     3.44435E-03    -15.3437E-03     30.5016E-03    -15.3335E-03     3.44406E-03
            1546     16.8364E-03     47.4024E-03    -5.85044E+06     144.700E+06     31.6277E+06     1.77287E+06    -25.5510E-03     41.0951E-03    -15.5441E-03     238.311E-03    -31.3412E-03     47.2872E-03    -15.5873E-03     242.666E-03
            1547     15.9453E-03     47.2017E-03    -6.87369E+06     78.2849E+06    -15.4006E+06     477.787E+03    -24.5075E-03     39.8152E-03    -15.3077E-03     159.431E-03    -26.2830E-03     41.8889E-03    -15.4883E-03     159.805E-03
            1548     15.0684E-03     47.0911E-03    -2.79392E+06     18.0093E+06    -10.0629E+06    -1.11399E+06    -17.8034E-03     33.1071E-03    -15.3037E-03     88.5890E-03    -18.0560E-03     33.4426E-03    -15.3760E-03     88.5419E-03
            1549     14.1806E-03     47.0314E-03    -1.59760E+06    -21.7814E+06    -10.2598E+06    -730.217E+03    -15.5717E-03     30.9408E-03    -15.3691E-03     63.3004E-03    -15.6066E-03     30.9224E-03    -15.3865E-03     63.2534E-03
            1550     13.2937E-03     46.9735E-03    -1.75364E+06    -40.5685E+06    -9.65112E+06    -28.6132E+03    -16.3117E-03     31.7392E-03    -15.4275E-03     60.8888E-03    -16.2953E-03     31.6006E-03    -15.4144E-03     60.8521E-03
            1551     12.4074E-03     46.9177E-03    -1.81029E+06    -43.1185E+06     1.03038E+06     164.043E+03    -16.2851E-03     31.7712E-03    -15.4861E-03     56.1101E-03    -16.2617E-03     31.5854E-03    -15.4158E-03     56.0840E-03
            1552     11.5211E-03     46.8693E-03    -2.18197E+06    -41.4434E+06     3.18422E+06     137.510E+03    -16.1195E-03     31.6116E-03    -15.4921E-03     49.4138E-03    -16.0918E-03     31.4198E-03    -15.4129E-03     49.3943E-03
            1553     10.6349E-03     46.8255E-03    -2.57780E+06    -45.8212E+06     1.36052E+06     54.5362E+03    -16.0471E-03     31.5320E-03    -15.4850E-03     45.0218E-03    -16.0060E-03     31.3153E-03    -15.4080E-03     45.0065E-03
            1554     9.74870E-03     46.7853E-03    -3.10212E+06    -51.5923E+06     3.97356E+06     45.7683E+03    -15.9733E-03     31.4728E-03    -15.4995E-03     40.5817E-03    -15.9265E-03     31.2203E-03    -15.4003E-03     40.5703E-03
            1555     8.86256E-03     46.7496E-03    -3.86133E+06    -50.3707E+06     3.50276E+06     46.3129E+03    -15.8807E-03     31.3673E-03    -15.4866E-03     36.2272E-03    -15.8364E-03     31.1203E-03    -15.3905E-03     36.2189E-03
            1556     7.97637E-03     46.7176E-03    -4.63863E+06    -52.6294E+06     2.47224E+06     49.5749E+03    -15.7925E-03     31.2674E-03    -15.4749E-03     31.9196E-03    -15.7458E-03     31.0102E-03    -15.3795E-03     31.9135E-03
            1557     7.09020E-03     46.6899E-03    -5.47931E+06    -55.0120E+06     1.73445E+06         350.584    -15.7219E-03     31.1853E-03    -15.4634E-03     27.7007E-03    -15.6739E-03     30.9176E-03    -15.3670E-03     27.6955E-03
            1558     6.20400E-03     46.6658E-03    -6.42129E+06    -57.1617E+06     764.289E+03    -47.0672E+03    -15.6550E-03     31.1035E-03    -15.4485E-03     23.6470E-03    -15.6066E-03     30.8271E-03    -15.3525E-03     23.6423E-03
            1559     5.31781E-03     46.6455E-03    -7.47759E+06    -58.6318E+06    -329.655E+03    -80.7367E+03    -15.5782E-03     31.0095E-03    -15.4313E-03     19.8101E-03    -15.5309E-03     30.7285E-03    -15.3371E-03     19.8058E-03
            1560     4.43158E-03     46.6286E-03    -8.63952E+06    -55.2194E+06    -2.64148E+06    -89.1600E+03    -15.4896E-03     30.8927E-03    -15.4031E-03     16.1954E-03    -15.4494E-03     30.6334E-03    -15.3237E-03     16.1917E-03
            1561     3.54529E-03     46.6150E-03    -9.91153E+06    -57.4913E+06    -4.90185E+06    -49.0360E+03    -15.4342E-03     30.8206E-03    -15.3864E-03     12.7254E-03    -15.3936E-03     30.5549E-03    -15.3132E-03     12.7228E-03
            1562     2.65900E-03     46.6046E-03    -11.2014E+06    -58.4636E+06    -7.62613E+06     3.60816E+03    -15.3910E-03     30.7585E-03    -15.3675E-03     9.44030E-03    -15.3513E-03     30.4936E-03    -15.3046E-03     9.43895E-03
            1563     1.77266E-03     46.5973E-03    -12.2407E+06    -57.2800E+06    -10.5647E+06     18.2363E+03    -15.3588E-03     30.7041E-03    -15.3453E-03     6.27956E-03    -15.3217E-03     30.4509E-03    -15.2974E-03     6.27889E-03
            1564     886.325E-06     46.5928E-03    -12.9034E+06    -58.5313E+06    -12.3969E+06     39.4272E+03    -15.3450E-03     30.6715E-03    -15.3265E-03     3.43469E-03    -15.3065E-03     30.4158E-03    -15.2850E-03     3.43471E-03
            1565     16.8237E-03     46.4086E-03    -6.81988E+06     146.465E+06     37.5297E+06     610.408E+03    -27.8545E-03     43.2047E-03    -15.3502E-03     230.757E-03    -33.5650E-03     49.3025E-03    -15.3651E-03     234.671E-03
            1566     15.9631E-03     46.2170E-03     344.272E+03     81.3266E+06    -7.65551E+06    -2.86713E+06    -20.3801E-03     35.4926E-03    -15.1124E-03     151.144E-03    -21.9575E-03     37.3806E-03    -15.2691E-03     151.493E-03
            1567     15.0695E-03     46.1201E-03     1.88985E+06     16.1555E+06    -10.3058E+06    -576.895E+03    -14.9811E-03     30.2359E-03    -15.2548E-03     93.4724E-03    -15.2056E-03     30.5543E-03    -15.3325E-03     93.4589E-03
            1568     14.1793E-03     46.0529E-03    -1.54286E+06    -21.8488E+06    -11.6006E+06     1.19055E+06    -16.1570E-03     31.5509E-03    -15.3940E-03     67.5380E-03    -16.1966E-03     31.5411E-03    -15.4180E-03     67.5127E-03
            1569     13.2935E-03     45.9964E-03    -1.41210E+06    -40.4419E+06    -9.59595E+06     417.223E+03    -16.5666E-03     32.0051E-03    -15.4385E-03     61.4948E-03    -16.5490E-03     31.8667E-03    -15.4258E-03     61.4630E-03
            1570     12.4072E-03     45.9393E-03    -1.46329E+06    -43.1951E+06     930.283E+03     451.209E+03    -16.3553E-03     31.8426E-03    -15.4873E-03     56.5376E-03    -16.3301E-03     31.6562E-03    -15.4179E-03     56.5150E-03
            1571     11.5212E-03     45.8917E-03    -2.06427E+06    -41.1574E+06     3.23870E+06     303.799E+03    -16.2372E-03     31.7247E-03    -15.4875E-03     49.6273E-03    -16.2095E-03     31.5341E-03    -15.4086E-03     49.6098E-03
            1572     10.6350E-03     45.8474E-03    -2.60919E+06    -45.7946E+06     1.22493E+06     106.271E+03    -16.1354E-03     31.6068E-03    -15.4714E-03     45.1363E-03    -16.0944E-03     31.3904E-03    -15.3951E-03     45.1217E-03
            1573     9.74895E-03     45.8076E-03    -3.11114E+06    -51.5776E+06     4.13306E+06     79.3665E+03    -16.0156E-03     31.4961E-03    -15.4805E-03     40.6138E-03    -15.9691E-03     31.2435E-03    -15.3805E-03     40.6029E-03
            1574     8.86275E-03     45.7716E-03    -3.78692E+06    -50.3506E+06     3.65403E+06     71.4818E+03    -15.8956E-03     31.3582E-03    -15.4626E-03     36.2118E-03    -15.8511E-03     31.1110E-03    -15.3659E-03     36.2039E-03
            1575     7.97661E-03     45.7399E-03    -4.54219E+06    -52.5890E+06     2.71489E+06     29.1599E+03    -15.8133E-03     31.2598E-03    -15.4465E-03     31.8708E-03    -15.7665E-03     31.0023E-03    -15.3501E-03     31.8645E-03
            1576     7.09043E-03     45.7120E-03    -5.35980E+06    -54.9447E+06     1.96568E+06    -26.9965E+03    -15.7298E-03     31.1591E-03    -15.4293E-03     27.6210E-03    -15.6816E-03     30.8911E-03    -15.3321E-03     27.6155E-03
            1577     6.20427E-03     45.6880E-03    -6.27552E+06    -57.1417E+06     911.008E+03    -87.8717E+03    -15.6423E-03     31.0516E-03    -15.4093E-03     23.5544E-03    -15.5934E-03     30.7749E-03    -15.3128E-03     23.5491E-03
            1578     5.31805E-03     45.6677E-03    -7.40501E+06    -58.6491E+06    -402.251E+03    -64.6609E+03    -15.5541E-03     30.9416E-03    -15.3875E-03     19.7211E-03    -15.5063E-03     30.6605E-03    -15.2938E-03     19.7170E-03
            1579     4.43179E-03     45.6510E-03    -8.68523E+06    -55.2747E+06    -2.76286E+06    -7.74405E+03    -15.4566E-03     30.8129E-03    -15.3563E-03     16.1237E-03    -15.4163E-03     30.5536E-03    -15.2774E-03     16.1211E-03
            1580     3.54547E-03     45.6374E-03    -9.98641E+06    -57.5312E+06    -4.88316E+06     10.9842E+03    -15.3908E-03     30.7291E-03    -15.3383E-03     12.6709E-03    -15.3505E-03     30.4633E-03    -15.2648E-03     12.6692E-03
            1581     2.65912E-03     45.6271E-03    -11.2450E+06    -58.4868E+06    -7.52378E+06     2.40168E+03    -15.3387E-03     30.6582E-03    -15.3195E-03     9.38816E-03    -15.2993E-03     30.3931E-03    -15.2561E-03     9.38680E-03
            1582     1.77275E-03     45.6197E-03    -12.2667E+06    -57.2244E+06    -10.4977E+06    -27.7889E+03    -15.3062E-03     30.6052E-03    -15.2990E-03     6.24828E-03    -15.2693E-03     30.3521E-03    -15.2508E-03     6.24702E-03
            1583     886.406E-06     45.6153E-03    -12.9777E+06    -58.5753E+06    -12.3337E+06    -79.2699E+03    -15.2990E-03     30.5812E-03    -15.2822E-03     3.37385E-03    -15.2609E-03     30.3252E-03    -15.2401E-03     3.37234E-03
            1584     16.8709E-03     45.4273E-03     267.325E+03     147.710E+06     43.2474E+06    -2.02060E+06    -26.1903E-03     41.3244E-03    -15.1341E-03     234.174E-03    -31.6963E-03     47.2314E-03    -15.1324E-03     237.831E-03
            1585     15.9540E-03     45.2563E-03     5.97439E+06     79.7535E+06    -6.92047E+06     3.23603E+06    -14.2972E-03     29.4137E-03    -15.1165E-03     162.650E-03    -15.8310E-03     31.2695E-03    -15.2754E-03     163.327E-03
            1586     15.0589E-03     45.1403E-03    -2.60974E+06     15.3530E+06    -10.9413E+06     3.51706E+06    -16.5163E-03     31.9438E-03    -15.4275E-03     99.7814E-03    -16.7890E-03     32.2935E-03    -15.5007E-03     99.8126E-03
            1587     14.1784E-03     45.0739E-03    -3.63973E+06    -19.6157E+06    -10.8618E+06     993.832E+03    -17.7012E-03     33.1899E-03    -15.4887E-03     66.4283E-03    -17.7585E-03     33.1959E-03    -15.5092E-03     66.3941E-03
            1588     13.2930E-03     45.0181E-03    -3.09256E+06    -40.7139E+06    -10.0934E+06     337.678E+03    -16.9052E-03     32.3771E-03    -15.4719E-03     60.9093E-03    -16.8944E-03     32.2401E-03    -15.4589E-03     60.8758E-03
            1589     12.4071E-03     44.9615E-03    -2.68752E+06    -42.7993E+06     508.740E+03     191.531E+03    -16.5311E-03     32.0338E-03    -15.5028E-03     56.7078E-03    -16.5121E-03     31.8519E-03    -15.4343E-03     56.6816E-03
            1590     11.5209E-03     44.9132E-03    -2.42617E+06    -41.2919E+06     3.53301E+06     163.685E+03    -16.3861E-03     31.8807E-03    -15.4947E-03     49.5849E-03    -16.3604E-03     31.6896E-03    -15.4136E-03     49.5654E-03
            1591     10.6351E-03     44.8695E-03    -2.54664E+06    -45.3954E+06     1.93574E+06     125.694E+03    -16.2639E-03     31.7318E-03    -15.4679E-03     45.0515E-03    -16.2243E-03     31.5164E-03    -15.3887E-03     45.0369E-03
            1592     9.74903E-03     44.8295E-03    -2.99622E+06    -51.7486E+06     4.50537E+06    -43.3176E+03    -16.0994E-03     31.5651E-03    -15.4657E-03     40.5361E-03    -16.0526E-03     31.3109E-03    -15.3638E-03     40.5236E-03
            1593     8.86299E-03     44.7938E-03    -3.57126E+06    -50.2560E+06     4.00731E+06     34.6909E+03    -15.9548E-03     31.3930E-03    -15.4383E-03     36.1210E-03    -15.9099E-03     31.1454E-03    -15.3402E-03     36.1125E-03
            1594     7.97684E-03     44.7619E-03    -4.26737E+06    -52.5977E+06     2.78408E+06    -1.24165E+03    -15.8468E-03     31.2595E-03    -15.4127E-03     31.7576E-03    -15.7987E-03     31.0014E-03    -15.3163E-03     31.7508E-03
            1595     7.09076E-03     44.7342E-03    -5.10567E+06    -54.8786E+06     1.89789E+06    -2.43801E+03    -15.7290E-03     31.1175E-03    -15.3885E-03     27.4993E-03    -15.6795E-03     30.8496E-03    -15.2920E-03     27.4940E-03
            1596     6.20453E-03     44.7103E-03    -6.22439E+06    -57.1948E+06     567.808E+03     48.8099E+03    -15.6160E-03     30.9798E-03    -15.3638E-03     23.4552E-03    -15.5662E-03     30.7032E-03    -15.2690E-03     23.4518E-03
            1597     5.31830E-03     44.6901E-03    -7.54161E+06    -58.6749E+06    -530.148E+03     101.802E+03    -15.5176E-03     30.8588E-03    -15.3412E-03     19.6259E-03    -15.4703E-03     30.5779E-03    -15.2478E-03     19.6240E-03
            1598     4.43199E-03     44.6733E-03    -8.85088E+06    -55.2354E+06    -2.61805E+06     53.5926E+03    -15.4148E-03     30.7244E-03    -15.3096E-03     16.0376E-03    -15.3757E-03     30.4653E-03    -15.2297E-03     16.0358E-03
            1599     3.54564E-03     44.6599E-03    -10.1092E+06    -57.4797E+06    -4.59370E+06    -31.9540E+03    -15.3464E-03     30.6370E-03    -15.2906E-03     12.6073E-03    -15.3072E-03     30.3712E-03    -15.2156E-03     12.6050E-03
            1600     2.65927E-03     44.6496E-03    -11.3237E+06    -58.4552E+06    -7.27452E+06    -134.442E+03    -15.2941E-03     30.5636E-03    -15.2695E-03     9.33775E-03    -15.2556E-03     30.2985E-03    -15.2047E-03     9.33465E-03
            1601     1.77286E-03     44.6423E-03    -12.2556E+06    -57.2601E+06    -10.4487E+06    -172.516E+03    -15.2564E-03     30.5021E-03    -15.2457E-03     6.22754E-03    -15.2196E-03     30.2488E-03    -15.1971E-03     6.22442E-03
            1602     886.403E-06     44.6378E-03    -12.8793E+06    -58.7830E+06    -12.4710E+06    -60.3428E+03    -15.2529E-03     30.4723E-03    -15.2195E-03     3.31461E-03    -15.2138E-03     30.2154E-03    -15.1779E-03     3.31337E-03
            1603     16.8253E-03     44.4667E-03     1.13273E+06     140.404E+06     23.4649E+06    -366.789E+03    -21.9018E-03     37.3573E-03    -15.4555E-03     234.939E-03    -27.2486E-03     43.1405E-03    -15.5434E-03     239.108E-03
            1604     15.9426E-03     44.2786E-03    -12.6499E+06     77.2203E+06    -14.9857E+06     3.07659E+06    -20.8641E-03     36.3467E-03    -15.4826E-03     167.958E-03    -22.6830E-03     38.4372E-03    -15.6511E-03     168.573E-03
            1605     15.0662E-03     44.1600E-03    -9.07908E+06     21.5600E+06    -9.77964E+06     1.94927E+06    -19.8622E-03     35.4105E-03    -15.5484E-03     97.1661E-03    -20.1942E-03     35.8152E-03    -15.6154E-03     97.1523E-03
            1606     14.1781E-03     44.0942E-03    -3.36335E+06    -20.1191E+06      -9.642E+06    -412.685E+03    -17.4215E-03     32.9390E-03    -15.5175E-03     64.6506E-03    -17.4739E-03     32.9360E-03    -15.5317E-03     64.6007E-03
            1607     13.2926E-03     44.0401E-03    -2.06824E+06    -40.4244E+06    -8.82957E+06     291.782E+03    -17.0600E-03     32.5616E-03    -15.5016E-03     60.2953E-03    -17.0461E-03     32.4224E-03    -15.4841E-03     60.2610E-03
            1608     12.4067E-03     43.9830E-03    -1.89707E+06    -42.6294E+06     1.82072E+06    -160.377E+03    -16.8087E-03     32.3273E-03    -15.5186E-03     56.4487E-03    -16.7881E-03     32.1434E-03    -15.4449E-03     56.4174E-03
            1609     11.5211E-03     43.9351E-03    -2.03095E+06    -41.2719E+06     4.46782E+06    -257.221E+03    -16.5110E-03     32.0055E-03    -15.4945E-03     49.2839E-03    -16.4848E-03     31.8126E-03    -15.4093E-03     49.2588E-03
            1610     10.6351E-03     43.8911E-03    -2.18389E+06    -45.5557E+06     2.74654E+06    -59.0151E+03    -16.3504E-03     31.8081E-03    -15.4577E-03     44.7505E-03    -16.3099E-03     31.5901E-03    -15.3747E-03     44.7334E-03
            1611     9.74929E-03     43.8515E-03    -2.61818E+06    -51.4636E+06     4.70178E+06    -13.2012E+03    -16.1918E-03     31.6336E-03    -15.4418E-03     40.2613E-03    -16.1438E-03     31.3800E-03    -15.3399E-03     40.2490E-03
            1612     8.86325E-03     43.8158E-03    -3.33809E+06    -50.5541E+06     3.85649E+06    -105.985E+03    -16.0103E-03     31.4139E-03    -15.4036E-03     35.8999E-03    -15.9636E-03     31.1647E-03    -15.3062E-03     35.8896E-03
            1613     7.97724E-03     43.7841E-03    -4.13708E+06    -52.5745E+06     2.09222E+06     192.654E+03    -15.8466E-03     31.2147E-03    -15.3681E-03     31.5852E-03    -15.7969E-03     30.9575E-03    -15.2754E-03     31.5809E-03
            1614     7.09104E-03     43.7564E-03    -5.34855E+06    -54.9489E+06     1.15865E+06     303.784E+03    -15.7047E-03     31.0453E-03    -15.3406E-03     27.3627E-03    -15.6553E-03     30.7785E-03    -15.2474E-03     27.3614E-03
            1615     6.20484E-03     43.7327E-03    -6.58273E+06    -57.1052E+06     522.435E+03     294.848E+03    -15.5826E-03     30.8993E-03    -15.3167E-03     23.3306E-03    -15.5347E-03     30.6238E-03    -15.2218E-03     23.3303E-03
            1616     5.31855E-03     43.7125E-03    -7.71787E+06    -58.5875E+06    -146.522E+03     117.768E+03    -15.4720E-03     30.7662E-03    -15.2942E-03     19.5202E-03    -15.4262E-03     30.4855E-03    -15.1988E-03     19.5185E-03
            1617     4.43222E-03     43.6959E-03    -8.87277E+06    -55.0616E+06    -1.99822E+06    -52.8116E+03    -15.3678E-03     30.6303E-03    -15.2624E-03     15.9473E-03    -15.3300E-03     30.3712E-03    -15.1797E-03     15.9442E-03
            1618     3.54582E-03     43.6825E-03    -10.0844E+06    -57.4029E+06    -4.18585E+06    -229.609E+03    -15.2987E-03     30.5402E-03    -15.2415E-03     12.5367E-03    -15.2601E-03     30.2741E-03    -15.1645E-03     12.5319E-03
            1619     2.65940E-03     43.6722E-03    -11.3260E+06    -58.4887E+06    -7.22055E+06    -269.066E+03    -15.2487E-03     30.4656E-03    -15.2169E-03     9.28735E-03    -15.2102E-03     30.2002E-03    -15.1518E-03     9.28252E-03
            1620     1.77295E-03     43.6650E-03    -12.5333E+06    -57.4585E+06    -10.6562E+06    -193.867E+03    -15.2092E-03     30.3977E-03    -15.1885E-03     6.18934E-03    -15.1731E-03     30.1441E-03    -15.1403E-03     6.18596E-03
            1621     886.519E-06     43.6605E-03    -13.2626E+06    -59.0042E+06    -12.7349E+06    -89.7998E+03    -15.1856E-03     30.3517E-03    -15.1661E-03     3.28111E-03    -15.1477E-03     30.0946E-03    -15.1250E-03     3.27948E-03
            1622     16.8255E-03     43.4858E-03     202.368E+03     141.497E+06     20.8889E+06     2.96158E+06    -22.2580E-03     37.9721E-03    -15.7141E-03     224.152E-03    -27.5877E-03     43.7449E-03    -15.8151E-03     228.424E-03
            1623     15.9480E-03     43.2897E-03    -5.88991E+06     78.9106E+06    -12.7979E+06    -277.245E+03    -24.7624E-03     40.3541E-03    -15.5917E-03     158.234E-03    -26.6093E-03     42.4972E-03    -15.7615E-03     158.683E-03
            1624     15.0620E-03     43.1813E-03    -839.705E+03     20.7796E+06    -8.17889E+06    -860.414E+03    -19.6297E-03     35.1599E-03    -15.5301E-03     94.3084E-03    -19.9188E-03     35.5435E-03    -15.6000E-03     94.2597E-03
            1625     14.1779E-03     43.1161E-03    -666.918E+03    -19.5737E+06    -9.41937E+06     677.967E+03    -17.2627E-03     32.7685E-03    -15.5057E-03     64.3234E-03    -17.3017E-03     32.7629E-03    -15.5235E-03     64.2887E-03
            1626     13.2922E-03     43.0610E-03    -836.782E+03    -40.6426E+06    -9.05386E+06    -10.6423E+03    -17.1410E-03     32.6331E-03    -15.4921E-03     59.5047E-03    -17.1200E-03     32.4911E-03    -15.4772E-03     59.4663E-03
            1627     12.4072E-03     43.0046E-03    -570.736E+03    -42.3176E+06     1.03435E+06     239.174E+03    -16.9596E-03     32.4548E-03    -15.4953E-03     55.6262E-03    -16.9319E-03     32.2719E-03    -15.4279E-03     55.5995E-03
            1628     11.5212E-03     42.9567E-03    -1.53932E+06    -40.9331E+06     3.64081E+06    -152.865E+03    -16.5661E-03     32.0280E-03    -15.4620E-03     48.8032E-03    -16.5367E-03     31.8373E-03    -15.3822E-03     48.7792E-03
            1629     10.6356E-03     42.9130E-03    -2.17306E+06    -46.1661E+06     1.71066E+06    -160.255E+03    -16.3868E-03     31.8062E-03    -15.4195E-03     44.3415E-03    -16.3438E-03     31.5868E-03    -15.3408E-03     44.3230E-03
            1630     9.74962E-03     42.8733E-03    -2.82036E+06    -51.2356E+06     3.84989E+06     194.151E+03    -16.2009E-03     31.5988E-03    -15.3978E-03     39.9505E-03    -16.1531E-03     31.3479E-03    -15.3002E-03     39.9408E-03
            1631     8.86375E-03     42.8379E-03    -3.94510E+06    -50.6688E+06     3.02675E+06     182.811E+03    -16.0007E-03     31.3570E-03    -15.3563E-03     35.6528E-03    -15.9556E-03     31.1093E-03    -15.2620E-03     35.6461E-03
            1632     7.97756E-03     42.8063E-03    -5.08075E+06    -52.9457E+06     1.49612E+06     381.691E+03    -15.8136E-03     31.1332E-03    -15.3196E-03     31.4030E-03    -15.7671E-03     30.8764E-03    -15.2280E-03     31.4012E-03
            1633     7.09141E-03     42.7788E-03    -5.85579E+06    -54.7382E+06     1.22345E+06     533.206E+03    -15.6648E-03     30.9567E-03    -15.2919E-03     27.2129E-03    -15.6183E-03     30.6916E-03    -15.1980E-03     27.2146E-03
            1634     6.20514E-03     42.7550E-03    -6.66476E+06    -56.8065E+06     1.26977E+06     176.480E+03    -15.5377E-03     30.8068E-03    -15.2691E-03     23.1995E-03    -15.4917E-03     30.5318E-03    -15.1707E-03     23.1978E-03
            1635     5.31884E-03     42.7351E-03    -7.60158E+06    -58.3462E+06     533.145E+03    -118.693E+03    -15.4228E-03     30.6677E-03    -15.2450E-03     19.4142E-03    -15.3777E-03     30.3870E-03    -15.1467E-03     19.4095E-03
            1636     4.43243E-03     42.7184E-03    -8.70441E+06    -54.9883E+06    -1.74450E+06    -288.373E+03    -15.3162E-03     30.5269E-03    -15.2107E-03     15.8618E-03    -15.2779E-03     30.2676E-03    -15.1271E-03     15.8557E-03
            1637     3.54602E-03     42.7052E-03    -10.0542E+06    -57.3826E+06    -4.26829E+06    -303.993E+03    -15.2502E-03     30.4377E-03    -15.1875E-03     12.4601E-03    -15.2114E-03     30.1719E-03    -15.1111E-03     12.4543E-03
            1638     2.65954E-03     42.6949E-03    -11.5754E+06    -58.7085E+06    -7.53350E+06    -257.924E+03    -15.1971E-03     30.3584E-03    -15.1613E-03     9.23140E-03    -15.1591E-03     30.0927E-03    -15.0971E-03     9.22674E-03
            1639     1.77307E-03     42.6877E-03    -12.7431E+06    -57.6526E+06    -10.8505E+06    -109.179E+03    -15.1494E-03     30.2834E-03    -15.1340E-03     6.14831E-03    -15.1138E-03     30.0294E-03    -15.0862E-03     6.14603E-03
            1640     886.514E-06     42.6834E-03    -13.5392E+06    -59.1574E+06    -13.0755E+06    -47.6631E+03    -15.1112E-03     30.2443E-03    -15.1331E-03     3.26674E-03    -15.0740E-03     29.9873E-03    -15.0931E-03     3.26567E-03
            1641     16.8384E-03     42.5011E-03    -5.13463E+06     144.519E+06     36.5260E+06    -1.05392E+06    -25.0282E-03     40.6099E-03    -15.5817E-03     229.239E-03    -30.6436E-03     46.6143E-03    -15.6012E-03     233.343E-03
            1642     15.9497E-03     42.3136E-03     2.63464E+06     77.9784E+06    -12.2647E+06     534.003E+03    -21.5646E-03     36.9512E-03    -15.3866E-03     157.871E-03    -23.3061E-03     39.0144E-03    -15.5649E-03     158.364E-03
            1643     15.0642E-03     42.2002E-03     285.447E+03     17.3609E+06    -9.50078E+06     1.54719E+06    -18.4025E-03     33.8487E-03    -15.4462E-03     91.9783E-03    -18.6696E-03     34.2060E-03    -15.5193E-03     91.9678E-03
            1644     14.1789E-03     42.1380E-03    -2.24606E+06    -17.9102E+06    -9.65551E+06     1.25662E+06    -17.3132E-03     32.7623E-03    -15.4491E-03     62.2622E-03    -17.3627E-03     32.7682E-03    -15.4681E-03     62.2336E-03
            1645     13.2935E-03     42.0819E-03    -2.16237E+06    -40.3376E+06    -10.7383E+06     123.464E+03    -16.9816E-03     32.4080E-03    -15.4264E-03     58.7814E-03    -16.9650E-03     32.2716E-03    -15.4184E-03     58.7449E-03
            1646     12.4076E-03     42.0263E-03    -2.07711E+06    -42.6016E+06    -1.50157E+06     67.3828E+03    -16.8023E-03     32.2341E-03    -15.4318E-03     54.9913E-03    -16.7777E-03     32.0553E-03    -15.3745E-03     54.9626E-03
            1647     11.5220E-03     41.9783E-03    -1.81031E+06    -40.3811E+06     2.84071E+06     80.4553E+03    -16.5278E-03     31.9339E-03    -15.4061E-03     48.3815E-03    -16.4993E-03     31.7474E-03    -15.3307E-03     48.3605E-03
            1648     10.6361E-03     41.9349E-03    -2.08588E+06    -46.4329E+06     1.60964E+06    -182.018E+03    -16.3291E-03     31.6959E-03    -15.3668E-03     44.0385E-03    -16.2851E-03     31.4750E-03    -15.2884E-03     44.0197E-03
            1649     9.75023E-03     41.8953E-03    -2.17989E+06    -51.6263E+06     4.10602E+06     24.6618E+03    -16.1376E-03     31.4843E-03    -15.3467E-03     39.7276E-03    -16.0862E-03     31.2301E-03    -15.2482E-03     39.7158E-03
            1650     8.86409E-03     41.8600E-03    -2.53806E+06    -50.8433E+06     4.89916E+06     638.594E+03    -15.9514E-03     31.2637E-03    -15.3122E-03     35.4336E-03    -15.9018E-03     31.0103E-03    -15.2103E-03     35.4329E-03
            1651     7.97804E-03     41.8286E-03    -3.61169E+06    -53.0362E+06     4.10824E+06     789.750E+03    -15.7827E-03     31.0604E-03    -15.2777E-03     31.1945E-03    -15.7326E-03     30.7973E-03    -15.1750E-03     31.1980E-03
            1652     7.09179E-03     41.8012E-03    -4.66918E+06    -54.1627E+06     2.57976E+06     356.384E+03    -15.6120E-03     30.8540E-03    -15.2420E-03     27.0674E-03    -15.5623E-03     30.5880E-03    -15.1438E-03     27.0669E-03
            1653     6.20549E-03     41.7776E-03    -5.60403E+06    -56.6921E+06     1.65913E+06     150.904E+03    -15.4844E-03     30.6997E-03    -15.2153E-03     23.0805E-03    -15.4338E-03     30.4231E-03    -15.1167E-03     23.0785E-03
            1654     5.31911E-03     41.7576E-03    -7.07748E+06    -57.8708E+06     669.385E+03    -56.9991E+03    -15.3733E-03     30.5633E-03    -15.1900E-03     19.3065E-03    -15.3265E-03     30.2840E-03    -15.0925E-03     19.3027E-03
            1655     4.43271E-03     41.7412E-03    -8.69875E+06    -55.1518E+06    -2.18134E+06    -292.036E+03    -15.2633E-03     30.4174E-03    -15.1541E-03     15.7700E-03    -15.2242E-03     30.1579E-03    -15.0724E-03     15.7638E-03
            1656     3.54619E-03     41.7279E-03    -10.2833E+06    -57.5563E+06    -4.90125E+06    -77.9037E+03    -15.1936E-03     30.3239E-03    -15.1303E-03     12.3935E-03    -15.1548E-03     30.0584E-03    -15.0564E-03     12.3906E-03
            1657     2.65972E-03     41.7178E-03    -11.9104E+06    -58.6887E+06    -7.74476E+06    -79.3412E+03    -15.1388E-03     30.2455E-03    -15.1067E-03     9.17661E-03    -15.1022E-03     29.9807E-03    -15.0430E-03     9.17426E-03
            1658     1.77313E-03     41.7106E-03    -13.1634E+06    -57.9275E+06    -11.2804E+06    -174.052E+03    -15.0874E-03     30.1690E-03    -15.0816E-03     6.10360E-03    -15.0529E-03     29.9148E-03    -15.0349E-03     6.10049E-03
            1659     886.579E-06     41.7063E-03    -13.6917E+06    -59.1663E+06    -13.3505E+06     52.9682E+03    -15.0518E-03     30.1449E-03    -15.0931E-03     3.25017E-03    -15.0149E-03     29.8885E-03    -15.0542E-03     3.25041E-03
            1660     16.8379E-03     41.5264E-03    -5.44604E+06     143.879E+06     34.1913E+06    -1.50378E+06    -25.0956E-03     40.5102E-03    -15.4146E-03     232.533E-03    -30.7187E-03     46.5256E-03    -15.4444E-03     236.660E-03
            1661     15.9524E-03     41.3344E-03    -8.74594E+06     73.2548E+06    -15.7297E+06    -1.84494E+06    -20.9495E-03     36.2094E-03    -15.2599E-03     160.442E-03    -22.7093E-03     38.2439E-03    -15.4321E-03     160.920E-03
            1662     15.0665E-03     41.2228E-03    -6.48005E+06     17.1702E+06    -10.7800E+06     1.00002E+06    -18.0336E-03     33.3788E-03    -15.3452E-03     93.2691E-03    -18.3291E-03     33.7435E-03    -15.4146E-03     93.2537E-03
            1663     14.1805E-03     41.1585E-03    -3.64640E+06    -17.0266E+06    -7.88165E+06     1.33687E+06    -16.9317E-03     32.3038E-03    -15.3721E-03     62.5150E-03    -16.9909E-03     32.3125E-03    -15.3815E-03     62.4888E-03
            1664     13.2947E-03     41.1046E-03    -3.36718E+06    -39.0784E+06    -8.96931E+06     539.766E+03    -16.7774E-03     32.1394E-03    -15.3620E-03     58.9173E-03    -16.7706E-03     32.0079E-03    -15.3453E-03     58.8869E-03
            1665     12.4086E-03     41.0475E-03    -2.64059E+06    -42.1026E+06    -676.825E+03    -965.183E+03    -16.6231E-03     31.9943E-03    -15.3711E-03     55.1713E-03    -16.6028E-03     31.8170E-03    -15.3096E-03     55.1299E-03
            1666     11.5228E-03     41.0005E-03    -1.23589E+06    -40.9875E+06     3.28119E+06    -1.13122E+06    -16.4278E-03     31.7771E-03    -15.3492E-03     48.2956E-03    -16.3960E-03     31.5858E-03    -15.2716E-03     48.2594E-03
            1667     10.6368E-03     40.9567E-03    -486.576E+03    -46.7627E+06     3.51729E+06    -146.019E+03    -16.2511E-03     31.5691E-03    -15.3180E-03     43.9674E-03    -16.2013E-03     31.3414E-03    -15.2319E-03     43.9494E-03
            1668     9.75075E-03     40.9176E-03    -1.37953E+06    -51.8909E+06     5.56282E+06     192.879E+03    -16.0761E-03     31.3743E-03    -15.2981E-03     39.5988E-03    -16.0225E-03     31.1153E-03    -15.1931E-03     39.5894E-03
            1669     8.86467E-03     40.8822E-03    -2.24685E+06    -51.4363E+06     4.97505E+06     393.376E+03    -15.8972E-03     31.1553E-03    -15.2582E-03     35.3191E-03    -15.8452E-03     30.8984E-03    -15.1555E-03     35.3154E-03
            1670     7.97848E-03     40.8510E-03    -2.40579E+06    -52.8114E+06     4.59448E+06     757.037E+03    -15.7335E-03     30.9565E-03    -15.2230E-03     31.0543E-03    -15.6783E-03     30.6919E-03    -15.1200E-03     31.0575E-03
            1671     7.09220E-03     40.8237E-03    -3.25052E+06    -53.7144E+06     3.08377E+06     725.672E+03    -15.5676E-03     30.7537E-03    -15.1861E-03     26.9310E-03    -15.5122E-03     30.4872E-03    -15.0881E-03     26.9354E-03
            1672     6.20583E-03     40.8002E-03    -4.74400E+06    -56.6174E+06     943.449E+03     586.645E+03    -15.4329E-03     30.5871E-03    -15.1542E-03     22.9620E-03    -15.3770E-03     30.3106E-03    -15.0605E-03     22.9657E-03
            1673     5.31942E-03     40.7804E-03    -5.95395E+06    -57.1534E+06     500.194E+03     176.064E+03    -15.3238E-03     30.4537E-03    -15.1299E-03     19.1934E-03    -15.2722E-03     30.1766E-03    -15.0359E-03     19.1926E-03
            1674     4.43293E-03     40.7640E-03    -7.20841E+06    -55.4817E+06    -1.07548E+06    -20.3946E+03    -15.2206E-03     30.3207E-03    -15.1001E-03     15.6511E-03    -15.1751E-03     30.0557E-03    -15.0146E-03     15.6484E-03
            1675     3.54642E-03     40.7508E-03    -8.79078E+06    -57.8775E+06    -3.79003E+06     384.440E+03    -15.1404E-03     30.2158E-03    -15.0754E-03     12.2889E-03    -15.0952E-03     29.9449E-03    -14.9977E-03     12.2920E-03
            1676     2.65981E-03     40.7407E-03    -10.4433E+06    -58.0652E+06    -6.89874E+06     237.290E+03    -15.0811E-03     30.1309E-03    -15.0499E-03     9.08796E-03    -15.0392E-03     29.8659E-03    -14.9850E-03     9.08971E-03
            1677     1.77326E-03     40.7336E-03    -11.8360E+06    -58.2404E+06    -9.62278E+06    -107.385E+03    -15.0412E-03     30.0702E-03    -15.0290E-03     6.03044E-03    -15.0020E-03     29.8102E-03    -14.9755E-03     6.02820E-03
            1678     886.608E-06     40.7293E-03    -12.9659E+06    -59.1221E+06    -12.1236E+06     32.3508E+03    -14.9990E-03     30.0285E-03    -15.0294E-03     3.22179E-03    -14.9604E-03     29.7695E-03    -14.9855E-03     3.22175E-03
            1679     16.8385E-03     40.5462E-03    -1.12961E+06     144.032E+06     31.9505E+06     1.39801E+06    -25.1426E-03     40.5156E-03    -15.3730E-03     233.373E-03    -30.7368E-03     46.5244E-03    -15.4204E-03     237.556E-03
            1680     15.9527E-03     40.3571E-03    -1.85358E+06     74.0464E+06    -12.3410E+06     1.06843E+06    -21.4721E-03     36.7034E-03    -15.2313E-03     161.423E-03    -23.1982E-03     38.7216E-03    -15.3977E-03     161.932E-03
            1681     15.0665E-03     40.2438E-03    -3.38699E+06     16.2133E+06    -7.96279E+06    -416.633E+03    -18.0595E-03     33.3691E-03    -15.3096E-03     94.3566E-03    -18.3399E-03     33.7181E-03    -15.3680E-03     94.3237E-03
            1682     14.1809E-03     40.1807E-03    -3.13825E+06    -17.3217E+06    -7.20202E+06     442.470E+03    -16.8472E-03     32.1778E-03    -15.3306E-03     63.1555E-03    -16.9033E-03     32.1822E-03    -15.3369E-03     63.1187E-03
            1683     13.2950E-03     40.1260E-03    -1.59805E+06    -37.5400E+06    -7.48281E+06     186.258E+03    -16.7990E-03     32.1193E-03    -15.3203E-03     59.2636E-03    -16.7873E-03     31.9904E-03    -15.3010E-03     59.2290E-03
            1684     12.4093E-03     40.0699E-03    -991.846E+03    -40.3067E+06     315.197E+03    -1.56842E+06    -16.6161E-03     31.9403E-03    -15.3242E-03     55.4945E-03    -16.5912E-03     31.7678E-03    -15.2627E-03     55.4459E-03
            1685     11.5232E-03     40.0221E-03    -1.32379E+06    -42.3216E+06     2.24613E+06    -2.07489E+06    -16.3701E-03     31.6691E-03    -15.2990E-03     48.4416E-03    -16.3350E-03     31.4725E-03    -15.2244E-03     48.3936E-03
            1686     10.6373E-03     39.9791E-03    -1.60253E+06    -48.6043E+06     2.23067E+06    -432.569E+03    -16.2300E-03     31.4982E-03    -15.2683E-03     43.9735E-03    -16.1810E-03     31.2646E-03    -15.1843E-03     43.9520E-03
            1687     9.75122E-03     39.9396E-03    -1.95045E+06    -51.6056E+06     5.18476E+06     738.701E+03    -16.0464E-03     31.2932E-03    -15.2469E-03     39.5613E-03    -15.9953E-03     31.0370E-03    -15.1433E-03     39.5591E-03
            1688     8.86513E-03     39.9047E-03    -2.95283E+06    -51.4725E+06     3.56164E+06     383.702E+03    -15.8631E-03     31.0634E-03    -15.2003E-03     35.2164E-03    -15.8125E-03     30.8092E-03    -15.1036E-03     35.2127E-03
            1689     7.97885E-03     39.8734E-03    -3.80655E+06    -52.9259E+06     2.11180E+06     248.425E+03    -15.6899E-03     30.8489E-03    -15.1590E-03     30.9459E-03    -15.6379E-03     30.5893E-03    -15.0662E-03     30.9426E-03
            1690     7.09260E-03     39.8464E-03    -4.14308E+06    -54.0664E+06     2.32974E+06     831.757E+03    -15.5404E-03     30.6677E-03    -15.1273E-03     26.7596E-03    -15.4878E-03     30.4017E-03    -15.0313E-03     26.7654E-03
            1691     6.20619E-03     39.8229E-03    -4.53395E+06    -55.7670E+06     1.13819E+06     746.565E+03    -15.3959E-03     30.4886E-03    -15.0927E-03     22.7959E-03    -15.3405E-03     30.2159E-03    -14.9996E-03     22.8016E-03
            1692     5.31974E-03     39.8032E-03    -5.04419E+06    -56.5914E+06     103.949E+03    -21.1917E+03    -15.2728E-03     30.3350E-03    -15.0623E-03     19.0437E-03    -15.2168E-03     30.0600E-03    -14.9724E-03     19.0404E-03
            1693     4.43323E-03     39.7869E-03    -5.93552E+06    -56.2217E+06    -550.675E+03     293.969E+03    -15.1719E-03     30.2083E-03    -15.0364E-03     15.5052E-03    -15.1197E-03     29.9371E-03    -14.9491E-03     15.5067E-03
            1694     3.54665E-03     39.7738E-03    -7.40963E+06    -57.8662E+06    -2.45304E+06     825.663E+03    -15.0908E-03     30.1023E-03    -15.0116E-03     12.1559E-03    -15.0406E-03     29.8276E-03    -14.9292E-03     12.1648E-03
            1695     2.66005E-03     39.7638E-03    -8.68158E+06    -57.1387E+06    -5.54340E+06     429.177E+03    -15.0192E-03     30.0010E-03    -14.9818E-03     8.99165E-03    -14.9719E-03     29.7360E-03    -14.9140E-03     8.99589E-03
            1696     1.77335E-03     39.7567E-03    -9.65569E+06    -58.3479E+06    -7.92657E+06    -10.6663E+03    -14.9777E-03     29.9406E-03    -14.9629E-03     5.96087E-03    -14.9299E-03     29.6744E-03    -14.9039E-03     5.95989E-03
            1697     886.723E-06     39.7525E-03    -10.2243E+06    -59.1337E+06    -9.72075E+06     90.8239E+03    -14.9609E-03     29.9035E-03    -14.9426E-03     3.20132E-03    -14.9121E-03     29.6370E-03    -14.8906E-03     3.20203E-03
            1698     16.8379E-03     39.5680E-03    -3.42560E+06     142.470E+06     32.3689E+06    -470.904E+03    -25.3109E-03     40.6990E-03    -15.3881E-03     233.172E-03    -30.9051E-03     46.6929E-03    -15.4279E-03     237.310E-03
            1699     15.9522E-03     39.3777E-03    -2.49475E+06     74.3136E+06    -13.8233E+06     741.203E+03    -21.6401E-03     36.8619E-03    -15.2218E-03     161.171E-03    -23.3618E-03     38.8786E-03    -15.3951E-03     161.668E-03
            1700     15.0672E-03     39.2658E-03    -937.542E+03     17.5783E+06    -8.15751E+06     971.173E+03    -18.2129E-03     33.5033E-03    -15.2904E-03     94.0641E-03    -18.4822E-03     33.8553E-03    -15.3553E-03     94.0480E-03
            1701     14.1810E-03     39.2023E-03    -980.608E+03    -17.9224E+06    -8.62252E+06    -363.557E+03    -16.9043E-03     32.2059E-03    -15.3016E-03     63.2069E-03    -16.9464E-03     32.2059E-03    -15.3173E-03     63.1599E-03
            1702     13.2954E-03     39.1478E-03    -246.735E+03    -36.5332E+06    -8.74058E+06    -529.287E+03    -16.8755E-03     32.1613E-03    -15.2859E-03     59.2248E-03    -16.8565E-03     32.0371E-03    -15.2762E-03     59.1810E-03
            1703     12.4095E-03     39.0917E-03    -189.942E+03    -39.1222E+06     178.145E+03    -927.362E+03    -16.6704E-03     31.9601E-03    -15.2897E-03     55.3827E-03    -16.6428E-03     31.7924E-03    -15.2318E-03     55.3424E-03
            1704     11.5236E-03     39.0443E-03    -1.83728E+06    -43.2019E+06     1.05184E+06    -865.463E+03    -16.3910E-03     31.6497E-03    -15.2587E-03     48.3826E-03    -16.3553E-03     31.4511E-03    -15.1882E-03     48.3504E-03
            1705     10.6376E-03     39.0011E-03    -3.51122E+06    -50.2757E+06    -74.7989E+03    -226.120E+03    -16.2386E-03     31.4597E-03    -15.2211E-03     43.8387E-03    -16.1933E-03     31.2237E-03    -15.1435E-03     43.8201E-03
            1706     9.75167E-03     38.9620E-03    -4.04146E+06    -51.7312E+06     2.81702E+06     252.401E+03    -16.0457E-03     31.2383E-03    -15.1926E-03     39.4256E-03    -16.0013E-03     30.9878E-03    -15.0977E-03     39.4173E-03
            1707     8.86551E-03     38.9270E-03    -4.27225E+06    -51.2631E+06     3.14301E+06     642.963E+03    -15.8581E-03     31.0070E-03    -15.1489E-03     35.0196E-03    -15.8138E-03     30.7564E-03    -15.0527E-03     35.0193E-03
            1708     7.97936E-03     38.8961E-03    -5.43206E+06    -52.8067E+06     1.63060E+06     551.691E+03    -15.6797E-03     30.7816E-03    -15.1019E-03     30.7300E-03    -15.6352E-03     30.5257E-03    -15.0093E-03     30.7307E-03
            1709     7.09300E-03     38.8689E-03    -6.50249E+06    -54.3474E+06     421.398E+03     228.416E+03    -15.5098E-03     30.5686E-03    -15.0588E-03     26.5652E-03    -15.4658E-03     30.3074E-03    -14.9685E-03     26.5633E-03
            1710     6.20666E-03     38.8458E-03    -6.76418E+06    -55.0255E+06    -120.656E+03     39.5119E+03    -15.3571E-03     30.3771E-03    -15.0201E-03     22.6013E-03    -15.3121E-03     30.1131E-03    -14.9311E-03     22.5980E-03
            1711     5.32015E-03     38.8261E-03    -7.40439E+06    -56.4156E+06    -2.16406E+06    -42.9105E+03    -15.2133E-03     30.1938E-03    -14.9805E-03     18.8745E-03    -15.1661E-03     29.9263E-03    -14.8988E-03     18.8710E-03
            1712     4.43356E-03     38.8100E-03    -8.46859E+06    -57.0826E+06    -3.37351E+06     294.645E+03    -15.0995E-03     30.0497E-03    -14.9503E-03     15.3588E-03    -15.0546E-03     29.7819E-03    -14.8721E-03     15.3602E-03
            1713     3.54693E-03     38.7969E-03    -8.97467E+06    -57.3530E+06    -3.72831E+06     342.082E+03    -15.0149E-03     29.9419E-03    -14.9270E-03     12.0358E-03    -14.9715E-03     29.6739E-03    -14.8495E-03     12.0385E-03
            1714     2.66025E-03     38.7870E-03    -9.32428E+06    -56.6977E+06    -5.98225E+06     99.0927E+03    -14.9412E-03     29.8386E-03    -14.8973E-03     8.89948E-03    -14.8971E-03     29.5774E-03    -14.8315E-03     8.89947E-03
            1715     1.77353E-03     38.7800E-03    -9.79756E+06    -58.1972E+06    -8.72591E+06     15.1684E+03    -14.8916E-03     29.7673E-03    -14.8757E-03     5.89908E-03    -14.8436E-03     29.5032E-03    -14.8207E-03     5.89844E-03
            1716     886.727E-06     38.7758E-03    -10.3491E+06    -59.2560E+06    -9.90973E+06    -75.0828E+03    -14.8869E-03     29.7379E-03    -14.8510E-03     3.17996E-03    -14.8382E-03     29.4712E-03    -14.7996E-03     3.17854E-03
            1717     16.8383E-03     38.5895E-03    -2.91725E+06     143.104E+06     31.7505E+06    -16.7732E+03    -25.4413E-03     40.8207E-03    -15.3794E-03     232.886E-03    -31.0109E-03     46.7959E-03    -15.4239E-03     237.004E-03
            1718     15.9528E-03     38.3986E-03    -3.60340E+06     73.1361E+06    -15.8586E+06    -1.06672E+06    -21.6649E-03     36.8705E-03    -15.2057E-03     160.854E-03    -23.3822E-03     38.8807E-03    -15.3858E-03     161.324E-03
            1719     15.0668E-03     38.2874E-03    -1.47744E+06     17.2644E+06    -9.90273E+06    -641.205E+03    -18.2587E-03     33.5285E-03    -15.2698E-03     93.6539E-03    -18.5260E-03     33.8806E-03    -15.3422E-03     93.6166E-03
            1720     14.1814E-03     38.2240E-03     230.320E+03    -17.2839E+06    -8.59031E+06     327.046E+03    -17.0109E-03     32.2906E-03    -15.2797E-03     63.0869E-03    -17.0479E-03     32.2920E-03    -15.2979E-03     63.0483E-03
            1721     13.2956E-03     38.1695E-03    -243.589E+03    -36.1682E+06    -8.73057E+06    -201.381E+03    -16.9171E-03     32.1768E-03    -15.2597E-03     59.0429E-03    -16.8984E-03     32.0542E-03    -15.2505E-03     59.0033E-03
            1722     12.4099E-03     38.1136E-03    -1.08363E+06    -39.4119E+06     308.081E+03     116.867E+03    -16.7239E-03     31.9844E-03    -15.2604E-03     55.0962E-03    -16.7004E-03     31.8162E-03    -15.2002E-03     55.0693E-03
            1723     11.5241E-03     38.0663E-03    -2.15236E+06    -43.5666E+06     730.059E+03     726.602E+03    -16.4391E-03     31.6586E-03    -15.2195E-03     48.1129E-03    -16.4038E-03     31.4589E-03    -15.1496E-03     48.1012E-03
            1724     10.6382E-03     38.0232E-03    -3.04749E+06    -50.1593E+06    -391.301E+03     463.717E+03    -16.2630E-03     31.4365E-03    -15.1735E-03     43.5858E-03    -16.2150E-03     31.2007E-03    -15.0983E-03     43.5761E-03
            1725     9.75212E-03     37.9843E-03    -4.09381E+06    -52.1816E+06     2.68356E+06     336.754E+03    -16.0631E-03     31.2042E-03    -15.1411E-03     39.1296E-03    -16.0182E-03     30.9516E-03    -15.0460E-03     39.1225E-03
            1726     8.86605E-03     37.9495E-03    -5.17661E+06    -51.2803E+06     2.36783E+06     461.074E+03    -15.8618E-03     30.9496E-03    -15.0879E-03     34.7609E-03    -15.8207E-03     30.7013E-03    -14.9942E-03     34.7584E-03
            1727     7.97983E-03     37.9186E-03    -5.52548E+06    -52.7362E+06     2.35131E+06     638.072E+03    -15.6754E-03     30.7151E-03    -15.0398E-03     30.4478E-03    -15.6325E-03     30.4586E-03    -14.9435E-03     30.4497E-03
            1728     7.09357E-03     37.8918E-03    -6.15287E+06    -53.4454E+06     249.100E+03     172.604E+03    -15.4823E-03     30.4659E-03    -14.9836E-03     26.3197E-03    -15.4376E-03     30.2089E-03    -14.8960E-03     26.3171E-03
            1729     6.20709E-03     37.8687E-03    -7.15627E+06    -55.0802E+06    -1.11952E+06    -440.899E+03    -15.3130E-03     30.2506E-03    -14.9376E-03     22.3783E-03    -15.2684E-03     29.9883E-03    -14.8529E-03     22.3688E-03
            1730     5.32059E-03     37.8493E-03    -8.33086E+06    -57.2069E+06    -1.72179E+06     360.038E+03    -15.1643E-03     30.0652E-03    -14.9009E-03     18.6512E-03    -15.1212E-03     29.7944E-03    -14.8145E-03     18.6529E-03
            1731     4.43397E-03     37.8331E-03    -9.90809E+06    -56.5842E+06    -4.23168E+06     474.672E+03    -15.0233E-03     29.8807E-03    -14.8574E-03     15.1820E-03    -14.9851E-03     29.6187E-03    -14.7822E-03     15.1858E-03
            1732     3.54727E-03     37.8203E-03    -11.2175E+06    -56.7856E+06    -6.53685E+06    -498.358E+03    -14.9167E-03     29.7396E-03    -14.8229E-03     11.9026E-03    -14.8812E-03     29.4816E-03    -14.7570E-03     11.8944E-03
            1733     2.66049E-03     37.8103E-03    -11.9054E+06    -57.1652E+06    -8.77831E+06    -514.371E+03    -14.8434E-03     29.6376E-03    -14.7941E-03     8.79217E-03    -14.8074E-03     29.3818E-03    -14.7379E-03     8.78427E-03
            1734     1.77368E-03     37.8034E-03    -12.5875E+06    -58.1538E+06    -10.8399E+06    -10.7045E+03    -14.7956E-03     29.5671E-03    -14.7715E-03     5.82050E-03    -14.7585E-03     29.3104E-03    -14.7232E-03     5.81955E-03
            1735     886.881E-06     37.7992E-03    -13.3994E+06    -59.3494E+06    -12.6653E+06    -155.080E+03    -14.7664E-03     29.5160E-03    -14.7496E-03     3.13768E-03    -14.7288E-03     29.2572E-03    -14.7074E-03     3.13524E-03
            1736     16.8385E-03     37.6104E-03    -2.79878E+06     143.826E+06     32.0938E+06    -274.740E+03    -25.6503E-03     41.0238E-03    -15.3736E-03     232.513E-03    -31.1975E-03     46.9786E-03    -15.4176E-03     236.592E-03
            1737     15.9527E-03     37.4200E-03    -2.78902E+06     74.2916E+06    -16.2865E+06    -1.16249E+06    -21.6753E-03     36.8625E-03    -15.1872E-03     160.714E-03    -23.3845E-03     38.8727E-03    -15.3723E-03     161.179E-03
            1738     15.0675E-03     37.3088E-03    -2.37479E+06     15.6619E+06    -11.5067E+06    -1.69408E+06    -18.3041E-03     33.5533E-03    -15.2492E-03     93.4405E-03    -18.5692E-03     33.8989E-03    -15.3260E-03     93.3890E-03
            1739     14.1816E-03     37.2456E-03    -1.46590E+06    -18.2626E+06    -9.73115E+06    -343.317E+03    -17.1204E-03     32.3754E-03    -15.2550E-03     62.9090E-03    -17.1626E-03     32.3758E-03    -15.2751E-03     62.8614E-03
            1740     13.2961E-03     37.1913E-03    -285.874E+03    -35.8618E+06    -8.26206E+06     831.713E+03    -17.0047E-03     32.2348E-03    -15.2301E-03     58.8072E-03    -16.9872E-03     32.1129E-03    -15.2190E-03     58.7808E-03
            1741     12.4104E-03     37.1354E-03    -1.18788E+06    -40.5151E+06     949.407E+03     1.46530E+06    -16.7835E-03     32.0092E-03    -15.2258E-03     54.7691E-03    -16.7596E-03     31.8346E-03    -15.1606E-03     54.7596E-03
            1742     11.5246E-03     37.0884E-03    -2.59359E+06    -43.0015E+06     1.41105E+06     1.65747E+06    -16.4815E-03     31.6569E-03    -15.1754E-03     47.7966E-03    -16.4501E-03     31.4595E-03    -15.1022E-03     47.7970E-03
            1743     10.6387E-03     37.0454E-03    -3.42131E+06    -49.3168E+06    -513.327E+03     831.929E+03    -16.2912E-03     31.4083E-03    -15.1171E-03     43.3128E-03    -16.2460E-03     31.1773E-03    -15.0432E-03     43.3079E-03
            1744     9.75278E-03     37.0067E-03    -3.80675E+06    -52.5068E+06     3.14499E+06     600.404E+03    -16.0811E-03     31.1617E-03    -15.0806E-03     38.8281E-03    -16.0348E-03     30.9064E-03    -14.9832E-03     38.8243E-03
            1745     8.86667E-03     36.9720E-03    -4.27232E+06    -50.8308E+06     2.44608E+06     469.149E+03    -15.8609E-03     30.8770E-03    -15.0160E-03     34.4636E-03    -15.8161E-03     30.6294E-03    -14.9239E-03     34.4612E-03
            1746     7.98048E-03     36.9413E-03    -4.85268E+06    -52.7966E+06     1.92076E+06     6.10359E+03    -15.6576E-03     30.6172E-03    -14.9596E-03     30.1644E-03    -15.6106E-03     30.3600E-03    -14.8664E-03     30.1582E-03
            1747     7.09413E-03     36.9147E-03    -5.14061E+06    -52.8861E+06     1.51896E+06     69.0541E+03    -15.4557E-03     30.3593E-03    -14.9036E-03     26.0202E-03    -15.4086E-03     30.1018E-03    -14.8118E-03     26.0163E-03
            1748     6.20769E-03     36.8918E-03    -6.23058E+06    -55.1416E+06    -57.7680E+03     188.551E+03    -15.2670E-03     30.1175E-03    -14.8506E-03     22.1003E-03    -15.2192E-03     29.8520E-03    -14.7619E-03     22.0990E-03
            1749     5.32111E-03     36.8724E-03    -7.76377E+06    -58.3341E+06    -671.051E+03     525.658E+03    -15.1047E-03     29.9143E-03    -14.8096E-03     18.4011E-03    -15.0587E-03     29.6356E-03    -14.7171E-03     18.4050E-03
            1750     4.43444E-03     36.8566E-03    -8.76370E+06    -55.3672E+06    -2.85949E+06     635.227E+03    -14.9454E-03     29.7033E-03    -14.7579E-03     14.9726E-03    -14.9052E-03     29.4437E-03    -14.6792E-03     14.9785E-03
            1751     3.54763E-03     36.8437E-03    -10.0924E+06    -56.0528E+06    -6.24540E+06    -172.256E+03    -14.8237E-03     29.5386E-03    -14.7149E-03     11.7374E-03    -14.7841E-03     29.2823E-03    -14.6502E-03     11.7335E-03
            1752     2.66079E-03     36.8340E-03    -11.9381E+06    -58.0980E+06    -9.01501E+06    -319.111E+03    -14.7423E-03     29.4273E-03    -14.6850E-03     8.66664E-03    -14.7048E-03     29.1673E-03    -14.6286E-03     8.66128E-03
            1753     1.77389E-03     36.8270E-03    -13.3465E+06    -58.1178E+06    -11.7077E+06     9.82016E+03    -14.6830E-03     29.3405E-03    -14.6575E-03     5.73668E-03    -14.6485E-03     29.0863E-03    -14.6124E-03     5.73601E-03
            1754     886.952E-06     36.8230E-03    -13.8511E+06    -59.4198E+06    -13.5031E+06    -194.805E+03    -14.6489E-03     29.2894E-03    -14.6405E-03     3.09804E-03    -14.6122E-03     29.0322E-03    -14.6018E-03     3.09510E-03
            1755     16.8385E-03     36.6313E-03    -3.03549E+06     144.698E+06     32.1509E+06    -738.530E+03    -25.8330E-03     41.2033E-03    -15.3703E-03     232.086E-03    -31.3662E-03     47.1462E-03    -15.4150E-03     236.134E-03
            1756     15.9532E-03     36.4413E-03    -3.60943E+06     75.0400E+06    -16.8552E+06    -1.45015E+06    -21.8109E-03     36.9816E-03    -15.1707E-03     160.156E-03    -23.5132E-03     38.9864E-03    -15.3586E-03     160.607E-03
            1757     15.0674E-03     36.3302E-03    -2.97751E+06     15.0137E+06    -12.3480E+06    -1.33837E+06    -18.3443E-03     33.5698E-03    -15.2255E-03     93.2355E-03    -18.6086E-03     33.9127E-03    -15.3047E-03     93.1881E-03
            1758     14.1821E-03     36.2672E-03    -2.86224E+06    -19.9121E+06    -11.1614E+06    -806.796E+03    -17.2306E-03     32.4550E-03    -15.2244E-03     62.7036E-03    -17.2751E-03     32.4510E-03    -15.2472E-03     62.6496E-03
            1759     13.2966E-03     36.2128E-03    -2.61730E+06    -37.2381E+06    -9.42619E+06     749.039E+03    -17.1074E-03     32.2994E-03    -15.1920E-03     58.5335E-03    -17.0977E-03     32.1755E-03    -15.1813E-03     58.5058E-03
            1760     12.4110E-03     36.1573E-03    -2.06218E+06    -41.1094E+06     868.858E+03     2.14992E+06    -16.8518E-03     32.0318E-03    -15.1800E-03     54.4614E-03    -16.8311E-03     31.8554E-03    -15.1131E-03     54.4606E-03
            1761     11.5253E-03     36.1103E-03    -2.31109E+06    -42.2401E+06     2.48289E+06     2.19261E+06    -16.5286E-03     31.6515E-03    -15.1229E-03     47.4856E-03    -16.4984E-03     31.4559E-03    -15.0459E-03     47.4929E-03
            1762     10.6394E-03     36.0677E-03    -2.95756E+06    -47.8739E+06     177.516E+03     1.31568E+06    -16.3209E-03     31.3738E-03    -15.0529E-03     43.0014E-03    -16.2763E-03     31.1482E-03    -14.9783E-03     43.0029E-03
            1763     9.75346E-03     36.0290E-03    -3.71027E+06    -52.5980E+06     2.78367E+06     441.419E+03    -16.0938E-03     31.0994E-03    -15.0055E-03     38.5212E-03    -16.0463E-03     30.8439E-03    -14.9100E-03     38.5155E-03
            1764     8.86741E-03     35.9946E-03    -4.26443E+06    -50.3872E+06     2.33006E+06     346.968E+03    -15.8528E-03     30.7863E-03    -14.9335E-03     34.1433E-03    -15.8083E-03     30.5410E-03    -14.8426E-03     34.1394E-03
            1765     7.98116E-03     35.9641E-03    -4.93797E+06    -52.2823E+06     1.32850E+06    -39.2066E+03    -15.6315E-03     30.4984E-03    -14.8669E-03     29.8530E-03    -15.5848E-03     30.2447E-03    -14.7773E-03     29.8463E-03
            1766     7.09484E-03     35.9377E-03    -6.13430E+06    -53.5050E+06     1.11667E+06    -28.1057E+03    -15.4133E-03     30.2204E-03    -14.8071E-03     25.7044E-03    -15.3696E-03     29.9618E-03    -14.7151E-03     25.6993E-03
            1767     6.20833E-03     35.9150E-03    -7.24428E+06    -55.3424E+06     23.5916E+03     677.211E+03    -15.2057E-03     29.9542E-03    -14.7484E-03     21.8010E-03    -15.1628E-03     29.6890E-03    -14.6575E-03     21.8061E-03
            1768     5.32170E-03     35.8959E-03    -8.36532E+06    -58.1884E+06    -1.62737E+06     570.775E+03    -15.0203E-03     29.7153E-03    -14.6950E-03     18.1521E-03    -14.9761E-03     29.4395E-03    -14.6066E-03     18.1566E-03
            1769     4.43494E-03     35.8800E-03    -9.23397E+06    -54.8464E+06    -3.46849E+06     31.8434E+03    -14.8482E-03     29.4878E-03    -14.6395E-03     14.7589E-03    -14.8103E-03     29.2324E-03    -14.5640E-03     14.7571E-03
            1770     3.54808E-03     35.8675E-03    -9.84914E+06    -55.8219E+06    -5.41248E+06     198.286E+03    -14.7212E-03     29.3198E-03    -14.5986E-03     11.5620E-03    -14.6819E-03     29.0630E-03    -14.5304E-03     11.5629E-03
            1771     2.66112E-03     35.8577E-03    -10.8948E+06    -58.3265E+06    -8.07385E+06     319.119E+03    -14.6298E-03     29.1950E-03    -14.5653E-03     8.53536E-03    -14.5881E-03     28.9310E-03    -14.5053E-03     8.53826E-03
            1772     1.77412E-03     35.8510E-03    -11.7369E+06    -57.9020E+06    -10.8595E+06     93.7183E+03    -14.5631E-03     29.0983E-03    -14.5351E-03     5.65203E-03    -14.5221E-03     28.8416E-03    -14.4885E-03     5.65246E-03
            1773     887.046E-06     35.8468E-03    -12.2100E+06    -59.5382E+06    -12.2780E+06    -41.4719E+03    -14.5358E-03     29.0530E-03    -14.5173E-03     3.02144E-03    -14.4925E-03     28.7911E-03    -14.4746E-03     3.02049E-03
            1774     16.8382E-03     35.6508E-03    -3.07793E+06     145.691E+06     32.4073E+06    -657.276E+03    -26.0125E-03     41.3768E-03    -15.3643E-03     231.592E-03    -31.5348E-03     47.3114E-03    -15.4091E-03     235.612E-03
            1775     15.9536E-03     35.4628E-03    -3.97565E+06     75.4885E+06    -17.2768E+06    -1.19141E+06    -21.9849E-03     37.1345E-03    -15.1496E-03     159.328E-03    -23.6750E-03     39.1286E-03    -15.3397E-03     159.773E-03
            1776     15.0681E-03     35.3517E-03    -3.85742E+06     14.4886E+06    -13.1305E+06    -1.06542E+06    -18.4540E-03     33.6470E-03    -15.1930E-03     92.9209E-03    -18.7191E-03     33.9880E-03    -15.2741E-03     92.8759E-03
            1777     14.1825E-03     35.2884E-03    -3.71934E+06    -20.9383E+06    -11.8663E+06    -323.880E+03    -17.2706E-03     32.4562E-03    -15.1856E-03     62.4040E-03    -17.3163E-03     32.4487E-03    -15.2091E-03     62.3563E-03
            1778     13.2972E-03     35.2345E-03    -3.35689E+06    -38.9170E+06    -10.2896E+06     561.572E+03    -17.1733E-03     32.3196E-03    -15.1463E-03     58.2166E-03    -17.1632E-03     32.1894E-03    -15.1365E-03     58.1864E-03
            1779     12.4116E-03     35.1790E-03    -3.03125E+06    -41.8725E+06     111.335E+03     1.52927E+06    -16.9292E-03     32.0541E-03    -15.1249E-03     54.1471E-03    -16.9110E-03     31.8761E-03    -15.0592E-03     54.1383E-03
            1780     11.5260E-03     35.1325E-03    -2.62414E+06    -41.6925E+06     2.33437E+06     1.93440E+06    -16.5914E-03     31.6490E-03    -15.0576E-03     47.1654E-03    -16.5631E-03     31.4565E-03    -14.9817E-03     47.1694E-03
            1781     10.6402E-03     35.0898E-03    -2.41625E+06    -46.5219E+06     514.371E+03     1.38405E+06    -16.3575E-03     31.3350E-03    -14.9774E-03     42.6655E-03    -16.3126E-03     31.1148E-03    -14.9039E-03     42.6679E-03
            1782     9.75432E-03     35.0515E-03    -2.72183E+06    -52.0704E+06     3.14336E+06     716.601E+03    -16.1089E-03     31.0301E-03    -14.9212E-03     38.1569E-03    -16.0576E-03     30.7752E-03    -14.8260E-03     38.1549E-03
            1783     8.86821E-03     35.0172E-03    -3.56567E+06    -50.3071E+06     2.68581E+06     350.551E+03    -15.8455E-03     30.6865E-03    -14.8410E-03     33.7754E-03    -15.7981E-03     30.4401E-03    -14.7494E-03     33.7717E-03
            1784     7.98201E-03     34.9871E-03    -4.57281E+06    -51.9008E+06     1.75656E+06     393.160E+03    -15.6010E-03     30.3671E-03    -14.7662E-03     29.4860E-03    -15.5536E-03     30.1141E-03    -14.6755E-03     29.4849E-03
            1785     7.09560E-03     34.9608E-03    -5.69825E+06    -53.8463E+06     1.10177E+06     385.045E+03    -15.3609E-03     30.0580E-03    -14.6971E-03     25.3550E-03    -15.3145E-03     29.7971E-03    -14.6053E-03     25.3553E-03
            1786     6.20906E-03     34.9384E-03    -6.73054E+06    -55.8109E+06     312.124E+03     538.434E+03    -15.1364E-03     29.7692E-03    -14.6329E-03     21.4743E-03    -15.0906E-03     29.5005E-03    -14.5406E-03     21.4777E-03
            1787     5.32237E-03     34.9194E-03    -7.62613E+06    -57.4031E+06    -825.158E+03     596.075E+03    -14.9306E-03     29.5041E-03    -14.5735E-03     17.8606E-03    -14.8850E-03     29.2300E-03    -14.4833E-03     17.8654E-03
            1788     4.43551E-03     34.9039E-03    -9.07185E+06    -54.3822E+06    -3.35628E+06     68.4333E+03    -14.7404E-03     29.2511E-03    -14.5107E-03     14.5158E-03    -14.7024E-03     28.9976E-03    -14.4355E-03     14.5145E-03
            1789     3.54853E-03     34.8913E-03    -10.6342E+06    -56.3976E+06    -5.70359E+06    -17.3264E+03    -14.6000E-03     29.0665E-03    -14.4665E-03     11.3658E-03    -14.5634E-03     28.8084E-03    -14.3978E-03     11.3639E-03
            1790     2.66148E-03     34.8818E-03    -11.5146E+06    -57.9711E+06    -8.44872E+06     273.014E+03    -14.4957E-03     28.9241E-03    -14.4284E-03     8.39464E-03    -14.4571E-03     28.6633E-03    -14.3699E-03     8.39698E-03
            1791     1.77434E-03     34.8750E-03    -12.1613E+06    -57.7093E+06    -11.0570E+06     115.780E+03    -14.4319E-03     28.8276E-03    -14.3958E-03     5.56887E-03    -14.3930E-03     28.5728E-03    -14.3498E-03     5.56960E-03
            1792     887.214E-06     34.8710E-03    -12.5168E+06    -59.5018E+06    -12.2701E+06     195.607E+03    -14.3981E-03     28.7695E-03    -14.3714E-03     2.94790E-03    -14.3565E-03     28.5081E-03    -14.3283E-03     2.95003E-03
            1793     16.8390E-03     34.6715E-03    -3.54362E+06     146.171E+06     32.2618E+06    -355.207E+03    -26.1442E-03     41.4940E-03    -15.3498E-03     231.074E-03    -31.6393E-03     47.4019E-03    -15.3953E-03     235.058E-03
            1794     15.9536E-03     34.4833E-03    -4.65230E+06     76.0056E+06    -17.4140E+06    -645.248E+03    -22.1122E-03     37.2375E-03    -15.1253E-03     158.715E-03    -23.7949E-03     39.2240E-03    -15.3158E-03     159.161E-03
            1795     15.0687E-03     34.3731E-03    -4.54622E+06     14.2485E+06    -13.6072E+06    -705.498E+03    -18.6484E-03     33.8036E-03    -15.1553E-03     92.4946E-03    -18.9146E-03     34.1437E-03    -15.2374E-03     92.4524E-03
            1796     14.1833E-03     34.3100E-03    -4.00888E+06    -21.8516E+06    -12.3947E+06    -290.237E+03    -17.3087E-03     32.4464E-03    -15.1377E-03     62.2452E-03    -17.3531E-03     32.4350E-03    -15.1622E-03     62.1979E-03
            1797     13.2979E-03     34.2560E-03    -3.34772E+06    -39.7991E+06    -10.6688E+06     444.713E+03    -17.2213E-03     32.3137E-03    -15.0924E-03     57.9390E-03    -17.2090E-03     32.1791E-03    -15.0832E-03     57.9073E-03
            1798     12.4124E-03     34.2009E-03    -2.88016E+06    -42.6004E+06    -217.969E+03     996.997E+03    -17.0064E-03     32.0683E-03    -15.0619E-03     53.7711E-03    -16.9856E-03     31.8867E-03    -14.9970E-03     53.7554E-03
            1799     11.5268E-03     34.1544E-03    -2.76992E+06    -41.5014E+06     2.16966E+06     1.23650E+06    -16.6539E-03     31.6376E-03    -14.9837E-03     46.7887E-03    -16.6262E-03     31.4464E-03    -14.9086E-03     46.7837E-03
            1800     10.6411E-03     34.1122E-03    -2.73941E+06    -45.7585E+06     437.796E+03     1.10449E+06    -16.3971E-03     31.2892E-03    -14.8922E-03     42.2831E-03    -16.3546E-03     31.0733E-03    -14.8197E-03     42.2820E-03
            1801     9.75521E-03     34.0740E-03    -3.02094E+06    -51.5250E+06     3.07749E+06     747.016E+03    -16.1220E-03     30.9472E-03    -14.8252E-03     37.7622E-03    -16.0728E-03     30.6954E-03    -14.7308E-03     37.7607E-03
            1802     8.86918E-03     34.0401E-03    -3.64589E+06    -50.2182E+06     2.53662E+06     648.904E+03    -15.8323E-03     30.5670E-03    -14.7347E-03     33.3762E-03    -15.7851E-03     30.3212E-03    -14.6439E-03     33.3765E-03
            1803     7.98290E-03     34.0101E-03    -4.40574E+06    -51.8461E+06     1.56419E+06     605.534E+03    -15.5587E-03     30.2087E-03    -14.6500E-03     29.0944E-03    -15.5102E-03     29.9560E-03    -14.5606E-03     29.0962E-03
            1804     7.09649E-03     33.9842E-03    -5.17518E+06    -53.7588E+06     1.31853E+06     613.057E+03    -15.2983E-03     29.8725E-03    -14.5742E-03     24.9754E-03    -15.2497E-03     29.6109E-03    -14.4822E-03     24.9788E-03
            1805     6.20987E-03     33.9619E-03    -6.15876E+06    -55.8349E+06     577.234E+03     547.194E+03    -15.0541E-03     29.5569E-03    -14.5028E-03     21.1196E-03    -15.0058E-03     29.2868E-03    -14.4100E-03     21.1231E-03
            1806     5.32309E-03     33.9433E-03    -7.26378E+06    -57.1422E+06    -316.128E+03     460.804E+03    -14.8293E-03     29.2671E-03    -14.4377E-03     17.5421E-03    -14.7830E-03     28.9930E-03    -14.3459E-03     17.5453E-03
            1807     4.43615E-03     33.9278E-03    -8.29136E+06    -53.8702E+06    -2.40787E+06     432.156E+03    -14.6241E-03     28.9944E-03    -14.3703E-03     14.2414E-03    -14.5843E-03     28.7409E-03    -14.2922E-03     14.2449E-03
            1808     3.54908E-03     33.9156E-03    -9.62214E+06    -56.5095E+06    -4.71985E+06     190.239E+03    -14.4728E-03     28.7945E-03    -14.3217E-03     11.1343E-03    -14.4324E-03     28.5330E-03    -14.2494E-03     11.1351E-03
            1809     2.66188E-03     33.9061E-03    -11.1446E+06    -57.9846E+06    -7.54298E+06     138.012E+03    -14.3548E-03     28.6345E-03    -14.2797E-03     8.22033E-03    -14.3156E-03     28.3717E-03    -14.2171E-03     8.22095E-03
            1810     1.77463E-03     33.8995E-03    -12.2822E+06    -57.4555E+06    -10.6158E+06     215.485E+03    -14.2739E-03     28.5173E-03    -14.2434E-03     5.46754E-03    -14.2366E-03     28.2633E-03    -14.1954E-03     5.46957E-03
            1811     887.317E-06     33.8954E-03    -12.9988E+06    -59.3620E+06    -12.4635E+06     38.8658E+03    -14.2436E-03     28.4587E-03    -14.2151E-03     2.86891E-03    -14.2043E-03     28.1990E-03    -14.1724E-03     2.86903E-03
            1812     16.8389E-03     33.6921E-03    -3.34414E+06     146.648E+06     32.7217E+06     218.851E+03    -26.4057E-03     41.7419E-03    -15.3363E-03     230.421E-03    -31.8655E-03     47.6155E-03    -15.3804E-03     234.368E-03
            1813     15.9543E-03     33.5039E-03    -4.26947E+06     76.3933E+06    -17.0013E+06    -93.7175E+03    -22.2454E-03     37.3428E-03    -15.0974E-03     158.134E-03    -23.9150E-03     39.3178E-03    -15.2870E-03     158.575E-03
            1814     15.0693E-03     33.3943E-03    -4.10272E+06     14.1496E+06    -13.4990E+06    -392.867E+03    -18.7274E-03     33.8445E-03    -15.1171E-03     91.9791E-03    -18.9886E-03     34.1806E-03    -15.1992E-03     91.9400E-03
            1815     14.1840E-03     33.3316E-03    -3.79755E+06    -22.3970E+06    -12.5481E+06    -199.540E+03    -17.4659E-03     32.5545E-03    -15.0886E-03     62.0846E-03    -17.5077E-03     32.5397E-03    -15.1134E-03     62.0380E-03
            1816     13.2987E-03     33.2776E-03    -3.18957E+06    -40.4799E+06    -10.9177E+06     206.530E+03    -17.3303E-03     32.3610E-03    -15.0307E-03     57.6904E-03    -17.3154E-03     32.2228E-03    -15.0220E-03     57.6556E-03
            1817     12.4133E-03     33.2226E-03    -2.74680E+06    -42.9425E+06    -422.702E+03     628.072E+03    -17.0747E-03     32.0636E-03    -14.9888E-03     53.3672E-03    -17.0521E-03     31.8799E-03    -14.9247E-03     53.3469E-03
            1818     11.5278E-03     33.1765E-03    -2.74285E+06    -41.5591E+06     1.99253E+06     856.873E+03    -16.7096E-03     31.6090E-03    -14.8994E-03     46.3828E-03    -16.6812E-03     31.4175E-03    -14.8252E-03     46.3731E-03
            1819     10.6421E-03     33.1344E-03    -2.83179E+06    -45.3847E+06     362.590E+03     846.405E+03    -16.4336E-03     31.2300E-03    -14.7964E-03     41.8492E-03    -16.3918E-03     31.0160E-03    -14.7247E-03     41.8449E-03
            1820     9.75629E-03     33.0966E-03    -3.13859E+06    -51.2265E+06     3.05097E+06     745.709E+03    -16.1332E-03     30.8514E-03    -14.7182E-03     37.3224E-03    -16.0848E-03     30.6012E-03    -14.6241E-03     37.3210E-03
            1821     8.87020E-03     33.0629E-03    -3.70541E+06    -50.1852E+06     2.49691E+06     662.263E+03    -15.8139E-03     30.4306E-03    -14.6167E-03     32.9264E-03    -15.7669E-03     30.1850E-03    -14.5260E-03     32.9270E-03
            1822     7.98395E-03     33.0333E-03    -4.32049E+06    -51.7330E+06     1.35613E+06     715.833E+03    -15.5105E-03     30.0313E-03    -14.5207E-03     28.6601E-03    -15.4614E-03     29.7792E-03    -14.4327E-03     28.6635E-03
            1823     7.09745E-03     33.0076E-03    -5.16820E+06    -53.6791E+06     1.05002E+06     699.953E+03    -15.2235E-03     29.6594E-03    -14.4358E-03     24.5619E-03    -15.1745E-03     29.3984E-03    -14.3453E-03     24.5665E-03
            1824     6.21077E-03     32.9857E-03    -6.08978E+06    -55.5622E+06     601.721E+03     626.143E+03    -14.9581E-03     29.3156E-03    -14.3575E-03     20.7322E-03    -14.9098E-03     29.0467E-03    -14.2651E-03     20.7368E-03
            1825     5.32391E-03     32.9673E-03    -7.19731E+06    -56.9941E+06    -260.852E+03     487.371E+03    -14.7158E-03     29.0013E-03    -14.2855E-03     17.1941E-03    -14.6694E-03     28.7277E-03    -14.1937E-03     17.1977E-03
            1826     4.43686E-03     32.9522E-03    -8.49390E+06    -53.6588E+06    -2.33605E+06     353.430E+03    -14.4925E-03     28.7044E-03    -14.2119E-03     13.9481E-03    -14.4542E-03     28.4522E-03    -14.1334E-03     13.9506E-03
            1827     3.54964E-03     32.9400E-03    -9.61832E+06    -56.1883E+06    -4.29685E+06     248.950E+03    -14.3305E-03     28.4889E-03    -14.1584E-03     10.8966E-03    -14.2911E-03     28.2283E-03    -14.0844E-03     10.8982E-03
            1828     2.66236E-03     32.9308E-03    -10.6806E+06    -58.0713E+06    -6.78744E+06     155.533E+03    -14.2023E-03     28.3140E-03    -14.1117E-03     8.03635E-03    -14.1617E-03     28.0491E-03    -14.0460E-03     8.03722E-03
            1829     1.77493E-03     32.9241E-03    -11.6597E+06    -57.2646E+06    -9.83772E+06     182.518E+03    -14.0988E-03     28.1716E-03    -14.0728E-03     5.34694E-03    -14.0598E-03     27.9165E-03    -14.0220E-03     5.34856E-03
            1830     887.472E-06     32.9202E-03    -12.2232E+06    -59.1341E+06    -11.8878E+06     53.7597E+03    -14.0786E-03     28.1175E-03    -14.0389E-03     2.81587E-03    -14.0366E-03     27.8570E-03    -13.9949E-03     2.81619E-03
            1831     16.8393E-03     32.7115E-03    -3.28317E+06     146.524E+06     33.3675E+06     348.111E+03    -26.6999E-03     42.0281E-03    -15.3282E-03     229.818E-03    -32.1306E-03     47.8706E-03    -15.3691E-03     233.721E-03
            1832     15.9549E-03     32.5247E-03    -3.83494E+06     76.8271E+06    -16.4310E+06     442.057E+03    -22.4586E-03     37.5293E-03    -15.0707E-03     157.419E-03    -24.1098E-03     39.4873E-03    -15.2587E-03     157.852E-03
            1833     15.0697E-03     32.4154E-03    -3.33582E+06     14.4674E+06    -13.1236E+06     208.194E+03    -18.8667E-03     33.9421E-03    -15.0754E-03     91.5256E-03    -19.1219E-03     34.2748E-03    -15.1572E-03     91.4928E-03
            1834     14.1846E-03     32.3529E-03    -3.08522E+06    -22.5189E+06    -12.3175E+06    -27.6618E+03    -17.6436E-03     32.6772E-03    -15.0336E-03     61.6521E-03    -17.6813E-03     32.6597E-03    -15.0580E-03     61.6072E-03
            1835     13.2997E-03     32.2990E-03    -2.68621E+06    -40.8490E+06    -10.8747E+06     122.818E+03    -17.4522E-03     32.4134E-03    -14.9612E-03     57.3001E-03    -17.4339E-03     32.2721E-03    -14.9524E-03     57.2642E-03
            1836     12.4144E-03     32.2445E-03    -2.50290E+06    -43.3130E+06    -540.140E+03     441.771E+03    -17.1501E-03     32.0564E-03    -14.9063E-03     52.9485E-03    -17.1252E-03     31.8703E-03    -14.8425E-03     52.9259E-03
            1837     11.5289E-03     32.1985E-03    -2.62462E+06    -41.5668E+06     1.89251E+06     635.330E+03    -16.7641E-03     31.5686E-03    -14.8046E-03     45.9356E-03    -16.7346E-03     31.3768E-03    -14.7310E-03     45.9232E-03
            1838     10.6433E-03     32.1569E-03    -2.83351E+06    -45.3178E+06     281.976E+03     716.561E+03    -16.4653E-03     31.1547E-03    -14.6894E-03     41.3756E-03    -16.4233E-03     30.9410E-03    -14.6182E-03     41.3698E-03
            1839     9.75742E-03     32.1193E-03    -3.21573E+06    -51.0341E+06     3.03671E+06     724.424E+03    -16.1400E-03     30.7391E-03    -14.5991E-03     36.8321E-03    -16.0921E-03     30.4899E-03    -14.5053E-03     36.8306E-03
            1840     8.87139E-03     32.0861E-03    -3.81129E+06    -50.0640E+06     2.52057E+06     642.984E+03    -15.7901E-03     30.2761E-03    -14.4860E-03     32.4280E-03    -15.7437E-03     30.0311E-03    -14.3953E-03     32.4284E-03
            1841     7.98506E-03     32.0567E-03    -4.40976E+06    -51.8120E+06     1.14663E+06     689.281E+03    -15.4552E-03     29.8334E-03    -14.3782E-03     28.1773E-03    -15.4060E-03     29.5813E-03    -14.2909E-03     28.1804E-03
            1842     7.09854E-03     32.0314E-03    -5.04500E+06    -53.5545E+06     660.201E+03     860.639E+03    -15.1384E-03     29.4206E-03    -14.2822E-03     24.1091E-03    -15.0884E-03     29.1606E-03    -14.1939E-03     24.1158E-03
            1843     6.21177E-03     32.0097E-03    -6.08366E+06    -55.2665E+06     419.051E+03     766.553E+03    -14.8518E-03     29.0480E-03    -14.1962E-03     20.3128E-03    -14.8036E-03     28.7808E-03    -14.1051E-03     20.3194E-03
            1844     5.32480E-03     31.9917E-03    -7.25502E+06    -56.6309E+06     37.4416E+03     499.703E+03    -14.5919E-03     28.7102E-03    -14.1183E-03     16.8098E-03    -14.5467E-03     28.4381E-03    -14.0255E-03     16.8136E-03
            1845     4.43763E-03     31.9767E-03    -8.25057E+06    -53.3618E+06    -1.74506E+06     157.496E+03    -14.3497E-03     28.3879E-03    -14.0382E-03     13.6163E-03    -14.3115E-03     28.1360E-03    -13.9575E-03     13.6163E-03
            1846     3.55031E-03     31.9648E-03    -9.27075E+06    -56.0794E+06    -3.94320E+06    -56.3149E+03    -14.1661E-03     28.1439E-03    -13.9778E-03     10.6336E-03    -14.1257E-03     27.8829E-03    -13.9028E-03     10.6313E-03
            1847     2.66283E-03     31.9557E-03    -10.3647E+06    -58.1371E+06    -6.74580E+06     30.3012E+03    -14.0274E-03     27.9534E-03    -13.9261E-03     7.84455E-03    -13.9852E-03     27.6876E-03    -13.8605E-03     7.84384E-03
            1848     1.77530E-03     31.9493E-03    -11.2908E+06    -57.1977E+06    -9.86851E+06     159.506E+03    -13.9234E-03     27.8048E-03    -13.8814E-03     5.22058E-03    -13.8826E-03     27.5495E-03    -13.8314E-03     5.22193E-03
            1849     887.641E-06     31.9453E-03    -11.9754E+06    -58.8449E+06    -11.6714E+06     220.477E+03    -13.8762E-03     27.7301E-03    -13.8539E-03     2.78748E-03    -13.8336E-03     27.4704E-03    -13.8096E-03     2.78995E-03
            1850     16.8392E-03     31.7306E-03    -3.16245E+06     146.070E+06     33.4533E+06     487.947E+03    -26.9406E-03     42.2595E-03    -15.3189E-03     229.308E-03    -32.3441E-03     48.0733E-03    -15.3588E-03     233.171E-03
            1851     15.9550E-03     31.5451E-03    -3.99166E+06     77.0676E+06    -16.3011E+06     663.165E+03    -22.8190E-03     37.8599E-03    -15.0409E-03     156.276E-03    -24.4520E-03     39.7996E-03    -15.2284E-03     156.694E-03
            1852     15.0707E-03     31.4364E-03    -3.51735E+06     15.2063E+06    -12.9640E+06     352.430E+03    -19.1164E-03     34.1384E-03    -15.0220E-03     90.6755E-03    -19.3706E-03     34.4717E-03    -15.1038E-03     90.6419E-03
            1853     14.1858E-03     31.3741E-03    -2.85855E+06    -22.3868E+06    -12.3228E+06     80.3764E+03    -17.6960E-03     32.6614E-03    -14.9654E-03     61.2326E-03    -17.7318E-03     32.6433E-03    -14.9904E-03     61.1892E-03
            1854     13.3006E-03     31.3206E-03    -2.39135E+06    -41.2335E+06    -11.0615E+06     208.426E+03    -17.5406E-03     32.4235E-03    -14.8829E-03     56.9651E-03    -17.5195E-03     32.2797E-03    -14.8750E-03     56.9302E-03
            1855     12.4155E-03     31.2662E-03    -2.21345E+06    -43.5249E+06    -571.793E+03     449.428E+03    -17.2493E-03     32.0650E-03    -14.8157E-03     52.5122E-03    -17.2222E-03     31.8772E-03    -14.7522E-03     52.4898E-03
            1856     11.5301E-03     31.2207E-03    -2.51163E+06    -41.6344E+06     1.79129E+06     608.155E+03    -16.8250E-03     31.5248E-03    -14.6999E-03     45.4746E-03    -16.7944E-03     31.3324E-03    -14.6269E-03     45.4620E-03
            1857     10.6445E-03     31.1792E-03    -2.83627E+06    -45.2963E+06     139.878E+03     687.166E+03    -16.5005E-03     31.0716E-03    -14.5711E-03     40.8779E-03    -16.4582E-03     30.8580E-03    -14.5006E-03     40.8720E-03
            1858     9.75874E-03     31.1422E-03    -3.24666E+06    -50.9586E+06     2.97178E+06     724.322E+03    -16.1451E-03     30.6128E-03    -14.4677E-03     36.2969E-03    -16.0973E-03     30.3639E-03    -14.3742E-03     36.2955E-03
            1859     8.87264E-03     31.1092E-03    -3.89794E+06    -49.8538E+06     2.65072E+06     682.798E+03    -15.7612E-03     30.1037E-03    -14.3425E-03     31.8822E-03    -15.7157E-03     29.8597E-03    -14.2513E-03     31.8833E-03
            1860     7.98634E-03     31.0803E-03    -4.55732E+06    -51.8455E+06     1.31396E+06     614.640E+03    -15.3943E-03     29.6176E-03    -14.2233E-03     27.6432E-03    -15.3460E-03     29.3652E-03    -14.1349E-03     27.6455E-03
            1861     7.09971E-03     31.0553E-03    -5.14353E+06    -53.7180E+06     456.751E+03     797.084E+03    -15.0484E-03     29.1629E-03    -14.1145E-03     23.6081E-03    -14.9982E-03     28.9025E-03    -14.0269E-03     23.6142E-03
            1862     6.21286E-03     31.0341E-03    -5.76429E+06    -54.8123E+06     539.581E+03     884.192E+03    -14.7354E-03     28.7542E-03    -14.0189E-03     19.8501E-03    -14.6864E-03     28.4887E-03    -13.9283E-03     19.8582E-03
            1863     5.32579E-03     31.0162E-03    -6.67880E+06    -55.9608E+06     728.583E+03     325.780E+03    -14.4528E-03     28.3873E-03    -13.9345E-03     16.3938E-03    -14.4067E-03     28.1167E-03    -13.8400E-03     16.3954E-03
            1864     4.43851E-03     31.0016E-03    -7.74463E+06    -53.1057E+06    -1.45993E+06    -142.506E+03    -14.1889E-03     28.0345E-03    -13.8456E-03     13.2669E-03    -14.1489E-03     27.7827E-03    -13.7647E-03     13.2631E-03
            1865     3.55100E-03     30.9899E-03    -8.92007E+06    -56.1813E+06    -4.17617E+06    -103.730E+03    -13.9860E-03     27.7640E-03    -13.7780E-03     10.3503E-03    -13.9433E-03     27.5022E-03    -13.7044E-03     10.3475E-03
            1866     2.66339E-03     30.9810E-03    -10.2139E+06    -58.3402E+06    -7.13429E+06     103.139E+03    -13.8351E-03     27.5573E-03    -13.7222E-03     7.62862E-03    -13.7913E-03     27.2908E-03    -13.6585E-03     7.62889E-03
            1867     1.77562E-03     30.9747E-03    -11.2712E+06    -57.1699E+06    -10.0380E+06     310.757E+03    -13.7274E-03     27.4018E-03    -13.6744E-03     5.07320E-03    -13.6863E-03     27.1469E-03    -13.6253E-03     5.07653E-03
            1868     887.867E-06     30.9709E-03    -11.7160E+06    -58.4348E+06    -11.3934E+06     190.203E+03    -13.6618E-03     27.3135E-03    -13.6516E-03     2.71606E-03    -13.6190E-03     27.0550E-03    -13.6069E-03     2.71815E-03
            1869     16.8396E-03     30.7501E-03    -3.35033E+06     145.688E+06     34.0602E+06     613.153E+03    -27.3702E-03     42.6685E-03    -15.2983E-03     228.395E-03    -32.7372E-03     48.4420E-03    -15.3344E-03     232.197E-03
            1870     15.9560E-03     30.5646E-03    -3.72370E+06     77.5246E+06    -15.2961E+06     545.483E+03    -23.0215E-03     38.0187E-03    -14.9972E-03     154.793E-03    -24.6317E-03     39.9353E-03    -15.1807E-03     155.191E-03
            1871     15.0719E-03     30.4573E-03    -2.90971E+06     15.6514E+06    -12.7600E+06     358.291E+03    -19.1181E-03     34.0795E-03    -14.9614E-03     89.9118E-03    -19.3660E-03     34.4096E-03    -15.0436E-03     89.8780E-03
            1872     14.1867E-03     30.3957E-03    -2.59945E+06    -22.4260E+06    -12.3409E+06      351.58E+03    -17.7838E-03     32.6809E-03    -14.8971E-03     61.2176E-03    -17.8177E-03     32.6617E-03    -14.9225E-03     61.1775E-03
            1873     13.3017E-03     30.3419E-03    -2.25576E+06    -41.3908E+06    -11.1602E+06     371.817E+03    -17.6875E-03     32.4894E-03    -14.8020E-03     56.6946E-03    -17.6650E-03     32.3444E-03    -14.7945E-03     56.6617E-03
            1874     12.4167E-03     30.2880E-03    -2.13408E+06    -43.7369E+06    -750.241E+03     546.099E+03    -17.3617E-03     32.0805E-03    -14.7189E-03     52.0567E-03    -17.3332E-03     31.8914E-03    -14.6561E-03     52.0356E-03
            1875     11.5314E-03     30.2427E-03    -2.43657E+06    -41.6757E+06     1.73452E+06     709.413E+03    -16.9147E-03     31.5021E-03    -14.5874E-03     44.9803E-03    -16.8833E-03     31.3091E-03    -14.5148E-03     44.9691E-03
            1876     10.6459E-03     30.2018E-03    -2.83013E+06    -45.2447E+06     76.5655E+03     761.507E+03    -16.5479E-03     30.9905E-03    -14.4426E-03     40.3321E-03    -16.5052E-03     30.7770E-03    -14.3725E-03     40.3273E-03
            1877     9.76011E-03     30.1650E-03    -3.34680E+06    -50.8993E+06     2.94398E+06     775.076E+03    -16.1519E-03     30.4763E-03    -14.3245E-03     35.7125E-03    -16.1044E-03     30.2278E-03    -14.2311E-03     35.7120E-03
            1878     8.87408E-03     30.1326E-03    -4.08107E+06    -49.7165E+06     2.74314E+06     789.159E+03    -15.7285E-03     29.9143E-03    -14.1858E-03     31.2854E-03    -15.6841E-03     29.6709E-03    -14.0941E-03     31.2880E-03
            1879     7.98767E-03     30.1041E-03    -4.99457E+06    -51.6570E+06     1.49274E+06     730.128E+03    -15.3304E-03     29.3844E-03    -14.0540E-03     27.0649E-03    -15.2847E-03     29.1333E-03    -13.9644E-03     27.0688E-03
            1880     7.10104E-03     30.0796E-03    -6.03247E+06    -54.0652E+06     311.938E+03     856.280E+03    -14.9523E-03     28.8848E-03    -13.9325E-03     23.0561E-03    -14.9058E-03     28.6241E-03    -13.8438E-03     23.0630E-03
            1881     6.21408E-03     30.0586E-03    -6.88916E+06    -53.9851E+06    -764.799E+03     596.859E+03    -14.5945E-03     28.4136E-03    -13.8191E-03     19.3654E-03    -14.5505E-03     28.1557E-03    -13.7346E-03     19.3700E-03
            1882     5.32688E-03     30.0412E-03    -7.30146E+06    -55.1684E+06    -797.045E+03    -225.246E+03    -14.2846E-03     28.0098E-03    -13.7252E-03     15.9720E-03    -14.2405E-03     27.7462E-03    -13.6386E-03     15.9666E-03
            1883     4.43941E-03     30.0269E-03    -7.98036E+06    -53.4931E+06    -2.55648E+06    -222.650E+03    -14.0086E-03     27.6421E-03    -13.6335E-03     12.8941E-03    -13.9675E-03     27.3902E-03    -13.5571E-03     12.8893E-03
            1884     3.55178E-03     30.0155E-03    -9.25049E+06    -56.2550E+06    -4.98997E+06     155.373E+03    -13.7964E-03     27.3571E-03    -13.5608E-03     10.0485E-03    -13.7540E-03     27.0967E-03    -13.4907E-03     10.0491E-03
            1885     2.66396E-03     30.0067E-03    -10.5442E+06    -58.5219E+06    -7.21793E+06     246.895E+03    -13.6332E-03     27.1353E-03    -13.5021E-03     7.39766E-03    -13.5907E-03     26.8686E-03    -13.4380E-03     7.39982E-03
            1886     1.77607E-03     30.0006E-03    -11.3231E+06    -56.9113E+06    -9.75260E+06     205.411E+03    -13.5006E-03     26.9527E-03    -13.4521E-03     4.91846E-03    -13.4606E-03     26.6987E-03    -13.4019E-03     4.92045E-03
            1887     888.010E-06     29.9968E-03    -11.6225E+06    -58.1403E+06    -11.3147E+06     37.5215E+03    -13.4399E-03     26.8672E-03    -13.4273E-03     2.65835E-03    -13.3971E-03     26.6100E-03    -13.3827E-03     2.65849E-03
            1888     16.8406E-03     29.7685E-03    -2.93947E+06     145.314E+06     34.6457E+06     448.172E+03    -27.8173E-03     43.0752E-03    -15.2578E-03     227.029E-03    -33.1199E-03     48.7827E-03    -15.2910E-03     230.734E-03
            1889     15.9574E-03     29.5844E-03    -2.71267E+06     77.6054E+06    -14.7049E+06     545.181E+03    -22.7108E-03     37.6559E-03    -14.9451E-03     153.777E-03    -24.2917E-03     39.5454E-03    -15.1273E-03     154.175E-03
            1890     15.0722E-03     29.4789E-03    -2.35875E+06     15.9125E+06    -12.4183E+06     700.904E+03    -19.0944E-03     34.0071E-03    -14.9127E-03     89.6986E-03    -19.3376E-03     34.3345E-03    -14.9944E-03     89.6698E-03
            1891     14.1875E-03     29.4165E-03    -2.45433E+06    -22.1504E+06    -12.2718E+06     702.566E+03    -18.0723E-03     32.9079E-03    -14.8356E-03     61.1168E-03    -18.1061E-03     32.8899E-03    -14.8613E-03     61.0802E-03
            1892     13.3029E-03     29.3634E-03    -2.11020E+06    -41.4149E+06    -11.1511E+06     581.809E+03    -17.8958E-03     32.6154E-03    -14.7197E-03     56.2923E-03    -17.8721E-03     32.4696E-03    -14.7123E-03     56.2617E-03
            1893     12.4179E-03     29.3097E-03    -2.06418E+06    -43.8875E+06    -876.467E+03     673.734E+03    -17.5125E-03     32.1293E-03    -14.6167E-03     51.5444E-03    -17.4829E-03     31.9390E-03    -14.5545E-03     51.5250E-03
            1894     11.5328E-03     29.2649E-03    -2.37677E+06    -41.7636E+06     1.68660E+06     828.301E+03    -17.0253E-03     31.4921E-03    -14.4668E-03     44.3902E-03    -16.9931E-03     31.2983E-03    -14.3944E-03     44.3807E-03
            1895     10.6474E-03     29.2244E-03    -2.79620E+06    -45.1601E+06     34.8107E+03     924.286E+03    -16.6053E-03     30.9091E-03    -14.3038E-03     39.7102E-03    -16.5623E-03     30.6958E-03    -14.2341E-03     39.7077E-03
            1896     9.76166E-03     29.1881E-03    -3.38393E+06    -50.8167E+06     2.86897E+06     941.479E+03    -16.1578E-03     30.3268E-03    -14.1691E-03     35.0672E-03    -16.1103E-03     30.0787E-03    -14.0761E-03     35.0690E-03
            1897     8.87556E-03     29.1561E-03    -4.24002E+06    -49.6597E+06     2.71154E+06     982.340E+03    -15.6988E-03     29.7142E-03    -14.0154E-03     30.6380E-03    -15.6551E-03     29.4713E-03    -13.9237E-03     30.6433E-03
            1898     7.98918E-03     29.1282E-03    -5.25118E+06    -51.5319E+06     1.53060E+06     1.08605E+06    -15.2635E-03     29.1329E-03    -13.8693E-03     26.4295E-03    -15.2193E-03     28.8826E-03    -13.7793E-03     26.4381E-03
            1899     7.10244E-03     29.1041E-03    -6.35456E+06    -54.1165E+06     313.221E+03     1.13876E+06    -14.8414E-03     28.5762E-03    -13.7348E-03     22.4528E-03    -14.7964E-03     28.3157E-03    -13.6456E-03     22.4635E-03
            1900     6.21539E-03     29.0837E-03    -7.21338E+06    -52.5039E+06    -1.70774E+06     351.010E+03    -14.4409E-03     28.0449E-03    -13.6040E-03     18.8385E-03    -14.3992E-03     27.7962E-03    -13.5259E-03     18.8400E-03
            1901     5.32801E-03     29.0665E-03    -7.91343E+06    -54.5715E+06    -2.58638E+06    -787.289E+03    -14.1039E-03     27.6036E-03    -13.4996E-03     15.5129E-03    -14.0611E-03     27.3465E-03    -13.4220E-03     15.5004E-03
            1902     4.44043E-03     29.0526E-03    -8.49892E+06    -54.6947E+06    -3.58050E+06    -491.646E+03    -13.8170E-03     27.2244E-03    -13.4074E-03     12.4889E-03    -13.7753E-03     26.9688E-03    -13.3337E-03     12.4807E-03
            1903     3.55257E-03     29.0414E-03    -9.23051E+06    -56.2878E+06    -4.87285E+06     320.785E+03    -13.5893E-03     26.9208E-03    -13.3315E-03     9.72612E-03    -13.5470E-03     26.6600E-03    -13.2608E-03     9.72889E-03
            1904     2.66461E-03     29.0329E-03    -10.3004E+06    -58.2440E+06    -6.52355E+06     163.139E+03    -13.4123E-03     26.6815E-03    -13.2692E-03     7.15401E-03    -13.3700E-03     26.4148E-03    -13.2024E-03     7.15514E-03
            1905     1.77646E-03     29.0269E-03    -11.1427E+06    -56.7625E+06    -9.37152E+06    -117.283E+03    -13.2709E-03     26.4832E-03    -13.2123E-03     4.75169E-03    -13.2308E-03     26.2292E-03    -13.1607E-03     4.74954E-03
            1906     888.260E-06     29.0232E-03    -11.6247E+06    -58.1640E+06    -11.3405E+06     13.3581E+03    -13.1947E-03     26.3785E-03    -13.1839E-03     2.58159E-03    -13.1518E-03     26.1212E-03    -13.1394E-03     2.58142E-03
            1907     16.8423E-03     28.7870E-03    -2.71469E+06     144.659E+06     34.2856E+06     26.8096E+03    -27.8507E-03     43.1001E-03    -15.2494E-03     226.553E-03    -33.1112E-03     48.7651E-03    -15.2838E-03     230.211E-03
            1908     15.9572E-03     28.6057E-03    -3.60079E+06     76.9089E+06    -15.7785E+06     833.648E+03    -22.8061E-03     37.7364E-03    -14.9302E-03     153.782E-03    -24.3764E-03     39.6126E-03    -15.1154E-03     154.184E-03
            1909     15.0728E-03     28.4992E-03    -3.24255E+06     16.3065E+06    -12.9010E+06     1.07131E+06    -19.6104E-03     34.4906E-03    -14.8802E-03     89.8599E-03    -19.8593E-03     34.8233E-03    -14.9637E-03     89.8325E-03
            1910     14.1885E-03     28.4375E-03    -2.54328E+06    -21.6670E+06    -12.3887E+06     912.557E+03    -18.4877E-03     33.2604E-03    -14.7727E-03     60.5891E-03    -18.5216E-03     33.2442E-03    -14.7995E-03     60.5539E-03
            1911     13.3039E-03     28.3845E-03    -2.09426E+06    -41.4024E+06    -11.3627E+06     834.583E+03    -18.1247E-03     32.7551E-03    -14.6304E-03     55.7633E-03    -18.1000E-03     32.6090E-03    -14.6241E-03     55.7358E-03
            1912     12.4194E-03     28.3314E-03    -1.99286E+06    -43.9216E+06    -996.394E+03     832.996E+03    -17.7014E-03     32.2070E-03    -14.5056E-03     50.8445E-03    -17.6707E-03     32.0162E-03    -14.4440E-03     50.8270E-03
            1913     11.5343E-03     28.2870E-03    -2.33414E+06    -41.9025E+06     1.46566E+06     965.164E+03    -17.1271E-03     31.4617E-03    -14.3346E-03     43.6991E-03    -17.0938E-03     31.2671E-03    -14.2631E-03     43.6915E-03
            1914     10.6490E-03     28.2471E-03    -2.70507E+06    -45.0781E+06    -146.268E+03     1.09244E+06    -16.6587E-03     30.8116E-03    -14.1529E-03     38.9923E-03    -16.6149E-03     30.5985E-03    -14.0843E-03     38.9922E-03
            1915     9.76326E-03     28.2113E-03    -3.23695E+06    -50.7452E+06     2.74142E+06     1.15651E+06    -16.1687E-03     30.1693E-03    -14.0006E-03     34.3486E-03    -16.1203E-03     29.9213E-03    -13.9087E-03     34.3534E-03
            1916     8.87722E-03     28.1799E-03    -4.01926E+06    -49.6337E+06     2.76910E+06     1.22900E+06    -15.6707E-03     29.5017E-03    -13.8309E-03     29.9163E-03    -15.6259E-03     29.2584E-03    -13.7393E-03     29.9250E-03
            1917     7.99077E-03     28.1524E-03    -4.86164E+06    -51.4902E+06     1.71840E+06     1.33157E+06    -15.1835E-03     28.8533E-03    -13.6698E-03     25.7239E-03    -15.1375E-03     28.6023E-03    -13.5795E-03     25.7358E-03
            1918     7.10398E-03     28.1289E-03    -5.48286E+06    -53.6169E+06     775.787E+03     1.09884E+06    -14.7174E-03     28.2398E-03    -13.5224E-03     21.8007E-03    -14.6694E-03     27.9797E-03    -13.4328E-03     21.8110E-03
            1919     6.21677E-03     28.1089E-03    -6.10144E+06    -51.0633E+06    -906.557E+03     342.479E+03    -14.2847E-03     27.6653E-03    -13.3806E-03     18.2508E-03    -14.2406E-03     27.4209E-03    -13.3023E-03     18.2523E-03
            1920     5.32929E-03     28.0923E-03    -7.20087E+06    -53.8876E+06    -2.07743E+06    -547.183E+03    -13.9198E-03     27.1869E-03    -13.2672E-03     14.9993E-03    -13.8751E-03     26.9314E-03    -13.1890E-03     14.9899E-03
            1921     4.44147E-03     28.0786E-03    -8.69823E+06    -56.1045E+06    -3.61985E+06    -497.791E+03    -13.6110E-03     26.7796E-03    -13.1687E-03     12.0589E-03    -13.5682E-03     26.5173E-03    -13.0928E-03     12.0507E-03
            1922     3.55349E-03     28.0678E-03    -9.87949E+06    -56.3593E+06    -5.54227E+06     117.954E+03    -13.3568E-03     26.4391E-03    -13.0823E-03     9.38588E-03    -13.3166E-03     26.1798E-03    -13.0140E-03     9.38610E-03
            1923     2.66525E-03     28.0595E-03    -10.6219E+06    -57.5692E+06    -7.34032E+06    -181.602E+03    -13.1668E-03     26.1810E-03    -13.0142E-03     6.89802E-03    -13.1259E-03     25.9193E-03    -12.9520E-03     6.89474E-03
            1924     1.77695E-03     28.0537E-03    -11.3074E+06    -57.1849E+06    -9.56888E+06    -344.165E+03    -13.0329E-03     25.9888E-03    -12.9559E-03     4.57773E-03    -12.9927E-03     25.7332E-03    -12.9044E-03     4.57268E-03
            1925     888.503E-06     28.0501E-03    -11.7634E+06    -58.2938E+06    -11.3194E+06    -39.4318E+03    -12.9529E-03     25.8566E-03    -12.9037E-03     2.47343E-03    -12.9106E-03     25.5988E-03    -12.8588E-03     2.47260E-03
            1926     16.8386E-03     27.8037E-03    -3.50335E+06     143.635E+06     32.6028E+06     32.1696E+03    -27.7150E-03     42.9907E-03    -15.2758E-03     225.319E-03    -32.9442E-03     48.6229E-03    -15.3159E-03     228.968E-03
            1927     15.9564E-03     27.6263E-03    -5.01386E+06     76.0483E+06    -16.9700E+06     285.826E+03    -23.7709E-03     38.7020E-03    -14.9311E-03     152.002E-03    -25.3252E-03     40.5577E-03    -15.1189E-03     152.366E-03
            1928     15.0729E-03     27.5183E-03    -3.44806E+06     16.8580E+06    -13.1015E+06     1.04400E+06    -20.2968E-03     35.1253E-03    -14.8285E-03     88.3107E-03    -20.5442E-03     35.4583E-03    -14.9134E-03     88.2765E-03
            1929     14.1895E-03     27.4585E-03    -2.66474E+06    -21.3259E+06    -12.5068E+06     1.04001E+06    -18.6724E-03     33.3610E-03    -14.6885E-03     59.3177E-03    -18.7047E-03     33.3443E-03    -14.7163E-03     59.2840E-03
            1930     13.3053E-03     27.4053E-03    -2.17222E+06    -41.3359E+06    -11.6773E+06     911.684E+03    -18.3262E-03     32.8514E-03    -14.5252E-03     55.0535E-03    -18.3008E-03     32.7054E-03    -14.5205E-03     55.0268E-03
            1931     12.4209E-03     27.3530E-03    -1.94486E+06    -43.9942E+06    -1.18375E+06     1.01567E+06    -17.8437E-03     32.2236E-03    -14.3799E-03     49.9387E-03    -17.8117E-03     32.0320E-03    -14.3193E-03     49.9238E-03
            1932     11.5360E-03     27.3092E-03    -2.23002E+06    -41.9022E+06     1.32407E+06     1.11129E+06    -17.2121E-03     31.4012E-03    -14.1892E-03     42.9190E-03    -17.1777E-03     31.2064E-03    -14.1186E-03     42.9135E-03
            1933     10.6507E-03     27.2698E-03    -2.56893E+06    -45.1114E+06    -346.590E+03     1.22003E+06    -16.7056E-03     30.6940E-03    -13.9883E-03     38.1797E-03    -16.6605E-03     30.4806E-03    -13.9209E-03     38.1815E-03
            1934     9.76506E-03     27.2347E-03    -3.00975E+06    -50.6468E+06     2.61825E+06     1.32632E+06    -16.1769E-03     29.9945E-03    -13.8176E-03     33.5434E-03    -16.1271E-03     29.7467E-03    -13.7267E-03     33.5506E-03
            1935     8.87900E-03     27.2038E-03    -3.70336E+06    -49.6258E+06     2.71052E+06     1.40506E+06    -15.6222E-03     29.2532E-03    -13.6309E-03     29.1217E-03    -15.5756E-03     29.0094E-03    -13.5401E-03     29.1329E-03
            1936     7.99251E-03     27.1771E-03    -4.38692E+06    -51.1903E+06     1.89679E+06     1.33262E+06    -15.0855E-03     28.5408E-03    -13.4554E-03     24.9693E-03    -15.0377E-03     28.2903E-03    -13.3653E-03     24.9814E-03
            1937     7.10558E-03     27.1541E-03    -5.12298E+06    -52.9253E+06     1.22755E+06     960.036E+03    -14.5819E-03     27.8777E-03    -13.2958E-03     21.1043E-03    -14.5337E-03     27.6199E-03    -13.2055E-03     21.1129E-03
            1938     6.21829E-03     27.1346E-03    -5.98139E+06    -50.1324E+06    -456.930E+03     422.749E+03    -14.1107E-03     27.2534E-03    -13.1427E-03     17.6268E-03    -14.0680E-03     27.0128E-03    -13.0636E-03     17.6294E-03
            1939     5.33058E-03     27.1184E-03    -7.12602E+06    -53.4216E+06    -1.62313E+06     57.0527E+03    -13.7184E-03     26.7389E-03    -13.0205E-03     14.4596E-03    -13.6747E-03     26.4850E-03    -12.9409E-03     14.4582E-03
            1940     4.44266E-03     27.1052E-03    -8.69716E+06    -56.8459E+06    -3.27787E+06     143.324E+03    -13.3888E-03     26.3042E-03    -12.9154E-03     11.6050E-03    -13.3454E-03     26.0376E-03    -12.8367E-03     11.6051E-03
            1941     3.55439E-03     27.0946E-03    -10.1466E+06    -56.0848E+06    -6.25943E+06     28.9187E+03    -13.1093E-03     25.9263E-03    -12.8170E-03     9.03148E-03    -13.0698E-03     25.6698E-03    -12.7522E-03     9.03062E-03
            1942     2.66599E-03     27.0866E-03    -11.0697E+06    -57.0811E+06    -8.56010E+06    -496.705E+03    -12.9058E-03     25.6491E-03    -12.7433E-03     6.64436E-03    -12.8660E-03     25.3922E-03    -12.6872E-03     6.63707E-03
            1943     1.77739E-03     27.0809E-03    -11.6456E+06    -57.9032E+06    -10.2266E+06    -567.853E+03    -12.7674E-03     25.4556E-03    -12.6882E-03     4.40954E-03    -12.7268E-03     25.1979E-03    -12.6385E-03     4.40164E-03
            1944     888.743E-06     27.0775E-03    -11.9324E+06    -58.5768E+06    -11.6022E+06    -240.903E+03    -12.6851E-03     25.3236E-03    -12.6385E-03     2.36915E-03    -12.6428E-03     25.0651E-03    -12.5943E-03     2.36574E-03
            1945     16.8403E-03     26.8230E-03    -2.54574E+06     144.250E+06     33.6297E+06     488.509E+03    -28.2903E-03     43.5720E-03    -15.2817E-03     224.967E-03    -33.5043E-03     49.1914E-03    -15.3190E-03     228.597E-03
            1946     15.9576E-03     26.6433E-03    -4.13784E+06     75.9457E+06    -16.6912E+06     365.233E+03    -24.8846E-03     39.7684E-03    -14.8839E-03     149.632E-03    -26.4047E-03     41.5919E-03    -15.0714E-03     149.934E-03
            1947     15.0760E-03     26.5385E-03    -4.39605E+06     15.9847E+06    -14.2049E+06     823.880E+03    -20.5342E-03     35.2639E-03    -14.7297E-03     86.0692E-03    -20.7738E-03     35.5859E-03    -14.8175E-03     86.0286E-03
            1948     14.1911E-03     26.4792E-03    -3.02853E+06    -20.9534E+06    -12.8135E+06     950.810E+03    -18.6482E-03     33.2227E-03    -14.5746E-03     58.6154E-03    -18.6807E-03     33.2073E-03    -14.6039E-03     58.5811E-03
            1949     13.3070E-03     26.4262E-03    -2.01341E+06    -41.3392E+06    -11.8598E+06     964.089E+03    -18.4355E-03     32.8352E-03    -14.3997E-03     54.2447E-03    -18.4080E-03     32.6882E-03    -14.3962E-03     54.2189E-03
            1950     12.4227E-03     26.3747E-03    -1.74073E+06    -44.0583E+06    -1.20270E+06     1.15761E+06    -17.9076E-03     32.1464E-03    -14.2388E-03     49.0690E-03    -17.8737E-03     31.9534E-03    -14.1784E-03     49.0563E-03
            1951     11.5378E-03     26.3314E-03    -2.03094E+06    -41.9036E+06     1.25393E+06     1.27744E+06    -17.3006E-03     31.3301E-03    -14.0295E-03     42.0547E-03    -17.2647E-03     31.1346E-03    -13.9595E-03     42.0516E-03
            1952     10.6526E-03     26.2927E-03    -2.36559E+06    -45.0829E+06    -644.235E+03     1.35835E+06    -16.7406E-03     30.5483E-03    -13.8078E-03     37.2993E-03    -16.6937E-03     30.3349E-03    -13.7422E-03     37.3031E-03
            1953     9.76699E-03     26.2582E-03    -2.80103E+06    -50.6057E+06     2.37680E+06     1.45387E+06    -16.1572E-03     29.7763E-03    -13.6191E-03     32.6749E-03    -16.1059E-03     29.5285E-03    -13.5298E-03     32.6840E-03
            1954     8.88091E-03     26.2281E-03    -3.40581E+06    -49.4733E+06     2.70873E+06     1.48248E+06    -15.5497E-03     28.9668E-03    -13.4171E-03     28.2700E-03    -15.5017E-03     28.7232E-03    -13.3269E-03     28.2824E-03
            1955     7.99431E-03     26.2019E-03    -4.08953E+06    -50.7564E+06     2.14155E+06     1.32694E+06    -14.9727E-03     28.2005E-03    -13.2278E-03     24.1673E-03    -14.9243E-03     27.9513E-03    -13.1376E-03     24.1795E-03
            1956     7.10732E-03     26.1796E-03    -4.84519E+06    -52.2509E+06     1.79689E+06     972.361E+03    -14.4293E-03     27.4859E-03    -13.0566E-03     20.3647E-03    -14.3815E-03     27.2302E-03    -12.9648E-03     20.3736E-03
            1957     6.21984E-03     26.1607E-03    -5.72654E+06    -49.5480E+06     200.933E+03     548.016E+03    -13.9225E-03     26.8156E-03    -12.8931E-03     16.9699E-03    -13.8803E-03     26.5766E-03    -12.8119E-03     16.9742E-03
            1958     5.33201E-03     26.1450E-03    -6.80872E+06    -53.4148E+06    -1.20192E+06     485.701E+03    -13.5002E-03     26.2619E-03    -12.7617E-03     13.8967E-03    -13.4555E-03     26.0069E-03    -12.6804E-03     13.9009E-03
            1959     4.44381E-03     26.1322E-03    -7.99538E+06     -56.844E+06    -2.70256E+06     550.727E+03    -13.1510E-03     25.8011E-03    -12.6501E-03     11.1443E-03    -13.1049E-03     25.5326E-03    -12.5696E-03     11.1499E-03
            1960     3.55540E-03     26.1221E-03    -9.12670E+06    -55.4458E+06    -5.38512E+06     226.352E+03    -12.8580E-03     25.4043E-03    -12.5463E-03     8.66446E-03    -12.8156E-03     25.1483E-03    -12.4796E-03     8.66621E-03
            1961     2.66670E-03     26.1142E-03    -10.2799E+06    -56.7512E+06    -8.18876E+06    -268.354E+03    -12.6384E-03     25.1056E-03    -12.4672E-03     6.37355E-03    -12.5957E-03     24.8487E-03    -12.4109E-03     6.36926E-03
            1962     1.77792E-03     26.1088E-03    -11.3449E+06    -58.4746E+06    -10.3932E+06    -500.496E+03    -12.4874E-03     24.8993E-03    -12.4119E-03     4.22263E-03    -12.4442E-03     24.6384E-03    -12.3626E-03     4.21563E-03
            1963     888.959E-06     26.1054E-03    -11.9209E+06    -59.1108E+06    -11.7276E+06    -331.659E+03    -12.3948E-03     24.7759E-03    -12.3811E-03     2.24791E-03    -12.3515E-03     24.5149E-03    -12.3367E-03     2.24334E-03
            1964     16.8387E-03     25.8398E-03    -3.05223E+06     143.636E+06     34.2480E+06     593.505E+03    -29.2595E-03     44.4740E-03    -15.2146E-03     224.037E-03    -34.4533E-03     50.0676E-03    -15.2472E-03     227.574E-03
            1965     15.9596E-03     25.6589E-03    -3.21301E+06     76.2765E+06    -15.2082E+06     1.31856E+06    -24.5061E-03     39.2994E-03    -14.7933E-03     147.161E-03    -25.9595E-03     41.0563E-03    -14.9753E-03     147.452E-03
            1966     15.0765E-03     25.5598E-03    -3.13120E+06     16.1859E+06    -13.4594E+06     732.314E+03    -20.4015E-03     35.0407E-03    -14.6392E-03     85.3346E-03    -20.6292E-03     35.3539E-03    -14.7255E-03     85.2947E-03
            1967     14.1928E-03     25.4993E-03    -2.66516E+06    -21.0607E+06    -12.6828E+06     639.859E+03    -19.0713E-03     33.5377E-03    -14.4664E-03     58.5472E-03    -19.1025E-03     33.5215E-03    -14.4954E-03     58.5073E-03
            1968     13.3090E-03     25.4476E-03    -1.94440E+06    -41.3070E+06    -12.1256E+06     1.09243E+06    -18.5539E-03     32.8183E-03    -14.2643E-03     53.5766E-03    -18.5247E-03     32.6707E-03    -14.2623E-03     53.5527E-03
            1969     12.4244E-03     25.3962E-03    -1.70132E+06    -44.2266E+06    -1.65272E+06     1.24607E+06    -18.0117E-03     32.0959E-03    -14.0842E-03     48.3418E-03    -17.9761E-03     31.9020E-03    -14.0259E-03     48.3305E-03
            1970     11.5399E-03     25.3538E-03    -1.84777E+06    -41.8622E+06     1.24594E+06     1.40377E+06    -17.3835E-03     31.2398E-03    -13.8563E-03     41.1263E-03    -17.3462E-03     31.0438E-03    -13.7867E-03     41.1251E-03
            1971     10.6547E-03     25.3157E-03    -2.10406E+06    -44.9930E+06    -651.292E+03     1.47063E+06    -16.7585E-03     30.3730E-03    -13.6145E-03     36.3799E-03    -16.7102E-03     30.1593E-03    -13.5494E-03     36.3854E-03
            1972     9.76906E-03     25.2820E-03    -2.39746E+06    -50.5397E+06     2.40668E+06     1.52048E+06    -16.1135E-03     29.5217E-03    -13.4082E-03     31.7473E-03    -16.0601E-03     29.2734E-03    -13.3194E-03     31.7575E-03
            1973     8.88291E-03     25.2526E-03    -2.90949E+06    -49.2343E+06     3.08500E+06     1.51639E+06    -15.4600E-03     28.6520E-03    -13.1920E-03     27.3747E-03    -15.4103E-03     28.4082E-03    -13.1010E-03     27.3876E-03
            1974     7.99627E-03     25.2272E-03    -3.53209E+06    -50.2929E+06     2.66818E+06     1.33216E+06    -14.8404E-03     27.8296E-03    -12.9893E-03     23.3254E-03    -14.7906E-03     27.5811E-03    -12.8979E-03     23.3379E-03
            1975     7.10910E-03     25.2055E-03    -4.28785E+06    -51.6232E+06     2.43072E+06     978.900E+03    -14.2559E-03     27.0625E-03    -12.8066E-03     19.5995E-03    -14.2070E-03     26.8081E-03    -12.7134E-03     19.6087E-03
            1976     6.22150E-03     25.1873E-03    -5.25403E+06    -49.2193E+06     877.726E+03     736.901E+03    -13.7182E-03     26.3522E-03    -12.6341E-03     16.2965E-03    -13.6750E-03     26.1131E-03    -12.5507E-03     16.3034E-03
            1977     5.33344E-03     25.1721E-03    -6.41877E+06    -53.5319E+06    -808.474E+03     810.404E+03    -13.2718E-03     25.7659E-03    -12.4941E-03     13.3250E-03    -13.2256E-03     25.5091E-03    -12.4112E-03     13.3335E-03
            1978     4.44507E-03     25.1598E-03    -7.70024E+06    -56.4474E+06    -2.74471E+06     783.087E+03    -12.9008E-03     25.2740E-03    -12.3733E-03     10.6741E-03    -12.8537E-03     25.0072E-03    -12.2940E-03     10.6828E-03
            1979     3.55636E-03     25.1499E-03     -8.8747E+06    -54.8313E+06    -5.39979E+06     412.964E+03    -12.5951E-03     24.8594E-03    -12.2643E-03     8.28778E-03    -12.5522E-03     24.6061E-03    -12.1989E-03     8.29200E-03
            1980     2.66751E-03     25.1425E-03    -9.82910E+06    -56.4917E+06    -7.79951E+06     154.359E+03    -12.3670E-03     24.5498E-03    -12.1828E-03     6.08447E-03    -12.3230E-03     24.2930E-03    -12.1257E-03     6.08568E-03
            1981     1.77839E-03     25.1371E-03    -10.7631E+06    -58.5362E+06    -9.87247E+06     1.23816E+03    -12.2029E-03     24.3287E-03    -12.1258E-03     4.02293E-03    -12.1576E-03     24.0660E-03    -12.0747E-03     4.02244E-03
            1982     889.241E-06     25.1340E-03    -11.4956E+06    -59.5437E+06    -11.3784E+06    -126.430E+03    -12.1146E-03     24.2030E-03    -12.0884E-03     2.15585E-03    -12.0690E-03     23.9387E-03    -12.0423E-03     2.15395E-03
            1983     16.8462E-03     24.8539E-03    -3.34407E+06     142.743E+06     33.8817E+06     778.396E+03    -30.0686E-03     45.1891E-03    -15.1205E-03     222.877E-03    -35.2164E-03     50.7337E-03    -15.1533E-03     226.234E-03
            1984     15.9617E-03     24.6814E-03    -3.18539E+06     75.9476E+06    -14.9073E+06     960.349E+03    -23.5390E-03     38.2370E-03    -14.6979E-03     146.062E-03    -24.9480E-03     39.9474E-03    -14.8780E-03     146.370E-03
            1985     15.0766E-03     24.5780E-03    -1.63797E+06     17.1710E+06    -12.0080E+06     794.788E+03    -20.4735E-03     35.0362E-03    -14.5627E-03     84.8837E-03    -20.6948E-03     35.3475E-03    -14.6453E-03     84.8443E-03
            1986     14.1944E-03     24.5197E-03    -2.03666E+06    -21.2330E+06    -12.2716E+06     823.858E+03    -19.4821E-03     33.8483E-03    -14.3662E-03     57.3867E-03    -19.5092E-03     33.8284E-03    -14.3938E-03     57.3477E-03
            1987     13.3105E-03     24.4686E-03    -1.82245E+06    -41.6092E+06    -11.9633E+06     950.317E+03    -18.8577E-03     32.9895E-03    -14.1318E-03     52.8199E-03    -18.8272E-03     32.8395E-03    -14.1286E-03     52.7937E-03
            1988     12.4266E-03     24.4178E-03    -1.30811E+06    -44.2499E+06    -1.38181E+06     1.23929E+06    -18.1896E-03     32.1131E-03    -13.9234E-03     47.4582E-03    -18.1517E-03     31.9174E-03    -13.8643E-03     47.4470E-03
            1989     11.5419E-03     24.3761E-03    -1.33546E+06    -41.8802E+06     1.80914E+06     1.35735E+06    -17.4401E-03     31.1142E-03    -13.6741E-03     40.1765E-03    -17.4006E-03     30.9161E-03    -13.6024E-03     40.1751E-03
            1990     10.6569E-03     24.3389E-03    -1.34671E+06    -44.9188E+06    -78.9668E+03     1.46933E+06    -16.7675E-03     30.1799E-03    -13.4124E-03     35.3858E-03    -16.7160E-03     29.9644E-03    -13.3457E-03     35.3916E-03
            1991     9.77125E-03     24.3060E-03    -1.59715E+06    -50.4733E+06     2.77352E+06     1.59960E+06    -16.0503E-03     29.2382E-03    -13.1879E-03     30.7846E-03    -15.9933E-03     28.9883E-03    -13.0985E-03     30.7961E-03
            1992     8.88504E-03     24.2774E-03    -2.17211E+06    -48.9392E+06     3.39909E+06     1.58318E+06    -15.3482E-03     28.3051E-03    -12.9568E-03     26.4747E-03    -15.2956E-03     28.0611E-03    -12.8657E-03     26.4888E-03
            1993     7.99825E-03     24.2527E-03    -2.87554E+06    -49.8072E+06     3.10309E+06     1.38392E+06    -14.6880E-03     27.4301E-03    -12.7422E-03     22.4720E-03    -14.6361E-03     27.1823E-03    -12.6502E-03     22.4853E-03
            1994     7.11098E-03     24.2318E-03    -3.76968E+06    -51.0994E+06     2.77460E+06     1.11438E+06    -14.0635E-03     26.6124E-03    -12.5489E-03     18.8257E-03    -14.0132E-03     26.3593E-03    -12.4555E-03     18.8367E-03
            1995     6.22314E-03     24.2142E-03    -4.86130E+06    -49.1068E+06     1.07315E+06     1.02368E+06    -13.5005E-03     25.8687E-03    -12.3683E-03     15.6215E-03    -13.4557E-03     25.6293E-03    -12.2846E-03     15.6322E-03
            1996     5.33492E-03     24.1997E-03    -6.07648E+06    -53.5674E+06    -534.142E+03     1.18791E+06    -13.0424E-03     25.2637E-03    -12.2213E-03     12.7474E-03    -12.9947E-03     25.0058E-03    -12.1375E-03     12.7608E-03
            1997     4.44631E-03     24.1878E-03    -7.30443E+06    -55.8453E+06    -2.64620E+06     1.09973E+06    -12.6526E-03     24.7439E-03    -12.0913E-03     10.1901E-03    -12.6046E-03     24.4793E-03    -12.0129E-03     10.2029E-03
            1998     3.55742E-03     24.1784E-03    -8.43430E+06    -54.2428E+06    -5.45452E+06     692.661E+03    -12.3268E-03     24.3025E-03    -11.9757E-03     7.90148E-03    -12.2825E-03     24.0516E-03    -11.9121E-03     7.90938E-03
            1999     2.66824E-03     24.1711E-03    -9.46516E+06    -56.2754E+06    -7.49177E+06     446.918E+03    -12.0881E-03     23.9804E-03    -11.8923E-03     5.78812E-03    -12.0430E-03     23.7237E-03    -11.8344E-03     5.79315E-03
            2000     1.77897E-03     24.1661E-03    -10.2879E+06    -58.2604E+06    -9.35246E+06     398.977E+03    -11.9193E-03     23.7504E-03    -11.8311E-03     3.82402E-03    -11.8727E-03     23.4876E-03    -11.7784E-03     3.82869E-03
            2001     889.481E-06     24.1630E-03    -10.7533E+06    -59.4029E+06    -10.7423E+06     219.539E+03    -11.8213E-03     23.6090E-03    -11.7877E-03     2.05899E-03    -11.7732E-03     23.3434E-03    -11.7397E-03     2.06157E-03
            2002     16.8430E-03     23.8721E-03    -2.91674E+06     142.940E+06     35.2026E+06     301.874E+03    -30.3939E-03     45.5265E-03    -15.1326E-03     221.835E-03    -35.4682E-03     50.9959E-03    -15.1596E-03     225.119E-03
            2003     15.9609E-03     23.7005E-03    -3.04965E+06     76.0109E+06    -15.0071E+06     798.919E+03    -24.6500E-03     39.3117E-03    -14.6617E-03     145.875E-03    -26.0522E-03     41.0164E-03    -14.8425E-03     146.154E-03
            2004     15.0798E-03     23.5975E-03    -3.44389E+06     16.4365E+06    -13.3880E+06     1.19598E+06    -21.0460E-03     35.5185E-03    -14.4725E-03     84.4730E-03    -21.2713E-03     35.8288E-03    -14.5583E-03     84.4336E-03
            2005     14.1955E-03     23.5399E-03    -2.70029E+06    -20.6785E+06    -12.6373E+06     1.00821E+06    -19.6077E-03     33.8572E-03    -14.2495E-03     56.3950E-03    -19.6356E-03     33.8388E-03    -14.2788E-03     56.3588E-03
            2006     13.3126E-03     23.4891E-03    -1.27288E+06    -41.8709E+06    -12.8905E+06     532.210E+03    -19.1774E-03     33.1646E-03    -13.9872E-03     51.7967E-03    -19.1415E-03     33.0130E-03    -13.9891E-03     51.7648E-03
            2007     12.4287E-03     23.4397E-03    -571.006E+03    -44.8658E+06    -2.18355E+06     1.08287E+06    -18.3781E-03     32.1285E-03    -13.7503E-03     46.4009E-03    -18.3337E-03     31.9291E-03    -13.6954E-03     46.3879E-03
            2008     11.5442E-03     23.3986E-03    -577.659E+03    -41.5741E+06     2.28674E+06     1.43399E+06    -17.4855E-03     30.9684E-03    -13.4829E-03     39.2048E-03    -17.4428E-03     30.7695E-03    -13.4104E-03     39.2048E-03
            2009     10.6592E-03     23.3623E-03    -772.246E+03    -44.9735E+06     92.9295E+03     1.34328E+06    -16.7383E-03     29.9409E-03    -13.2026E-03     34.3861E-03    -16.6838E-03     29.7237E-03    -13.1358E-03     34.3907E-03
            2010     9.77348E-03     23.3303E-03    -864.819E+03    -50.5630E+06     2.80316E+06     1.62674E+06    -15.9781E-03     28.9397E-03    -12.9616E-03     29.8324E-03    -15.9171E-03     28.6880E-03    -12.8730E-03     29.8446E-03
            2011     8.88716E-03     23.3026E-03    -1.35721E+06    -48.6975E+06     3.31733E+06     1.82383E+06    -15.2221E-03     27.9380E-03    -12.7159E-03     25.5621E-03    -15.1654E-03     27.6940E-03    -12.6267E-03     25.5796E-03
            2012     8.00029E-03     23.2787E-03    -2.24449E+06    -49.2711E+06     3.02955E+06     1.69503E+06    -14.5167E-03     27.0070E-03    -12.4903E-03     21.6151E-03    -14.4623E-03     26.7609E-03    -12.4004E-03     21.6327E-03
            2013     7.11281E-03     23.2586E-03    -3.30917E+06    -50.6323E+06     3.00074E+06     1.40217E+06    -13.8673E-03     26.1572E-03    -12.2899E-03     18.0459E-03    -13.8157E-03     25.9054E-03    -12.1967E-03     18.0608E-03
            2014     6.22482E-03     23.2417E-03    -4.38752E+06    -49.0707E+06     1.29204E+06     1.34378E+06    -13.2882E-03     25.3895E-03    -12.1013E-03     14.9355E-03    -13.2414E-03     25.1492E-03    -12.0173E-03     14.9505E-03
            2015     5.33638E-03     23.2277E-03    -5.41535E+06    -53.4567E+06    -208.730E+03     1.45652E+06    -12.8105E-03     24.7571E-03    -11.9466E-03     12.1557E-03    -12.7601E-03     24.4983E-03    -11.8623E-03     12.1727E-03
            2016     4.44759E-03     23.2164E-03    -6.50458E+06    -55.2568E+06    -2.09355E+06     1.42010E+06    -12.4032E-03     24.2130E-03    -11.8099E-03     9.70183E-03    -12.3527E-03     23.9494E-03    -11.7308E-03     9.71882E-03
            2017     3.55844E-03     23.2073E-03    -7.71404E+06    -53.5514E+06    -4.87936E+06     1.16272E+06    -12.0620E-03     23.7502E-03    -11.6882E-03     7.51474E-03    -12.0160E-03     23.5009E-03    -11.6238E-03     7.52877E-03
            2018     2.66907E-03     23.2005E-03    -8.82052E+06    -55.8943E+06    -7.10749E+06     850.150E+03    -11.8073E-03     23.4069E-03    -11.5996E-03     5.49358E-03    -11.7601E-03     23.1506E-03    -11.5413E-03     5.50386E-03
            2019     1.77945E-03     23.1956E-03    -9.65500E+06    -57.7933E+06    -8.77435E+06     623.695E+03    -11.6295E-03     23.1656E-03    -11.5362E-03     3.63289E-03    -11.5812E-03     22.9034E-03    -11.4822E-03     3.64049E-03
            2020     889.803E-06     23.1927E-03    -10.1875E+06    -58.7991E+06    -9.98644E+06     480.910E+03    -11.5348E-03     23.0169E-03    -11.4821E-03     1.95428E-03    -11.4858E-03     22.7524E-03    -11.4320E-03     1.96025E-03
            2021     16.8403E-03     22.8860E-03    -3.33845E+06     142.337E+06      35.173E+06     192.421E+03    -30.3703E-03     45.5106E-03    -15.1403E-03     217.392E-03    -35.3006E-03     50.8323E-03    -15.1659E-03     220.613E-03
            2022     15.9624E-03     22.7171E-03    -4.79081E+06     75.1369E+06    -15.4411E+06     724.497E+03    -25.6509E-03     40.2757E-03    -14.6247E-03     142.164E-03    -27.0088E-03     41.9281E-03    -14.8039E-03     142.400E-03
            2023     15.0796E-03     22.6170E-03    -3.86743E+06     16.5922E+06    -13.9424E+06     1.29917E+06    -21.6850E-03     36.0567E-03    -14.3717E-03     82.5105E-03    -21.9060E-03     36.3634E-03    -14.4599E-03     82.4679E-03
            2024     14.1979E-03     22.5597E-03    -2.99195E+06    -19.3120E+06    -12.6759E+06     688.351E+03    -19.7864E-03     33.9009E-03    -14.1145E-03     55.2494E-03    -19.8152E-03     33.8873E-03    -14.1455E-03     55.2092E-03
            2025     13.3144E-03     22.5097E-03    -2.73066E+06    -42.1174E+06    -13.8578E+06     454.888E+03    -19.2443E-03     33.0768E-03    -13.8325E-03     50.7726E-03    -19.2125E-03     32.9260E-03    -13.8367E-03     50.7402E-03
            2026     12.4309E-03     22.4612E-03    -2.16891E+06    -45.4688E+06    -3.91569E+06     554.224E+03    -18.4896E-03     32.0625E-03    -13.5729E-03     45.2400E-03    -18.4489E-03     31.8641E-03    -13.5234E-03     45.2206E-03
            2027     11.5465E-03     22.4213E-03    -1.25598E+06    -41.4911E+06     1.15467E+06     754.456E+03    -17.5111E-03     30.7970E-03    -13.2859E-03     38.2392E-03    -17.4698E-03     30.6006E-03    -13.2181E-03     38.2309E-03
            2028     10.6614E-03     22.3859E-03    -605.552E+03    -45.2622E+06    -429.225E+03     1.22143E+06    -16.7061E-03     29.6969E-03    -12.9908E-03     33.4101E-03    -16.6492E-03     29.4784E-03    -12.9264E-03     33.4135E-03
            2029     9.77568E-03     22.3549E-03    -615.435E+03    -50.6580E+06     2.20327E+06     1.53902E+06    -15.9059E-03     28.6394E-03    -12.7335E-03     28.8358E-03    -15.8424E-03     28.3876E-03    -12.6482E-03     28.8472E-03
            2030     8.88932E-03     22.3281E-03    -871.585E+03    -48.9457E+06     2.84966E+06     1.98165E+06    -15.0889E-03     27.5641E-03    -12.4752E-03     24.6035E-03    -15.0286E-03     27.3187E-03    -12.3887E-03     24.6232E-03
            2031     8.00225E-03     22.3051E-03    -1.49747E+06    -48.6053E+06     2.68761E+06     2.19623E+06    -14.3390E-03     26.5777E-03    -12.2387E-03     20.7434E-03    -14.2813E-03     26.3343E-03    -12.1526E-03     20.7676E-03
            2032     7.11464E-03     22.2858E-03    -2.48588E+06    -50.0400E+06     3.47567E+06     1.77398E+06    -13.6779E-03     25.7115E-03    -12.0336E-03     17.2514E-03    -13.6237E-03     25.4607E-03    -11.9401E-03     17.2712E-03
            2033     6.22649E-03     22.2696E-03    -3.54019E+06    -49.0239E+06     1.82838E+06     1.64149E+06    -13.0791E-03     24.9166E-03    -11.8375E-03     14.2369E-03    -13.0289E-03     24.6745E-03    -11.7522E-03     14.2558E-03
            2034     5.33786E-03     22.2563E-03    -4.68899E+06    -53.2213E+06     52.1927E+03     1.79578E+06    -12.5731E-03     24.2474E-03    -11.6743E-03     11.5706E-03    -12.5197E-03     23.9883E-03    -11.5901E-03     11.5921E-03
            2035     4.44882E-03     22.2454E-03    -5.94612E+06    -54.7910E+06    -1.78053E+06     1.81632E+06    -12.1483E-03     23.6808E-03    -11.5325E-03     9.22472E-03    -12.0962E-03     23.4182E-03    -11.4533E-03     9.24689E-03
            2036     3.55946E-03     22.2368E-03    -7.10688E+06    -52.8274E+06    -4.37995E+06     1.67608E+06    -11.7964E-03     23.2033E-03    -11.4069E-03     7.13661E-03    -11.7491E-03     22.9559E-03    -11.3419E-03     7.15731E-03
            2037     2.66981E-03     22.2302E-03    -8.14889E+06    -55.0828E+06    -6.39510E+06     1.30432E+06    -11.5334E-03     22.8486E-03    -11.3152E-03     5.21620E-03    -11.4850E-03     22.5943E-03    -11.2555E-03     5.23238E-03
            2038     1.78002E-03     22.2257E-03    -8.97894E+06    -57.0997E+06    -8.01426E+06     875.406E+03    -11.3458E-03     22.5949E-03    -11.2492E-03     3.44733E-03    -11.2962E-03     22.3341E-03    -11.1934E-03     3.45820E-03
            2039     889.987E-06     22.2228E-03    -9.44255E+06    -57.8982E+06    -9.20061E+06     462.271E+03    -11.2419E-03     22.4399E-03    -11.1980E-03     1.86380E-03    -11.1916E-03     22.1777E-03    -11.1464E-03     1.86954E-03
            2040     16.8464E-03     21.9020E-03    -3.16665E+06     142.253E+06     35.2174E+06     530.791E+03    -31.1350E-03     46.2326E-03    -15.0976E-03     217.003E-03    -36.0008E-03     51.4901E-03    -15.1232E-03     220.098E-03
            2041     15.9631E-03     21.7345E-03    -5.71255E+06     74.7386E+06    -16.0473E+06     837.254E+03    -26.0227E-03     40.5689E-03    -14.5462E-03     140.655E-03    -27.3483E-03     42.1861E-03    -14.7265E-03     140.860E-03
            2042     15.0832E-03     21.6347E-03    -5.13045E+06     16.6427E+06    -15.8234E+06     1.15901E+06    -22.0603E-03     36.3163E-03    -14.2559E-03     80.6465E-03    -22.2774E-03     36.6201E-03    -14.3517E-03     80.5989E-03
            2043     14.2000E-03     21.5806E-03    -3.58878E+06    -18.9006E+06    -13.8972E+06     1.03027E+06    -19.9815E-03     33.9546E-03    -13.9731E-03     54.4262E-03    -20.0100E-03     33.9435E-03    -14.0099E-03     54.3907E-03
            2044     13.3167E-03     21.5300E-03    -3.16418E+06    -41.7946E+06    -14.3603E+06     844.606E+03    -19.3179E-03     32.9933E-03    -13.6754E-03     50.1042E-03    -19.2867E-03     32.8441E-03    -13.6820E-03     50.0776E-03
            2045     12.4331E-03     21.4831E-03    -2.29060E+06    -44.5759E+06    -5.41058E+06    -237.403E+03    -18.5161E-03     31.9097E-03    -13.3935E-03     44.1058E-03    -18.4742E-03     31.7171E-03    -13.3526E-03     44.0769E-03
            2046     11.5486E-03     21.4440E-03    -1.51675E+06    -42.6772E+06    -987.596E+03    -283.054E+03    -17.5579E-03     30.6468E-03    -13.0889E-03     37.1704E-03    -17.5125E-03     30.4474E-03    -13.0297E-03     37.1492E-03
            2047     10.6636E-03     21.4098E-03    -1.17404E+06    -46.0349E+06    -1.63603E+06     1.08885E+06    -16.6834E-03     29.4637E-03    -12.7803E-03     32.3248E-03    -16.6261E-03     29.2436E-03    -12.7200E-03     32.3269E-03
            2048     9.77787E-03     21.3797E-03    -1.30390E+06    -50.4136E+06     820.290E+03     1.55723E+06    -15.8118E-03     28.3177E-03    -12.5060E-03     27.8040E-03    -15.7499E-03     28.0699E-03    -12.4269E-03     27.8160E-03
            2049     8.89140E-03     21.3540E-03    -1.73567E+06    -49.8441E+06     1.79815E+06     2.01516E+06    -14.9568E-03     27.1958E-03    -12.2390E-03     23.6000E-03    -14.8979E-03     26.9486E-03    -12.1552E-03     23.6204E-03
            2050     8.00422E-03     21.3319E-03    -2.04843E+06    -47.7021E+06     1.42976E+06     2.29986E+06    -14.1638E-03     26.1520E-03    -11.9881E-03     19.8554E-03    -14.1083E-03     25.9156E-03    -11.9088E-03     19.8811E-03
            2051     7.11645E-03     21.3134E-03    -2.24772E+06    -49.3605E+06     2.76208E+06     1.75679E+06    -13.4753E-03     25.2524E-03    -11.7771E-03     16.4638E-03    -13.4197E-03     25.0057E-03    -11.6885E-03     16.4835E-03
            2052     6.22810E-03     21.2980E-03    -2.87157E+06    -49.3005E+06     2.10048E+06     1.96869E+06    -12.8582E-03     24.4388E-03    -11.5806E-03     13.5419E-03    -12.8046E-03     24.1939E-03    -11.4945E-03     13.5652E-03
            2053     5.33926E-03     21.2853E-03    -4.02097E+06    -52.8235E+06     417.567E+03     2.36166E+06    -12.3348E-03     23.7468E-03    -11.4120E-03     10.9974E-03    -12.2792E-03     23.4882E-03    -11.3275E-03     11.0262E-03
            2054     4.45002E-03     21.2750E-03    -5.28792E+06    -54.2804E+06    -1.36862E+06     2.29419E+06    -11.8977E-03     23.1643E-03    -11.2666E-03     8.76138E-03    -11.8437E-03     22.9028E-03    -11.1871E-03     8.78979E-03
            2055     3.56042E-03     21.2668E-03    -6.39931E+06    -51.9945E+06    -3.76148E+06     2.09700E+06    -11.5336E-03     22.6728E-03    -11.1393E-03     6.76943E-03    -11.4848E-03     22.4277E-03    -11.0734E-03     6.79563E-03
            2056     2.67055E-03     21.2607E-03    -7.34344E+06    -53.9792E+06    -5.46275E+06     1.68290E+06    -11.2677E-03     22.3150E-03    -11.0473E-03     4.95049E-03    -11.2183E-03     22.0637E-03    -10.9857E-03     4.97160E-03
            2057     1.78046E-03     21.2563E-03    -8.17941E+06    -55.9825E+06    -7.07882E+06     1.07742E+06    -11.0825E-03     22.0611E-03    -10.9786E-03     3.26950E-03    -11.0319E-03     21.8033E-03    -10.9210E-03     3.28301E-03
            2058     890.326E-06     21.2537E-03    -8.68299E+06    -56.9097E+06    -8.61139E+06     533.025E+03    -10.9591E-03     21.8926E-03    -10.9335E-03     1.76400E-03    -10.9073E-03     21.6334E-03    -10.8814E-03     1.77067E-03
            2059     16.8406E-03     20.9162E-03    -2.82165E+06     141.162E+06     34.0046E+06     766.681E+03    -31.9133E-03     46.9873E-03    -15.0740E-03     215.558E-03    -36.7143E-03     52.1809E-03    -15.1046E-03     218.576E-03
            2060     15.9648E-03     20.7495E-03    -3.14398E+06     75.0703E+06    -15.8047E+06     1.88043E+06    -26.5987E-03     41.0800E-03    -14.4813E-03     138.326E-03    -27.8643E-03     42.6469E-03    -14.6647E-03     138.507E-03
            2061     15.0830E-03     20.6538E-03    -3.47591E+06     17.5048E+06    -15.0866E+06     1.62862E+06    -22.1965E-03     36.3619E-03    -14.1654E-03     79.1133E-03    -22.3985E-03     36.6575E-03    -14.2611E-03     79.0709E-03
            2062     14.2012E-03     20.6000E-03    -3.29643E+06    -19.6740E+06    -14.8380E+06     1.09175E+06    -20.4008E-03     34.2538E-03    -13.8530E-03     53.5717E-03    -20.4238E-03     34.2384E-03    -13.8939E-03     53.5360E-03
            2063     13.3186E-03     20.5509E-03    -1.92337E+06    -40.6737E+06    -13.9684E+06     945.056E+03    -19.5797E-03     33.1062E-03    -13.5265E-03     49.0536E-03    -19.5433E-03     32.9591E-03    -13.5345E-03     49.0283E-03
            2064     12.4350E-03     20.5049E-03    -1.58804E+06    -42.8261E+06    -5.39772E+06    -314.964E+03    -18.5609E-03     31.7807E-03    -13.2198E-03     42.8885E-03    -18.5170E-03     31.5948E-03    -13.1824E-03     42.8592E-03
            2065     11.5509E-03     20.4669E-03    -1.82389E+06    -44.4331E+06    -3.00726E+06    -373.675E+03    -17.5783E-03     30.4726E-03    -12.8943E-03     35.9578E-03    -17.5284E-03     30.2672E-03    -12.8422E-03     35.9359E-03
            2066     10.6658E-03     20.4338E-03    -1.99331E+06    -47.1903E+06    -3.07770E+06     997.531E+03    -16.6386E-03     29.2110E-03    -12.5724E-03     31.1655E-03    -16.5814E-03     28.9881E-03    -12.5165E-03     31.1667E-03
            2067     9.77997E-03     20.4049E-03    -1.98688E+06    -50.1266E+06     76.2957E+03     1.58546E+06    -15.7086E-03     27.9945E-03    -12.2859E-03     26.6925E-03    -15.6492E-03     27.7500E-03    -12.2100E-03     26.7051E-03
            2068     8.89342E-03     20.3802E-03    -2.06456E+06    -50.6475E+06     1.57327E+06     1.92632E+06    -14.8203E-03     26.8318E-03    -12.0115E-03     22.5469E-03    -14.7614E-03     26.5812E-03    -11.9272E-03     22.5663E-03
            2069     8.00615E-03     20.3592E-03    -2.00068E+06    -46.6331E+06     1.03581E+06     1.85096E+06    -13.9840E-03     25.7316E-03    -11.7476E-03     18.9369E-03    -13.9290E-03     25.5010E-03    -11.6719E-03     18.9570E-03
            2070     7.11817E-03     20.3415E-03    -2.00392E+06    -48.9410E+06     1.60252E+06     1.44765E+06    -13.2541E-03     24.7823E-03    -11.5282E-03     15.6857E-03    -13.1962E-03     24.5389E-03    -11.4463E-03     15.7016E-03
            2071     6.22964E-03     20.3268E-03    -2.44314E+06    -50.2150E+06     1.88945E+06     2.14881E+06    -12.6296E-03     23.9649E-03    -11.3353E-03     12.8658E-03    -12.5722E-03     23.7151E-03    -11.2495E-03     12.8915E-03
            2072     5.34059E-03     20.3148E-03    -3.31813E+06    -52.2856E+06     919.781E+03     2.90251E+06    -12.1026E-03     23.2678E-03    -11.1652E-03     10.4322E-03    -12.0449E-03     23.0101E-03    -11.0800E-03     10.4682E-03
            2073     4.45113E-03     20.3050E-03     -4.4144E+06    -53.4919E+06    -575.171E+03     2.71322E+06    -11.6558E-03     22.6743E-03    -11.0185E-03     8.29753E-03    -11.5996E-03     22.4142E-03    -10.9374E-03     8.33142E-03
            2074     3.56131E-03     20.2973E-03    -5.35500E+06    -51.0503E+06    -2.92116E+06     2.39786E+06    -11.2844E-03     22.1746E-03    -10.8902E-03     6.41097E-03    -11.2330E-03     21.9314E-03    -10.8231E-03     6.44110E-03
            2075     2.67121E-03     20.2915E-03    -6.18027E+06    -52.7826E+06    -4.91994E+06     2.05478E+06    -11.0174E-03     21.8143E-03    -10.7968E-03     4.69320E-03    -10.9647E-03     21.5665E-03    -10.7359E-03     4.71914E-03
            2076     1.78094E-03     20.2874E-03    -7.07123E+06    -54.5707E+06    -6.42615E+06     1.58167E+06    -10.8323E-03     21.5623E-03    -10.7300E-03     3.09303E-03    -10.7792E-03     21.3091E-03    -10.6728E-03     3.11307E-03
            2077     890.460E-06     20.2849E-03    -7.94834E+06    -55.4694E+06    -7.73001E+06     879.455E+03    -10.7280E-03     21.3999E-03    -10.6719E-03     1.65784E-03    -10.6759E-03     21.1455E-03    -10.6186E-03     1.66900E-03
            2078     16.8464E-03     19.9276E-03    -2.85702E+06     140.101E+06     33.6079E+06     764.938E+03    -32.5741E-03     47.5926E-03    -15.0185E-03     212.644E-03    -37.2780E-03     52.6863E-03    -15.0495E-03     215.519E-03
            2079     15.9657E-03     19.7664E-03    -2.70032E+06     74.1245E+06    -15.7772E+06     1.70049E+06    -26.4890E-03     40.8867E-03    -14.3977E-03     134.362E-03    -27.6835E-03     42.3806E-03    -14.5801E-03     134.521E-03
            2080     15.0850E-03     19.6720E-03    -1.16434E+06     18.6959E+06    -13.4378E+06     1.91203E+06    -22.3627E-03     36.4305E-03    -14.0678E-03     76.6614E-03    -22.5479E-03     36.7169E-03    -14.1604E-03     76.6217E-03
            2081     14.2031E-03     19.6192E-03    -879.516E+03    -18.9193E+06    -13.2071E+06     1.29162E+06    -20.6680E-03     34.4000E-03    -13.7320E-03     51.7839E-03    -20.6801E-03     34.3802E-03    -13.7693E-03     51.7504E-03
            2082     13.3206E-03     19.5716E-03    -286.920E+03    -39.9856E+06    -13.3193E+06     443.786E+03    -19.7683E-03     33.1444E-03    -13.3761E-03     47.5171E-03    -19.7245E-03     32.9963E-03    -13.3843E-03     47.4854E-03
            2083     12.4374E-03     19.5267E-03     313.205E+03    -42.1548E+06    -3.80825E+06     509.527E+03    -18.6274E-03     31.6797E-03    -13.0522E-03     41.5328E-03    -18.5764E-03     31.4912E-03    -13.0106E-03     41.5147E-03
            2084     11.5529E-03     19.4901E-03    -804.569E+03    -45.2327E+06    -2.34199E+06     848.568E+03    -17.5397E-03     30.2496E-03    -12.7099E-03     34.7001E-03    -17.4840E-03     30.0373E-03    -12.6549E-03     34.6945E-03
            2085     10.6679E-03     19.4581E-03    -1.41539E+06    -47.7710E+06    -2.93671E+06     889.112E+03    -16.5826E-03     28.9553E-03    -12.3728E-03     29.9397E-03    -16.5214E-03     28.7281E-03    -12.3161E-03     29.9400E-03
            2086     9.78211E-03     19.4303E-03    -1.05505E+06    -50.3568E+06     1.12816E+06     1.23826E+06    -15.5989E-03     27.6769E-03    -12.0780E-03     25.5143E-03    -15.5359E-03     27.4281E-03    -11.9978E-03     25.5227E-03
            2087     8.89542E-03     19.4067E-03    -657.880E+03    -50.6349E+06     2.35494E+06     1.39841E+06    -14.6569E-03     26.4497E-03    -11.7928E-03     21.5060E-03    -14.5920E-03     26.1959E-03    -11.7067E-03     21.5189E-03
            2088     8.00797E-03     19.3867E-03    -363.317E+03    -46.1591E+06     2.00293E+06     1.35821E+06    -13.7895E-03     25.3134E-03    -11.5239E-03     18.0101E-03    -13.7284E-03     25.0813E-03    -11.4464E-03     18.0240E-03
            2089     7.11982E-03     19.3700E-03    -686.154E+03    -48.8927E+06     1.72069E+06     1.63234E+06    -13.0398E-03     24.3385E-03    -11.2986E-03     14.9002E-03    -12.9755E-03     24.0932E-03    -11.2181E-03     14.9186E-03
            2090     6.23105E-03     19.3561E-03    -1.47377E+06    -51.2610E+06     1.65063E+06     2.34286E+06    -12.4089E-03     23.5136E-03    -11.1047E-03     12.2000E-03    -12.3447E-03     23.2575E-03    -11.0200E-03     12.2283E-03
            2091     5.34183E-03     19.3447E-03    -2.18628E+06     -51.991E+06     1.39395E+06     3.17939E+06    -11.8750E-03     22.8105E-03    -10.9355E-03     9.86969E-03    -11.8128E-03     22.5519E-03    -10.8500E-03     9.90928E-03
            2092     4.45216E-03     19.3356E-03    -3.11305E+06    -52.3501E+06     117.686E+03     3.20048E+06    -11.4265E-03     22.2151E-03    -10.7886E-03     7.83983E-03    -11.3665E-03     21.9578E-03    -10.7076E-03     7.88008E-03
            2093     3.56213E-03     19.3283E-03    -4.20145E+06    -50.0794E+06    -2.43909E+06     2.79791E+06    -11.0591E-03     21.7186E-03    -10.6596E-03     6.05316E-03    -11.0040E-03     21.4779E-03    -10.5930E-03     6.08850E-03
            2094     2.67183E-03     19.3228E-03    -5.03671E+06    -51.5532E+06    -4.55317E+06     2.58681E+06    -10.7856E-03     21.3515E-03    -10.5658E-03     4.42167E-03    -10.7295E-03     21.1076E-03    -10.5065E-03     4.45452E-03
            2095     1.78130E-03     19.3190E-03    -5.57207E+06    -52.8390E+06    -5.75842E+06     2.14974E+06    -10.5976E-03     21.1010E-03    -10.5035E-03     2.92180E-03    -10.5404E-03     20.8533E-03    -10.4476E-03     2.94920E-03
            2096     890.726E-06     19.3167E-03    -5.64634E+06    -53.3295E+06    -5.97247E+06     1.24559E+06    -10.5125E-03     20.9642E-03    -10.4517E-03     1.57383E-03    -10.4545E-03     20.7146E-03    -10.3961E-03     1.58972E-03
            2097     16.8456E-03     18.9416E-03    -2.83559E+06     139.663E+06     34.2392E+06     718.226E+03    -33.4775E-03     48.4457E-03    -14.9682E-03     210.749E-03    -38.0726E-03     53.4274E-03    -14.9954E-03     213.448E-03
            2098     15.9675E-03     18.7824E-03    -3.58133E+06     73.7068E+06    -16.7907E+06     985.857E+03    -26.8076E-03     41.1059E-03    -14.2983E-03     132.060E-03    -27.9610E-03     42.5570E-03    -14.4839E-03     132.185E-03
            2099     15.0871E-03     18.6902E-03    -2.83142E+06     18.3333E+06    -15.2422E+06     1.05120E+06    -22.5827E-03     36.5213E-03    -13.9386E-03     74.8508E-03    -22.7649E-03     36.8028E-03    -14.0373E-03     74.7983E-03
            2100     14.2052E-03     18.6388E-03    -527.274E+03    -17.3290E+06    -12.6190E+06     869.013E+03    -20.6631E-03     34.2548E-03    -13.5917E-03     50.6375E-03    -20.6739E-03     34.2389E-03    -13.6289E-03     50.5996E-03
            2101     13.3227E-03     18.5920E-03     1.05078E+06    -39.6352E+06    -13.3326E+06     213.126E+03    -19.8106E-03     33.0314E-03    -13.2208E-03     46.2170E-03    -19.7590E-03     32.8816E-03    -13.2315E-03     46.1830E-03
            2102     12.4393E-03     18.5488E-03     1.11766E+06    -43.9071E+06    -3.43706E+06     1.46390E+06    -18.6680E-03     31.5553E-03    -12.8872E-03     40.1274E-03    -18.6100E-03     31.3554E-03    -12.8424E-03     40.1221E-03
            2103     11.5552E-03     18.5134E-03     670.380E+03    -44.2106E+06     438.703E+03     2.11542E+06    -17.4961E-03     30.0338E-03    -12.5377E-03     33.4645E-03    -17.4380E-03     29.8199E-03    -12.4724E-03     33.4758E-03
            2104     10.6701E-03     18.4825E-03     439.856E+03    -47.2134E+06    -1.68629E+06     901.929E+03    -16.4861E-03     28.6687E-03    -12.1826E-03     28.7727E-03    -16.4180E-03     28.4394E-03    -12.1232E-03     28.7735E-03
            2105     9.78409E-03     18.4561E-03     530.307E+03    -51.0001E+06     1.68557E+06     787.356E+03    -15.4744E-03     27.3527E-03    -11.8783E-03     24.3858E-03    -15.4031E-03     27.0973E-03    -11.7967E-03     24.3887E-03
            2106     8.89728E-03     18.4337E-03     550.860E+03    -50.1821E+06     2.78361E+06     1.00280E+06    -14.4812E-03     26.0670E-03    -11.5858E-03     20.4770E-03    -14.4114E-03     25.8130E-03    -11.4999E-03     20.4849E-03
            2107     8.00965E-03     18.4147E-03     433.218E+03    -46.4183E+06     1.78876E+06     1.09714E+06    -13.5937E-03     24.9062E-03    -11.3125E-03     17.1029E-03    -13.5278E-03     24.6719E-03    -11.2369E-03     17.1136E-03
            2108     7.12130E-03     18.3989E-03     337.436E+03    -49.4264E+06     2.16506E+06      1.8933E+06    -12.8480E-03     23.9364E-03    -11.0884E-03     14.0957E-03    -12.7784E-03     23.6863E-03    -11.0064E-03     14.1177E-03
            2109     6.23241E-03     18.3858E-03    -88.7997E+03    -51.8123E+06     1.81928E+06     2.77426E+06    -12.2018E-03     23.0930E-03    -10.8912E-03     11.5196E-03    -12.1301E-03     22.8318E-03    -10.8068E-03     11.5535E-03
            2110     5.34295E-03     18.3751E-03    -781.084E+03    -51.9795E+06     1.27961E+06     3.39562E+06    -11.6595E-03     22.3796E-03    -10.7201E-03     9.29975E-03    -11.5901E-03     22.1192E-03    -10.6372E-03     9.34223E-03
            2111     4.45308E-03     18.3665E-03    -1.25843E+06    -51.0496E+06     683.545E+03     3.45506E+06    -11.2180E-03     21.7928E-03    -10.5748E-03     7.36520E-03    -11.1514E-03     21.5385E-03    -10.4955E-03     7.40880E-03
            2112     3.56287E-03     18.3597E-03    -1.58373E+06    -49.1518E+06    -477.704E+03     3.19256E+06    -10.8601E-03     21.3116E-03    -10.4516E-03     5.66793E-03    -10.7961E-03     21.0689E-03    -10.3804E-03     5.70841E-03
            2113     2.67240E-03     18.3546E-03    -2.03998E+06    -50.2532E+06    -1.62411E+06     3.10000E+06    -10.5853E-03     20.9452E-03    -10.3599E-03     4.11974E-03    -10.5203E-03     20.6993E-03    -10.2922E-03     4.15925E-03
            2114     1.78171E-03     18.3510E-03    -2.33739E+06    -50.5306E+06    -2.39179E+06     2.38209E+06    -10.3868E-03     20.6848E-03    -10.2979E-03     2.72549E-03    -10.3217E-03     20.4390E-03    -10.2332E-03     2.75591E-03
            2115     890.825E-06     18.3487E-03    -2.37730E+06    -50.7940E+06    -2.49217E+06     1.47327E+06    -10.2917E-03     20.5541E-03    -10.2623E-03     1.49132E-03    -10.2261E-03     20.3074E-03    -10.1977E-03     1.51015E-03
            2116     16.8463E-03     17.9531E-03    -2.88431E+06     138.980E+06     34.7530E+06     692.227E+03    -34.0930E-03     49.0377E-03    -14.9447E-03     206.711E-03    -38.5261E-03     53.8534E-03    -14.9683E-03     209.263E-03
            2117     15.9689E-03     17.7975E-03    -3.39710E+06     73.5129E+06    -16.8000E+06     1.01579E+06    -27.3802E-03     41.6042E-03    -14.2240E-03     128.842E-03    -28.4790E-03     43.0007E-03    -14.4096E-03     128.938E-03
            2118     15.0887E-03     17.7085E-03    -2.70129E+06     18.9903E+06    -15.3910E+06     483.834E+03    -22.7833E-03     36.6122E-03    -13.8289E-03     73.0553E-03    -22.9568E-03     36.8882E-03    -13.9294E-03     72.9946E-03
            2119     14.2070E-03     17.6583E-03    -2.03938E+06    -16.7790E+06    -13.5907E+06    -222.797E+03    -20.7722E-03     34.2334E-03    -13.4612E-03     49.6465E-03    -20.7874E-03     34.2212E-03    -13.5019E-03     49.5953E-03
            2120     13.3246E-03     17.6126E-03    -1.72027E+06    -40.6043E+06    -14.6039E+06     867.259E+03    -19.8272E-03     32.9053E-03    -13.0781E-03     45.0422E-03    -19.7846E-03     32.7549E-03    -13.0897E-03     45.0176E-03
            2121     12.4415E-03     17.5709E-03    -1.50640E+06    -44.8056E+06    -5.25407E+06     1.53913E+06    -18.6640E-03     31.3925E-03    -12.7285E-03     38.8344E-03    -18.6142E-03     31.1935E-03    -12.6876E-03     38.8309E-03
            2122     11.5571E-03     17.5368E-03    -95.5199E+03    -43.3321E+06    -428.853E+03     1.11725E+06    -17.4639E-03     29.8297E-03    -12.3658E-03     32.3232E-03    -17.4090E-03     29.6219E-03    -12.3050E-03     32.3223E-03
            2123     10.6719E-03     17.5074E-03     1.17473E+06    -46.4385E+06    -1.92448E+06     1.01510E+06    -16.3918E-03     28.3936E-03    -12.0018E-03     27.6198E-03    -16.3204E-03     28.1671E-03    -11.9457E-03     27.6226E-03
            2124     9.78588E-03     17.4821E-03     1.25957E+06    -51.1441E+06     1.33403E+06     723.117E+03    -15.3506E-03     27.0417E-03    -11.6911E-03     23.2230E-03    -15.2747E-03     26.7849E-03    -11.6121E-03     23.2254E-03
            2125     8.89897E-03     17.4610E-03     1.26058E+06    -50.1361E+06     3.60784E+06     746.682E+03    -14.3393E-03     25.7375E-03    -11.3982E-03     19.3597E-03    -14.2671E-03     25.4813E-03    -11.3093E-03     19.3646E-03
            2126     8.01116E-03     17.4431E-03     1.32972E+06    -46.7577E+06     1.89505E+06     1.08991E+06    -13.4272E-03     24.5442E-03    -11.1170E-03     16.1152E-03    -13.3564E-03     24.3067E-03    -11.0416E-03     16.1260E-03
            2127     7.12273E-03     17.4282E-03     1.13044E+06    -50.5239E+06     2.08230E+06     1.96404E+06    -12.6681E-03     23.5583E-03    -10.8902E-03     13.2315E-03    -12.5928E-03     23.3016E-03    -10.8082E-03     13.2545E-03
            2128     6.23362E-03     17.4160E-03     745.606E+03    -52.2178E+06     2.18981E+06     3.15911E+06    -12.0184E-03     22.7102E-03    -10.6918E-03     10.7683E-03    -11.9425E-03     22.4452E-03    -10.6062E-03     10.8073E-03
            2129     5.34401E-03     17.4059E-03     491.615E+03    -51.4816E+06     1.55494E+06     3.50909E+06    -11.4740E-03     21.9898E-03    -10.5158E-03     8.66191E-03    -11.3993E-03     21.7296E-03    -10.4341E-03     8.70595E-03
            2130     4.45399E-03     17.3978E-03     587.521E+03    -49.8396E+06     1.73975E+06     3.15084E+06    -11.0300E-03     21.3998E-03    -10.3698E-03     6.82372E-03    -10.9574E-03     21.1474E-03    -10.2897E-03     6.86346E-03
            2131     3.56360E-03     17.3915E-03     728.017E+03    -48.5062E+06     1.85126E+06     3.10305E+06    -10.6669E-03     20.9176E-03    -10.2506E-03     5.21378E-03    -10.5957E-03     20.6713E-03    -10.1721E-03     5.25316E-03
            2132     2.67294E-03     17.3867E-03     796.767E+03    -48.7127E+06     1.79028E+06     3.09971E+06    -10.3912E-03     20.5505E-03    -10.1593E-03     3.78146E-03    -10.3191E-03     20.3032E-03    -10.0809E-03     3.82099E-03
            2133     1.78208E-03     17.3833E-03     662.081E+03    -48.0885E+06     1.55372E+06     2.42712E+06    -10.1941E-03     20.2859E-03    -10.0917E-03     2.49849E-03    -10.1233E-03     20.0422E-03    -10.0152E-03     2.52950E-03
            2134     891.103E-06     17.3813E-03     280.355E+03    -48.0644E+06     709.043E+03     1.48514E+06    -10.0808E-03     20.1208E-03    -10.0400E-03     1.37989E-03    -10.0105E-03     19.8793E-03    -9.96719E-03     1.39889E-03
            2135     16.8470E-03     16.9637E-03    -3.04405E+06     138.533E+06     35.8867E+06     719.052E+03    -34.5064E-03     49.4273E-03    -14.9209E-03     203.319E-03    -38.7807E-03     54.0787E-03    -14.9379E-03     205.720E-03
            2136     15.9697E-03     16.8126E-03    -4.00854E+06     73.3172E+06    -16.5970E+06     858.526E+03    -27.6292E-03     41.7944E-03    -14.1652E-03     125.382E-03    -28.6723E-03     43.1319E-03    -14.3487E-03     125.453E-03
            2137     15.0900E-03     16.7263E-03    -3.28569E+06     20.1905E+06    -16.0246E+06     537.642E+03    -23.0695E-03     36.8063E-03    -13.7368E-03     70.7864E-03    -23.2377E-03     37.0811E-03    -13.8414E-03     70.7251E-03
            2138     14.2086E-03     16.6778E-03    -3.06293E+06    -16.6665E+06    -13.9551E+06     294.641E+03    -20.9268E-03     34.2767E-03    -13.3499E-03     48.2926E-03    -20.9440E-03     34.2644E-03    -13.3911E-03     48.2486E-03
            2139     13.3263E-03     16.6333E-03    -1.82546E+06    -41.8047E+06    -15.8606E+06     296.806E+03    -19.8752E-03     32.8222E-03    -12.9470E-03     43.7845E-03    -19.8279E-03     32.6661E-03    -12.9631E-03     43.7535E-03
            2140     12.4430E-03     16.5932E-03     773.212E+03    -44.3580E+06    -5.46236E+06     397.358E+03    -18.6840E-03     31.2680E-03    -12.5840E-03     37.4436E-03    -18.6221E-03     31.0673E-03    -12.5481E-03     37.4261E-03
            2141     11.5588E-03     16.5605E-03     1.52701E+06    -43.4019E+06     174.641E+03     517.257E+03    -17.4674E-03     29.6817E-03    -12.2144E-03     30.9507E-03    -17.4045E-03     29.4698E-03    -12.1528E-03     30.9426E-03
            2142     10.6737E-03     16.5324E-03     1.46377E+06    -46.3471E+06    -1.41177E+06     703.026E+03    -16.3491E-03     28.1884E-03    -11.8393E-03     26.2499E-03    -16.2767E-03     27.9608E-03    -11.7813E-03     26.2491E-03
            2143     9.78754E-03     16.5085E-03     2.05320E+06    -50.6222E+06     1.79810E+06     594.553E+03    -15.2607E-03     26.7775E-03    -11.5168E-03     21.8911E-03    -15.1820E-03     26.5212E-03    -11.4374E-03     21.8921E-03
            2144     8.90053E-03     16.4885E-03     2.14271E+06    -50.5474E+06     4.54024E+06     583.375E+03    -14.2384E-03     25.4569E-03    -11.2185E-03     18.0740E-03    -14.1623E-03     25.1959E-03    -11.1256E-03     18.0770E-03
            2145     8.01274E-03     16.4718E-03     1.73754E+06    -47.3296E+06     2.52833E+06     1.30903E+06    -13.3018E-03     24.2298E-03    -10.9280E-03     14.9333E-03    -13.2290E-03     23.9878E-03    -10.8493E-03     14.9471E-03
            2146     7.12405E-03     16.4579E-03     1.32079E+06    -51.4711E+06     1.73284E+06     2.24601E+06    -12.5168E-03     23.2066E-03    -10.6898E-03     12.1835E-03    -12.4386E-03     22.9454E-03    -10.6084E-03     12.2103E-03
            2147     6.23485E-03     16.4464E-03     1.22332E+06    -52.6456E+06     3.21366E+06     3.04374E+06    -11.8605E-03     22.3506E-03    -10.4901E-03     9.81980E-03    -11.7830E-03     22.0812E-03    -10.3995E-03     9.85750E-03
            2148     5.34511E-03     16.4370E-03     1.44251E+06    -50.4173E+06     3.04428E+06     3.15981E+06    -11.2972E-03     21.6038E-03    -10.3066E-03     7.84949E-03    -11.2215E-03     21.3454E-03    -10.2203E-03     7.88912E-03
            2149     4.45492E-03     16.4295E-03     1.57585E+06    -48.8857E+06     2.66239E+06     2.81342E+06    -10.8340E-03     20.9862E-03    -10.1522E-03     6.15838E-03    -10.7592E-03     20.7357E-03    -10.0703E-03     6.19385E-03
            2150     3.56439E-03     16.4236E-03     1.52404E+06    -47.8919E+06     3.14218E+06     2.72530E+06    -10.4606E-03     20.4916E-03    -10.0310E-03     4.67041E-03    -10.3882E-03     20.2454E-03    -9.94804E-03     4.70498E-03
            2151     2.67354E-03     16.4192E-03     1.54678E+06    -47.2224E+06     3.14994E+06     2.52518E+06    -10.1698E-03     20.1052E-03    -9.93538E-03     3.38115E-03    -10.0981E-03     19.8622E-03    -9.85340E-03     3.41331E-03
            2152     1.78248E-03     16.4160E-03     1.80802E+06    -45.9876E+06     2.58039E+06     1.98109E+06    -9.97523E-03     19.8357E-03    -9.86043E-03     2.24639E-03    -9.90322E-03     19.5994E-03    -9.78347E-03     2.27168E-03
            2153     891.285E-06     16.4142E-03     2.11024E+06    -45.5209E+06     2.26902E+06     1.29175E+06    -9.87369E-03     19.6559E-03    -9.78223E-03     1.22838E-03    -9.80019E-03     19.4222E-03    -9.70794E-03     1.24489E-03
            2154     16.8473E-03     15.9743E-03    -3.24810E+06     137.617E+06     35.9530E+06     938.774E+03    -34.8971E-03     49.8009E-03    -14.9038E-03     199.651E-03    -39.0009E-03     54.2777E-03    -14.9189E-03     201.908E-03
            2155     15.9705E-03     15.8270E-03    -4.35417E+06     73.8075E+06    -16.3268E+06     1.09189E+06    -27.9516E-03     42.0667E-03    -14.1151E-03     121.539E-03    -28.9372E-03     43.3464E-03    -14.2975E-03     121.587E-03
            2156     15.0913E-03     15.7438E-03    -3.92194E+06     20.8370E+06    -16.7912E+06     785.117E+03    -23.2806E-03     36.9355E-03    -13.6549E-03     68.2031E-03    -23.4418E-03     37.2055E-03    -13.7633E-03     68.1442E-03
            2157     14.2101E-03     15.6973E-03    -2.88788E+06    -15.8348E+06    -14.2395E+06     148.832E+03    -21.0801E-03     34.3290E-03    -13.2489E-03     46.8437E-03    -21.0944E-03     34.3182E-03    -13.2930E-03     46.7985E-03
            2158     13.3278E-03     15.6541E-03    -1.13973E+06    -41.2527E+06    -16.8267E+06    -1.09443E+06    -20.0008E-03     32.8254E-03    -12.8246E-03     42.3745E-03    -19.9478E-03     32.6707E-03    -12.8473E-03     42.3263E-03
            2159     12.4448E-03     15.6155E-03     165.323E+03    -45.4560E+06    -7.52341E+06    -836.022E+03    -18.7680E-03     31.2109E-03    -12.4429E-03     35.8631E-03    -18.7034E-03     31.0074E-03    -12.4148E-03     35.8304E-03
            2160     11.5606E-03     15.5842E-03     1.46454E+06    -43.5606E+06    -336.544E+03     146.814E+03    -17.5229E-03     29.5843E-03    -12.0613E-03     29.3473E-03    -17.4588E-03     29.3717E-03    -12.0020E-03     29.3350E-03
            2161     10.6754E-03     15.5575E-03     2.70055E+06    -46.4194E+06    -721.808E+03     225.852E+03    -16.3763E-03     28.0489E-03    -11.6726E-03     24.5622E-03    -16.2982E-03     27.8178E-03    -11.6128E-03     24.5557E-03
            2162     9.78929E-03     15.5350E-03     3.18222E+06    -50.4414E+06     2.51760E+06     318.186E+03    -15.2431E-03     26.5761E-03    -11.3330E-03     20.2024E-03    -15.1598E-03     26.3178E-03    -11.2519E-03     20.2003E-03
            2163     8.90225E-03     15.5163E-03     3.25226E+06    -50.8588E+06     5.48716E+06     536.109E+03    -14.1798E-03     25.2006E-03    -11.0207E-03     16.4327E-03    -14.0990E-03     24.9348E-03    -10.9243E-03     16.4353E-03
            2164     8.01428E-03     15.5008E-03     3.14038E+06    -48.7295E+06     5.22092E+06     1.55626E+06    -13.2227E-03     23.9472E-03    -10.7245E-03     13.3587E-03    -13.1446E-03     23.6921E-03    -10.6323E-03     13.3759E-03
            2165     7.12568E-03     15.4879E-03     2.71726E+06    -51.7422E+06     4.58336E+06     2.65832E+06    -12.3888E-03     22.8594E-03    -10.4706E-03     10.7828E-03    -12.3073E-03     22.5905E-03    -10.3766E-03     10.8150E-03
            2166     6.23633E-03     15.4772E-03     2.33898E+06    -52.4229E+06     4.75525E+06     2.66420E+06    -11.6779E-03     21.9305E-03    -10.2526E-03     8.63703E-03    -11.5973E-03     21.6584E-03    -10.1562E-03     8.66998E-03
            2167     5.34644E-03     15.4686E-03     2.32967E+06    -49.7270E+06     4.73491E+06     2.61346E+06    -11.0846E-03     21.1460E-03    -10.0614E-03     6.85415E-03    -11.0078E-03     20.8873E-03    -9.96904E-03     6.88684E-03
            2168     4.45606E-03     15.4616E-03     2.35050E+06    -48.0456E+06     4.09060E+06     2.54904E+06    -10.5936E-03     20.4939E-03    -9.90039E-03     5.34851E-03    -10.5181E-03     20.2445E-03    -9.81368E-03     5.38066E-03
            2169     3.56528E-03     15.4562E-03     2.39248E+06    -47.0457E+06     3.97476E+06     2.23122E+06    -10.2107E-03     19.9838E-03    -9.77305E-03     4.05486E-03    -10.1363E-03     19.7393E-03    -9.68843E-03     4.08312E-03
            2170     2.67425E-03     15.4522E-03     2.59201E+06    -45.8570E+06     3.87134E+06     1.78270E+06    -9.92626E-03     19.5978E-03    -9.67152E-03     2.92242E-03    -9.85241E-03     19.3591E-03    -9.58943E-03     2.94505E-03
            2171     1.78294E-03     15.4493E-03     2.87915E+06    -44.5671E+06     3.35893E+06     1.30318E+06    -9.71234E-03     19.3051E-03    -9.59271E-03     1.92762E-03    -9.63817E-03     19.0732E-03    -9.51547E-03     1.94420E-03
            2172     891.524E-06     15.4475E-03     3.23217E+06    -43.5127E+06     3.34455E+06     827.164E+03    -9.59920E-03     19.1200E-03    -9.52084E-03     1.02842E-03    -9.52458E-03     18.8932E-03    -9.44571E-03     1.03896E-03
            2173     16.8473E-03     14.9839E-03    -3.02031E+06     136.670E+06     36.2094E+06     932.019E+03    -35.4429E-03     50.3296E-03    -14.8867E-03     195.452E-03    -39.3728E-03     54.6292E-03    -14.8995E-03     197.548E-03
            2174     15.9716E-03     14.8408E-03    -3.45554E+06     74.1463E+06    -15.6129E+06     1.51612E+06    -28.1086E-03     42.1730E-03    -14.0644E-03     117.056E-03    -29.0236E-03     43.3845E-03    -14.2450E-03     117.085E-03
            2175     15.0923E-03     14.7615E-03     -2.6829E+06     21.7983E+06    -16.3899E+06     1.02963E+06    -23.3555E-03     36.9380E-03    -13.5825E-03     65.6243E-03    -23.5023E-03     37.2003E-03    -13.6922E-03     65.5689E-03
            2176     14.2112E-03     14.7164E-03    -2.24377E+06    -14.3994E+06    -14.3261E+06    -282.350E+03    -21.3552E-03     34.5103E-03    -13.1552E-03     45.2058E-03    -21.3655E-03     34.5033E-03    -13.2027E-03     45.1553E-03
            2177     13.3293E-03     14.6747E-03    -1.82271E+06    -40.4194E+06    -17.3833E+06    -1.13352E+06    -20.2424E-03     32.9481E-03    -12.7058E-03     40.5991E-03    -20.1913E-03     32.7976E-03    -12.7314E-03     40.5509E-03
            2178     12.4463E-03     14.6378E-03    -1.16691E+06    -46.5560E+06      -9.145E+06    -1.31404E+06    -18.9560E-03     31.2523E-03    -12.2963E-03     33.9616E-03    -18.8930E-03     31.0464E-03    -12.2728E-03     33.9235E-03
            2179     11.5623E-03     14.6080E-03    -286.147E+03    -43.8937E+06    -2.31297E+06    -1.14010E+06    -17.6787E-03     29.5645E-03    -11.8858E-03     27.4049E-03    -17.6192E-03     29.3549E-03    -11.8333E-03     27.3766E-03
            2180     10.6775E-03     14.5827E-03     825.570E+03    -46.8022E+06    -2.17624E+06    -683.547E+03    -16.4908E-03     27.9628E-03    -11.4720E-03     22.5005E-03    -16.4190E-03     27.7341E-03    -11.4162E-03     22.4827E-03
            2181     9.79144E-03     14.5617E-03     1.91476E+06    -50.6714E+06     2.15417E+06    -248.139E+03    -15.2942E-03     26.4030E-03    -11.1088E-03     18.1221E-03    -15.2161E-03     26.1456E-03    -11.0273E-03     18.1130E-03
            2182     8.90443E-03     14.5444E-03     2.43090E+06    -51.2837E+06     6.00690E+06     147.602E+03    -14.1545E-03     24.9291E-03    -10.7746E-03     14.4407E-03    -14.0777E-03     24.6615E-03    -10.6737E-03     14.4386E-03
            2183     8.01658E-03     14.5300E-03     2.47711E+06    -50.5908E+06     6.23013E+06     1.35844E+06    -13.1224E-03     23.5822E-03    -10.4599E-03     11.5184E-03    -13.0462E-03     23.3173E-03    -10.3590E-03     11.5332E-03
            2184     7.12776E-03     14.5182E-03     2.46681E+06    -51.8222E+06     6.00100E+06     2.59773E+06    -12.2099E-03     22.3965E-03    -10.1866E-03     9.16529E-03    -12.1315E-03     22.1255E-03    -10.0850E-03     9.19697E-03
            2185     6.23823E-03     14.5085E-03     2.26071E+06    -51.4960E+06     5.36208E+06     2.55901E+06    -11.4325E-03     21.3827E-03    -9.95022E-03     7.27320E-03    -11.3545E-03     21.1144E-03    -9.85202E-03     7.30494E-03
            2186     5.34807E-03     14.5006E-03     1.98155E+06    -49.3314E+06     4.67068E+06     2.14364E+06    -10.7952E-03     20.5448E-03    -9.74962E-03     5.71605E-03    -10.7207E-03     20.2886E-03    -9.65761E-03     5.74281E-03
            2187     4.45745E-03     14.4943E-03     2.01468E+06    -47.3096E+06     4.34845E+06     2.02782E+06    -10.2810E-03     19.8675E-03    -9.58649E-03     4.42771E-03    -10.2087E-03     19.6218E-03    -9.49907E-03     4.45323E-03
            2188     3.56639E-03     14.4894E-03     2.19299E+06    -45.9645E+06     3.50027E+06     1.63571E+06    -9.88967E-03     19.3440E-03    -9.45429E-03     3.36347E-03    -9.81716E-03     19.1059E-03    -9.37332E-03     3.38412E-03
            2189     2.67505E-03     14.4857E-03     2.48718E+06    -44.8380E+06     3.15118E+06     1.08959E+06    -9.61091E-03     18.9624E-03    -9.35153E-03     2.42424E-03    -9.53802E-03     18.7301E-03    -9.27436E-03     2.43798E-03
            2190     1.78356E-03     14.4831E-03     2.77193E+06     -43.643E+06     3.58961E+06     702.672E+03    -9.40040E-03     18.6758E-03    -9.27536E-03     1.59157E-03    -9.32843E-03     18.4483E-03    -9.19815E-03     1.60044E-03
            2191     891.794E-06     14.4816E-03     2.84620E+06    -42.2921E+06     3.26686E+06     415.714E+03    -9.27659E-03     18.4761E-03    -9.19952E-03     833.999E-06    -9.20556E-03     18.2560E-03    -9.12599E-03     839.256E-06
            2192     16.8483E-03     13.9914E-03    -2.86939E+06     135.749E+06     36.6886E+06     824.296E+03    -35.9045E-03     50.7770E-03    -14.8725E-03     191.405E-03    -39.6656E-03     54.9037E-03    -14.8817E-03     193.336E-03
            2193     15.9726E-03     13.8555E-03    -3.25688E+06     73.9257E+06    -15.8592E+06     1.51561E+06    -28.2807E-03     42.2959E-03    -14.0152E-03     112.492E-03    -29.1250E-03     43.4373E-03    -14.1970E-03     112.501E-03
            2194     15.0931E-03     13.7787E-03    -2.64976E+06     23.2192E+06    -16.3150E+06     1.05348E+06    -23.6337E-03     37.1414E-03    -13.5077E-03     62.9058E-03    -23.7732E-03     37.4013E-03    -13.6191E-03     62.8501E-03
            2195     14.2126E-03     13.7353E-03    -2.16605E+06    -13.1902E+06    -13.8242E+06     102.901E+03    -21.6979E-03     34.7526E-03    -13.0547E-03     43.1323E-03    -21.7074E-03     34.7477E-03    -13.1015E-03     43.0870E-03
            2196     13.3310E-03     13.6952E-03    -1.58628E+06    -39.7521E+06    -17.0043E+06    -697.429E+03    -20.6100E-03     33.1819E-03    -12.5719E-03     38.4472E-03    -20.5573E-03     33.0319E-03    -12.5970E-03     38.4050E-03
            2197     12.4486E-03     13.6599E-03    -791.603E+03    -46.2416E+06    -9.11654E+06    -1.59936E+06    -19.2984E-03     31.4218E-03    -12.1234E-03     31.6251E-03    -19.2328E-03     31.2157E-03    -12.1008E-03     31.5838E-03
            2198     11.5648E-03     13.6317E-03    -66.1787E+03    -44.5406E+06    -2.31573E+06    -1.73482E+06    -17.9523E-03     29.6273E-03    -11.6750E-03     25.0443E-03    -17.8900E-03     29.4134E-03    -11.6219E-03     25.0088E-03
            2199     10.6800E-03     13.6080E-03     227.441E+03    -47.4372E+06    -873.984E+03    -1.25438E+06    -16.6703E-03     27.9003E-03    -11.2300E-03     20.0318E-03    -16.6019E-03     27.6670E-03    -11.1659E-03     20.0070E-03
            2200     9.79424E-03     13.5886E-03     511.310E+03    -50.7951E+06     2.61086E+06    -1.14177E+06    -15.3585E-03     26.1851E-03    -10.8266E-03     15.7271E-03    -15.2875E-03     25.9282E-03    -10.7407E-03     15.7068E-03
            2201     8.90732E-03     13.5727E-03     879.395E+03    -52.3918E+06     5.45514E+06    -534.159E+03    -14.1095E-03     24.5665E-03    -10.4570E-03     12.2296E-03    -14.0379E-03     24.2962E-03    -10.3550E-03     12.2190E-03
            2202     8.01925E-03     13.5597E-03     791.686E+03    -52.4217E+06     5.79495E+06     1.04200E+06    -12.9752E-03     23.0926E-03    -10.1174E-03     9.49757E-03    -12.9041E-03     22.8214E-03    -10.0136E-03     9.50854E-03
            2203     7.13033E-03     13.5491E-03     387.843E+03    -52.0401E+06     5.41117E+06     2.18005E+06    -11.9770E-03     21.7971E-03    -9.82010E-03     7.35346E-03    -11.9077E-03     21.5287E-03    -9.71815E-03     7.37993E-03
            2204     6.24059E-03     13.5404E-03     179.874E+03    -50.5543E+06     4.68830E+06     2.22020E+06    -11.1234E-03     20.6890E-03    -9.56560E-03     5.70339E-03    -11.0561E-03     20.4293E-03    -9.46912E-03     5.73091E-03
            2205     5.35016E-03     13.5333E-03     109.979E+03    -48.5730E+06     3.13007E+06     1.71456E+06    -10.4287E-03     19.7796E-03    -9.35088E-03     4.40362E-03    -10.3623E-03     19.5321E-03    -9.26496E-03     4.42497E-03
            2206     4.45915E-03     13.5276E-03     220.436E+03    -46.7362E+06     2.40013E+06     1.25181E+06    -9.89204E-03     19.0728E-03    -9.18074E-03     3.34674E-03    -9.82669E-03     18.8353E-03    -9.10130E-03     3.36235E-03
            2207     3.56778E-03     13.5232E-03     569.337E+03    -45.0518E+06     2.18615E+06     966.007E+03    -9.48176E-03     18.5307E-03    -9.04891E-03     2.51235E-03    -9.41678E-03     18.3014E-03    -8.97348E-03     2.52443E-03
            2208     2.67609E-03     13.5198E-03     735.307E+03    -44.1161E+06     1.59454E+06     575.343E+03    -9.18169E-03     18.1310E-03    -8.94934E-03     1.80050E-03    -9.11635E-03     17.9071E-03    -8.87847E-03     1.80766E-03
            2209     1.78412E-03     13.5175E-03     714.299E+03    -43.0788E+06     1.15919E+06     291.882E+03    -8.99003E-03     17.8671E-03    -8.87711E-03     1.17442E-03    -8.92565E-03     17.6490E-03    -8.80989E-03     1.17802E-03
            2210     892.166E-06     13.5161E-03     590.781E+03    -41.8459E+06     872.269E+03     196.114E+03    -8.88869E-03     17.6886E-03    -8.79995E-03     600.368E-06    -8.82613E-03     17.4775E-03    -8.73577E-03     602.814E-06
            2211     16.8479E-03     12.9994E-03    -3.21903E+06     134.718E+06     36.8567E+06     726.563E+03    -36.2045E-03     51.0688E-03    -14.8643E-03     186.596E-03    -39.7648E-03     54.9893E-03    -14.8707E-03     188.352E-03
            2212     15.9726E-03     12.8690E-03    -4.30216E+06     73.5616E+06    -15.9965E+06     1.09487E+06    -28.6258E-03     42.5990E-03    -13.9732E-03     107.749E-03    -29.4121E-03     43.6778E-03    -14.1536E-03     107.733E-03
            2213     15.0949E-03     12.7956E-03    -3.40189E+06     24.4882E+06    -16.3753E+06     1.18486E+06    -24.1873E-03     37.6122E-03    -13.4249E-03     59.9779E-03    -24.3232E-03     37.8707E-03    -13.5374E-03     59.9216E-03
            2214     14.2143E-03     12.7542E-03    -2.76496E+06    -12.0258E+06    -13.9672E+06     268.091E+03    -22.2110E-03     35.1400E-03    -12.9289E-03     41.1643E-03    -22.2219E-03     35.1389E-03    -12.9773E-03     41.1211E-03
            2215     13.3332E-03     12.7151E-03    -1.88579E+06    -39.0807E+06    -17.4279E+06    -577.224E+03    -21.1805E-03     33.5783E-03    -12.3978E-03     35.9807E-03    -21.1277E-03     33.4308E-03    -12.4256E-03     35.9402E-03
            2216     12.4511E-03     12.6820E-03    -1.49820E+06     -45.378E+06    -9.54581E+06    -1.17884E+06    -19.7664E-03     31.6636E-03    -11.8972E-03     28.8594E-03    -19.7036E-03     31.4622E-03    -11.8770E-03     28.8240E-03
            2217     11.5679E-03     12.6552E-03    -1.60247E+06    -44.5413E+06    -4.01195E+06    -2.06667E+06    -18.2887E-03     29.6825E-03    -11.3938E-03     22.3062E-03    -18.2308E-03     29.4725E-03    -11.3470E-03     22.2669E-03
            2218     10.6836E-03     12.6334E-03    -556.076E+03    -48.2116E+06    -1.43773E+06    -2.15617E+06    -16.8391E-03     27.7471E-03    -10.9080E-03     17.2465E-03    -16.7723E-03     27.5114E-03    -10.8444E-03     17.2105E-03
            2219     9.79779E-03     12.6156E-03     181.496E+03    -51.1090E+06     3.15165E+06    -1.51989E+06    -15.3738E-03     25.8428E-03    -10.4690E-03     13.0725E-03    -15.3046E-03     25.5838E-03    -10.3794E-03     13.0476E-03
            2220     8.91079E-03     12.6014E-03    -491.152E+03    -53.9180E+06     4.89238E+06    -647.663E+03    -14.0118E-03     24.0749E-03    -10.0631E-03     9.78705E-03    -13.9438E-03     23.7997E-03    -9.95977E-03     9.77524E-03
            2221     8.02275E-03     12.5899E-03    -1.32076E+06    -54.2054E+06     5.24609E+06     859.139E+03    -12.7785E-03     22.4740E-03    -9.69554E-03     7.29231E-03    -12.7144E-03     22.1976E-03    -9.58879E-03     7.30111E-03
            2222     7.13362E-03     12.5806E-03    -1.74586E+06    -52.0007E+06     4.70972E+06     1.72634E+06    -11.6867E-03     21.0568E-03    -9.37010E-03     5.43722E-03    -11.6270E-03     20.7927E-03    -9.26862E-03     5.45799E-03
            2223     6.24358E-03     12.5730E-03    -1.93049E+06    -49.7987E+06     3.43260E+06     1.48004E+06    -10.7652E-03     19.8569E-03    -9.09162E-03     4.06606E-03    -10.7078E-03     19.6058E-03    -8.99945E-03     4.08415E-03
            2224     5.35278E-03     12.5668E-03    -1.85327E+06    -47.7614E+06     1.80414E+06     1.03366E+06    -10.0213E-03     18.8808E-03    -8.85950E-03     3.02337E-03    -9.96393E-03     18.6421E-03    -8.77854E-03     3.03601E-03
            2225     4.46145E-03     12.5618E-03    -1.69857E+06    -46.1214E+06     625.282E+03     556.768E+03    -9.43711E-03     18.1112E-03    -8.67413E-03     2.20296E-03    -9.37966E-03     17.8822E-03    -8.60166E-03     2.20966E-03
            2226     3.56963E-03     12.5579E-03    -1.59790E+06    -44.6730E+06     81.7714E+03     255.893E+03    -8.98542E-03     17.5185E-03    -8.53310E-03     1.59246E-03    -8.92876E-03     17.2973E-03    -8.46560E-03     1.59543E-03
            2227     2.67745E-03     12.5549E-03    -1.45595E+06    -43.7012E+06    -463.468E+03     195.779E+03    -8.66373E-03     17.0943E-03    -8.43058E-03     1.10920E-03    -8.60696E-03     16.8786E-03    -8.36742E-03     1.11151E-03
            2228     1.78512E-03     12.5528E-03    -1.48077E+06    -42.8614E+06    -1.19977E+06     161.421E+03    -8.45602E-03     16.8174E-03    -8.36138E-03     699.332E-06    -8.39952E-03     16.6070E-03    -8.30309E-03     701.280E-06
            2229     892.537E-06     12.5516E-03    -1.50780E+06    -41.6636E+06    -1.57654E+06     104.079E+03    -8.36715E-03     16.6676E-03    -8.30042E-03     316.904E-06    -8.31182E-03     16.4640E-03    -8.24570E-03     318.168E-06
            2230     16.8490E-03     12.0089E-03    -3.07077E+06     133.681E+06     37.4252E+06     1.02025E+06    -36.7303E-03     51.5939E-03    -14.8636E-03     181.808E-03    -40.0814E-03     55.3004E-03    -14.8659E-03     183.406E-03
            2231     15.9738E-03     11.8808E-03    -4.05860E+06     73.5058E+06    -15.1042E+06     1.46084E+06    -29.2397E-03     43.1675E-03    -13.9278E-03     102.999E-03    -29.9662E-03     44.1847E-03    -14.1041E-03     102.963E-03
            2232     15.0957E-03     11.8126E-03    -3.64454E+06     25.5140E+06    -15.5786E+06     1.14108E+06    -24.9036E-03     38.2311E-03    -13.3275E-03     56.5900E-03    -25.0336E-03     38.4841E-03    -13.4371E-03     56.5308E-03
            2233     14.2163E-03     11.7719E-03    -3.17101E+06    -10.7377E+06    -13.5993E+06     374.807E+03    -23.1413E-03     35.9081E-03    -12.7668E-03     38.7005E-03    -23.1538E-03     35.9108E-03    -12.8146E-03     38.6574E-03
            2234     13.3363E-03     11.7349E-03    -2.53822E+06    -38.3431E+06    -16.9785E+06    -480.998E+03    -21.9393E-03     34.1062E-03    -12.1669E-03     32.7606E-03    -21.8894E-03     33.9606E-03    -12.1926E-03     32.7213E-03
            2235     12.4549E-03     11.7035E-03    -1.64951E+06    -44.8434E+06    -9.17958E+06    -986.622E+03    -20.2573E-03     31.8581E-03    -11.6008E-03     25.5186E-03    -20.1953E-03     31.6578E-03    -11.5793E-03     25.4863E-03
            2236     11.5721E-03     11.6788E-03    -1.10005E+06    -43.3705E+06    -3.75090E+06    -1.88911E+06    -18.5512E-03     29.5915E-03    -11.0404E-03     19.1561E-03    -18.4921E-03     29.3856E-03    -10.9946E-03     19.1198E-03
            2237     10.6878E-03     11.6589E-03    -1.69137E+06    -48.8548E+06    -1.94937E+06    -2.60701E+06    -16.9036E-03     27.4139E-03    -10.5103E-03     14.2435E-03    -16.8403E-03     27.1770E-03    -10.4468E-03     14.2022E-03
            2238     9.80213E-03     11.6432E-03    -2.27706E+06    -52.5492E+06     2.77268E+06    -1.66914E+06    -15.2836E-03     25.3213E-03    -10.0377E-03     10.3371E-03    -15.2237E-03     25.0589E-03    -9.94437E-03     10.3106E-03
            2239     8.91511E-03     11.6307E-03    -2.99523E+06    -55.2695E+06     4.55408E+06    -143.489E+03    -13.7967E-03     23.3981E-03    -9.60145E-03     7.37424E-03    -13.7386E-03     23.1201E-03    -9.49419E-03     7.36915E-03
            2240     8.02678E-03     11.6208E-03    -3.96285E+06    -55.2661E+06     3.80796E+06     640.760E+03    -12.4629E-03     21.6668E-03    -9.20386E-03     5.26388E-03    -12.4084E-03     21.3910E-03    -9.09894E-03     5.27004E-03
            2241     7.13735E-03     11.6129E-03    -4.21748E+06    -51.7355E+06     3.12959E+06     766.679E+03    -11.3171E-03     20.1723E-03    -8.85515E-03     3.78346E-03    -11.2679E-03     19.9153E-03    -8.75837E-03     3.79195E-03
            2242     6.24700E-03     11.6065E-03    -4.01965E+06    -49.2441E+06     2.14002E+06     547.496E+03    -10.3700E-03     18.9268E-03    -8.55684E-03     2.69444E-03    -10.3218E-03     18.6834E-03    -8.46891E-03     2.70054E-03
            2243     5.35590E-03     11.6012E-03    -3.96852E+06    -47.1964E+06     445.096E+03     178.176E+03    -9.57817E-03     17.8821E-03    -8.30392E-03     1.90492E-03    -9.53026E-03     17.6513E-03    -8.22751E-03     1.90655E-03
            2244     4.46410E-03     11.5970E-03    -3.91929E+06    -45.7187E+06    -1.14035E+06    -109.218E+03    -8.94106E-03     17.0397E-03    -8.09859E-03     1.32175E-03    -8.89274E-03     16.8184E-03    -8.03232E-03     1.31987E-03
            2245     3.57182E-03     11.5937E-03    -3.87448E+06    -44.6091E+06    -2.34868E+06    -223.906E+03    -8.45759E-03     16.3957E-03    -7.93807E-03     890.498E-06    -8.40888E-03     16.1816E-03    -7.87952E-03     887.281E-06
            2246     2.67917E-03     11.5911E-03    -3.88310E+06    -43.7391E+06    -3.16509E+06    -178.232E+03    -8.09902E-03     15.9175E-03    -7.81851E-03     576.920E-06    -8.05042E-03     15.7090E-03    -7.76528E-03     574.399E-06
            2247     1.78621E-03     11.5892E-03    -3.79084E+06    -42.8572E+06    -3.21365E+06    -81.7375E+03    -7.85054E-03     15.5910E-03    -7.74042E-03     329.001E-06    -7.80267E-03     15.3868E-03    -7.68885E-03     327.806E-06
            2248     893.153E-06     11.5882E-03    -3.81143E+06    -41.5744E+06    -3.43842E+06    -17.8877E+03    -7.75231E-03     15.4151E-03    -7.66281E-03     145.766E-06    -7.70594E-03     15.2180E-03    -7.61419E-03     145.449E-06
            2249     16.8471E-03     11.0137E-03    -3.55695E+06     132.548E+06     38.2797E+06     1.07606E+06    -37.5841E-03     52.4356E-03    -14.8515E-03     176.248E-03    -40.7352E-03     55.9340E-03    -14.8472E-03     177.659E-03
            2250     15.9748E-03     10.8936E-03    -4.59497E+06     73.7697E+06    -13.5042E+06     1.46215E+06    -30.2119E-03     44.0624E-03    -13.8506E-03     96.9203E-03    -30.8816E-03     45.0172E-03    -14.0184E-03     96.8551E-03
            2251     15.0979E-03     10.8279E-03    -3.61563E+06     26.6728E+06    -14.1170E+06     1.16035E+06    -25.9569E-03     39.1289E-03    -13.1720E-03     52.3179E-03    -26.0802E-03     39.3752E-03    -13.2761E-03     52.2552E-03
            2252     14.2198E-03     10.7890E-03    -3.14037E+06    -9.93665E+06    -12.5290E+06     824.634E+03    -24.1119E-03     36.6433E-03    -12.5313E-03     35.2929E-03    -24.1237E-03     36.6451E-03    -12.5750E-03     35.2548E-03
            2253     13.3406E-03     10.7537E-03    -3.11273E+06    -36.8606E+06    -15.7413E+06    -98.7184E+03    -22.6164E-03     34.4740E-03    -11.8577E-03     29.0739E-03    -22.5710E-03     34.3326E-03    -11.8784E-03     29.0399E-03
            2254     12.4598E-03     10.7252E-03    -2.31129E+06    -43.9688E+06    -9.14261E+06    -1.84513E+06    -20.6153E-03     31.8391E-03    -11.2237E-03     21.9853E-03    -20.5567E-03     31.6428E-03    -11.2023E-03     21.9426E-03
            2255     11.5771E-03     10.7024E-03    -1.29814E+06    -43.3687E+06    -3.26585E+06    -1.99290E+06    -18.6124E-03     29.2308E-03    -10.6184E-03     16.0010E-03    -18.5543E-03     29.0238E-03    -10.5700E-03     15.9641E-03
            2256     10.6929E-03     10.6849E-03    -1.50843E+06    -48.8942E+06     415.374E+03    -1.46668E+06    -16.7651E-03     26.8283E-03    -10.0632E-03     11.3255E-03    -16.7039E-03     26.5871E-03    -9.98803E-03     11.2994E-03
            2257     9.80705E-03     10.6712E-03    -3.11172E+06    -54.1756E+06     4.23034E+06    -1.12992E+06    -14.9903E-03     24.5566E-03    -9.56626E-03     7.86854E-03    -14.9343E-03     24.2850E-03    -9.46204E-03     7.84931E-03
            2258     8.91969E-03     10.6608E-03    -4.43762E+06    -56.4973E+06     5.15958E+06    -92.9459E+03    -13.3889E-03     22.5006E-03    -9.11162E-03     5.39100E-03    -13.3371E-03     22.2175E-03    -8.99747E-03     5.38675E-03
            2259     8.03100E-03     10.6526E-03    -4.99608E+06    -55.1411E+06     3.85235E+06     222.966E+03    -12.0140E-03     20.7140E-03    -8.69999E-03     3.72444E-03    -11.9649E-03     20.4403E-03    -8.59353E-03     3.72529E-03
            2260     7.14117E-03     10.6461E-03    -5.43117E+06    -51.5429E+06     2.31522E+06    -135.482E+03    -10.8694E-03     19.2085E-03    -8.33905E-03     2.63909E-03    -10.8253E-03     18.9554E-03    -8.24486E-03     2.63596E-03
            2261     6.25044E-03     10.6408E-03    -5.80687E+06    -48.9238E+06     653.663E+03    -378.148E+03    -9.91728E-03     17.9452E-03    -8.02796E-03     1.84626E-03    -9.87640E-03     17.7082E-03    -7.94533E-03     1.84040E-03
            2262     5.35889E-03     10.6366E-03    -5.99256E+06    -46.9491E+06    -1.17809E+06    -592.480E+03    -9.11467E-03     16.8772E-03    -7.76258E-03     1.29166E-03    -9.07489E-03     16.6529E-03    -7.69170E-03     1.28331E-03
            2263     4.46668E-03     10.6332E-03    -6.20213E+06    -45.7323E+06    -3.20798E+06    -662.124E+03    -8.46856E-03     16.0091E-03    -7.54050E-03     895.302E-06    -8.42863E-03     15.7941E-03    -7.48123E-03     886.255E-06
            2264     3.57397E-03     10.6305E-03      -6.427E+06    -44.8027E+06    -4.69729E+06    -542.719E+03    -7.96245E-03     15.3226E-03    -7.36014E-03     581.015E-06    -7.92282E-03     15.1147E-03    -7.30934E-03     573.648E-06
            2265     2.68086E-03     10.6284E-03    -6.65172E+06    -43.9713E+06    -5.65074E+06    -366.708E+03    -7.56457E-03     14.7832E-03    -7.21866E-03     350.456E-06    -7.52587E-03     14.5812E-03    -7.17351E-03     345.470E-06
            2266     1.78744E-03     10.6270E-03    -6.93553E+06    -43.0066E+06    -6.41671E+06    -259.627E+03    -7.27525E-03     14.3887E-03    -7.11347E-03     183.007E-06    -7.23825E-03     14.1930E-03    -7.07314E-03     179.489E-06
            2267     893.768E-06     10.6260E-03    -7.09135E+06    -41.7542E+06    -6.84008E+06    -307.771E+03    -7.11415E-03     14.1350E-03    -7.02084E-03     91.6514E-06    -7.07898E-03     13.9466E-03    -6.98421E-03     87.5855E-06
            2268     16.8506E-03     10.0202E-03    -3.43677E+06     131.982E+06     40.3269E+06     1.04712E+06    -39.0941E-03     53.8855E-03    -14.7914E-03     169.552E-03    -42.0141E-03     57.1454E-03    -14.7762E-03     170.718E-03
            2269     15.9772E-03     9.90391E-03    -4.44663E+06     74.0766E+06    -10.8102E+06     1.02833E+06    -31.2912E-03     44.9913E-03    -13.7000E-03     90.4619E-03    -31.9021E-03     45.8810E-03    -13.8550E-03     90.3612E-03
            2270     15.1023E-03     9.84267E-03    -4.31611E+06     27.0563E+06    -12.6718E+06     1.54011E+06    -27.0149E-03     39.9482E-03    -12.9334E-03     47.8575E-03    -27.1338E-03     40.1849E-03    -13.0297E-03     47.7962E-03
            2271     14.2246E-03     9.80533E-03    -3.86075E+06    -9.39811E+06    -11.8586E+06     1.36335E+06    -24.8269E-03     37.0400E-03    -12.2131E-03     32.0914E-03    -24.8408E-03     37.0414E-03    -12.2532E-03     32.0604E-03
            2272     13.3459E-03     9.77249E-03    -3.24597E+06    -34.8048E+06    -13.9723E+06     118.902E+03    -23.0362E-03     34.5156E-03    -11.4794E-03     25.4053E-03    -22.9948E-03     34.3799E-03    -11.4941E-03     25.3752E-03
            2273     12.4653E-03     9.74672E-03    -3.42285E+06    -42.4741E+06    -7.17538E+06    -1.39095E+06    -20.6825E-03     31.4833E-03    -10.8008E-03     18.4749E-03    -20.6332E-03     31.2921E-03    -10.7702E-03     18.4392E-03
            2274     11.5827E-03     9.72683E-03    -4.27644E+06    -44.0161E+06    -3.57016E+06    -2.25626E+06    -18.3683E-03     28.5292E-03    -10.1609E-03     13.1499E-03    -18.3232E-03     28.3231E-03    -10.1087E-03     13.1104E-03
            2275     10.6982E-03     9.71149E-03    -4.02506E+06    -49.7097E+06     297.988E+03    -1.60910E+06    -16.3039E-03     25.8990E-03    -9.59515E-03     9.01656E-03    -16.2537E-03     25.6573E-03    -9.51574E-03     8.98917E-03
            2276     9.81192E-03     9.70036E-03    -4.15243E+06    -55.2510E+06     5.75258E+06    -332.249E+03    -14.4259E-03     23.5330E-03    -9.10709E-03     6.05496E-03    -14.3756E-03     23.2552E-03    -8.99219E-03     6.04630E-03
            2277     8.92398E-03     9.69174E-03    -5.49256E+06    -56.8872E+06     5.25728E+06    -13.9546E+03    -12.7833E-03     21.4385E-03    -8.65522E-03     4.12883E-03    -12.7363E-03     21.1549E-03    -8.53848E-03     4.12574E-03
            2278     8.03476E-03     9.68539E-03    -6.48798E+06    -54.6581E+06     2.59133E+06    -408.015E+03    -11.4321E-03     19.6827E-03    -8.25055E-03     2.96319E-03    -11.3893E-03     19.4153E-03    -8.14893E-03     2.95594E-03
            2279     7.14445E-03     9.68018E-03    -6.87035E+06    -51.3419E+06     662.982E+03    -787.432E+03    -10.3343E-03     18.2360E-03    -7.90167E-03     2.28005E-03    -10.2954E-03     17.9885E-03    -7.81395E-03     2.26850E-03
            2280     6.25323E-03     9.67617E-03    -7.18642E+06    -48.8044E+06    -999.491E+03    -1.03085E+06    -9.43301E-03     17.0344E-03    -7.60136E-03     1.72591E-03    -9.39682E-03     16.8023E-03    -7.52517E-03     1.71160E-03
            2281     5.36126E-03     9.67293E-03    -7.65456E+06    -47.0870E+06    -2.92877E+06    -1.07213E+06    -8.68551E-03     16.0271E-03    -7.34161E-03     1.32789E-03    -8.65132E-03     15.8071E-03    -7.27688E-03     1.31331E-03
            2282     4.46871E-03     9.67038E-03    -8.18582E+06    -46.0439E+06    -5.06098E+06    -908.686E+03    -8.06776E-03     15.1864E-03    -7.11864E-03     1.04382E-03    -8.03461E-03     14.9754E-03    -7.06531E-03     1.03154E-03
            2283     3.57563E-03     9.66830E-03    -8.69036E+06    -45.1954E+06    -6.68338E+06    -701.709E+03    -7.55940E-03     14.4925E-03    -6.93307E-03     789.757E-06    -7.52764E-03     14.2888E-03    -6.88835E-03     780.296E-06
            2284     2.68213E-03     9.66681E-03    -9.10546E+06    -44.3852E+06    -7.69094E+06    -451.253E+03    -7.15776E-03     13.9413E-03    -6.78355E-03     562.941E-06    -7.12776E-03     13.7437E-03    -6.74444E-03     556.829E-06
            2285     1.78830E-03     9.66569E-03    -9.41888E+06    -43.1365E+06    -8.80534E+06    -267.586E+03    -6.84975E-03     13.5154E-03    -6.66562E-03     363.590E-06    -6.82150E-03     13.3261E-03    -6.63344E-03     359.947E-06
            2286     894.252E-06     9.66509E-03    -9.69421E+06    -42.1370E+06    -9.68881E+06    -260.734E+03    -6.65930E-03     13.2262E-03    -6.56694E-03     181.607E-06    -6.63246E-03     13.0439E-03    -6.54023E-03     178.139E-06
            2287     16.8514E-03     9.02522E-03    -3.07986E+06     131.207E+06     42.7184E+06     692.709E+03    -41.1259E-03     55.8321E-03    -14.7062E-03     162.901E-03    -43.8056E-03     58.8434E-03    -14.6784E-03     163.814E-03
            2288     15.9815E-03     8.91290E-03    -3.90009E+06     74.1778E+06    -7.69759E+06     1.95381E+06    -32.6768E-03     46.1798E-03    -13.5030E-03     84.9816E-03    -33.2327E-03     47.0079E-03    -13.6434E-03     84.8622E-03
            2289     15.1067E-03     8.85702E-03    -4.68966E+06     27.0753E+06    -10.4948E+06     2.45723E+06    -27.8827E-03     40.5302E-03    -12.6475E-03     43.8327E-03    -27.9958E-03     40.7535E-03    -12.7324E-03     43.7824E-03
            2290     14.2300E-03     8.82121E-03    -4.96786E+06    -7.98208E+06    -10.4299E+06     1.63693E+06    -25.4148E-03     37.2695E-03    -11.8547E-03     29.2029E-03    -25.4352E-03     37.2744E-03    -11.8881E-03     29.1765E-03
            2291     13.3518E-03     8.79134E-03    -5.16364E+06    -33.2475E+06    -12.4046E+06     693.037E+03    -23.1352E-03     34.2082E-03    -11.0730E-03     21.9496E-03    -23.1058E-03     34.0787E-03    -11.0793E-03     21.9287E-03
            2292     12.4711E-03     8.76887E-03    -5.79277E+06    -41.0430E+06    -5.51094E+06    -284.687E+03    -20.3250E-03     30.6977E-03    -10.3727E-03     15.4239E-03    -20.2911E-03     30.5137E-03    -10.3323E-03     15.4039E-03
            2293     11.5881E-03     8.75193E-03    -6.43203E+06    -42.8635E+06    -2.88572E+06    -1.88330E+06    -17.7130E-03     27.4442E-03    -9.73118E-03     10.9473E-03    -17.6810E-03     27.2457E-03    -9.67413E-03     10.9136E-03
            2294     10.7029E-03     8.73934E-03    -7.04539E+06    -51.2555E+06    -1.12361E+06    -2.40150E+06    -15.5032E-03     24.6864E-03    -9.18321E-03     7.56140E-03    -15.4637E-03     24.4433E-03    -9.10430E-03     7.52438E-03
            2295     9.81578E-03     8.73037E-03    -7.01444E+06    -56.6922E+06     4.80241E+06    -1.08835E+06    -13.6015E-03     22.3342E-03    -8.73264E-03     5.16926E-03    -13.5621E-03     22.0547E-03    -8.61626E-03     5.15115E-03
            2296     8.92721E-03     8.72396E-03    -6.80598E+06     -56.599E+06     4.55148E+06    -387.498E+03    -12.0097E-03     20.3286E-03    -8.31893E-03     3.82425E-03    -11.9686E-03     20.0493E-03    -8.20424E-03     3.81648E-03
            2297     8.03728E-03     8.71906E-03    -7.22454E+06    -54.1557E+06     1.15637E+06    -802.144E+03    -10.7552E-03     18.7079E-03    -7.95274E-03     3.14809E-03    -10.7147E-03     18.4463E-03    -7.85796E-03     3.13580E-03
            2298     7.14635E-03     8.71529E-03    -7.86615E+06    -51.0919E+06    -613.541E+03    -1.36455E+06    -9.77148E-03     17.4179E-03    -7.64639E-03     2.74922E-03    -9.73601E-03     17.1749E-03    -7.56397E-03     2.73021E-03
            2299     6.25467E-03     8.71222E-03    -8.37029E+06    -49.0131E+06    -2.50108E+06    -1.50687E+06    -8.97680E-03     16.3595E-03    -7.38271E-03     2.37526E-03    -8.94407E-03     16.1303E-03    -7.31201E-03     2.35478E-03
            2300     5.36237E-03     8.71000E-03    -8.91153E+06    -47.5296E+06    -4.36971E+06    -1.26852E+06    -8.32632E-03     15.4820E-03    -7.15570E-03     2.08628E-03    -8.29570E-03     15.2637E-03    -7.09571E-03     2.06913E-03
            2301     4.46950E-03     8.70812E-03    -9.50965E+06    -46.4704E+06    -6.19960E+06    -1.02342E+06    -7.78182E-03     14.7438E-03    -6.96197E-03     1.84007E-03    -7.75304E-03     14.5343E-03    -6.91179E-03     1.82628E-03
            2302     3.57618E-03     8.70679E-03    -9.98056E+06    -45.6237E+06    -7.72801E+06    -831.851E+03    -7.33507E-03     14.1363E-03    -6.80126E-03     1.55426E-03    -7.30763E-03     13.9339E-03    -6.75928E-03     1.54311E-03
            2303     2.68248E-03     8.70570E-03    -10.2666E+06    -44.8380E+06    -8.75092E+06    -673.714E+03    -6.98191E-03     13.6560E-03    -6.67405E-03     1.22578E-03    -6.95554E-03     13.4593E-03    -6.63790E-03     1.21679E-03
            2304     1.78852E-03     8.70508E-03    -10.4327E+06    -43.5477E+06    -9.60548E+06    -434.234E+03    -6.71880E-03     13.2978E-03    -6.57899E-03     849.500E-06    -6.69386E-03     13.1091E-03    -6.54874E-03     843.706E-06
            2305     894.277E-06     8.70467E-03    -10.5619E+06    -42.4952E+06    -10.2230E+06    -118.932E+03    -6.57421E-03     13.0746E-03    -6.50041E-03     479.007E-06    -6.55040E-03     12.8925E-03    -6.47459E-03     477.367E-06
            2306     16.8535E-03     8.02566E-03    -4.22995E+06     129.222E+06     43.1996E+06     440.891E+03    -43.0366E-03     57.6666E-03    -14.6300E-03     156.306E-03    -45.4922E-03     60.4412E-03    -14.5952E-03     156.980E-03
            2307     15.9848E-03     7.92145E-03    -5.63719E+06     73.1966E+06    -5.44868E+06     2.55120E+06    -34.5262E-03     47.8387E-03    -13.3125E-03     78.6810E-03    -35.0369E-03     48.6057E-03    -13.4377E-03     78.5380E-03
            2308     15.1116E-03     7.87027E-03    -5.61993E+06     28.2738E+06    -8.18427E+06     3.53852E+06    -28.8705E-03     41.2209E-03    -12.3504E-03     39.4736E-03    -28.9827E-03     41.4376E-03    -12.4242E-03     39.4375E-03
            2309     14.2356E-03     7.83700E-03    -6.59729E+06    -6.27553E+06    -8.35406E+06     2.70855E+06    -25.6536E-03     37.1496E-03    -11.4960E-03     26.2143E-03    -25.6845E-03     37.1593E-03    -11.5191E-03     26.2042E-03
            2310     13.3573E-03     7.81056E-03    -7.55742E+06    -31.7427E+06    -9.60855E+06     1.42340E+06    -22.7445E-03     33.4418E-03    -10.6973E-03     18.7150E-03    -22.7315E-03     33.3175E-03    -10.6884E-03     18.7061E-03
            2311     12.4761E-03     7.79206E-03    -7.53852E+06    -39.2446E+06    -2.93488E+06    -298.411E+03    -19.4591E-03     29.4686E-03    -10.0094E-03     12.9456E-03    -19.4395E-03     29.2916E-03    -9.95627E-03     12.9273E-03
            2312     11.5921E-03     7.77828E-03    -7.54167E+06    -41.1224E+06     238.846E+03    -1.92844E+06    -16.6303E-03     26.0447E-03    -9.41439E-03     9.56587E-03    -16.6106E-03     25.8517E-03    -9.34263E-03     9.53268E-03
            2313     10.7059E-03     7.76842E-03    -7.65357E+06    -51.8680E+06     56.9301E+03    -2.74592E+06    -14.3920E-03     23.3145E-03    -8.92246E-03     7.02296E-03    -14.3563E-03     23.0674E-03    -8.83587E-03     6.98208E-03
            2314     9.81794E-03     7.76169E-03    -7.95239E+06    -58.3029E+06     3.31766E+06    -2.32187E+06    -12.5645E-03     21.0982E-03    -8.53368E-03     5.34873E-03    -12.5252E-03     20.8141E-03    -8.42103E-03     5.31504E-03
            2315     8.92839E-03     7.75713E-03    -8.26032E+06    -56.8746E+06     3.34355E+06    -1.51220E+06    -11.1472E-03     19.3426E-03    -8.19540E-03     4.53997E-03    -11.1114E-03     19.0659E-03    -8.08424E-03     4.51784E-03
            2316     8.03776E-03     7.75369E-03    -8.31031E+06    -53.7316E+06     511.248E+03    -1.48166E+06    -10.0847E-03     17.9865E-03    -7.90173E-03     4.23316E-03    -10.0494E-03     17.7295E-03    -7.80922E-03     4.21216E-03
            2317     7.14636E-03     7.75093E-03    -8.49345E+06    -50.9552E+06    -1.30303E+06    -1.79165E+06    -9.25927E-03     16.9216E-03    -7.66231E-03     4.00020E-03    -9.22618E-03     16.6812E-03    -7.58262E-03     3.97570E-03
            2318     6.25426E-03     7.74889E-03    -9.01281E+06    -49.4594E+06    -3.56715E+06    -1.83151E+06    -8.61114E-03     16.0738E-03    -7.46271E-03     3.73548E-03    -8.57946E-03     15.8450E-03    -7.39576E-03     3.71081E-03
            2319     5.36162E-03     7.74729E-03    -9.46447E+06    -48.1713E+06    -5.16178E+06    -1.56211E+06    -8.10528E-03     15.4051E-03    -7.29979E-03     3.44034E-03    -8.07536E-03     15.1855E-03    -7.24203E-03     3.41941E-03
            2320     4.46859E-03     7.74615E-03    -9.75552E+06    -46.8806E+06    -6.19344E+06    -1.30235E+06    -7.70531E-03     14.8731E-03    -7.16784E-03     3.10346E-03    -7.67718E-03     14.6619E-03    -7.11669E-03     3.08609E-03
            2321     3.57524E-03     7.74522E-03    -9.90546E+06    -46.0211E+06    -7.35308E+06    -1.27794E+06    -7.38903E-03     14.4511E-03    -7.06210E-03     2.65779E-03    -7.36120E-03     14.2461E-03    -7.01777E-03     2.64089E-03
            2322     2.68163E-03     7.74463E-03    -9.92125E+06    -45.4278E+06    -8.34357E+06    -1.13014E+06    -7.15046E-03     14.1344E-03    -6.98393E-03     2.11590E-03    -7.12210E-03     13.9337E-03    -6.94539E-03     2.10105E-03
            2323     1.78780E-03     7.74420E-03    -9.86475E+06    -44.2913E+06    -9.07217E+06    -780.866E+03    -6.99922E-03     13.9299E-03    -6.93065E-03     1.47761E-03    -6.97115E-03     13.7358E-03    -6.89748E-03     1.46736E-03
            2324     893.956E-06     7.74402E-03    -9.63813E+06    -43.0582E+06    -9.29148E+06    -510.137E+03    -6.91934E-03     13.8159E-03    -6.89653E-03     817.879E-06    -6.89146E-03     13.6283E-03    -6.86657E-03     811.198E-06
            2325     16.8535E-03     7.02466E-03    -3.03072E+06     127.311E+06     44.4511E+06     2.11876E+06    -45.4800E-03     60.0046E-03    -14.5246E-03     147.680E-03    -47.6971E-03     62.5348E-03    -14.4826E-03     148.114E-03
            2326     15.9879E-03     6.92651E-03    -6.53077E+06     72.5754E+06    -2.42180E+06     3.04430E+06    -35.9247E-03     49.0123E-03    -13.0876E-03     69.0396E-03    -36.3753E-03     49.7052E-03    -13.1954E-03     68.8782E-03
            2327     15.1168E-03     6.88330E-03    -8.65218E+06     28.9876E+06    -6.63339E+06     3.80470E+06    -29.2084E-03     41.2513E-03    -12.0429E-03     33.7327E-03    -29.3283E-03     41.4632E-03    -12.1056E-03     33.7033E-03
            2328     14.2405E-03     6.85309E-03    -9.22924E+06    -4.77439E+06    -6.64066E+06     3.65058E+06    -25.1816E-03     36.3489E-03    -11.1674E-03     22.9876E-03    -25.2273E-03     36.3645E-03    -11.1803E-03     22.9937E-03
            2329     13.3618E-03     6.83074E-03    -9.58842E+06    -28.6603E+06    -5.58538E+06     1.58847E+06    -21.5749E-03     31.9816E-03    -10.4067E-03     15.7486E-03    -21.5808E-03     31.8682E-03    -10.3792E-03     15.7453E-03
            2330     12.4795E-03     6.81677E-03    -9.61136E+06    -36.9589E+06    -195.255E+03    -1.29073E+06    -17.9892E-03     27.7726E-03    -9.78347E-03     11.3490E-03    -17.9867E-03     27.6056E-03    -9.71692E-03     11.3200E-03
            2331     11.5942E-03     6.80605E-03    -9.09131E+06    -39.8810E+06     3.94896E+06    -3.09544E+06    -15.1286E-03     24.4168E-03    -9.28822E-03     9.35709E-03    -15.1237E-03     24.2268E-03    -9.19747E-03     9.30990E-03
            2332     10.7067E-03     6.79894E-03    -8.91604E+06    -52.1827E+06     3.03087E+06    -3.52420E+06    -13.0194E-03     21.9202E-03    -8.90084E-03     7.71957E-03    -12.9939E-03     21.6691E-03    -8.79709E-03     7.66927E-03
            2333     9.81737E-03     6.79419E-03    -9.27219E+06    -59.6395E+06     2.39997E+06    -2.95647E+06    -11.4597E-03     20.0620E-03    -8.60227E-03     6.68219E-03    -11.4238E-03     19.7746E-03    -8.49035E-03     6.64068E-03
            2334     8.92696E-03     6.79117E-03    -9.53287E+06    -57.2238E+06     1.41486E+06    -2.65293E+06    -10.3387E-03     18.6979E-03    -8.35919E-03     6.27432E-03    -10.3059E-03     18.4241E-03    -8.25532E-03     6.23766E-03
            2335     8.03575E-03     6.78871E-03    -9.38135E+06    -53.7970E+06    -171.965E+03    -2.77886E+06    -9.53148E-03     17.6962E-03    -8.16476E-03     6.13680E-03    -9.50048E-03     17.4415E-03    -8.07401E-03     6.09919E-03
            2336     7.14385E-03     6.78697E-03    -9.19105E+06    -51.3013E+06    -1.69813E+06    -2.60135E+06    -8.92554E-03     16.9397E-03    -8.01418E-03     5.91666E-03    -8.89488E-03     16.6993E-03    -7.93495E-03     5.88181E-03
            2337     6.25147E-03     6.78548E-03    -9.12279E+06    -49.9651E+06    -3.48224E+06    -2.37907E+06    -8.49361E-03     16.3917E-03    -7.89805E-03     5.53958E-03    -8.46188E-03     16.1603E-03    -7.82979E-03     5.50793E-03
            2338     5.35881E-03     6.78450E-03    -9.03246E+06    -48.7849E+06    -4.64319E+06    -2.25561E+06    -8.18215E-03     15.9940E-03    -7.81185E-03     5.02993E-03    -8.14995E-03     15.7700E-03    -7.75123E-03     5.00011E-03
            2339     4.46587E-03     6.78362E-03    -8.72201E+06    -47.3436E+06    -4.93454E+06    -2.19682E+06    -7.96008E-03     15.7111E-03    -7.75098E-03     4.44431E-03    -7.92796E-03     15.4942E-03    -7.69436E-03     4.41546E-03
            2340     3.57282E-03     6.78307E-03    -8.36275E+06    -46.6261E+06      -5.695E+06    -2.06084E+06    -7.81157E-03     15.5182E-03    -7.70666E-03     3.70736E-03    -7.77757E-03     15.3055E-03    -7.65540E-03     3.68041E-03
            2341     2.67963E-03     6.78262E-03    -8.16850E+06    -46.3577E+06    -6.62698E+06    -1.74819E+06    -7.71898E-03     15.3961E-03    -7.67709E-03     2.88673E-03    -7.68302E-03     15.1857E-03    -7.63116E-03     2.86393E-03
            2342     1.78646E-03     6.78234E-03    -7.93950E+06    -45.3396E+06    -7.29638E+06    -1.31034E+06    -7.67221E-03     15.3308E-03    -7.65857E-03     1.98904E-03    -7.63559E-03     15.1261E-03    -7.61780E-03     1.97197E-03
            2343     893.201E-06     6.78213E-03    -7.61601E+06    -44.2148E+06    -7.56517E+06    -929.024E+03    -7.64775E-03     15.3008E-03    -7.65302E-03     1.09096E-03    -7.61060E-03     15.1019E-03    -7.61570E-03     1.07889E-03
            2344     16.8594E-03     6.01891E-03    -2.71037E+06     124.969E+06     48.1868E+06     3.31493E+06    -48.5823E-03     62.9606E-03    -14.3783E-03     137.196E-03    -50.5408E-03     65.2148E-03    -14.3146E-03     137.339E-03
            2345     15.9952E-03     5.93262E-03    -5.83135E+06     72.6400E+06     3.19859E+06     5.59260E+06    -36.1666E-03     48.9948E-03    -12.8282E-03     59.2120E-03    -36.5462E-03     49.6035E-03    -12.9091E-03     59.0811E-03
            2346     15.1216E-03     5.89657E-03    -10.0901E+06     30.0275E+06    -4.31846E+06     5.80784E+06    -28.3943E-03     40.1529E-03    -11.7586E-03     28.7343E-03    -28.5162E-03     40.3585E-03    -11.8091E-03     28.7399E-03
            2347     14.2451E-03     5.87008E-03    -12.6360E+06    -2.47751E+06    -4.94877E+06     4.16346E+06    -23.6224E-03     34.5549E-03    -10.9325E-03     20.2161E-03    -23.6879E-03     34.5814E-03    -10.9353E-03     20.2352E-03
            2348     13.3643E-03     5.85323E-03    -13.4512E+06    -24.3105E+06    -2.10019E+06     1.14065E+06    -19.3932E-03     29.6770E-03    -10.2838E-03     14.2357E-03    -19.4284E-03     29.5844E-03    -10.2395E-03     14.2313E-03
            2349     12.4799E-03     5.84305E-03    -13.1495E+06    -33.4372E+06      2.7014E+06    -3.05514E+06    -15.8973E-03     25.6950E-03    -9.79764E-03     11.6257E-03    -15.9215E-03     25.5461E-03    -9.71658E-03     11.5762E-03
            2350     11.5928E-03     5.83574E-03    -12.4619E+06    -39.6130E+06     6.11402E+06    -5.25419E+06    -13.3736E-03     22.8219E-03    -9.44829E-03     10.9295E-03    -13.3891E-03     22.6349E-03    -9.34221E-03     10.8556E-03
            2351     10.7037E-03     5.83063E-03    -11.9415E+06    -53.2616E+06     4.32833E+06    -4.88046E+06    -11.6857E-03     20.8819E-03    -9.19622E-03     9.95114E-03    -11.6756E-03     20.6279E-03    -9.08004E-03     9.88407E-03
            2352     9.81347E-03     5.82761E-03    -11.3383E+06    -60.5392E+06     1.49193E+06    -4.40523E+06    -10.5776E-03     19.5868E-03    -9.00911E-03     9.19511E-03    -10.5495E-03     19.2991E-03    -8.89743E-03     9.13537E-03
            2353     8.92235E-03     5.82546E-03    -10.4174E+06    -57.5267E+06     91.0913E+03    -4.31235E+06    -9.83104E-03     18.7008E-03    -8.86981E-03     8.80246E-03    -9.80036E-03     18.4287E-03    -8.77084E-03     8.74471E-03
            2354     8.03067E-03     5.82387E-03    -9.80312E+06    -54.2592E+06    -525.972E+03    -4.20941E+06    -9.33183E-03     18.1068E-03    -8.77494E-03     8.43563E-03    -9.30176E-03     17.8508E-03    -8.68468E-03     8.37978E-03
            2355     7.13867E-03     5.82256E-03    -9.27082E+06    -52.0788E+06    -1.32096E+06    -4.09209E+06    -9.01059E-03     17.7207E-03    -8.71014E-03     7.90691E-03    -8.97975E-03     17.4759E-03    -8.62779E-03     7.85299E-03
            2356     6.24649E-03     5.82149E-03    -8.37633E+06    -50.6847E+06    -2.28731E+06    -3.83517E+06    -8.80783E-03     17.4742E-03    -8.66634E-03     7.17643E-03    -8.77307E-03     17.2363E-03    -8.59214E-03     7.12611E-03
            2357     5.35417E-03     5.82066E-03    -7.29826E+06    -49.3690E+06    -2.81452E+06    -3.70741E+06    -8.68206E-03     17.3227E-03    -8.64065E-03     6.32895E-03    -8.64300E-03     17.0906E-03    -8.57255E-03     6.28049E-03
            2358     4.46181E-03     5.82001E-03    -6.41301E+06    -48.1831E+06    -2.97898E+06    -3.56311E+06    -8.61568E-03     17.2450E-03    -8.62933E-03     5.43154E-03    -8.57364E-03     17.0177E-03    -8.56506E-03     5.38512E-03
            2359     3.56939E-03     5.81945E-03    -5.86688E+06    -47.8452E+06    -3.55112E+06    -3.04384E+06    -8.60089E-03     17.2256E-03    -8.62475E-03     4.40839E-03    -8.55576E-03     17.0000E-03    -8.56462E-03     4.36880E-03
            2360     2.67705E-03     5.81910E-03    -5.58167E+06    -47.6607E+06    -4.01444E+06    -2.40060E+06    -8.60597E-03     17.2295E-03    -8.62351E-03     3.35665E-03    -8.55899E-03     17.0051E-03    -8.56638E-03     3.32545E-03
            2361     1.78467E-03     5.81875E-03    -5.46998E+06    -46.8255E+06    -4.90200E+06    -1.79187E+06    -8.60787E-03     17.2287E-03    -8.62080E-03     2.28690E-03    -8.56023E-03     17.0095E-03    -8.56948E-03     2.26363E-03
            2362     892.353E-06     5.81863E-03    -5.37102E+06    -45.9574E+06    -5.45567E+06    -1.01959E+06    -8.61262E-03     17.2380E-03    -8.62536E-03     1.25170E-03    -8.56478E-03     17.0241E-03    -8.57821E-03     1.23846E-03
            2363     16.8622E-03     5.01031E-03    -4.63760E+06     119.606E+06     51.5415E+06     3.92889E+06    -51.1113E-03     65.3859E-03    -14.2746E-03     124.538E-03    -52.7693E-03     67.3048E-03    -14.1836E-03     124.411E-03
            2364     15.9976E-03     4.94003E-03    -8.63427E+06     70.7646E+06     10.0723E+06     9.00152E+06    -35.6161E-03     48.2754E-03    -12.6593E-03     49.8755E-03    -35.9443E-03     48.7963E-03    -12.6990E-03     49.8070E-03
            2365     15.1252E-03     4.91019E-03    -13.4915E+06     33.9856E+06     1.36596E+06     10.6274E+06    -26.3567E-03     37.9880E-03    -11.6313E-03     25.2108E-03    -26.5003E-03     38.2010E-03    -11.6542E-03     25.2922E-03
            2366     14.2461E-03     4.89021E-03    -18.0692E+06     3.04307E+06    -1.81409E+06     5.43699E+06    -20.6237E-03     31.5604E-03    -10.9367E-03     19.6129E-03    -20.7261E-03     31.6151E-03    -10.9240E-03     19.6570E-03
            2367     13.3625E-03     4.87804E-03    -18.3782E+06    -18.2210E+06     1.35348E+06    -1.46284E+06    -16.4861E-03     26.9656E-03    -10.4796E-03     15.7690E-03    -16.5587E-03     26.9046E-03    -10.4197E-03     15.7361E-03
            2368     12.4756E-03     4.87176E-03    -15.9769E+06    -29.7402E+06     5.80028E+06    -6.54570E+06    -13.7538E-03     23.9345E-03    -10.1807E-03     14.4826E-03    -13.8017E-03     23.8034E-03    -10.0854E-03     14.3904E-03
            2369     11.5865E-03     4.86655E-03    -14.0603E+06    -40.7476E+06     7.93778E+06    -7.93526E+06    -12.0262E-03     22.0155E-03    -9.98928E-03     14.0527E-03    -12.0506E-03     21.8224E-03    -9.87012E-03     13.9454E-03
            2370     10.6965E-03     4.86317E-03    -12.9627E+06    -54.7804E+06     4.88674E+06    -7.17069E+06    -10.9289E-03     20.7886E-03    -9.85967E-03     12.9526E-03    -10.9224E-03     20.5274E-03    -9.73701E-03     12.8568E-03
            2371     9.80557E-03     4.86090E-03    -11.7448E+06    -61.1797E+06     486.084E+03    -6.81328E+06    -10.3086E-03     20.0754E-03    -9.76683E-03     11.9603E-03    -10.2800E-03     19.7865E-03    -9.65866E-03     11.8700E-03
            2372     8.91442E-03     4.85942E-03    -10.4290E+06    -58.3835E+06    -541.021E+03    -6.61733E+06    -9.95966E-03     19.6703E-03    -9.71063E-03     11.0822E-03    -9.92685E-03     19.3947E-03    -9.61356E-03     10.9950E-03
            2373     8.02304E-03     4.85810E-03    -8.87115E+06    -54.9895E+06     61.6640E+03    -6.39250E+06    -9.75417E-03     19.4364E-03    -9.68223E-03     10.2167E-03    -9.71921E-03     19.1745E-03    -9.58932E-03     10.1329E-03
            2374     7.13158E-03     4.85699E-03    -7.25065E+06    -53.0125E+06    -352.986E+03    -6.25761E+06    -9.64946E-03     19.3140E-03    -9.66453E-03     9.22029E-03    -9.60856E-03     19.0601E-03    -9.57891E-03     9.13859E-03
            2375     6.24007E-03     4.85600E-03    -5.72687E+06    -51.7340E+06    -1.12931E+06    -6.05787E+06    -9.59436E-03     19.2501E-03    -9.65572E-03     8.12293E-03    -9.54651E-03     19.0014E-03    -9.57804E-03     8.04404E-03
            2376     5.34855E-03     4.85525E-03    -4.30829E+06    -50.5751E+06    -1.27899E+06    -5.60951E+06    -9.58450E-03     19.2412E-03    -9.65671E-03     6.97788E-03    -9.53097E-03     18.9965E-03    -9.58352E-03     6.90496E-03
            2377     4.45704E-03     4.85455E-03    -3.36151E+06    -49.8000E+06    -1.26500E+06    -4.81089E+06    -9.59746E-03     19.2603E-03    -9.66285E-03     5.83090E-03    -9.54031E-03     19.0180E-03    -9.59209E-03     5.76843E-03
            2378     3.56559E-03     4.85399E-03    -2.88899E+06    -49.6458E+06    -1.56049E+06    -3.89343E+06    -9.62259E-03     19.2922E-03    -9.66963E-03     4.65988E-03    -9.56284E-03     19.0504E-03    -9.60126E-03     4.60934E-03
            2379     2.67415E-03     4.85354E-03    -2.71804E+06    -49.4859E+06    -1.57094E+06    -2.94459E+06    -9.64924E-03     19.3258E-03    -9.67658E-03     3.49523E-03    -9.58883E-03     19.0846E-03    -9.60874E-03     3.45703E-03
            2380     1.78278E-03     4.85326E-03    -2.89041E+06    -48.7116E+06    -2.35099E+06    -1.94167E+06    -9.66316E-03     19.3405E-03    -9.67733E-03     2.35883E-03    -9.60358E-03     19.1045E-03    -9.61426E-03     2.33365E-03
            2381     891.349E-06     4.85302E-03    -3.08036E+06    -48.0762E+06    -3.15641E+06    -880.360E+03    -9.67991E-03     19.3507E-03    -9.67075E-03     1.29468E-03    -9.62087E-03     19.1196E-03    -9.61236E-03     1.28327E-03
            2382     16.8636E-03     4.00112E-03    -5.20266E+06     112.730E+06     57.0294E+06     6.66847E+06    -51.5765E-03     65.8854E-03    -14.3089E-03     107.501E-03    -52.8545E-03     67.3830E-03    -14.1797E-03     107.243E-03
            2383     16.0006E-03     3.94699E-03    -12.2265E+06     65.5993E+06     19.1768E+06     13.0874E+06    -33.1631E-03     45.9066E-03    -12.7436E-03     41.5251E-03    -33.4502E-03     46.3292E-03    -12.7251E-03     41.5502E-03
            2384     15.1240E-03     3.92770E-03    -16.9942E+06     39.3402E+06     8.70933E+06     14.3745E+06    -22.7409E-03     34.6021E-03    -11.8611E-03     24.9899E-03    -22.9132E-03     34.8290E-03    -11.8500E-03     25.1361E-03
            2385     14.2407E-03     3.91365E-03    -18.9977E+06     15.2691E+06     4.55285E+06     5.33967E+06    -17.1283E-03     28.5047E-03    -11.3764E-03     22.7803E-03    -17.2602E-03     28.6105E-03    -11.3482E-03     22.8315E-03
            2386     13.3536E-03     3.90581E-03    -17.7514E+06    -10.5431E+06     3.84296E+06    -5.99697E+06    -14.2144E-03     25.3337E-03    -11.1193E-03     19.9513E-03    -14.2978E-03     25.3055E-03    -11.0590E-03     19.8641E-03
            2387     12.4648E-03     3.90136E-03    -15.4145E+06    -28.6415E+06     5.32277E+06    -10.4577E+06    -12.7349E-03     23.7093E-03    -10.9744E-03     18.2852E-03    -12.7804E-03     23.5830E-03    -10.8839E-03     18.1444E-03
            2388     11.5755E-03     3.89746E-03    -14.4505E+06    -42.4237E+06     5.38810E+06    -10.3453E+06    -11.7940E-03     22.6788E-03    -10.8848E-03     16.9067E-03    -11.8139E-03     22.4812E-03    -10.7754E-03     16.7694E-03
            2389     10.6854E-03     3.89511E-03    -13.3862E+06    -56.0224E+06     1.48056E+06    -10.2411E+06    -11.1928E-03     22.0153E-03    -10.8225E-03     15.1966E-03    -11.1815E-03     21.7532E-03    -10.7144E-03     15.0619E-03
            2390     9.79507E-03     3.89317E-03    -10.8580E+06    -62.2348E+06    -2.45685E+06    -10.2122E+06    -10.9438E-03     21.7205E-03    -10.7767E-03     13.6424E-03    -10.9048E-03     21.4291E-03    -10.6830E-03     13.5087E-03
            2391     8.90461E-03     3.89182E-03    -7.65824E+06    -59.6876E+06    -2.00798E+06    -9.85617E+06    -10.8459E-03     21.5979E-03    -10.7520E-03     12.1241E-03    -10.7951E-03     21.3138E-03    -10.6644E-03     11.9955E-03
            2392     8.01416E-03     3.89060E-03    -4.86415E+06    -56.2993E+06    -986.849E+03    -9.38780E+06    -10.7809E-03     21.5168E-03    -10.7359E-03     10.7957E-03    -10.7224E-03     21.2440E-03    -10.6522E-03     10.6735E-03
            2393     7.12369E-03     3.88948E-03    -2.64159E+06    -54.5863E+06    -1.34350E+06    -8.66742E+06    -10.7397E-03     21.4609E-03    -10.7213E-03     9.45953E-03    -10.6720E-03     21.1939E-03    -10.6450E-03     9.34687E-03
            2394     6.23319E-03     3.88857E-03    -1.12164E+06    -53.4797E+06    -1.34543E+06    -7.73632E+06    -10.7241E-03     21.4379E-03    -10.7138E-03     8.13281E-03    -10.6504E-03     21.1741E-03    -10.6413E-03     8.03237E-03
            2395     5.34271E-03     3.88771E-03    -461.472E+03    -52.6807E+06    -747.232E+03    -6.66803E+06    -10.7218E-03     21.4340E-03    -10.7122E-03     6.84877E-03    -10.6467E-03     21.1723E-03    -10.6389E-03     6.76225E-03
            2396     4.45229E-03     3.88704E-03    -295.639E+03    -52.2352E+06    -310.152E+03    -5.34398E+06    -10.7182E-03     21.4295E-03    -10.7112E-03     5.62458E-03    -10.6436E-03     21.1691E-03    -10.6366E-03     5.55526E-03
            2397     3.56181E-03     3.88642E-03    -340.178E+03    -51.7380E+06    -932.101E+03    -4.07855E+06    -10.7093E-03     21.4154E-03    -10.7061E-03     4.44612E-03    -10.6347E-03     21.1585E-03    -10.6353E-03     4.39323E-03
            2398     2.67137E-03     3.88597E-03    -418.321E+03    -51.6942E+06    -864.061E+03    -3.05889E+06    -10.7074E-03     21.4138E-03    -10.7064E-03     3.30751E-03    -10.6333E-03     21.1571E-03    -10.6351E-03     3.26785E-03
            2399     1.78089E-03     3.88563E-03    -526.982E+03    -50.9573E+06    -220.201E+03    -1.89497E+06    -10.7125E-03     21.4191E-03    -10.7066E-03     2.21189E-03    -10.6409E-03     21.1654E-03    -10.6331E-03     2.18732E-03
            2400     890.480E-06     3.88545E-03    -769.490E+03    -49.9484E+06    -424.599E+03    -889.233E+03    -10.7001E-03     21.4025E-03    -10.7024E-03     1.20303E-03    -10.6307E-03     21.1547E-03    -10.6310E-03     1.19151E-03
            2401     16.8624E-03     2.99271E-03    -5.90178E+06     104.652E+06     58.3324E+06     10.1171E+06    -47.8603E-03     62.4295E-03    -14.5692E-03     88.8578E-03    -48.7490E-03     63.5039E-03    -14.4207E-03     88.6475E-03
            2402     15.9923E-03     2.95849E-03    -10.7217E+06     62.1823E+06     30.6413E+06     15.6252E+06    -27.9432E-03     41.2184E-03    -13.2751E-03     37.0828E-03    -28.1881E-03     41.5585E-03    -13.1965E-03     37.1971E-03
            2403     15.1118E-03     2.94886E-03    -11.8019E+06     46.3967E+06     20.9477E+06     13.1592E+06    -19.2253E-03     31.8741E-03    -12.6488E-03     27.9592E-03    -19.3942E-03     32.1055E-03    -12.5942E-03     28.1042E-03
            2404     14.2256E-03     2.93976E-03    -9.71648E+06     30.0551E+06     10.6549E+06     2.65000E+06    -15.6384E-03     27.9513E-03    -12.3129E-03     26.7344E-03    -15.7521E-03     28.1063E-03    -12.2892E-03     26.7563E-03
            2405     13.3379E-03     2.93367E-03    -9.34081E+06    -3.29778E+06     500.667E+03    -7.55100E+06    -14.1707E-03     26.3027E-03    -12.1319E-03     22.7747E-03    -14.2163E-03     26.3018E-03    -12.1111E-03     22.6703E-03
            2406     12.4501E-03     2.92985E-03    -11.0076E+06    -29.2308E+06    -3.71705E+06    -11.4692E+06    -13.4154E-03     25.4433E-03    -12.0279E-03     19.7405E-03    -13.4242E-03     25.3199E-03    -11.9881E-03     19.5881E-03
            2407     11.5615E-03     2.92701E-03    -11.1463E+06    -43.5936E+06    -7.00519E+06    -12.1463E+06    -12.8178E-03     24.7622E-03    -11.9444E-03     17.3280E-03    -12.8011E-03     24.5713E-03    -11.9001E-03     17.1683E-03
            2408     10.6726E-03     2.92503E-03    -9.54295E+06    -56.6612E+06    -11.2292E+06    -12.8407E+06    -12.4831E-03     24.3614E-03    -11.8783E-03     15.2146E-03    -12.4330E-03     24.1086E-03    -11.8384E-03     15.0469E-03
            2409     9.78361E-03     2.92328E-03    -7.16022E+06    -63.3904E+06    -14.0638E+06    -13.5470E+06    -12.3542E-03     24.1755E-03    -11.8213E-03     13.2458E-03    -12.2781E-03     23.8896E-03    -11.7893E-03     13.0695E-03
            2410     8.89455E-03     2.92194E-03    -4.18694E+06    -61.8462E+06    -11.6851E+06    -13.0838E+06    -12.2311E-03     24.0137E-03    -11.7825E-03     11.4399E-03    -12.1457E-03     23.7276E-03    -11.7452E-03     11.2699E-03
            2411     8.00541E-03     2.92080E-03    -1.75871E+06    -58.9460E+06    -8.90398E+06    -11.4167E+06    -12.1247E-03     23.8735E-03    -11.7488E-03     9.90049E-03    -12.0353E-03     23.5943E-03    -11.7053E-03     9.75228E-03
            2412     7.11612E-03     2.91979E-03    -619.094E+03    -57.2472E+06    -8.11882E+06    -9.55491E+06    -12.0246E-03     23.7371E-03    -11.7125E-03     8.48306E-03    -11.9330E-03     23.4635E-03    -11.6692E-03     8.35909E-03
            2413     6.22682E-03     2.91885E-03    -270.879E+03    -56.1209E+06    -6.54554E+06    -7.85358E+06    -11.9350E-03     23.6208E-03    -11.6858E-03     7.16667E-03    -11.8456E-03     23.3500E-03    -11.6367E-03     7.06480E-03
            2414     5.33744E-03     2.91809E-03    -317.971E+03    -55.3515E+06    -4.80044E+06    -6.21431E+06    -11.8530E-03     23.5173E-03    -11.6644E-03     5.95699E-03    -11.7674E-03     23.2480E-03    -11.6077E-03     5.87639E-03
            2415     4.44795E-03     2.91740E-03    -750.337E+03    -54.9086E+06    -3.94456E+06    -4.69560E+06    -11.7786E-03     23.4218E-03    -11.6432E-03     4.83994E-03    -11.6971E-03     23.1541E-03    -11.5822E-03     4.77904E-03
            2416     3.55846E-03     2.91688E-03    -1.18572E+06    -53.8745E+06    -3.55570E+06    -3.44668E+06    -11.7121E-03     23.3352E-03    -11.6231E-03     3.79714E-03    -11.6348E-03     23.0726E-03    -11.5610E-03     3.75244E-03
            2417     2.66887E-03     2.91644E-03    -1.55589E+06    -53.7101E+06    -2.89577E+06    -2.50790E+06    -11.6623E-03     23.2721E-03    -11.6097E-03     2.81184E-03    -11.5881E-03     23.0099E-03    -11.5441E-03     2.77932E-03
            2418     1.77929E-03     2.91612E-03    -1.89906E+06    -53.0064E+06    -2.20759E+06    -1.72066E+06    -11.6255E-03     23.2244E-03    -11.5989E-03     1.87396E-03    -11.5549E-03     22.9653E-03    -11.5303E-03     1.85165E-03
            2419     889.647E-06     2.91590E-03    -1.80634E+06    -51.7545E+06    -2.00740E+06    -1.08445E+06    -11.5823E-03     23.1848E-03    -11.6025E-03     995.553E-06    -11.5132E-03     22.9318E-03    -11.5348E-03     981.455E-06
            2420     16.8520E-03     1.99335E-03    -3.41605E+06     95.8288E+06     55.8672E+06     11.8882E+06    -40.5373E-03     55.8107E-03    -15.2734E-03     72.1270E-03    -41.1049E-03     56.5486E-03    -15.1281E-03     72.0420E-03
            2421     15.9751E-03     1.97529E-03    -5.47386E+06     63.2327E+06     39.9533E+06     14.5117E+06    -23.7143E-03     38.0581E-03    -14.3438E-03     35.8638E-03    -23.9207E-03     38.3542E-03    -14.2278E-03     36.0041E-03
            2422     15.0907E-03     1.97140E-03    -1.32789E+06     55.1149E+06     30.3248E+06     6.91267E+06    -19.2251E-03     33.0972E-03    -13.8721E-03     28.9325E-03    -19.3631E-03     33.3379E-03    -13.7985E-03     29.0050E-03
            2423     14.2062E-03     1.96342E-03     2.43810E+06     38.7187E+06     10.5039E+06     422.810E+03    -17.4803E-03     30.9814E-03    -13.5011E-03     25.4489E-03    -17.5430E-03     31.1595E-03    -13.5082E-03     25.4456E-03
            2424     13.3212E-03     1.95916E-03     711.368E+03     2.51725E+06    -6.92990E+06    -4.41276E+06    -16.1276E-03     29.3751E-03    -13.2475E-03     20.2952E-03    -16.1191E-03     29.3980E-03    -13.2868E-03     20.2334E-03
            2425     12.4349E-03     1.95569E-03    -1.72897E+06    -27.1635E+06    -17.3551E+06    -9.68327E+06    -15.1898E-03     28.2636E-03    -13.0739E-03     16.9626E-03    -15.1347E-03     28.1562E-03    -13.1188E-03     16.8344E-03
            2426     11.5483E-03     1.95406E-03    -2.03227E+06    -44.4230E+06    -25.3765E+06    -12.2796E+06    -14.6596E-03     27.5841E-03    -12.9245E-03     14.4001E-03    -14.5691E-03     27.4021E-03    -12.9840E-03     14.2396E-03
            2427     10.6610E-03     1.95214E-03    -1.56280E+06    -57.2160E+06    -28.2206E+06    -12.7690E+06    -14.2872E-03     27.0984E-03    -12.8112E-03     12.2687E-03    -14.1714E-03     26.8557E-03    -12.8671E-03     12.1024E-03
            2428     9.77370E-03     1.95077E-03    -1.46142E+06    -64.2447E+06    -28.4863E+06    -13.1975E+06    -13.9438E-03     26.6602E-03    -12.7164E-03     10.4014E-03    -13.8169E-03     26.3826E-03    -12.7636E-03     10.2299E-03
            2429     8.88601E-03     1.94966E-03    -2.01581E+06    -64.8942E+06    -26.1470E+06    -12.6103E+06    -13.6606E-03     26.2981E-03    -12.6375E-03     8.87439E-03    -13.5388E-03     26.0145E-03    -12.6712E-03     8.71080E-03
            2430     7.99806E-03     1.94873E-03    -2.71787E+06    -62.8003E+06    -20.9623E+06    -10.4313E+06    -13.4145E-03     25.9917E-03    -12.5772E-03     7.53574E-03    -13.3067E-03     25.7120E-03    -12.5870E-03     7.40047E-03
            2431     7.11000E-03     1.94789E-03    -3.39439E+06    -60.5777E+06    -17.1712E+06    -7.98704E+06    -13.1809E-03     25.6982E-03    -12.5173E-03     6.36686E-03    -13.0852E-03     25.4251E-03    -12.5104E-03     6.26328E-03
            2432     6.22168E-03     1.94719E-03    -4.14688E+06    -58.8934E+06    -15.5132E+06    -6.14515E+06    -12.9693E-03     25.4256E-03    -12.4563E-03     5.33589E-03    -12.8822E-03     25.1596E-03    -12.4425E-03     5.25620E-03
            2433     5.33317E-03     1.94655E-03    -4.80094E+06    -58.0740E+06    -13.3391E+06    -4.62551E+06    -12.7885E-03     25.1965E-03    -12.4080E-03     4.40121E-03    -12.7090E-03     24.9324E-03    -12.3835E-03     4.34122E-03
            2434     4.44457E-03     1.94605E-03    -5.10703E+06    -57.0412E+06    -10.8081E+06    -3.35203E+06    -12.6352E-03     25.0044E-03    -12.3692E-03     3.54865E-03    -12.5624E-03     24.7422E-03    -12.3331E-03     3.50517E-03
            2435     3.55578E-03     1.94561E-03    -5.26780E+06    -55.7876E+06    -8.56050E+06    -2.41094E+06    -12.5098E-03     24.8465E-03    -12.3367E-03     2.77036E-03    -12.4428E-03     24.5876E-03    -12.2909E-03     2.73907E-03
            2436     2.66696E-03     1.94528E-03    -5.53101E+06    -55.1713E+06    -7.12594E+06    -1.59752E+06    -12.4098E-03     24.7188E-03    -12.3091E-03     2.04541E-03    -12.3471E-03     24.4613E-03    -12.2567E-03     2.02467E-03
            2437     1.77801E-03     1.94503E-03    -5.71873E+06    -54.3050E+06    -6.71147E+06    -1.26249E+06    -12.3281E-03     24.6142E-03    -12.2861E-03     1.36170E-03    -12.2682E-03     24.3607E-03    -12.2326E-03     1.34533E-03
            2438     889.005E-06     1.94491E-03    -5.72097E+06    -53.6284E+06    -6.39847E+06    -851.062E+03    -12.2846E-03     24.5601E-03    -12.2754E-03     719.034E-06    -12.2259E-03     24.3098E-03    -12.2214E-03     708.004E-06
            2439     16.8271E-03     1.00167E-03     402.548E+03     91.1242E+06     60.6306E+06     10.2496E+06    -40.5951E-03     57.1878E-03    -16.5927E-03     56.1681E-03    -40.9691E-03     57.7126E-03    -16.4223E-03     56.0981E-03
            2440     15.9476E-03     992.460E-06     4.33069E+06     70.1609E+06     47.7206E+06     6.30719E+06    -26.3887E-03     42.0127E-03    -15.6240E-03     27.7782E-03    -26.5506E-03     42.3003E-03    -15.4934E-03     27.8317E-03
            2441     15.0698E-03     987.835E-06     8.73229E+06     59.5789E+06     25.8859E+06    -215.610E+03    -22.8618E-03     37.8450E-03    -14.9831E-03     19.6134E-03    -22.9449E-03     38.0951E-03    -14.9527E-03     19.6021E-03
            2442     14.1904E-03     983.123E-06     10.0693E+06     40.0013E+06    -1.03474E+06     691.308E+03    -20.4268E-03     34.8827E-03    -14.4559E-03     15.7907E-03    -20.4341E-03     35.0707E-03    -14.5337E-03     15.7948E-03
            2443     13.3079E-03     980.629E-06     10.0129E+06     7.97136E+06    -17.9889E+06    -1.47240E+06    -18.3988E-03     32.4947E-03    -14.0959E-03     12.2407E-03    -18.3348E-03     32.5466E-03    -14.2119E-03     12.2190E-03
            2444     12.4238E-03     979.362E-06     9.36350E+06    -23.5269E+06    -30.0507E+06    -5.93759E+06    -17.1736E-03     31.0077E-03    -13.8341E-03     9.94590E-03    -17.0494E-03     30.9203E-03    -13.9638E-03     9.86764E-03
            2445     11.5385E-03     977.700E-06     7.26537E+06    -44.7723E+06    -39.6819E+06    -8.00344E+06    -16.3848E-03     29.9990E-03    -13.6142E-03     8.16934E-03    -16.2261E-03     29.8222E-03    -13.7582E-03     8.06492E-03
            2446     10.6533E-03     976.813E-06     4.65765E+06    -58.0216E+06    -41.1612E+06    -8.30976E+06    -15.7374E-03     29.1889E-03    -13.4516E-03     6.80635E-03    -15.5704E-03     28.9518E-03    -13.5800E-03     6.69826E-03
            2447     9.76696E-03     976.068E-06     1.79439E+06    -65.2974E+06    -37.8081E+06    -8.08383E+06    -15.1615E-03     28.4895E-03    -13.3280E-03     5.73610E-03    -15.0031E-03     28.2153E-03    -13.4250E-03     5.63117E-03
            2448     8.88029E-03     975.387E-06    -1.22030E+06    -67.5207E+06    -33.9521E+06    -7.33494E+06    -14.7059E-03     27.9249E-03    -13.2191E-03     4.82120E-03    -14.5649E-03     27.6384E-03    -13.2892E-03     4.72607E-03
            2449     7.99334E-03     974.833E-06    -4.04420E+06    -66.0009E+06    -29.6259E+06    -6.07652E+06    -14.3110E-03     27.4327E-03    -13.1217E-03     4.05815E-03    -14.1926E-03     27.1515E-03    -13.1682E-03     3.97937E-03
            2450     7.10595E-03     974.387E-06    -5.99600E+06    -63.4371E+06    -24.8771E+06    -4.62979E+06    -13.9639E-03     27.0010E-03    -13.0371E-03     3.41360E-03    -13.8658E-03     26.7286E-03    -13.0608E-03     3.35358E-03
            2451     6.21833E-03     974.000E-06    -7.17836E+06    -61.1647E+06    -21.4001E+06    -3.18529E+06    -13.6655E-03     26.6240E-03    -12.9585E-03     2.84641E-03    -13.5816E-03     26.3596E-03    -12.9664E-03     2.80510E-03
            2452     5.33047E-03     973.661E-06    -7.97595E+06    -59.6948E+06    -18.1847E+06    -2.35576E+06    -13.4103E-03     26.3022E-03    -12.8918E-03     2.33830E-03    -13.3373E-03     26.0416E-03    -12.8846E-03     2.30773E-03
            2453     4.44235E-03     973.366E-06    -8.36291E+06    -58.5027E+06    -14.9379E+06    -1.88902E+06    -13.1971E-03     26.0345E-03    -12.8374E-03     1.87947E-03    -13.1324E-03     25.7757E-03    -12.8151E-03     1.85497E-03
            2454     3.55413E-03     973.132E-06    -8.52701E+06    -57.1353E+06    -12.6777E+06    -1.21037E+06    -13.0220E-03     25.8114E-03    -12.7894E-03     1.46492E-03    -12.9633E-03     25.5564E-03    -12.7576E-03     1.44921E-03
            2455     2.66569E-03     972.937E-06    -8.50427E+06    -55.9552E+06    -11.0105E+06    -853.481E+03    -12.8829E-03     25.6338E-03    -12.7509E-03     1.07782E-03    -12.8282E-03     25.3822E-03    -12.7125E-03     1.06674E-03
            2456     1.77720E-03     972.825E-06    -8.30484E+06    -55.1133E+06    -9.55742E+06    -634.175E+03    -12.7842E-03     25.5086E-03    -12.7244E-03     712.998E-06    -12.7318E-03     25.2589E-03    -12.6803E-03     704.787E-06
            2457     888.622E-06     972.732E-06    -8.51016E+06    -54.8059E+06    -8.74264E+06    -293.691E+03    -12.7317E-03     25.4329E-03    -12.7012E-03     389.105E-06    -12.6817E-03     25.1841E-03    -12.6531E-03     385.441E-06


