********************************************************************************
Field Output Report, written Tue May  6 05:40:01 2025

Source 1
---------

   ODB: D:/AISI_1020/Vel_40/aisi_1020_2a_16_red_2000_cal_10_vel_40_fric_050.odb
   Step: Step-1
   Frame: Increment   3046955: Step Time =   0.3648

Loc 1 : Nodal values from source 1

Output sorted by column "Node Label".

Field Output reported at nodes for region: DIE_2A_16_D0_36-1.Region_1
   Computation algorithm: EXTRAPOLATE_COMPUTE_AVERAGE
   Averaged at nodes
   Averaging regions: ODB_REGIONS

      Node Label     COORD.COOR1     COORD.COOR2
                          @Loc 1          @Loc 1
-------------------------------------------------
               1     16.4041E-03     183.005E-03


Field Output reported at nodes for region: DIE_2A_16_D0_36-1.Region_2
   Computation algorithm: EXTRAPOLATE_COMPUTE_AVERAGE
   Averaged at nodes
   Averaging regions: ODB_REGIONS

      Node Label     COORD.COOR1     COORD.COOR2
                          @Loc 1          @Loc 1
-------------------------------------------------
               1     16.4041E-03     183.005E-03


Field Output reported at nodes for part: WIRE_1-1
   Computation algorithm: EXTRAPOLATE_COMPUTE_AVERAGE
   Averaged at nodes
   Averaging regions: ODB_REGIONS

      Node Label     COORD.COOR1     COORD.COOR2    ER.Max. Prin    ER.Mid. Prin    ER.Min. Prin         ER.ER11         ER.ER22         ER.ER33         ER.ER12    PE.Max. Prin    PE.Mid. Prin    PE.Min. Prin         PE.PE11         PE.PE22         PE.PE33         PE.PE12     S.Max. Prin     S.Mid. Prin     S.Min. Prin           S.S11           S.S22           S.S33           S.S12            TEMP
                          @Loc 1          @Loc 1          @Loc 1          @Loc 1          @Loc 1          @Loc 1          @Loc 1          @Loc 1          @Loc 1          @Loc 1          @Loc 1          @Loc 1          @Loc 1          @Loc 1          @Loc 1          @Loc 1          @Loc 1          @Loc 1          @Loc 1          @Loc 1          @Loc 1          @Loc 1          @Loc 1          @Loc 1
-----------------------------------------------------------------------------------------------------------------------------------------------------------------------------------------------------------------------------------------------------------------------------------------------------------------------------------------------------------------------------------------------------------------
               1     14.3489E-03     87.3249E-03         2.01598     817.447E-03        -3.88305     816.564E-03        -3.88216         2.01598     124.475E-03     458.576E-03    -228.028E-03    -230.548E-03    -227.605E-03     455.633E-03    -228.028E-03     89.8741E-03     132.436E+06     71.0988E+06    -3.83193E+06    -3.83140E+06     71.0983E+06     132.436E+06    -195.004E+03         80.1059
               2    -1.07789E-06     86.3328E-03         3.97482         2.81366        -7.86357         2.86445        -6.75319         2.81366        -6.81108     454.560E-03    -226.601E-03    -227.958E-03    -226.601E-03     454.559E-03    -227.958E-03    -528.765E-06    -134.067E+06    -136.083E+06    -229.612E+06    -135.557E+06    -229.561E+06    -134.645E+06    -1.14973E+06         57.8288
               3     1.90475E-06    -485.723E-18     112.193E-03    -699.671E-03    -762.961E-03    -699.653E-03     112.176E-03    -762.961E-03     7.57014E-03     542.098E-03    -269.590E-03    -272.508E-03    -269.590E-03     542.098E-03    -272.508E-03     457.776E-06    -55.6447E+06    -58.2083E+06    -207.486E+06    -55.6486E+06    -207.482E+06    -58.2083E+06     777.874E+03         61.8397
               4     14.2743E-03    -485.723E-18     735.700E-03    -168.050E-03        -1.72585     735.434E-03        -1.72558    -168.050E-03     51.2585E-03     626.270E-03    -228.476E-03    -397.794E-03    -393.121E-03     621.597E-03    -228.476E-03     138.033E-03     158.690E+06     73.2054E+06     8.10236E+06     8.39711E+06     72.9107E+06     158.690E+06    -4.37061E+06         81.5831
               5     14.4094E-03     174.328E-03     380.580E-03     26.7718E-03    -499.431E-03     28.6648E-03     378.687E-03    -499.431E-03     51.6210E-03     336.144E-03    -109.407E-03    -226.737E-03    -109.323E-03     336.060E-03    -226.737E-03    -12.2561E-03     91.1697E+06     53.3494E+06    -43.6757E+06    -40.1157E+06     49.7894E+06     91.1697E+06    -18.2411E+06         84.3898
               6     3.05605E-06     171.446E-03         1.20907        -1.10791        -1.19150        -1.19129         1.20886        -1.10791    -44.5394E-03     543.591E-03    -271.245E-03    -272.346E-03    -272.020E-03     543.265E-03    -271.245E-03    -32.6102E-03     48.0371E+06     48.0297E+06    -31.0525E+06     46.9600E+06    -29.9755E+06     48.0297E+06    -9.16630E+06         61.6424
               7     13.5509E-03     87.1899E-03         2.05961     906.346E-03        -4.02116     905.639E-03        -4.02045         2.05961     10.4109E-03     459.600E-03    -227.970E-03    -231.629E-03    -227.882E-03     455.852E-03    -227.970E-03     100.928E-03     116.153E+06     62.6780E+06    -7.34045E+06    -7.33660E+06     62.6742E+06     116.153E+06    -246.208E+03         78.6853
               8     12.7528E-03     87.0269E-03         2.14583         1.08930        -4.30139         1.07948        -4.29157         2.14583     274.831E-03     459.289E-03    -227.875E-03    -231.414E-03    -227.949E-03     455.824E-03    -227.875E-03     96.3757E-03     89.9422E+06     44.9756E+06    -14.2172E+06    -14.2090E+06     44.9674E+06     89.9422E+06    -30.6465E+03         75.3060
               9     11.9564E-03     86.9076E-03         2.22844         1.26402        -4.56663         1.25393        -4.55655         2.22844     247.057E-03     457.608E-03    -227.819E-03    -229.789E-03    -227.526E-03     455.345E-03    -227.819E-03     78.7224E-03     75.3659E+06     30.1276E+06    -21.1907E+06    -21.1857E+06     30.1225E+06     75.3659E+06     216.544E+03         71.2970
              10     11.1594E-03     86.7953E-03         2.30661         1.43772        -4.82113         1.42935        -4.81275         2.30661    -397.592E-03     456.416E-03    -227.732E-03    -228.685E-03    -226.761E-03     454.567E-03    -227.805E-03     70.8701E-03     66.8582E+06     22.2261E+06    -27.8035E+06    -27.8021E+06     22.2248E+06     66.8582E+06    -46.2018E+03         67.4696
              11     10.3588E-03     86.7018E-03         2.38042         1.62110        -5.07863         1.60440        -5.06193         2.38042     30.3901E-03     455.822E-03    -227.712E-03    -228.110E-03    -226.627E-03     454.445E-03    -227.818E-03     61.1699E-03     58.5316E+06     18.0974E+06    -34.5871E+06    -34.5814E+06     18.0917E+06     58.5316E+06     156.804E+03         64.3545
              12     9.56240E-03     86.6202E-03         2.44912         1.79324        -5.32076         1.77569        -5.30321         2.44912    -6.63295E-03     455.879E-03    -227.591E-03    -228.288E-03    -227.031E-03     454.855E-03    -227.824E-03     52.6643E-03     50.1070E+06     13.8731E+06    -42.2459E+06    -42.2412E+06     13.8684E+06     50.1070E+06     280.764E+03         62.1068
              13     8.76698E-03     86.5552E-03         2.51286         1.94061        -5.53668         1.93189        -5.52797         2.51286    -368.978E-03     455.206E-03    -227.148E-03    -228.058E-03    -226.636E-03     454.472E-03    -227.836E-03     44.6021E-03     41.7179E+06     8.43494E+06    -50.4232E+06    -50.4228E+06     8.43449E+06     41.7179E+06     47.6887E+03         60.6142
              14     7.96678E-03     86.4922E-03         2.57170         2.08180        -5.74422         2.08170        -5.74412         2.57170     24.1671E-03     455.212E-03    -227.148E-03    -228.064E-03    -226.835E-03     454.692E-03    -227.857E-03     37.4376E-03     32.2141E+06     1.34663E+06    -59.4866E+06    -59.4819E+06     1.34193E+06     32.2141E+06    -231.288E+03         59.6646
              15     7.16933E-03     86.4459E-03         2.62544         2.21820        -5.93951         2.21621        -5.93752         2.62544     215.125E-03     455.733E-03    -227.605E-03    -228.128E-03    -227.559E-03     455.385E-03    -227.826E-03     30.6118E-03     19.4009E+06    -13.8868E+06    -69.1555E+06    -69.1501E+06    -13.8922E+06     19.4009E+06    -153.918E+03         59.0616
              16     6.37660E-03     86.4091E-03         2.67408         2.34466        -6.11532         2.34272        -6.11339         2.67408     158.613E-03     455.009E-03    -227.132E-03    -227.877E-03    -226.999E-03     454.781E-03    -227.782E-03     24.6507E-03     1.36128E+06    -44.0496E+06    -78.9345E+06    -78.9108E+06    -44.0734E+06     1.36128E+06     629.604E+03         58.6660
              17     5.57855E-03     86.3802E-03         2.71696         2.46454        -6.27497         2.46411        -6.27455         2.71696    -82.3892E-03     454.441E-03    -226.632E-03    -227.809E-03    -226.498E-03     454.306E-03    -227.809E-03     18.7126E-03    -19.4019E+06    -78.5605E+06    -90.3694E+06    -88.9283E+06    -80.0016E+06    -19.4019E+06     345.552E+03         58.3946
              18     4.77848E-03     86.3572E-03         2.75340         2.60048        -6.44580         2.56905        -6.41437         2.75340     687.520E-03     454.901E-03    -227.001E-03    -227.900E-03    -226.985E-03     454.835E-03    -227.850E-03     13.0558E-03    -40.7314E+06    -99.1043E+06    -113.415E+06    -99.1545E+06    -113.364E+06    -40.7314E+06    -193.025E+03         58.2025
              19     3.98266E-03     86.3440E-03         2.78400         2.72096        -6.60132         2.65080        -6.53116         2.78400    -95.8231E-03     455.105E-03    -227.205E-03    -227.900E-03    -227.225E-03     455.075E-03    -227.850E-03     8.62641E-03    -63.0215E+06    -108.953E+06    -143.542E+06    -109.004E+06    -143.492E+06    -63.0215E+06     68.0024E+03         58.0654
              20     3.18727E-03     86.3394E-03         2.81146         2.78334        -6.69510         2.72502        -6.63408         2.80876    -210.790E-03     455.192E-03    -227.327E-03    -227.865E-03    -227.343E-03     455.181E-03    -227.838E-03     5.17920E-03    -84.9919E+06    -117.403E+06    -168.130E+06    -117.417E+06    -168.116E+06    -84.9919E+06     81.2171E+03         57.9687
              21     2.38980E-03     86.3373E-03         2.84229         2.81926        -6.76035         2.77723        -6.70413         2.82810    -153.361E-03     455.530E-03    -227.538E-03    -227.992E-03    -227.736E-03     455.527E-03    -227.791E-03     2.59507E-03    -104.800E+06    -124.604E+06    -191.715E+06    -124.608E+06    -191.711E+06    -104.800E+06     72.9334E+03         57.9028
              22     1.59370E-03     86.3364E-03         2.88372         2.83875        -6.82501         2.82299        -6.76685         2.84132    -152.810E-03     455.566E-03    -227.518E-03    -228.048E-03    -227.936E-03     455.565E-03    -227.629E-03     1.06593E-03    -121.430E+06    -130.417E+06    -211.237E+06    -130.422E+06    -211.232E+06    -121.430E+06    -95.5492E+03         57.8606
              23     797.029E-06     86.3348E-03         3.44130         2.82981        -7.36278         2.86229        -6.78377         2.82981        -2.76843     454.988E-03    -227.009E-03    -227.979E-03    -227.254E-03     454.988E-03    -227.734E-03     3.64573E-06    -131.432E+06    -134.377E+06    -223.868E+06    -134.115E+06    -223.841E+06    -131.721E+06    -784.891E+03         57.8367
              24     863.957E-09     84.7639E-03         3.62522         2.87914        -7.70045         3.14804        -7.22327         2.87914        -4.31706     453.820E-03    -226.237E-03    -227.583E-03    -227.437E-03     453.820E-03    -226.382E-03    -810.173E-06    -135.674E+06    -139.300E+06    -233.642E+06    -137.203E+06    -233.552E+06    -137.863E+06    -72.7425E+03         57.8236
              25     1.02976E-06     83.1885E-03         3.44998         2.83754        -7.60650         3.34648        -7.50300         2.83754        -1.04800     455.361E-03    -226.850E-03    -228.511E-03    -228.050E-03     455.360E-03    -227.310E-03     672.800E-06    -131.628E+06     -136.36E+06    -229.726E+06    -134.222E+06    -229.676E+06    -133.816E+06     824.486E+03         57.8217
              26    -1.73342E-06     81.6067E-03         3.68050         2.78317        -7.84618         3.42058        -7.58626         2.78317         2.81266     455.894E-03    -227.495E-03    -228.398E-03    -227.937E-03     455.893E-03    -227.956E-03     72.5719E-06    -134.016E+06    -137.882E+06    -229.473E+06    -136.568E+06    -229.465E+06    -135.338E+06    -730.491E+03         57.8245
              27     2.42420E-06     80.0349E-03         4.43004         2.61688        -8.54383         3.41277        -7.52655         2.61688         6.76611     455.478E-03    -227.513E-03    -227.964E-03    -227.955E-03     455.477E-03    -227.522E-03    -365.856E-06    -134.837E+06    -136.692E+06    -229.719E+06    -135.384E+06    -229.704E+06    -136.159E+06     704.091E+03         57.8308
              28    -2.42880E-06     78.4579E-03         5.38775         2.39900        -9.38635         3.30119        -7.29979         2.39900         10.2120     455.493E-03    -226.873E-03    -228.620E-03    -226.873E-03     455.493E-03    -228.620E-03     6.99342E-06    -131.628E+06    -132.800E+06    -227.136E+06    -132.188E+06    -227.109E+06    -132.267E+06     34.5013E+03         57.8376
              29    -345.190E-09     76.8789E-03         6.17596         2.23264        -10.0544         3.08122        -6.95963         2.23264         12.7229     456.397E-03    -226.723E-03    -229.674E-03    -227.935E-03     456.396E-03    -228.461E-03     530.539E-06    -134.664E+06    -135.696E+06    -229.299E+06    -135.070E+06    -229.286E+06    -135.303E+06    -733.043E+03         57.8420
              30     2.28107E-06     75.2984E-03         6.37391         2.02206        -10.1307         2.79027        -6.54710         2.02206         13.6068     455.736E-03    -226.997E-03    -228.739E-03    -228.209E-03     455.736E-03    -227.527E-03     215.074E-06    -135.224E+06    -136.368E+06    -230.626E+06    -135.617E+06    -230.625E+06    -135.975E+06     233.157E+03         57.8434
              31    -3.13346E-06     73.7303E-03         5.67487         1.79090        -9.27186         2.43882        -6.03581         1.79090         12.3085     454.177E-03    -226.303E-03    -227.874E-03    -226.303E-03     454.177E-03    -227.874E-03    -996.124E-06    -134.253E+06    -135.084E+06    -230.073E+06    -134.333E+06    -230.072E+06    -135.004E+06     87.8369E+03         57.8433
              32     1.47745E-06     72.1529E-03         4.14400         1.58028        -7.56937         2.05023        -5.47561         1.58028         8.91148     455.344E-03    -226.402E-03    -228.942E-03    -227.902E-03     455.344E-03    -227.443E-03    -375.955E-06    -133.849E+06    -134.773E+06    -229.436E+06    -134.775E+06    -229.434E+06    -133.849E+06     239.164E+03         57.8448
              33     922.441E-09     70.5715E-03         2.35205         1.29018        -5.55661         1.67313        -4.87769         1.29018         3.70088     455.882E-03    -226.810E-03    -229.072E-03    -229.072E-03     455.882E-03    -226.810E-03     287.623E-06    -134.414E+06    -135.749E+06    -229.430E+06    -135.753E+06    -229.426E+06    -134.414E+06     53.9014E+03         57.8475
              34     300.221E-09     69.0014E-03         2.09119     942.995E-03        -5.02394         1.32518        -4.25794     942.995E-03        -2.80511     455.707E-03    -227.049E-03    -228.658E-03    -228.658E-03     455.707E-03    -227.049E-03    -243.564E-06    -133.247E+06    -134.305E+06    -228.621E+06    -133.743E+06    -228.617E+06    -133.813E+06     77.7266E+03         57.8483
              35     1.04409E-06     67.4202E-03         4.13735     595.625E-03        -6.73642         1.00887        -3.60794     595.625E-03        -9.65257     456.014E-03    -227.346E-03    -228.668E-03    -228.192E-03     456.013E-03    -227.821E-03    -145.909E-06    -132.879E+06    -134.626E+06    -228.613E+06    -132.882E+06    -228.610E+06    -134.626E+06     198.110E+03         57.8467
              36    -1.81161E-06     65.8443E-03         7.12133     200.233E-03        -9.38303     762.100E-03        -3.02380     200.233E-03        -16.0295     454.947E-03    -226.644E-03    -228.303E-03    -226.643E-03     454.946E-03    -228.303E-03    -492.847E-06    -130.040E+06    -133.823E+06    -225.900E+06    -132.658E+06    -225.884E+06    -131.221E+06     662.438E+03         57.8454
              37    -47.2380E-09     64.2704E-03         9.89576    -179.995E-03        -11.8210     589.419E-03        -2.51462    -179.995E-03        -21.4831     454.898E-03    -226.364E-03    -228.534E-03    -227.349E-03     454.897E-03    -227.548E-03    -47.2394E-06    -133.311E+06    -138.045E+06    -228.704E+06    -136.008E+06    -228.608E+06    -135.443E+06    -1.12589E+06         57.8470
              38     1.59909E-06     62.6909E-03         11.8781    -511.986E-03        -13.4358     479.854E-03        -2.03752    -511.986E-03        -25.1856     455.727E-03    -226.449E-03    -229.279E-03    -227.435E-03     455.727E-03    -228.292E-03     1.26607E-03    -133.088E+06    -135.611E+06    -229.445E+06    -133.307E+06    -229.225E+06    -135.611E+06     669.885E+03         57.8518
              39    -4.53599E-06     61.1179E-03         12.7703    -829.863E-03        -14.0960     457.449E-03        -1.78315    -829.863E-03        -26.7727     455.617E-03    -226.627E-03    -228.990E-03    -227.145E-03     455.615E-03    -228.470E-03    -1.02301E-03    -128.166E+06    -129.684E+06    -224.775E+06    -129.602E+06    -224.466E+06    -128.557E+06    -171.711E+03         57.8571
              40     5.37192E-06     59.5394E-03         12.6847        -1.04722        -13.7705     482.200E-03        -1.56791        -1.04722        -26.3754     455.310E-03    -227.046E-03    -228.265E-03    -228.262E-03     455.308E-03    -227.046E-03    -365.733E-06    -132.249E+06    -136.495E+06    -229.310E+06    -133.589E+06    -229.097E+06    -135.368E+06    -1.30131E+06         57.8597
              41    -4.29278E-06     57.9641E-03         11.5654        -1.15364        -12.5426     510.675E-03        -1.48785        -1.15364        -24.0237     454.591E-03    -226.308E-03    -228.283E-03    -227.006E-03     454.590E-03    -227.584E-03     605.476E-06    -130.349E+06    -137.626E+06    -229.902E+06    -134.563E+06    -229.846E+06    -133.469E+06     740.993E+03         57.8587
              42     2.30310E-06     56.3884E-03         9.68673        -1.17353        -10.7147     623.672E-03        -1.65164        -1.17353        -20.2703     455.710E-03    -226.069E-03    -229.641E-03    -228.364E-03     455.709E-03    -227.345E-03    -155.872E-06    -127.723E+06    -136.442E+06    -227.319E+06    -131.896E+06    -227.303E+06    -132.285E+06    -318.781E+03         57.8561
              43     1.30308E-06     54.8135E-03         7.26550        -1.05327        -8.38167     787.149E-03        -1.90332        -1.05327        -15.3963     456.279E-03    -226.241E-03    -230.038E-03    -228.536E-03     456.279E-03    -227.743E-03     226.403E-06    -128.929E+06    -138.124E+06    -228.007E+06    -133.565E+06    -228.003E+06    -133.491E+06     465.968E+03         57.8542
              44    -3.64593E-06     53.2311E-03         4.47587    -840.311E-03        -5.85709     958.795E-03        -2.34002    -840.311E-03        -9.70352     454.045E-03    -226.083E-03    -227.962E-03    -226.459E-03     454.045E-03    -227.585E-03    -1.11902E-03    -128.565E+06    -137.038E+06    -227.615E+06    -133.204E+06    -227.608E+06    -132.405E+06    -554.593E+03         57.8551
              45     4.20317E-06     51.6654E-03         2.19417    -517.201E-03        -3.93887         1.14878        -2.89348    -517.201E-03        -3.91866     454.409E-03    -226.957E-03    -227.451E-03    -227.448E-03     454.406E-03    -226.957E-03     670.399E-06    -130.539E+06    -137.788E+06    -228.833E+06    -133.962E+06    -228.819E+06    -134.380E+06    -1.17767E+06         57.8602
              46    -3.97776E-06     50.0836E-03         1.73893    -81.6523E-03        -3.93427         1.34225        -3.53759    -81.6523E-03         1.58488     456.824E-03    -228.269E-03    -228.554E-03    -228.383E-03     456.821E-03    -228.437E-03     693.245E-06    -129.872E+06    -135.915E+06    -227.459E+06    -133.322E+06    -227.418E+06    -132.506E+06     698.691E+03         57.8675
              47     3.68264E-06     48.5047E-03         2.91475     418.318E-03        -5.68796         1.52687        -4.30008     418.318E-03         6.24233     456.729E-03    -228.183E-03    -228.546E-03    -228.377E-03     456.728E-03    -228.351E-03    -334.384E-06    -128.971E+06    -133.916E+06    -225.532E+06    -131.377E+06    -225.437E+06    -131.605E+06    -384.478E+03         57.8730
              48    -3.34450E-06     46.9290E-03         4.18167     998.207E-03        -7.57282         1.68240        -5.07355     998.207E-03         9.60975     454.463E-03    -227.028E-03    -227.434E-03    -227.431E-03     454.459E-03    -227.028E-03    -1.40632E-03    -130.921E+06    -136.159E+06    -226.703E+06    -133.338E+06    -226.598E+06    -133.848E+06    -212.429E+03         57.8740
              49     3.64104E-06     45.3575E-03         4.88013         1.60324        -8.93290         1.82068        -5.87344         1.60324         11.4710     454.278E-03    -226.893E-03    -227.384E-03    -227.379E-03     454.272E-03    -226.893E-03    -181.099E-06    -130.406E+06    -136.087E+06    -224.983E+06    -133.227E+06    -224.915E+06    -133.333E+06     445.297E+03         57.8721
              50    -3.16115E-06     43.7785E-03         4.81435         2.23002        -9.57924         1.91629        -6.68118         2.23002         11.5285     456.681E-03    -227.937E-03    -228.744E-03    -228.215E-03     456.678E-03    -228.463E-03     1.33514E-03    -131.026E+06    -136.794E+06    -226.217E+06    -133.806E+06    -226.191E+06    -134.040E+06    -638.752E+03         57.8704
              51     2.29389E-06     42.1977E-03         4.05895         2.85895        -9.49172         1.97869        -7.41147         2.85895         9.69014     456.312E-03    -227.595E-03    -228.717E-03    -227.594E-03     456.311E-03    -228.717E-03    -710.581E-06    -127.874E+06    -133.004E+06    -225.509E+06    -129.995E+06    -225.503E+06    -130.888E+06     727.240E+03         57.8704
              52    -3.21986E-06     40.6258E-03         3.60125         2.85210        -9.07738         2.04843        -8.08673         3.41426         6.38486     454.235E-03    -226.759E-03    -227.475E-03    -226.878E-03     454.234E-03    -227.356E-03    -1.16963E-03    -130.764E+06    -133.387E+06    -225.049E+06    -132.898E+06    -225.030E+06    -131.271E+06    -501.066E+03         57.8720
              53     3.40264E-06     39.0509E-03         3.89219         2.34698        -8.89802         2.12015        -8.67120         3.89219         2.17873     455.586E-03    -227.394E-03    -228.192E-03    -228.190E-03     455.584E-03    -227.394E-03     171.788E-06    -135.456E+06    -135.990E+06    -226.731E+06    -135.528E+06    -226.685E+06    -135.963E+06     305.795E+03         57.8755
              54    -2.31909E-06     37.4704E-03         4.29740         2.40403        -9.39036         2.17376        -9.16009         4.29740        -2.40109     456.048E-03    -227.341E-03    -228.707E-03    -228.018E-03     456.046E-03    -228.029E-03     103.402E-06    -133.686E+06    -135.058E+06    -224.903E+06    -135.089E+06    -224.872E+06    -133.686E+06     947.676E+03         57.8820
              55     1.24158E-06     35.8927E-03         4.59949         3.15268        -10.3974         2.23590        -9.48058         4.59949        -6.61685     454.099E-03    -225.984E-03    -228.115E-03    -225.980E-03     454.095E-03    -228.115E-03     820.025E-06    -129.821E+06    -133.898E+06    -222.085E+06    -131.172E+06    -222.078E+06    -132.553E+06     295.090E+03         57.8936
              56    -3.57338E-06     34.3229E-03         4.77583         4.08290        -11.5367         2.28994        -9.74379         4.77583        -9.91133     455.400E-03    -226.914E-03    -228.486E-03    -227.039E-03     455.396E-03    -228.357E-03     896.250E-06    -130.798E+06    -135.480E+06    -223.806E+06    -132.763E+06    -223.790E+06    -133.530E+06     1.16847E+06         57.9125
              57     3.79785E-06     32.7434E-03         4.90749         4.70385        -12.3024         2.30178        -9.85318         4.86030        -11.9510     456.630E-03    -228.204E-03    -228.426E-03    -228.425E-03     456.629E-03    -228.204E-03    -353.123E-06    -131.942E+06    -136.035E+06    -224.498E+06    -133.975E+06    -224.414E+06    -134.086E+06    -1.19321E+06         57.9400
              58    -3.66996E-06     31.1641E-03         4.91111         4.85107        -12.3882         2.29827        -9.78817         4.86392        -12.3577     455.576E-03    -227.372E-03    -228.204E-03    -227.465E-03     455.576E-03    -228.111E-03     497.061E-06    -131.523E+06    -135.145E+06    -224.258E+06    -133.142E+06    -224.118E+06    -133.668E+06    -123.585E+03         57.9763
              59     2.51071E-06     29.5906E-03         4.75565         4.51786        -11.8925         2.25708        -9.63173         4.75565        -11.3023     455.804E-03    -227.477E-03    -228.327E-03    -227.477E-03     455.804E-03    -228.327E-03     423.834E-06    -130.267E+06    -133.443E+06    -223.272E+06    -131.828E+06    -223.188E+06    -131.965E+06     821.224E+03         58.0188
              60    -2.70400E-06     28.0099E-03         4.61459         3.76731        -10.9879         2.12030        -9.34094         4.61459        -9.25777     456.951E-03    -228.307E-03    -228.644E-03    -228.307E-03     456.950E-03    -228.644E-03     154.827E-06    -132.092E+06    -135.501E+06    -225.592E+06    -133.854E+06    -225.541E+06    -133.790E+06     336.728E+03         58.0607
              61     2.36554E-06     26.4366E-03         4.43584         2.91236        -9.90216         1.96935        -8.95915         4.43584        -6.60614     459.198E-03    -228.626E-03    -230.572E-03    -230.346E-03     459.198E-03    -228.852E-03    -857.747E-06    -130.648E+06    -132.971E+06    -223.350E+06    -133.019E+06    -223.301E+06    -130.648E+06     430.525E+03         58.0907
              62     378.818E-09     24.8465E-03         4.14124         2.18766        -8.82535         1.82462        -8.46231         4.14124        -3.72488     459.560E-03    -228.706E-03    -230.854E-03    -230.426E-03     459.559E-03    -229.133E-03    -642.378E-06    -132.540E+06    -133.657E+06    -221.638E+06    -133.178E+06    -221.613E+06    -133.045E+06    -1.49184E+06         58.0927
              63    -1.06091E-06     23.2662E-03         3.79599         1.70340        -7.95496         1.63816        -7.88973         3.79599    -941.987E-03     458.349E-03    -228.536E-03    -229.813E-03    -228.536E-03     458.349E-03    -229.813E-03     341.777E-06    -132.804E+06    -134.387E+06    -222.934E+06    -132.863E+06    -222.875E+06    -134.387E+06     826.500E+03         58.0463
              64    -299.313E-09     21.6854E-03         3.44886         1.54067        -7.34783         1.45221        -7.25938         3.44886         1.39707     459.177E-03    -228.960E-03    -230.217E-03    -228.960E-03     459.177E-03    -230.217E-03     600.725E-06    -129.443E+06    -131.863E+06    -220.914E+06    -130.949E+06    -220.750E+06    -130.521E+06    -727.886E+03         57.9262
              65    -328.777E-09     20.1011E-03         3.00750         1.59457        -6.86599         1.29158        -6.56299         3.00750         3.05385     457.909E-03    -228.226E-03    -229.683E-03    -229.276E-03     457.908E-03    -228.633E-03    -998.315E-06    -131.588E+06    -135.094E+06    -223.396E+06    -133.091E+06    -223.235E+06    -133.752E+06    -754.788E+03         57.7023
              66     1.98330E-06     18.5231E-03         2.52788         1.62779        -6.35901         1.11067        -5.84190         2.52788         3.90818     451.713E-03    -225.126E-03    -226.587E-03    -226.175E-03     451.711E-03    -225.536E-03    -2.38250E-03    -129.597E+06    -134.819E+06    -221.294E+06    -132.703E+06    -221.246E+06    -131.761E+06     1.21232E+06         57.3482
              67    -2.60623E-06     16.9654E-03         2.09332         1.55186        -5.72929     923.849E-03        -5.10128         2.09332         4.08214     443.387E-03    -221.408E-03    -221.980E-03    -221.401E-03     443.381E-03    -221.980E-03    -3.90247E-03    -128.319E+06    -133.798E+06    -220.505E+06    -131.379E+06    -220.502E+06    -130.740E+06    -434.937E+03         56.8543
              68     2.30994E-06     15.4074E-03         1.61345         1.39434        -4.97232     779.263E-03        -4.35724         1.61345         3.76161     431.009E-03    -215.122E-03    -215.887E-03    -215.712E-03     430.996E-03    -215.285E-03    -5.77012E-03    -129.250E+06    -133.571E+06    -222.095E+06    -131.162E+06    -222.084E+06    -131.670E+06    -856.448E+03         56.2458
              69    -1.31200E-06     13.8855E-03         1.16921         1.10930        -4.17484     600.212E-03        -3.66576         1.16921         3.11806     412.590E-03    -205.838E-03    -206.752E-03    -206.727E-03     412.566E-03    -205.838E-03    -7.59643E-03    -132.257E+06    -135.482E+06    -224.117E+06    -134.168E+06    -224.106E+06    -133.581E+06    -642.385E+03         55.5981
              70     1.77461E-06     12.3932E-03     824.789E-03     766.715E-03        -3.38747     390.559E-03        -3.01131     824.789E-03         2.38349     393.545E-03    -196.399E-03    -197.146E-03    -197.114E-03     393.513E-03    -196.399E-03    -8.66614E-03    -133.904E+06    -136.612E+06    -225.308E+06    -135.333E+06    -225.262E+06    -135.229E+06    -1.36066E+06         55.0333
              71    -1.07061E-06     10.9234E-03     515.375E-03     448.205E-03        -2.64497     223.525E-03        -2.38413     479.214E-03         1.72966     378.225E-03    -188.882E-03    -189.342E-03    -189.316E-03     378.198E-03    -188.882E-03    -7.72263E-03    -138.905E+06    -141.891E+06    -228.305E+06    -140.337E+06    -228.256E+06    -140.509E+06    -1.03593E+06         54.6943
              72     1.06621E-06     9.47657E-03     220.400E-03     176.417E-03        -1.98864     52.7499E-03        -1.82881     184.240E-03         1.13981     373.300E-03    -186.410E-03    -186.890E-03    -186.424E-03     373.289E-03    -186.866E-03    -3.25601E-03    -141.534E+06    -144.459E+06    -228.653E+06    -142.875E+06    -228.634E+06    -143.137E+06     1.18576E+06         54.7062
              73    -1.78622E-06     8.02044E-03    -15.6282E-03    -49.7068E-03        -1.40400    -145.995E-03        -1.30771    -15.6282E-03     692.921E-03     383.189E-03    -191.271E-03    -191.919E-03    -191.463E-03     383.189E-03    -191.726E-03    -486.186E-06    -142.895E+06    -145.092E+06    -228.206E+06    -144.251E+06    -228.171E+06    -143.770E+06    -80.7502E+03         55.1449
              74     2.11420E-06     6.54838E-03    -197.328E-03    -256.041E-03    -900.205E-03    -298.665E-03    -825.123E-03    -229.785E-03     418.833E-03     409.526E-03    -204.546E-03    -204.980E-03    -204.721E-03     409.509E-03    -204.788E-03     4.04930E-03    -137.607E+06    -139.298E+06    -231.565E+06    -138.450E+06    -231.537E+06    -138.483E+06    -196.511E+03         56.0216
              75    -2.36595E-06     5.01408E-03    -279.528E-03    -438.106E-03    -602.496E-03    -439.092E-03    -442.932E-03    -438.106E-03     141.020E-03     451.816E-03    -225.042E-03    -226.774E-03    -226.511E-03     451.795E-03    -225.284E-03     6.90559E-03    -115.931E+06    -117.928E+06    -227.579E+06    -116.778E+06    -227.548E+06    -117.113E+06     1.84438E+06         57.2922
              76     4.77909E-06     3.40516E-03    -126.949E-03    -581.443E-03    -601.796E-03    -600.081E-03    -128.664E-03    -581.443E-03    -52.9553E-03     496.743E-03    -247.449E-03    -249.294E-03    -249.273E-03     496.723E-03    -247.449E-03     7.37145E-03    -85.0273E+06    -88.4504E+06    -218.081E+06    -87.2914E+06    -218.058E+06    -86.2090E+06     1.40013E+06         58.8926
              77    -4.14943E-06     1.72229E-03     64.0153E-03    -670.290E-03    -721.385E-03    -688.064E-03     62.3389E-03    -701.935E-03    -44.2663E-03     529.744E-03    -263.965E-03    -265.779E-03    -264.302E-03     529.727E-03    -265.424E-03     5.42397E-03    -61.7368E+06    -65.2601E+06    -210.323E+06    -63.9812E+06    -210.320E+06    -63.0187E+06     643.749E+03         60.8035
              78     760.711E-06    -485.723E-18     95.8467E-03    -680.582E-03    -735.448E-03    -680.383E-03     95.6478E-03    -735.448E-03    -12.9925E-03     538.980E-03    -267.984E-03    -270.995E-03    -267.978E-03     538.974E-03    -270.995E-03     3.30713E-03    -56.6703E+06    -57.9989E+06    -200.274E+06    -56.7206E+06    -200.270E+06    -57.9521E+06     68.9742E+03         61.7793
              79     1.52431E-03    -485.723E-18     70.7143E-03    -639.243E-03    -694.084E-03    -638.739E-03     70.2110E-03    -694.084E-03     3.83587E-03     530.607E-03    -262.513E-03    -268.094E-03    -262.494E-03     530.588E-03    -268.094E-03     7.64979E-03    -56.5738E+06    -57.9359E+06    -187.785E+06    -57.9581E+06    -187.763E+06    -56.5738E+06     814.858E+03         61.6105
              80     2.29619E-03    -485.723E-18     37.3694E-03    -594.353E-03    -667.698E-03    -592.868E-03     35.8840E-03    -667.698E-03    -16.3306E-03     518.204E-03    -253.395E-03    -264.809E-03    -253.361E-03     518.170E-03    -264.809E-03     10.1089E-03    -54.1832E+06    -58.3218E+06    -178.155E+06    -58.3519E+06    -178.125E+06    -54.1832E+06     1.87285E+06         61.3553
              81     3.07406E-03    -485.723E-18    -15.4200E-03    -570.640E-03    -645.524E-03    -569.018E-03    -17.0419E-03    -645.524E-03    -15.2140E-03     502.516E-03    -241.947E-03    -260.569E-03    -241.892E-03     502.461E-03    -260.569E-03     12.6495E-03    -51.9763E+06    -57.7801E+06    -163.917E+06    -57.7933E+06    -163.904E+06    -51.9763E+06     311.616E+03         61.0405
              82     3.86394E-03    -485.723E-18    -79.3267E-03    -559.551E-03    -628.638E-03    -557.103E-03    -81.7741E-03    -628.638E-03    -19.7450E-03     485.154E-03    -229.564E-03    -255.591E-03    -229.492E-03     485.082E-03    -255.591E-03     14.3398E-03    -49.5678E+06    -56.2436E+06    -140.528E+06    -56.2473E+06    -140.524E+06    -49.5678E+06    -426.103E+03         60.7081
              83     4.66385E-03    -485.723E-18    -152.432E-03    -517.525E-03    -612.913E-03    -513.441E-03    -156.516E-03    -612.913E-03    -6.60172E-03     467.711E-03    -217.528E-03    -250.183E-03    -217.449E-03     467.632E-03    -250.183E-03     14.7150E-03    -46.4531E+06    -53.7616E+06    -109.572E+06    -53.9255E+06    -109.408E+06    -46.4531E+06    -1.80450E+06         60.4189
              84     5.47331E-03    -485.723E-18    -228.445E-03    -434.534E-03    -592.176E-03    -426.016E-03    -236.963E-03    -592.176E-03    -1.64159E-03     451.269E-03    -206.638E-03    -244.631E-03    -206.558E-03     451.190E-03    -244.631E-03     14.4792E-03    -42.2018E+06    -48.7845E+06    -70.4157E+06    -50.4954E+06    -68.7048E+06    -42.2018E+06    -2.05731E+06         60.2561
              85     6.29232E-03    -485.723E-18    -264.080E-03    -390.231E-03    -563.885E-03    -316.867E-03    -337.443E-03    -563.885E-03    -20.5039E-03     437.032E-03    -197.807E-03    -239.225E-03    -197.724E-03     436.949E-03    -239.225E-03     14.4403E-03    -26.4877E+06    -36.9993E+06    -47.2098E+06    -47.0201E+06    -29.6468E+06    -34.0299E+06    -1.79464E+06         60.3279
              86     7.11525E-03    -485.723E-18    -231.571E-03    -453.174E-03    -530.677E-03    -233.653E-03    -451.092E-03    -530.677E-03    -10.1947E-03     425.441E-03    -191.242E-03    -234.199E-03    -191.146E-03     425.345E-03    -234.199E-03     15.3621E-03    -9.31419E+06    -21.7009E+06    -42.5931E+06    -42.3402E+06    -9.56714E+06    -21.7009E+06    -2.87510E+06         60.7677
              87     7.94428E-03    -485.723E-18    -166.490E-03    -494.351E-03    -581.189E-03    -167.616E-03    -578.032E-03    -496.382E-03    -27.2118E-03     416.445E-03    -186.795E-03    -229.651E-03    -186.704E-03     416.354E-03    -229.651E-03     14.7852E-03    -2.16856E+06    -9.43625E+06    -36.7877E+06    -36.6476E+06    -2.30859E+06    -9.43625E+06    -2.12138E+06         61.7232
              88     8.77833E-03    -485.723E-18    -75.1504E-03    -461.025E-03    -718.998E-03    -75.2506E-03    -718.898E-03    -461.025E-03    -13.3638E-03     411.045E-03    -185.371E-03    -225.673E-03    -185.294E-03     410.967E-03    -225.673E-03     13.5931E-03     3.45812E+06     858.573E+03    -32.1475E+06    -32.1118E+06     3.24603E+06     1.03492E+06    -841.892E+03         63.3267
              89     9.60879E-03    -485.723E-18     58.8983E-03    -422.045E-03    -861.807E-03     58.7947E-03    -861.703E-03    -422.045E-03    -9.29755E-03     409.578E-03    -187.161E-03    -222.417E-03    -187.072E-03     409.489E-03    -222.417E-03     14.5619E-03     14.5061E+06     8.85868E+06    -29.0111E+06    -29.0055E+06     8.85307E+06     14.5061E+06     276.325E+03         65.6467
              90     10.4366E-03    -485.723E-18     209.329E-03    -378.074E-03        -1.00988     209.262E-03        -1.00981    -378.074E-03    -10.0318E-03     412.426E-03    -192.440E-03    -219.986E-03    -192.334E-03     412.320E-03    -219.986E-03     15.9921E-03     32.1905E+06     14.6126E+06    -25.6185E+06    -25.5718E+06     14.5660E+06     32.1905E+06     1.24309E+06         68.6266
              91     11.2624E-03    -485.723E-18     333.499E-03    -330.763E-03        -1.16963     333.375E-03        -1.16950    -330.763E-03    -27.2874E-03     423.959E-03    -205.375E-03    -218.584E-03    -205.290E-03     423.874E-03    -218.584E-03     14.4638E-03     49.6540E+06     19.8068E+06    -22.7229E+06    -22.6287E+06     19.7126E+06     49.6540E+06     1.99715E+06         72.0325
              92     12.0759E-03    -485.723E-18     421.247E-03    -283.337E-03        -1.32712     421.143E-03        -1.32701    -283.337E-03    -1.60476E-03     448.913E-03    -216.819E-03    -232.093E-03    -229.929E-03     448.551E-03    -218.622E-03     27.9892E-03     66.9542E+06     29.8432E+06    -20.7411E+06    -20.4329E+06     29.5350E+06     66.9542E+06     3.76136E+06         75.4669
              93     12.8325E-03    -485.723E-18     524.964E-03    -237.064E-03        -1.48357     524.668E-03        -1.48327    -237.064E-03    -20.4601E-03     488.273E-03    -220.541E-03    -267.732E-03    -266.081E-03     486.622E-03    -220.541E-03     67.5960E-03     89.8777E+06     41.0377E+06    -18.6667E+06    -18.1616E+06     40.5326E+06     89.8777E+06     5.46550E+06         78.4843
              94     13.5773E-03    -485.723E-18     664.302E-03    -191.091E-03        -1.64637     663.916E-03        -1.64598    -191.091E-03    -7.42163E-03     568.874E-03    -225.247E-03    -343.627E-03    -339.970E-03     565.217E-03    -225.247E-03     114.935E-03     131.235E+06     59.0238E+06    -4.89140E+06    -4.49421E+06     58.6266E+06     131.235E+06     602.685E+03         80.7092
              95     14.2948E-03     2.01664E-03     733.849E-03    -144.585E-03        -1.75905     733.073E-03        -1.75827    -144.585E-03     82.5980E-03     588.505E-03    -228.173E-03    -360.332E-03    -356.111E-03     584.283E-03    -228.173E-03     126.288E-03     149.485E+06     64.6826E+06    -2.22774E+06    -2.01206E+06     64.4670E+06     149.485E+06    -654.908E+03         81.0813
              96     14.3402E-03     3.67288E-03     754.976E-03    -80.3024E-03        -1.86328     753.867E-03        -1.86217    -80.3024E-03     107.191E-03     514.296E-03    -227.978E-03    -286.318E-03    -282.375E-03     510.353E-03    -227.978E-03     111.837E-03     140.247E+06     60.3690E+06    -8.36309E+06    -8.29466E+06     60.3006E+06     140.247E+06     1.46437E+06         80.4389
              97     14.3440E-03     5.23528E-03     804.082E-03     17.2764E-03        -2.06224     803.599E-03        -2.06176     17.2764E-03     60.5261E-03     475.653E-03    -227.907E-03    -247.746E-03    -245.148E-03     473.055E-03    -227.907E-03     82.4376E-03     137.103E+06     61.9266E+06    -5.53250E+06    -5.53146E+06     61.9256E+06     137.103E+06    -239.383E+03         80.1978
              98     14.3484E-03     6.84107E-03     857.812E-03     147.530E-03        -2.34079     857.580E-03        -2.34056     147.530E-03    -27.7255E-03     471.034E-03    -227.726E-03    -243.308E-03    -241.798E-03     469.524E-03    -227.726E-03     64.8899E-03     136.249E+06     61.4609E+06    -4.38625E+06    -4.32787E+06     61.4026E+06     136.249E+06    -1.54443E+06         79.9462
              99     14.3491E-03     8.43449E-03     928.024E-03     309.180E-03        -2.66986     926.843E-03        -2.66868     309.180E-03    -123.936E-03     469.861E-03    -227.665E-03    -242.196E-03    -240.401E-03     468.066E-03    -227.665E-03     71.3536E-03     136.659E+06     62.2007E+06    -3.23838E+06    -3.17986E+06     62.1421E+06     136.659E+06    -1.55510E+06         79.6130
             100     14.3489E-03     10.0521E-03         1.01727     497.849E-03        -3.05144         1.01442        -3.04859     497.849E-03    -213.494E-03     468.915E-03    -227.698E-03    -241.217E-03    -239.274E-03     466.972E-03    -227.698E-03     73.9613E-03     135.306E+06     61.5392E+06    -3.86719E+06    -3.86476E+06     61.5368E+06     135.306E+06     29.0595E+03         79.2405
             101     14.3483E-03     11.6332E-03         1.11063     708.803E-03        -3.47949         1.10581        -3.47466     708.803E-03    -296.560E-03     466.132E-03    -227.822E-03    -238.309E-03    -236.087E-03     463.909E-03    -227.822E-03     79.0118E-03     135.355E+06     61.8541E+06    -3.70930E+06    -3.70790E+06     61.8527E+06     135.355E+06     189.968E+03         78.8743
             102     14.3479E-03     13.2322E-03         1.21217     936.038E-03        -3.94352         1.20487        -3.93622     936.038E-03    -386.900E-03     464.813E-03    -227.885E-03    -236.927E-03    -234.509E-03     462.395E-03    -227.885E-03     82.1633E-03     135.285E+06     62.1117E+06    -3.73074E+06    -3.73043E+06     62.1114E+06     135.285E+06     74.4653E+03         78.5426
             103     14.3483E-03     14.8167E-03         1.32202         1.17400        -4.42868         1.31180        -4.41846         1.17400    -483.891E-03     463.293E-03    -227.937E-03    -235.356E-03    -232.711E-03     460.648E-03    -227.937E-03     85.8092E-03     135.514E+06     62.8177E+06    -3.47115E+06    -3.47079E+06     62.8173E+06     135.514E+06     145.645E+03         78.2541
             104     14.3479E-03     16.4024E-03         1.45978         1.38929        -4.91954         1.41645        -4.90576         1.41884    -590.210E-03     461.749E-03    -227.988E-03    -233.760E-03    -231.041E-03     459.029E-03    -227.988E-03     86.8091E-03     135.647E+06     63.3006E+06    -3.49743E+06    -3.49723E+06     63.3004E+06     135.647E+06    -17.3087E+03         78.0127
             105     14.3478E-03     17.9819E-03         1.66538         1.53428        -5.39842         1.51645        -5.38059         1.66538    -701.753E-03     460.638E-03    -228.046E-03    -232.592E-03    -229.755E-03     457.801E-03    -228.046E-03     88.5029E-03     135.208E+06     63.0624E+06    -4.12581E+06    -4.12405E+06     63.0606E+06     135.208E+06     169.138E+03         77.8200
             106     14.3471E-03     19.5642E-03         1.90725         1.63197        -5.85417         1.61059        -5.83279         1.90725    -798.772E-03     459.459E-03    -228.101E-03    -231.357E-03    -228.445E-03     456.546E-03    -228.101E-03     89.5191E-03     134.818E+06     63.2654E+06    -4.05147E+06    -4.04770E+06     63.2616E+06     134.818E+06    -33.7188E+03         77.6760
             107     14.3475E-03     21.1377E-03         2.13828         1.71924        -6.27489         1.69565        -6.25131         2.13828    -867.124E-03     458.006E-03    -228.134E-03    -229.872E-03    -226.910E-03     455.044E-03    -228.134E-03     90.0811E-03     134.483E+06     63.4842E+06    -4.02176E+06    -4.01962E+06     63.4821E+06     134.483E+06    -260.896E+03         77.5798
             108     14.3480E-03     22.7124E-03         2.35180         1.79941        -6.65855         1.77483        -6.63396         2.35180    -910.713E-03     457.525E-03    -228.138E-03    -229.387E-03    -226.445E-03     454.583E-03    -228.138E-03     89.7143E-03     135.100E+06     64.1574E+06    -3.66892E+06    -3.66890E+06     64.1573E+06     135.100E+06    -21.3196E+03         77.5277
             109     14.3471E-03     24.2872E-03         2.54107         1.86990        -7.00034         1.84513        -6.97557         2.54107    -936.164E-03     456.888E-03    -228.044E-03    -228.844E-03    -225.814E-03     453.961E-03    -228.147E-03     89.4059E-03     134.455E+06     64.2101E+06    -3.83192E+06    -3.83120E+06     64.2094E+06     134.455E+06     125.314E+03         77.5106
             110     14.3487E-03     25.8595E-03         2.70114         1.92637        -7.28866         1.90229        -7.26458         2.70114    -940.760E-03     456.065E-03    -227.924E-03    -228.142E-03    -224.961E-03     453.102E-03    -228.142E-03     89.8406E-03     133.944E+06     64.2255E+06    -3.99151E+06    -3.98636E+06     64.2204E+06     133.944E+06    -235.845E+03         77.5207
             111     14.3480E-03     27.4300E-03         2.82943         1.97127        -7.51869         1.94856        -7.49598         2.82943    -927.182E-03     456.900E-03    -228.005E-03    -228.895E-03    -225.861E-03     453.981E-03    -228.120E-03     89.2835E-03     135.141E+06      65.074E+06    -3.28310E+06    -3.27633E+06     65.0672E+06     135.141E+06    -108.079E+03         77.5495
             112     14.3477E-03     29.0076E-03         2.92331         2.00170        -7.68137         1.98035        -7.66002         2.92331    -908.114E-03     457.787E-03    -228.116E-03    -229.670E-03    -226.764E-03     454.881E-03    -228.116E-03     89.2039E-03     134.087E+06     64.1999E+06    -4.36745E+06    -4.36493E+06     64.1974E+06     134.087E+06     198.505E+03         77.5884
             113     14.3476E-03     30.5815E-03         2.97985         2.01528        -7.77230         1.99537        -7.75238         2.97985    -881.792E-03     457.752E-03    -228.120E-03    -229.632E-03    -226.682E-03     454.802E-03    -228.120E-03     89.8718E-03     133.956E+06     64.8333E+06    -3.93359E+06    -3.93304E+06     64.8327E+06     133.956E+06     26.5496E+03         77.6326
             114     14.3481E-03     32.1569E-03         2.99738         2.01398        -7.78992         1.99548        -7.77141         2.99738    -850.960E-03     457.731E-03    -228.113E-03    -229.617E-03    -226.654E-03     454.767E-03    -228.113E-03     90.0740E-03     134.286E+06     65.2395E+06    -3.69981E+06    -3.69932E+06     65.2390E+06     134.286E+06     177.956E+03         77.6804
             115     14.3477E-03     33.7324E-03         2.97371         2.00075        -7.73907         1.98273        -7.72104         2.97371    -837.290E-03     457.871E-03    -228.103E-03    -229.768E-03    -226.778E-03     454.881E-03    -228.103E-03     90.4853E-03     134.712E+06     65.5664E+06    -3.58700E+06    -3.58680E+06     65.5662E+06     134.712E+06     115.470E+03         77.7307
             116     14.3485E-03     35.3064E-03         2.90664         1.98216        -7.63151         1.96354        -7.61289         2.90664    -845.158E-03     458.745E-03    -228.075E-03    -230.670E-03    -227.661E-03     455.736E-03    -228.075E-03     90.8881E-03     134.425E+06     65.4417E+06    -3.89925E+06    -3.89890E+06     65.4414E+06     134.425E+06     145.788E+03         77.7835
             117     14.3475E-03     36.8861E-03         2.79761         1.95644        -7.47102         1.93684        -7.45142         2.79761    -858.688E-03     459.812E-03    -228.076E-03    -231.736E-03    -228.715E-03     456.792E-03    -228.076E-03     91.2072E-03     134.458E+06     65.6602E+06    -3.68539E+06    -3.68074E+06     65.6556E+06     134.458E+06     487.498E+03         77.8359
             118     14.3469E-03     38.4670E-03         2.65106         1.92059        -7.25060         1.89940        -7.22941         2.65106    -880.201E-03     458.207E-03    -228.119E-03    -230.088E-03    -227.006E-03     455.135E-03    -228.129E-03     91.7530E-03     133.944E+06     65.6456E+06    -3.70934E+06    -3.70489E+06     65.6412E+06     133.944E+06     442.783E+03         77.8862
             119     14.3488E-03     40.0341E-03         2.47208         1.87957        -6.98429         1.85599        -6.96071         2.47208    -912.561E-03     457.606E-03    -228.107E-03    -229.499E-03    -226.352E-03     454.470E-03    -228.118E-03     92.6319E-03     133.780E+06     65.7456E+06    -3.77040E+06    -3.76875E+06      65.744E+06     133.780E+06     286.908E+03         77.9386
             120     14.3474E-03     41.6121E-03         2.26683         1.83408        -6.68652         1.80726        -6.65970         2.26683    -953.348E-03     459.253E-03    -228.060E-03    -231.192E-03    -228.161E-03     456.221E-03    -228.060E-03     91.2775E-03     134.119E+06     66.0319E+06    -3.58995E+06    -3.58510E+06     66.0271E+06     134.119E+06     571.516E+03         77.9939
             121     14.3486E-03     43.1914E-03         2.04248         1.78490        -6.35399         1.75472        -6.32380         2.04248    -988.888E-03     459.256E-03    -228.057E-03    -231.200E-03    -228.178E-03     456.235E-03    -228.057E-03     91.1244E-03     133.418E+06     64.9165E+06    -4.76903E+06    -4.76560E+06     64.9131E+06     133.418E+06     267.999E+03         78.0517
             122     14.3478E-03     44.7648E-03         1.82076         1.72174        -6.00685         1.70392        -5.97355         1.80528        -1.01263     459.246E-03    -228.058E-03    -231.187E-03    -228.179E-03     456.238E-03    -228.058E-03     90.9179E-03     134.558E+06     65.9832E+06    -3.76884E+06    -3.76802E+06     65.9824E+06     134.558E+06    -223.829E+03         78.1140
             123     14.3482E-03     46.3437E-03         1.68953         1.56148        -5.66246         1.65413        -5.62706         1.56148        -1.01770     458.931E-03    -228.058E-03    -230.873E-03    -227.910E-03     455.969E-03    -228.058E-03     90.1960E-03     133.958E+06     65.9052E+06    -3.94880E+06    -3.94614E+06     65.9026E+06     133.958E+06    -417.061E+03         78.1779
             124     14.3484E-03     47.9203E-03         1.64475         1.31962        -5.32719         1.60930        -5.29174         1.31962    -991.751E-03     458.908E-03    -228.066E-03    -230.842E-03    -227.757E-03     455.823E-03    -228.066E-03     92.0510E-03     134.585E+06     66.2136E+06    -3.75081E+06    -3.74879E+06     66.2116E+06     134.585E+06    -234.695E+03         78.2412
             125     14.3477E-03     49.4985E-03         1.60637         1.08850        -5.01487         1.57298        -4.98148         1.08850    -937.919E-03     459.563E-03    -228.078E-03    -231.486E-03    -228.461E-03     456.539E-03    -228.078E-03     91.2287E-03     135.024E+06     66.4618E+06    -3.51527E+06    -3.51212E+06     66.4587E+06     135.024E+06     359.139E+03         78.3021
             126     14.3472E-03     51.0739E-03         1.56857     876.364E-03        -4.72944         1.53909        -4.69996     876.364E-03    -859.507E-03     458.948E-03    -228.101E-03    -230.847E-03    -227.858E-03     455.958E-03    -228.101E-03     90.6212E-03     133.866E+06     65.9210E+06    -4.08536E+06    -4.07627E+06     65.9119E+06     133.866E+06     787.564E+03         78.3610
             127     14.3484E-03     52.6503E-03         1.53069     692.325E-03        -4.47551         1.50638        -4.45120     692.325E-03    -761.691E-03     458.138E-03    -228.107E-03    -230.031E-03    -227.002E-03     455.109E-03    -228.107E-03     91.1039E-03     133.977E+06     66.3696E+06    -3.75805E+06    -3.75180E+06     66.3634E+06     133.977E+06     358.908E+03         78.4209
             128     14.3476E-03     54.2258E-03         1.49825     543.580E-03        -4.26237         1.47836        -4.24249     543.580E-03    -675.574E-03     458.218E-03    -228.103E-03    -230.114E-03    -227.086E-03     455.189E-03    -228.103E-03     91.1167E-03     133.823E+06     66.0911E+06    -4.15907E+06    -4.15860E+06     66.0906E+06     133.823E+06    -181.444E+03         78.4816
             129     14.3482E-03     55.8000E-03         1.46941     433.758E-03        -4.09536         1.45238        -4.07832     433.758E-03    -614.418E-03     458.621E-03    -228.075E-03    -230.546E-03    -227.506E-03     455.581E-03    -228.075E-03     91.3314E-03     134.303E+06     66.5375E+06    -3.94050E+06    -3.93670E+06     66.5337E+06     134.303E+06    -440.040E+03         78.5454
             130     14.3489E-03     57.3770E-03         1.44704     365.401E-03        -3.98261         1.43212        -3.96769     365.401E-03    -568.291E-03     459.101E-03    -228.044E-03    -231.057E-03    -228.048E-03     456.091E-03    -228.044E-03     90.9488E-03     135.017E+06     67.3676E+06    -3.35670E+06    -3.35136E+06     67.3623E+06     135.017E+06    -604.661E+03         78.6123
             131     14.3478E-03     58.9566E-03         1.43217     340.523E-03        -3.92577         1.41848        -3.91209     340.523E-03    -540.783E-03     459.110E-03    -228.067E-03    -231.043E-03    -228.028E-03     456.096E-03    -228.067E-03     91.0246E-03     134.917E+06     67.3589E+06    -3.49181E+06    -3.48034E+06     67.3474E+06     134.917E+06     339.969E+03         78.6790
             132     14.3480E-03     60.5322E-03         1.42010     360.118E-03        -3.92333         1.40644        -3.90967     360.118E-03    -539.636E-03     458.734E-03    -228.090E-03    -230.644E-03    -227.565E-03     455.655E-03    -228.090E-03     91.9326E-03     134.141E+06     66.6977E+06    -4.33030E+06    -4.31377E+06     66.6812E+06     134.141E+06     1.07901E+06         78.7473
             133     14.3482E-03     62.1069E-03         1.41616     424.536E-03        -3.97441         1.40173        -3.95998     424.536E-03    -557.157E-03     458.762E-03    -228.088E-03    -230.674E-03    -227.659E-03     455.747E-03    -228.088E-03     90.9688E-03     134.481E+06     67.4227E+06    -3.80901E+06    -3.80192E+06     67.4156E+06     134.481E+06     388.337E+03         78.8171
             134     14.3475E-03     63.6837E-03         1.41726     532.798E-03        -4.06732         1.40208        -4.05214     532.798E-03    -576.333E-03     458.556E-03    -228.092E-03    -230.464E-03    -227.467E-03     455.559E-03    -228.092E-03     90.6771E-03     133.961E+06     67.5936E+06    -3.83384E+06    -3.83353E+06     67.5932E+06     133.961E+06    -81.3019E+03         78.8860
             135     14.3486E-03     65.2595E-03         1.41272     680.840E-03        -4.18456         1.39787        -4.16971     680.840E-03    -575.489E-03     458.368E-03    -228.080E-03    -230.288E-03    -227.241E-03     455.321E-03    -228.080E-03     91.4115E-03     133.813E+06     67.8941E+06    -3.81699E+06    -3.81496E+06     67.8921E+06     133.813E+06    -247.422E+03         78.9562
             136     14.3482E-03     66.8346E-03         1.40497     861.337E-03        -4.32575         1.39170        -4.31248     861.337E-03    -550.565E-03     458.569E-03    -228.069E-03    -230.500E-03    -227.522E-03     455.591E-03    -228.069E-03     90.4007E-03     134.087E+06     68.3108E+06    -3.65840E+06    -3.65606E+06     68.3085E+06     134.087E+06    -162.440E+03         79.0279
             137     14.3481E-03     68.4116E-03         1.39596         1.06588        -4.48402         1.38521        -4.47327         1.06588    -500.408E-03     458.473E-03    -228.073E-03    -230.400E-03    -227.409E-03     455.482E-03    -228.073E-03     90.5720E-03     133.714E+06     68.1416E+06    -4.06315E+06    -4.06161E+06     68.1401E+06     133.714E+06    -103.404E+03         79.1014
             138     14.3487E-03     69.9868E-03         1.39293         1.27608        -4.64949         1.37620        -4.64162         1.28494    -434.202E-03     458.791E-03    -228.053E-03    -230.738E-03    -227.688E-03     455.740E-03    -228.053E-03     91.5235E-03     134.212E+06     68.9385E+06    -3.58267E+06    -3.58108E+06     68.9369E+06     134.212E+06    -94.3452E+03         79.1787
             139     14.3484E-03     71.5652E-03         1.50716         1.37136        -4.81659         1.36588        -4.81110         1.50716    -365.320E-03     459.285E-03    -228.048E-03    -231.237E-03    -228.241E-03     456.289E-03    -228.048E-03     90.7721E-03     133.956E+06     68.7937E+06    -3.98356E+06    -3.98297E+06     68.7931E+06     133.956E+06     205.806E+03         79.2575
             140     14.3477E-03     73.1421E-03         1.72240         1.35399        -4.96830         1.35055        -4.96486         1.72240    -292.803E-03     458.824E-03    -228.082E-03    -230.742E-03    -227.746E-03     455.828E-03    -228.082E-03     90.6944E-03     133.889E+06     69.1601E+06    -3.77546E+06    -3.77478E+06     69.1594E+06     133.889E+06     219.792E+03         79.3358
             141     14.3483E-03     74.7173E-03         1.92238         1.32503        -5.08106         1.32316        -5.07918         1.92238    -213.252E-03     458.041E-03    -228.083E-03    -229.958E-03    -226.916E-03     455.000E-03    -228.083E-03     91.2867E-03     133.259E+06     69.5117E+06    -3.68290E+06    -3.67998E+06     69.5088E+06     133.259E+06    -170.304E+03         79.4159
             142     14.3490E-03     76.2912E-03         2.09790         1.28862        -5.14660         1.28788        -5.14585         2.09790    -134.889E-03     458.403E-03    -228.043E-03    -230.360E-03    -227.328E-03     455.371E-03    -228.043E-03     91.1966E-03     132.971E+06     69.6270E+06    -3.91661E+06    -3.91181E+06     69.6222E+06     132.971E+06    -593.868E+03         79.4986
             143     14.3485E-03     77.8693E-03         2.23919         1.24489        -5.16399         1.24466        -5.16376         2.23919    -63.5599E-03     459.762E-03    -228.026E-03    -231.736E-03    -228.732E-03     456.757E-03    -228.026E-03     90.9603E-03     133.839E+06     70.2404E+06    -3.54983E+06    -3.54368E+06     70.2343E+06     133.839E+06     81.3691E+03         79.5820
             144     14.3477E-03     79.4500E-03         2.33785         1.18876        -5.11665         1.18875        -5.11664         2.33785    -4.55535E-03     459.581E-03    -228.062E-03    -231.520E-03    -228.520E-03     456.582E-03    -228.062E-03     90.8612E-03     133.313E+06     70.1221E+06    -3.78653E+06    -3.77568E+06     70.1113E+06     133.313E+06     885.292E+03         79.6641
             145     14.3481E-03     81.0247E-03         2.38644         1.12523        -5.00144         1.12520        -5.00141         2.38644     24.5287E-03     458.450E-03    -228.089E-03    -230.361E-03    -227.310E-03     455.399E-03    -228.089E-03     91.4818E-03     132.217E+06     69.9141E+06    -4.15579E+06    -4.14786E+06     69.9062E+06     132.217E+06     329.114E+03         79.7455
             146     14.3483E-03     82.5990E-03         2.37931         1.05685        -4.82425         1.05680        -4.82420         2.37931     35.3838E-03     458.139E-03    -228.077E-03    -230.062E-03    -227.037E-03     455.114E-03    -228.077E-03     91.0429E-03     132.260E+06     70.3779E+06    -3.92413E+06    -3.92323E+06     70.3770E+06     132.260E+06    -160.851E+03         79.8284
             147     14.3486E-03     84.1754E-03         2.31450     983.981E-03        -4.58227     983.824E-03        -4.58211         2.31450     54.7026E-03     457.887E-03    -228.064E-03    -229.822E-03    -226.819E-03     454.884E-03    -228.064E-03     90.6881E-03     132.398E+06     70.6123E+06    -3.95220E+06    -3.94616E+06     70.6062E+06     132.398E+06    -453.997E+03         79.9147
             148     14.3488E-03     85.7488E-03         2.19281     905.650E-03        -4.26846     905.276E-03        -4.26809         2.19281     86.7435E-03     457.901E-03    -228.050E-03    -229.851E-03    -226.847E-03     454.897E-03    -228.050E-03     90.7059E-03     132.731E+06     71.2230E+06    -3.52751E+06    -3.52115E+06     71.2167E+06     132.731E+06    -587.640E+03         80.0072
             149     14.3485E-03     88.9009E-03         1.78769     717.029E-03        -3.42861     715.380E-03        -3.42696         1.78769     163.487E-03     459.470E-03    -228.023E-03    -231.447E-03    -228.514E-03     456.538E-03    -228.023E-03     89.8326E-03     132.465E+06     71.2088E+06    -3.78389E+06    -3.78144E+06     71.2064E+06     132.465E+06     210.196E+03         80.2063
             150     14.3481E-03     90.4827E-03         1.51378     611.078E-03        -2.91015     608.192E-03        -2.90726         1.51378     197.511E-03     459.729E-03    -228.042E-03    -231.686E-03    -228.657E-03     456.700E-03    -228.042E-03     91.3176E-03     132.206E+06     71.6533E+06    -3.45198E+06    -3.44916E+06     71.6505E+06     132.206E+06     435.286E+03         80.3022
             151     14.3481E-03     92.0610E-03         1.20026     503.094E-03        -2.34706     498.396E-03        -2.34237         1.20026     228.234E-03     458.726E-03    -228.068E-03    -230.657E-03    -227.529E-03     455.597E-03    -228.068E-03     92.6661E-03     131.389E+06     70.4599E+06    -4.03054E+06    -4.02647E+06     70.4558E+06     131.389E+06     503.569E+03         80.3943
             152     14.3491E-03     93.6334E-03     854.439E-03     393.685E-03        -1.75268     384.363E-03        -1.74335     854.439E-03     270.598E-03     457.956E-03    -228.071E-03    -229.885E-03    -226.804E-03     454.874E-03    -228.071E-03     91.8593E-03     131.717E+06     70.5666E+06    -3.80989E+06    -3.80633E+06     70.5631E+06     131.717E+06     403.046E+03         80.4888
             153     14.3482E-03     95.2075E-03     486.713E-03     288.096E-03        -1.13627     267.995E-03        -1.11617     486.713E-03     319.703E-03     458.319E-03    -228.055E-03    -230.264E-03    -227.258E-03     455.313E-03    -228.055E-03     90.7907E-03     131.593E+06     71.3142E+06    -4.02086E+06    -4.01811E+06     71.3115E+06     131.593E+06    -276.393E+03         80.5881
             154     14.3489E-03     96.7848E-03     246.785E-03     78.3350E-03    -541.926E-03     148.370E-03    -474.042E-03     108.866E-03     361.220E-03     458.798E-03    -228.036E-03    -230.762E-03    -227.737E-03     455.774E-03    -228.036E-03     91.1367E-03     131.692E+06     70.6007E+06    -3.80874E+06    -3.80381E+06     70.5958E+06     131.692E+06    -605.239E+03         80.6937
             155     14.3489E-03     98.3611E-03     375.927E-03    -88.8229E-03    -355.540E-03     27.1764E-03     171.404E-03    -267.016E-03     388.599E-03     459.233E-03    -228.028E-03    -231.205E-03    -228.217E-03     456.245E-03    -228.028E-03     90.6442E-03     132.441E+06     70.2767E+06      -3.486E+06    -3.48241E+06     70.2732E+06     132.441E+06    -61.3914E+03         80.8024
             156     14.3482E-03     99.9393E-03     862.879E-03    -147.114E-03    -628.599E-03    -99.0168E-03     814.782E-03    -628.599E-03     400.183E-03     459.052E-03    -228.048E-03    -231.005E-03    -228.023E-03     456.071E-03    -228.048E-03     90.5185E-03     132.330E+06     70.2361E+06    -3.74863E+06    -3.74545E+06     70.2329E+06     132.330E+06     483.839E+03         80.9104
             157     14.3489E-03     101.516E-03         1.46929    -254.230E-03    -965.023E-03    -228.797E-03         1.44385    -965.023E-03     404.934E-03     458.321E-03    -228.058E-03    -230.263E-03    -227.199E-03     455.257E-03    -228.058E-03     91.6516E-03     132.061E+06     70.7052E+06    -4.06256E+06    -4.06074E+06     70.7033E+06     132.061E+06     267.052E+03         81.0199
             158     14.3489E-03     103.090E-03         2.05527    -371.283E-03        -1.26835    -353.364E-03         2.03735        -1.26835     412.809E-03     458.169E-03    -228.057E-03    -230.112E-03    -227.083E-03     455.140E-03    -228.057E-03     91.1042E-03     132.768E+06     71.9693E+06    -3.81637E+06    -3.81612E+06     71.9691E+06     132.768E+06    -90.7308E+03         81.1326
             159     14.3485E-03     104.666E-03         2.59601    -488.964E-03        -1.53204    -473.730E-03         2.58078        -1.53204     430.735E-03     458.387E-03    -228.056E-03    -230.332E-03    -227.319E-03     455.375E-03    -228.056E-03     90.8970E-03     132.509E+06     71.2750E+06    -3.71846E+06    -3.71813E+06     71.2747E+06     132.509E+06    -150.053E+03         81.2479
             160     14.3491E-03     106.242E-03         3.08275    -601.403E-03        -1.74995    -587.125E-03         3.06847        -1.74995     457.600E-03     458.965E-03    -228.039E-03    -230.926E-03    -227.872E-03     455.911E-03    -228.039E-03     91.5914E-03     132.968E+06     70.5951E+06    -3.65437E+06    -3.65318E+06     70.5939E+06     132.968E+06     152.523E+03         81.3667
             161     14.3487E-03     107.821E-03         3.51169    -708.391E-03        -1.91787    -694.247E-03         3.49755        -1.91787     487.362E-03     459.216E-03    -228.033E-03    -231.183E-03    -228.158E-03     456.190E-03    -228.033E-03     91.2042E-03     134.060E+06     71.1463E+06    -3.35065E+06    -3.34430E+06     71.1400E+06     134.060E+06     646.213E+03         81.4876
             162     14.3491E-03     109.396E-03         3.87706    -813.754E-03        -2.03326    -799.691E-03         3.86300        -2.03326     512.866E-03     458.660E-03    -228.038E-03    -230.622E-03    -227.601E-03     455.639E-03    -228.038E-03     91.0647E-03     134.462E+06     72.7079E+06    -4.08577E+06    -4.07839E+06     72.7005E+06     134.462E+06     733.429E+03         81.6112
             163     14.3494E-03     110.972E-03         4.18683    -916.004E-03        -2.09426    -901.661E-03         4.17249        -2.09426     540.210E-03     458.747E-03    -228.034E-03    -230.714E-03    -227.678E-03     455.711E-03    -228.034E-03     91.3011E-03     136.713E+06     77.2919E+06    -3.52942E+06    -3.50845E+06     77.2709E+06     136.713E+06     1.17411E+06         81.7366
             164     14.3488E-03     112.551E-03         4.43934        -1.01219        -2.10227    -997.418E-03         4.42457        -2.10227     566.849E-03     458.437E-03    -228.046E-03    -230.392E-03    -227.362E-03     455.408E-03    -228.046E-03     91.1610E-03     137.612E+06     81.2384E+06    -3.99789E+06    -3.97853E+06     81.2190E+06     137.612E+06     1.03577E+06         81.8604
             165     14.3495E-03     114.124E-03         4.62309        -1.09969        -2.06277        -1.08501         4.60841        -2.06277     578.694E-03     457.546E-03    -228.056E-03    -229.490E-03    -226.435E-03     454.491E-03    -228.056E-03     91.4236E-03     138.044E+06     82.4928E+06    -4.15725E+06    -4.15669E+06     82.4922E+06     138.044E+06     187.937E+03         81.9866
             166     14.3498E-03     115.698E-03         4.74305        -1.17615        -1.98243        -1.16253         4.72943        -1.98243     566.970E-03     457.782E-03    -228.024E-03    -229.758E-03    -226.726E-03     454.750E-03    -228.024E-03     91.1082E-03     139.264E+06     82.9538E+06    -3.91421E+06    -3.91360E+06     82.9532E+06     139.264E+06    -125.349E+03         82.1199
             167     14.3502E-03     117.274E-03         4.80743        -1.24204        -1.86863        -1.23028         4.79567        -1.86863     531.852E-03     458.024E-03    -227.981E-03    -230.043E-03    -227.033E-03     455.014E-03    -227.981E-03     90.8147E-03     140.094E+06     83.5140E+06    -4.14474E+06    -4.14345E+06     83.5127E+06     140.094E+06    -335.728E+03         82.2617
             168     14.3512E-03     118.848E-03         4.81989        -1.29648        -1.72936        -1.28699         4.81040        -1.72936     480.772E-03     458.644E-03    -227.935E-03    -230.710E-03    -227.650E-03     455.584E-03    -227.935E-03     91.6557E-03     141.803E+06     85.6237E+06    -3.80629E+06    -3.80547E+06     85.6229E+06     141.803E+06    -102.246E+03         82.4113
             169     14.3509E-03     120.428E-03         4.79003        -1.33912        -1.57169        -1.33121         4.78212        -1.57169     439.712E-03     459.556E-03    -227.919E-03    -231.637E-03    -228.604E-03     456.523E-03    -227.919E-03     91.3711E-03     143.965E+06     89.0745E+06    -3.46634E+06    -3.45346E+06     89.0616E+06     143.965E+06     845.559E+03         82.5603
             170     14.3503E-03     122.007E-03         4.72801        -1.33676        -1.43853        -1.36531         4.72097        -1.40294     414.197E-03     458.109E-03    -227.957E-03    -230.152E-03    -227.184E-03     455.141E-03    -227.957E-03     90.1974E-03     144.251E+06     91.3529E+06    -4.43902E+06    -4.42623E+06     91.3401E+06     144.251E+06     812.795E+03         82.7090
             171     14.3519E-03     123.574E-03         4.64589        -1.23228        -1.39898        -1.39261         4.63952        -1.23228     391.981E-03     456.808E-03    -227.941E-03    -228.867E-03    -225.889E-03     453.830E-03    -227.941E-03     90.1842E-03     145.529E+06     93.8397E+06    -4.17385E+06    -4.17270E+06     93.8385E+06     145.529E+06     274.584E+03         82.8683
             172     14.3524E-03     125.152E-03         4.54959        -1.06884        -1.41803        -1.41227         4.54383        -1.06884     370.815E-03     458.361E-03    -227.854E-03    -230.508E-03    -227.449E-03     455.303E-03    -227.854E-03     91.5914E-03     148.012E+06     96.8833E+06    -4.01559E+06    -4.01361E+06     96.8813E+06     148.012E+06     444.758E+03         83.0333
             173     14.3528E-03     126.734E-03         4.44573    -920.873E-03        -1.42789        -1.42251         4.44035    -920.873E-03     355.183E-03     459.153E-03    -227.806E-03    -231.347E-03    -228.252E-03     456.058E-03    -227.806E-03     92.2457E-03     149.835E+06     100.213E+06    -4.11440E+06    -4.10157E+06     100.200E+06     149.835E+06     1.00243E+06         83.1951
             174     14.3533E-03     128.306E-03         4.34495    -796.638E-03        -1.42907        -1.42375         4.33963    -796.638E-03     350.261E-03     458.083E-03    -227.790E-03    -230.294E-03    -227.198E-03     454.988E-03    -227.790E-03     92.1120E-03     151.575E+06     105.320E+06    -4.22131E+06    -4.15744E+06     105.256E+06     151.575E+06     2.51323E+06         83.3620
             175     14.3547E-03     129.882E-03         4.25119    -702.650E-03        -1.42577        -1.41993         4.24535    -702.650E-03     363.669E-03     457.538E-03    -227.738E-03    -229.801E-03    -226.660E-03     454.397E-03    -227.738E-03     92.7151E-03     154.110E+06     112.914E+06    -5.00715E+06    -4.94106E+06     112.848E+06     154.110E+06     2.65008E+06         83.5367
             176     14.3555E-03     131.457E-03         4.17125    -641.325E-03        -1.41866        -1.41170         4.16429    -641.325E-03     393.475E-03     457.360E-03    -227.655E-03    -229.704E-03    -226.563E-03     454.219E-03    -227.655E-03     92.6940E-03     157.082E+06     120.255E+06    -4.38708E+06    -4.36721E+06     120.235E+06     157.082E+06     1.53059E+06         83.7137
             177     14.3575E-03     133.029E-03         4.11621    -612.432E-03        -1.40809        -1.39988         4.10800    -612.432E-03     425.273E-03     456.923E-03    -227.545E-03    -229.378E-03    -226.263E-03     453.807E-03    -227.545E-03     92.2692E-03     158.644E+06     125.142E+06    -4.59924E+06    -4.58654E+06     125.130E+06     158.644E+06     1.28207E+06         83.8993
             178     14.3594E-03     134.604E-03         4.08626    -615.726E-03        -1.39685        -1.38802         4.07744    -615.726E-03     439.612E-03     456.938E-03    -227.408E-03    -229.530E-03    -226.363E-03     453.772E-03    -227.408E-03     93.0287E-03     161.251E+06     130.572E+06    -4.73948E+06    -4.72774E+06     130.560E+06     161.251E+06     1.25215E+06         84.0924
             179     14.3615E-03     136.179E-03         4.08242    -650.185E-03        -1.38482        -1.37596         4.07356    -650.185E-03     439.861E-03     456.345E-03    -227.244E-03    -229.101E-03    -225.900E-03     453.144E-03    -227.244E-03     93.4640E-03     163.303E+06     135.210E+06    -4.31958E+06    -4.30983E+06     135.200E+06     163.303E+06     1.16611E+06         84.2852
             180     14.3657E-03     137.748E-03         4.10264    -713.559E-03        -1.36945        -1.36144         4.09464    -713.559E-03     417.840E-03     454.657E-03    -227.006E-03    -227.652E-03    -224.405E-03     451.411E-03    -227.006E-03     93.8992E-03     164.497E+06     139.208E+06    -4.58342E+06    -4.56653E+06     139.191E+06     164.497E+06     1.52843E+06         84.4849
             181     14.3711E-03     139.317E-03         4.13696    -803.084E-03        -1.35190        -1.34553         4.13059    -803.084E-03     372.755E-03     454.125E-03    -226.657E-03    -227.468E-03    -224.155E-03     450.812E-03    -226.657E-03     94.8081E-03     167.110E+06     144.299E+06    -5.44318E+06    -5.43051E+06     144.286E+06     167.110E+06     1.18487E+06         84.7159
             182     14.3765E-03     140.887E-03         4.18284    -914.278E-03        -1.33106        -1.32661         4.17839    -914.278E-03     311.223E-03     454.434E-03    -226.255E-03    -228.179E-03    -224.875E-03     451.130E-03    -226.255E-03     94.7588E-03     169.453E+06     148.664E+06    -4.44669E+06    -4.43661E+06     148.654E+06     169.453E+06     1.09484E+06         84.9980
             183     14.3820E-03     142.459E-03         4.24050        -1.04026        -1.30725        -1.30445         4.23770        -1.04026     247.435E-03     453.637E-03    -225.877E-03    -227.759E-03    -224.479E-03     450.357E-03    -225.877E-03     94.3216E-03     170.699E+06     153.242E+06    -4.85124E+06    -4.83714E+06     153.228E+06     170.699E+06     1.47153E+06         85.3392
             184     14.3875E-03     144.025E-03         4.30544        -1.17329        -1.28404        -1.28240         4.30380        -1.17329     189.202E-03     453.716E-03    -225.508E-03    -228.208E-03    -224.904E-03     450.412E-03    -225.508E-03     94.7010E-03     173.849E+06     158.560E+06    -4.69684E+06    -4.68912E+06     158.552E+06     173.849E+06     1.11219E+06         85.7487
             185     14.3917E-03     145.598E-03         4.37603        -1.24685        -1.32261        -1.26211         4.37513        -1.30645     140.933E-03     454.860E-03    -225.152E-03    -229.708E-03    -226.468E-03     451.620E-03    -225.152E-03     93.9546E-03     176.274E+06     160.890E+06    -5.00999E+06    -5.00156E+06     160.882E+06     176.274E+06     1.16733E+06         86.2344
             186     14.3960E-03     147.169E-03         4.44837        -1.24322        -1.43300        -1.24263         4.44778        -1.43300     115.841E-03     455.310E-03    -224.847E-03    -230.463E-03    -227.275E-03     452.122E-03    -224.847E-03     93.2927E-03     177.674E+06     160.862E+06    -5.23940E+06    -5.23373E+06     160.856E+06     177.674E+06     593.647E+03         86.8030
             187     14.3997E-03     148.741E-03         4.51455        -1.22663        -1.54711        -1.22607         4.51399        -1.54711     113.045E-03     456.960E-03    -224.571E-03    -232.389E-03    -229.208E-03     453.779E-03    -224.571E-03     93.4364E-03     180.773E+06     159.948E+06    -5.42927E+06    -5.41987E+06     159.938E+06     180.773E+06    -966.835E+03         87.4595
             188     14.4017E-03     150.321E-03         4.56590        -1.21167        -1.64490        -1.21097         4.56520        -1.64490     126.960E-03     459.218E-03    -224.345E-03    -234.873E-03    -231.732E-03     456.077E-03    -224.345E-03     93.1626E-03     181.911E+06     153.105E+06    -5.62431E+06    -5.59674E+06     153.077E+06     181.911E+06    -2.05483E+06         88.2195
             189     14.4041E-03     151.900E-03         4.58623        -1.19294        -1.72219        -1.19191         4.58520        -1.72219     153.549E-03     461.514E-03    -224.156E-03    -237.358E-03    -234.177E-03     458.332E-03    -224.156E-03     94.0915E-03     183.042E+06     145.332E+06    -4.50239E+06    -4.48360E+06     145.313E+06     183.042E+06    -1.37354E+06         89.1078
             190     14.4057E-03     153.484E-03         4.56783        -1.17130        -1.77361        -1.16989         4.56642        -1.77361     179.465E-03     465.457E-03    -223.990E-03    -241.467E-03    -238.290E-03     462.280E-03    -223.990E-03     94.5640E-03     192.171E+06     143.264E+06    -5.83813E+06    -5.83203E+06     143.258E+06     192.171E+06    -844.008E+03         90.1642
             191     14.4066E-03     155.080E-03         4.51227        -1.14564        -1.79483        -1.14424         4.51086        -1.79483     178.173E-03     470.580E-03    -223.837E-03    -246.743E-03    -243.473E-03     467.310E-03    -223.837E-03     96.6254E-03     201.587E+06     139.543E+06    -5.46518E+06    -5.45920E+06     139.537E+06     201.587E+06     -813.37E+03         91.4052
             192     14.4078E-03     156.682E-03         4.41491        -1.11738        -1.78286        -1.11651         4.41403        -1.78286     136.207E-03     476.968E-03    -223.614E-03    -253.354E-03    -249.994E-03     473.608E-03    -223.614E-03     98.8330E-03     195.913E+06     127.650E+06    -7.27980E+06    -7.07104E+06     127.441E+06     195.913E+06    -3.84010E+06         92.7672
             193     14.4076E-03     158.292E-03         4.27563        -1.08750        -1.73557        -1.08725         4.27537        -1.73557     59.5493E-03     484.320E-03    -223.370E-03    -260.950E-03    -257.685E-03     481.055E-03    -223.370E-03     98.4382E-03     187.993E+06     114.924E+06    -3.84107E+06    -3.60281E+06     114.686E+06     187.993E+06    -2.40644E+06         94.1648
             194     14.4080E-03     159.918E-03         4.09819        -1.04766        -1.65401        -1.04751         4.09804        -1.65401    -30.7662E-03     490.894E-03    -223.195E-03    -267.699E-03    -264.454E-03     487.649E-03    -223.195E-03     99.0226E-03     183.396E+06     105.851E+06    -7.29321E+06    -7.03192E+06     105.590E+06     183.396E+06    -2.43171E+06         95.5109
             195     14.4074E-03     161.554E-03         3.86866    -995.392E-03        -1.54307    -994.883E-03         3.86815        -1.54307    -96.5583E-03     496.007E-03    -223.084E-03    -272.923E-03    -269.630E-03     492.714E-03    -223.084E-03     100.417E-03     182.982E+06     94.1439E+06    -4.86972E+06    -4.63209E+06     93.9063E+06     182.982E+06    -4.19611E+06         96.7113
             196     14.4082E-03     163.192E-03         3.57960    -927.627E-03        -1.40863    -927.093E-03         3.57907        -1.40863    -96.6526E-03     500.911E-03    -222.967E-03    -277.943E-03    -274.650E-03     497.618E-03    -222.967E-03     101.072E-03     175.387E+06     73.4636E+06    -7.18349E+06    -6.03786E+06     72.3180E+06     175.387E+06    -7.23600E+06         97.6688
             197     14.4068E-03     164.843E-03         3.23536    -837.364E-03        -1.25750    -837.190E-03         3.23518        -1.25750    -30.2997E-03     504.358E-03    -222.861E-03    -281.497E-03    -278.275E-03     501.136E-03    -222.861E-03     100.432E-03     165.986E+06     50.8346E+06    -3.35487E+06    -1.32951E+06     48.8092E+06     165.986E+06    -3.43716E+06         98.2853
             198     14.4087E-03     166.492E-03         2.83014    -730.579E-03        -1.09878    -729.951E-03         2.82951        -1.09878     71.3892E-03     504.090E-03    -222.837E-03    -281.253E-03    -278.162E-03     500.999E-03    -222.837E-03     98.3401E-03     160.852E+06     38.1718E+06    -7.85605E+06    -6.42912E+06     36.7448E+06     160.852E+06     -877.92E+03         98.4586
             199     14.4078E-03     168.134E-03         2.36720    -608.896E-03    -941.407E-03    -606.608E-03         2.36491    -941.407E-03     158.078E-03     498.557E-03    -222.932E-03    -275.624E-03    -272.851E-03     495.784E-03    -222.932E-03     92.4335E-03     167.688E+06     38.3171E+06    -3.48371E+06    -1.20313E+06     36.0365E+06     167.688E+06     -634.56E+03         97.9243
             200     14.4113E-03     169.763E-03         1.85372    -459.083E-03    -793.426E-03    -455.595E-03         1.85023    -793.426E-03     178.629E-03     484.952E-03    -223.186E-03    -261.767E-03    -259.587E-03     482.773E-03    -223.186E-03     80.3796E-03     174.796E+06     40.1798E+06    -5.78670E+06    -3.33049E+06     37.7236E+06     174.796E+06    -1.55399E+06         96.2355
             201     14.4116E-03     171.350E-03         1.28630    -279.707E-03    -661.713E-03    -277.081E-03         1.28367    -661.713E-03     127.816E-03     464.790E-03    -223.530E-03    -241.260E-03    -239.692E-03     463.221E-03    -223.530E-03     66.3196E-03     178.373E+06     48.7733E+06    -1.20527E+06     3.22477E+06     44.3432E+06     178.373E+06     765.802E+03         92.7429
             202     14.4165E-03     172.925E-03     684.440E-03    -78.6901E-03    -550.020E-03    -76.9374E-03     682.688E-03    -550.020E-03     69.2607E-03     394.932E-03    -166.559E-03    -228.373E-03    -169.014E-03     394.238E-03    -225.224E-03     23.7022E-03     140.148E+06     56.4146E+06    -5.07461E+06     418.834E+03     50.9212E+06     140.148E+06    -3.25551E+06         87.4169
             203     13.4335E-03     174.198E-03     396.069E-03     30.8941E-03    -523.165E-03     33.7341E-03     393.229E-03    -523.165E-03    -11.7608E-03     338.539E-03    -108.532E-03    -230.007E-03    -106.779E-03     336.785E-03    -230.007E-03    -45.1591E-03     90.8313E+06     19.4417E+06    -53.0968E+06    -28.3038E+06    -5.35127E+06     90.8313E+06    -13.9488E+06         77.9225
             204     12.5103E-03     173.965E-03     442.129E-03     19.9396E-03    -574.477E-03     22.1132E-03     439.955E-03    -574.477E-03    -21.3930E-03     344.682E-03    -108.279E-03    -236.403E-03    -101.588E-03     337.991E-03    -236.403E-03    -105.783E-03     111.409E+06     4.32775E+06    -34.1664E+06    -10.2778E+06    -19.5609E+06     111.409E+06    -8.27819E+06         66.6278
             205     11.6226E-03     173.705E-03     490.551E-03    -6.21270E-03    -631.324E-03    -5.67450E-03     490.013E-03    -631.324E-03    -287.686E-06     356.909E-03    -114.397E-03    -242.512E-03    -101.310E-03     343.822E-03    -242.512E-03    -153.959E-03     130.565E+06     11.4453E+06    -11.0494E+06    -3.62889E+06     4.02479E+06     130.565E+06    -6.56399E+06         59.6472
             206     10.7569E-03     173.443E-03     542.000E-03    -53.2850E-03    -690.291E-03    -52.9507E-03     541.666E-03    -690.291E-03    -6.40367E-03     375.269E-03    -127.028E-03    -248.241E-03    -108.402E-03     356.643E-03    -248.241E-03    -189.598E-03     132.242E+06     5.72562E+06    -8.91456E+06     2.19460E+06    -5.38355E+06     132.242E+06    -6.17245E+06         56.8490
             207     9.91870E-03     173.180E-03     598.929E-03    -120.650E-03    -749.037E-03    -120.431E-03     598.710E-03    -749.037E-03    -4.77997E-03     396.821E-03    -143.340E-03    -253.481E-03    -120.554E-03     374.035E-03    -253.481E-03    -217.111E-03     133.462E+06     8.77827E+06    -6.13345E+06     5.46482E+06    -2.82000E+06     133.462E+06    -6.04029E+06         56.2287
             208     9.09380E-03     172.940E-03     658.104E-03    -198.389E-03    -805.990E-03    -198.187E-03     657.902E-03    -805.990E-03    -25.4466E-03     420.935E-03    -162.839E-03    -258.096E-03    -137.178E-03     395.275E-03    -258.096E-03    -239.345E-03     131.551E+06     9.69099E+06    -10.0910E+06     3.79840E+06    -4.19839E+06     131.551E+06    -8.61484E+06         56.5547
             209     8.29090E-03     172.705E-03     728.768E-03    -294.431E-03    -859.982E-03    -294.054E-03     728.391E-03    -859.982E-03    -37.0769E-03     444.143E-03    -182.203E-03    -261.940E-03    -155.168E-03     417.108E-03    -261.940E-03    -254.559E-03     128.960E+06     12.1149E+06    -12.7328E+06     4.18094E+06    -4.79883E+06     128.960E+06    -11.3990E+06         57.2533
             210     7.50090E-03     172.490E-03     799.022E-03    -399.620E-03    -910.177E-03    -398.901E-03     798.302E-03    -910.177E-03    -58.7037E-03     465.178E-03    -200.146E-03    -265.032E-03    -173.183E-03     438.215E-03    -265.032E-03    -262.331E-03     124.710E+06     14.4377E+06    -16.3802E+06     6.62195E+06    -8.56446E+06     124.710E+06    -13.4067E+06         58.0644
             211     6.72628E-03     172.294E-03     864.013E-03    -506.283E-03    -956.445E-03    -504.572E-03     862.302E-03    -956.445E-03    -93.7867E-03     484.805E-03    -217.391E-03    -267.413E-03    -192.066E-03     459.479E-03    -267.413E-03    -261.645E-03     122.237E+06     19.4096E+06    -14.6228E+06     10.2778E+06    -5.49109E+06     122.237E+06    -15.0743E+06         58.8655
             212     5.96329E-03     172.123E-03     927.393E-03    -619.696E-03    -998.098E-03    -617.784E-03     925.481E-03    -998.098E-03    -106.095E-03     500.641E-03    -231.566E-03    -269.075E-03    -209.508E-03     478.583E-03    -269.075E-03    -249.947E-03     116.147E+06     21.2548E+06    -13.8272E+06     12.5345E+06    -5.10687E+06     116.147E+06    -15.1175E+06         59.5850
             213     5.20705E-03     171.955E-03     982.789E-03    -732.042E-03        -1.03425    -729.886E-03     980.633E-03        -1.03425    -118.924E-03     512.667E-03    -242.492E-03    -270.176E-03    -223.986E-03     494.161E-03    -270.176E-03    -233.205E-03     106.745E+06     23.8229E+06    -14.9947E+06     15.5175E+06    -6.68920E+06     106.745E+06    -15.9155E+06         60.1934
             214     4.45664E-03     171.829E-03         1.03210    -829.947E-03        -1.06556    -827.327E-03         1.02948        -1.06556    -138.714E-03     523.410E-03    -252.561E-03    -270.849E-03    -237.798E-03     508.647E-03    -270.849E-03    -211.323E-03     99.2466E+06     29.6524E+06    -13.9121E+06     20.3524E+06    -4.61208E+06     99.2466E+06    -17.8482E+06         60.6898
             215     3.71167E-03     171.710E-03         1.08178    -922.175E-03        -1.09255    -920.500E-03         1.08011        -1.09255    -114.420E-03     531.337E-03    -260.293E-03    -271.044E-03    -249.399E-03     520.443E-03    -271.044E-03    -183.792E-03     90.3518E+06     35.7534E+06    -14.5355E+06     26.4451E+06    -5.22714E+06     90.3518E+06    -19.4248E+06         61.0692
             216     2.96738E-03     171.623E-03         1.12245        -1.00309        -1.11495        -1.00215         1.12151        -1.11495    -88.1550E-03     535.472E-03    -264.583E-03    -270.889E-03    -257.145E-03     528.034E-03    -270.889E-03    -152.459E-03     78.9481E+06     41.0177E+06    -13.9506E+06     33.3143E+06    -6.24718E+06     78.9481E+06    -19.0419E+06         61.3283
             217     2.22514E-03     171.543E-03         1.15941        -1.06280        -1.13397        -1.06121         1.15782        -1.13397    -113.491E-03     537.132E-03    -266.358E-03    -270.774E-03    -261.882E-03     532.656E-03    -270.774E-03    -118.411E-03     68.8920E+06     44.3626E+06    -17.5142E+06     38.5311E+06    -11.6826E+06     68.8920E+06    -17.8391E+06         61.4853
             218     1.48039E-03     171.493E-03         1.19262        -1.11953        -1.14823        -1.11841         1.19126        -1.14799    -54.2584E-03     538.611E-03    -267.539E-03    -271.072E-03    -265.245E-03     536.317E-03    -271.072E-03    -83.9262E-03     59.2072E+06     46.3626E+06    -15.8310E+06     42.8037E+06    -12.2722E+06     59.2072E+06    -14.3378E+06         61.5750
             219     734.916E-06     171.453E-03         1.20832        -1.13049        -1.17251        -1.17231         1.20812        -1.13049    -1.10211E-03     541.716E-03    -269.863E-03    -271.853E-03    -269.576E-03     540.878E-03    -271.302E-03    -49.3037E-03     51.0197E+06     48.0303E+06    -19.7575E+06     46.2798E+06    -18.0033E+06     51.0161E+06    -10.3156E+06         61.6250
             220    -1.89144E-06     169.712E-03         1.45109        -1.10549        -1.16757        -1.14718         1.45099        -1.12578    -27.4496E-03     492.918E-03    -245.992E-03    -246.926E-03    -246.752E-03     492.744E-03    -245.992E-03    -20.1130E-03    -9.53599E+06    -20.6475E+06    -62.9189E+06    -20.8988E+06    -51.5561E+06    -20.6475E+06    -10.2948E+06         59.5757
             221     2.67586E-06     168.162E-03         1.99425        -1.12590        -1.16152        -1.14081         1.99382        -1.14619     49.0702E-03     418.667E-03    -209.025E-03    -209.641E-03    -209.630E-03     418.656E-03    -209.025E-03    -3.27182E-03    -105.831E+06    -152.558E+06    -155.353E+06    -151.749E+06    -109.434E+06    -152.558E+06    -10.2623E+06         55.4544
             222    -2.25840E-06     166.677E-03         2.59452        -1.22058        -1.25545        -1.25124         2.59031        -1.22058     232.993E-03     383.082E-03    -191.082E-03    -192.001E-03    -191.310E-03     383.078E-03    -191.768E-03     2.58070E-03    -172.604E+06    -272.558E+06    -273.908E+06    -272.805E+06    -173.707E+06    -272.558E+06    -10.3300E+06         52.1935
             223     1.12730E-06     165.229E-03         3.17417        -1.38679        -1.42558        -1.40079         3.16863        -1.40604     309.916E-03     365.948E-03    -182.570E-03    -183.378E-03    -182.676E-03     365.932E-03    -183.257E-03     5.71383E-03    -225.693E+06    -338.313E+06    -340.355E+06    -338.943E+06    -226.348E+06    -339.070E+06    -8.40030E+06         50.4108
             224    -972.238E-09     163.794E-03         3.73387        -1.55899        -1.58764        -1.56486         3.73035        -1.57825     273.250E-03     359.103E-03    -179.392E-03    -179.710E-03    -179.480E-03     359.069E-03    -179.589E-03     8.43933E-03    -237.086E+06    -288.216E+06    -297.956E+06    -286.031E+06    -248.255E+06    -288.973E+06     349.925E+03         49.6177
             225     553.493E-09     162.362E-03         4.25990        -1.71735        -1.73997        -1.73391         4.25384        -1.71735     374.453E-03     357.467E-03    -178.496E-03    -178.972E-03    -178.445E-03     357.417E-03    -178.972E-03     10.3528E-03    -190.055E+06    -195.394E+06    -236.932E+06    -193.379E+06    -236.103E+06    -192.898E+06     3.92374E+06         49.3657
             226    -1.08024E-06     160.936E-03         4.70245        -1.86735        -1.89758        -1.87209         4.69397        -1.88436     472.267E-03     356.226E-03    -177.943E-03    -178.283E-03    -177.966E-03     356.189E-03    -178.223E-03     8.63238E-03    -149.102E+06    -153.540E+06    -224.242E+06    -151.637E+06    -224.202E+06    -151.044E+06     1.64243E+06         49.3970
             227     1.13733E-06     159.512E-03         5.07390        -1.97283        -2.01075        -1.98750         5.06766        -1.98983     411.742E-03     355.489E-03    -177.391E-03    -178.099E-03    -178.063E-03     355.454E-03    -177.391E-03     8.38956E-03    -140.050E+06    -145.296E+06    -226.978E+06    -143.548E+06    -226.784E+06    -141.992E+06    -2.12339E+06         49.6373
             228    -86.8904E-09     158.085E-03         5.36540        -2.01356        -2.09808        -2.09537         5.36269        -2.01356     273.722E-03     359.335E-03    -179.047E-03    -180.287E-03    -180.238E-03     359.286E-03    -179.047E-03     10.2781E-03    -138.405E+06    -146.375E+06    -240.596E+06    -141.892E+06    -240.413E+06    -143.071E+06    -2.96806E+06         50.1175
             229     958.316E-09     156.647E-03         5.54913        -2.04636        -2.15442        -2.15083         5.54555        -2.04636    -110.606E-03     367.401E-03    -183.221E-03    -184.180E-03    -183.760E-03     367.348E-03    -183.588E-03     10.8667E-03    -142.496E+06    -151.396E+06    -252.328E+06    -146.768E+06    -252.290E+06    -147.162E+06    -1.53331E+06         50.8600
             230    -1.59566E-06     155.203E-03         5.69155        -2.00831        -2.23743        -2.19231         5.64643        -2.00831        -1.03400     380.525E-03    -190.003E-03    -190.522E-03    -189.954E-03     380.476E-03    -190.522E-03     10.4653E-03    -153.455E+06    -158.567E+06    -264.336E+06    -157.774E+06    -264.250E+06    -154.334E+06    -3.01536E+06         51.8155
             231     1.29876E-06     153.728E-03         5.87567        -1.87589        -2.43779        -2.23526         5.67314        -1.87589        -2.44583     396.104E-03    -197.752E-03    -198.351E-03    -198.167E-03     396.072E-03    -197.905E-03     8.65568E-03    -158.591E+06    -162.283E+06    -274.461E+06    -158.642E+06    -274.409E+06    -162.283E+06    -1.13655E+06         52.8645
             232    -632.665E-09     152.231E-03         6.21155        -1.75834        -2.85073        -2.21117         5.57199        -1.75834        -4.49815     407.994E-03    -203.753E-03    -204.242E-03    -204.223E-03     407.975E-03    -203.753E-03     6.54836E-03    -161.436E+06    -168.749E+06    -283.217E+06    -166.047E+06    -283.105E+06    -164.250E+06    -1.99295E+06         53.8705
             233     744.464E-09     150.726E-03         6.94125        -1.57593        -3.68948        -2.16952         5.42129        -1.57593        -7.34508     417.877E-03    -208.543E-03    -209.334E-03    -208.569E-03     417.860E-03    -209.291E-03     6.33679E-03    -166.331E+06    -175.945E+06    -296.541E+06    -170.938E+06    -296.433E+06    -171.446E+06    -2.60734E+06         54.7496
             234    -2.03141E-06     149.195E-03         8.07180        -1.31617        -5.00892        -2.12196         5.18484        -1.31617        -10.7811     427.509E-03    -213.344E-03    -214.165E-03    -213.404E-03     427.496E-03    -214.092E-03     5.29266E-03    -171.520E+06    -181.184E+06    -306.209E+06    -176.072E+06    -306.206E+06    -176.634E+06    -496.746E+03         55.4736
             235     2.19849E-06     147.662E-03         9.44253        -1.12734        -6.54561        -1.97506         4.87198        -1.12734        -14.4136     435.006E-03    -216.785E-03    -218.221E-03    -218.215E-03     435.000E-03    -216.785E-03     3.68218E-03    -173.240E+06    -183.152E+06    -309.014E+06    -177.792E+06    -309.011E+06    -178.602E+06    -524.238E+03         56.0327
             236    -70.3205E-09     146.109E-03         10.7836    -942.105E-03        -8.02097        -1.76864         4.53124    -942.105E-03        -17.7003     439.190E-03    -218.732E-03    -220.458E-03    -220.090E-03     439.186E-03    -219.095E-03     2.88798E-03    -170.190E+06    -180.453E+06    -309.143E+06    -175.091E+06    -309.142E+06    -175.553E+06    -185.650E+03         56.4356
             237    -456.747E-09     144.561E-03         11.7168    -707.423E-03        -9.14578        -1.57126         4.14227    -707.423E-03        -20.0585     441.658E-03    -220.608E-03    -221.050E-03    -220.608E-03     441.657E-03    -221.050E-03     1.24149E-03    -169.648E+06    -178.693E+06    -316.450E+06    -174.565E+06    -316.433E+06    -173.793E+06    -1.17952E+06         56.7224
             238     291.706E-09     143.006E-03         12.0899    -571.386E-03        -9.64452        -1.33426         3.77966    -571.386E-03        -21.1213     444.586E-03    -221.869E-03    -222.717E-03    -222.638E-03     444.586E-03    -221.947E-03     1.04955E-03    -167.848E+06    -174.933E+06    -318.867E+06    -170.814E+06     -318.84E+06    -171.993E+06    -301.668E+03         56.9398
             239     975.545E-09     141.438E-03         11.7385    -465.178E-03        -9.34667        -1.07368         3.46549    -465.178E-03        -20.5906     446.788E-03    -222.681E-03    -224.107E-03    -223.447E-03     446.785E-03    -223.338E-03     2.37965E-03    -168.124E+06    -172.575E+06    -319.565E+06    -171.097E+06    -319.531E+06    -169.636E+06    -522.365E+03         57.1119
             240    -2.04445E-06     139.882E-03         10.5346    -312.741E-03        -8.26255    -866.648E-03         3.13870    -312.741E-03        -18.3654     448.176E-03    -223.582E-03    -224.594E-03    -223.933E-03     448.172E-03    -224.239E-03     489.651E-06    -163.313E+06    -165.200E+06    -320.263E+06    -163.740E+06    -320.210E+06    -164.825E+06     147.287E+03         57.2458
             241     2.61247E-06     138.315E-03         8.67405    -221.376E-03        -6.47811    -687.073E-03         2.88301    -221.376E-03        -14.7213     449.616E-03    -224.127E-03    -225.490E-03    -225.487E-03     449.614E-03    -224.127E-03    -195.143E-06    -159.314E+06    -159.916E+06    -318.790E+06    -159.748E+06    -318.732E+06    -159.541E+06    -26.9006E+03         57.3520
             242    -1.00108E-06     136.748E-03         6.34918    -170.176E-03        -4.15604    -525.073E-03         2.71822    -170.176E-03        -9.96984     450.972E-03    -224.979E-03    -225.993E-03    -225.992E-03     450.971E-03    -224.979E-03     1.06375E-03    -158.193E+06    -158.679E+06    -317.408E+06    -158.261E+06    -317.340E+06    -158.679E+06     224.975E+03         57.4439
             243     1.01094E-06     135.174E-03         3.92129    -85.5716E-03        -1.80161    -449.111E-03         2.56879    -85.5716E-03        -4.58211     452.251E-03    -226.014E-03    -226.238E-03    -226.018E-03     452.249E-03    -226.232E-03     1.40496E-03    -155.020E+06    -155.674E+06    -313.549E+06    -155.473E+06    -313.491E+06    -155.279E+06     525.373E+03         57.5222
             244    -1.35437E-06     133.607E-03         3.08505    -42.0979E-03    -978.228E-03    -418.086E-03         2.52491    -42.0979E-03     915.897E-03     453.722E-03    -226.709E-03    -227.013E-03    -226.791E-03     453.719E-03    -226.928E-03     291.466E-06    -155.344E+06    -156.378E+06    -311.863E+06    -156.436E+06    -311.804E+06    -155.344E+06     507.113E+03         57.5763
             245     1.49385E-06     132.032E-03         4.48755    -75.1280E-03        -2.33844    -409.894E-03         2.55900    -75.1280E-03         6.05011     453.191E-03    -226.426E-03    -226.766E-03    -226.764E-03     453.190E-03    -226.426E-03    -1.36234E-03    -150.639E+06    -153.227E+06    -306.200E+06    -151.318E+06    -306.160E+06    -152.588E+06     2.01717E+06         57.6105
             246    -1.10590E-06     130.460E-03         6.58228    -127.209E-03        -4.38876    -481.827E-03         2.67535    -127.209E-03         10.4972     452.498E-03    -225.992E-03    -226.506E-03    -226.247E-03     452.498E-03    -226.251E-03     996.260E-06    -143.327E+06    -148.292E+06    -297.746E+06    -146.344E+06    -297.745E+06    -145.276E+06     404.900E+03         57.6466
             247     727.090E-09     128.888E-03         8.35350    -226.756E-03        -6.06490    -603.433E-03         2.89203    -226.756E-03         13.9873     454.186E-03    -226.889E-03    -227.297E-03    -226.888E-03     454.185E-03    -227.297E-03     695.109E-06    -141.766E+06    -147.702E+06    -292.217E+06    -144.783E+06    -292.215E+06    -144.687E+06     510.190E+03         57.6899
             248    -994.493E-09     127.316E-03         9.58799    -411.823E-03        -7.14395    -742.350E-03         3.18639    -411.823E-03         16.2641     455.165E-03    -227.383E-03    -227.782E-03    -227.633E-03     455.165E-03    -227.532E-03    -547.845E-06    -142.422E+06    -147.704E+06    -289.386E+06    -144.787E+06    -289.381E+06    -145.343E+06     793.908E+03         57.7247
             249     1.42044E-06     125.737E-03         10.1928    -619.384E-03        -7.59561    -929.093E-03         3.52633    -619.384E-03         17.2197     455.285E-03    -227.032E-03    -228.253E-03    -228.253E-03     455.285E-03    -227.032E-03    -168.365E-06    -139.201E+06    -144.447E+06    -284.945E+06    -141.572E+06    -284.935E+06    -142.086E+06     1.14818E+06         57.7458
             250     95.9942E-09     124.163E-03         10.2035    -855.068E-03        -7.41732        -1.14511         3.93127    -855.068E-03         16.8674     454.763E-03    -226.858E-03    -227.905E-03    -227.828E-03     454.763E-03    -226.934E-03    -243.918E-06    -136.184E+06    -142.272E+06    -279.209E+06    -139.396E+06    -279.200E+06    -139.069E+06     1.11121E+06         57.7593
             251    -181.804E-09     122.588E-03         9.67618        -1.18729        -6.63763        -1.34718         4.38573        -1.18729         15.2575     454.332E-03    -227.062E-03    -227.270E-03    -227.062E-03     454.332E-03    -227.270E-03    -27.4743E-06    -136.525E+06    -143.958E+06    -278.083E+06    -139.732E+06    -278.079E+06    -140.755E+06    -74.7408E+03         57.7668
             252    -70.7313E-09     121.014E-03         8.77656        -1.53234        -5.46338        -1.55314         4.86632        -1.53234         12.6721     455.607E-03    -227.627E-03    -227.980E-03    -227.848E-03     455.607E-03    -227.759E-03    -21.1280E-06    -135.456E+06    -143.263E+06    -276.130E+06    -139.064E+06    -276.099E+06    -139.687E+06     913.745E+03         57.7688
             253     463.438E-09     119.437E-03         7.78036        -1.86958        -4.17839        -1.75309         5.35505        -1.86958         9.53358     455.948E-03    -227.807E-03    -228.141E-03    -228.028E-03     455.948E-03    -227.920E-03    -740.553E-06    -133.151E+06    -139.141E+06    -269.167E+06    -136.756E+06    -269.139E+06    -135.565E+06     1.13915E+06         57.7681
             254    -668.895E-09     117.859E-03         6.96213        -2.27616        -3.05362        -1.89931         5.80782        -2.27616         6.23047     454.465E-03    -227.143E-03    -227.322E-03    -227.142E-03     454.464E-03    -227.322E-03    -314.959E-06    -134.536E+06    -139.869E+06    -266.074E+06    -137.486E+06    -266.043E+06    -136.951E+06     1.15434E+06         57.7722
             255     597.407E-09     116.287E-03         6.57841        -2.33801        -2.69579        -2.01026         6.21582        -2.66094         3.27294     454.013E-03    -226.785E-03    -227.228E-03    -226.785E-03     454.013E-03    -227.228E-03     561.781E-06    -135.440E+06    -141.537E+06    -263.419E+06    -138.400E+06    -263.377E+06    -138.618E+06     526.066E+03         57.7861
             256    -1.23074E-06     114.713E-03         6.59624        -2.14188        -2.99563        -2.08278         6.53714        -2.99563         1.23123     455.659E-03    -227.221E-03    -228.438E-03    -227.221E-03     455.659E-03    -228.438E-03     732.416E-06    -133.623E+06    -139.567E+06    -258.891E+06    -136.446E+06    -258.834E+06    -136.801E+06     790.987E+03         57.8046
             257    -73.0151E-09     113.135E-03         6.71738        -2.10045        -3.30326        -2.09660         6.71353        -3.30326     213.935E-03     457.605E-03    -227.881E-03    -229.724E-03    -228.884E-03     457.604E-03    -228.721E-03    -372.270E-06    -131.961E+06    -137.902E+06    -252.868E+06    -134.776E+06    -252.818E+06    -135.135E+06     1.13966E+06         57.8151
             258     1.63522E-06     111.553E-03         6.74973        -2.08256        -3.47226        -2.08060         6.74777        -3.47226     138.291E-03     455.576E-03    -227.189E-03    -228.387E-03    -228.192E-03     455.576E-03    -227.384E-03    -1.20722E-03    -131.146E+06    -137.054E+06    -249.247E+06    -133.892E+06    -249.235E+06    -134.321E+06     173.346E+03         57.8101
             259    -1.91505E-06     109.981E-03         6.67768        -2.07028        -3.51530        -2.03369         6.64110        -3.51530     954.410E-03     453.622E-03    -226.453E-03    -227.169E-03    -226.974E-03     453.621E-03    -226.648E-03     39.2935E-06    -133.454E+06    -137.010E+06    -249.257E+06    -136.200E+06    -249.244E+06    -134.277E+06     168.715E+03         57.7999
             260     2.74096E-06     108.409E-03         6.50619        -2.10895        -3.47270        -1.93974         6.33698        -3.47270         2.26563     455.653E-03    -227.420E-03    -228.232E-03    -227.942E-03     455.652E-03    -227.711E-03     860.020E-06    -133.233E+06    -134.250E+06    -245.909E+06    -133.454E+06    -245.882E+06    -134.055E+06     601.847E+03         57.7975
             261    -3.20075E-06     106.826E-03         6.21091        -2.19560        -3.23816        -1.81277         5.82809        -3.23816         3.45652     456.046E-03    -227.724E-03    -228.322E-03    -227.724E-03     456.046E-03    -228.322E-03     30.3080E-06    -133.706E+06    -134.338E+06    -244.051E+06    -134.369E+06    -244.019E+06    -133.706E+06     395.906E+03         57.8012
             262     2.71652E-06     105.253E-03         5.73331        -2.24111        -2.84738        -1.64692         5.13912        -2.84738         4.16346     455.248E-03    -226.598E-03    -228.650E-03    -228.343E-03     455.248E-03    -226.905E-03    -49.8715E-06    -133.037E+06    -134.764E+06    -241.174E+06    -133.501E+06    -241.147E+06    -134.328E+06     261.425E+03         57.8050
             263     52.5327E-09     103.676E-03         4.93299        -2.06316        -2.40317        -1.42515         4.29498        -2.40317         4.02807     454.898E-03    -226.267E-03    -228.631E-03    -228.012E-03     454.898E-03    -226.886E-03    -25.7168E-06    -131.803E+06    -133.833E+06    -238.105E+06    -132.582E+06    -238.065E+06    -133.094E+06    -92.7551E+03         57.8076
             264    -1.02920E-06     102.106E-03         3.76987        -1.59623        -1.86469        -1.17101         3.34465        -1.86469         2.88073     455.002E-03    -227.103E-03    -227.899E-03    -227.103E-03     455.002E-03    -227.899E-03    -785.891E-06    -134.012E+06    -135.161E+06    -239.849E+06    -134.779E+06    -239.822E+06    -134.422E+06    -539.286E+03         57.8105
             265     744.229E-09     100.524E-03         2.44537    -995.963E-03        -1.27303    -862.647E-03         2.31205        -1.27303         1.01544     455.975E-03    -227.608E-03    -228.367E-03    -228.190E-03     455.975E-03    -227.785E-03    -256.588E-06    -132.510E+06    -133.232E+06    -237.166E+06    -132.520E+06    -237.156E+06    -133.232E+06     1.01510E+06         57.8123
             266     181.294E-09     98.9487E-03         1.61428    -556.084E-03        -1.05579    -481.546E-03         1.18852    -704.572E-03        -1.25067     456.018E-03    -227.469E-03    -228.549E-03    -228.051E-03     456.018E-03    -227.967E-03     351.525E-06    -131.780E+06    -134.141E+06    -235.516E+06    -133.844E+06    -235.500E+06    -132.093E+06    -260.768E+03         57.8102
             267    -949.205E-09     97.3699E-03         1.86358    -121.766E-03        -1.90481    -71.4607E-03     30.2306E-03    -121.766E-03        -3.66747     454.849E-03    -226.689E-03    -228.160E-03    -226.689E-03     454.849E-03    -228.160E-03     61.7072E-06    -130.594E+06    -135.938E+06    -234.432E+06    -132.670E+06    -234.403E+06    -133.890E+06     211.637E+03         57.8061
             268    -634.792E-09     95.7968E-03         2.64456     476.994E-03        -3.40585     356.100E-03        -1.11739     476.994E-03        -5.84230     454.635E-03    -226.469E-03    -228.166E-03    -226.469E-03     454.635E-03    -228.166E-03     481.363E-06    -130.741E+06    -136.099E+06    -231.737E+06    -132.842E+06    -231.697E+06    -134.037E+06    -45.8304E+03         57.8060
             269    -492.819E-09     94.2215E-03         3.36418         1.00515        -4.81394     834.280E-03        -2.28404         1.00515        -7.54392     455.108E-03    -226.924E-03    -228.184E-03    -227.460E-03     455.107E-03    -227.647E-03    -440.048E-06    -133.721E+06    -138.219E+06    -232.648E+06    -135.812E+06    -232.619E+06    -136.157E+06    -406.332E+03         57.8113
             270     1.32372E-06     92.6446E-03         3.92179         1.50233        -6.01168         1.30818        -3.39807         1.50233        -8.73637     454.802E-03    -226.961E-03    -227.840E-03    -227.839E-03     454.801E-03    -226.961E-03    -253.303E-06    -132.817E+06    -138.995E+06    -231.753E+06    -136.567E+06    -231.745E+06    -135.252E+06     779.639E+03         57.8193
             271    -734.861E-09     91.0727E-03         4.23697         1.99790        -6.93166         1.73679        -4.43148         1.99790        -9.29566     455.839E-03    -227.282E-03    -228.557E-03    -228.556E-03     455.838E-03    -227.282E-03    -235.789E-06    -130.281E+06    -136.633E+06    -230.051E+06    -134.026E+06    -230.048E+06    -132.891E+06    -128.876E+03         57.8276
             272     2.19193E-06     89.4921E-03         4.36146         2.35550        -7.55595         2.16939        -5.36387         2.35550        -9.21273     457.377E-03    -227.804E-03    -229.573E-03    -229.572E-03     457.376E-03    -227.804E-03    -245.490E-06    -133.507E+06    -136.490E+06    -231.471E+06    -133.886E+06    -231.465E+06    -136.117E+06     100.748E+03         57.8333
             273    -856.283E-09     87.9107E-03         4.27862         2.60317        -7.85465         2.55373        -6.12976         2.60317        -8.44065     456.812E-03    -227.382E-03    -229.430E-03    -228.217E-03     456.811E-03    -228.594E-03     843.124E-06    -133.874E+06    -134.826E+06    -228.776E+06    -134.254E+06    -228.769E+06    -134.452E+06     770.152E+03         57.8335
             274     13.5504E-03     85.6148E-03         2.23626         1.00111        -4.41208         1.00076        -4.41173         2.23626     1.40734E-03     459.400E-03    -228.000E-03    -231.400E-03    -227.616E-03     455.616E-03    -228.000E-03     101.443E-03     115.956E+06     62.5092E+06    -7.62085E+06    -7.60782E+06     62.4961E+06     115.956E+06    -193.716E+03         78.6044
             275     12.7530E-03     85.4492E-03         2.32194         1.19326        -4.70005         1.18455        -4.69135         2.32194     281.203E-03     459.544E-03    -227.911E-03    -231.633E-03    -228.132E-03     456.044E-03    -227.911E-03     96.9756E-03     89.5331E+06     44.7297E+06    -14.8017E+06    -14.7880E+06     44.7160E+06     89.5331E+06     292.381E+03         75.2690
             276     11.9555E-03     85.3301E-03         2.40408         1.37532        -4.97282         1.36612        -4.96362         2.40408     230.733E-03     457.613E-03    -227.856E-03    -229.757E-03    -227.476E-03     455.332E-03    -227.856E-03     79.0060E-03     75.4766E+06     30.7593E+06    -21.0492E+06    -21.0420E+06     30.7521E+06     75.4766E+06     61.2722E+03         71.3075
             277     11.1568E-03     85.2214E-03         2.48198         1.55749        -5.23628         1.55014        -5.22893         2.48198    -398.386E-03     456.613E-03    -227.768E-03    -228.844E-03    -226.937E-03     454.779E-03    -227.842E-03     70.5844E-03     67.2003E+06     22.5894E+06    -27.3914E+06    -27.3854E+06     22.5834E+06     67.2003E+06    -2.21166E+03         67.5118
             278     10.3607E-03     85.1267E-03         2.55562         1.74699        -5.49851         1.73346        -5.48497         2.55562     11.8711E-03     455.756E-03    -227.578E-03    -228.178E-03    -226.562E-03     454.416E-03    -227.854E-03     60.2928E-03     58.9596E+06     17.9174E+06    -34.3592E+06    -34.3562E+06     17.9144E+06     58.9596E+06     122.233E+03         64.4072
             279     9.56178E-03     85.0440E-03         2.62436         1.92536        -5.74583         1.91143        -5.73190         2.62436    -15.7442E-03     455.712E-03    -227.621E-03    -228.091E-03    -226.842E-03     454.712E-03    -227.870E-03     52.1414E-03     50.2707E+06     13.8967E+06    -42.2092E+06    -42.2078E+06     13.8953E+06     50.2707E+06     96.3121E+03         62.1545
             280     8.76416E-03     84.9754E-03         2.68817         2.08156        -5.97024         2.07435        -5.96303         2.68817    -372.489E-03     456.167E-03    -227.690E-03    -228.477E-03    -227.598E-03     455.442E-03    -227.845E-03     44.3023E-03     41.5274E+06     8.60742E+06    -50.2780E+06    -50.2765E+06     8.60592E+06     41.5274E+06        -318.104         60.6510
             281     7.96976E-03     84.9199E-03         2.74711         2.23016        -6.18432         2.22996        -6.18412         2.74711    -2.55161E-03     455.345E-03    -227.123E-03    -228.222E-03    -227.027E-03     454.837E-03    -227.811E-03     37.0497E-03     32.4242E+06     1.98641E+06    -58.7767E+06    -58.7742E+06     1.98386E+06     32.4242E+06     16.8182E+03         59.6905
             282     7.17261E-03     84.8663E-03         2.80122         2.37209        -6.38571         2.36973        -6.38335         2.80122     237.762E-03     454.710E-03    -226.828E-03    -227.881E-03    -226.535E-03     454.359E-03    -227.824E-03     30.6453E-03     19.1789E+06    -14.2534E+06    -68.5131E+06    -68.5079E+06    -14.2586E+06     19.1789E+06      66.738E+03         59.0787
             283     6.37268E-03     84.8331E-03         2.85025         2.50543        -6.56892         2.50278        -6.56628         2.85025     128.610E-03     455.383E-03    -227.260E-03    -228.123E-03    -227.337E-03     455.156E-03    -227.819E-03     24.6836E-03     1.11301E+06    -44.5810E+06    -78.5290E+06    -78.5137E+06    -44.5962E+06     1.11301E+06     150.156E+03         58.6773
             284     5.57664E-03     84.8037E-03         2.89353         2.62746        -6.73181         2.62706        -6.73140         2.89353    -59.4483E-03     455.339E-03    -227.336E-03    -228.003E-03    -227.443E-03     455.200E-03    -227.756E-03     19.1608E-03    -18.9377E+06    -77.5196E+06    -89.3249E+06    -88.2677E+06    -78.5768E+06    -18.9377E+06     614.485E+03         58.4023
             285     4.78277E-03     84.7816E-03         2.93070         2.75746        -6.89742         2.73536        -6.87531         2.93070     665.032E-03     454.535E-03    -226.793E-03    -227.742E-03    -226.723E-03     454.465E-03    -227.742E-03     13.3945E-03    -40.1665E+06    -97.9443E+06    -113.404E+06    -98.3744E+06    -112.974E+06    -40.1665E+06     678.667E+03         58.2070
             286     3.98377E-03     84.7695E-03         2.96236         2.86806        -7.04090         2.82064        -6.99348         2.96236    -53.9888E-03     454.509E-03    -226.697E-03    -227.812E-03    -226.666E-03     454.478E-03    -227.812E-03     8.67553E-03    -61.5620E+06    -107.644E+06    -143.502E+06    -107.674E+06    -143.472E+06    -61.5620E+06     431.068E+03         58.0670
             287     3.18494E-03     84.7623E-03         2.98888         2.93062        -7.13629         2.89535        -7.10102         2.98888    -281.696E-03     455.256E-03    -227.384E-03    -227.872E-03    -227.400E-03     455.245E-03    -227.845E-03     5.18897E-03    -83.5643E+06    -116.449E+06    -167.689E+06    -116.466E+06    -167.673E+06    -83.5643E+06     135.295E+03         57.9681
             288     2.38980E-03     84.7600E-03         3.01161         2.96933        -7.19500         2.94710        -7.17276         3.01161    -42.9323E-03     455.771E-03    -227.714E-03    -228.057E-03    -228.039E-03     455.768E-03    -227.729E-03     2.87147E-03    -103.864E+06    -124.638E+06    -192.073E+06    -124.645E+06    -192.066E+06    -103.864E+06    -52.9295E+03         57.9006
             289     1.59378E-03     84.7593E-03         3.04994         3.00474        -7.26962         3.00980        -7.25138         3.02663    -382.237E-03     455.453E-03    -227.433E-03    -228.020E-03    -228.019E-03     455.452E-03    -227.433E-03     1.50320E-03    -119.997E+06    -130.313E+06    -210.100E+06    -130.322E+06    -210.091E+06    -119.997E+06     183.014E+03         57.8569
             290     797.916E-06     84.7601E-03         3.35134         2.95499        -7.51614         3.10683        -7.27163         2.95499        -2.07384     454.436E-03    -226.739E-03    -227.698E-03    -227.625E-03     454.436E-03    -226.811E-03     71.8418E-06    -131.393E+06    -135.862E+06    -224.766E+06    -134.817E+06    -224.717E+06    -132.487E+06     171.409E+03         57.8320
             291     13.5496E-03     84.0386E-03         2.35642         1.08144        -4.72568         1.08124        -4.72548         2.35642    -10.6077E-03     459.292E-03    -228.022E-03    -231.271E-03    -227.459E-03     455.481E-03    -228.022E-03     101.761E-03     115.893E+06     62.3296E+06    -7.59506E+06    -7.58494E+06     62.3195E+06     115.893E+06     16.7275E+03         78.5293
             292     12.7519E-03     83.8715E-03         2.43887         1.27789        -5.01308         1.26950        -5.00469         2.43887     290.344E-03     459.156E-03    -227.954E-03    -231.202E-03    -227.688E-03     455.643E-03    -227.954E-03     97.0126E-03     89.5931E+06     44.9653E+06    -14.5215E+06    -14.5143E+06     44.9581E+06     89.5931E+06     213.094E+03         75.2358
             293     11.9544E-03     83.7545E-03         2.51779         1.46471        -5.28633         1.45555        -5.27717         2.51779     217.148E-03     457.637E-03    -227.918E-03    -229.719E-03    -227.455E-03     455.373E-03    -227.918E-03     78.7200E-03     75.6299E+06     31.2154E+06    -20.9571E+06    -20.9525E+06     31.2108E+06     75.6299E+06    -94.7754E+03         71.3197
             294     11.1580E-03     83.6446E-03         2.59259         1.65076        -5.55130         1.64422        -5.54476         2.59259    -400.116E-03     457.369E-03    -227.883E-03    -229.486E-03    -227.658E-03     455.541E-03    -227.883E-03     70.5510E-03     67.5428E+06     22.9376E+06    -27.6350E+06    -27.6272E+06     22.9299E+06     67.5428E+06     3.97026E+03         67.5558
             295     10.3600E-03     83.5495E-03         2.66308         1.84067        -5.81255         1.82960        -5.80148         2.66308     2.78997E-03     456.549E-03    -227.667E-03    -228.882E-03    -227.394E-03     455.230E-03    -227.837E-03     59.8640E-03     59.1546E+06     17.9527E+06    -34.7591E+06    -34.7551E+06     17.9487E+06     59.1546E+06    -72.1342E+03         64.4624
             296     9.56272E-03     83.4716E-03         2.72896         2.01779        -6.05550         2.00665        -6.04436         2.72896    -14.4984E-03     455.675E-03    -227.496E-03    -228.179E-03    -226.893E-03     454.705E-03    -227.813E-03     51.3413E-03     50.4628E+06     14.1564E+06    -42.1468E+06    -42.1451E+06     14.1547E+06     50.4628E+06        -67.6641         62.2037
             297     8.76563E-03     83.3953E-03         2.79030         2.17552        -6.27806         2.16955        -6.27209         2.79030    -372.149E-03     455.320E-03    -227.091E-03    -228.228E-03    -226.786E-03     454.603E-03    -227.818E-03     44.0232E-03     41.6784E+06     8.76649E+06    -50.1850E+06    -50.1835E+06     8.76497E+06     41.6784E+06     51.8409E+03         60.6866
             298     7.96894E-03     83.3407E-03         2.84704         2.32436        -6.48956         2.32397        -6.48916         2.84704    -19.0221E-03     455.258E-03    -226.888E-03    -228.371E-03    -226.910E-03     454.733E-03    -227.824E-03     37.7277E-03     31.8001E+06     1.37600E+06    -59.3438E+06    -59.3412E+06     1.37338E+06     31.8001E+06     137.795E+03         59.7136
             299     7.17010E-03     83.2962E-03         2.89927         2.46586        -6.68697         2.46318        -6.68429         2.89927     263.764E-03     455.089E-03    -227.050E-03    -228.039E-03    -226.897E-03     454.721E-03    -227.824E-03     31.4256E-03     18.7890E+06    -13.6888E+06    -68.9271E+06    -68.9198E+06    -13.6961E+06     18.7890E+06     262.164E+03         59.0932
             300     6.37431E-03     83.2532E-03         2.94659         2.60327        -6.87146         2.59995        -6.86814         2.94659     94.4776E-03     455.220E-03    -227.084E-03    -228.136E-03    -227.192E-03     455.002E-03    -227.810E-03     24.1420E-03     961.948E+03    -44.4820E+06    -78.9142E+06    -78.9086E+06    -44.4876E+06     961.948E+03    -11.3903E+03         58.6866
             301     5.57915E-03     83.2255E-03         2.98824         2.72416        -7.03168         2.72279        -7.03030         2.98824    -27.9801E-03     455.122E-03    -227.103E-03    -228.019E-03    -227.223E-03     454.995E-03    -227.772E-03     18.4671E-03    -19.2265E+06    -78.3413E+06    -89.6347E+06    -88.6895E+06    -79.2865E+06    -19.2265E+06     179.168E+03         58.4083
             302     4.77921E-03     83.2075E-03         3.02436         2.84170        -7.18656         2.82677        -7.17162         3.02436     631.312E-03     454.748E-03    -226.988E-03    -227.761E-03    -226.913E-03     454.674E-03    -227.761E-03     13.9506E-03    -39.4520E+06     -97.277E+06    -112.861E+06    -97.8373E+06    -112.301E+06    -39.4520E+06     442.910E+03         58.2112
             303     3.98302E-03     83.1940E-03         3.05601         2.93753        -7.31585         2.90874        -7.28706         3.05601     4.18594E-03     454.919E-03    -227.147E-03    -227.772E-03    -227.116E-03     454.885E-03    -227.769E-03     9.23594E-03    -60.7634E+06    -107.688E+06    -143.236E+06    -107.713E+06    -143.212E+06    -60.7634E+06     426.724E+03         58.0696
             304     3.18774E-03     83.1860E-03         3.08329         3.00147        -7.40968         2.98497        -7.39319         3.08329    -375.250E-03     455.227E-03    -227.498E-03    -227.729E-03    -227.489E-03     455.216E-03    -227.727E-03     5.11084E-03    -82.5198E+06    -116.820E+06    -167.120E+06    -116.842E+06    -167.098E+06    -82.5198E+06     549.480E+03         57.9691
             305     2.38994E-03     83.1825E-03         3.10858         3.03634        -7.46935         3.03133        -7.46434         3.10858     103.603E-03     455.282E-03    -227.526E-03    -227.757E-03    -227.650E-03     455.280E-03    -227.629E-03     2.29951E-03    -103.054E+06    -124.322E+06    -191.452E+06    -124.334E+06    -191.441E+06    -103.054E+06     189.548E+03         57.9001
             306     1.59354E-03     83.1828E-03         3.18557         3.08061        -7.58558         3.11282        -7.55658         3.12435    -702.006E-03     454.984E-03    -227.259E-03    -227.725E-03    -227.426E-03     454.983E-03    -227.557E-03     793.753E-06    -120.350E+06    -130.586E+06    -210.807E+06    -130.603E+06     -210.79E+06    -120.350E+06    -347.958E+03         57.8555
             307     796.013E-06     83.1857E-03         3.34982         2.98238        -7.65064         3.27204        -7.57285         2.98238        -1.17216     455.051E-03    -226.982E-03    -228.068E-03    -227.623E-03     455.050E-03    -227.427E-03     514.398E-06    -129.677E+06    -134.828E+06    -223.442E+06    -133.772E+06    -223.404E+06    -130.771E+06     213.814E+03         57.8301
             308     13.5507E-03     82.4641E-03         2.41808         1.15336        -4.96411         1.15325        -4.96399         2.41808    -14.7842E-03     459.411E-03    -228.034E-03    -231.378E-03    -227.531E-03     455.565E-03    -228.034E-03     102.221E-03     115.826E+06     62.2570E+06    -7.69427E+06    -7.68777E+06     62.2505E+06     115.826E+06     137.544E+03         78.4599
             309     12.7519E-03     82.2954E-03         2.49411         1.34820        -5.24450         1.33959        -5.23588         2.49411     308.445E-03     459.097E-03    -227.969E-03    -231.128E-03    -227.636E-03     455.605E-03    -227.969E-03     96.5063E-03     89.7464E+06     45.1225E+06    -14.8076E+06    -14.8011E+06     45.1160E+06     89.7464E+06     145.122E+03         75.2073
             310     11.9537E-03     82.1786E-03         2.56675         1.53281        -5.50964         1.52320        -5.50002         2.56675     215.459E-03     457.636E-03    -227.932E-03    -229.704E-03    -227.488E-03     455.420E-03    -227.932E-03     77.8991E-03     75.6707E+06     31.2974E+06    -21.2248E+06    -21.2222E+06     31.2949E+06     75.6707E+06    -37.4808E+03         71.3346
             311     11.1561E-03     82.0652E-03         2.63560         1.71336        -5.76284         1.70756        -5.75703         2.63560    -394.686E-03     457.405E-03    -227.890E-03    -229.515E-03    -227.715E-03     455.605E-03    -227.890E-03     69.9557E-03     67.1111E+06     23.2765E+06    -27.8824E+06    -27.8754E+06     23.2695E+06     67.1111E+06    -293.698E+03         67.5991
             312     10.3603E-03     81.9742E-03         2.70037         1.89684        -6.01205         1.88755        -6.00276         2.70037     2.55671E-03     456.888E-03    -227.828E-03    -229.060E-03    -227.738E-03     455.566E-03    -227.828E-03     60.0225E-03     58.8909E+06     18.1387E+06    -34.8420E+06    -34.8360E+06     18.1327E+06     58.8909E+06    -511.981E+03         64.5141
             313     9.56485E-03     81.8908E-03         2.76088         2.06713        -6.24347         2.05813        -6.23447         2.76088    -1.98190E-03     455.987E-03    -227.635E-03    -228.352E-03    -227.196E-03     454.977E-03    -227.781E-03     52.3560E-03     51.0141E+06     14.1527E+06    -41.7621E+06    -41.7608E+06     14.1514E+06     51.0141E+06    -164.051E+03         62.2493
             314     8.76678E-03     81.8254E-03         2.81723         2.22069        -6.45618         2.21576        -6.45125         2.81723    -366.485E-03     454.797E-03    -227.001E-03    -227.796E-03    -226.261E-03     454.057E-03    -227.796E-03     44.7557E-03     41.9603E+06     8.48065E+06    -50.2019E+06    -50.1962E+06     8.47489E+06     41.9603E+06     313.700E+03         60.7197
             315     7.96584E-03     81.7640E-03         2.86940         2.36470        -6.65756         2.36391        -6.65677         2.86940    -22.0335E-03     455.134E-03    -227.166E-03    -227.967E-03    -226.793E-03     454.624E-03    -227.831E-03     37.0510E-03     31.9701E+06     1.05311E+06    -59.4942E+06    -59.4882E+06     1.04714E+06     31.9701E+06     330.390E+03         59.7348
             316     7.17229E-03     81.7161E-03         2.91756         2.49833        -6.84270         2.49537        -6.83974         2.91756     296.292E-03     455.614E-03    -227.597E-03    -228.017E-03    -227.475E-03     455.277E-03    -227.802E-03     30.2129E-03     19.3480E+06    -13.0078E+06    -68.6120E+06    -68.6065E+06    -13.0133E+06     19.3480E+06     398.352E+03         59.1061
             317     6.37546E-03     81.6779E-03         2.96136         2.63095        -7.01771         2.62689        -7.01365         2.96136     63.9433E-03     454.802E-03    -226.949E-03    -227.853E-03    -226.803E-03     454.577E-03    -227.774E-03     24.5872E-03     1.29853E+06    -43.7122E+06    -78.4367E+06    -78.4272E+06    -43.7217E+06     1.29853E+06     208.330E+03         58.6942
             318     5.57560E-03     81.6503E-03         3.00021         2.74548        -7.16709         2.74237        -7.16398         3.00021     21.6511E-03     454.649E-03    -226.849E-03    -227.800E-03    -226.720E-03     454.519E-03    -227.800E-03     18.4957E-03    -18.8236E+06    -78.5512E+06    -90.1288E+06    -88.3738E+06    -80.3063E+06    -18.8236E+06    -366.059E+03         58.4131
             319     4.78119E-03     81.6309E-03         3.03421         2.85264        -7.30743         2.84257        -7.29736         3.03421     589.057E-03     455.121E-03    -227.323E-03    -227.798E-03    -227.256E-03     455.054E-03    -227.798E-03     13.2818E-03    -39.6314E+06    -98.2771E+06    -112.891E+06    -98.4279E+06    -112.740E+06    -39.6314E+06     62.6904E+03         58.2148
             320     3.98416E-03     81.6171E-03         3.06428         2.93444        -7.42411         2.92047        -7.41014         3.06428     76.0087E-03     455.249E-03    -227.509E-03    -227.740E-03    -227.478E-03     455.215E-03    -227.737E-03     9.34473E-03    -61.2480E+06    -107.962E+06    -142.634E+06    -107.978E+06    -142.618E+06    -61.2480E+06     339.789E+03         58.0730
             321     3.18647E-03     81.6096E-03         3.09050         3.00236        -7.52275         2.99430        -7.51470         3.09050    -477.448E-03     455.080E-03    -227.421E-03    -227.659E-03    -227.410E-03     455.067E-03    -227.656E-03     5.83884E-03    -82.9377E+06    -116.515E+06    -166.573E+06    -116.535E+06    -166.553E+06    -82.9377E+06     107.065E+03         57.9722
             322     2.39101E-03     81.6066E-03         3.11426         3.05659        -7.59651         3.04345        -7.58336         3.11426     271.582E-03     454.807E-03    -227.158E-03    -227.649E-03    -227.153E-03     454.802E-03    -227.649E-03     3.13221E-03    -103.064E+06    -124.354E+06    -190.548E+06    -124.367E+06    -190.535E+06    -103.064E+06     163.803E+03         57.9028
             323     1.59346E-03     81.6082E-03         3.26750         3.09694        -7.79027         3.11672        -7.67173         3.12919        -1.06999     455.022E-03    -227.214E-03    -227.808E-03    -227.268E-03     455.021E-03    -227.752E-03     1.27555E-03    -120.373E+06    -130.432E+06    -210.851E+06    -130.445E+06    -210.838E+06    -120.373E+06    -74.4154E+03         57.8581
             324     796.499E-06     81.6102E-03         3.54472         2.95775        -7.90936         3.30694        -7.67158         2.95775    -82.9506E-03     455.612E-03    -227.445E-03    -228.167E-03    -227.722E-03     455.612E-03    -227.890E-03     326.411E-06    -131.240E+06    -135.382E+06    -223.511E+06    -134.739E+06    -223.494E+06    -131.901E+06    -561.908E+03         57.8328
             325     13.5489E-03     80.8875E-03         2.42052         1.21805        -5.13306         1.21799        -5.13301         2.42052    -10.5176E-03     459.831E-03    -228.034E-03    -231.797E-03    -227.969E-03     456.003E-03    -228.034E-03     102.104E-03     116.126E+06     62.4809E+06    -7.74646E+06    -7.73684E+06     62.4713E+06     116.126E+06     436.957E+03         78.3934
             326     12.7522E-03     80.7189E-03         2.48708         1.40338        -5.39523         1.39424        -5.38609         2.48708     334.181E-03     459.501E-03    -227.940E-03    -231.561E-03    -228.115E-03     456.054E-03    -227.940E-03     95.9529E-03     90.3532E+06     45.8599E+06    -14.5108E+06    -14.5037E+06     45.8528E+06     90.3532E+06     79.0732E+03         75.1807
             327     11.9555E-03     80.6019E-03         2.55070         1.57582        -5.63942         1.56545        -5.62905         2.55070     219.854E-03     457.522E-03    -227.883E-03    -229.639E-03    -227.452E-03     455.335E-03    -227.883E-03     77.3807E-03     75.7799E+06     31.5497E+06    -21.1748E+06    -21.1726E+06     31.5475E+06     75.7799E+06    -292.702E+03         71.3495
             328     11.1583E-03     80.4894E-03         2.61118         1.74297        -5.86911         1.73782        -5.86396         2.61118    -382.738E-03     456.805E-03    -227.855E-03    -228.950E-03    -227.160E-03     455.015E-03    -227.855E-03     69.7393E-03     66.7233E+06     23.5670E+06    -27.6985E+06    -27.6922E+06     23.5607E+06     66.7233E+06    -466.851E+03         67.6391
             329     10.3602E-03     80.3957E-03         2.66799         1.91449        -6.09508         1.90679        -6.08739         2.66799     4.28811E-03     456.151E-03    -227.771E-03    -228.379E-03    -226.969E-03     454.812E-03    -227.843E-03     60.3640E-03     58.2896E+06     17.9145E+06    -34.4135E+06    -34.4064E+06     17.9074E+06     58.2896E+06    -575.880E+03         64.5603
             330     9.56148E-03     80.3156E-03         2.72097         2.07367        -6.30625         2.06649        -6.29907         2.72097     11.0025E-03     455.950E-03    -227.717E-03    -228.233E-03    -227.104E-03     454.937E-03    -227.833E-03     52.3925E-03     49.9508E+06     13.0041E+06    -42.3990E+06    -42.3973E+06     13.0025E+06     49.9508E+06    -218.264E+03         62.2898
             331     8.76462E-03     80.2484E-03         2.77017         2.21599        -6.50169         2.21179        -6.49749         2.77017    -360.594E-03     456.037E-03    -227.685E-03    -228.352E-03    -227.508E-03     455.308E-03    -227.799E-03     44.4937E-03     41.5379E+06     7.97175E+06    -50.5746E+06    -50.5689E+06     7.96600E+06     41.5379E+06     304.328E+03         60.7505
             332     7.97125E-03     80.1885E-03         2.81568         2.34988        -6.68610         2.34845        -6.68467         2.81568    -20.3386E-03     455.425E-03    -227.309E-03    -228.116E-03    -227.149E-03     454.908E-03    -227.759E-03     37.4001E-03     32.5104E+06     1.31041E+06    -58.8625E+06    -58.8567E+06     1.30462E+06     32.5104E+06     275.763E+03         59.7555
             333     7.17134E-03     80.1375E-03         2.85785         2.47121        -6.85219         2.46782        -6.84880         2.85785     330.741E-03     454.613E-03    -226.853E-03    -227.760E-03    -226.509E-03     454.269E-03    -227.760E-03     30.4113E-03     19.8206E+06    -12.8073E+06    -68.4115E+06    -68.4048E+06    -12.8140E+06     19.8206E+06    -112.005E+03         59.1183
             334     6.37377E-03     80.1044E-03         2.89662         2.58983        -7.00852         2.58509        -7.00379         2.89662     35.0571E-03     454.631E-03    -226.834E-03    -227.797E-03    -226.612E-03     454.409E-03    -227.797E-03     24.4516E-03     2.02764E+06    -42.7320E+06    -78.3973E+06    -78.3770E+06    -42.7523E+06     2.02764E+06     3.17547E+03         58.7013
             335     5.57861E-03     80.0731E-03         2.93138         2.69649        -7.14560         2.69068        -7.13979         2.93138     77.1282E-03     454.887E-03    -227.064E-03    -227.822E-03    -226.930E-03     454.753E-03    -227.822E-03     18.8348E-03    -18.5007E+06    -78.0020E+06    -91.2665E+06    -88.5286E+06    -80.7399E+06    -18.5007E+06     388.479E+03         58.4181
             336     4.77978E-03     80.0544E-03         2.96183         2.79313        -7.27114         2.78548        -7.26349         2.96183     545.037E-03     455.120E-03    -227.317E-03    -227.803E-03    -227.245E-03     455.048E-03    -227.803E-03     13.7204E-03    -40.3771E+06    -98.5403E+06    -112.999E+06    -98.5988E+06    -112.940E+06    -40.3771E+06     288.466E+03         58.2192
             337     3.98328E-03     80.0408E-03         2.98844         2.86462        -7.37211         2.85947        -7.36696         2.98844     150.524E-03     455.045E-03    -227.275E-03    -227.770E-03    -227.239E-03     455.009E-03    -227.770E-03     9.71820E-03    -62.1946E+06    -107.802E+06    -142.048E+06    -107.827E+06    -142.024E+06    -62.1946E+06    -276.154E+03         58.0775
             338     3.18752E-03     80.0333E-03         3.01141         2.93846        -7.47504         2.92626        -7.46283         3.01141    -579.377E-03     454.884E-03    -227.111E-03    -227.773E-03    -227.096E-03     454.869E-03    -227.773E-03     6.16049E-03    -84.0124E+06    -116.198E+06    -167.169E+06    -116.235E+06    -167.132E+06    -84.0124E+06    -220.905E+03         57.9772
             339     2.38886E-03     80.0321E-03         3.04643         3.01024        -7.57517         2.97224        -7.52247         3.03173     447.214E-03     455.127E-03    -227.257E-03    -227.870E-03    -227.293E-03     455.123E-03    -227.830E-03     3.10854E-03    -103.591E+06    -123.387E+06    -190.177E+06    -123.399E+06    -190.164E+06    -103.591E+06    -7.53366E+03         57.9085
             340     1.59202E-03     80.0319E-03         3.33631         3.03510        -7.89059         3.03764        -7.59975         3.04292        -1.43352     455.590E-03    -227.623E-03    -227.968E-03    -227.726E-03     455.589E-03    -227.862E-03     1.13995E-03    -119.313E+06    -129.457E+06    -210.552E+06    -129.461E+06    -210.548E+06    -119.313E+06     323.999E+03         57.8642
             341     796.559E-06     80.0314E-03         4.01583         2.83057        -8.36029         3.25821        -7.60267         2.83057         1.04598     455.656E-03    -227.683E-03    -227.973E-03    -227.968E-03     455.656E-03    -227.687E-03     100.159E-06    -130.715E+06    -134.494E+06    -223.713E+06    -133.844E+06    -223.702E+06    -131.376E+06     715.569E+03         57.8391
             342     13.5511E-03     79.3099E-03         2.36604         1.27334        -5.23335         1.27332        -5.23332         2.36604    -13.7166E-03     460.204E-03    -227.986E-03    -232.218E-03    -228.482E-03     456.468E-03    -227.986E-03     100.957E-03     117.096E+06       63.03E+06    -7.29442E+06    -7.28889E+06     63.0245E+06     117.096E+06     439.775E+03         78.3282
             343     12.7534E-03     79.1424E-03         2.42097         1.44053        -5.46405         1.43105        -5.45458         2.42097     354.687E-03     459.010E-03    -227.878E-03    -231.132E-03    -227.730E-03     455.607E-03    -227.878E-03     95.4657E-03     90.4432E+06     46.3368E+06    -14.2242E+06    -14.2226E+06     46.3353E+06     90.4432E+06    -198.108E+03         75.1529
             344     11.9556E-03     79.0246E-03         2.47357         1.59461        -5.67699         1.58359        -5.66597         2.47357     214.367E-03     457.044E-03    -227.846E-03    -229.199E-03    -226.968E-03     454.813E-03    -227.846E-03     78.1122E-03     75.6495E+06     31.8466E+06    -20.7514E+06    -20.7494E+06     31.8447E+06     75.6495E+06    -271.437E+03         71.3597
             345     11.1576E-03     78.9144E-03         2.52368         1.74329        -5.87549         1.73855        -5.87075         2.52368    -374.547E-03     456.520E-03    -227.849E-03    -228.671E-03    -226.830E-03     454.679E-03    -227.849E-03     70.7197E-03     66.6698E+06     23.6507E+06    -27.5310E+06    -27.5289E+06     23.6485E+06     66.6698E+06    -184.568E+03         67.6744
             346     10.3595E-03     78.8204E-03         2.57057         1.89661        -6.07097         1.89036        -6.06472         2.57057    -187.494E-06     456.075E-03    -227.780E-03    -228.295E-03    -226.891E-03     454.742E-03    -227.851E-03     60.1509E-03     57.3266E+06     16.9972E+06    -35.1784E+06    -35.1759E+06     16.9947E+06     57.3266E+06    -211.942E+03         64.6041
             347     9.56278E-03     78.7399E-03         2.61406         2.03961        -6.25433         2.03402        -6.24874         2.61406     16.1052E-03     456.143E-03    -227.762E-03    -228.381E-03    -227.335E-03     455.168E-03    -227.833E-03     51.4811E-03     48.8600E+06     12.1573E+06    -42.7930E+06    -42.7920E+06     12.1563E+06     48.8600E+06    -146.618E+03         62.3294
             348     8.76666E-03     78.6685E-03         2.65433         2.16510        -6.42414         2.16110        -6.42014         2.65433    -363.852E-03     456.060E-03    -227.589E-03    -228.471E-03    -227.543E-03     455.333E-03    -227.790E-03     44.4414E-03     41.5669E+06     8.19897E+06    -50.0468E+06    -50.0413E+06     8.19347E+06     41.5669E+06    -302.319E+03         60.7801
             349     7.96824E-03     78.6107E-03         2.69183         2.28023        -6.58477         2.27781        -6.58235         2.69183    -26.3978E-03     455.213E-03    -227.095E-03    -228.118E-03    -226.925E-03     454.686E-03    -227.760E-03     37.7824E-03     32.7987E+06     1.41585E+06    -58.4889E+06    -58.4812E+06     1.40813E+06     32.7987E+06    -87.8764E+03         59.7749
             350     7.17213E-03     78.5663E-03         2.72694         2.38466        -6.72808         2.38092        -6.72435         2.72694     357.050E-03     454.505E-03    -226.724E-03    -227.782E-03    -226.364E-03     454.146E-03    -227.782E-03     31.0761E-03     19.5058E+06    -13.3424E+06    -68.3897E+06    -68.3828E+06    -13.3493E+06     19.5058E+06    -31.2873E+03         59.1305
             351     6.37450E-03     78.5249E-03         2.75931         2.49052        -6.86279         2.48510        -6.85738         2.75931     4.35948E-03     454.595E-03    -226.759E-03    -227.835E-03    -226.531E-03     454.366E-03    -227.835E-03     24.7617E-03     1.49451E+06    -43.2473E+06    -78.4704E+06    -78.4551E+06    -43.2626E+06     1.49451E+06     103.455E+03         58.7095
             352     5.57603E-03     78.4993E-03         2.78807         2.58930        -6.98337         2.58056        -6.97463         2.78807     120.902E-03     454.870E-03    -226.991E-03    -227.880E-03    -226.849E-03     454.728E-03    -227.880E-03     19.5091E-03    -18.7525E+06    -77.8655E+06    -91.1605E+06    -88.2978E+06    -80.7282E+06    -18.7525E+06     634.504E+03         58.4245
             353     4.78044E-03     78.4766E-03         2.81295         2.67097        -7.08813         2.66338        -7.08053         2.81295     502.375E-03     455.117E-03    -227.230E-03    -227.888E-03    -227.150E-03     455.038E-03    -227.888E-03     14.3974E-03    -39.9789E+06    -97.9100E+06    -112.134E+06    -97.9699E+06    -112.074E+06    -39.9789E+06     346.783E+03         58.2253
             354     3.98370E-03     78.4651E-03         2.83460         2.72864        -7.16952         2.72674        -7.16762         2.83460     219.499E-03     455.228E-03    -227.357E-03    -227.872E-03    -227.324E-03     455.193E-03    -227.870E-03     9.46579E-03    -62.3731E+06    -107.685E+06    -141.632E+06    -107.731E+06    -141.586E+06    -62.3731E+06     73.8359E+03         58.0837
             355     3.18498E-03     78.4582E-03         2.86374         2.80094        -7.27646         2.78318        -7.24819         2.85324    -675.994E-03     455.204E-03    -227.348E-03    -227.856E-03    -227.337E-03     455.191E-03    -227.854E-03     5.44517E-03    -84.8264E+06    -116.788E+06    -167.614E+06    -116.857E+06    -167.544E+06    -84.8264E+06    -124.408E+03         57.9838
             356     2.38985E-03     78.4547E-03         2.93505         2.86828        -7.41619         2.81499        -7.29875         2.87090     605.644E-03     455.439E-03    -227.555E-03    -227.884E-03    -227.592E-03     455.436E-03    -227.844E-03     2.61845E-03    -104.382E+06    -123.894E+06    -190.745E+06    -123.918E+06    -190.721E+06    -104.382E+06    -232.139E+03         57.9153
             357     1.59414E-03     78.4547E-03         3.40125         2.88116        -7.88605         2.87695        -7.36175         2.88116        -1.76106     455.583E-03    -227.731E-03    -227.851E-03    -227.780E-03     455.581E-03    -227.802E-03     1.10868E-03    -119.953E+06    -129.403E+06    -211.001E+06    -129.404E+06    -210.999E+06    -119.953E+06    -55.4921E+03         57.8711
             358     796.618E-06     78.4554E-03         4.60142         2.64061        -8.84095         3.12344        -7.36297         2.64061         2.00353     455.496E-03    -227.294E-03    -228.202E-03    -227.303E-03     455.495E-03    -228.193E-03     264.924E-06    -129.286E+06    -132.413E+06    -222.518E+06    -132.108E+06    -222.504E+06    -129.605E+06     14.0724E+03         57.8459
             359     13.5522E-03     77.7328E-03         2.26080         1.31658        -5.26133         1.31646        -5.26121         2.26080    -27.6778E-03     460.133E-03    -227.953E-03    -232.180E-03    -228.381E-03     456.334E-03    -227.953E-03     101.715E-03     117.565E+06     63.2484E+06    -7.00709E+06    -7.00396E+06     63.2453E+06     117.565E+06     68.7950E+03         78.2610
             360     12.7543E-03     77.5679E-03         2.30271         1.46001        -5.45479         1.45079        -5.44557         2.30271     364.824E-03     458.647E-03    -227.863E-03    -230.784E-03    -227.294E-03     455.157E-03    -227.863E-03     96.6078E-03     90.6440E+06     46.4464E+06    -13.9625E+06    -13.9575E+06     46.4414E+06     90.6440E+06     199.040E+03         75.1214
             361     11.9552E-03     77.4500E-03         2.34274         1.59313        -5.63231         1.58209        -5.62127         2.34274     196.803E-03     456.896E-03    -227.853E-03    -229.043E-03    -226.784E-03     454.637E-03    -227.853E-03     78.5649E-03     75.5482E+06     31.7017E+06    -20.7311E+06    -20.7247E+06     31.6952E+06     75.5482E+06     209.513E+03         71.3671
             362     11.1570E-03     77.3386E-03         2.38081         1.71868        -5.79314         1.71398        -5.78845         2.38081    -373.324E-03     456.839E-03    -227.852E-03    -228.987E-03    -227.171E-03     455.024E-03    -227.852E-03     70.2128E-03     66.6417E+06     23.3235E+06    -27.7313E+06    -27.7285E+06     23.3207E+06     66.6417E+06     199.646E+03         67.7095
             363     10.3602E-03     77.2437E-03         2.41619         1.84804        -5.95176         1.84289        -5.94661         2.41619    -19.1754E-03     456.434E-03    -227.826E-03    -228.609E-03    -227.294E-03     455.120E-03    -227.826E-03     59.8060E-03     57.6958E+06     17.2004E+06    -35.0614E+06    -35.0595E+06     17.1985E+06     57.6958E+06     77.9962E+03         64.6491
             364     9.56328E-03     77.1623E-03         2.44887         1.96738        -6.10020         1.96318        -6.09600         2.44887     13.9388E-03     455.929E-03    -227.713E-03    -228.216E-03    -227.128E-03     454.928E-03    -227.799E-03     52.1952E-03     49.5765E+06     12.9186E+06    -42.1701E+06    -42.1658E+06     12.9143E+06     49.5765E+06    -349.427E+03         62.3697
             365     8.76555E-03     77.0923E-03         2.47924         2.07019        -6.23651         2.06584        -6.23216         2.47924    -377.793E-03     455.279E-03    -227.352E-03    -227.927E-03    -226.742E-03     454.540E-03    -227.798E-03     44.7336E-03     41.1962E+06     7.87303E+06    -50.2469E+06    -50.2378E+06     7.86397E+06     41.1962E+06    -567.723E+03         60.8093
             366     7.96878E-03     77.0359E-03         2.50790         2.16362        -6.36695         2.15978        -6.36312         2.50790    -47.8598E-03     454.884E-03    -227.057E-03    -227.826E-03    -226.541E-03     454.367E-03    -227.826E-03     37.3920E-03     31.7679E+06     521.546E+03    -59.1306E+06    -59.1215E+06     512.363E+03     31.7679E+06    -263.249E+03         59.7941
             367     7.17085E-03     76.9877E-03         2.53500         2.24867        -6.48309         2.24465        -6.47907         2.53500     368.681E-03     454.901E-03    -227.045E-03    -227.857E-03    -226.680E-03     454.537E-03    -227.857E-03     31.3947E-03     18.9457E+06    -13.4791E+06    -68.1625E+06    -68.1569E+06    -13.4847E+06     18.9457E+06     218.240E+03         59.1436
             368     6.37363E-03     76.9520E-03         2.55984         2.34039        -6.59433         2.33439        -6.58833         2.55984    -31.9255E-03     454.935E-03    -227.050E-03    -227.885E-03    -226.817E-03     454.701E-03    -227.885E-03     24.9731E-03     1.12131E+06    -44.0973E+06    -77.8679E+06    -77.8570E+06    -44.1083E+06     1.12131E+06     84.2366E+03         58.7195
             369     5.57695E-03     76.9214E-03         2.58133         2.42970        -6.69666         2.41789        -6.68485         2.58133     144.425E-03     454.951E-03    -227.039E-03    -227.912E-03    -226.907E-03     454.819E-03    -227.912E-03     18.7789E-03    -19.1765E+06    -79.0066E+06    -89.8842E+06    -88.2482E+06    -80.6426E+06    -19.1765E+06     95.7192E+03         58.4329
             370     4.77888E-03     76.9011E-03         2.59935         2.49354        -6.77586         2.48480        -6.76712         2.59935     464.032E-03     455.092E-03    -227.165E-03    -227.928E-03    -227.093E-03     455.021E-03    -227.928E-03     13.6413E-03    -40.0297E+06    -97.9441E+06    -112.003E+06    -98.0823E+06    -111.865E+06    -40.0297E+06     408.254E+03         58.2327
             371     3.98187E-03     76.8875E-03         2.61532         2.53234        -6.83676         2.52980        -6.83422         2.61532     264.767E-03     455.359E-03    -227.437E-03    -227.921E-03    -227.408E-03     455.327E-03    -227.919E-03     8.86963E-03    -60.9876E+06    -106.823E+06    -141.269E+06    -106.857E+06    -141.235E+06    -60.9876E+06     514.915E+03         58.0904
             372     3.18792E-03     76.8811E-03         2.65645         2.59151        -6.94295         2.56837        -6.89381         2.63046    -752.731E-03     455.489E-03    -227.618E-03    -227.871E-03    -227.608E-03     455.477E-03    -227.869E-03     5.51146E-03    -82.7324E+06    -115.454E+06    -166.718E+06    -115.527E+06    -166.646E+06    -82.7324E+06     424.446E+03         57.9898
             373     2.38970E-03     76.8790E-03         2.78452         2.64587        -7.12457         2.59680        -6.93686         2.64587     709.212E-03     455.404E-03    -227.582E-03    -227.822E-03    -227.577E-03     455.399E-03    -227.822E-03     3.10474E-03    -103.500E+06    -124.061E+06    -191.409E+06    -124.104E+06    -191.366E+06    -103.500E+06     231.273E+03         57.9206
             374     1.59214E-03     76.8775E-03         3.39139         2.65916        -7.73940         2.63825        -6.98626         2.65916        -1.99557     455.307E-03    -227.433E-03    -227.874E-03    -227.432E-03     455.306E-03    -227.874E-03     1.45567E-03    -120.561E+06    -130.123E+06    -210.739E+06    -130.127E+06    -210.734E+06    -120.561E+06    -274.836E+03         57.8759
             375     796.447E-06     76.8801E-03         5.03976         2.44853        -9.15381         2.88005        -6.99411         2.44853         2.71179     455.845E-03    -227.039E-03    -228.806E-03    -227.645E-03     455.844E-03    -228.200E-03     766.706E-06    -131.271E+06    -133.790E+06    -222.976E+06    -133.481E+06    -222.965E+06    -131.590E+06    -746.455E+03         57.8505
             376     13.5502E-03     76.1568E-03         2.11245         1.34638        -5.22264         1.34593        -5.22218         2.11245    -39.0980E-03     459.471E-03    -227.995E-03    -231.476E-03    -227.637E-03     455.632E-03    -227.995E-03     102.147E-03     116.869E+06     62.7201E+06    -7.49914E+06    -7.49671E+06     62.7176E+06     116.869E+06    -274.675E+03         78.1908
             377     12.7521E-03     75.9915E-03         2.14035         1.46138        -5.37339         1.45272        -5.36473         2.14035     373.592E-03     459.195E-03    -227.920E-03    -231.275E-03    -227.757E-03     455.677E-03    -227.920E-03     97.0414E-03     90.6605E+06     46.3234E+06    -14.4084E+06    -14.4036E+06     46.3186E+06     90.6605E+06     321.078E+03         75.0870
             378     11.9550E-03     75.8754E-03         2.16685         1.56827        -5.51040         1.55769        -5.49981         2.16685     175.312E-03     457.857E-03    -227.870E-03    -229.987E-03    -227.723E-03     455.593E-03    -227.870E-03     78.7602E-03     76.1509E+06     32.0365E+06    -21.0895E+06    -21.0829E+06     32.0299E+06     76.1509E+06     519.863E+03         71.3753
             379     11.1583E-03     75.7606E-03         2.19203         1.66864        -5.63115         1.66382        -5.62633         2.19203    -373.850E-03     457.213E-03    -227.824E-03    -229.389E-03    -227.584E-03     455.408E-03    -227.824E-03     70.0365E-03     67.4561E+06     23.5083E+06    -27.6674E+06    -27.6641E+06     23.5050E+06     67.4561E+06     390.326E+03         67.7471
             380     10.3610E-03     75.6679E-03         2.21516         1.77165        -5.74907         1.76725        -5.74466         2.21516    -48.9712E-03     456.145E-03    -227.788E-03    -228.357E-03    -227.045E-03     454.833E-03    -227.788E-03     59.7577E-03     58.4867E+06     17.7016E+06    -34.5399E+06    -34.5364E+06     17.6981E+06     58.4867E+06     226.899E+03         64.6956
             381     9.56305E-03     75.5860E-03         2.23637         1.86278        -5.85812         1.85981        -5.85516         2.23637     8.74658E-03     455.353E-03    -227.477E-03    -227.876E-03    -226.564E-03     454.354E-03    -227.789E-03     52.0678E-03     49.7272E+06     13.4611E+06    -42.1785E+06    -42.1728E+06     13.4553E+06     49.7272E+06    -145.305E+03         62.4106
             382     8.76571E-03     75.5171E-03         2.25628         1.93849        -5.95844         1.93323        -5.95318         2.25628    -392.637E-03     454.881E-03    -227.051E-03    -227.830E-03    -226.316E-03     454.146E-03    -227.830E-03     44.6262E-03     40.6936E+06     7.71085E+06    -50.5065E+06    -50.5025E+06     7.70690E+06     40.6936E+06    -290.954E+03         60.8397
             383     7.96761E-03     75.4593E-03         2.27538         2.01027        -6.05537         2.00450        -6.04960         2.27538    -71.8668E-03     454.893E-03    -227.010E-03    -227.883E-03    -226.486E-03     454.369E-03    -227.883E-03     37.6181E-03     30.8038E+06    -188.029E+03    -59.5854E+06    -59.5816E+06    -191.796E+03     30.8038E+06    -407.217E+03         59.8152
             384     7.17021E-03     75.4134E-03         2.29349         2.07495        -6.13937         2.07069        -6.13511         2.29349     372.594E-03     455.099E-03    -227.181E-03    -227.919E-03    -226.824E-03     454.743E-03    -227.919E-03     31.0376E-03     18.7505E+06    -13.8633E+06    -68.5838E+06    -68.5787E+06    -13.8684E+06     18.7505E+06    -169.139E+03         59.1583
             385     6.37352E-03     75.3726E-03         2.31014         2.14437        -6.22094         2.13779        -6.21436         2.31014    -66.8602E-03     455.320E-03    -227.398E-03    -227.922E-03    -227.169E-03     455.090E-03    -227.922E-03     24.8154E-03     926.250E+03    -44.4270E+06    -78.5784E+06    -78.5587E+06    -44.4467E+06     926.250E+03     203.848E+03         58.7305
             386     5.57704E-03     75.3464E-03         2.32435         2.21906        -6.30152         2.20484        -6.28730         2.32435     149.608E-03     455.371E-03    -227.418E-03    -227.953E-03    -227.344E-03     455.238E-03    -227.894E-03     18.8566E-03    -19.6627E+06    -79.2728E+06    -90.2664E+06    -88.7412E+06    -80.7980E+06    -19.6627E+06     79.1275E+03         58.4416
             387     4.78064E-03     75.3245E-03         2.33590         2.26468        -6.35556         2.25459        -6.34547         2.33590     442.977E-03     455.123E-03    -227.199E-03    -227.924E-03    -227.189E-03     455.054E-03    -227.865E-03     13.3886E-03    -40.0735E+06    -97.8781E+06    -111.753E+06    -98.0254E+06    -111.605E+06    -40.0735E+06     146.099E+03         58.2396
             388     3.98413E-03     75.3108E-03         2.34638         2.28806        -6.39705         2.28431        -6.39330         2.34638     281.626E-03     455.053E-03    -227.190E-03    -227.863E-03    -227.160E-03     455.024E-03    -227.863E-03     8.61142E-03    -61.0724E+06    -107.278E+06    -141.310E+06    -107.296E+06    -141.292E+06    -61.0724E+06     200.765E+03         58.0958
             389     3.18442E-03     75.3051E-03         2.39302         2.33268        -6.49848         2.30298        -6.43382         2.35807    -785.347E-03     455.312E-03    -227.464E-03    -227.849E-03    -227.452E-03     455.300E-03    -227.849E-03     5.16877E-03    -82.9266E+06    -116.295E+06    -167.031E+06    -116.339E+06    -166.987E+06    -82.9266E+06     450.076E+03         57.9938
             390     2.38974E-03     75.3009E-03         2.56492         2.37090        -6.70441         2.33166        -6.47115         2.37090     739.170E-03     455.343E-03    -227.513E-03    -227.830E-03    -227.509E-03     455.339E-03    -227.830E-03     2.52104E-03    -102.890E+06    -123.470E+06    -190.247E+06    -123.500E+06    -190.217E+06    -102.890E+06     395.043E+03         57.9236
             391     1.59375E-03     75.3035E-03         3.25320         2.38433        -7.39626         2.35640        -6.49946         2.38433        -2.08581     455.448E-03    -227.367E-03    -228.081E-03    -227.592E-03     455.447E-03    -227.855E-03     1.03237E-03    -119.032E+06    -129.325E+06    -210.032E+06    -129.333E+06    -210.024E+06    -119.032E+06     25.6369E+03         57.8780
             392     795.270E-06     75.3017E-03         5.09243         2.20670        -9.04505         2.57610        -6.52871         2.20670         2.93996     455.705E-03    -227.171E-03    -228.534E-03    -228.003E-03     455.705E-03    -227.702E-03     556.705E-06    -130.911E+06    -134.476E+06    -224.462E+06    -134.107E+06    -224.454E+06    -131.287E+06     117.258E+03         57.8520
             393     13.5497E-03     74.5810E-03         1.92955         1.36559        -5.13026         1.36440        -5.12907         1.92955    -49.8438E-03     459.433E-03    -228.036E-03    -231.397E-03    -227.610E-03     455.646E-03    -228.036E-03     101.532E-03     116.896E+06     62.3666E+06    -7.73652E+06    -7.73462E+06     62.3647E+06     116.896E+06     20.7895E+03         78.1225
             394     12.7517E-03     74.4154E-03         1.94290         1.44690        -5.22939         1.43915        -5.22164         1.94290     374.710E-03     459.665E-03    -227.944E-03    -231.721E-03    -228.278E-03     456.222E-03    -227.944E-03     96.0865E-03     90.6538E+06     46.3657E+06    -14.8631E+06    -14.8621E+06     46.3646E+06     90.6538E+06     232.967E+03         75.0550
             395     11.9552E-03     74.2955E-03         1.95556         1.52338        -5.32130         1.51375        -5.31167         1.95556     146.361E-03     458.129E-03    -227.866E-03    -230.264E-03    -228.034E-03     455.900E-03    -227.866E-03     78.1905E-03     76.1977E+06     32.1828E+06    -21.3410E+06    -21.3373E+06     32.1791E+06     76.1977E+06     68.8198E+03         71.3838
             396     11.1585E-03     74.1849E-03         1.96776         1.59535        -5.40107         1.59024        -5.39595         1.96776    -376.881E-03     457.059E-03    -227.813E-03    -229.247E-03    -227.427E-03     455.240E-03    -227.813E-03     70.3548E-03     67.2364E+06     23.2014E+06    -28.0688E+06    -28.0655E+06     23.1981E+06     67.2364E+06    -45.8725E+03         67.7829
             397     10.3608E-03     74.0917E-03         1.97859         1.66940        -5.47757         1.66535        -5.47352         1.97859    -81.7529E-03     456.021E-03    -227.789E-03    -228.232E-03    -226.889E-03     454.678E-03    -227.789E-03     60.4171E-03     58.5795E+06     17.9079E+06    -34.6364E+06    -34.6346E+06     17.9062E+06     58.5795E+06     137.235E+03         64.7410
             398     9.56358E-03     74.0109E-03         1.98817         1.73334        -5.54667         1.73129        -5.54462         1.98817     3.77191E-03     455.254E-03    -227.398E-03    -227.857E-03    -226.448E-03     454.250E-03    -227.802E-03     52.1812E-03     49.7842E+06     13.6045E+06    -41.8890E+06    -41.8867E+06     13.6021E+06     49.7842E+06     251.866E+03         62.4528
             399     8.76499E-03     73.9423E-03         1.99701         1.78529        -5.61160         1.77876        -5.60506         1.99701    -406.249E-03     454.847E-03    -226.994E-03    -227.853E-03    -226.259E-03     454.111E-03    -227.853E-03     44.6056E-03     40.8931E+06     7.78488E+06    -50.0208E+06    -50.0189E+06     7.78296E+06     40.8931E+06     167.485E+03         60.8729
             400     7.96729E-03     73.8838E-03         2.00573         1.83000        -5.67277         1.82191        -5.66468         2.00573    -92.1632E-03     455.126E-03    -227.224E-03    -227.902E-03    -226.706E-03     454.608E-03    -227.902E-03     37.4223E-03     31.5705E+06     348.729E+03    -58.9402E+06    -58.9305E+06     339.077E+03     31.5705E+06     183.808E+03         59.8389
             401     7.17087E-03     73.8349E-03         2.01444         1.86786        -5.72099         1.86317        -5.71630         2.01444     374.740E-03     455.342E-03    -227.433E-03    -227.909E-03    -227.087E-03     454.996E-03    -227.909E-03     30.5336E-03     18.1919E+06    -15.0159E+06    -69.1866E+06    -69.1776E+06    -15.0249E+06     18.1919E+06     72.1412E+03         59.1744
             402     6.37346E-03     73.7980E-03         2.02284         1.91305        -5.76777         1.90626        -5.76098         2.02284    -87.4152E-03     455.195E-03    -227.297E-03    -227.899E-03    -227.078E-03     454.977E-03    -227.899E-03     24.2339E-03     497.883E+03    -44.4739E+06    -79.0225E+06    -78.9963E+06    -44.5001E+06     497.883E+03    -116.911E+03         58.7411
             403     5.57634E-03     73.7671E-03         2.03004         1.96700        -5.82014         1.95160        -5.80474         2.03004     141.557E-03     455.222E-03    -227.274E-03    -227.948E-03    -227.202E-03     455.091E-03    -227.889E-03     18.7433E-03    -18.7660E+06    -77.8296E+06    -90.7285E+06    -88.1024E+06    -80.4557E+06    -18.7660E+06    -65.6002E+03         58.4487
             404     4.78032E-03     73.7483E-03         2.03602         1.99284        -5.84954         1.98194        -5.83863         2.03602     446.214E-03     455.256E-03    -227.344E-03    -227.912E-03    -227.331E-03     455.184E-03    -227.853E-03     13.8165E-03    -40.3812E+06    -98.5042E+06    -111.896E+06    -98.5362E+06    -111.864E+06    -40.3812E+06     207.632E+03         58.2445
             405     3.98245E-03     73.7358E-03         2.04171         2.00615        -5.87578         2.00267        -5.87229         2.04171     266.564E-03     455.190E-03    -227.380E-03    -227.810E-03    -227.347E-03     455.157E-03    -227.810E-03     9.17422E-03    -62.5753E+06    -108.691E+06    -141.906E+06    -108.717E+06    -141.880E+06    -62.5753E+06     322.355E+03         58.0992
             406     3.18855E-03     73.7274E-03         2.08538         2.03755        -5.96127         2.00830        -5.89580         2.04916    -768.745E-03     455.135E-03    -227.357E-03    -227.777E-03    -227.345E-03     455.123E-03    -227.777E-03     5.21852E-03    -83.8718E+06    -116.832E+06    -167.177E+06    -116.853E+06    -167.156E+06    -83.8718E+06     85.0255E+03         57.9961
             407     2.38984E-03     73.7260E-03         2.26107         2.05835        -6.16063         2.02994        -5.92950         2.05835     682.128E-03     455.286E-03    -227.393E-03    -227.893E-03    -227.538E-03     455.282E-03    -227.744E-03     2.41341E-03    -103.944E+06    -124.336E+06    -189.613E+06    -124.344E+06    -189.604E+06    -103.944E+06    -46.8278E+03         57.9249
             408     1.59217E-03     73.7260E-03         2.91876         2.07201        -6.80668         2.03571        -5.92363         2.07201        -1.96925     455.551E-03    -227.477E-03    -228.075E-03    -227.957E-03     455.551E-03    -227.594E-03     1.06791E-03    -120.035E+06    -130.210E+06    -210.253E+06    -130.214E+06    -210.248E+06    -120.035E+06     298.286E+03         57.8787
             409     798.845E-06     73.7241E-03         4.55821         1.93599        -8.29334         2.22614        -5.96127         1.93599         2.50438     454.881E-03    -226.882E-03    -227.999E-03    -227.213E-03     454.881E-03    -227.668E-03    -82.6435E-06    -130.516E+06    -133.656E+06    -223.819E+06    -133.284E+06    -223.814E+06    -130.892E+06     379.171E+03         57.8522
             410     13.5498E-03     73.0048E-03         1.72219         1.37698        -4.99249         1.37466        -4.99018         1.72219    -61.0100E-03     459.944E-03    -228.016E-03    -231.928E-03    -228.191E-03     456.207E-03    -228.016E-03     100.924E-03     117.674E+06     62.5635E+06    -7.62292E+06    -7.62213E+06     62.5627E+06     117.674E+06     168.918E+03         78.0573
             411     12.7532E-03     72.8375E-03         1.72100         1.42468        -5.04311         1.41790        -5.03633         1.72100     369.026E-03     459.383E-03    -227.910E-03    -231.473E-03    -228.042E-03     455.952E-03    -227.910E-03     95.9799E-03     91.2099E+06     46.6804E+06    -14.4897E+06    -14.4888E+06     46.6795E+06     91.2099E+06     167.601E+03         75.0247
             412     11.9559E-03     72.7185E-03         1.71976         1.46885        -5.08825         1.46062        -5.08002         1.71976     119.600E-03     457.351E-03    -227.862E-03    -229.489E-03    -227.244E-03     455.106E-03    -227.862E-03     78.3729E-03     76.0195E+06     31.8186E+06    -21.0083E+06    -21.0048E+06     31.8151E+06     76.0195E+06     49.7134E+03         71.3900
             413     11.1575E-03     72.6095E-03         1.71889         1.50763        -5.12218         1.50217        -5.11672         1.71889    -377.068E-03     456.715E-03    -227.849E-03    -228.866E-03    -227.024E-03     454.873E-03    -227.849E-03     70.7894E-03     66.5290E+06     23.1389E+06    -27.8943E+06    -27.8911E+06     23.1357E+06     66.5290E+06    -96.6506E+03         67.8148
             414     10.3602E-03     72.5147E-03         1.71744         1.54923        -5.15500         1.54502        -5.15079         1.71744    -110.591E-03     456.166E-03    -227.842E-03    -228.324E-03    -226.960E-03     454.802E-03    -227.842E-03     60.8546E-03     57.7933E+06     17.5920E+06    -34.7157E+06    -34.7137E+06     17.5900E+06     57.7933E+06    -216.316E+03         64.7846
             415     9.56236E-03     72.4360E-03         1.71546         1.58448        -5.18372         1.58297        -5.18222         1.71546     3.29550E-03     455.774E-03    -227.662E-03    -228.112E-03    -226.932E-03     454.774E-03    -227.841E-03     52.1201E-03     49.8859E+06     13.1554E+06    -41.8324E+06    -41.8292E+06     13.1522E+06     49.8859E+06     9.06967E+03         62.4958
             416     8.76531E-03     72.3667E-03         1.71324         1.61399        -5.21394         1.60564        -5.20559         1.71324    -420.070E-03     455.547E-03    -227.515E-03    -228.032E-03    -226.984E-03     454.824E-03    -227.840E-03     44.2637E-03     41.3313E+06     7.71066E+06    -49.9575E+06    -49.9483E+06     7.70148E+06     41.3313E+06     619.431E+03         60.9083
             417     7.96831E-03     72.3072E-03         1.71154         1.63157        -5.23773         1.62063        -5.22680         1.71154    -108.033E-03     455.170E-03    -227.293E-03    -227.877E-03    -226.821E-03     454.665E-03    -227.844E-03     36.9371E-03     31.5866E+06     5.56419E+03    -59.0210E+06    -59.0018E+06    -13.6305E+03     31.5866E+06     1.00832E+06         59.8644
             418     7.17063E-03     72.2581E-03         1.71096         1.63740        -5.24577         1.63216        -5.24053         1.71096     375.530E-03     454.999E-03    -227.146E-03    -227.854E-03    -226.800E-03     454.654E-03    -227.854E-03     30.5401E-03     18.5961E+06    -14.1691E+06    -68.4443E+06    -68.4280E+06    -14.1854E+06     18.5961E+06     737.405E+03         59.1908
             419     6.37464E-03     72.2204E-03         1.71138         1.65752        -5.25821         1.65077        -5.25147         1.71138    -95.0059E-03     455.140E-03    -227.284E-03    -227.856E-03    -227.062E-03     454.918E-03    -227.856E-03     24.4279E-03     928.227E+03    -43.7082E+06    -78.4559E+06    -78.4351E+06    -43.7290E+06     928.227E+03    -77.2398E+03         58.7509
             420     5.57757E-03     72.1923E-03         1.71555         1.68709        -5.28245         1.67567        -5.26726         1.71178     123.068E-03     454.938E-03    -227.077E-03    -227.861E-03    -226.949E-03     454.810E-03    -227.861E-03     18.4538E-03    -19.3332E+06    -78.9790E+06    -91.8539E+06    -89.1457E+06    -81.6872E+06    -19.3332E+06    -47.2246E+03         58.4541
             421     4.77924E-03     72.1711E-03         1.71596         1.69318        -5.28763         1.68603        -5.27670         1.71219     464.714E-03     454.965E-03    -227.099E-03    -227.866E-03    -227.031E-03     454.897E-03    -227.866E-03     13.4708E-03    -40.6077E+06    -98.7578E+06    -112.253E+06    -98.7848E+06    -112.226E+06    -40.6077E+06     409.286E+03         58.2474
             422     3.98438E-03     72.1583E-03         1.71592         1.69651        -5.29957         1.69721        -5.29742         1.71307     218.277E-03     455.245E-03    -227.394E-03    -227.852E-03    -227.360E-03     455.211E-03    -227.852E-03     9.40754E-03    -62.3465E+06    -107.803E+06    -141.510E+06    -107.821E+06    -141.492E+06    -62.3465E+06     72.2407E+03         58.1009
             423     3.18503E-03     72.1520E-03         1.74123         1.71380        -5.34938         1.68821        -5.29914         1.71658    -692.275E-03     455.303E-03    -227.450E-03    -227.853E-03    -227.477E-03     455.289E-03    -227.811E-03     5.87874E-03    -83.7228E+06    -116.605E+06    -167.222E+06    -116.614E+06    -167.213E+06    -83.7228E+06     157.909E+03         57.9974
             424     2.38975E-03     72.1498E-03         1.88248         1.72131        -5.50152         1.70995        -5.32899         1.72131     517.255E-03     455.502E-03    -227.568E-03    -227.934E-03    -227.775E-03     455.497E-03    -227.722E-03     3.14065E-03    -103.749E+06    -123.881E+06    -189.550E+06    -123.887E+06    -189.544E+06    -103.749E+06     510.824E+03         57.9262
             425     1.59519E-03     72.1478E-03         2.36332         1.73579        -5.97991         1.68484        -5.30143         1.73579        -1.62147     455.251E-03    -227.365E-03    -227.886E-03    -227.639E-03     455.250E-03    -227.611E-03     1.43314E-03    -120.912E+06    -129.846E+06    -210.694E+06    -129.849E+06    -210.691E+06    -120.912E+06     121.072E+03         57.8800
             426     795.366E-06     72.1515E-03         3.43444         1.66442        -6.95171         1.83298        -5.35025         1.66442         1.49046     455.093E-03    -226.736E-03    -228.357E-03    -227.591E-03     455.093E-03    -227.502E-03     239.550E-06    -131.068E+06    -133.595E+06    -223.805E+06    -133.598E+06    -223.803E+06    -131.068E+06     33.8579E+03         57.8536
             427     13.5517E-03     71.4274E-03         1.50251         1.37831        -4.82125         1.37706        -4.81733         1.49984    -62.8368E-03     459.947E-03    -227.982E-03    -231.965E-03    -228.192E-03     456.174E-03    -227.982E-03     101.366E-03     118.011E+06     62.7240E+06    -7.44344E+06    -7.44311E+06     62.7236E+06     118.011E+06     84.9115E+03         77.9924
             428     12.7534E-03     71.2616E-03         1.49266         1.38796        -4.82698         1.38946        -4.82043         1.48461     378.225E-03     458.802E-03    -227.895E-03    -230.907E-03    -227.429E-03     455.324E-03    -227.895E-03     96.5368E-03     91.1450E+06     46.3306E+06    -14.5145E+06    -14.5143E+06     46.3304E+06     91.1450E+06     27.4489E+03         74.9924
             429     11.9544E-03     71.1438E-03         1.48296         1.39128        -4.82387         1.39718        -4.81671         1.46990     109.012E-03     456.985E-03    -227.881E-03    -229.104E-03    -226.844E-03     454.725E-03    -227.881E-03     78.5816E-03     75.8382E+06     31.4168E+06    -20.9580E+06    -20.9557E+06     31.4145E+06     75.8382E+06     23.0390E+03         71.3938
             430     11.1570E-03     71.0328E-03         1.47528         1.39238        -4.81319         1.40581        -4.80758         1.45624    -367.000E-03     456.556E-03    -227.890E-03    -228.667E-03    -226.848E-03     454.738E-03    -227.890E-03     70.2751E-03     66.8727E+06     23.7928E+06    -27.1377E+06    -27.1355E+06     23.7906E+06     66.8727E+06    -18.8027E+03         67.8460
             431     10.3591E-03     70.9391E-03         1.46763         1.39511        -4.80108         1.41562        -4.79668         1.44271    -131.980E-03     456.180E-03    -227.891E-03    -228.288E-03    -226.942E-03     454.833E-03    -227.891E-03     60.5111E-03     57.3551E+06     17.2868E+06    -34.5711E+06    -34.5650E+06     17.2807E+06     57.3551E+06     77.9092E+03         64.8280
             432     9.56231E-03     70.8586E-03         1.45552         1.39559        -4.78602         1.42052        -4.78492         1.42949     7.27602E-03     456.382E-03    -227.869E-03    -228.513E-03    -227.509E-03     455.378E-03    -227.869E-03     52.2297E-03     48.8045E+06     12.0836E+06    -42.4813E+06    -42.4748E+06     12.0770E+06     48.8045E+06     166.840E+03         62.5389
             433     8.76598E-03     70.7892E-03         1.44583         1.39592        -4.77931         1.41406        -4.76866         1.41704    -431.504E-03     456.082E-03    -227.803E-03    -228.278E-03    -227.532E-03     455.354E-03    -227.822E-03     44.4700E-03     40.9535E+06     7.10935E+06    -50.3716E+06    -50.3628E+06     7.10060E+06     40.9535E+06     543.319E+03         60.9436
             434     7.96931E-03     70.7308E-03         1.43344         1.39088        -4.76720         1.40335        -4.75228         1.40605    -113.839E-03     455.281E-03    -227.454E-03    -227.827E-03    -226.970E-03     454.764E-03    -227.794E-03     37.3862E-03     32.2350E+06     158.901E+03    -58.4673E+06    -58.4543E+06     145.923E+03     32.2350E+06     740.210E+03         59.8895
             435     7.17183E-03     70.6837E-03         1.41539         1.37896        -4.73953         1.39119        -4.73328         1.39690     373.485E-03     454.810E-03    -227.010E-03    -227.800E-03    -226.660E-03     454.459E-03    -227.800E-03     30.7552E-03     19.7202E+06    -13.0705E+06    -67.7190E+06    -67.6997E+06    -13.0898E+06     19.7202E+06     883.905E+03         59.2069
             436     6.37321E-03     70.6427E-03         1.40346         1.37695        -4.72157         1.38484        -4.71565         1.38965    -98.4856E-03     454.837E-03    -227.019E-03    -227.819E-03    -226.797E-03     454.616E-03    -227.819E-03     24.3209E-03     1.24115E+06    -43.4889E+06    -78.1872E+06    -78.1153E+06    -43.5608E+06     1.24115E+06     1.12862E+06         58.7603
             437     5.57705E-03     70.6158E-03         1.40711         1.38009        -4.71971         1.39030        -4.70626         1.38344     99.2759E-03     454.990E-03    -227.162E-03    -227.828E-03    -227.037E-03     454.865E-03    -227.828E-03     18.2731E-03    -19.1638E+06    -78.5109E+06    -91.4154E+06    -87.9916E+06    -81.9347E+06    -19.1638E+06     498.819E+03         58.4593
             438     4.78100E-03     70.5962E-03         1.40044         1.37428        -4.70219         1.38506        -4.69055         1.37802     494.823E-03     454.786E-03    -226.947E-03    -227.839E-03    -226.879E-03     454.718E-03    -227.839E-03     13.4757E-03    -39.6923E+06    -97.6025E+06    -112.402E+06    -97.6168E+06    -112.388E+06    -39.6923E+06    -76.2667E+03         58.2502
             439     3.98155E-03     70.5815E-03         1.39117         1.36967        -4.69555         1.38416        -4.69228         1.37341     138.726E-03     454.849E-03    -226.968E-03    -227.881E-03    -226.936E-03     454.817E-03    -227.881E-03     9.06143E-03    -61.2879E+06    -106.947E+06    -141.117E+06    -106.958E+06    -141.106E+06    -61.2879E+06     364.158E+03         58.1025
             440     3.18728E-03     70.5760E-03         1.39069         1.36238        -4.69828         1.35397        -4.67219         1.37301    -558.246E-03     455.315E-03    -227.371E-03    -227.944E-03    -227.399E-03     455.302E-03    -227.903E-03     5.75935E-03    -83.5258E+06    -115.512E+06    -166.997E+06    -115.527E+06    -166.983E+06    -83.5258E+06     218.703E+03         57.9987
             441     2.39002E-03     70.5712E-03         1.46601         1.36369        -4.77627         1.37617        -4.69706         1.37432     252.378E-03     455.477E-03    -227.512E-03    -227.966E-03    -227.568E-03     455.472E-03    -227.904E-03     3.62516E-03    -103.405E+06    -123.328E+06    -190.344E+06    -123.334E+06    -190.338E+06    -103.405E+06    -3.26159E+03         57.9277
             442     1.59156E-03     70.5737E-03         1.68475         1.38632        -5.00287         1.33668        -4.65480         1.38632        -1.11124     455.623E-03    -227.469E-03    -228.154E-03    -227.691E-03     455.621E-03    -227.931E-03     1.48578E-03    -118.511E+06    -128.719E+06    -210.385E+06    -128.727E+06    -210.377E+06    -118.511E+06     394.775E+03         57.8820
             443     796.890E-06     70.5750E-03         2.08724         1.34450        -5.34832         1.45347        -4.71455         1.34450    -47.2661E-03     455.846E-03    -227.133E-03    -228.713E-03    -228.467E-03     455.846E-03    -227.379E-03     356.058E-06    -129.681E+06    -133.116E+06    -223.340E+06    -133.124E+06    -223.331E+06    -129.681E+06     238.588E+03         57.8561
             444     13.5505E-03     69.8514E-03         1.38148         1.26657        -4.63153         1.37101        -4.62549         1.27100    -59.8718E-03     459.744E-03    -227.995E-03    -231.749E-03    -227.927E-03     455.922E-03    -227.995E-03     102.008E-03     117.822E+06     62.3504E+06    -7.45828E+06    -7.45458E+06     62.3467E+06     117.822E+06     179.644E+03         77.9264
             445     12.7524E-03     69.6863E-03         1.35605         1.24287        -4.58895         1.34886        -4.58176         1.24287     401.755E-03     459.052E-03    -227.911E-03    -231.142E-03    -227.674E-03     455.585E-03    -227.911E-03     96.2806E-03     91.0539E+06     46.2846E+06    -14.4826E+06    -14.4789E+06     46.2810E+06     91.0539E+06     138.448E+03         74.9595
             446     11.9551E-03     69.5684E-03         1.33007         1.21590        -4.53983         1.32331        -4.53307         1.21590     104.301E-03     457.085E-03    -227.885E-03    -229.200E-03    -226.977E-03     454.862E-03    -227.885E-03     77.9632E-03      75.923E+06     31.4687E+06    -20.8815E+06    -20.8794E+06     31.4666E+06      75.923E+06    -204.134E+03         71.3993
             447     11.1573E-03     69.4562E-03         1.30748         1.19054        -4.48864         1.30194        -4.48310         1.19054    -350.662E-03     456.574E-03    -227.887E-03    -228.687E-03    -226.889E-03     454.776E-03    -227.887E-03     69.8548E-03     66.6274E+06     23.0919E+06    -27.5382E+06    -27.5363E+06     23.0900E+06     66.6274E+06    -20.9837E+03         67.8793
             448     10.3595E-03     69.3650E-03         1.28423         1.16588        -4.43307         1.27996        -4.42880         1.16588    -142.028E-03     456.323E-03    -227.879E-03    -228.444E-03    -227.125E-03     455.004E-03    -227.879E-03     59.9157E-03     57.5662E+06     17.1513E+06    -34.6874E+06    -34.6790E+06     17.1428E+06     57.5662E+06     549.041E+03         64.8728
             449     9.56189E-03     69.2792E-03         1.25372         1.14234        -4.37428         1.25306        -4.37362         1.14234     16.6252E-03     456.026E-03    -227.643E-03    -228.384E-03    -227.174E-03     455.034E-03    -227.860E-03     51.8937E-03     48.7197E+06     12.0844E+06    -42.4269E+06    -42.4168E+06     12.0744E+06     48.7197E+06     638.004E+03         62.5814
             450     8.76548E-03     69.2122E-03         1.22997         1.12064        -4.33128         1.21623        -4.31754         1.12064    -434.952E-03     455.705E-03    -227.597E-03    -228.109E-03    -227.128E-03     454.973E-03    -227.845E-03     44.6022E-03     40.6225E+06     6.87922E+06    -50.2232E+06    -50.2182E+06     6.87423E+06     40.6225E+06     157.402E+03         60.9768
             451     7.96803E-03     69.1544E-03         1.19949         1.10142        -4.28691         1.17903        -4.26646         1.10142    -109.846E-03     455.695E-03    -227.751E-03    -227.944E-03    -227.337E-03     455.160E-03    -227.822E-03     38.1081E-03     32.2495E+06    -343.211E+03    -58.7191E+06    -58.7108E+06    -351.441E+03     32.2495E+06     282.064E+03         59.9128
             452     7.17172E-03     69.1064E-03         1.15486         1.08477        -4.22829         1.14696        -4.22039         1.08477     370.548E-03     455.344E-03    -227.442E-03    -227.902E-03    -227.208E-03     454.988E-03    -227.780E-03     30.9130E-03     19.5780E+06    -13.5537E+06    -68.1571E+06    -68.1410E+06    -13.5698E+06     19.5780E+06     751.275E+03         59.2223
             453     6.37571E-03     69.0686E-03         1.12583         1.07057        -4.18273         1.12135        -4.17824         1.07057    -96.4408E-03     454.486E-03    -226.701E-03    -227.785E-03    -226.480E-03     454.265E-03    -227.785E-03     24.3801E-03     1.75669E+06    -43.0447E+06    -77.5495E+06    -77.4818E+06    -43.1124E+06     1.75669E+06     920.721E+03         58.7701
             454     5.57722E-03     69.0385E-03         1.11824         1.05794        -4.15620         1.10777        -4.14573         1.05794     74.6325E-03     454.590E-03    -226.745E-03    -227.845E-03    -226.607E-03     454.452E-03    -227.845E-03     19.1626E-03    -18.2100E+06    -77.4791E+06    -89.9796E+06    -86.9924E+06    -80.4662E+06    -18.2100E+06     817.168E+03         58.4655
             455     4.77990E-03     69.0198E-03         1.09941         1.04699        -4.12002         1.08451        -4.10511         1.04699     544.997E-03     455.165E-03    -227.241E-03    -227.924E-03    -227.231E-03     455.091E-03    -227.860E-03     13.8937E-03    -39.4606E+06    -96.7259E+06    -112.632E+06    -96.9518E+06    -112.406E+06    -39.4606E+06     231.023E+03         58.2544
             456     3.98463E-03     69.0072E-03         1.08910         1.03742        -4.10103         1.07365        -4.08558         1.03742     41.5332E-03     455.012E-03    -227.090E-03    -227.922E-03    -227.122E-03     454.980E-03    -227.858E-03     9.11641E-03    -60.4965E+06    -106.158E+06    -141.942E+06    -106.173E+06    -141.927E+06    -60.4965E+06     30.9259E+03         58.1055
             457     3.18493E-03     68.9980E-03         1.06528         1.01165        -4.05842         1.03179        -4.04542         1.03213    -387.372E-03     455.038E-03    -227.145E-03    -227.893E-03    -227.132E-03     455.025E-03    -227.893E-03     5.50591E-03    -82.1739E+06    -114.882E+06    -166.598E+06    -114.922E+06    -166.557E+06    -82.1739E+06     447.762E+03         58.0009
             458     2.38839E-03     68.9968E-03         1.07961         1.00938        -4.07826         1.03887        -4.05799         1.02987    -67.8849E-03     455.462E-03    -227.435E-03    -228.028E-03    -227.522E-03     455.458E-03    -227.936E-03     2.42869E-03    -102.542E+06    -122.624E+06    -190.283E+06    -122.651E+06    -190.256E+06    -102.542E+06     269.638E+03         57.9294
             459     1.59309E-03     68.9949E-03         1.12156     999.418E-03        -4.09127     992.934E-03        -4.00321         1.03999    -494.959E-03     455.774E-03    -227.542E-03    -228.231E-03    -227.837E-03     455.773E-03    -227.937E-03     402.902E-06    -118.646E+06    -128.457E+06    -210.120E+06    -128.464E+06    -210.113E+06    -118.646E+06     197.229E+03         57.8833
             460     796.455E-06     68.9962E-03         1.60332     956.832E-03        -4.52844         1.10641        -4.07210     997.401E-03        -1.98184     455.794E-03    -227.304E-03    -228.490E-03    -228.311E-03     455.794E-03    -227.483E-03    -150.428E-06    -129.654E+06    -132.711E+06    -222.556E+06    -132.436E+06    -222.547E+06    -129.937E+06     274.999E+03         57.8570
             461     13.5498E-03     68.2753E-03         1.36991         1.04605        -4.44052         1.36163        -4.43224         1.04605    -67.8341E-03     459.694E-03    -228.018E-03    -231.677E-03    -227.892E-03     455.910E-03    -228.018E-03     101.461E-03     117.964E+06     62.2955E+06    -7.32417E+06    -7.31708E+06     62.2884E+06     117.964E+06    -71.3201E+03         77.8622
             462     12.7530E-03     68.1085E-03         1.31381         1.00651        -4.34964         1.30586        -4.34169         1.00651     419.575E-03     459.282E-03    -227.927E-03    -231.356E-03    -227.899E-03     455.825E-03    -227.927E-03     96.1778E-03     91.3140E+06     46.6600E+06    -14.1910E+06    -14.1839E+06     46.6529E+06     91.3140E+06    -126.170E+03         74.9284
             463     11.9556E-03     67.9926E-03         1.25696     968.726E-03        -4.25737         1.24995        -4.25037     968.726E-03     91.7586E-03     457.388E-03    -227.883E-03    -229.505E-03    -227.278E-03     455.161E-03    -227.883E-03     78.0670E-03     75.7540E+06     31.2155E+06    -20.9132E+06    -20.9111E+06     31.2133E+06     75.7540E+06     36.7876E+03         71.4058
             464     11.1569E-03     67.8823E-03         1.20301     932.998E-03        -4.16492         1.19758        -4.15948     932.998E-03    -337.180E-03     456.951E-03    -227.863E-03    -229.088E-03    -227.271E-03     455.135E-03    -227.863E-03     70.2711E-03     66.6009E+06     22.4377E+06    -27.6577E+06    -27.6433E+06     22.4232E+06     66.6009E+06     625.301E+03         67.9133
             465     10.3606E-03     67.7849E-03         1.14686     898.687E-03        -4.06813         1.14315        -4.06442     898.687E-03    -143.771E-03     456.328E-03    -227.832E-03    -228.496E-03    -227.159E-03     455.000E-03    -227.841E-03     60.1224E-03     57.8746E+06     16.7155E+06    -34.8014E+06    -34.7846E+06     16.6987E+06     57.8746E+06     676.620E+03         64.9178
             466     9.56383E-03     67.7063E-03         1.08838     866.369E-03        -3.97206         1.08806        -3.97175     866.369E-03     26.7938E-03     455.559E-03    -227.601E-03    -227.958E-03    -226.720E-03     454.560E-03    -227.840E-03     52.0975E-03     49.8981E+06     12.5217E+06    -41.8025E+06    -41.7906E+06     12.5097E+06     49.8981E+06     660.115E+03         62.6233
             467     8.76446E-03     67.6348E-03         1.04548     836.409E-03        -3.89925         1.02774        -3.88151     836.409E-03    -434.301E-03     455.503E-03    -227.607E-03    -227.896E-03    -226.931E-03     454.780E-03    -227.848E-03     44.2409E-03     41.1652E+06     7.25794E+06    -49.7164E+06    -49.6964E+06     7.23793E+06     41.1652E+06     694.310E+03         61.0091
             468     7.96803E-03     67.5778E-03     993.668E-03     809.515E-03        -3.82600     965.921E-03        -3.79826     809.515E-03    -107.929E-03     455.471E-03    -227.461E-03    -228.010E-03    -227.121E-03     454.961E-03    -227.840E-03     37.2076E-03     31.1921E+06    -994.424E+03    -59.1420E+06    -59.1240E+06    -1.01243E+06     31.1921E+06      404.81E+03         59.9352
             469     7.17166E-03     67.5270E-03     920.835E-03     786.117E-03        -3.73456     910.347E-03        -3.72408     786.117E-03     364.812E-03     455.003E-03    -227.045E-03    -227.958E-03    -226.805E-03     454.641E-03    -227.836E-03     31.2486E-03     19.0166E+06    -14.0825E+06    -68.3299E+06    -68.3207E+06    -14.0917E+06     19.0166E+06     87.0901E+03         59.2371
             470     6.37407E-03     67.4943E-03     870.156E-03     765.915E-03        -3.66090     867.091E-03        -3.65783     765.915E-03    -94.4332E-03     454.941E-03    -226.919E-03    -228.022E-03    -226.850E-03     454.703E-03    -227.853E-03     25.2880E-03     2.15336E+06    -43.3106E+06    -77.6285E+06    -77.5546E+06    -43.3845E+06     2.15336E+06     445.075E+03         58.7802
             471     5.57629E-03     67.4646E-03     843.710E-03     747.761E-03        -3.61024     836.488E-03        -3.60301     747.761E-03     46.2641E-03     454.883E-03    -226.839E-03    -228.044E-03    -226.868E-03     454.743E-03    -227.875E-03     19.2490E-03    -18.2227E+06    -78.0914E+06    -89.2528E+06    -87.7269E+06    -79.6173E+06    -18.2227E+06     747.753E+03         58.4730
             472     4.77946E-03     67.4412E-03     820.618E-03     732.029E-03        -3.56660     795.820E-03        -3.54180     732.029E-03     603.079E-03     455.025E-03    -227.072E-03    -227.952E-03    -227.065E-03     454.954E-03    -227.889E-03     13.5796E-03    -39.3820E+06    -96.8986E+06    -111.648E+06    -97.2563E+06    -111.291E+06    -39.3820E+06     172.030E+03         58.2602
             473     3.98239E-03     67.4304E-03     822.850E-03     718.350E-03        -3.55354     775.527E-03        -3.50621     718.350E-03    -60.5770E-03     455.462E-03    -227.310E-03    -228.152E-03    -227.573E-03     455.430E-03    -227.857E-03     9.19327E-03    -61.1262E+06    -106.935E+06    -142.600E+06    -106.951E+06    -142.584E+06    -61.1262E+06     93.9361E+03         58.1099
             474     3.18764E-03     67.4239E-03     781.735E-03     698.665E-03        -3.49391     728.974E-03        -3.45100     708.523E-03    -201.640E-03     455.459E-03    -227.395E-03    -228.063E-03    -227.686E-03     455.446E-03    -227.760E-03     5.32327E-03    -82.7816E+06    -116.014E+06    -167.179E+06    -116.063E+06    -167.130E+06    -82.7816E+06     261.977E+03         58.0039
             475     2.39077E-03     67.4177E-03     821.320E-03     691.629E-03        -3.53935     723.877E-03        -3.45176     701.487E-03    -415.277E-03     455.167E-03    -227.318E-03    -227.848E-03    -227.479E-03     455.164E-03    -227.685E-03     2.04275E-03    -102.036E+06    -122.689E+06    -189.799E+06    -122.725E+06    -189.763E+06    -102.036E+06     184.044E+03         57.9307
             476     1.59362E-03     67.4198E-03     931.213E-03     668.133E-03        -3.61723     664.389E-03        -3.39097     708.702E-03     162.486E-03     455.033E-03    -227.213E-03    -227.819E-03    -227.305E-03     455.032E-03    -227.728E-03     854.569E-06    -118.930E+06    -128.768E+06    -209.701E+06    -128.784E+06    -209.686E+06    -118.930E+06     478.217E+03         57.8831
             477     796.091E-06     67.4204E-03         2.54133     617.158E-03        -5.15852     782.016E-03        -3.43978     657.728E-03        -3.98681     455.537E-03    -227.309E-03    -228.227E-03    -227.732E-03     455.536E-03    -227.804E-03     387.906E-06    -129.907E+06    -133.295E+06    -222.551E+06    -132.438E+06    -222.535E+06    -130.780E+06     519.487E+03         57.8558
             478     13.5509E-03     66.6996E-03         1.36481     836.542E-03        -4.26159         1.35470        -4.25148     836.542E-03    -79.9203E-03     459.458E-03    -228.021E-03    -231.437E-03    -227.639E-03     455.660E-03    -228.021E-03     101.573E-03     117.791E+06     62.0837E+06    -7.49528E+06    -7.48934E+06     62.0778E+06     117.791E+06    -170.392E+03         77.8009
             479     12.7521E-03     66.5318E-03         1.28007     787.244E-03        -4.13001         1.27129        -4.12123     787.244E-03     432.061E-03     458.945E-03    -227.952E-03    -230.993E-03    -227.493E-03     455.445E-03    -227.952E-03     96.7562E-03     90.9485E+06     46.2552E+06    -14.6054E+06    -14.6004E+06     46.2503E+06     90.9485E+06    -142.564E+03         74.8974
             480     11.9540E-03     66.4167E-03         1.19253     740.082E-03        -3.99636         1.18467        -3.98850     740.082E-03     76.3186E-03     457.893E-03    -227.912E-03    -229.981E-03    -227.723E-03     455.634E-03    -227.912E-03     78.6642E-03     75.5067E+06     30.7180E+06    -21.4112E+06    -21.4039E+06     30.7106E+06     75.5067E+06     345.306E+03         71.4105
             481     11.1585E-03     66.3039E-03         1.10684     695.618E-03        -3.86342         1.10124        -3.85782     695.618E-03    -332.312E-03     457.382E-03    -227.866E-03    -229.517E-03    -227.683E-03     455.549E-03    -227.866E-03     70.6528E-03     66.4899E+06     22.0761E+06    -28.1688E+06    -28.1490E+06     22.0564E+06     66.4899E+06     761.838E+03         67.9455
             482     10.3602E-03     66.2106E-03         1.02089     653.357E-03        -3.73091         1.01776        -3.72778     653.357E-03    -151.071E-03     456.188E-03    -227.828E-03    -228.360E-03    -227.006E-03     454.843E-03    -227.837E-03     60.4704E-03     58.4746E+06     17.0998E+06    -34.4581E+06    -34.4439E+06     17.0855E+06     58.4746E+06     482.205E+03         64.9611
             483     9.56160E-03     66.1292E-03     936.648E-03     613.730E-03        -3.60323     936.553E-03        -3.60313     613.730E-03     28.7319E-03     455.846E-03    -227.808E-03    -228.037E-03    -227.014E-03     454.843E-03    -227.829E-03     52.1712E-03     50.3273E+06     12.2434E+06    -41.5455E+06    -41.5376E+06     12.2354E+06     50.3273E+06     471.741E+03         62.6646
             484     8.76633E-03     66.0594E-03     879.922E-03     576.848E-03        -3.50820     856.202E-03        -3.48448     576.848E-03    -439.977E-03     455.518E-03    -227.542E-03    -227.976E-03    -226.960E-03     454.782E-03    -227.822E-03     44.6825E-03     41.3445E+06     6.75629E+06    -49.7362E+06    -49.7178E+06     6.73787E+06     41.3445E+06     904.352E+03         61.0420
             485     7.96930E-03     65.9989E-03     814.128E-03     543.267E-03        -3.41148     776.568E-03        -3.37392     543.267E-03    -112.833E-03     454.967E-03    -227.082E-03    -227.884E-03    -226.613E-03     454.449E-03    -227.836E-03     37.3243E-03     31.9325E+06     19.0929E+03    -58.0573E+06    -58.0435E+06     5.29169E+03     31.9325E+06     559.596E+03         59.9583
             486     7.16995E-03     65.9561E-03     713.692E-03     513.607E-03        -3.28515     699.677E-03        -3.27113     513.607E-03     355.239E-03     454.758E-03    -226.883E-03    -227.875E-03    -226.543E-03     454.418E-03    -227.875E-03     30.2025E-03     19.5637E+06    -14.0826E+06    -67.5785E+06    -67.5642E+06    -14.0968E+06     19.5637E+06     179.187E+03         59.2525
             487     6.37224E-03     65.9140E-03     635.759E-03     487.922E-03        -3.18132     633.683E-03        -3.17925     487.922E-03    -99.3862E-03     455.141E-03    -227.074E-03    -228.066E-03    -227.026E-03     454.924E-03    -227.898E-03     24.0953E-03     2.07649E+06    -44.0772E+06    -77.8156E+06    -77.7053E+06    -44.1874E+06     2.07649E+06     353.351E+03         58.7909
             488     5.57834E-03     65.8874E-03     590.451E-03     465.331E-03        -3.10724     585.740E-03        -3.10253     465.331E-03     20.9546E-03     455.309E-03    -227.263E-03    -228.046E-03    -227.300E-03     455.177E-03    -227.878E-03     18.8025E-03    -17.9343E+06    -77.7897E+06    -88.2795E+06    -87.3114E+06    -78.7578E+06    -17.9343E+06     61.4347E+03         58.4809
             489     4.78051E-03     65.8674E-03     575.113E-03     445.717E-03        -3.06661     534.840E-03        -3.02634     445.717E-03     650.381E-03     455.077E-03    -227.222E-03    -227.854E-03    -227.151E-03     455.006E-03    -227.854E-03     13.6156E-03    -38.8365E+06    -97.1791E+06    -111.975E+06    -97.3768E+06    -111.778E+06    -38.8365E+06     306.512E+03         58.2662
             490     3.98312E-03     65.8526E-03     606.790E-03     428.427E-03        -3.08256     502.893E-03        -2.97866     428.427E-03    -161.342E-03     455.383E-03    -227.345E-03    -228.037E-03    -227.547E-03     455.353E-03    -227.806E-03     8.80090E-03    -61.0178E+06    -107.193E+06    -142.257E+06    -107.225E+06    -142.226E+06    -61.0178E+06     560.993E+03         58.1143
             491     3.18654E-03     65.8447E-03     584.309E-03     415.583E-03        -3.05033     447.832E-03        -2.91385     415.583E-03    -21.0992E-03     455.404E-03    -227.405E-03    -227.999E-03    -227.696E-03     455.392E-03    -227.696E-03     5.47741E-03    -82.6490E+06    -115.313E+06    -166.617E+06    -115.342E+06    -166.589E+06    -82.6490E+06    -116.287E+03         58.0066
             492     2.39053E-03     65.8442E-03     777.388E-03     405.170E-03        -3.23670     440.235E-03        -2.89954     405.170E-03    -749.123E-03     454.967E-03    -227.205E-03    -227.762E-03    -227.336E-03     454.963E-03    -227.627E-03     3.02744E-03    -102.467E+06    -123.175E+06    -191.057E+06    -123.191E+06    -191.042E+06    -102.467E+06    -100.435E+03         57.9320
             493     1.59273E-03     65.8445E-03         1.24596     405.497E-03        -3.69609     380.484E-03        -2.83061     405.497E-03     779.943E-03     455.097E-03    -227.272E-03    -227.825E-03    -227.489E-03     455.096E-03    -227.607E-03     1.22756E-03    -118.898E+06    -129.480E+06    -209.533E+06    -129.519E+06    -209.494E+06    -118.898E+06    -21.4876E+03         57.8830
             494     796.765E-06     65.8430E-03         4.29551     306.000E-03        -6.64818     517.511E-03        -2.87018     306.000E-03        -5.83562     455.143E-03    -227.040E-03    -228.103E-03    -227.195E-03     455.143E-03    -227.947E-03     50.1596E-06    -127.847E+06    -132.628E+06    -220.824E+06    -132.084E+06    -220.778E+06    -128.437E+06     160.048E+03         57.8548
             495     13.5498E-03     65.1227E-03         1.35904     652.245E-03        -4.10192         1.34781        -4.09069     652.245E-03    -86.6867E-03     459.446E-03    -228.033E-03    -231.414E-03    -227.614E-03     455.647E-03    -228.033E-03     101.689E-03     117.563E+06     61.6784E+06    -7.70944E+06    -7.70685E+06     61.6758E+06     117.563E+06     88.8048E+03         77.7411
             496     12.7516E-03     64.9587E-03         1.24953     595.559E-03        -3.93521         1.23991        -3.92559     595.559E-03     443.027E-03     459.090E-03    -227.960E-03    -231.130E-03    -227.679E-03     455.639E-03    -227.960E-03     96.1010E-03     90.8741E+06     46.0080E+06    -14.9089E+06    -14.9034E+06     46.0025E+06     90.8741E+06     389.682E+03         74.8679
             497     11.9543E-03     64.8372E-03         1.13710     541.291E-03        -3.76824         1.12783        -3.75896     541.291E-03     61.5343E-03     457.590E-03    -227.924E-03    -229.666E-03    -227.431E-03     455.355E-03    -227.924E-03     78.2265E-03     75.8372E+06     30.6558E+06    -21.2596E+06    -21.2481E+06     30.6443E+06     75.8372E+06     295.096E+03         71.4153
             498     11.1567E-03     64.7268E-03         1.02393     490.208E-03        -3.60247         1.01779        -3.59633     490.208E-03    -335.541E-03     457.187E-03    -227.895E-03    -229.292E-03    -227.468E-03     455.363E-03    -227.895E-03     70.4306E-03     66.8797E+06     22.2489E+06    -27.5885E+06    -27.5801E+06     22.2405E+06     66.8797E+06    -7.06327E+03         67.9751
             499     10.3599E-03     64.6353E-03     915.225E-03     441.880E-03        -3.44206     912.468E-03        -3.43930     441.880E-03    -171.040E-03     456.627E-03    -227.858E-03    -228.770E-03    -227.424E-03     455.282E-03    -227.858E-03     60.5384E-03     58.3876E+06     17.0871E+06    -34.3322E+06    -34.3258E+06     17.0807E+06     58.3876E+06     250.271E+03         65.0022
             500     9.56405E-03     64.5517E-03     811.504E-03     396.439E-03        -3.29060     811.236E-03        -3.29033     396.439E-03     18.0062E-03     456.049E-03    -227.752E-03    -228.297E-03    -227.211E-03     455.038E-03    -227.826E-03     52.4082E-03     49.8273E+06     11.5873E+06    -41.7660E+06    -41.7598E+06     11.5810E+06     49.8273E+06     500.914E+03         62.7052
             501     8.76558E-03     64.4829E-03     742.189E-03     354.144E-03        -3.17973     709.949E-03        -3.14749     354.144E-03    -457.567E-03     455.330E-03    -227.403E-03    -227.927E-03    -226.770E-03     454.591E-03    -227.821E-03     44.7123E-03     41.2306E+06     6.28700E+06    -49.6737E+06    -49.6706E+06     6.28398E+06     41.2306E+06     376.067E+03         61.0749
             502     7.96679E-03     64.4253E-03     666.514E-03     315.393E-03        -3.06582     615.484E-03        -3.01479     315.393E-03    -126.897E-03     455.038E-03    -227.194E-03    -227.844E-03    -226.678E-03     454.522E-03    -227.844E-03     37.2772E-03     32.5606E+06    -4.44475E+03    -57.9862E+06    -57.9745E+06    -16.1193E+03     32.5606E+06     713.625E+03         59.9821
             503     7.17210E-03     64.3762E-03     543.164E-03     280.538E-03        -2.90772     524.097E-03        -2.88866     280.538E-03     344.424E-03     455.147E-03    -227.293E-03    -227.854E-03    -226.949E-03     454.803E-03    -227.854E-03     30.4260E-03     20.3061E+06    -13.5176E+06    -67.0744E+06    -67.0548E+06    -13.5373E+06     20.3061E+06     866.415E+03         59.2689
             504     6.37600E-03     64.3407E-03     443.349E-03     249.865E-03        -2.77747     441.691E-03        -2.77581     249.865E-03    -119.392E-03     454.936E-03    -227.076E-03    -227.860E-03    -226.852E-03     454.711E-03    -227.860E-03     24.5129E-03     2.52161E+06    -42.6766E+06    -77.2290E+06    -77.1880E+06    -42.7175E+06     2.52161E+06     171.963E+03         58.8020
             505     5.57507E-03     64.3094E-03     378.160E-03     222.972E-03        -2.68322     374.954E-03        -2.68001     222.972E-03    -815.794E-06     455.071E-03    -227.206E-03    -227.866E-03    -227.072E-03     454.938E-03    -227.866E-03     18.8121E-03    -17.9465E+06    -77.2942E+06    -89.5675E+06    -87.6034E+06    -79.2583E+06    -17.9465E+06     150.877E+03         58.4885
             506     4.78011E-03     64.2904E-03     370.052E-03     199.989E-03        -2.64897     309.955E-03        -2.58888     199.989E-03     677.264E-03     455.497E-03    -227.638E-03    -227.859E-03    -227.611E-03     455.426E-03    -227.815E-03     13.7083E-03    -39.0764E+06    -97.2841E+06    -112.797E+06    -97.3902E+06    -112.691E+06    -39.0764E+06     533.490E+03         58.2716
             507     3.98435E-03     64.2760E-03     443.629E-03     180.095E-03        -2.70276     267.633E-03        -2.52676     180.095E-03    -251.850E-03     455.122E-03    -227.340E-03    -227.782E-03    -227.351E-03     455.089E-03    -227.738E-03     9.20318E-03    -60.5550E+06    -106.736E+06    -141.131E+06    -106.764E+06    -141.103E+06    -60.5550E+06    -22.8544E+03         58.1181
             508     3.18715E-03     64.2693E-03     491.614E-03     165.025E-03        -2.73867     206.870E-03        -2.45392     165.025E-03     129.673E-03     454.826E-03    -227.106E-03    -227.720E-03    -227.096E-03     454.815E-03    -227.720E-03     5.10939E-03    -82.4482E+06    -115.801E+06    -166.740E+06    -115.807E+06    -166.734E+06    -82.4482E+06     43.8947E+03         58.0093
             509     2.38913E-03     64.2683E-03     891.726E-03     153.811E-03        -3.13082     187.274E-03        -2.42637     153.811E-03        -1.02775     455.246E-03    -227.447E-03    -227.799E-03    -227.537E-03     455.243E-03    -227.707E-03     2.67615E-03    -102.346E+06    -122.830E+06    -190.905E+06    -122.835E+06    -190.901E+06    -102.346E+06     463.339E+03         57.9340
             510     1.59418E-03     64.2667E-03         1.84216     151.540E-03        -4.06485     137.999E-03        -2.36069     151.540E-03         1.29454     455.334E-03    -227.484E-03    -227.850E-03    -227.731E-03     455.333E-03    -227.602E-03     1.43834E-03    -119.359E+06    -128.514E+06    -208.910E+06    -128.550E+06    -208.874E+06    -119.359E+06    -27.5119E+03         57.8848
             511     797.490E-06     64.2686E-03         6.14266    -12.5346E-03        -8.21037     322.568E-03        -2.39028    -12.5346E-03        -7.45885     455.010E-03    -226.826E-03    -228.184E-03    -227.474E-03     455.009E-03    -227.535E-03     383.883E-06    -130.446E+06    -134.841E+06    -222.533E+06    -133.856E+06    -222.452E+06    -131.512E+06    -835.678E+03         57.8565
             512     13.5497E-03     63.5475E-03         1.35037     501.855E-03        -3.96742         1.33918        -3.95624     501.855E-03    -96.0172E-03     459.848E-03    -228.033E-03    -231.815E-03    -228.044E-03     456.077E-03    -228.033E-03     101.328E-03     118.078E+06     61.5695E+06    -7.61184E+06    -7.61122E+06     61.5689E+06     118.078E+06     83.5081E+03         77.6832
             513     12.7531E-03     63.3798E-03         1.22113     440.757E-03        -3.77357         1.21107        -3.76351     440.757E-03     441.729E-03     459.314E-03    -227.938E-03    -231.376E-03    -227.940E-03     455.877E-03    -227.938E-03     95.9138E-03     91.5868E+06     46.1984E+06    -14.6417E+06    -14.6369E+06     46.1937E+06     91.5868E+06     441.495E+03         74.8403
             514     11.9555E-03     63.2633E-03         1.09462     382.211E-03        -3.58682         1.08327        -3.57546     382.211E-03     40.5566E-03     457.158E-03    -227.902E-03    -229.256E-03    -227.024E-03     454.927E-03    -227.902E-03     78.1261E-03     75.7626E+06     30.6515E+06    -21.1247E+06    -21.1170E+06     30.6439E+06     75.7626E+06     300.535E+03         71.4205
             515     11.1567E-03     63.1509E-03     962.855E-03     326.747E-03        -3.39957     955.792E-03        -3.39251     326.747E-03    -343.947E-03     456.828E-03    -227.898E-03    -228.930E-03    -227.111E-03     455.009E-03    -227.898E-03     70.2678E-03     66.5306E+06     22.0619E+06    -27.4132E+06    -27.4087E+06     22.0574E+06     66.5306E+06    -186.661E+03         68.0039
             516     10.3598E-03     63.0559E-03     835.905E-03     274.182E-03        -3.22036     833.090E-03        -3.21754     274.182E-03    -198.299E-03     456.571E-03    -227.877E-03    -228.694E-03    -227.360E-03     455.237E-03    -227.877E-03     60.3014E-03     57.8750E+06     16.4923E+06    -34.2736E+06    -34.2679E+06     16.4866E+06     57.8750E+06    -12.6727E+03         65.0417
             517     9.56197E-03     62.9764E-03     717.917E-03     224.674E-03        -3.05261     716.568E-03        -3.05126     224.674E-03     5.61147E-03     455.997E-03    -227.779E-03    -228.218E-03    -227.125E-03     454.978E-03    -227.853E-03     52.6390E-03     49.1906E+06     10.8790E+06    -41.8961E+06    -41.8892E+06     10.8722E+06     49.1906E+06     387.570E+03         62.7441
             518     8.76534E-03     62.9065E-03     642.633E-03     178.485E-03        -2.93092     599.259E-03        -2.88755     178.485E-03    -469.669E-03     455.550E-03    -227.634E-03    -227.916E-03    -226.958E-03     454.807E-03    -227.849E-03     44.8344E-03     41.3485E+06     6.20891E+06    -49.5280E+06    -49.5243E+06     6.20523E+06     41.3485E+06     421.644E+03         61.1069
             519     7.96993E-03     62.8487E-03     557.609E-03     136.014E-03        -2.80366     490.144E-03        -2.73619     136.014E-03    -144.114E-03     455.173E-03    -227.311E-03    -227.862E-03    -226.785E-03     454.646E-03    -227.862E-03     37.7343E-03     33.1678E+06     109.786E+03    -57.7284E+06    -57.7161E+06     97.5023E+03     33.1678E+06     736.284E+03         60.0055
             520     7.17006E-03     62.8005E-03     412.900E-03     97.4500E-03        -2.62008     387.583E-03        -2.59477     97.4500E-03     345.030E-03     455.082E-03    -227.210E-03    -227.872E-03    -226.847E-03     454.718E-03    -227.872E-03     31.2782E-03     20.0728E+06    -13.2384E+06    -67.4252E+06    -67.4139E+06    -13.2497E+06     20.0728E+06     630.468E+03         59.2849
             521     6.37227E-03     62.7627E-03     299.402E-03     62.8486E-03        -2.46975     297.170E-03        -2.46752     62.8486E-03    -143.722E-03     455.423E-03    -227.390E-03    -228.034E-03    -227.345E-03     455.196E-03    -227.851E-03     24.6103E-03     1.97258E+06    -42.2550E+06    -77.2855E+06    -77.2760E+06    -42.2644E+06     1.97258E+06     385.374E+03         58.8127
             522     5.57897E-03     62.7351E-03     220.047E-03     31.9968E-03        -2.35884     217.001E-03        -2.35580     31.9968E-03    -13.1902E-03     455.318E-03    -227.330E-03    -227.988E-03    -227.386E-03     455.191E-03    -227.805E-03     18.3634E-03    -17.5694E+06    -76.8225E+06    -90.4597E+06    -86.8981E+06    -80.3841E+06    -17.5694E+06     739.105E+03         58.4957
             523     4.78037E-03     62.7115E-03     214.534E-03     5.60054E-03        -2.32819     137.292E-03        -2.25095     5.60054E-03     689.514E-03     454.888E-03    -227.076E-03    -227.812E-03    -227.054E-03     454.822E-03    -227.768E-03     13.1567E-03    -38.4702E+06    -96.7026E+06    -111.589E+06    -96.8054E+06    -111.486E+06    -38.4702E+06     672.909E+03         58.2766
             524     3.98350E-03     62.7005E-03     323.505E-03    -16.3612E-03        -2.41449     79.1195E-03        -2.17011    -16.3612E-03    -309.408E-03     454.801E-03    -226.990E-03    -227.811E-03    -227.002E-03     454.769E-03    -227.767E-03     9.19155E-03    -60.8842E+06    -106.567E+06    -140.008E+06    -106.611E+06    -139.964E+06    -60.8842E+06     272.771E+03         58.1220
             525     3.18628E-03     62.6943E-03     447.809E-03    -33.0977E-03        -2.52206     18.0847E-03        -2.09233    -33.0977E-03     229.916E-03     455.051E-03    -227.273E-03    -227.779E-03    -227.259E-03     455.038E-03    -227.779E-03     5.80933E-03    -82.4091E+06    -115.185E+06    -167.619E+06    -115.192E+06    -167.612E+06    -82.4091E+06    -244.065E+03         58.0129
             526     2.39070E-03     62.6910E-03         1.02672    -44.7580E-03        -3.09504    -15.2466E-03        -2.05307    -44.7580E-03        -1.22062     455.258E-03    -227.454E-03    -227.804E-03    -227.480E-03     455.254E-03    -227.775E-03     3.18674E-03    -102.041E+06    -123.021E+06    -191.037E+06    -123.033E+06    -191.025E+06    -102.041E+06     159.290E+03         57.9378
             527     1.59270E-03     62.6911E-03         2.34330    -47.6025E-03        -4.39377    -56.1625E-03        -1.99430    -47.6025E-03         1.67610     455.324E-03    -227.502E-03    -227.822E-03    -227.538E-03     455.322E-03    -227.784E-03     1.46505E-03    -118.615E+06    -129.409E+06    -208.716E+06    -129.427E+06    -208.698E+06    -118.615E+06     1.14700E+06         57.8890
             528     795.412E-06     62.6933E-03         7.50556    -278.714E-03        -9.30076     187.668E-03        -1.98286    -278.714E-03        -8.54826     455.554E-03    -227.007E-03    -228.547E-03    -227.507E-03     455.553E-03    -228.046E-03     958.217E-06    -129.252E+06    -133.585E+06    -222.061E+06    -132.446E+06    -221.938E+06    -130.513E+06     1.03955E+06         57.8611
             529     13.5508E-03     61.9710E-03         1.34246     392.691E-03        -3.86704         1.33210        -3.85667     392.691E-03    -100.961E-03     459.872E-03    -228.031E-03    -231.841E-03    -228.003E-03     456.034E-03    -228.031E-03     102.176E-03     118.394E+06     61.3579E+06    -7.61814E+06    -7.61415E+06     61.3539E+06     118.394E+06     315.828E+03         77.6253
             530     12.7524E-03     61.8027E-03         1.20279     329.916E-03        -3.66220         1.19240        -3.65181     329.916E-03     438.016E-03     459.377E-03    -227.939E-03    -231.437E-03    -227.942E-03     455.882E-03    -227.939E-03     96.6251E-03     91.7027E+06     46.1863E+06    -14.5417E+06    -14.5364E+06     46.1809E+06     91.7027E+06    -28.2094E+03         74.8103
             531     11.9544E-03     61.6884E-03         1.06981     269.551E-03        -3.46820         1.05607        -3.45446     269.551E-03     22.7347E-03     457.602E-03    -227.890E-03    -229.712E-03    -227.487E-03     455.377E-03    -227.890E-03     78.0506E-03     76.2785E+06     31.4393E+06    -20.7084E+06    -20.7020E+06     31.4329E+06     76.2785E+06    -9.54206E+03         71.4239
             532     11.1578E-03     61.5738E-03     927.472E-03     211.883E-03        -3.26877     919.485E-03        -3.26079     211.883E-03    -345.828E-03     456.740E-03    -227.870E-03    -228.870E-03    -227.054E-03     454.924E-03    -227.870E-03     70.2240E-03     66.4372E+06     21.9907E+06    -27.3371E+06    -27.3342E+06     21.9879E+06     66.4372E+06     165.071E+03         68.0325
             533     10.3596E-03     61.4809E-03     788.254E-03     156.944E-03        -3.07655     785.015E-03        -3.07331     156.944E-03    -220.181E-03     456.053E-03    -227.867E-03    -228.186E-03    -226.861E-03     454.728E-03    -227.867E-03     60.0118E-03     57.2091E+06     15.3675E+06    -34.4608E+06    -34.4590E+06     15.3657E+06     57.2091E+06    -31.8921E+03         65.0807
             534     9.56256E-03     61.3991E-03     660.333E-03     105.044E-03        -2.89798     656.467E-03        -2.89412     105.044E-03     3.29240E-03     455.976E-03    -227.864E-03    -228.112E-03    -227.124E-03     454.989E-03    -227.864E-03     51.7921E-03     49.5110E+06     10.6995E+06    -41.5426E+06    -41.5399E+06     10.6969E+06     49.5110E+06     146.903E+03         62.7820
             535     8.76523E-03     61.3300E-03     582.624E-03     56.5122E-03        -2.77167     528.008E-03        -2.71706     56.5122E-03    -463.635E-03     455.481E-03    -227.533E-03    -227.948E-03    -226.904E-03     454.764E-03    -227.860E-03     44.0580E-03     41.3910E+06     6.02775E+06    -49.5122E+06    -49.5090E+06     6.02464E+06     41.3910E+06     348.526E+03         61.1379
             536     7.96624E-03     61.2721E-03     492.973E-03     11.6583E-03        -2.63804     409.512E-03        -2.55458     11.6583E-03    -156.791E-03     455.101E-03    -227.225E-03    -227.876E-03    -226.708E-03     454.584E-03    -227.876E-03     37.3811E-03     32.3499E+06    -523.416E+03    -58.1350E+06    -58.1314E+06    -526.969E+03     32.3499E+06     333.585E+03         60.0279
             537     7.17128E-03     61.2251E-03     329.373E-03    -29.3882E-03        -2.43437     297.648E-03        -2.40264    -29.3882E-03     359.493E-03     455.287E-03    -227.405E-03    -227.882E-03    -227.047E-03     454.929E-03    -227.882E-03     31.0250E-03     20.0070E+06    -13.1255E+06    -67.0552E+06    -67.0322E+06    -13.1485E+06     20.0070E+06     717.546E+03         59.3000
             538     6.37530E-03     61.1845E-03     199.503E-03    -66.4309E-03        -2.26655     196.713E-03        -2.26376    -66.4309E-03    -160.336E-03     455.439E-03    -227.408E-03    -228.031E-03    -227.365E-03     455.214E-03    -227.849E-03     24.5970E-03     1.71064E+06    -42.1966E+06    -77.1991E+06    -77.1713E+06    -42.2244E+06     1.71064E+06     791.850E+03         58.8226
             539     5.57686E-03     61.1562E-03     113.298E-03    -99.6434E-03        -2.14461     109.294E-03        -2.14061    -99.6434E-03    -9.21113E-03     455.182E-03    -227.186E-03    -227.996E-03    -227.232E-03     455.045E-03    -227.813E-03     19.1686E-03    -18.1360E+06    -77.1337E+06    -90.6674E+06    -87.2513E+06    -80.5498E+06    -18.1360E+06     496.311E+03         58.5025
             540     4.78156E-03     61.1383E-03     112.298E-03    -128.794E-03        -2.11573     26.1016E-03        -2.02954    -128.794E-03     687.481E-03     454.691E-03    -226.878E-03    -227.813E-03    -226.800E-03     454.614E-03    -227.813E-03     14.2681E-03    -38.7182E+06    -96.7943E+06    -111.058E+06    -96.8535E+06    -110.999E+06    -38.7182E+06     531.979E+03         58.2818
             541     3.98285E-03     61.1248E-03     229.791E-03    -153.041E-03        -2.21215    -48.5242E-03        -1.93384    -153.041E-03    -323.041E-03     454.815E-03    -226.957E-03    -227.859E-03    -226.921E-03     454.779E-03    -227.859E-03     9.65294E-03    -59.9547E+06    -105.567E+06    -138.590E+06    -105.610E+06    -138.546E+06    -59.9547E+06     499.105E+03         58.1268
             542     3.18650E-03     61.1172E-03     391.314E-03    -171.321E-03        -2.35534    -112.870E-03        -1.85116    -171.321E-03     269.165E-03     455.257E-03    -227.362E-03    -227.895E-03    -227.348E-03     455.243E-03    -227.895E-03     5.85528E-03    -81.3420E+06    -114.361E+06    -167.901E+06    -114.392E+06    -167.870E+06    -81.3420E+06     462.178E+03         58.0178
             543     2.38885E-03     61.1151E-03         1.07079    -184.512E-03        -3.01939    -150.582E-03        -1.79802    -184.512E-03        -1.31351     455.418E-03    -227.507E-03    -227.912E-03    -227.502E-03     455.414E-03    -227.912E-03     3.22186E-03    -101.524E+06    -122.637E+06    -191.896E+06    -122.667E+06    -191.865E+06    -101.524E+06     497.430E+03         57.9429
             544     1.59295E-03     61.1152E-03         2.55473    -192.108E-03        -4.49415    -184.548E-03        -1.75487    -192.108E-03         1.84432     455.693E-03    -227.728E-03    -227.965E-03    -227.788E-03     455.692E-03    -227.904E-03     1.38582E-03    -117.977E+06    -129.022E+06    -208.480E+06    -128.325E+06    -208.457E+06    -118.698E+06     -108.25E+03         57.8943
             545     797.540E-06     61.1146E-03         8.10825    -511.928E-03        -9.74001     123.821E-03        -1.75558    -511.928E-03        -9.03730     455.753E-03    -227.255E-03    -228.498E-03    -227.575E-03     455.752E-03    -228.177E-03    -264.048E-06    -126.833E+06    -130.882E+06    -219.979E+06    -130.140E+06    -219.804E+06    -127.749E+06    -429.892E+03         57.8664
             546     13.5492E-03     60.3936E-03         1.34398     328.528E-03        -3.81628         1.33411        -3.80641     328.528E-03    -96.1304E-03     459.779E-03    -228.036E-03    -231.744E-03    -227.928E-03     455.964E-03    -228.036E-03     101.961E-03     118.448E+06     61.2828E+06    -7.53731E+06    -7.52752E+06     61.2730E+06     118.448E+06     451.191E+03         77.5663
             547     12.7517E-03     60.2278E-03         1.19972     266.293E-03        -3.61145         1.18866        -3.60039     266.293E-03     446.137E-03     459.464E-03    -227.940E-03    -231.524E-03    -228.074E-03     456.014E-03    -227.940E-03     96.1416E-03     91.8589E+06     46.5969E+06    -14.2676E+06    -14.2618E+06     46.5911E+06     91.8589E+06    -321.655E+03         74.7794
             548     11.9557E-03     60.1083E-03         1.06237     206.230E-03        -3.41655         1.04677        -3.40095     206.230E-03     17.3470E-03     457.743E-03    -227.878E-03    -229.865E-03    -227.665E-03     455.543E-03    -227.878E-03     77.6217E-03      76.113E+06     31.2769E+06    -21.0511E+06    -21.0381E+06     31.2639E+06      76.113E+06    -556.811E+03         71.4260
             549     11.1580E-03     60.0002E-03     912.875E-03     148.576E-03        -3.21136     904.571E-03        -3.20306     148.576E-03    -328.921E-03     456.769E-03    -227.849E-03    -228.920E-03    -227.116E-03     454.966E-03    -227.849E-03     70.0655E-03     66.5783E+06     21.7315E+06    -27.6521E+06    -27.6376E+06     21.7171E+06     66.5783E+06     25.4370E+03         68.0597
             550     10.3601E-03     59.9043E-03     769.727E-03     93.4441E-03        -3.01351     765.692E-03        -3.00948     93.4441E-03    -226.965E-03     456.056E-03    -227.842E-03    -228.214E-03    -226.865E-03     454.707E-03    -227.842E-03     60.5125E-03     57.3885E+06     15.4314E+06    -34.5898E+06    -34.5791E+06     15.4207E+06     57.3885E+06     619.795E+03         65.1194
             551     9.56273E-03     59.8225E-03     640.527E-03     41.0106E-03        -2.83289     632.975E-03        -2.82534     41.0106E-03     13.0622E-03     455.748E-03    -227.747E-03    -228.002E-03    -226.903E-03     454.749E-03    -227.846E-03     52.1137E-03     49.1221E+06     10.6486E+06    -41.9171E+06    -41.9100E+06     10.6415E+06     49.1221E+06     471.837E+03         62.8202
             552     8.76579E-03     59.7534E-03     561.293E-03    -8.21972E-03        -2.70709     497.088E-03        -2.64288    -8.21972E-03    -443.163E-03     455.542E-03    -227.484E-03    -228.058E-03    -226.975E-03     454.821E-03    -227.846E-03     44.1291E-03     40.9075E+06     5.94705E+06    -49.6355E+06    -49.6332E+06     5.94475E+06     40.9075E+06     195.373E+03         61.1689
             553     7.96953E-03     59.6979E-03     468.023E-03    -53.8445E-03        -2.57042     372.720E-03        -2.47511    -53.8445E-03    -165.647E-03     455.410E-03    -227.382E-03    -228.028E-03    -227.072E-03     454.909E-03    -227.837E-03     36.8351E-03     31.4231E+06    -1.15038E+06    -58.5218E+06    -58.5214E+06    -1.15072E+06     31.4231E+06     29.5985E+03         60.0504
             554     7.17055E-03     59.6457E-03     290.926E-03    -95.7581E-03        -2.35393     254.808E-03        -2.31781    -95.7581E-03     382.605E-03     454.970E-03    -227.133E-03    -227.836E-03    -226.784E-03     454.620E-03    -227.836E-03     30.7050E-03     19.3508E+06    -13.8631E+06    -68.1606E+06    -68.1401E+06    -13.8835E+06     19.3508E+06     519.589E+03         59.3150
             555     6.37328E-03     59.6091E-03     150.978E-03    -133.685E-03        -2.17818     147.130E-03        -2.17433    -133.685E-03    -175.407E-03     454.505E-03    -226.623E-03    -227.882E-03    -226.391E-03     454.273E-03    -227.882E-03     24.9924E-03     2.52574E+06    -41.2616E+06    -77.5418E+06    -77.5009E+06    -41.3026E+06     2.52574E+06     910.118E+03         58.8323
             556     5.57696E-03     59.5802E-03     60.3612E-03    -167.691E-03        -2.05198     53.1999E-03        -2.04482    -167.691E-03     11.9184E-03     454.743E-03    -226.787E-03    -227.956E-03    -226.644E-03     454.599E-03    -227.956E-03     19.6044E-03    -18.4154E+06    -76.4620E+06    -90.6523E+06    -87.3730E+06    -79.7413E+06    -18.4154E+06     475.648E+03         58.5093
             557     4.77823E-03     59.5616E-03     52.0859E-03    -197.987E-03        -2.01104    -29.3639E-03        -1.92959    -197.987E-03     677.765E-03     455.414E-03    -227.382E-03    -228.032E-03    -227.363E-03     455.336E-03    -227.973E-03     14.2194E-03    -39.7430E+06    -97.0551E+06    -111.038E+06    -97.0605E+06    -111.033E+06    -39.7430E+06    -137.452E+03         58.2875
             558     3.98314E-03     59.5486E-03     150.679E-03    -223.990E-03        -2.08476    -107.593E-03        -1.82648    -223.990E-03    -295.238E-03     455.443E-03    -227.441E-03    -228.002E-03    -227.464E-03     455.408E-03    -227.944E-03     9.48857E-03    -60.4981E+06    -106.410E+06    -139.407E+06    -106.421E+06    -139.397E+06    -60.4981E+06     186.526E+03         58.1321
             559     3.18570E-03     59.5407E-03     295.915E-03    -244.493E-03        -2.21468    -175.117E-03        -1.74365    -244.493E-03     255.465E-03     455.445E-03    -227.415E-03    -228.030E-03    -227.518E-03     455.433E-03    -227.915E-03     5.48464E-03    -81.4716E+06    -115.143E+06    -167.434E+06    -115.170E+06    -167.406E+06    -81.4716E+06     1.01330E+06         58.0227
             560     2.38965E-03     59.5389E-03     968.339E-03    -259.092E-03        -2.87031    -224.038E-03        -1.67793    -259.092E-03        -1.29921     455.759E-03    -227.644E-03    -228.115E-03    -227.933E-03     455.756E-03    -227.823E-03     2.12544E-03    -101.529E+06    -122.081E+06    -190.241E+06    -122.109E+06    -190.213E+06    -101.529E+06     282.539E+03         57.9472
             561     1.59282E-03     59.5367E-03         2.43394    -269.272E-03        -4.32284    -252.033E-03        -1.63686    -269.272E-03         1.79893     455.455E-03    -227.545E-03    -227.910E-03    -227.773E-03     455.454E-03    -227.681E-03     191.264E-06    -118.009E+06    -128.533E+06    -208.059E+06    -127.838E+06    -208.033E+06    -118.730E+06    -732.669E+03         57.8978
             562     795.588E-06     59.5392E-03         7.99882    -660.403E-03        -9.48534     113.819E-03        -1.60034    -660.403E-03        -8.98731     455.198E-03    -227.205E-03    -227.993E-03    -227.867E-03     455.196E-03    -227.330E-03    -320.995E-06    -128.534E+06    -134.186E+06    -221.978E+06    -132.032E+06    -221.852E+06    -130.815E+06    -1.02649E+06         57.8693
             563     13.5508E-03     58.8169E-03         1.35640     310.260E-03        -3.82289         1.34625        -3.81275     310.260E-03    -88.8122E-03     459.921E-03    -228.002E-03    -231.919E-03    -228.170E-03     456.172E-03    -228.002E-03     101.095E-03     118.687E+06     61.3850E+06    -7.25985E+06    -7.25144E+06     61.3766E+06     118.687E+06     172.558E+03         77.5095
             564     12.7535E-03     58.6510E-03         1.21067     250.698E-03        -3.62405         1.19893        -3.61231     250.698E-03     461.801E-03     458.910E-03    -227.912E-03    -230.999E-03    -227.565E-03     455.477E-03    -227.912E-03     95.9503E-03     91.9003E+06     46.3806E+06    -14.2498E+06    -14.2453E+06     46.3761E+06     91.9003E+06     169.645E+03         74.7499
             565     11.9548E-03     58.5315E-03         1.07045     193.115E-03        -3.43166         1.05400        -3.41521     193.115E-03     17.1676E-03     457.220E-03    -227.885E-03    -229.335E-03    -227.086E-03     454.971E-03    -227.885E-03     78.4175E-03     75.8212E+06     30.8581E+06    -21.2942E+06    -21.2753E+06     30.8393E+06     75.8212E+06     156.266E+03         71.4267
             566     11.1575E-03     58.4243E-03     918.854E-03     137.715E-03        -3.22731     910.616E-03        -3.21907     137.715E-03    -300.900E-03     457.171E-03    -227.865E-03    -229.306E-03    -227.473E-03     455.339E-03    -227.865E-03     70.6241E-03     65.9035E+06     21.1153E+06    -28.4352E+06    -28.4133E+06     21.0934E+06     65.9035E+06     186.841E+03         68.0850
             567     10.3605E-03     58.3278E-03     776.874E-03     84.6619E-03        -3.03226     771.951E-03        -3.02733     84.6619E-03    -222.873E-03     456.261E-03    -227.761E-03    -228.500E-03    -227.065E-03     454.906E-03    -227.841E-03     60.7017E-03     57.3274E+06     15.6170E+06    -34.8997E+06    -34.8889E+06     15.6063E+06     57.3274E+06     548.273E+03         65.1576
             568     9.56272E-03     58.2474E-03     652.462E-03     33.9276E-03        -2.85784     640.958E-03        -2.84634     33.9276E-03     27.2618E-03     455.553E-03    -227.664E-03    -227.889E-03    -226.697E-03     454.540E-03    -227.843E-03     52.4434E-03     48.6279E+06     11.0736E+06    -41.9765E+06    -41.9686E+06     11.0657E+06     48.6279E+06     470.145E+03         62.8589
             569     8.76448E-03     58.1769E-03     574.410E-03    -13.9623E-03        -2.73641     504.721E-03        -2.66672    -13.9623E-03    -415.687E-03     455.690E-03    -227.617E-03    -228.073E-03    -227.104E-03     454.952E-03    -227.847E-03     44.7292E-03     40.2430E+06     5.92691E+06    -49.8399E+06    -49.8377E+06     5.92463E+06     40.2430E+06     69.8859E+03         61.2010
             570     7.96798E-03     58.1181E-03     475.924E-03    -58.3365E-03        -2.59952     375.954E-03        -2.49955    -58.3365E-03    -171.089E-03     455.475E-03    -227.447E-03    -228.027E-03    -227.112E-03     454.949E-03    -227.837E-03     37.7665E-03     31.6781E+06    -1.20652E+06    -58.6194E+06    -58.6074E+06    -1.21850E+06     31.6781E+06     405.080E+03         60.0741
             571     7.17286E-03     58.0726E-03     293.408E-03    -98.9544E-03        -2.37920     255.802E-03        -2.34160    -98.9544E-03     411.254E-03     454.706E-03    -226.856E-03    -227.851E-03    -226.487E-03     454.338E-03    -227.851E-03     31.4724E-03     19.1858E+06    -14.2166E+06    -68.2491E+06    -68.2372E+06    -14.2285E+06     19.1858E+06     440.546E+03         59.3312
             572     6.37399E-03     58.0334E-03     157.566E-03    -135.988E-03        -2.20407     152.097E-03        -2.19860    -135.988E-03    -194.907E-03     454.464E-03    -226.543E-03    -227.920E-03    -226.313E-03     454.234E-03    -227.920E-03     24.6942E-03     2.23556E+06    -41.6595E+06    -77.4994E+06    -77.4771E+06    -41.6818E+06     2.23556E+06     176.276E+03         58.8432
             573     5.57473E-03     58.0058E-03     72.4179E-03    -169.698E-03        -2.08325     57.9313E-03        -2.06876    -169.698E-03     42.6057E-03     454.939E-03    -226.945E-03    -227.994E-03    -226.817E-03     454.811E-03    -227.994E-03     18.4569E-03    -17.7474E+06    -76.1071E+06    -89.9080E+06    -86.9535E+06    -79.0616E+06    -17.7474E+06     470.111E+03         58.5170
             574     4.77964E-03     57.9824E-03     38.9952E-03    -200.051E-03        -2.02097    -25.8690E-03        -1.95610    -200.051E-03     654.848E-03     455.511E-03    -227.459E-03    -228.051E-03    -227.452E-03     455.445E-03    -227.993E-03     13.1083E-03    -39.5225E+06    -96.7756E+06    -110.657E+06    -96.8498E+06    -110.583E+06    -39.5225E+06     305.644E+03         58.2931
             575     3.98267E-03     57.9714E-03     82.4011E-03    -226.420E-03        -2.04119    -105.079E-03        -1.85371    -226.420E-03    -240.633E-03     455.850E-03    -227.631E-03    -228.218E-03    -227.916E-03     455.823E-03    -227.907E-03     8.26223E-03    -61.1224E+06    -106.432E+06    -140.370E+06    -106.437E+06    -140.365E+06    -61.1224E+06     122.941E+03         58.1362
             576     3.18651E-03     57.9650E-03     168.237E-03    -248.227E-03        -2.11255    -169.575E-03        -1.77474    -248.227E-03     192.079E-03     455.631E-03    -227.496E-03    -228.135E-03    -227.855E-03     455.621E-03    -227.766E-03     4.83345E-03    -81.9879E+06    -114.842E+06    -166.489E+06    -114.847E+06    -166.484E+06    -81.9879E+06     85.9317E+03         58.0254
             577     2.39046E-03     57.9589E-03     730.473E-03    -263.124E-03        -2.65893    -232.299E-03        -1.69616    -263.124E-03        -1.18885     455.323E-03    -227.410E-03    -227.913E-03    -227.698E-03     455.319E-03    -227.622E-03     2.40097E-03    -101.713E+06    -122.366E+06    -188.767E+06    -122.375E+06    -188.758E+06    -101.713E+06    -198.607E+03         57.9486
             578     1.59497E-03     57.9633E-03         2.03413    -276.248E-03        -3.93594    -244.269E-03        -1.65754    -276.248E-03         1.61683     455.100E-03    -227.263E-03    -227.836E-03    -227.618E-03     455.098E-03    -227.479E-03     638.171E-06    -117.918E+06    -128.735E+06    -208.910E+06    -128.747E+06    -208.899E+06    -117.918E+06     141.048E+03         57.8979
             579     797.812E-06     57.9631E-03         7.19881    -718.948E-03        -8.63065     150.144E-03        -1.58198    -718.948E-03        -8.31051     454.755E-03    -226.731E-03    -228.024E-03    -227.260E-03     454.753E-03    -227.493E-03     337.028E-06    -127.480E+06    -134.449E+06    -222.946E+06    -132.920E+06    -222.914E+06    -129.040E+06     699.118E+03         57.8686
             580     13.5515E-03     57.2418E-03         1.37416     337.625E-03        -3.88609         1.36289        -3.87482     337.625E-03    -87.5669E-03     459.779E-03    -227.986E-03    -231.793E-03    -227.959E-03     455.946E-03    -227.986E-03     102.090E-03     118.869E+06     61.4534E+06    -7.16398E+06    -7.15748E+06     61.4469E+06     118.869E+06     50.9427E+03         77.4530
             581     12.7530E-03     57.0741E-03         1.23136     283.063E-03        -3.69752         1.21920        -3.68536     283.063E-03     478.237E-03     458.622E-03    -227.916E-03    -230.706E-03    -227.206E-03     455.123E-03    -227.916E-03     96.6167E-03     91.5973E+06     45.7877E+06    -14.6276E+06    -14.6205E+06     45.7805E+06     91.5973E+06     653.562E+03         74.7194
             582     11.9543E-03     56.9601E-03         1.09310     230.301E-03        -3.51360         1.07691        -3.49741     230.301E-03     18.1736E-03     457.153E-03    -227.910E-03    -229.243E-03    -226.971E-03     454.881E-03    -227.910E-03     78.8481E-03     76.0593E+06     30.8185E+06    -20.8331E+06    -20.8174E+06     30.8029E+06     76.0593E+06     841.935E+03         71.4272
             583     11.1566E-03     56.8425E-03     947.402E-03     179.371E-03        -3.31900     939.540E-03        -3.31114     179.371E-03    -272.372E-03     457.182E-03    -227.898E-03    -229.284E-03    -227.444E-03     455.342E-03    -227.898E-03     70.6308E-03     66.4144E+06     21.6648E+06    -27.1374E+06    -27.1232E+06     21.6506E+06     66.4144E+06     639.811E+03         68.1105
             584     10.3603E-03     56.7540E-03     811.058E-03     130.450E-03        -3.13370     805.479E-03        -3.12812     130.450E-03    -214.122E-03     456.455E-03    -227.787E-03    -228.668E-03    -227.253E-03     455.119E-03    -227.867E-03     60.3511E-03     56.8081E+06     15.2805E+06    -34.5060E+06    -34.5022E+06     15.2768E+06     56.8081E+06     311.426E+03         65.1961
             585     9.56223E-03     56.6707E-03     691.620E-03     83.6087E-03        -2.96966     677.395E-03        -2.95543     83.6087E-03     41.1691E-03     455.920E-03    -227.772E-03    -228.148E-03    -227.042E-03     454.893E-03    -227.851E-03     52.7934E-03     48.8111E+06     11.2919E+06    -41.7072E+06    -41.6989E+06     11.2836E+06     48.8111E+06     462.672E+03         62.8990
             586     8.76626E-03     56.6004E-03     615.105E-03     39.3826E-03        -2.85511     545.900E-03        -2.78590     39.3826E-03    -385.458E-03     455.460E-03    -227.568E-03    -227.892E-03    -226.869E-03     454.724E-03    -227.854E-03     44.6639E-03     40.4260E+06     5.93891E+06    -49.9118E+06    -49.8994E+06     5.92659E+06     40.4260E+06     528.472E+03         61.2351
             587     7.96816E-03     56.5423E-03     515.584E-03    -1.57106E-03        -2.72348     419.226E-03        -2.62712    -1.57106E-03    -170.116E-03     455.097E-03    -227.223E-03    -227.874E-03    -226.710E-03     454.584E-03    -227.874E-03     37.1886E-03     31.4142E+06    -1.43197E+06    -58.6342E+06    -58.6096E+06    -1.45655E+06     31.4142E+06     374.693E+03         60.0995
             588     7.16881E-03     56.4955E-03     339.141E-03    -38.9626E-03        -2.51298     303.251E-03        -2.47709    -38.9626E-03     445.427E-03     455.080E-03    -227.190E-03    -227.890E-03    -226.843E-03     454.734E-03    -227.890E-03     30.4653E-03     19.1889E+06    -13.7875E+06    -67.5825E+06    -67.5633E+06    -13.8067E+06     19.1889E+06     178.837E+03         59.3490
             589     6.37301E-03     56.4582E-03     216.429E-03    -73.3620E-03        -2.35062     208.611E-03        -2.34280    -73.3620E-03    -210.907E-03     455.192E-03    -227.302E-03    -227.890E-03    -227.079E-03     454.969E-03    -227.890E-03     24.3409E-03     1.61204E+06    -41.8341E+06    -77.5383E+06    -77.5342E+06    -41.8382E+06     1.61204E+06    -34.6144E+03         58.8553
             590     5.57844E-03     56.4276E-03     146.422E-03    -105.386E-03        -2.24314     121.399E-03        -2.21812    -105.386E-03     84.1293E-03     455.221E-03    -227.339E-03    -227.882E-03    -227.212E-03     455.094E-03    -227.882E-03     18.3574E-03    -17.6150E+06    -76.4959E+06    -90.3278E+06    -87.3736E+06    -79.4501E+06    -17.6150E+06    -58.1363E+03         58.5249
             591     4.77973E-03     56.4077E-03     87.2621E-03    -134.954E-03        -2.15977     41.4312E-03        -2.11394    -134.954E-03     612.286E-03     455.147E-03    -227.292E-03    -227.855E-03    -227.228E-03     455.083E-03    -227.855E-03     13.0512E-03    -38.3208E+06    -96.5896E+06    -110.265E+06    -96.7113E+06    -110.144E+06    -38.3208E+06     470.629E+03         58.2976
             592     3.98326E-03     56.3924E-03     50.8116E-03    -160.483E-03        -2.10814    -43.3913E-03        -2.01394    -160.483E-03    -159.235E-03     455.439E-03    -227.396E-03    -228.043E-03    -227.621E-03     455.410E-03    -227.789E-03     8.53377E-03    -60.3172E+06    -105.822E+06    -139.439E+06    -105.848E+06    -139.413E+06    -60.3172E+06     342.961E+03         58.1380
             593     3.18815E-03     56.3870E-03     56.2658E-03    -180.975E-03        -2.09944    -107.012E-03        -1.93616    -180.975E-03     99.7661E-03     455.373E-03    -227.426E-03    -227.948E-03    -227.695E-03     455.363E-03    -227.668E-03     5.09699E-03    -83.0473E+06    -115.136E+06    -166.611E+06    -115.139E+06    -166.608E+06    -83.0473E+06    -295.759E+03         58.0253
             594     2.39013E-03     56.3864E-03     432.621E-03    -194.404E-03        -2.45449    -168.387E-03        -1.85348    -194.404E-03        -1.00539     454.755E-03    -227.096E-03    -227.659E-03    -227.119E-03     454.751E-03    -227.632E-03     2.76715E-03    -102.540E+06    -122.518E+06    -189.093E+06    -122.522E+06    -189.088E+06    -102.540E+06    -150.855E+03         57.9471
             595     1.59179E-03     56.3842E-03         1.41000    -209.705E-03        -3.40918    -165.818E-03        -1.83337    -209.705E-03         1.29079     455.018E-03    -227.087E-03    -227.930E-03    -227.267E-03     455.016E-03    -227.749E-03     1.48084E-03    -117.490E+06    -127.040E+06    -209.015E+06    -127.045E+06    -209.010E+06    -117.490E+06    -85.2352E+03         57.8957
             596     796.465E-06     56.3897E-03         5.86038    -697.110E-03        -7.37008     256.413E-03        -1.76611    -697.110E-03        -7.24641     455.616E-03    -226.701E-03    -228.914E-03    -228.030E-03     455.615E-03    -227.586E-03     518.793E-06    -126.241E+06    -132.692E+06    -222.018E+06    -130.423E+06    -222.006E+06    -128.522E+06    -321.544E+03         57.8661
             597     13.5499E-03     55.6657E-03         1.39839     409.513E-03        -4.00547         1.38519        -3.99227     409.513E-03    -86.0511E-03     459.604E-03    -228.026E-03    -231.579E-03    -227.748E-03     455.773E-03    -228.026E-03     102.078E-03     118.520E+06     60.9639E+06    -7.54000E+06    -7.53526E+06     60.9592E+06     118.520E+06    -94.1044E+03         77.3962
             598     12.7517E-03     55.4994E-03         1.25970     362.144E-03        -3.83074         1.24729        -3.81833     362.144E-03     496.719E-03     459.127E-03    -227.950E-03    -231.178E-03    -227.702E-03     455.651E-03    -227.950E-03     96.3586E-03     92.0578E+06     46.0280E+06    -14.2819E+06    -14.2773E+06     46.0234E+06     92.0578E+06     210.016E+03         74.6898
             599     11.9549E-03     55.3825E-03         1.12831     316.442E-03        -3.66246         1.11364        -3.64779     316.442E-03     22.3794E-03     457.373E-03    -227.919E-03    -229.454E-03    -227.189E-03     455.109E-03    -227.919E-03     78.7381E-03     76.0162E+06     30.6742E+06    -20.8588E+06    -20.8414E+06     30.6568E+06     76.0162E+06     683.732E+03         71.4303
             600     11.1574E-03     55.2679E-03     993.972E-03     272.175E-03        -3.48580     987.015E-03        -3.47884     272.175E-03    -245.901E-03     456.814E-03    -227.914E-03    -228.899E-03    -227.043E-03     454.957E-03    -227.914E-03     70.9457E-03     65.8524E+06     21.2807E+06    -27.5497E+06    -27.5288E+06     21.2598E+06     65.8524E+06     953.365E+03         68.1379
             601     10.3587E-03     55.1762E-03     870.894E-03     229.491E-03        -3.31786     865.349E-03        -3.31231     229.491E-03    -204.096E-03     456.766E-03    -227.891E-03    -228.876E-03    -227.547E-03     455.438E-03    -227.891E-03     60.1275E-03     57.1159E+06     15.7064E+06    -34.2761E+06    -34.2678E+06     15.6981E+06     57.1159E+06     628.943E+03         65.2356
             602     9.56309E-03     55.0938E-03     760.520E-03     188.422E-03        -3.16806     745.467E-03        -3.15301     188.422E-03     56.7369E-03     456.143E-03    -227.660E-03    -228.482E-03    -227.291E-03     455.147E-03    -227.856E-03     52.0262E-03     49.5101E+06     11.3777E+06    -41.5346E+06    -41.5253E+06     11.3684E+06     49.5101E+06     557.666E+03         62.9399
             603     8.76453E-03     55.0245E-03     684.545E-03     149.772E-03        -3.06228     619.986E-03        -2.99772     149.772E-03    -359.092E-03     455.217E-03    -227.357E-03    -227.860E-03    -226.622E-03     454.480E-03    -227.858E-03     44.6968E-03     41.1515E+06     6.17149E+06    -49.3547E+06    -49.3421E+06     6.15889E+06     41.1515E+06     647.471E+03         61.2698
             604     7.96770E-03     54.9663E-03     590.091E-03     114.195E-03        -2.94217     502.827E-03        -2.85490     114.195E-03    -166.384E-03     455.327E-03    -227.373E-03    -227.954E-03    -226.933E-03     454.808E-03    -227.875E-03     37.3977E-03     31.7035E+06    -989.066E+03    -58.0583E+06    -58.0378E+06    -1.00957E+06     31.7035E+06       371.6E+03         60.1255
             605     7.17263E-03     54.9190E-03     429.991E-03     81.6702E-03        -2.75352     397.660E-03        -2.72118     81.6702E-03     475.308E-03     455.463E-03    -227.528E-03    -227.934E-03    -227.271E-03     455.127E-03    -227.856E-03     30.0260E-03     19.3808E+06    -13.6230E+06    -67.4600E+06    -67.4450E+06    -13.6380E+06     19.3808E+06     147.833E+03         59.3671
             606     6.37501E-03     54.8806E-03     325.752E-03     51.3139E-03        -2.61509     315.056E-03        -2.60440     51.3139E-03    -231.599E-03     455.209E-03    -227.391E-03    -227.818E-03    -227.175E-03     454.993E-03    -227.818E-03     24.1001E-03     1.95759E+06    -41.1727E+06    -77.1168E+06    -77.1099E+06    -41.1795E+06     1.95759E+06     335.617E+03         58.8670
             607     5.57620E-03     54.8512E-03     274.162E-03     22.5562E-03        -2.52784     235.566E-03        -2.48925     22.5562E-03     138.993E-03     455.150E-03    -227.358E-03    -227.792E-03    -227.224E-03     455.016E-03    -227.792E-03     18.9028E-03    -17.4870E+06    -76.0813E+06    -89.9884E+06    -87.0423E+06    -79.0274E+06    -17.4870E+06     122.542E+03         58.5316
             608     4.78141E-03     54.8308E-03     199.395E-03    -4.51519E-03        -2.42740     163.879E-03        -2.39188    -4.51519E-03     553.859E-03     455.114E-03    -227.370E-03    -227.745E-03    -227.300E-03     455.045E-03    -227.745E-03     13.4846E-03    -38.3118E+06    -97.1908E+06    -110.871E+06    -97.2793E+06    -110.782E+06    -38.3118E+06     -84.634E+03         58.3008
             609     3.98407E-03     54.8171E-03     106.088E-03    -27.9720E-03        -2.32292     80.4885E-03        -2.29732    -27.9720E-03    -58.6732E-03     454.770E-03    -227.057E-03    -227.713E-03    -227.027E-03     454.740E-03    -227.713E-03     8.83596E-03    -60.7674E+06    -106.934E+06    -139.876E+06    -106.989E+06    -139.821E+06    -60.7674E+06     346.481E+03         58.1386
             610     3.18543E-03     54.8103E-03     54.7952E-03    -45.8279E-03        -2.26508     16.3052E-03        -2.22659    -45.8279E-03    -13.2920E-03     454.956E-03    -227.226E-03    -227.730E-03    -227.242E-03     454.945E-03    -227.703E-03     4.99866E-03    -82.7191E+06    -114.923E+06    -165.432E+06    -114.935E+06    -165.419E+06    -82.7191E+06     290.463E+03         58.0243
             611     2.39050E-03     54.8101E-03     204.251E-03    -55.7699E-03        -2.39415    -41.3758E-03        -2.14852    -55.7699E-03    -778.636E-03     455.145E-03    -227.290E-03    -227.856E-03    -227.469E-03     455.143E-03    -227.674E-03     2.01080E-03    -103.182E+06    -121.896E+06    -188.581E+06    -121.908E+06    -188.568E+06    -103.182E+06    -597.535E+03         57.9453
             612     1.59370E-03     54.8118E-03     734.879E-03    -67.6501E-03        -2.90341    -29.8614E-03        -2.13867    -67.6501E-03     850.957E-03     454.990E-03    -227.086E-03    -227.904E-03    -227.241E-03     454.990E-03    -227.750E-03     531.965E-06    -118.851E+06    -127.472E+06    -209.561E+06    -127.485E+06    -209.547E+06    -118.851E+06    -722.111E+03         57.8938
             613     795.164E-06     54.8081E-03         4.18993    -565.201E-03        -5.82977     411.237E-03        -2.05108    -565.201E-03        -5.85440     455.642E-03    -226.702E-03    -228.940E-03    -227.849E-03     455.642E-03    -227.793E-03     207.018E-06    -126.861E+06    -133.835E+06    -222.444E+06    -131.559E+06    -222.439E+06    -129.142E+06     39.5836E+03         57.8641
             614     13.5495E-03     54.0882E-03         1.43026     523.822E-03        -4.18093         1.41429        -4.16496     523.822E-03    -81.9993E-03     459.467E-03    -228.058E-03    -231.408E-03    -227.605E-03     455.663E-03    -228.058E-03     101.720E-03     117.916E+06     60.5321E+06    -7.74248E+06    -7.74126E+06     60.5308E+06     117.916E+06    -269.278E+03         77.3424
             615     12.7526E-03     53.9237E-03         1.29679     485.609E-03        -4.02188         1.28449        -4.00959     485.609E-03     509.213E-03     459.425E-03    -227.982E-03    -231.444E-03    -227.934E-03     455.916E-03    -227.982E-03     97.0666E-03     91.3394E+06     45.4846E+06    -14.6238E+06    -14.6155E+06     45.4763E+06     91.3394E+06     71.5313E+03         74.6619
             616     11.9547E-03     53.8043E-03         1.17563     448.950E-03        -3.87258         1.16364        -3.86059     448.950E-03     16.8793E-03     457.832E-03    -227.934E-03    -229.897E-03    -227.632E-03     455.566E-03    -227.934E-03     78.7351E-03     75.7979E+06     30.4420E+06    -21.1615E+06    -21.1425E+06     30.4230E+06     75.7979E+06     588.812E+03         71.4336
             617     11.1560E-03     53.6956E-03         1.05875     413.289E-03        -3.72059         1.05301        -3.71485     413.289E-03    -227.574E-03     457.079E-03    -227.906E-03    -229.173E-03    -227.352E-03     455.258E-03    -227.906E-03     70.4070E-03     66.4738E+06     21.6855E+06    -27.6377E+06    -27.6190E+06     21.6668E+06     66.4738E+06     757.412E+03         68.1662
             618     10.3600E-03     53.5952E-03     953.367E-03     378.757E-03        -3.57750     948.435E-03        -3.57256     378.757E-03    -199.283E-03     456.414E-03    -227.744E-03    -228.670E-03    -227.195E-03     455.079E-03    -227.884E-03     60.2104E-03     57.7498E+06     15.8845E+06    -34.3559E+06    -34.3468E+06     15.8754E+06     57.7498E+06     550.119E+03         65.2755
             619     9.56297E-03     53.5183E-03     857.930E-03     345.191E-03        -3.45099     843.577E-03        -3.43663     345.191E-03     71.9211E-03     455.977E-03    -227.530E-03    -228.447E-03    -227.123E-03     454.988E-03    -227.866E-03     51.8649E-03     49.4268E+06     11.3336E+06    -41.3971E+06    -41.3914E+06     11.3278E+06     49.4268E+06     345.210E+03         62.9794
             620     8.76588E-03     53.4496E-03     789.248E-03     313.556E-03        -3.36178     731.488E-03        -3.30402     313.556E-03    -341.529E-03     455.624E-03    -227.510E-03    -228.114E-03    -227.031E-03     454.887E-03    -227.856E-03     44.6994E-03     41.1770E+06     6.31923E+06    -49.1354E+06    -49.1279E+06     6.31170E+06     41.1770E+06     509.055E+03         61.3029
             621     7.96797E-03     53.3890E-03     703.216E-03     284.673E-03        -3.25806     626.564E-03        -3.18141     284.673E-03    -162.005E-03     455.423E-03    -227.453E-03    -227.971E-03    -227.056E-03     454.907E-03    -227.851E-03     37.3660E-03     32.5140E+06    -534.938E+03    -57.6585E+06    -57.6475E+06    -545.954E+03     32.5140E+06     621.482E+03         60.1500
             622     7.17009E-03     53.3406E-03     562.167E-03     258.408E-03        -3.09318     533.602E-03        -3.06461     258.408E-03     500.655E-03     455.357E-03    -227.451E-03    -227.906E-03    -227.182E-03     455.009E-03    -227.827E-03     30.6103E-03     20.4181E+06    -12.7205E+06    -66.6451E+06    -66.6376E+06    -12.7280E+06     20.4181E+06     367.903E+03         59.3833
             623     6.37427E-03     53.3048E-03     480.334E-03     233.549E-03        -2.98066     466.389E-03        -2.96671     233.549E-03    -263.954E-03     455.352E-03    -227.425E-03    -227.927E-03    -227.350E-03     455.129E-03    -227.779E-03     24.4624E-03     2.35934E+06    -41.1621E+06    -76.8657E+06    -76.8512E+06    -41.1767E+06     2.35934E+06     428.736E+03         58.8768
             624     5.57865E-03     53.2754E-03     449.953E-03     209.583E-03        -2.92126     396.538E-03        -2.86785     209.583E-03     202.141E-03     455.085E-03    -227.208E-03    -227.877E-03    -227.225E-03     454.954E-03    -227.730E-03     18.6447E-03    -17.9786E+06    -76.4764E+06    -88.9191E+06    -87.0998E+06    -78.2956E+06    -17.9786E+06     554.444E+03         58.5370
             625     4.78028E-03     53.2527E-03     374.197E-03     186.993E-03        -2.82551     332.604E-03        -2.78391     186.993E-03     488.227E-03     454.771E-03    -227.070E-03    -227.701E-03    -227.003E-03     454.703E-03    -227.701E-03     13.3638E-03    -38.4475E+06    -96.2371E+06    -110.723E+06    -96.2832E+06    -110.677E+06    -38.4475E+06     1.14779E+03         58.3035
             626     3.98401E-03     53.2429E-03     267.517E-03     167.278E-03        -2.70883     261.855E-03        -2.70317     167.278E-03     46.5060E-03     454.742E-03    -227.046E-03    -227.696E-03    -227.015E-03     454.711E-03    -227.696E-03     8.95912E-03    -59.8856E+06    -105.503E+06    -140.472E+06    -105.548E+06    -140.426E+06    -59.8856E+06    -170.818E+03         58.1399
             627     3.18779E-03     53.2347E-03     224.291E-03     152.168E-03        -2.66347     205.668E-03        -2.64485     152.168E-03    -144.293E-03     454.808E-03    -227.102E-03    -227.706E-03    -227.091E-03     454.797E-03    -227.706E-03     5.06216E-03    -81.4372E+06    -114.129E+06    -164.274E+06    -114.150E+06    -164.252E+06    -81.4372E+06     5.71985E+03         58.0250
             628     2.38936E-03     53.2328E-03     221.290E-03     129.723E-03        -2.63198     146.100E-03        -2.57286     145.794E-03    -526.757E-03     455.274E-03    -227.390E-03    -227.884E-03    -227.594E-03     455.272E-03    -227.679E-03     2.11064E-03    -101.441E+06    -121.648E+06    -188.410E+06    -121.676E+06    -188.382E+06    -101.441E+06     149.458E+03         57.9459
             629     1.59384E-03     53.2351E-03     370.981E-03     120.076E-03        -2.75713     174.339E-03        -2.57656     136.148E-03     349.434E-03     455.429E-03    -227.387E-03    -228.042E-03    -227.947E-03     455.429E-03    -227.481E-03     955.511E-06    -118.770E+06    -128.563E+06    -210.303E+06    -128.589E+06    -210.276E+06    -118.770E+06     214.646E+03         57.8945
             630     798.191E-06     53.2355E-03         2.50411    -356.894E-03        -4.38998     609.280E-03        -2.49514    -356.894E-03        -4.18519     454.602E-03    -226.607E-03    -227.995E-03    -227.150E-03     454.602E-03    -227.452E-03    -142.595E-06    -127.666E+06    -134.425E+06    -222.528E+06    -132.509E+06    -222.525E+06    -129.587E+06    -201.827E+03         57.8650
             631     13.5495E-03     52.5135E-03         1.46865     677.965E-03        -4.40591         1.44904        -4.38630     677.965E-03    -88.6847E-03     459.378E-03    -228.064E-03    -231.314E-03    -227.505E-03     455.569E-03    -228.064E-03     101.769E-03     117.434E+06     60.3737E+06    -7.81185E+06    -7.80465E+06     60.3665E+06     117.434E+06     317.143E+03         77.2911
             632     12.7503E-03     52.3463E-03         1.34655     650.590E-03        -4.26969         1.33472        -4.25786     650.590E-03     509.311E-03     459.347E-03    -227.993E-03    -231.354E-03    -227.871E-03     455.863E-03    -227.993E-03     96.5786E-03     90.5478E+06     45.0148E+06    -15.0342E+06    -15.0160E+06     44.9966E+06     90.5478E+06     136.829E+03         74.6348
             633     11.9534E-03     52.2274E-03         1.24086     624.461E-03        -4.14578         1.23201        -4.13693     624.461E-03     946.149E-06     458.140E-03    -227.939E-03    -230.201E-03    -227.970E-03     455.908E-03    -227.939E-03     78.1891E-03     75.8328E+06     30.3608E+06    -21.3021E+06    -21.2876E+06     30.3463E+06     75.8328E+06    -95.0369E+03         71.4361
             634     11.1591E-03     52.1162E-03         1.14524     598.705E-03        -4.02349         1.14077        -4.01901     598.705E-03    -217.977E-03     457.389E-03    -227.887E-03    -229.502E-03    -227.689E-03     455.576E-03    -227.887E-03     70.2875E-03     67.1222E+06     21.9595E+06    -27.3393E+06    -27.3354E+06     21.9555E+06     67.1222E+06     122.660E+03         68.1927
             635     10.3601E-03     52.0226E-03         1.05857     573.589E-03        -3.90955         1.05427        -3.90525     573.589E-03    -205.748E-03     456.034E-03    -227.720E-03    -228.313E-03    -226.836E-03     454.696E-03    -227.860E-03     60.2774E-03     57.6751E+06     16.0599E+06    -34.0181E+06    -34.0135E+06     16.0553E+06     57.6751E+06     303.236E+03         65.3130
             636     9.56106E-03     51.9406E-03     981.076E-03     549.034E-03        -3.81152     968.256E-03        -3.79870     549.034E-03     78.3246E-03     455.910E-03    -227.714E-03    -228.195E-03    -227.076E-03     454.931E-03    -227.854E-03     51.5255E-03     48.5190E+06     11.0194E+06    -41.7680E+06    -41.7609E+06     11.0123E+06     48.5190E+06     134.150E+03         63.0165
             637     8.76498E-03     51.8715E-03     927.206E-03     525.782E-03        -3.74508     876.724E-03        -3.69459     525.782E-03    -334.165E-03     456.087E-03    -227.823E-03    -228.264E-03    -227.549E-03     455.372E-03    -227.823E-03     44.0481E-03     41.1690E+06     6.37002E+06    -49.1671E+06    -49.1575E+06     6.36039E+06     41.1690E+06     316.839E+03         61.3337
             638     7.96921E-03     51.8130E-03     854.019E-03     504.523E-03        -3.66307     788.451E-03        -3.59751     504.523E-03    -164.833E-03     455.296E-03    -227.377E-03    -227.919E-03    -227.000E-03     454.793E-03    -227.793E-03     36.8483E-03     33.0453E+06    -167.504E+03    -57.2751E+06    -57.2699E+06    -172.741E+03     33.0453E+06     428.685E+03         60.1721
             639     7.17220E-03     51.7651E-03     734.393E-03     485.364E-03        -3.52726     710.159E-03        -3.50302     485.364E-03     521.070E-03     454.775E-03    -226.980E-03    -227.796E-03    -226.641E-03     454.437E-03    -227.796E-03     30.2296E-03     20.3831E+06    -12.7854E+06    -67.2829E+06     -67.266E+06    -12.8023E+06     20.3831E+06     580.217E+03         59.3972
             640     6.37443E-03     51.7263E-03     672.991E-03     467.298E-03        -3.44013     655.514E-03        -3.42265     467.298E-03    -300.481E-03     455.115E-03    -227.174E-03    -227.941E-03    -227.092E-03     454.885E-03    -227.793E-03     24.8848E-03     2.66097E+06    -40.8661E+06    -77.0705E+06    -77.0422E+06    -40.8943E+06     2.66097E+06     789.479E+03         58.8848
             641     5.57791E-03     51.6978E-03     667.325E-03     449.558E-03        -3.40984     600.652E-03        -3.34317     449.558E-03     258.166E-03     455.155E-03    -227.252E-03    -227.903E-03    -227.259E-03     455.014E-03    -227.755E-03     19.4114E-03    -18.3977E+06    -76.0443E+06    -87.8080E+06    -86.6088E+06    -77.2435E+06    -18.3977E+06     286.371E+03         58.5418
             642     4.78155E-03     51.6801E-03     605.282E-03     432.503E-03        -3.33600     549.117E-03        -3.27984     432.503E-03     417.263E-03     454.786E-03    -227.055E-03    -227.731E-03    -226.982E-03     454.712E-03    -227.731E-03     13.9259E-03    -39.4130E+06    -96.5392E+06    -110.410E+06    -96.5723E+06    -110.376E+06    -39.4130E+06     38.8184E+03         58.3069
             643     3.98333E-03     51.6646E-03     515.361E-03     417.833E-03        -3.24267     490.131E-03        -3.21744     417.833E-03     144.359E-03     454.803E-03    -227.064E-03    -227.739E-03    -227.031E-03     454.770E-03    -227.739E-03     9.23749E-03    -59.8906E+06    -105.600E+06    -140.460E+06    -105.628E+06    -140.433E+06    -59.8906E+06     139.372E+03         58.1430
             644     3.18637E-03     51.6601E-03     525.608E-03     406.430E-03        -3.25162     450.026E-03        -3.17604     406.430E-03    -285.860E-03     454.922E-03    -227.177E-03    -227.745E-03    -227.165E-03     454.910E-03    -227.745E-03     5.64459E-03    -82.1403E+06    -114.597E+06    -164.528E+06    -114.622E+06    -164.503E+06    -82.1403E+06     143.263E+03         58.0285
             645     2.39029E-03     51.6571E-03     503.757E-03     386.036E-03        -3.20529     398.455E-03        -3.11606     402.107E-03    -271.433E-03     455.233E-03    -227.436E-03    -227.797E-03    -227.483E-03     455.229E-03    -227.746E-03     2.96471E-03    -101.637E+06    -122.793E+06    -189.049E+06    -122.814E+06    -189.028E+06    -101.637E+06     562.789E+03         57.9500
             646     1.59303E-03     51.6571E-03     552.843E-03     377.191E-03        -3.23205     431.126E-03        -3.12640     393.262E-03    -181.036E-03     455.529E-03    -227.500E-03    -228.029E-03    -227.905E-03     455.528E-03    -227.623E-03     1.02872E-03    -117.808E+06    -128.803E+06    -208.959E+06    -128.828E+06    -208.934E+06    -117.808E+06     852.224E+03         57.8991
             647     797.005E-06     51.6598E-03         1.42992    -66.7521E-03        -3.64339     834.111E-03        -3.04758    -66.7521E-03        -2.50997     454.962E-03    -227.131E-03    -227.830E-03    -227.731E-03     454.960E-03    -227.229E-03     484.783E-06    -128.315E+06    -134.630E+06    -221.780E+06    -132.724E+06    -221.765E+06    -130.235E+06    -174.204E+03         57.8699
             648     13.5496E-03     50.9387E-03         1.51671     867.934E-03        -4.67634         1.49297        -4.65260     867.934E-03    -99.4539E-03     460.069E-03    -228.035E-03    -232.034E-03    -228.285E-03     456.321E-03    -228.035E-03     101.079E-03     118.365E+06     60.7882E+06    -7.41258E+06    -7.40410E+06     60.7797E+06     118.365E+06     543.899E+03         77.2418
             649     12.7531E-03     50.7691E-03         1.41281     852.239E-03        -4.57056         1.40101        -4.55876     852.239E-03     510.090E-03     459.232E-03    -227.935E-03    -231.297E-03    -227.903E-03     455.837E-03    -227.935E-03     95.2755E-03     91.8981E+06     46.0317E+06    -14.2942E+06    -14.2757E+06     46.0132E+06     91.8981E+06     159.997E+03         74.6106
             650     11.9555E-03     50.6510E-03         1.32591     837.271E-03        -4.47708         1.31990        -4.47107     837.271E-03    -10.6710E-03     457.183E-03    -227.898E-03    -229.285E-03    -227.066E-03     454.964E-03    -227.898E-03     77.9171E-03     75.3426E+06     30.0475E+06    -21.3424E+06    -21.3275E+06     30.0326E+06     75.3426E+06    -72.3627E+03         71.4386
             651     11.1558E-03     50.5379E-03         1.25181     822.165E-03        -4.38842         1.24857        -4.38518     822.165E-03    -205.666E-03     456.978E-03    -227.885E-03    -229.093E-03    -227.259E-03     455.144E-03    -227.885E-03     70.5589E-03     64.9294E+06     20.5261E+06    -28.2979E+06    -28.2942E+06     20.5225E+06     64.9294E+06    -278.552E+03         68.2148
             652     10.3601E-03     50.4476E-03         1.18594     807.311E-03        -4.30662         1.18236        -4.30304     807.311E-03    -211.000E-03     456.737E-03    -227.852E-03    -228.884E-03    -227.545E-03     455.398E-03    -227.852E-03     60.4057E-03     56.9688E+06     16.1725E+06    -34.6043E+06    -34.5995E+06     16.1676E+06     56.9688E+06    -162.972E+03         65.3464
             653     9.56422E-03     50.3637E-03         1.12869     792.618E-03        -4.23960         1.11773        -4.22864     792.618E-03     83.2377E-03     456.335E-03    -227.804E-03    -228.531E-03    -227.538E-03     455.343E-03    -227.804E-03     51.8766E-03     49.6676E+06     12.1441E+06    -41.3368E+06    -41.3300E+06     12.1372E+06     49.6676E+06     59.1194E+03         63.0515
             654     8.76671E-03     50.2942E-03         1.08818     778.683E-03        -4.19661         1.04593        -4.15436     778.683E-03    -320.782E-03     455.579E-03    -227.476E-03    -228.103E-03    -227.111E-03     454.877E-03    -227.766E-03     43.6330E-03     41.0944E+06     6.13114E+06    -49.2395E+06    -49.2332E+06     6.12488E+06     41.0944E+06    -19.7791E+03         61.3623
             655     7.96911E-03     50.2358E-03         1.03340     765.965E-03        -4.13980     979.706E-03        -4.08612     765.965E-03    -166.579E-03     454.942E-03    -227.093E-03    -227.850E-03    -226.665E-03     454.430E-03    -227.765E-03     37.2573E-03     32.0468E+06    -1.06279E+06    -57.9610E+06    -57.9550E+06    -1.06875E+06     32.0468E+06     331.924E+03         60.1920
             656     7.17151E-03     50.1905E-03     942.629E-03     754.570E-03        -4.04020     922.496E-03        -4.02007     754.570E-03     544.659E-03     454.813E-03    -227.031E-03    -227.782E-03    -226.667E-03     454.449E-03    -227.782E-03     31.3280E-03     19.6695E+06    -13.2050E+06    -67.2518E+06    -67.2301E+06    -13.2267E+06     19.6695E+06     950.146E+03         59.4098
             657     6.37410E-03     50.1502E-03     902.723E-03     743.728E-03        -3.98391     881.895E-03        -3.96308     743.728E-03    -324.023E-03     454.573E-03    -226.756E-03    -227.817E-03    -226.525E-03     454.342E-03    -227.817E-03     24.8816E-03     2.55121E+06    -40.1645E+06    -76.4256E+06    -76.4032E+06    -40.1869E+06     2.55121E+06     658.751E+03         58.8926
             658     5.57627E-03     50.1217E-03     921.650E-03     732.655E-03        -3.98480     843.970E-03        -3.90712     732.655E-03     311.951E-03     454.716E-03    -226.848E-03    -227.869E-03    -226.710E-03     454.578E-03    -227.869E-03     19.2267E-03    -17.5987E+06    -74.9737E+06    -88.1826E+06    -86.3133E+06    -76.8430E+06    -17.5987E+06     650.400E+03         58.5471
             659     4.77957E-03     50.1018E-03     883.554E-03     721.376E-03        -3.93940     808.670E-03        -3.86452     721.376E-03     355.232E-03     455.238E-03    -227.366E-03    -227.872E-03    -227.288E-03     455.160E-03    -227.872E-03     14.3345E-03    -39.8114E+06    -96.5463E+06    -109.961E+06    -96.8957E+06    -109.612E+06    -39.8114E+06     754.075E+03         58.3115
             660     3.98392E-03     50.0909E-03     820.786E-03     711.752E-03        -3.88180     760.772E-03        -3.82179     711.752E-03     236.175E-03     455.162E-03    -227.313E-03    -227.849E-03    -227.278E-03     455.127E-03    -227.849E-03     9.53482E-03    -61.3608E+06    -106.698E+06    -139.986E+06    -106.741E+06    -139.942E+06    -61.3608E+06     73.6887E+03         58.1479
             661     3.18638E-03     50.0828E-03     889.688E-03     704.791E-03        -3.95264     732.720E-03        -3.79567     704.791E-03    -410.527E-03     455.157E-03    -227.311E-03    -227.846E-03    -227.298E-03     455.144E-03    -227.846E-03     5.58113E-03    -81.9907E+06    -114.954E+06    -165.451E+06    -114.996E+06    -165.409E+06    -81.9907E+06     423.236E+03         58.0340
             662     2.38921E-03     50.0812E-03     929.348E-03     702.271E-03        -3.97675     700.225E-03        -3.74763     702.271E-03    -23.8141E-03     455.296E-03    -227.431E-03    -227.865E-03    -227.427E-03     455.292E-03    -227.865E-03     3.12147E-03    -102.329E+06    -122.265E+06    -188.106E+06    -122.278E+06    -188.093E+06    -102.329E+06     525.626E+03         57.9562
             663     1.59335E-03     50.0799E-03         1.12642     694.493E-03        -4.15784     727.153E-03        -3.75857     694.493E-03    -673.192E-03     455.390E-03    -227.393E-03    -227.997E-03    -227.392E-03     455.389E-03    -227.997E-03     1.28523E-03    -118.201E+06    -127.872E+06    -207.805E+06    -127.898E+06    -207.779E+06    -118.201E+06    -206.106E+03         57.9058
             664     795.759E-06     50.0851E-03         1.55170     302.285E-03        -4.16381         1.06951        -3.68162     302.285E-03    -895.802E-03     456.175E-03    -227.843E-03    -228.332E-03    -227.900E-03     456.173E-03    -228.274E-03     462.354E-06    -127.064E+06    -132.892E+06    -221.181E+06    -131.620E+06    -221.136E+06    -128.381E+06     156.925E+03         57.8771
             665     13.5512E-03     49.3588E-03         1.56801         1.08622        -4.98222         1.54060        -4.95481         1.08622    -96.9433E-03     460.386E-03    -228.003E-03    -232.384E-03    -228.583E-03     456.586E-03    -228.003E-03     101.804E-03     118.988E+06     60.8792E+06    -7.28984E+06    -7.28642E+06     60.8758E+06     118.988E+06     241.354E+03         77.1922
             666     12.7540E-03     49.1934E-03         1.48890         1.08254        -4.91343         1.47638        -4.90091         1.08254     521.859E-03     459.304E-03    -227.891E-03    -231.414E-03    -227.941E-03     455.831E-03    -227.891E-03     96.4581E-03     91.9115E+06     45.7757E+06    -14.3778E+06    -14.3685E+06     45.7663E+06     91.9115E+06     364.974E+03         74.5843
             667     11.9550E-03     49.0769E-03         1.42600         1.07894        -4.85501         1.42205        -4.85106         1.07894    -12.2010E-03     457.137E-03    -227.853E-03    -229.284E-03    -227.052E-03     454.905E-03    -227.853E-03     78.1138E-03     75.8016E+06     30.5652E+06    -20.5923E+06    -20.5818E+06     30.5548E+06     75.8016E+06     467.876E+03         71.4392
             668     11.1577E-03     48.9634E-03         1.37624         1.07476        -4.80310         1.37407        -4.80092         1.07476    -180.897E-03     456.725E-03    -227.844E-03    -228.882E-03    -227.100E-03     454.944E-03    -227.844E-03     69.5286E-03      65.798E+06     21.6225E+06    -27.1954E+06    -27.1872E+06     21.6143E+06      65.798E+06     112.709E+03         68.2367
             669     10.3595E-03     48.8675E-03         1.33242         1.07050        -4.75613         1.32949        -4.75320         1.07050    -205.478E-03     456.586E-03    -227.811E-03    -228.775E-03    -227.475E-03     455.286E-03    -227.811E-03     59.5087E-03     56.4543E+06     15.8296E+06    -34.7930E+06    -34.7810E+06     15.8176E+06     56.4543E+06    -415.204E+03         65.3788
             670     9.56286E-03     48.7869E-03         1.29670         1.06582        -4.72245         1.28713        -4.71288         1.06582     95.3366E-03     455.877E-03    -227.431E-03    -228.446E-03    -227.094E-03     454.874E-03    -227.780E-03     52.2346E-03     48.6870E+06     11.4572E+06    -41.8532E+06    -41.8426E+06     11.4466E+06     48.6870E+06    -262.541E+03         63.0841
             671     8.76660E-03     48.7170E-03         1.27073         1.06138        -4.70399         1.23578        -4.66905         1.06138    -293.727E-03     455.050E-03    -227.104E-03    -227.946E-03    -226.506E-03     454.296E-03    -227.790E-03     45.1743E-03     40.3554E+06     5.63793E+06    -49.7255E+06    -49.7158E+06     5.62822E+06     40.3554E+06     273.838E+03         61.3888
             672     7.96838E-03     48.6634E-03         1.23550         1.05771        -4.67350         1.19235        -4.63035         1.05771    -160.644E-03     455.116E-03    -227.267E-03    -227.849E-03    -226.759E-03     454.577E-03    -227.819E-03     38.1660E-03     31.0721E+06    -1.77922E+06    -58.4710E+06    -58.4610E+06    -1.78923E+06     31.0721E+06     497.390E+03         60.2113
             673     7.17107E-03     48.6112E-03         1.17820         1.05445        -4.61278         1.16101        -4.59559         1.05445     576.807E-03     455.087E-03    -227.233E-03    -227.855E-03    -226.899E-03     454.724E-03    -227.824E-03     31.3028E-03     19.1247E+06    -12.9761E+06    -67.1606E+06    -67.1547E+06     -12.982E+06     19.1247E+06     522.475E+03         59.4233
             674     6.37493E-03     48.5757E-03         1.16497         1.05052        -4.59047         1.14108        -4.56657         1.05052    -335.433E-03     454.777E-03    -226.940E-03    -227.836E-03    -226.714E-03     454.551E-03    -227.836E-03     24.6168E-03     1.28905E+06    -40.2516E+06    -77.2434E+06    -77.2305E+06    -40.2645E+06     1.28905E+06     364.989E+03         58.9021
             675     5.57693E-03     48.5471E-03         1.20463         1.04556        -4.62252         1.11871        -4.53660         1.04556     362.561E-03     454.579E-03    -226.682E-03    -227.897E-03    -226.551E-03     454.448E-03    -227.897E-03     18.6570E-03    -17.9611E+06    -75.3296E+06    -89.6077E+06    -87.1123E+06    -77.8250E+06    -17.9611E+06     670.620E+03         58.5541
             676     4.77912E-03     48.5245E-03         1.18777         1.03993        -4.60509         1.09682        -4.51414         1.03993     311.194E-03     454.813E-03    -226.847E-03    -227.966E-03    -226.777E-03     454.744E-03    -227.966E-03     13.5261E-03    -38.3173E+06    -95.9728E+06    -108.747E+06    -96.3318E+06    -108.388E+06    -38.3173E+06     972.354E+03         58.3173
             677     3.98201E-03     48.5131E-03         1.15913         1.03494        -4.58144         1.06565        -4.48796         1.03494     318.996E-03     455.498E-03    -227.460E-03    -228.038E-03    -227.485E-03     455.465E-03    -227.980E-03     9.32247E-03    -60.9214E+06    -106.032E+06    -138.373E+06    -106.111E+06    -138.294E+06    -60.9214E+06     634.741E+03         58.1534
             678     3.18624E-03     48.5073E-03         1.27556         1.03155        -4.70285         1.04644        -4.47373         1.03155    -511.675E-03     455.665E-03    -227.680E-03    -227.985E-03    -227.726E-03     455.653E-03    -227.926E-03     5.57756E-03    -82.1672E+06    -114.973E+06    -165.768E+06    -115.049E+06    -165.691E+06    -82.1672E+06     102.468E+03         58.0395
             679     2.38989E-03     48.5038E-03         1.39960         1.03165        -4.81657         1.02350        -4.44047         1.03165     195.389E-03     455.303E-03    -227.383E-03    -227.919E-03    -227.381E-03     455.300E-03    -227.919E-03     2.44279E-03    -102.004E+06    -122.205E+06    -187.446E+06    -122.226E+06    -187.425E+06    -102.004E+06     182.203E+03         57.9618
             680     1.59160E-03     48.5057E-03         1.79909         1.02642        -5.19943         1.05299        -4.45334         1.02642        -1.09050     455.523E-03    -227.428E-03    -228.095E-03    -227.459E-03     455.522E-03    -228.063E-03     720.692E-06    -119.065E+06    -127.709E+06    -207.194E+06    -127.747E+06    -207.156E+06    -119.065E+06     293.277E+03         57.9114
             681     795.596E-06     48.5046E-03         2.54657     719.019E-03        -5.63107         1.32040        -4.40489     719.019E-03     456.046E-03     456.321E-03    -227.929E-03    -228.392E-03    -228.058E-03     456.320E-03    -228.262E-03    -50.0185E-06    -127.604E+06    -131.927E+06    -220.385E+06    -130.693E+06    -220.301E+06    -128.920E+06    -144.950E+03         57.8826
             682     13.5503E-03     47.7824E-03         1.62015         1.32353        -5.31421         1.59058        -5.28464         1.32353    -92.3270E-03     459.795E-03    -228.010E-03    -231.785E-03    -227.939E-03     455.949E-03    -228.010E-03     102.352E-03     118.417E+06     60.6457E+06    -7.41889E+06    -7.41503E+06     60.6418E+06     118.417E+06     189.765E+03         77.1390
             683     12.7516E-03     47.6174E-03         1.57068         1.33196        -5.28609         1.55758        -5.27300         1.33196     533.518E-03     459.573E-03    -227.915E-03    -231.659E-03    -228.157E-03     456.072E-03    -227.915E-03     96.8893E-03     91.6097E+06     45.6179E+06    -14.3400E+06    -14.3369E+06     45.6148E+06     91.6097E+06     345.354E+03         74.5527
             684     11.9562E-03     47.4987E-03         1.53718         1.33973        -5.26732         1.53457        -5.26471         1.33973    -4.79040E-03     458.299E-03    -227.836E-03    -230.463E-03    -228.225E-03     456.061E-03    -227.836E-03     78.3530E-03     76.3378E+06     31.0238E+06    -20.7482E+06    -20.7448E+06     31.0204E+06     76.3378E+06     176.342E+03         71.4369
             685     11.1591E-03     47.3881E-03         1.51410         1.34613        -5.25319         1.51273        -5.25182         1.34613    -145.229E-03     457.156E-03    -227.769E-03    -229.387E-03    -227.594E-03     455.363E-03    -227.769E-03     69.8558E-03     66.7454E+06     22.4114E+06    -27.0396E+06    -27.0277E+06     22.3995E+06     66.7454E+06     579.374E+03         68.2588
             686     10.3621E-03     47.2917E-03         1.49305         1.35198        -5.24219         1.49063        -5.23977         1.35198    -190.146E-03     455.530E-03    -227.367E-03    -228.163E-03    -226.454E-03     454.204E-03    -227.749E-03     59.9857E-03     56.5323E+06     16.2030E+06    -34.1155E+06    -34.0996E+06     16.1870E+06     56.5323E+06     266.585E+03         65.4114
             687     9.56414E-03     47.2108E-03         1.47857         1.35705        -5.24087         1.46950        -5.23180         1.35705     118.896E-03     454.865E-03    -227.005E-03    -227.860E-03    -226.070E-03     453.865E-03    -227.796E-03     52.0126E-03      47.468E+06     10.6579E+06    -41.9641E+06    -41.9536E+06     10.6473E+06      47.468E+06    -95.4554E+03         63.1162
             688     8.76363E-03     47.1448E-03         1.47217         1.36198        -5.24908         1.44237        -5.21928         1.36198    -256.431E-03     455.183E-03    -227.333E-03    -227.850E-03    -226.596E-03     454.446E-03    -227.850E-03     44.6746E-03     39.5073E+06     5.07899E+06    -49.7813E+06    -49.7727E+06     5.07036E+06     39.5073E+06     309.314E+03         61.4162
             689     7.96755E-03     47.0820E-03         1.45933         1.36706        -5.24803         1.42374        -5.21243         1.36706    -149.342E-03     455.471E-03    -227.577E-03    -227.894E-03    -227.085E-03     454.949E-03    -227.864E-03     37.5669E-03     30.9646E+06    -1.71510E+06    -58.3669E+06    -58.3600E+06    -1.72199E+06     30.9646E+06     442.670E+03         60.2328
             690     7.17163E-03     47.0377E-03         1.43279         1.37141        -5.22447         1.41713        -5.20881         1.37141     611.739E-03     455.139E-03    -227.253E-03    -227.886E-03    -226.933E-03     454.789E-03    -227.856E-03     30.7346E-03     19.1915E+06    -12.9099E+06    -67.7635E+06    -67.7611E+06    -12.9124E+06     19.1915E+06     360.686E+03         59.4391
             691     6.37268E-03     46.9980E-03         1.44175         1.37406        -5.23182         1.41643        -5.20650         1.37406    -336.961E-03     454.949E-03    -227.089E-03    -227.859E-03    -226.866E-03     454.726E-03    -227.859E-03     24.4578E-03     1.59774E+06    -39.9755E+06    -77.8305E+06    -77.8099E+06    -39.9961E+06     1.59774E+06     626.646E+03         58.9135
             692     5.57749E-03     46.9703E-03         1.49873         1.37498        -5.29101         1.40991        -5.20219         1.37498     403.524E-03     454.912E-03    -227.034E-03    -227.879E-03    -226.902E-03     454.781E-03    -227.879E-03     18.7001E-03    -18.7862E+06    -76.0939E+06    -89.2719E+06    -88.0900E+06    -77.2757E+06    -18.7862E+06     518.147E+03         58.5625
             693     4.78011E-03     46.9512E-03         1.50055         1.37477        -5.29966         1.40114        -5.20026         1.37477     286.060E-03     454.792E-03    -226.877E-03    -227.915E-03    -226.808E-03     454.723E-03    -227.915E-03     13.4748E-03    -39.5134E+06    -97.6354E+06    -108.674E+06    -98.0108E+06    -108.299E+06    -39.5134E+06     241.976E+03         58.3236
             694     3.98225E-03     46.9355E-03         1.50146         1.37445        -5.30358         1.38622        -5.18833         1.37445     391.782E-03     455.129E-03    -227.112E-03    -228.017E-03    -227.142E-03     455.100E-03    -227.958E-03     8.59341E-03    -60.5928E+06    -106.586E+06    -137.752E+06    -106.642E+06    -137.696E+06    -60.5928E+06     553.792E+03         58.1582
             695     3.18594E-03     46.9286E-03         1.65638         1.37426        -5.45986         1.37974        -5.18321         1.37426    -592.682E-03     455.586E-03    -227.583E-03    -228.002E-03    -227.633E-03     455.576E-03    -227.944E-03     4.91206E-03    -82.6876E+06    -114.676E+06    -164.238E+06    -114.740E+06    -164.174E+06    -82.6876E+06     260.514E+03         58.0431
             696     2.38936E-03     46.9287E-03         1.84493         1.37581        -5.64793         1.36584        -5.16884         1.37581     360.598E-03     455.815E-03    -227.640E-03    -228.175E-03    -227.966E-03     455.812E-03    -227.847E-03     2.14429E-03    -102.366E+06    -122.570E+06    -188.071E+06    -122.590E+06    -188.051E+06    -102.366E+06    -73.9873E+03         57.9644
             697     1.59392E-03     46.9284E-03         2.38178         1.37414        -6.17375         1.38760        -5.17956         1.37414        -1.37669     455.667E-03    -227.481E-03    -228.186E-03    -228.032E-03     455.667E-03    -227.635E-03     253.540E-06    -117.800E+06    -127.915E+06    -206.689E+06    -127.937E+06    -206.668E+06    -117.800E+06     634.310E+03         57.9133
             698     797.328E-06     46.9273E-03         3.51588         1.18447        -7.10348         1.55705        -5.14466         1.18447         1.42262     454.942E-03    -227.258E-03    -227.684E-03    -227.682E-03     454.940E-03    -227.258E-03    -792.608E-06    -128.024E+06    -132.994E+06    -219.448E+06    -131.603E+06    -219.375E+06    -129.488E+06     511.184E+03         57.8839
             699     13.5498E-03     46.2080E-03         1.68066         1.57116        -5.66879         1.65080        -5.63893         1.57116    -86.9946E-03     459.727E-03    -227.999E-03    -231.728E-03    -227.995E-03     455.994E-03    -227.999E-03     100.791E-03     118.177E+06     60.4434E+06    -7.55200E+06    -7.54893E+06     60.4403E+06     118.177E+06    -118.016E+03         77.0848
             700     12.7529E-03     46.0395E-03         1.66871         1.58424        -5.67950         1.64887        -5.66635         1.59093     542.335E-03     459.335E-03    -227.904E-03    -231.431E-03    -227.982E-03     455.885E-03    -227.904E-03     96.2197E-03     91.7452E+06     46.0662E+06    -14.5385E+06    -14.5314E+06     46.0591E+06     91.7452E+06     412.245E+03         74.5212
             701     11.9550E-03     45.9202E-03         1.67011         1.59604        -5.69895         1.65484        -5.69707         1.60941     6.44165E-03     458.065E-03    -227.836E-03    -230.229E-03    -227.978E-03     455.814E-03    -227.836E-03     78.5615E-03     75.6665E+06     30.8859E+06    -21.3592E+06    -21.3530E+06     30.8797E+06     75.6665E+06     358.829E+03         71.4322
             702     11.1593E-03     45.8095E-03         1.67604         1.60856        -5.72247         1.65800        -5.72156         1.62569    -106.673E-03     457.026E-03    -227.783E-03    -229.243E-03    -227.409E-03     455.192E-03    -227.783E-03     70.6656E-03     65.2079E+06     21.4581E+06    -28.0327E+06    -28.0132E+06     21.4386E+06     65.2079E+06    -56.4531E+03         68.2764
             703     10.3612E-03     45.7186E-03         1.68146         1.61966        -5.74664         1.65800        -5.74444         1.64092    -172.445E-03     455.565E-03    -227.397E-03    -228.168E-03    -226.411E-03     454.190E-03    -227.780E-03     61.0934E-03     56.3915E+06     16.6318E+06    -34.1763E+06    -34.1405E+06     16.5960E+06     56.3915E+06     475.558E+03         65.4420
             704     9.56112E-03     45.6377E-03         1.68878         1.63523        -5.77911         1.65942        -5.76984         1.65532     145.366E-03     455.467E-03    -227.369E-03    -228.098E-03    -226.637E-03     454.448E-03    -227.811E-03     52.5309E-03     48.3763E+06     11.5671E+06    -41.3469E+06    -41.3267E+06     11.5469E+06     48.3763E+06     669.871E+03         63.1505
             705     8.76680E-03     45.5656E-03         1.70036         1.65452        -5.81666         1.65896        -5.78986         1.66912    -217.017E-03     455.548E-03    -227.559E-03    -227.989E-03    -227.012E-03     454.832E-03    -227.820E-03     44.0309E-03     39.4744E+06     4.93804E+06    -49.8626E+06    -49.8490E+06     4.92451E+06     39.4744E+06     441.374E+03         61.4477
             706     7.96876E-03     45.5082E-03         1.70835         1.67100        -5.84231         1.66688        -5.81180         1.68197    -139.554E-03     454.906E-03    -227.069E-03    -227.837E-03    -226.564E-03     454.401E-03    -227.837E-03     36.9964E-03     30.8346E+06    -1.92238E+06    -58.3696E+06    -58.3534E+06    -1.93851E+06     30.8346E+06     710.516E+03         60.2577
             707     7.17023E-03     45.4588E-03         1.70868         1.67993        -5.84996         1.68106        -5.83553         1.69312     636.568E-03     454.843E-03    -226.970E-03    -227.873E-03    -226.616E-03     454.489E-03    -227.873E-03     30.9011E-03     19.4120E+06    -12.6535E+06    -67.9139E+06    -67.9008E+06    -12.6666E+06     19.4120E+06     758.381E+03         59.4570
             708     6.37548E-03     45.4231E-03         1.72669         1.69460        -5.88236         1.69417        -5.85740         1.70216    -334.894E-03     455.127E-03    -227.234E-03    -227.892E-03    -227.006E-03     454.899E-03    -227.892E-03     24.7360E-03     2.60070E+06    -39.9883E+06    -77.9201E+06    -77.8894E+06    -40.0190E+06     2.60070E+06     894.966E+03         58.9260
             709     5.57599E-03     45.3937E-03         1.78817         1.70923        -5.96116         1.70216        -5.87515         1.70923     429.411E-03     455.332E-03    -227.442E-03    -227.890E-03    -227.334E-03     455.203E-03    -227.869E-03     18.4483E-03    -18.0393E+06    -75.9045E+06    -87.9175E+06    -87.7353E+06    -76.0867E+06    -18.0393E+06     610.086E+03         58.5712
             710     4.77999E-03     45.3740E-03         1.80874         1.71461        -5.99299         1.70926        -5.89352         1.71461     267.297E-03     455.289E-03    -227.459E-03    -227.830E-03    -227.416E-03     455.225E-03    -227.809E-03     13.0041E-03    -39.4718E+06    -96.4766E+06    -107.493E+06    -97.1286E+06    -106.841E+06    -39.4718E+06    -57.5317E+03         58.3295
             711     3.98420E-03     45.3598E-03         1.83357         1.71890        -6.02707         1.71063        -5.90413         1.71890     440.151E-03     454.895E-03    -227.110E-03    -227.785E-03    -227.082E-03     454.867E-03    -227.785E-03     8.48865E-03    -60.8295E+06    -106.740E+06    -138.224E+06    -106.752E+06    -138.212E+06    -60.8295E+06    -354.037E+03         58.1617
             712     3.18590E-03     45.3534E-03         2.00655         1.72227        -6.19998         1.71580        -5.90923         1.72227    -632.886E-03     454.998E-03    -227.201E-03    -227.797E-03    -227.193E-03     454.990E-03    -227.797E-03     4.45919E-03    -82.6902E+06    -115.614E+06    -164.231E+06    -115.631E+06    -164.214E+06    -82.6902E+06    -18.5276E+03         58.0447
             713     2.38968E-03     45.3493E-03         2.23605         1.72328        -6.42057         1.72611        -5.91063         1.72328     445.884E-03     455.548E-03    -227.474E-03    -228.074E-03    -227.801E-03     455.546E-03    -227.746E-03     2.19909E-03    -101.948E+06    -122.024E+06    -187.410E+06    -122.033E+06    -187.401E+06    -101.948E+06     62.0752E+03         57.9644
             714     1.59400E-03     45.3513E-03         2.80849         1.72083        -6.99298         1.72873        -5.91322         1.72083        -1.51790     455.500E-03    -227.432E-03    -228.068E-03    -227.961E-03     455.499E-03    -227.538E-03     1.17449E-03    -117.667E+06    -128.114E+06    -206.812E+06    -128.122E+06    -206.805E+06    -117.667E+06    -512.864E+03         57.9122
             715     797.625E-06     45.3538E-03         4.07812         1.66099        -8.19957         1.77597        -5.89743         1.66099         1.96772     454.727E-03    -227.140E-03    -227.587E-03    -227.584E-03     454.724E-03    -227.140E-03     280.204E-06    -127.593E+06    -133.692E+06    -218.794E+06    -132.269E+06    -218.754E+06    -129.057E+06    -177.910E+03         57.8822
             716     13.5523E-03     44.6311E-03         1.82921         1.73521        -6.03440         1.71564        -6.00582         1.82020    -75.2697E-03     460.426E-03    -227.980E-03    -232.446E-03    -228.661E-03     456.641E-03    -227.980E-03     101.588E-03     118.286E+06     60.0967E+06    -7.81147E+06    -7.80997E+06     60.0952E+06     118.286E+06    -61.0797E+03         77.0304
             717     12.7536E-03     44.4651E-03         1.85137         1.75549        -6.08427         1.74387        -6.07137         1.85010     554.085E-03     459.380E-03    -227.860E-03    -231.520E-03    -228.056E-03     455.916E-03    -227.860E-03     96.3576E-03     91.5281E+06     46.1812E+06    -14.7263E+06    -14.7196E+06     46.1745E+06     91.5281E+06     400.691E+03         74.4908
             718     11.9560E-03     44.3429E-03         1.87816         1.77878        -6.13753         1.77711        -6.13586         1.87816     17.5747E-03     456.689E-03    -227.686E-03    -229.003E-03    -226.614E-03     454.446E-03    -227.832E-03     78.2635E-03     75.3218E+06     31.2648E+06    -20.8850E+06    -20.8744E+06     31.2542E+06     75.3218E+06     210.494E+03         71.4281
             719     11.1568E-03     44.2341E-03         1.90367         1.80402        -6.19419         1.80326        -6.19343         1.90367    -75.3493E-03     456.313E-03    -227.710E-03    -228.603E-03    -226.636E-03     454.492E-03    -227.856E-03     70.2869E-03     65.0668E+06     21.4496E+06    -27.3264E+06    -27.3095E+06     21.4328E+06     65.0668E+06    -484.461E+03         68.2930
             720     10.3590E-03     44.1430E-03         1.92788         1.82769        -6.25224         1.82538        -6.24993         1.92788    -160.981E-03     456.667E-03    -227.844E-03    -228.823E-03    -227.480E-03     455.325E-03    -227.844E-03     60.4608E-03     56.0882E+06     16.0804E+06    -34.2242E+06    -34.1917E+06     16.0479E+06     56.0882E+06     351.323E+03         65.4734
             721     9.56458E-03     44.0603E-03         1.95086         1.86118        -6.31849         1.85128        -6.30859         1.95086     163.458E-03     456.144E-03    -227.524E-03    -228.619E-03    -227.331E-03     455.137E-03    -227.806E-03     52.3114E-03     47.8519E+06     11.1454E+06    -41.8653E+06    -41.8371E+06     11.1172E+06     47.8519E+06     923.251E+03         63.1879
             722     8.76541E-03     43.9886E-03         1.97247         1.90266        -6.38533         1.87745        -6.36012         1.97247    -185.270E-03     455.165E-03    -227.188E-03    -227.977E-03    -226.611E-03     454.418E-03    -227.807E-03     45.0104E-03     40.0973E+06     5.50517E+06    -49.6781E+06    -49.6588E+06     5.48588E+06     40.0973E+06     745.152E+03         61.4816
             723     7.96859E-03     43.9335E-03         1.99220         1.93710        -6.43552         1.90942        -6.40784         1.99220    -128.347E-03     455.024E-03    -227.117E-03    -227.906E-03    -226.648E-03     454.489E-03    -227.841E-03     37.9706E-03     31.5127E+06    -1.68040E+06    -58.1325E+06    -58.1049E+06    -1.70801E+06     31.5127E+06     1.17653E+06         60.2841
             724     7.17122E-03     43.8839E-03         2.00949         1.95677        -6.46883         1.94321        -6.45527         2.00949     651.327E-03     454.933E-03    -227.003E-03    -227.930E-03    -226.717E-03     454.582E-03    -227.864E-03     30.7350E-03     19.4940E+06    -12.3648E+06    -67.4455E+06    -67.4218E+06    -12.3885E+06     19.4940E+06     1.07235E+06         59.4761
             725     6.37154E-03     43.8452E-03         2.02689         1.98923        -6.52179         1.96930        -6.49929         2.02433    -329.851E-03     455.171E-03    -227.302E-03    -227.869E-03    -227.084E-03     454.953E-03    -227.869E-03     24.1343E-03     2.68627E+06    -39.2404E+06    -76.7622E+06    -76.7177E+06    -39.2849E+06     2.68627E+06     321.371E+03         58.9389
             726     5.57805E-03     43.8164E-03         2.07540         2.02842        -6.61655         1.98788        -6.53783         2.03722     445.319E-03     455.424E-03    -227.568E-03    -227.855E-03    -227.462E-03     455.297E-03    -227.834E-03     18.3328E-03    -16.6829E+06    -74.8365E+06    -86.8109E+06    -86.0489E+06    -75.5985E+06    -16.6829E+06    -72.1981E+03         58.5794
             727     4.78140E-03     43.7963E-03         2.10062         2.04835        -6.66604         2.00779        -6.57321         2.04835     256.985E-03     455.235E-03    -227.452E-03    -227.783E-03    -227.405E-03     455.166E-03    -227.762E-03     13.3953E-03    -37.9481E+06    -95.8318E+06    -106.741E+06    -96.2000E+06    -106.373E+06    -37.9481E+06     259.529E+03         58.3343
             728     3.98356E-03     43.7850E-03         2.14897         2.05703        -6.72263         2.03184        -6.60550         2.05703     457.200E-03     455.083E-03    -227.390E-03    -227.693E-03    -227.359E-03     455.051E-03    -227.693E-03     9.10554E-03    -60.0820E+06    -105.915E+06    -137.240E+06    -105.953E+06    -137.202E+06    -60.0820E+06     259.567E+03         58.1641
             729     3.18805E-03     43.7763E-03         2.31800         2.06305        -6.89203         2.04796        -6.62199         2.06305    -616.859E-03     454.856E-03    -227.201E-03    -227.655E-03    -227.189E-03     454.844E-03    -227.655E-03     5.29680E-03    -81.6614E+06    -114.729E+06    -165.000E+06    -114.732E+06    -164.997E+06    -81.6614E+06    -174.912E+03         58.0453
             730     2.39029E-03     43.7752E-03         2.53970         2.06405        -7.10685         2.07347        -6.64062         2.06405     445.874E-03     454.703E-03    -226.995E-03    -227.708E-03    -226.992E-03     454.700E-03    -227.708E-03     2.69813E-03    -102.240E+06    -122.990E+06    -187.191E+06    -122.999E+06    -187.182E+06    -102.240E+06     152.183E+03         57.9638
             731     1.59224E-03     43.7734E-03         3.05707         2.06173        -7.62922         2.06486        -6.63700         2.06173        -1.50379     455.078E-03    -227.158E-03    -227.920E-03    -227.167E-03     455.077E-03    -227.910E-03     1.09351E-03    -119.862E+06    -129.051E+06    -205.561E+06    -129.065E+06    -205.546E+06    -119.862E+06     52.0008E+03         57.9109
             732     795.587E-06     43.7790E-03         4.13696         2.14542        -8.81026         1.97585        -6.64915         2.14542         1.98250     456.074E-03    -227.667E-03    -228.407E-03    -227.816E-03     456.073E-03    -228.257E-03     778.623E-06    -129.341E+06    -134.004E+06    -219.821E+06    -132.516E+06    -219.801E+06    -130.848E+06    -615.086E+03         57.8805
             733     13.5483E-03     43.0514E-03         2.06215         1.80527        -6.39681         1.77921        -6.37075         2.06215    -69.7365E-03     460.257E-03    -227.986E-03    -232.272E-03    -228.482E-03     456.468E-03    -227.986E-03     101.644E-03     118.170E+06     60.1401E+06    -7.68097E+06    -7.67551E+06     60.1346E+06     118.170E+06     31.2134E+03         76.9769
             734     12.7545E-03     42.8855E-03         2.10116         1.84601        -6.47901         1.83400        -6.46700         2.10116     556.494E-03     459.174E-03    -227.881E-03    -231.293E-03    -227.803E-03     455.684E-03    -227.881E-03     96.7747E-03     91.7208E+06     46.3852E+06    -14.1910E+06    -14.1841E+06     46.3783E+06     91.7208E+06    -211.220E+03         74.4598
             735     11.9559E-03     42.7723E-03         2.13785         1.89503        -6.56492         1.89326        -6.56315         2.13785     19.9894E-03     456.793E-03    -227.716E-03    -229.076E-03    -226.642E-03     454.505E-03    -227.863E-03     79.0494E-03     75.3318E+06     31.5144E+06    -20.7318E+06    -20.7213E+06     31.5039E+06     75.3318E+06    -140.632E+03         71.4250
             736     11.1566E-03     42.6589E-03         2.17185         1.94563        -6.65385         1.94472        -6.65294         2.17185    -57.6179E-03     456.656E-03    -227.732E-03    -228.924E-03    -226.955E-03     454.833E-03    -227.878E-03     70.2986E-03     65.1492E+06     21.5261E+06    -27.3562E+06    -27.3404E+06     21.5103E+06     65.1492E+06     323.418E+03         68.3143
             737     10.3603E-03     42.5641E-03         2.20425         1.99338        -6.74371         1.99061        -6.74094         2.20425    -159.627E-03     456.664E-03    -227.751E-03    -228.913E-03    -227.470E-03     455.328E-03    -227.857E-03     60.3681E-03     55.7723E+06     15.2552E+06    -34.5409E+06    -34.5276E+06     15.2419E+06     55.7723E+06     678.189E+03         65.5089
             738     9.56268E-03     42.4814E-03         2.23466         2.05040        -6.83950         2.03960        -6.82870         2.23466     169.566E-03     456.025E-03    -227.439E-03    -228.586E-03    -227.189E-03     455.016E-03    -227.827E-03     52.3288E-03     47.8392E+06     11.1243E+06    -41.6481E+06    -41.6353E+06     11.1116E+06     47.8392E+06     732.562E+03         63.2266
             739     8.76549E-03     42.4185E-03         2.26294         2.11458        -6.93304         2.08978        -6.90824         2.26294    -165.462E-03     455.398E-03    -227.341E-03    -228.057E-03    -226.842E-03     454.667E-03    -227.825E-03     44.5270E-03     40.3261E+06     5.85736E+06    -49.4746E+06    -49.4615E+06     5.84422E+06     40.3261E+06     784.625E+03         61.5163
             740     7.96702E-03     42.3521E-03         2.28881         2.16871        -7.00812         2.14213        -6.98154         2.28881    -119.875E-03     455.386E-03    -227.493E-03    -227.892E-03    -227.048E-03     454.875E-03    -227.827E-03     37.0858E-03     31.7966E+06    -1.41335E+06    -58.0756E+06    -58.0491E+06    -1.43988E+06     31.7966E+06     392.092E+03         60.3116
             741     7.17148E-03     42.3097E-03         2.31159         2.20753        -7.06506         2.19478        -7.05231         2.31159     655.245E-03     455.345E-03    -227.414E-03    -227.931E-03    -227.217E-03     455.012E-03    -227.795E-03     29.9884E-03     19.8632E+06    -11.5964E+06    -66.7185E+06    -66.6958E+06    -11.6191E+06     19.8632E+06     35.8060E+03         59.4958
             742     6.37656E-03     42.2676E-03         2.33129         2.25452        -7.13510         2.23562        -7.11620         2.33129    -323.637E-03     454.806E-03    -226.960E-03    -227.846E-03    -226.815E-03     454.591E-03    -227.776E-03     24.0061E-03     2.59886E+06    -37.9865E+06    -76.2401E+06    -76.2025E+06    -38.0242E+06     2.59886E+06    -61.0373E+03         58.9517
             743     5.57678E-03     42.2400E-03         2.36173         2.32050        -7.24193         2.26529        -7.17380         2.34881     446.803E-03     454.703E-03    -226.902E-03    -227.801E-03    -226.772E-03     454.573E-03    -227.801E-03     18.5603E-03    -17.1958E+06    -74.8605E+06    -87.8481E+06    -86.6318E+06    -76.0768E+06    -17.1958E+06     279.046E+03         58.5870
             744     4.77942E-03     42.2203E-03         2.38083         2.35771        -7.30311         2.29350        -7.22275         2.36468     261.221E-03     455.086E-03    -227.291E-03    -227.795E-03    -227.220E-03     455.015E-03    -227.795E-03     13.5965E-03    -37.9492E+06    -95.8926E+06    -106.906E+06    -96.0627E+06    -106.736E+06    -37.9492E+06     648.574E+03         58.3385
             745     3.98415E-03     42.2073E-03         2.44507         2.37004        -7.37008         2.33841        -7.27038         2.37701     444.272E-03     455.068E-03    -227.309E-03    -227.759E-03    -227.276E-03     455.035E-03    -227.759E-03     9.30827E-03    -59.2639E+06    -104.493E+06    -135.550E+06    -104.529E+06    -135.514E+06    -59.2639E+06     154.542E+03         58.1664
             746     3.18628E-03     42.2015E-03         2.58817         2.38493        -7.51752         2.36382        -7.29316         2.38493    -558.396E-03     454.987E-03    -227.239E-03    -227.748E-03    -227.224E-03     454.973E-03    -227.748E-03     6.12999E-03    -80.6391E+06    -113.519E+06    -165.433E+06    -113.525E+06    -165.426E+06    -80.6391E+06     93.0797E+03         58.0465
             747     2.38994E-03     42.1992E-03         2.76185         2.38755        -7.69783         2.39125        -7.32723         2.38755     359.563E-03     455.050E-03    -227.222E-03    -227.827E-03    -227.272E-03     455.045E-03    -227.773E-03     3.03587E-03    -101.152E+06    -121.239E+06    -187.336E+06    -121.254E+06    -187.321E+06    -101.152E+06     418.090E+03         57.9645
             748     1.59304E-03     42.2000E-03         3.14382         2.38923        -8.08436         2.38032        -7.32086         2.38923        -1.29951     455.270E-03    -227.233E-03    -228.037E-03    -227.391E-03     455.269E-03    -227.879E-03     536.457E-06    -117.856E+06    -127.006E+06    -204.251E+06    -127.015E+06    -204.242E+06    -117.856E+06     262.123E+03         57.9112
             749     795.527E-06     42.1988E-03         3.74388         2.62518        -8.93007         2.15782        -7.34401         2.62518         1.44783     455.895E-03    -227.452E-03    -228.444E-03    -227.555E-03     455.895E-03    -228.340E-03    -517.537E-06    -126.419E+06    -131.403E+06    -219.359E+06    -129.899E+06    -219.356E+06    -127.927E+06     436.332E+03         57.8806
             750     13.5537E-03     41.4757E-03         2.29048         1.86651        -6.74193         1.84377        -6.71919         2.29048    -74.8416E-03     459.437E-03    -228.014E-03    -231.423E-03    -227.600E-03     455.614E-03    -228.014E-03     101.919E-03     117.616E+06     60.0262E+06    -7.62893E+06    -7.62271E+06     60.0200E+06     117.616E+06    -52.9400E+03         76.9267
             751     12.7507E-03     41.3115E-03         2.33735         1.93177        -6.85235         1.92131        -6.84189         2.33735     543.248E-03     458.742E-03    -227.957E-03    -230.785E-03    -227.255E-03     455.212E-03    -227.957E-03     97.2329E-03     90.7039E+06     45.7024E+06    -14.7964E+06    -14.7897E+06     45.6957E+06     90.7039E+06    -473.707E+03         74.4300
             752     11.9533E-03     41.1941E-03         2.38166         2.00591        -6.97029         2.00378        -6.96816         2.38166     7.06957E-03     458.155E-03    -227.920E-03    -230.235E-03    -227.965E-03     455.885E-03    -227.920E-03     78.8602E-03     75.1633E+06     31.3687E+06    -21.3114E+06    -21.3052E+06     31.3625E+06     75.1633E+06     112.923E+03         71.4236
             753     11.1582E-03     41.0829E-03         2.42286         2.08144        -7.09119         2.08008        -7.08982         2.42286    -52.5142E-03     457.415E-03    -227.865E-03    -229.550E-03    -227.742E-03     455.607E-03    -227.865E-03     70.1693E-03     65.1880E+06     21.5444E+06    -28.0503E+06     -28.038E+06     21.5322E+06     65.1880E+06     660.744E+03         68.3392
             754     10.3600E-03     40.9869E-03         2.46190         2.15215        -7.20887         2.14861        -7.20532         2.46190    -162.910E-03     455.915E-03    -227.719E-03    -228.195E-03    -226.745E-03     454.586E-03    -227.841E-03     60.0660E-03     55.6577E+06     15.4263E+06    -34.8792E+06    -34.8684E+06     15.4155E+06     55.6577E+06     373.569E+03         65.5470
             755     9.56173E-03     40.9082E-03         2.49851         2.23111        -7.32986         2.21916        -7.31791         2.49851     166.598E-03     455.985E-03    -227.717E-03    -228.268E-03    -227.156E-03     454.995E-03    -227.839E-03     51.8678E-03     47.6977E+06     11.0101E+06     -41.881E+06    -41.8765E+06     11.0056E+06     47.6977E+06     225.783E+03         63.2663
             756     8.76602E-03     40.8355E-03         2.53240         2.31479        -7.44611         2.28987        -7.42119         2.53240    -151.851E-03     456.200E-03    -227.792E-03    -228.408E-03    -227.690E-03     455.488E-03    -227.798E-03     43.9197E-03     40.6480E+06     6.30312E+06    -49.0585E+06    -49.0482E+06     6.29281E+06     40.6480E+06     277.191E+03         61.5520
             757     7.97061E-03     40.7820E-03         2.56331         2.38490        -7.54206         2.35881        -7.51596         2.56331    -117.811E-03     455.289E-03    -227.352E-03    -227.937E-03    -227.023E-03     454.779E-03    -227.756E-03     37.1750E-03     32.3471E+06    -240.716E+03    -57.1213E+06    -57.0962E+06    -265.839E+03     32.3471E+06    -40.6109E+03         60.3398
             758     7.17193E-03     40.7271E-03         2.59077         2.43881        -7.62067         2.42675        -7.60861         2.59077     650.252E-03     454.853E-03    -227.036E-03    -227.817E-03    -226.748E-03     454.494E-03    -227.747E-03     30.9924E-03     19.8741E+06    -11.5721E+06    -66.8866E+06    -66.8665E+06    -11.5922E+06     19.8741E+06     18.0079E+03         59.5157
             759     6.37399E-03     40.6952E-03         2.61471         2.49697        -7.70610         2.48154        -7.69067         2.61471    -317.354E-03     454.808E-03    -226.939E-03    -227.868E-03    -226.835E-03     454.583E-03    -227.748E-03     24.5820E-03     1.69639E+06    -38.8680E+06    -77.4330E+06    -77.4169E+06    -38.8840E+06     1.69639E+06     375.988E+03         58.9650
             760     5.57752E-03     40.6642E-03         2.63756         2.58299        -7.82139         2.52733        -7.76396         2.63579     434.940E-03     454.606E-03    -226.788E-03    -227.819E-03    -226.705E-03     454.474E-03    -227.769E-03     18.7418E-03    -18.3275E+06    -74.6644E+06    -87.9015E+06    -86.9307E+06    -75.6352E+06    -18.3275E+06     204.194E+03         58.5956
             761     4.78110E-03     40.6433E-03         2.65630         2.63065        -7.88915         2.56639        -7.82311         2.65452     281.670E-03     454.719E-03    -226.919E-03    -227.801E-03    -226.852E-03     454.653E-03    -227.801E-03     13.2275E-03    -38.3662E+06    -95.6044E+06    -106.664E+06    -95.9718E+06    -106.297E+06    -38.3662E+06    -411.579E+03         58.3441
             762     3.98267E-03     40.6316E-03         2.71384         2.65035        -7.95949         2.61811        -7.88271         2.66929     400.854E-03     454.953E-03    -227.133E-03    -227.821E-03    -227.104E-03     454.924E-03    -227.821E-03     8.64508E-03    -59.8110E+06    -105.441E+06    -135.650E+06    -105.469E+06    -135.623E+06    -59.8110E+06     17.9748E+03         58.1702
             763     3.18627E-03     40.6258E-03         2.81250         2.67974        -8.07650         2.64714        -7.91113         2.67974    -455.994E-03     455.140E-03    -227.306E-03    -227.834E-03    -227.295E-03     455.129E-03    -227.834E-03     5.20669E-03    -81.0127E+06    -114.006E+06    -165.011E+06    -114.035E+06    -164.982E+06    -81.0127E+06     280.429E+03         58.0494
             764     2.38928E-03     40.6216E-03         2.93467         2.68426        -8.20619         2.68503        -7.95655         2.68426     193.065E-03     455.468E-03    -227.570E-03    -227.897E-03    -227.658E-03     455.464E-03    -227.806E-03     2.69226E-03    -100.389E+06    -121.111E+06    -187.154E+06    -121.126E+06    -187.139E+06    -100.389E+06    -125.555E+03         57.9669
             765     1.59353E-03     40.6235E-03         3.14319         2.68827        -8.42691         2.67217        -7.95589         2.68827    -959.119E-03     455.666E-03    -227.625E-03    -228.041E-03    -228.040E-03     455.665E-03    -227.625E-03     1.09456E-03    -117.190E+06    -126.972E+06    -204.095E+06    -126.975E+06    -204.092E+06    -117.190E+06     6.25457E+03         57.9132
             766     798.313E-06     40.6222E-03         3.43948         2.77218        -8.82113         2.33117        -7.99390         3.05326     507.902E-03     454.921E-03    -227.119E-03    -227.802E-03    -227.503E-03     454.921E-03    -227.418E-03    -226.706E-06    -127.690E+06    -131.448E+06    -218.901E+06    -131.204E+06    -218.891E+06    -127.944E+06    -166.839E+03         57.8823
             767     13.5465E-03     39.9006E-03         2.49897         1.92453        -7.05645         1.90492        -7.03684         2.49897    -79.9347E-03     459.414E-03    -228.073E-03    -231.341E-03    -227.495E-03     455.573E-03    -228.078E-03     102.289E-03     117.694E+06     60.1179E+06    -7.46161E+06    -7.45896E+06     60.1153E+06     117.694E+06     149.869E+03         76.8792
             768     12.7515E-03     39.7376E-03         2.55208         2.01488        -7.19873         2.00577        -7.18961         2.55208     531.894E-03     459.774E-03    -227.993E-03    -231.782E-03    -228.331E-03     456.324E-03    -227.993E-03     96.1850E-03     90.8088E+06     46.0672E+06    -14.7248E+06    -14.7189E+06     46.0613E+06     90.8088E+06     294.387E+03         74.4050
             769     11.9547E-03     39.6134E-03         2.60233         2.11103        -7.34400         2.10833        -7.34130         2.60233    -7.98173E-03     458.011E-03    -227.923E-03    -230.089E-03    -227.867E-03     455.790E-03    -227.923E-03     78.0225E-03     74.5710E+06     30.7172E+06    -21.6963E+06    -21.6913E+06     30.7121E+06     74.5710E+06     243.415E+03         71.4264
             770     11.1578E-03     39.5053E-03         2.64911         2.20628        -7.48922         2.20426        -7.48720         2.64911    -54.6011E-03     457.346E-03    -227.874E-03    -229.472E-03    -227.661E-03     455.535E-03    -227.874E-03     70.2378E-03     65.0435E+06     21.2903E+06    -27.9092E+06    -27.9072E+06     21.2882E+06     65.0435E+06    -13.2953E+03         68.3638
             771     10.3604E-03     39.4135E-03         2.69327         2.29679        -7.62913         2.29244        -7.62478         2.69327    -164.773E-03     456.667E-03    -227.809E-03    -228.858E-03    -227.516E-03     455.340E-03    -227.825E-03     60.0785E-03     56.3675E+06     16.4023E+06    -34.3935E+06    -34.3905E+06     16.3993E+06     56.3675E+06     5.95439E+03         65.5848
             772     9.56354E-03     39.3301E-03         2.73477         2.39405        -7.77041         2.38133        -7.75769         2.73477     156.051E-03     455.903E-03    -227.531E-03    -228.372E-03    -227.125E-03     454.915E-03    -227.790E-03     51.8358E-03     47.8868E+06     11.3229E+06    -41.7000E+06    -41.6907E+06     11.3136E+06     47.8868E+06    -130.425E+03         63.3075
             773     8.76594E-03     39.2587E-03         2.77320         2.49469        -7.90692         2.46988        -7.88210         2.77320    -145.980E-03     455.505E-03    -227.350E-03    -228.155E-03    -226.995E-03     454.773E-03    -227.777E-03     44.5448E-03     40.1287E+06     6.14968E+06    -49.1259E+06    -49.1147E+06     6.13851E+06     40.1287E+06    -385.763E+03         61.5881
             774     7.96852E-03     39.2030E-03         2.80815         2.57816        -8.01955         2.55248        -7.99387         2.80815    -117.339E-03     455.315E-03    -227.319E-03    -227.996E-03    -227.015E-03     454.784E-03    -227.770E-03     37.9134E-03     31.8006E+06    -413.582E+03    -57.6022E+06    -57.5896E+06    -426.166E+03     31.8006E+06     186.408E+03         60.3683
             775     7.17166E-03     39.1561E-03         2.83950         2.64326        -8.11426         2.63203        -8.10303         2.83950     629.730E-03     454.814E-03    -226.998E-03    -227.815E-03    -226.676E-03     454.446E-03    -227.770E-03     31.4011E-03     19.7862E+06    -11.8149E+06    -67.2629E+06    -67.2514E+06    -11.8264E+06     19.7862E+06     727.730E+03         59.5370
             776     6.37450E-03     39.1152E-03         2.86718         2.71224        -8.21497         2.69996        -8.20269         2.86718    -316.581E-03     454.914E-03    -227.089E-03    -227.825E-03    -226.917E-03     454.691E-03    -227.775E-03     24.3741E-03     2.40259E+06    -38.3471E+06    -76.9178E+06    -76.9150E+06    -38.3500E+06     2.40259E+06     292.136E+03         58.9804
             777     5.57832E-03     39.0892E-03         2.89130         2.80789        -8.33728         2.76060        -8.28999         2.89130     413.225E-03     454.944E-03    -227.131E-03    -227.813E-03    -227.050E-03     454.813E-03    -227.763E-03     18.7304E-03    -18.0130E+06    -73.5630E+06    -87.2824E+06    -86.7509E+06    -74.0945E+06    -18.0130E+06    -64.6165E+03         58.6070
             778     4.77966E-03     39.0682E-03         2.91216         2.86416        -8.41132         2.81180        -8.35897         2.91216     306.059E-03     454.662E-03    -226.896E-03    -227.767E-03    -226.826E-03     454.592E-03    -227.767E-03     13.4919E-03    -39.4077E+06    -95.9836E+06    -107.445E+06    -97.1627E+06    -106.266E+06    -39.4077E+06    -293.782E+03         58.3528
             779     3.98370E-03     39.0554E-03         2.95104         2.89908        -8.48238         2.86808        -8.42898         2.92864     324.308E-03     454.979E-03    -227.202E-03    -227.778E-03    -227.173E-03     454.951E-03    -227.778E-03     8.49101E-03    -60.4869E+06    -106.509E+06    -136.752E+06    -106.562E+06    -136.698E+06    -60.4869E+06    -345.846E+03         58.1770
             780     3.18694E-03     39.0485E-03         3.00365         2.94133        -8.56939         2.89730        -8.46304         2.94133    -321.427E-03     455.227E-03    -227.437E-03    -227.790E-03    -227.473E-03     455.218E-03    -227.744E-03     4.82290E-03    -81.3714E+06    -114.906E+06    -164.114E+06    -114.967E+06    -164.053E+06    -81.3714E+06    -98.1967E+03         58.0550
             781     2.39009E-03     39.0471E-03         3.08238         2.94747        -8.64891         2.94666        -8.51319         2.94747    -27.7798E-03     455.153E-03    -227.375E-03    -227.777E-03    -227.456E-03     455.150E-03    -227.695E-03     2.47957E-03    -101.785E+06    -123.053E+06    -187.246E+06    -123.073E+06    -187.226E+06    -101.785E+06    -1.61257E+03         57.9715
             782     1.59309E-03     39.0439E-03         3.14626         2.95290        -8.72496         2.93224        -8.51094         2.95290    -555.496E-03     455.134E-03    -227.181E-03    -227.953E-03    -227.438E-03     455.133E-03    -227.695E-03     1.27446E-03    -118.727E+06    -129.104E+06    -204.493E+06    -129.106E+06    -204.491E+06    -118.727E+06     31.9246E+03         57.9172
             783     796.091E-06     39.0489E-03         3.52349         2.65251        -8.82038         2.49026        -8.55976         3.42511    -679.168E-03     455.385E-03    -227.210E-03    -228.174E-03    -227.830E-03     455.384E-03    -227.554E-03     500.132E-06    -130.663E+06    -133.643E+06    -218.938E+06    -133.413E+06    -218.914E+06    -130.917E+06     236.376E+03         57.8859
             784     13.5492E-03     38.3233E-03         2.68038         1.97550        -7.33357         1.95819        -7.31626         2.68038    -84.3764E-03     459.960E-03    -228.066E-03    -231.895E-03    -228.123E-03     456.194E-03    -228.071E-03     101.382E-03     118.291E+06     60.2348E+06    -7.35531E+06    -7.34984E+06     60.2293E+06     118.291E+06     540.988E+03         76.8358
             785     12.7527E-03     38.1548E-03         2.73797         2.08666        -7.49936         2.07849        -7.49119         2.73797     523.566E-03     459.731E-03    -227.962E-03    -231.769E-03    -228.384E-03     456.346E-03    -227.962E-03     95.2904E-03     91.5574E+06     46.0848E+06    -14.6311E+06    -14.6190E+06     46.0727E+06     91.5574E+06     288.511E+03         74.3836
             786     11.9554E-03     38.0415E-03         2.79230         2.20209        -7.66701         2.19891        -7.66383         2.79230    -18.1554E-03     457.401E-03    -227.906E-03    -229.495E-03    -227.261E-03     455.167E-03    -227.906E-03     78.2158E-03     75.1980E+06     30.9673E+06    -21.0714E+06    -21.0610E+06     30.9569E+06     75.1980E+06    -36.0775E+03         71.4296
             787     11.1556E-03     37.9275E-03         2.84313         2.31378        -7.83016         2.31121        -7.82759         2.84313    -54.8206E-03     457.150E-03    -227.882E-03    -229.268E-03    -227.450E-03     455.332E-03    -227.882E-03     70.2370E-03     64.8476E+06     21.1386E+06    -27.7145E+06    -27.7107E+06     21.1348E+06     64.8476E+06    -226.566E+03         68.3874
             788     10.3603E-03     37.8339E-03         2.89115         2.42017        -7.98719         2.41521        -7.98223         2.89115    -163.325E-03     456.905E-03    -227.831E-03    -229.074E-03    -227.743E-03     455.574E-03    -227.831E-03     60.2664E-03     55.9076E+06     16.4288E+06    -34.4573E+06    -34.4531E+06     16.4245E+06     55.9076E+06    -243.773E+03         65.6212
             789     9.56434E-03     37.7539E-03         2.93616         2.53182        -8.14477         2.51860        -8.13156         2.93616     148.598E-03     455.956E-03    -227.546E-03    -228.410E-03    -227.141E-03     454.930E-03    -227.789E-03     52.7849E-03     47.8703E+06     12.1577E+06    -41.4799E+06    -41.4713E+06     12.1491E+06     47.8703E+06    -155.278E+03         63.3478
             790     8.76577E-03     37.6859E-03         2.97797         2.64469        -8.29687         2.62009        -8.27227         2.97797    -141.958E-03     455.247E-03    -227.319E-03    -227.928E-03    -226.710E-03     454.501E-03    -227.791E-03     44.9747E-03     39.5103E+06     5.83464E+06    -49.9352E+06    -49.9252E+06     5.82463E+06     39.5103E+06     20.4861E+03         61.6253
             791     7.96804E-03     37.6244E-03         3.01634         2.73882        -8.42487         2.71330        -8.39935         3.01634    -110.758E-03     455.273E-03    -227.427E-03    -227.846E-03    -226.963E-03     454.764E-03    -227.801E-03     37.0103E-03     31.0561E+06    -1.24431E+06    -58.6404E+06    -58.6332E+06    -1.25154E+06     31.0561E+06     100.563E+03         60.3993
             792     7.17180E-03     37.5796E-03         3.05092         2.81579        -8.53276         2.80500        -8.52197         3.05092     604.701E-03     455.006E-03    -227.166E-03    -227.840E-03    -226.864E-03     454.659E-03    -227.795E-03     30.6796E-03     19.7816E+06    -11.4080E+06    -67.4047E+06    -67.4000E+06    -11.4127E+06     19.7816E+06     67.4077E+03         59.5617
             793     6.37449E-03     37.5397E-03         3.08155         2.89432        -8.64117         2.88520        -8.63204         3.08155    -308.758E-03     454.694E-03    -226.883E-03    -227.811E-03    -226.645E-03     454.456E-03    -227.811E-03     25.2393E-03     2.83652E+06    -37.7446E+06    -76.9270E+06    -76.9226E+06    -37.7490E+06     2.83652E+06     277.422E+03         58.9999
             794     5.57655E-03     37.5121E-03         3.10839         2.99248        -8.76724         2.95482        -8.72958         3.10839     391.025E-03     455.066E-03    -227.247E-03    -227.819E-03    -227.111E-03     454.930E-03    -227.819E-03     19.0310E-03    -17.7660E+06    -73.7708E+06     -87.284E+06    -87.1786E+06    -73.8762E+06    -17.7660E+06     506.746E+03         58.6226
             795     4.78153E-03     37.4924E-03         3.13160         3.05527        -8.85251         3.01543        -8.81267         3.13160     332.691E-03     455.138E-03    -227.357E-03    -227.781E-03    -227.285E-03     455.067E-03    -227.781E-03     13.7425E-03    -39.4925E+06    -95.8117E+06    -106.876E+06    -97.0422E+06    -105.645E+06    -39.4925E+06     413.897E+03         58.3656
             796     3.98354E-03     37.4791E-03         3.15698         3.10881        -8.92730         3.08224        -8.89347         3.14973     245.085E-03     454.969E-03    -227.219E-03    -227.750E-03    -227.186E-03     454.936E-03    -227.750E-03     9.20972E-03    -61.2346E+06    -106.683E+06    -137.010E+06    -106.733E+06    -136.960E+06    -61.2346E+06    -6.97516E+03         58.1879
             797     3.18673E-03     37.4724E-03         3.17874         3.16043        -8.99513         3.11635        -8.93562         3.16331    -178.004E-03     455.170E-03    -227.412E-03    -227.758E-03    -227.446E-03     455.157E-03    -227.711E-03     5.61200E-03    -82.6167E+06    -115.887E+06    -164.417E+06    -115.968E+06    -164.336E+06    -82.6167E+06    -224.249E+03         58.0643
             798     2.39073E-03     37.4698E-03         3.22166         3.16837        -9.04975         3.16115        -8.99211         3.17125    -255.434E-03     455.155E-03    -227.414E-03    -227.741E-03    -227.504E-03     455.151E-03    -227.647E-03     2.91191E-03    -102.314E+06    -123.171E+06    -186.915E+06    -123.205E+06    -186.881E+06    -102.314E+06    -150.715E+03         57.9796
             799     1.59336E-03     37.4714E-03         3.22975         3.15927        -9.04484         3.15218        -8.98792         3.17992    -112.685E-03     454.924E-03    -227.169E-03    -227.756E-03    -227.241E-03     454.924E-03    -227.682E-03     773.902E-06    -118.517E+06    -128.521E+06    -204.468E+06    -128.527E+06    -204.462E+06    -118.517E+06    -294.205E+03         57.9244
             800     795.560E-06     37.4701E-03         3.74971         2.77478        -9.19160         2.63173        -9.04096         3.74212        -1.97838     455.454E-03    -227.201E-03    -228.253E-03    -227.565E-03     455.453E-03    -227.888E-03    -52.3720E-06    -129.704E+06    -132.966E+06    -218.028E+06    -132.985E+06    -218.009E+06    -129.704E+06     177.239E+03         57.8927
             801     13.5516E-03     36.7481E-03         2.82825         2.01764        -7.56082         2.00185        -7.54502         2.82825    -88.2107E-03     459.945E-03    -228.020E-03    -231.925E-03    -228.065E-03     456.084E-03    -228.020E-03     102.444E-03     118.427E+06     59.9437E+06    -7.61227E+06    -7.60744E+06     59.9388E+06     118.427E+06     377.042E+03         76.7933
             802     12.7522E-03     36.5787E-03         2.88835         2.14375        -7.74280         2.13633        -7.73538         2.88835     510.207E-03     458.751E-03    -227.951E-03    -230.800E-03    -227.292E-03     455.243E-03    -227.951E-03     96.6459E-03     92.1779E+06     46.1643E+06    -14.2806E+06    -14.2729E+06     46.1566E+06     92.1779E+06    -93.3004E+03         74.3598
             803     11.9538E-03     36.4654E-03         2.94509         2.27469        -7.92680         2.27145        -7.92356         2.94509    -24.9866E-03     457.742E-03    -227.923E-03    -229.819E-03    -227.560E-03     455.483E-03    -227.923E-03     78.6813E-03     76.1421E+06     31.7838E+06    -20.7664E+06    -20.7593E+06     31.7767E+06     76.1421E+06    -8.63668E+03         71.4299
             804     11.1591E-03     36.3501E-03         2.99830         2.39894        -8.10293         2.39612        -8.10011         2.99830    -47.9201E-03     457.148E-03    -227.891E-03    -229.257E-03    -227.401E-03     455.292E-03    -227.891E-03     70.9622E-03     65.0583E+06     21.5875E+06    -27.9516E+06    -27.9476E+06     21.5834E+06     65.0583E+06     92.1986E+03         68.4100
             805     10.3600E-03     36.2583E-03         3.04860         2.51782        -8.27305         2.51254        -8.26777         3.04860    -159.423E-03     456.172E-03    -227.872E-03    -228.301E-03    -226.944E-03     454.816E-03    -227.872E-03     60.7607E-03     54.8770E+06     15.8355E+06    -35.0013E+06    -34.9980E+06     15.8322E+06     54.8770E+06    -229.130E+03         65.6568
             806     9.56112E-03     36.1767E-03         3.09582         2.63977        -8.44191         2.62619        -8.42834         3.09582     151.072E-03     456.340E-03    -227.852E-03    -228.489E-03    -227.461E-03     455.313E-03    -227.852E-03     52.8045E-03     46.8551E+06     11.7498E+06    -42.2041E+06    -42.2009E+06     11.7467E+06     46.8551E+06     130.250E+03         63.3880
             807     8.76595E-03     36.1085E-03         3.13987         2.75980        -8.60303         2.73520        -8.57844         3.13987    -135.448E-03     455.975E-03    -227.709E-03    -228.266E-03    -227.425E-03     455.240E-03    -227.816E-03     44.6556E-03     39.8496E+06     6.27188E+06    -49.8029E+06    -49.7949E+06     6.26386E+06     39.8496E+06     239.790E+03         61.6650
             808     7.96940E-03     36.0490E-03         3.18064         2.86251        -8.74252         2.83688        -8.71689         3.18064    -100.353E-03     455.050E-03    -227.243E-03    -227.806E-03    -226.719E-03     454.526E-03    -227.806E-03     37.6205E-03     31.4281E+06    -901.353E+03    -58.3577E+06    -58.3491E+06    -909.927E+03     31.4281E+06    -200.267E+03         60.4344
             809     7.17136E-03     36.0023E-03         3.21764         2.94944        -8.86065         2.93872        -8.84993         3.21764     585.566E-03     454.855E-03    -227.032E-03    -227.823E-03    -226.677E-03     454.500E-03    -227.823E-03     30.8753E-03     19.5085E+06    -11.5893E+06    -67.4050E+06    -67.4018E+06    -11.5925E+06     19.5085E+06    -97.1530E+03         59.5910
             810     6.37365E-03     35.9659E-03         3.25049         3.03530        -8.97503         3.02874        -8.96846         3.25049    -291.210E-03     454.861E-03    -227.018E-03    -227.842E-03    -226.790E-03     454.632E-03    -227.842E-03     24.7835E-03     2.02674E+06    -38.3950E+06    -77.2772E+06    -77.2675E+06    -38.4047E+06     2.02674E+06     439.110E+03         59.0243
             811     5.57705E-03     35.9341E-03         3.27940         3.13609        -9.10433         3.10678        -9.07502         3.27940     368.456E-03     454.931E-03    -227.071E-03    -227.860E-03    -226.936E-03     454.797E-03    -227.860E-03     18.8611E-03    -18.1699E+06    -74.1104E+06    -87.5443E+06    -87.4905E+06    -74.1641E+06    -18.1699E+06     366.845E+03         58.6433
             812     4.77927E-03     35.9156E-03         3.30438         3.20537        -9.19783         3.17577        -9.16822         3.30438     356.678E-03     455.174E-03    -227.327E-03    -227.848E-03    -227.257E-03     455.105E-03    -227.848E-03     13.6019E-03    -39.2920E+06    -95.9323E+06    -106.579E+06    -97.2240E+06    -105.288E+06    -39.2920E+06     374.241E+03         58.3837
             813     3.98353E-03     35.9034E-03         3.32449         3.26601        -9.27450         3.24634        -9.25445         3.32411     182.906E-03     455.186E-03    -227.374E-03    -227.811E-03    -227.340E-03     455.151E-03    -227.811E-03     9.43854E-03    -61.5323E+06    -106.496E+06    -136.107E+06    -106.545E+06    -136.059E+06    -61.5323E+06     511.886E+03         58.2040
             814     3.18657E-03     35.8960E-03         3.33965         3.31582        -9.33608         3.28591        -9.30579         3.33927    -53.1829E-03     455.203E-03    -227.427E-03    -227.776E-03    -227.414E-03     455.190E-03    -227.776E-03     5.69113E-03    -82.9654E+06    -114.904E+06    -164.288E+06    -114.957E+06    -164.235E+06    -82.9654E+06    -161.259E+03         58.0788
             815     2.38918E-03     35.8937E-03         3.36371         3.33479        -9.38575         3.32903        -9.36596         3.34968    -462.756E-03     455.435E-03    -227.568E-03    -227.867E-03    -227.731E-03     455.431E-03    -227.700E-03     2.70143E-03    -102.006E+06    -122.193E+06    -186.738E+06    -122.225E+06    -186.706E+06    -102.006E+06    -573.647E+03         57.9930
             816     1.59367E-03     35.8943E-03         3.37587         3.32457        -9.37588         3.32699        -9.36427         3.36184     320.257E-03     455.408E-03    -227.493E-03    -227.916E-03    -227.915E-03     455.408E-03    -227.493E-03     606.176E-06    -118.063E+06    -127.879E+06    -204.526E+06    -127.893E+06    -204.512E+06    -118.063E+06    -648.570E+03         57.9369
             817     798.109E-06     35.8960E-03         3.98500         3.22432        -9.86025         2.75737        -9.39329         3.98500        -3.15832     454.651E-03    -226.664E-03    -227.986E-03    -226.919E-03     454.649E-03    -227.730E-03     311.476E-06    -127.552E+06    -132.075E+06    -217.373E+06    -130.717E+06    -217.365E+06    -128.918E+06    -263.301E+03         57.9045
             818     13.5500E-03     35.1727E-03         2.93749         2.04931        -7.72840         2.03430        -7.71339         2.93749    -86.1579E-03     459.497E-03    -228.031E-03    -231.466E-03    -227.614E-03     455.645E-03    -228.031E-03     102.265E-03     118.600E+06     59.9837E+06    -7.44116E+06    -7.43984E+06     59.9824E+06     118.600E+06    -110.611E+03         76.7478
             819     12.7514E-03     35.0058E-03         2.99795         2.18704        -7.92302         2.18005        -7.91603         2.99795     499.334E-03     458.808E-03    -227.975E-03    -230.834E-03    -227.289E-03     455.264E-03    -227.975E-03     97.2913E-03     91.6242E+06     46.0185E+06    -14.7842E+06    -14.7823E+06     46.0165E+06     91.6242E+06    -45.5596E+03         74.3337
             820     11.9546E-03     34.8853E-03         3.05517         2.32630        -8.11459         2.32341        -8.11171         3.05517    -20.7041E-03     457.376E-03    -227.965E-03    -229.411E-03    -227.101E-03     455.067E-03    -227.965E-03     79.4997E-03     75.1834E+06     31.4865E+06    -21.4457E+06    -21.4432E+06     31.4841E+06     75.1834E+06     197.398E+03         71.4282
             821     11.1555E-03     34.7747E-03         3.10901         2.45750        -8.29623         2.45486        -8.29358         3.10901    -32.2981E-03     457.015E-03    -227.968E-03    -229.048E-03    -227.144E-03     455.112E-03    -227.968E-03     71.9119E-03     65.0944E+06     22.0857E+06    -27.7243E+06    -27.7225E+06     22.0839E+06     65.0944E+06     124.604E+03         68.4298
             822     10.3586E-03     34.6828E-03         3.16000         2.58467        -8.47285         2.57949        -8.46766         3.16000    -152.893E-03     456.679E-03    -227.955E-03    -228.724E-03    -227.332E-03     455.287E-03    -227.955E-03     61.5682E-03     55.7227E+06     16.3073E+06    -34.7608E+06    -34.7584E+06     16.3049E+06     55.7227E+06     253.243E+03         65.6916
             823     9.56282E-03     34.5992E-03         3.20804         2.71323        -8.64874         2.69982        -8.63533         3.20804     157.620E-03     456.440E-03    -227.787E-03    -228.653E-03    -227.465E-03     455.392E-03    -227.927E-03     53.3587E-03     47.3862E+06     11.5917E+06    -41.9193E+06    -41.9164E+06     11.5888E+06     47.3862E+06     310.368E+03         63.4296
             824     8.76564E-03     34.5290E-03         3.25308         2.83715        -8.81574         2.81318        -8.79176         3.25308    -126.097E-03     455.932E-03    -227.699E-03    -228.233E-03    -227.268E-03     455.169E-03    -227.902E-03     45.4531E-03     39.5195E+06     6.24505E+06    -49.4444E+06    -49.4408E+06     6.24139E+06     39.5195E+06    -96.7022E+03         61.7063
             825     7.96786E-03     34.4757E-03         3.29502         2.94582        -8.96031         2.92061        -8.93509         3.29502    -85.5141E-03     455.510E-03    -227.516E-03    -227.994E-03    -227.074E-03     454.964E-03    -227.890E-03     38.4905E-03     30.9120E+06    -802.120E+03    -58.1310E+06    -58.1257E+06    -807.339E+03     30.9120E+06    -50.8907E+03         60.4722
             826     7.17036E-03     34.4250E-03         3.33340         3.03884        -9.08443         3.02812        -9.07371         3.33340     570.076E-03     455.362E-03    -227.403E-03    -227.960E-03    -227.122E-03     454.997E-03    -227.875E-03     31.3054E-03     18.9297E+06    -12.3269E+06    -68.0898E+06    -68.0867E+06    -12.3300E+06     18.9297E+06     311.769E+03         59.6247
             827     6.37481E-03     34.3884E-03         3.36769         3.13010        -9.20426         3.12524        -9.19940         3.36769    -272.482E-03     455.198E-03    -227.346E-03    -227.853E-03    -227.122E-03     454.975E-03    -227.853E-03     24.5540E-03     1.90118E+06    -38.4778E+06    -77.9188E+06    -77.9085E+06    -38.4880E+06     1.90118E+06     487.342E+03         59.0542
             828     5.57707E-03     34.3595E-03         3.39775         3.23607        -9.33489         3.21253        -9.31136         3.39775     350.115E-03     454.727E-03    -226.864E-03    -227.863E-03    -226.730E-03     454.593E-03    -227.863E-03     18.8850E-03    -18.2112E+06    -73.4212E+06    -87.5907E+06    -87.4457E+06    -73.5662E+06    -18.2112E+06     493.130E+03         58.6700
             829     4.78028E-03     34.3387E-03         3.42339         3.31191        -9.43229         3.28915        -9.40952         3.42339     376.431E-03     454.890E-03    -226.993E-03    -227.897E-03    -226.922E-03     454.819E-03    -227.897E-03     13.7113E-03    -39.5744E+06    -95.9847E+06    -106.483E+06    -97.3881E+06    -105.079E+06    -39.5744E+06     43.2594E+03         58.4080
             830     3.98280E-03     34.3264E-03         3.44448         3.36503        -9.51110         3.35321        -9.49928         3.44448     134.387E-03     455.515E-03    -227.541E-03    -227.974E-03    -227.607E-03     455.481E-03    -227.874E-03     9.22541E-03    -61.3102E+06    -106.684E+06    -135.555E+06    -106.753E+06    -135.487E+06    -61.3102E+06    -210.232E+03         58.2266
             831     3.18645E-03     34.3197E-03         3.46266         3.40821        -9.57424         3.39370        -9.55973         3.46266     46.5712E-03     455.475E-03    -227.592E-03    -227.884E-03    -227.680E-03     455.464E-03    -227.784E-03     5.08410E-03    -83.0537E+06    -115.152E+06    -163.548E+06    -115.169E+06    -163.531E+06    -83.0537E+06    -57.6657E+03         58.1002
             832     2.39048E-03     34.3170E-03         3.48451         3.44818        -9.62877         3.44692        -9.61936         3.47637    -618.077E-03     455.157E-03    -227.314E-03    -227.843E-03    -227.430E-03     455.154E-03    -227.724E-03     2.64513E-03    -103.673E+06    -122.637E+06    -186.614E+06    -122.651E+06    -186.599E+06    -103.673E+06    -167.824E+03         58.0132
             833     1.59354E-03     34.3168E-03         3.51067         3.47227        -9.66996         3.45846        -9.63437         3.48889     667.926E-03     455.276E-03    -227.197E-03    -228.079E-03    -227.546E-03     455.275E-03    -227.729E-03     1.57488E-03    -119.003E+06    -127.890E+06    -205.051E+06    -127.902E+06    -205.038E+06    -119.003E+06    -540.018E+03         57.9564
             834     796.670E-06     34.3211E-03         4.14979         3.77306        -10.6024         2.85745        -9.67315         4.13615        -4.07131     455.440E-03    -227.095E-03    -228.345E-03    -227.388E-03     455.438E-03    -228.050E-03     1.02175E-03    -127.661E+06    -132.583E+06    -218.470E+06    -131.227E+06    -218.460E+06    -129.027E+06     258.402E+03         57.9235
             835     13.5492E-03     33.5962E-03         3.00375         2.06969        -7.83577         2.05477        -7.82086         3.00375    -74.0796E-03     459.321E-03    -228.066E-03    -231.256E-03    -227.412E-03     455.478E-03    -228.066E-03     102.123E-03     118.621E+06     59.7869E+06    -7.48169E+06    -7.47939E+06     59.7846E+06     118.621E+06     79.4332E+03         76.7024
             836     12.7524E-03     33.4294E-03         3.06261         2.20936        -8.02914         2.20238        -8.02216         3.06261     493.556E-03     458.991E-03    -228.013E-03    -230.978E-03    -227.414E-03     455.427E-03    -228.013E-03     97.6526E-03     91.5576E+06     46.0703E+06    -14.6719E+06    -14.6689E+06     46.0673E+06     91.5576E+06     89.5150E+03         74.3077
             837     11.9528E-03     33.3110E-03         3.11859         2.35039        -8.21977         2.34810        -8.21748         3.11859    -11.8973E-03     456.961E-03    -228.017E-03    -228.944E-03    -226.641E-03     454.657E-03    -228.017E-03     79.3271E-03     74.7496E+06     31.3328E+06    -21.3749E+06    -21.3735E+06     31.3314E+06     74.7496E+06    -53.0232E+03         71.4264
             838     11.1550E-03     33.1992E-03         3.17163         2.48528        -8.40129         2.48315        -8.39916         3.17163    -18.6165E-03     456.855E-03    -228.047E-03    -228.808E-03    -226.933E-03     454.980E-03    -228.047E-03     71.3853E-03     64.7864E+06     21.7034E+06    -27.9664E+06    -27.9638E+06     21.7008E+06     64.7864E+06     68.5459E+03         68.4495
             839     10.3581E-03     33.1029E-03         3.22198         2.61708        -8.57853         2.61232        -8.57378         3.22198    -152.446E-03     456.825E-03    -228.011E-03    -228.814E-03    -227.379E-03     455.427E-03    -228.048E-03     61.7221E-03     56.1655E+06     16.8138E+06    -34.4929E+06    -34.4869E+06     16.8079E+06     56.1655E+06     207.017E+03         65.7262
             840     9.56074E-03     33.0227E-03         3.26951         2.75018        -8.75615         2.73761        -8.74358         3.26951     156.238E-03     456.103E-03    -227.731E-03    -228.371E-03    -226.987E-03     455.034E-03    -228.046E-03     53.9013E-03     47.7677E+06     12.0628E+06    -41.5868E+06    -41.5825E+06     12.0585E+06     47.7677E+06    -23.1408E+03         63.4706
             841     8.76243E-03     32.9539E-03         3.31425         2.87500        -8.92337         2.85247        -8.90084         3.31425    -122.195E-03     455.934E-03    -227.782E-03    -228.152E-03    -227.087E-03     455.146E-03    -228.060E-03     46.2133E-03     39.1255E+06     5.88080E+06    -49.7096E+06    -49.7020E+06     5.87316E+06     39.1255E+06     263.520E+03         61.7475
             842     7.96659E-03     32.8956E-03         3.35629         2.98462        -9.07020         2.96083        -9.04642         3.35629    -80.6279E-03     456.240E-03    -228.019E-03    -228.220E-03    -227.645E-03     455.688E-03    -228.043E-03     38.6661E-03     30.4459E+06    -1.16434E+06    -58.3270E+06    -58.3165E+06    -1.17483E+06     30.4459E+06     369.663E+03         60.5114
             843     7.17134E-03     32.8489E-03         3.39506         3.08196        -9.19832         3.07186        -9.18822         3.39506     547.007E-03     455.669E-03    -227.577E-03    -228.092E-03    -227.276E-03     455.283E-03    -228.007E-03     32.3355E-03     18.9423E+06    -12.2748E+06    -67.7442E+06    -67.7364E+06    -12.2827E+06     18.9423E+06     359.996E+03         59.6612
             844     6.37315E-03     32.8106E-03         3.42988         3.17757        -9.31842         3.17342        -9.31427         3.42988    -263.907E-03     455.329E-03    -227.330E-03    -227.999E-03    -227.069E-03     455.068E-03    -227.999E-03     26.4417E-03     1.94434E+06    -38.5502E+06    -77.6616E+06    -77.6482E+06    -38.5636E+06     1.94434E+06     290.353E+03         59.0881
             845     5.57726E-03     32.7837E-03         3.46041         3.28645        -9.44895         3.26628        -9.42879         3.46041     324.946E-03     455.491E-03    -227.373E-03    -228.118E-03    -227.348E-03     455.338E-03    -227.990E-03     20.2412E-03    -17.6518E+06    -72.8240E+06    -87.3256E+06    -87.1640E+06    -72.9855E+06    -17.6518E+06     395.434E+03         58.7023
             846     4.77903E-03     32.7638E-03         3.48647         3.36470        -9.55258         3.34579        -9.53367         3.48647     375.972E-03     455.478E-03    -227.401E-03    -228.077E-03    -227.450E-03     455.399E-03    -227.949E-03     14.3697E-03    -38.9525E+06    -94.9480E+06    -105.806E+06    -96.8066E+06    -103.947E+06    -38.9525E+06     440.082E+03         58.4391
             847     3.98285E-03     32.7479E-03         3.50876         3.41387        -9.63087         3.40617        -9.62318         3.50876     90.8938E-03     455.386E-03    -227.381E-03    -228.005E-03    -227.448E-03     455.353E-03    -227.905E-03     9.16084E-03    -61.1098E+06    -106.346E+06    -135.331E+06    -106.442E+06    -135.236E+06    -61.1098E+06    -121.838E+03         58.2568
             848     3.18709E-03     32.7425E-03         3.52875         3.45985        -9.69780         3.45234        -9.69029         3.52875     102.418E-03     455.338E-03    -227.363E-03    -227.975E-03    -227.450E-03     455.325E-03    -227.875E-03     5.68242E-03    -82.8347E+06    -115.359E+06    -163.956E+06    -115.379E+06    -163.937E+06    -82.8347E+06    -147.405E+03         58.1294
             849     2.38971E-03     32.7418E-03         3.54924         3.50851        -9.75773         3.50155        -9.74726         3.54572    -709.198E-03     455.311E-03    -227.404E-03    -227.906E-03    -227.422E-03     455.306E-03    -227.884E-03     3.25833E-03    -102.831E+06    -122.606E+06    -186.401E+06    -122.612E+06    -186.395E+06    -102.831E+06     243.849E+03         58.0418
             850     1.59180E-03     32.7423E-03         3.61254         3.55386        -9.84831         3.53415        -9.77546         3.55940     861.580E-03     455.462E-03    -227.442E-03    -228.020E-03    -227.462E-03     455.460E-03    -227.998E-03     1.02643E-03    -119.691E+06    -128.615E+06    -205.149E+06    -128.635E+06    -205.129E+06    -119.691E+06     601.934E+03         57.9844
             851     794.926E-06     32.7417E-03         4.28622         4.13477        -11.1013         2.91840        -9.81173         4.21300        -4.66057     456.149E-03    -227.890E-03    -228.259E-03    -228.000E-03     456.148E-03    -228.148E-03    -189.395E-06    -129.603E+06    -133.797E+06    -219.306E+06    -132.786E+06    -219.246E+06    -130.675E+06    -223.712E+03         57.9512
             852     13.5494E-03     32.0221E-03         3.02574         2.07893        -7.87903         2.06339        -7.86349         3.02574    -69.1946E-03     458.987E-03    -228.090E-03    -230.897E-03    -227.024E-03     455.114E-03    -228.090E-03     102.387E-03     118.383E+06     59.5178E+06    -7.52804E+06    -7.52648E+06     59.5162E+06     118.383E+06     259.083E+03         76.6588
             853     12.7498E-03     31.8519E-03         3.08139         2.21150        -8.05924         2.20455        -8.05229         3.08139     471.535E-03     458.913E-03    -228.058E-03    -230.855E-03    -227.270E-03     455.328E-03    -228.058E-03     97.7736E-03     91.7726E+06     46.2307E+06    -14.7486E+06    -14.7470E+06     46.2291E+06     91.7726E+06     185.560E+03         74.2826
             854     11.9534E-03     31.7366E-03         3.13468         2.34887        -8.24179         2.34735        -8.24027         3.13468    -19.8743E-03     457.538E-03    -228.052E-03    -229.486E-03    -227.211E-03     455.263E-03    -228.052E-03     78.8994E-03     75.7083E+06     32.1605E+06    -21.3227E+06    -21.3220E+06     32.1597E+06     75.7083E+06     22.9872E+03         71.4263
             855     11.1553E-03     31.6222E-03         3.18554         2.48285        -8.41749         2.48134        -8.41598         3.18554    -16.6506E-03     456.747E-03    -227.870E-03    -228.877E-03    -226.819E-03     454.886E-03    -228.067E-03     71.1075E-03     65.4880E+06     21.9411E+06    -27.8009E+06    -27.7919E+06     21.9321E+06     65.4880E+06    -119.571E+03         68.4717
             856     10.3570E-03     31.5272E-03         3.23401         2.61598        -8.59024         2.61175        -8.58601         3.23401    -166.896E-03     455.677E-03    -227.445E-03    -228.232E-03    -226.174E-03     454.288E-03    -228.114E-03     61.4267E-03     55.4757E+06     16.1198E+06    -34.5146E+06    -34.5021E+06     16.1073E+06     55.4757E+06    -109.517E+03         65.7610
             857     9.55922E-03     31.4456E-03         3.27984         2.75039        -8.76334         2.73888        -8.75183         3.27984     144.202E-03     455.790E-03    -227.574E-03    -228.216E-03    -226.535E-03     454.719E-03    -228.184E-03     53.9295E-03     46.6196E+06     11.5822E+06    -41.8908E+06    -41.8828E+06     11.5741E+06     46.6196E+06     178.749E+03         63.5103
             858     8.76266E-03     31.3777E-03         3.32309         2.87362        -8.92552         2.85268        -8.90458         3.32309    -126.978E-03     456.193E-03    -227.854E-03    -228.339E-03    -227.153E-03     455.386E-03    -228.233E-03     46.8336E-03     39.0593E+06     5.70063E+06    -49.9714E+06    -49.9594E+06     5.68866E+06     39.0593E+06     385.354E+03         61.7882
             859     7.96544E-03     31.3152E-03         3.36411         2.98049        -9.07115         2.95863        -9.04930         3.36411    -93.3139E-03     456.035E-03    -227.705E-03    -228.330E-03    -227.201E-03     455.458E-03    -228.257E-03     39.5499E-03     30.6939E+06    -1.39399E+06    -58.4356E+06    -58.4247E+06    -1.40490E+06     30.6939E+06     280.110E+03         60.5507
             860     7.16754E-03     31.2732E-03         3.40233         3.07818        -9.19941         3.06923        -9.19045         3.40233     515.508E-03     455.912E-03    -227.644E-03    -228.268E-03    -227.244E-03     455.512E-03    -228.268E-03     32.9413E-03     18.9131E+06    -12.0883E+06    -67.1436E+06    -67.1285E+06    -12.1034E+06     18.9131E+06    -24.4288E+03         59.6985
             861     6.37102E-03     31.2333E-03         3.43688         3.17682        -9.31906         3.17275        -9.31499         3.43688    -263.570E-03     455.919E-03    -227.644E-03    -228.275E-03    -227.378E-03     455.653E-03    -228.275E-03     26.7085E-03     2.09790E+06    -38.3657E+06    -76.7411E+06    -76.7178E+06    -38.3891E+06     2.09790E+06    -45.7253E+03         59.1244
             862     5.57353E-03     31.2057E-03         3.46746         3.28350        -9.44635         3.26507        -9.42792         3.46746     293.159E-03     456.263E-03    -227.888E-03    -228.375E-03    -227.858E-03     456.105E-03    -228.247E-03     20.6602E-03    -17.4844E+06    -72.9432E+06    -86.8457E+06    -86.7725E+06    -73.0164E+06    -17.4844E+06     311.607E+03         58.7384
             863     4.78012E-03     31.1838E-03         3.49400         3.36265        -9.55134         3.34572        -9.53440         3.49400     356.095E-03     456.217E-03    -227.923E-03    -228.293E-03    -227.961E-03     456.126E-03    -228.165E-03     15.4443E-03    -38.2429E+06    -94.5478E+06    -104.988E+06    -96.2466E+06    -103.289E+06    -38.2429E+06     547.890E+03         58.4755
             864     3.98349E-03     31.1733E-03         3.51692         3.41613        -9.62993         3.40971        -9.62352         3.51692     68.7503E-03     455.619E-03    -227.503E-03    -228.116E-03    -227.459E-03     455.575E-03    -228.116E-03     10.5731E-03    -60.4142E+06    -105.858E+06    -134.633E+06    -105.939E+06    -134.552E+06    -60.4142E+06     369.724E+03         58.2933
             865     3.18450E-03     31.1664E-03         3.53685         3.46818        -9.70382         3.46247        -9.69812         3.53685     106.657E-03     455.725E-03    -227.572E-03    -228.153E-03    -227.584E-03     455.708E-03    -228.124E-03     6.24532E-03    -81.6206E+06    -114.616E+06    -164.211E+06    -114.653E+06    -164.174E+06    -81.6206E+06     83.6205E+03         58.1661
             866     2.38850E-03     31.1642E-03         3.55532         3.51198        -9.76690         3.50010        -9.75502         3.55532    -734.299E-03     456.139E-03    -227.936E-03    -228.203E-03    -228.061E-03     456.135E-03    -228.074E-03     2.66144E-03    -101.302E+06    -122.483E+06    -187.452E+06    -122.494E+06    -187.441E+06    -101.302E+06     368.576E+03         58.0785
             867     1.59395E-03     31.1647E-03         3.64471         3.55645        -9.88421         3.54394        -9.79836         3.57138     912.716E-03     456.009E-03    -227.914E-03    -228.095E-03    -228.069E-03     456.007E-03    -227.938E-03     848.227E-06    -118.500E+06    -128.924E+06    -204.126E+06    -128.947E+06    -204.103E+06    -118.500E+06     916.459E+03         58.0209
             868     797.882E-06     31.1658E-03         4.31801         4.21466        -11.1795         2.93587        -9.80379         4.22108        -4.74683     455.680E-03    -227.591E-03    -228.089E-03    -227.693E-03     455.679E-03    -227.985E-03     509.576E-06    -128.649E+06    -133.172E+06    -217.510E+06    -132.187E+06    -217.423E+06    -129.721E+06     470.892E+03         57.9876
             869     13.5489E-03     30.4478E-03         3.00576         2.07687        -7.85344         2.06029        -7.83685         3.00576    -75.7665E-03     458.962E-03    -228.097E-03    -230.865E-03    -227.016E-03     455.113E-03    -228.097E-03     102.064E-03     118.355E+06     59.2386E+06    -7.66389E+06    -7.66322E+06     59.2379E+06     118.355E+06     115.339E+03         76.6182
             870     12.7509E-03     30.2775E-03         3.05658         2.20167        -8.01805         2.19478        -8.01117         3.05658     435.140E-03     458.654E-03    -228.073E-03    -230.581E-03    -227.006E-03     455.079E-03    -228.073E-03     97.6662E-03     92.1196E+06     46.7596E+06    -14.7641E+06    -14.7605E+06     46.7560E+06     92.1196E+06     358.748E+03         74.2604
             871     11.9523E-03     30.1574E-03         3.10549         2.33092        -8.18644         2.33007        -8.18558         3.10549    -42.1336E-03     457.159E-03    -228.091E-03    -229.068E-03    -226.743E-03     454.834E-03    -228.091E-03     79.7242E-03     75.5328E+06     32.5038E+06    -21.4514E+06    -21.4412E+06     32.4936E+06     75.5328E+06     29.2535E+03         71.4263
             872     11.1559E-03     30.0469E-03         3.15259         2.45741        -8.34969         2.45646        -8.34874         3.15259    -24.7466E-03     456.614E-03    -227.941E-03    -228.673E-03    -226.527E-03     454.665E-03    -228.138E-03     72.7335E-03     64.9933E+06     21.6336E+06    -27.7106E+06    -27.6944E+06     21.6174E+06     64.9933E+06    -331.203E+03         68.4914
             873     10.3572E-03     29.9535E-03         3.19774         2.58530        -8.51111         2.58144        -8.50726         3.19774    -192.937E-03     455.885E-03    -227.574E-03    -228.311E-03    -226.240E-03     454.446E-03    -228.207E-03     62.4546E-03     55.5747E+06     15.7190E+06    -34.4919E+06    -34.4805E+06     15.7076E+06     55.5747E+06     67.5328E+03         65.7946
             874     9.55745E-03     29.8711E-03         3.24061         2.71572        -8.67421         2.70525        -8.66374         3.24061     120.489E-03     455.684E-03    -227.307E-03    -228.376E-03    -226.310E-03     454.604E-03    -228.294E-03     54.1395E-03     46.9745E+06     11.3233E+06    -41.8913E+06    -41.8849E+06     11.3169E+06     46.9745E+06     476.284E+03         63.5505
             875     8.76009E-03     29.7964E-03         3.28122         2.83546        -8.82974         2.81590        -8.81017         3.28122    -143.590E-03     455.484E-03    -227.050E-03    -228.434E-03    -226.272E-03     454.674E-03    -228.402E-03     46.8681E-03     38.9152E+06     5.82862E+06    -49.6292E+06    -49.6239E+06     5.82330E+06     38.9152E+06     127.618E+03         61.8289
             876     7.96245E-03     29.7427E-03         3.31995         2.93874        -8.96773         2.91843        -8.94743         3.31995    -114.247E-03     455.723E-03    -227.206E-03    -228.517E-03    -226.609E-03     455.126E-03    -228.517E-03     40.2421E-03     30.5817E+06    -1.42521E+06    -58.2780E+06    -58.2717E+06    -1.43148E+06     30.5817E+06    -215.949E+03         60.5893
             877     7.16591E-03     29.6908E-03         3.35634         3.03199        -9.08927         3.02419        -9.08147         3.35634     476.981E-03     456.530E-03    -227.956E-03    -228.574E-03    -227.545E-03     456.120E-03    -228.574E-03     33.2820E-03     19.1645E+06    -11.7222E+06    -67.4746E+06    -67.4527E+06    -11.7442E+06     19.1645E+06    -3.52006E+03         59.7356
             878     6.37013E-03     29.6573E-03         3.38964         3.12816        -9.20713         3.12397        -9.20295         3.38964    -272.261E-03     456.821E-03    -228.265E-03    -228.557E-03    -228.001E-03     456.558E-03    -228.557E-03     26.6877E-03     1.84341E+06    -37.9108E+06    -77.0721E+06    -77.0486E+06    -37.9343E+06     1.84341E+06     205.186E+03         59.1611
             879     5.57449E-03     29.6253E-03         3.41958         3.23138        -9.32866         3.21379        -9.31107         3.41958     265.342E-03     456.413E-03    -227.876E-03    -228.537E-03    -227.711E-03     456.248E-03    -228.537E-03     20.9944E-03    -18.4095E+06    -73.5827E+06    -87.1717E+06    -87.0904E+06    -73.6640E+06    -18.4095E+06     75.1710E+03         58.7754
             880     4.77561E-03     29.6065E-03         3.44550         3.31530        -9.43166         3.29911        -9.41546         3.44550     321.771E-03     456.304E-03    -227.761E-03    -228.544E-03    -227.669E-03     456.213E-03    -228.544E-03     15.5836E-03    -39.1529E+06    -95.6953E+06    -105.723E+06    -97.0317E+06    -104.386E+06    -39.1529E+06     10.7701E+03         58.5134
             881     3.97911E-03     29.5949E-03         3.46766         3.36858        -9.51086         3.36177        -9.50405         3.46766     63.4279E-03     456.808E-03    -228.125E-03    -228.683E-03    -228.247E-03     456.763E-03    -228.516E-03     10.7231E-03    -59.6792E+06    -105.586E+06    -133.889E+06    -105.630E+06    -133.845E+06    -59.6792E+06     497.010E+03         58.3326
             882     3.18553E-03     29.5885E-03         3.48697         3.42104        -9.59003         3.41436        -9.58334         3.48697     69.2305E-03     456.896E-03    -228.291E-03    -228.605E-03    -228.470E-03     456.879E-03    -228.409E-03     6.32197E-03    -80.9313E+06    -114.624E+06    -163.747E+06    -114.662E+06    -163.709E+06    -80.9313E+06     657.575E+03         58.2067
             883     2.38949E-03     29.5853E-03         3.50508         3.46027        -9.64287         3.45013        -9.63273         3.50508    -696.833E-03     456.578E-03    -228.198E-03    -228.380E-03    -228.300E-03     456.573E-03    -228.274E-03     3.17943E-03    -101.473E+06    -123.182E+06    -187.684E+06    -123.205E+06    -187.662E+06    -101.473E+06     583.070E+03         58.1200
             884     1.59195E-03     29.5878E-03         3.59388         3.49574        -9.75280         3.50378        -9.68471         3.51775     827.069E-03     456.395E-03    -228.085E-03    -228.310E-03    -228.269E-03     456.393E-03    -228.125E-03     1.40576E-03    -118.473E+06    -128.920E+06    -203.149E+06    -128.927E+06    -203.142E+06    -118.473E+06     126.674E+03         58.0630
             885     795.397E-06     29.5884E-03         4.21460         4.01957        -10.8713         2.90480        -9.68042         4.13847        -4.38408     456.050E-03    -227.759E-03    -228.292E-03    -227.865E-03     456.049E-03    -228.184E-03     638.665E-06    -128.181E+06    -132.381E+06    -216.481E+06    -131.574E+06    -216.438E+06    -129.030E+06     220.497E+03         58.0299
             886     13.5493E-03     28.8717E-03         2.94611         2.06050        -7.75481         2.04269        -7.73700         2.94611    -77.5759E-03     458.926E-03    -228.094E-03    -230.832E-03    -226.977E-03     455.071E-03    -228.094E-03     102.063E-03     118.781E+06     59.1835E+06    -7.60168E+06    -7.59977E+06     59.1815E+06     118.781E+06     107.573E+03         76.5809
             887     12.7510E-03     28.7026E-03         2.99071         2.17693        -7.90194         2.16973        -7.89475         2.99071     402.412E-03     458.069E-03    -227.950E-03    -230.119E-03    -226.340E-03     454.432E-03    -228.092E-03     98.4820E-03     92.3559E+06     47.0220E+06    -14.0905E+06    -14.0848E+06     47.0163E+06     92.3559E+06     46.1062E+03         74.2399
             888     11.9520E-03     28.5837E-03         3.03380         2.29579        -8.05332         2.29532        -8.05285         3.03380    -67.0422E-03     456.060E-03    -227.801E-03    -228.260E-03    -225.495E-03     453.671E-03    -228.176E-03     80.6997E-03     75.2592E+06     32.5623E+06    -20.4339E+06    -20.4178E+06     32.5462E+06     75.2592E+06    -23.8384E+03         71.4255
             889     11.1509E-03     28.4711E-03         3.07557         2.41325        -8.20197         2.41268        -8.20140         3.07557    -37.5265E-03     456.424E-03    -228.056E-03    -228.367E-03    -226.143E-03     454.432E-03    -228.289E-03     73.4714E-03     64.1268E+06     21.2988E+06    -27.4722E+06    -27.4585E+06     21.2851E+06     64.1268E+06     80.5454E+03         68.5087
             890     10.3538E-03     28.3762E-03         3.11578         2.53048        -8.34707         2.52689        -8.34348         3.11578    -219.523E-03     456.759E-03    -228.285E-03    -228.474E-03    -226.920E-03     455.283E-03    -228.363E-03     63.3684E-03     55.2892E+06     15.2570E+06    -34.7114E+06    -34.7087E+06     15.2543E+06     55.2892E+06     135.037E+03         65.8266
             891     9.55921E-03     28.2935E-03         3.15434         2.64987        -8.49415         2.64048        -8.48476         3.15434     90.7844E-03     455.991E-03    -227.504E-03    -228.487E-03    -226.438E-03     454.875E-03    -228.437E-03     55.0422E-03     48.0278E+06     11.5411E+06    -41.4007E+06    -41.4001E+06     11.5405E+06     48.0278E+06     114.659E+03         63.5901
             892     8.75938E-03     28.2249E-03         3.19103         2.76478        -8.63785         2.74656        -8.61963         3.19103    -165.691E-03     455.349E-03    -226.783E-03    -228.565E-03    -225.963E-03     454.528E-03    -228.565E-03     47.1230E-03     39.6990E+06     6.32684E+06    -49.1189E+06    -49.1115E+06     6.31944E+06     39.6990E+06     339.150E+03         61.8693
             893     7.96066E-03     28.1626E-03         3.22602         2.86252        -8.76264         2.84338        -8.74351         3.22602    -130.907E-03     455.783E-03    -227.068E-03    -228.715E-03    -226.480E-03     455.195E-03    -228.715E-03     39.8726E-03     30.5199E+06    -1.23615E+06    -57.8672E+06    -57.8511E+06    -1.25222E+06     30.5199E+06     302.021E+03         60.6273
             894     7.16349E-03     28.1139E-03         3.25911         2.94769        -8.87394         2.94078        -8.86703         3.25911     431.659E-03     456.372E-03    -227.547E-03    -228.825E-03    -227.138E-03     455.963E-03    -228.825E-03     33.2863E-03     18.9341E+06    -12.0780E+06    -67.3067E+06    -67.2858E+06    -12.0989E+06     18.9341E+06     258.846E+03         59.7710
             895     6.36700E-03     28.0744E-03         3.28970         3.03895        -8.98705         3.03475        -8.98286         3.28970    -285.816E-03     456.930E-03    -228.049E-03    -228.881E-03    -227.774E-03     456.655E-03    -228.881E-03     27.2805E-03     1.89142E+06    -37.8180E+06    -77.2742E+06    -77.2624E+06    -37.8299E+06     1.89142E+06     131.855E+03         59.1947
             896     5.57083E-03     28.0483E-03         3.31741         3.13736        -9.10037         3.12013        -9.08313         3.31741     250.990E-03     457.163E-03    -228.187E-03    -228.976E-03    -228.101E-03     456.994E-03    -228.893E-03     21.2631E-03    -18.3197E+06    -73.1756E+06    -87.2320E+06    -87.1916E+06     -73.216E+06    -18.3197E+06    -206.441E+03         58.8089
             897     4.77554E-03     28.0286E-03         3.34122         3.22110        -9.20052         3.20454        -9.18396         3.34122     275.032E-03     457.205E-03    -228.246E-03    -228.958E-03    -228.243E-03     457.118E-03    -228.875E-03     15.0862E-03    -39.4826E+06    -95.4646E+06    -106.076E+06    -96.7514E+06    -104.790E+06    -39.4826E+06    -242.412E+03         58.5479
             898     3.97994E-03     28.0138E-03         3.36126         3.27225        -9.27689         3.26357        -9.26821         3.36126     68.4088E-03     457.273E-03    -228.261E-03    -229.012E-03    -228.389E-03     457.234E-03    -228.845E-03     10.0822E-03    -60.6362E+06    -106.004E+06    -135.126E+06    -106.059E+06    -135.072E+06    -60.6362E+06     199.792E+03         58.3686
             899     3.18310E-03     28.0079E-03         3.37870         3.32280        -9.35220         3.31263        -9.34202         3.37870     12.1441E-03     457.266E-03    -228.285E-03    -228.980E-03    -228.435E-03     457.248E-03    -228.813E-03     6.76335E-03    -80.9778E+06    -114.307E+06    -163.429E+06    -114.334E+06    -163.402E+06    -80.9778E+06     596.362E+03         58.2445
             900     2.38710E-03     28.0085E-03         3.39554         3.35074        -9.38800         3.34289        -9.38014         3.39554    -595.836E-03     457.359E-03    -228.590E-03    -228.770E-03    -228.583E-03     457.352E-03    -228.770E-03     4.21057E-03    -100.691E+06    -121.624E+06    -186.320E+06    -121.642E+06    -186.302E+06    -100.691E+06     96.6578E+03         58.1594
             901     1.59239E-03     28.0075E-03         3.47078         3.37462        -9.46577         3.40716        -9.43098         3.40344     636.771E-03     457.420E-03    -228.637E-03    -228.784E-03    -228.741E-03     457.418E-03    -228.677E-03     1.77585E-03    -118.259E+06    -127.953E+06    -202.809E+06    -127.961E+06    -202.801E+06    -118.259E+06    -88.9958E+03         58.1038
             902     797.063E-06     28.0121E-03         4.07592         3.58495        -10.2687         2.79687        -9.41326         4.00858        -3.74544     457.195E-03    -228.460E-03    -228.735E-03    -228.566E-03     457.194E-03    -228.628E-03     356.903E-06    -129.115E+06    -133.015E+06    -217.548E+06    -132.196E+06    -217.517E+06    -129.965E+06     300.981E+03         58.0716
             903     13.5495E-03     27.2992E-03         2.84868         2.02608        -7.58348         2.00719        -7.56458         2.84868    -80.8414E-03     458.164E-03    -228.065E-03    -230.099E-03    -226.102E-03     454.225E-03    -228.123E-03     102.953E-03     118.615E+06     59.1799E+06    -7.42791E+06    -7.42401E+06     59.1760E+06     118.615E+06    -61.2335E+03         76.5475
             904     12.7495E-03     27.1273E-03         2.88612         2.13307        -7.71199         2.12551        -7.70442         2.88612     370.307E-03     457.798E-03    -228.023E-03    -229.775E-03    -225.921E-03     454.086E-03    -228.165E-03     99.2979E-03     91.4145E+06     46.0823E+06    -14.6948E+06    -14.6899E+06     46.0774E+06     91.4145E+06    -359.731E+03         74.2219
             905     11.9496E-03     27.0124E-03         2.92230         2.24062        -7.84389         2.24029        -7.84356         2.92230    -91.7428E-03     456.306E-03    -227.892E-03    -228.414E-03    -225.671E-03     453.938E-03    -228.267E-03     80.3357E-03     75.1409E+06     31.8920E+06    -21.0789E+06    -21.0692E+06     31.8824E+06     75.1409E+06    -13.9356E+03         71.4285
             906     11.1519E-03     26.8955E-03         2.95749         2.34816        -7.97519         2.34781        -7.97484         2.95749    -53.9772E-03     456.147E-03    -227.622E-03    -228.524E-03    -225.798E-03     454.190E-03    -228.392E-03     72.8029E-03     64.6208E+06     21.7362E+06    -27.3959E+06    -27.3875E+06     21.7278E+06     64.6208E+06     493.042E+03         68.5309
             907     10.3538E-03     26.7983E-03         2.99145         2.45354        -8.10275         2.45015        -8.09935         2.99145    -242.254E-03     455.903E-03    -227.374E-03    -228.528E-03    -225.906E-03     454.427E-03    -228.521E-03     63.3274E-03     54.9520E+06     15.6726E+06    -34.0579E+06    -34.0541E+06     15.6688E+06     54.9520E+06     50.8581E+03         65.8597
             908     9.55323E-03     26.7170E-03         3.02428         2.55970        -8.23000         2.55134        -8.22164         3.02428     62.6805E-03     456.306E-03    -227.661E-03    -228.645E-03    -226.521E-03     455.166E-03    -228.645E-03     55.6415E-03     46.7547E+06     10.7518E+06    -41.6355E+06    -41.6342E+06     10.7504E+06     46.7547E+06    -141.858E+03         63.6275
             909     8.75740E-03     26.6478E-03         3.05559         2.66589        -8.35612         2.64873        -8.33897         3.05559    -189.244E-03     456.575E-03    -227.827E-03    -228.749E-03    -226.982E-03     455.730E-03    -228.749E-03     47.9288E-03     40.0228E+06     6.27190E+06    -49.0494E+06    -49.0424E+06     6.26490E+06     40.0228E+06     243.388E+03         61.9069
             910     7.96101E-03     26.5855E-03         3.08557         2.75255        -8.46588         2.73428        -8.44761         3.08557    -147.659E-03     456.209E-03    -227.352E-03    -228.857E-03    -226.751E-03     455.607E-03    -228.857E-03     40.3183E-03     31.6269E+06    -552.705E+03    -57.2159E+06    -57.2024E+06    -566.199E+03     31.6269E+06     694.863E+03         60.6620
             911     7.16319E-03     26.5364E-03         3.11415         2.82817        -8.56387         2.82204        -8.55774         3.11415     378.722E-03     456.085E-03    -227.093E-03    -228.991E-03    -226.687E-03     455.678E-03    -228.991E-03     33.1566E-03     19.0842E+06    -12.0028E+06    -67.0610E+06    -67.0466E+06    -12.0172E+06     19.0842E+06     489.134E+03         59.8010
             912     6.36531E-03     26.4956E-03         3.14044         2.91568        -8.66662         2.91144        -8.66238         3.14044    -307.353E-03     456.683E-03    -227.556E-03    -229.127E-03    -227.298E-03     456.424E-03    -229.127E-03     26.3430E-03     2.19659E+06    -37.9586E+06    -76.7141E+06    -76.7067E+06    -37.9660E+06     2.19659E+06     54.6606E+03         59.2209
             913     5.56893E-03     26.4671E-03         3.16412         3.00417        -8.76766         2.98714        -8.75064         3.16412     236.104E-03     457.543E-03    -228.261E-03    -229.281E-03    -228.192E-03     457.390E-03    -229.198E-03     20.3135E-03    -17.6930E+06    -72.5840E+06    -85.9307E+06    -85.8453E+06    -72.6694E+06    -17.6930E+06    -257.192E+03         58.8330
             914     4.77386E-03     26.4460E-03         3.18481         3.07793        -8.85919         3.06026        -8.84152         3.18481     209.453E-03     457.839E-03    -228.557E-03    -229.282E-03    -228.549E-03     457.748E-03    -229.199E-03     15.6338E-03    -38.9036E+06    -94.8130E+06    -106.458E+06    -95.9465E+06    -105.324E+06    -38.9036E+06    -49.6847E+03         58.5716
             915     3.97806E-03     26.4356E-03         3.20228         3.12888        -8.92785         3.11647        -8.91544         3.20228     82.6810E-03     457.630E-03    -228.428E-03    -229.202E-03    -228.383E-03     457.585E-03    -229.202E-03     10.9275E-03    -61.3060E+06    -106.251E+06    -135.671E+06    -106.349E+06    -135.573E+06    -61.3060E+06     230.378E+03         58.3930
             916     3.18150E-03     26.4293E-03         3.21837         3.17997        -8.99493         3.16435        -8.97753         3.21660    -60.2950E-03     457.804E-03    -228.559E-03    -229.245E-03    -228.542E-03     457.787E-03    -229.245E-03     6.55695E-03    -82.0085E+06    -114.338E+06    -162.993E+06    -114.361E+06    -162.970E+06    -82.0085E+06    -122.073E+03         58.2701
             917     2.38606E-03     26.4260E-03         3.23224         3.19365        -9.02017         3.18477        -9.00953         3.23046    -475.842E-03     458.118E-03    -228.823E-03    -229.295E-03    -228.818E-03     458.113E-03    -229.295E-03     3.31353E-03    -101.243E+06    -120.871E+06    -186.260E+06    -120.884E+06    -186.247E+06    -101.243E+06     4.72419E+03         58.1866
             918     1.58987E-03     26.4286E-03         3.27977         3.20684        -9.07310         3.23988        -9.06392         3.23755     390.517E-03     458.342E-03    -228.906E-03    -229.435E-03    -228.960E-03     458.340E-03    -229.380E-03     1.85865E-03    -117.892E+06    -126.927E+06    -203.158E+06    -126.943E+06    -203.142E+06    -117.892E+06     283.654E+03         58.1324
             919     794.380E-06     26.4292E-03         3.87867         3.07471        -9.52152         2.63703        -9.04162         3.83645        -2.92057     458.853E-03    -228.788E-03    -230.065E-03    -229.703E-03     458.852E-03    -229.149E-03     410.062E-06    -127.517E+06    -131.275E+06    -217.045E+06    -131.305E+06    -217.015E+06    -127.517E+06     327.976E+03         58.1012
             920     13.5472E-03     25.7250E-03         2.71636         1.97631        -7.34416         1.95664        -7.32450         2.71636    -91.6230E-03     457.677E-03    -228.054E-03    -229.623E-03    -225.605E-03     453.768E-03    -228.163E-03     102.606E-03     118.456E+06     59.1750E+06    -7.41863E+06    -7.41398E+06     59.1703E+06     118.456E+06    -230.312E+03         76.5244
             921     12.7477E-03     25.5554E-03         2.74566         2.07279        -7.45338         2.06509        -7.44567         2.74566     339.847E-03     457.770E-03    -228.065E-03    -229.706E-03    -225.911E-03     454.135E-03    -228.223E-03     98.2685E-03     91.8958E+06     46.2725E+06    -14.6800E+06    -14.6710E+06     46.2635E+06     91.8958E+06    -37.1808E+03         74.2145
             922     11.9501E-03     25.4347E-03         2.77384         2.16835        -7.56439         2.16801        -7.56405         2.77384    -109.761E-03     456.421E-03    -227.950E-03    -228.471E-03    -225.729E-03     454.054E-03    -228.325E-03     80.3640E-03     75.1335E+06     31.6678E+06    -21.7865E+06    -21.7769E+06     31.6582E+06     75.1335E+06     44.8983E+03         71.4408
             923     11.1516E-03     25.3216E-03         2.80141         2.26186        -7.67504         2.26160        -7.67478         2.80141    -65.7753E-03     456.071E-03    -227.488E-03    -228.584E-03    -225.618E-03     454.076E-03    -228.459E-03     73.5040E-03     64.4313E+06     21.5600E+06    -28.1147E+06    -28.1081E+06     21.5534E+06     64.4313E+06     50.2840E+03         68.5593
             924     10.3506E-03     25.2254E-03         2.82810         2.35295        -7.78128         2.34975        -7.77809         2.82810    -250.500E-03     455.615E-03    -227.002E-03    -228.613E-03    -225.545E-03     454.158E-03    -228.613E-03     62.8332E-03     54.6711E+06     15.8676E+06    -34.6130E+06    -34.6061E+06     15.8607E+06     54.6711E+06     157.054E+03         65.8967
             925     9.55358E-03     25.1400E-03         2.85395         2.44567        -7.88590         2.43819        -7.87843         2.85395     43.1044E-03     456.114E-03    -227.347E-03    -228.767E-03    -226.263E-03     455.029E-03    -228.767E-03     54.2524E-03     46.2619E+06     11.1328E+06    -41.7311E+06    -41.7249E+06     11.1265E+06     46.2619E+06    -200.700E+03         63.6655
             926     8.75590E-03     25.0667E-03         2.87871         2.53800        -7.99285         2.52160        -7.97646         2.87871    -208.090E-03     456.610E-03    -227.718E-03    -228.892E-03    -226.908E-03     455.800E-03    -228.892E-03     46.9352E-03     38.9798E+06     5.62698E+06    -49.5009E+06    -49.4960E+06     5.62208E+06     38.9798E+06    -442.681E+03         61.9406
             927     7.95866E-03     25.0087E-03         2.90270         2.61227        -8.08455         2.59449        -8.06677         2.90270    -157.553E-03     456.716E-03    -227.714E-03    -229.002E-03    -227.114E-03     456.116E-03    -229.002E-03     40.3615E-03     31.1308E+06    -1.46068E+06    -58.1962E+06    -58.1918E+06    -1.46514E+06     31.1308E+06     117.310E+03         60.6887
             928     7.16170E-03     24.9574E-03         2.92563         2.67789        -8.16382         2.67220        -8.15813         2.92563     333.594E-03     456.728E-03    -227.624E-03    -229.103E-03    -227.215E-03     456.318E-03    -229.103E-03     33.2261E-03     19.7500E+06    -11.0306E+06    -66.8688E+06    -66.8610E+06    -11.0383E+06     19.7500E+06     520.102E+03         59.8203
             929     6.36550E-03     24.9174E-03         2.94658         2.75443        -8.24972         2.75010        -8.24539         2.94658    -324.798E-03     456.745E-03    -227.523E-03    -229.222E-03    -227.268E-03     456.490E-03    -229.222E-03     26.2157E-03     2.63197E+06    -37.0120E+06    -76.2530E+06    -76.2479E+06    -37.0172E+06     2.63197E+06     182.485E+03         59.2336
             930     5.56888E-03     24.8859E-03         2.96566         2.82883        -8.33594         2.81197        -8.31908         2.96566     221.402E-03     457.025E-03    -227.664E-03    -229.361E-03    -227.513E-03     456.874E-03    -229.361E-03     20.1356E-03    -18.3050E+06    -73.2625E+06    -87.7741E+06    -87.4159E+06    -73.6207E+06    -18.3050E+06     255.372E+03         58.8404
             931     4.77159E-03     24.8667E-03         2.98271         2.89361        -8.41520         2.87436        -8.39596         2.98271     142.227E-03     457.633E-03    -228.151E-03    -229.482E-03    -228.070E-03     457.552E-03    -229.482E-03     14.7066E-03    -40.0119E+06    -95.4704E+06    -108.490E+06    -97.6143E+06    -106.347E+06    -40.0119E+06     529.006E+03         58.5756
             932     3.97541E-03     24.8535E-03         2.99727         2.94062        -8.47396         2.92306        -8.45640         2.99727     107.893E-03     458.387E-03    -228.849E-03    -229.538E-03    -228.810E-03     458.348E-03    -229.538E-03     9.99689E-03    -61.2750E+06    -105.457E+06    -133.900E+06    -105.538E+06    -133.819E+06    -61.2750E+06    -56.6308E+03         58.3952
             933     3.18138E-03     24.8475E-03         3.01911         2.98591        -8.53786         2.96791        -8.50954         3.00878    -132.872E-03     458.692E-03    -229.156E-03    -229.536E-03    -229.142E-03     458.678E-03    -229.536E-03     6.02235E-03    -82.1858E+06    -113.967E+06    -162.752E+06    -113.977E+06    -162.741E+06    -82.1858E+06    -409.276E+03         58.2717
             934     2.38561E-03     24.8456E-03         3.02951         2.99657        -8.55400         2.98528        -8.53239         3.01919    -353.024E-03     458.644E-03    -229.096E-03    -229.548E-03    -229.092E-03     458.640E-03    -229.548E-03     2.70817E-03    -101.401E+06    -122.050E+06    -187.930E+06    -122.059E+06    -187.920E+06    -101.401E+06     180.007E+03         58.1880
             935     1.59018E-03     24.8471E-03         3.06328         2.99978        -8.58710         3.03234        -8.57879         3.02240     127.665E-03     458.851E-03    -229.137E-03    -229.715E-03    -229.234E-03     458.851E-03    -229.617E-03     592.572E-06    -117.771E+06    -127.473E+06    -202.968E+06    -127.493E+06    -202.948E+06    -117.771E+06     594.669E+03         58.1340
             936     794.519E-06     24.8469E-03         3.62149         2.60383        -8.73536         2.45902        -8.54968         3.58062        -2.01087     459.297E-03    -228.938E-03    -230.359E-03    -229.896E-03     459.297E-03    -229.400E-03    -282.260E-06    -128.925E+06    -131.671E+06    -216.208E+06    -131.443E+06    -216.185E+06    -129.177E+06    -465.054E+03         58.1030
             937     13.5486E-03     24.1527E-03         2.55179         1.91291        -7.04416         1.89280        -7.02404         2.55179    -94.6957E-03     457.999E-03    -228.103E-03    -229.896E-03    -226.005E-03     454.160E-03    -228.154E-03     101.762E-03     118.788E+06     58.9056E+06    -7.61470E+06    -7.61198E+06     58.9029E+06     118.788E+06    -19.7190E+03         76.5211
             938     12.7499E-03     23.9805E-03         2.57206         1.99601        -7.12959         1.98815        -7.12173         2.57206     322.928E-03     457.425E-03    -227.825E-03    -229.600E-03    -225.627E-03     453.835E-03    -228.207E-03     97.7305E-03     92.0632E+06     46.1209E+06    -14.6682E+06    -14.6612E+06     46.1139E+06     92.0632E+06     161.337E+03         74.2264
             939     11.9489E-03     23.8627E-03         2.59139         2.07796        -7.21735         2.07759        -7.21698         2.59139    -116.671E-03     455.968E-03    -227.640E-03    -228.328E-03    -225.307E-03     453.635E-03    -228.328E-03     79.6933E-03     75.2077E+06     32.0057E+06    -21.0564E+06    -21.0501E+06     31.9994E+06     75.2077E+06     109.863E+03         71.4684
             940     11.1487E-03     23.7460E-03         2.61042         2.15599        -7.30405         2.15576        -7.30381         2.61042    -66.0179E-03     456.184E-03    -227.717E-03    -228.467E-03    -225.813E-03     454.280E-03    -228.467E-03     71.7505E-03     64.3857E+06     21.6581E+06    -27.8504E+06    -27.8478E+06     21.6555E+06     64.3857E+06    -225.807E+03         68.5991
             941     10.3530E-03     23.6495E-03         2.62892         2.22971        -7.38487         2.22664        -7.38180         2.62892    -243.874E-03     456.137E-03    -227.547E-03    -228.590E-03    -226.155E-03     454.745E-03    -228.590E-03     61.4996E-03     55.2111E+06     15.9344E+06    -34.8444E+06    -34.8375E+06     15.9276E+06     55.2111E+06    -137.258E+03         65.9421
             942     9.55407E-03     23.5633E-03         2.64711         2.30428        -7.46715         2.29747        -7.46034         2.64711     27.0622E-03     455.850E-03    -227.128E-03    -228.722E-03    -226.076E-03     454.798E-03    -228.722E-03     53.4064E-03     46.9920E+06     11.3504E+06    -41.7953E+06    -41.7851E+06     11.3402E+06     46.9920E+06    -98.4473E+03         63.7074
             943     8.75554E-03     23.4907E-03         2.66476         2.38068        -7.55218         2.36519        -7.53668         2.66476    -213.644E-03     455.975E-03    -227.103E-03    -228.872E-03    -226.341E-03     455.213E-03    -228.872E-03     45.4203E-03     38.5427E+06     5.21274E+06    -49.7449E+06    -49.7381E+06     5.20593E+06     38.5427E+06    -88.0248E+03         61.9717
             944     7.95792E-03     23.4289E-03         2.68191         2.44472        -7.62071         2.42775        -7.60374         2.68191    -160.363E-03     456.592E-03    -227.589E-03    -229.003E-03    -227.050E-03     456.053E-03    -229.003E-03     38.1970E-03     30.1808E+06    -1.83994E+06    -58.2336E+06    -58.2194E+06    -1.85416E+06     30.1808E+06    -243.242E+03         60.7063
             945     7.16201E-03     23.3774E-03         2.69820         2.49883        -7.67977         2.49358        -7.67453         2.69820     297.063E-03     456.738E-03    -227.632E-03    -229.106E-03    -227.262E-03     456.368E-03    -229.106E-03     31.6552E-03     19.5160E+06    -11.2584E+06    -67.1330E+06    -67.1201E+06    -11.2713E+06     19.5160E+06    -354.754E+03         59.8245
             946     6.36508E-03     23.3381E-03         2.71335         2.55549        -7.74568         2.55096        -7.74116         2.71335    -332.041E-03     456.679E-03    -227.453E-03    -229.226E-03    -227.213E-03     456.439E-03    -229.226E-03     25.4276E-03     2.76360E+06    -37.4999E+06    -77.3088E+06    -77.2698E+06    -37.5389E+06     2.76360E+06     270.577E+03         59.2255
             947     5.56773E-03     23.3076E-03         2.72788         2.61430        -7.81321         2.59713        -7.79604         2.72788     210.331E-03     456.994E-03    -227.623E-03    -229.371E-03    -227.483E-03     456.855E-03    -229.371E-03     19.2340E-03    -17.4353E+06    -73.3199E+06    -87.6498E+06    -86.9840E+06    -73.9856E+06    -17.4353E+06     883.829E+03         58.8219
             948     4.77177E-03     23.2857E-03         2.74112         2.67213        -7.87724         2.65095        -7.85605         2.74112     91.7199E-03     457.679E-03    -228.190E-03    -229.489E-03    -228.123E-03     457.612E-03    -229.489E-03     13.2723E-03    -38.5481E+06    -94.5446E+06    -105.786E+06    -95.7970E+06    -104.534E+06    -38.5481E+06     251.999E+03         58.5485
             949     3.97644E-03     23.2717E-03         2.75240         2.71411        -7.92806         2.69128        -7.90524         2.75240     127.313E-03     458.215E-03    -228.656E-03    -229.559E-03    -228.629E-03     458.187E-03    -229.559E-03     8.46364E-03    -61.1669E+06    -105.726E+06    -133.765E+06    -105.750E+06    -133.741E+06    -61.1669E+06    -230.226E+03         58.3615
             950     3.17991E-03     23.2647E-03         2.78307         2.74748        -7.99247         2.72852        -7.95180         2.76136    -199.293E-03     458.571E-03    -228.962E-03    -229.610E-03    -228.952E-03     458.562E-03    -229.610E-03     4.82736E-03    -82.6155E+06    -115.247E+06    -163.822E+06    -115.252E+06    -163.817E+06    -82.6155E+06     109.480E+03         58.2330
             951     2.38521E-03     23.2641E-03         2.79173         2.76122        -8.00889         2.74351        -7.96877         2.76932    -224.784E-03     459.026E-03    -229.367E-03    -229.659E-03    -229.412E-03     459.023E-03    -229.611E-03     2.48553E-03    -101.295E+06    -122.431E+06    -187.963E+06    -122.435E+06    -187.958E+06    -101.295E+06     77.5113E+03         58.1459
             952     1.59052E-03     23.2637E-03         2.83682         2.75947        -8.04593         2.79177        -8.00899         2.76757    -135.537E-03     459.183E-03    -229.479E-03    -229.703E-03    -229.695E-03     459.182E-03    -229.487E-03     868.042E-06    -117.815E+06    -128.316E+06    -202.870E+06    -128.326E+06    -202.860E+06    -117.815E+06     349.700E+03         58.0895
             953     796.324E-06     23.2657E-03         3.34733         2.23249        -8.03197         2.24525        -7.97618         3.27879        -1.13166     458.730E-03    -228.961E-03    -229.769E-03    -229.130E-03     458.730E-03    -229.600E-03     140.224E-06    -129.137E+06    -132.730E+06    -215.947E+06    -131.978E+06    -215.907E+06    -129.928E+06     810.281E+03         58.0571
             954     13.5493E-03     22.5779E-03         2.35781         1.83443        -6.68960         1.81448        -6.66964         2.35781    -92.9311E-03     458.530E-03    -228.126E-03    -230.404E-03    -226.572E-03     454.698E-03    -228.126E-03     101.779E-03     118.772E+06     58.6119E+06    -7.72215E+06    -7.72145E+06     58.6112E+06     118.772E+06     27.5997E+03         76.5446
             955     12.7487E-03     22.4099E-03         2.36864         1.90224        -6.74879         1.89443        -6.74099         2.36864     311.968E-03     457.932E-03    -227.914E-03    -230.019E-03    -226.257E-03     454.395E-03    -228.138E-03     96.9649E-03     91.7828E+06     45.8584E+06    -14.7056E+06    -14.7034E+06     45.8562E+06     91.7828E+06     171.348E+03         74.2649
             956     11.9505E-03     22.2873E-03         2.37869         1.96791        -6.80878         1.96750        -6.80837         2.37869    -118.590E-03     456.398E-03    -227.895E-03    -228.503E-03    -225.971E-03     454.180E-03    -228.209E-03     77.7701E-03     75.3386E+06     32.1730E+06    -21.1086E+06    -21.1070E+06     32.1714E+06     75.3386E+06     159.479E+03         71.5229
             957     11.1536E-03     22.1722E-03         2.38875         2.02945        -6.86797         2.02918        -6.86770         2.38875    -60.9931E-03     456.195E-03    -227.828E-03    -228.367E-03    -226.107E-03     454.406E-03    -228.299E-03     69.6311E-03     64.5493E+06     22.0604E+06    -27.6531E+06    -27.6520E+06     22.0593E+06     64.5493E+06    -71.1858E+03         68.6631
             958     10.3527E-03     22.0725E-03         2.39869         2.08449        -6.92441         2.08122        -6.92115         2.39869    -235.566E-03     455.874E-03    -227.482E-03    -228.392E-03    -226.180E-03     454.571E-03    -228.392E-03     59.4166E-03     55.3313E+06     16.0475E+06    -34.1764E+06    -34.1713E+06     16.0423E+06     55.3313E+06    -388.156E+03         66.0049
             959     9.55569E-03     21.9880E-03         2.40897         2.13858        -6.98197         2.13185        -6.97525         2.40897     9.21115E-03     455.788E-03    -227.297E-03    -228.491E-03    -226.345E-03     454.836E-03    -228.491E-03     50.7350E-03     47.3264E+06     10.9327E+06    -41.3507E+06    -41.3433E+06     10.9253E+06     47.3264E+06    -305.267E+03         63.7594
             960     8.75798E-03     21.9141E-03         2.41919         2.19945        -7.04007         2.18468        -7.02530         2.41919    -206.001E-03     455.767E-03    -227.172E-03    -228.595E-03    -226.494E-03     455.089E-03    -228.595E-03     42.8238E-03     39.4538E+06     5.48708E+06    -48.9541E+06    -48.9498E+06     5.48273E+06     39.4538E+06     124.196E+03         62.0058
             961     7.96126E-03     21.8497E-03         2.42915         2.24956        -7.08560         2.23375        -7.06979         2.42915    -167.701E-03     455.773E-03    -227.065E-03    -228.708E-03    -226.598E-03     455.306E-03    -228.708E-03     35.4884E-03     31.0353E+06    -1.05334E+06    -57.2318E+06    -57.2208E+06    -1.06429E+06     31.0353E+06    -188.679E+03         60.7183
             962     7.16296E-03     21.8002E-03         2.43868         2.28907        -7.12482         2.28453        -7.12028         2.43868     264.241E-03     455.861E-03    -227.036E-03    -228.825E-03    -226.731E-03     455.556E-03    -228.825E-03     28.5914E-03     19.2952E+06    -11.9953E+06    -67.0246E+06    -67.0131E+06    -12.0069E+06     19.2952E+06    -387.546E+03         59.8133
             963     6.36574E-03     21.7583E-03         2.44778         2.32925        -7.16816         2.32442        -7.16333         2.44778    -327.896E-03     456.263E-03    -227.323E-03    -228.940E-03    -227.136E-03     456.077E-03    -228.940E-03     22.2084E-03     2.44649E+06    -38.3542E+06    -76.6625E+06    -76.5497E+06    -38.4670E+06     2.44649E+06    -257.931E+03         59.1925
             964     5.56989E-03     21.7285E-03         2.45714         2.37277        -7.21547         2.35496        -7.19765         2.45714     198.254E-03     456.757E-03    -227.717E-03    -229.040E-03    -227.614E-03     456.654E-03    -229.040E-03     16.4454E-03    -16.6169E+06    -73.7618E+06    -86.0108E+06    -85.4325E+06    -74.3401E+06    -16.6169E+06    -200.396E+03         58.7692
             965     4.77352E-03     21.7041E-03         2.46630         2.41718        -7.26483         2.39402        -7.24168         2.46630     57.6496E-03     457.018E-03    -227.900E-03    -229.117E-03    -227.851E-03     456.968E-03    -229.117E-03     11.2572E-03    -37.2412E+06    -95.4458E+06    -104.551E+06    -95.6046E+06    -104.392E+06    -37.2412E+06     415.836E+03         58.4784
             966     3.97716E-03     21.6915E-03         2.47484         2.45299        -7.30552         2.42595        -7.27810         2.47446     137.354E-03     457.267E-03    -228.068E-03    -229.200E-03    -228.049E-03     457.249E-03    -229.200E-03     6.75938E-03    -59.5476E+06    -105.409E+06    -133.773E+06    -105.475E+06    -133.708E+06    -59.5476E+06     1.00439E+06         58.2762
             967     3.18167E-03     21.6838E-03         2.51505         2.47657        -7.36529         2.45865        -7.31290         2.48057    -250.216E-03     457.731E-03    -228.439E-03    -229.291E-03    -228.434E-03     457.726E-03    -229.291E-03     3.30063E-03    -81.5429E+06    -114.084E+06    -163.280E+06    -114.129E+06    -163.234E+06    -81.5429E+06     579.730E+03         58.1352
             968     2.38541E-03     21.6816E-03         2.53036         2.48556        -7.38562         2.46838        -7.32364         2.48556    -111.799E-03     458.231E-03    -228.820E-03    -229.412E-03    -228.866E-03     458.230E-03    -229.364E-03     1.29353E-03    -101.290E+06    -121.786E+06    -187.361E+06    -121.794E+06    -187.354E+06    -101.290E+06     8.75574E+03         58.0383
             969     1.59027E-03     21.6808E-03         2.58618         2.48458        -7.44027         2.49968        -7.35377         2.48458    -354.248E-03     458.529E-03    -228.981E-03    -229.548E-03    -229.099E-03     458.528E-03    -229.429E-03     399.434E-06    -117.632E+06    -127.839E+06    -203.647E+06    -127.841E+06    -203.646E+06    -117.632E+06    -190.004E+03         57.9750
             970     794.496E-06     21.6845E-03         3.05577         2.01077        -7.43179         1.99782        -7.32794         2.96486    -374.010E-03     458.894E-03    -228.981E-03    -229.913E-03    -229.053E-03     458.894E-03    -229.841E-03     263.600E-06    -127.184E+06    -131.145E+06    -215.242E+06    -130.689E+06    -215.158E+06    -127.723E+06    -569.078E+03         57.9384
             971     13.5482E-03     21.0040E-03         2.13948         1.74273        -6.28825         1.72386        -6.26938         2.13948    -95.9833E-03     459.508E-03    -228.089E-03    -231.419E-03    -227.651E-03     455.740E-03    -228.089E-03     101.199E-03     118.561E+06     58.2067E+06    -7.88578E+06    -7.88367E+06     58.2046E+06     118.561E+06    -64.7466E+03         76.6036
             972     12.7522E-03     20.8336E-03         2.14081         1.79264        -6.31645         1.78543        -6.30924         2.14081     290.318E-03     459.302E-03    -228.013E-03    -231.289E-03    -227.849E-03     455.862E-03    -228.013E-03     95.8870E-03     91.9570E+06     45.9305E+06    -14.9991E+06    -14.9966E+06     45.9279E+06     91.9570E+06     217.645E+03         74.3401
             973     11.9544E-03     20.7131E-03         2.14157         1.84410        -6.34764         1.84359        -6.34713         2.14157    -124.842E-03     457.393E-03    -227.976E-03    -229.417E-03    -227.255E-03     455.231E-03    -227.976E-03     76.8861E-03     75.6778E+06     32.6706E+06    -21.1929E+06    -21.1885E+06     32.6661E+06     75.6778E+06    -20.5737E+03         71.6140
             974     11.1547E-03     20.5968E-03         2.14270         1.88499        -6.37799         1.88461        -6.37761         2.14270    -64.3430E-03     456.724E-03    -227.810E-03    -228.914E-03    -227.062E-03     455.028E-03    -227.965E-03     67.7882E-03      64.845E+06     22.5590E+06    -27.5236E+06    -27.5196E+06     22.5549E+06      64.845E+06    -306.189E+03         68.7615
             975     10.3592E-03     20.4982E-03         2.14427         1.91842        -6.40999         1.91463        -6.40620         2.14427    -237.743E-03     455.937E-03    -227.554E-03    -228.383E-03    -226.803E-03     454.765E-03    -227.962E-03     56.3227E-03     54.9840E+06     16.0164E+06    -34.3615E+06    -34.3566E+06     16.0115E+06     54.9840E+06    -415.253E+03         66.0982
             976     9.56048E-03     20.4113E-03         2.14675         1.95425        -6.44179         1.94711        -6.43465         2.14675    -13.2447E-03     455.568E-03    -227.497E-03    -228.070E-03    -226.767E-03     454.740E-03    -227.973E-03     47.3361E-03     46.6642E+06     10.6230E+06    -41.4215E+06    -41.4150E+06     10.6165E+06     46.6642E+06    -546.495E+03         63.8348
             977     8.76382E-03     20.3371E-03         2.14963         1.99767        -6.47435         1.98302        -6.45969         2.14963    -200.119E-03     455.296E-03    -227.302E-03    -227.995E-03    -226.727E-03     454.722E-03    -227.995E-03     39.3306E-03     39.4993E+06     5.33827E+06    -48.9863E+06    -48.9803E+06     5.33234E+06     39.4993E+06    -448.120E+03         62.0538
             978     7.96517E-03     20.2747E-03         2.15278         2.03030        -6.49562         2.01539        -6.48071         2.15278    -189.648E-03     454.965E-03    -226.934E-03    -228.031E-03    -226.564E-03     454.595E-03    -228.031E-03     31.3999E-03     31.3758E+06    -1.25772E+06    -57.4523E+06    -57.4455E+06    -1.26454E+06     31.3758E+06     85.1723E+03         60.7330
             979     7.16852E-03     20.2220E-03         2.15594         2.05487        -6.51101         2.05124        -6.50737         2.15594     230.471E-03     454.989E-03    -226.929E-03    -228.060E-03    -226.713E-03     454.773E-03    -228.060E-03     23.8395E-03     19.0304E+06    -11.6072E+06    -66.3436E+06    -66.3220E+06    -11.6288E+06     19.0304E+06    -150.596E+03         59.7924
             980     6.37161E-03     20.1817E-03         2.15894         2.08490        -6.53495         2.07959        -6.52964         2.15894    -319.558E-03     455.163E-03    -227.079E-03    -228.083E-03    -226.965E-03     455.048E-03    -228.083E-03     17.2295E-03     2.33883E+06    -38.2765E+06    -76.0377E+06    -75.9220E+06    -38.3923E+06     2.33883E+06    -717.110E+03         59.1360
             981     5.57422E-03     20.1483E-03         2.16273         2.11205        -6.56450         2.09388        -6.54633         2.16273     171.071E-03     455.124E-03    -227.007E-03    -228.117E-03    -226.951E-03     455.068E-03    -228.117E-03     11.6678E-03    -16.7936E+06    -74.8709E+06    -86.8037E+06    -86.4152E+06    -75.2594E+06    -16.7936E+06    -17.5808E+03         58.6783
             982     4.77755E-03     20.1273E-03         2.16753         2.13970        -6.59843         2.11541        -6.57414         2.16753     26.7049E-03     455.075E-03    -226.907E-03    -228.168E-03    -226.884E-03     455.052E-03    -228.168E-03     7.03606E-03    -37.6853E+06    -95.9668E+06    -105.186E+06    -96.2770E+06    -104.876E+06    -37.6853E+06     341.029E+03         58.3554
             983     3.98052E-03     20.1116E-03         2.17588         2.16405        -6.62542         2.13658        -6.59459         2.17251     137.038E-03     455.384E-03    -227.134E-03    -228.251E-03    -227.127E-03     455.377E-03    -228.251E-03     3.20247E-03    -58.4595E+06    -104.782E+06    -133.755E+06    -104.869E+06    -133.668E+06    -58.4595E+06     359.170E+03         58.1245
             984     3.18367E-03     20.1048E-03         2.22700         2.17578        -6.67749         2.16476        -6.61526         2.17578    -287.925E-03     455.863E-03    -227.532E-03    -228.331E-03    -227.530E-03     455.860E-03    -228.331E-03     479.101E-06    -79.8148E+06    -112.956E+06    -162.105E+06    -113.030E+06    -162.032E+06    -79.8148E+06     608.598E+03         57.9588
             985     2.38793E-03     20.1009E-03         2.25573         2.17706        -6.70310         2.17312        -6.62049         2.17706    -36.6276E-03     456.152E-03    -227.728E-03    -228.424E-03    -227.726E-03     456.150E-03    -228.424E-03    -1.11857E-03    -100.558E+06    -120.823E+06    -186.367E+06    -120.850E+06    -186.340E+06    -100.558E+06     126.621E+03         57.8418
             986     1.59098E-03     20.1019E-03         2.32632         2.17440        -6.77635         2.18701        -6.63704         2.17440    -499.555E-03     456.565E-03    -227.963E-03    -228.602E-03    -227.961E-03     456.563E-03    -228.602E-03    -1.74580E-03    -116.931E+06    -126.241E+06    -203.402E+06    -126.245E+06    -203.398E+06    -116.931E+06    -507.826E+03         57.7637
             987     795.050E-06     20.1014E-03         2.71048         1.88292        -6.86526         1.75301        -6.61425         2.58938     192.846E-03     457.398E-03    -228.197E-03    -229.201E-03    -228.721E-03     457.396E-03    -228.675E-03    -1.37810E-03    -127.743E+06    -131.540E+06    -216.142E+06    -130.541E+06    -216.058E+06    -128.825E+06    -701.938E+03         57.7179
             988     13.5507E-03     19.4251E-03         1.90368         1.64227        -5.84811         1.62556        -5.83141         1.90368    -99.5085E-03     460.743E-03    -228.015E-03    -232.728E-03    -228.989E-03     457.005E-03    -228.015E-03     100.945E-03     118.985E+06     57.9561E+06    -7.95221E+06    -7.94940E+06     57.9533E+06     118.985E+06     72.8041E+03         76.7069
             989     12.7530E-03     19.2570E-03         1.89560         1.67364        -5.84433         1.66750        -5.83819         1.89560     256.478E-03     460.619E-03    -227.842E-03    -232.777E-03    -229.368E-03     457.210E-03    -227.842E-03     95.5608E-03     92.3722E+06     46.2712E+06    -14.8881E+06    -14.8779E+06     46.2610E+06     92.3722E+06    -271.465E+03         74.4596
             990     11.9564E-03     19.1358E-03         1.88729         1.70848        -5.84813         1.70782        -5.84747         1.88729    -132.998E-03     458.967E-03    -227.673E-03    -231.295E-03    -229.214E-03     456.887E-03    -227.673E-03     75.6043E-03     75.7489E+06     33.0563E+06    -21.1396E+06    -21.1230E+06     33.0397E+06     75.7489E+06    -312.807E+03         71.7494
             991     11.1626E-03     19.0202E-03         1.87989         1.72572        -5.84853         1.72517        -5.84798         1.87989    -75.1295E-03     458.037E-03    -227.498E-03    -230.539E-03    -228.951E-03     456.448E-03    -227.498E-03     65.7353E-03     64.7965E+06     22.5746E+06    -27.6357E+06    -27.6258E+06     22.5648E+06     64.7965E+06    -142.962E+03         68.9048
             992     10.3646E-03     18.9216E-03         1.87358         1.73865        -5.85255         1.73408        -5.84798         1.87358    -247.867E-03     456.803E-03    -227.318E-03    -229.485E-03    -228.420E-03     455.738E-03    -227.318E-03     53.7623E-03     55.1456E+06     16.2042E+06    -34.3526E+06    -34.3468E+06     16.1984E+06     55.1456E+06    -413.149E+03         66.2349
             993     9.56897E-03     18.8366E-03         1.86877         1.75402        -5.85864         1.74635        -5.85097         1.86877    -44.4475E-03     455.822E-03    -227.090E-03    -228.733E-03    -227.964E-03     455.113E-03    -227.149E-03     43.7202E-03     46.6740E+06     10.7627E+06    -41.7486E+06    -41.7438E+06     10.7579E+06     46.6740E+06    -417.296E+03         63.9490
             994     8.77102E-03     18.7613E-03         1.86508         1.77544        -5.86704         1.76099        -5.85259         1.86508    -198.204E-03     455.097E-03    -226.870E-03    -228.228E-03    -227.675E-03     454.659E-03    -226.984E-03     34.1100E-03     38.7478E+06     4.95812E+06    -49.6183E+06    -49.6137E+06     4.95350E+06     38.7478E+06    -430.722E+03         62.1320
             995     7.97573E-03     18.6989E-03         1.86227         1.79376        -5.86472         1.77989        -5.85085         1.86227    -220.319E-03     454.421E-03    -226.593E-03    -227.828E-03    -227.363E-03     454.178E-03    -226.815E-03     25.1683E-03     30.3450E+06    -1.99954E+06    -57.9914E+06    -57.9648E+06    -2.02616E+06     30.3450E+06    -543.079E+03         60.7659
             996     7.17810E-03     18.6470E-03         1.85954         1.80866        -5.85812         1.80611        -5.85558         1.85954     198.156E-03     453.660E-03    -226.381E-03    -227.279E-03    -226.894E-03     453.538E-03    -226.644E-03     17.4853E-03     19.1409E+06    -11.0705E+06    -67.0501E+06    -66.9927E+06    -11.1279E+06     19.1409E+06    -313.798E+03         59.7742
             997     6.38130E-03     18.6048E-03         1.85690         1.82554        -5.86618         1.81889        -5.85953         1.85690    -314.991E-03     453.048E-03    -226.203E-03    -226.845E-03    -226.501E-03     452.996E-03    -226.495E-03     10.8439E-03     2.23260E+06    -38.3975E+06    -77.0144E+06    -76.9498E+06    -38.4621E+06     2.23260E+06     163.477E+03         59.0639
             998     5.58437E-03     18.5751E-03         1.85590         1.83636        -5.88105         1.81688        -5.86157         1.85590     127.369E-03     452.528E-03    -225.864E-03    -226.664E-03    -226.135E-03     452.511E-03    -226.377E-03     5.07981E-03    -17.2435E+06    -74.5348E+06    -87.0072E+06    -86.5153E+06    -75.0267E+06    -17.2435E+06    -166.583E+03         58.5524
             999     4.78593E-03     18.5518E-03         1.86057         1.84838        -5.90027         1.82663        -5.87465         1.85671     943.169E-06     452.093E-03    -225.687E-03    -226.406E-03    -225.798E-03     452.086E-03    -226.288E-03     338.940E-06    -37.0925E+06    -94.1591E+06    -105.002E+06    -95.2534E+06    -103.908E+06    -37.0925E+06    -636.125E+03         58.1776
            1000     3.98808E-03     18.5379E-03         1.87207         1.85682        -5.91404         1.83703        -5.88051         1.85833     123.095E-03     451.878E-03    -225.633E-03    -226.245E-03    -225.624E-03     451.869E-03    -226.245E-03    -3.02454E-03    -58.9700E+06    -104.930E+06    -134.565E+06    -104.955E+06    -134.541E+06    -58.9700E+06    -567.392E+03         57.8984
            1001     3.19031E-03     18.5286E-03         1.92701         1.85891        -5.95966         1.85697        -5.88961         1.85891    -312.492E-03     451.905E-03    -225.662E-03    -226.244E-03    -225.648E-03     451.892E-03    -226.244E-03    -4.94395E-03    -80.3149E+06    -113.653E+06    -162.548E+06    -113.704E+06    -162.498E+06    -80.3149E+06    -244.219E+03         57.6899
            1002     2.39197E-03     18.5261E-03         1.96514         1.85687        -5.98732         1.86550        -5.88768         1.85687     5.87663E-03     452.171E-03    -225.845E-03    -226.326E-03    -225.910E-03     452.157E-03    -226.247E-03    -5.54788E-03    -100.226E+06    -120.449E+06    -184.872E+06    -120.491E+06    -184.830E+06    -100.226E+06    -50.0467E+03         57.5376
            1003     1.59494E-03     18.5251E-03         2.05711         1.84930        -6.07408         1.87268        -5.88964         1.84930    -579.348E-03     452.481E-03    -225.983E-03    -226.498E-03    -226.297E-03     452.471E-03    -226.174E-03    -4.86709E-03    -116.937E+06    -126.271E+06    -203.818E+06    -126.282E+06    -203.807E+06    -116.937E+06     153.928E+03         57.4327
            1004     797.760E-06     18.5249E-03         2.34341         1.73560        -6.26663         1.50072        -5.87399         2.18564     489.479E-03     452.163E-03    -225.572E-03    -226.591E-03    -226.339E-03     452.159E-03    -225.820E-03    -3.28963E-03    -126.643E+06    -131.839E+06    -216.762E+06    -130.790E+06    -216.729E+06    -127.725E+06     833.253E+03         57.3698
            1005     13.5513E-03     17.8497E-03         1.65724         1.53503        -5.37667         1.52129        -5.36293         1.65724    -93.5621E-03     462.037E-03    -227.914E-03    -234.123E-03    -230.393E-03     458.307E-03    -227.914E-03     100.915E-03     119.474E+06     58.1438E+06    -7.59579E+06    -7.59467E+06     58.1427E+06     119.474E+06         561.092         76.8586
            1006     12.7559E-03     17.6760E-03         1.64006         1.54856        -5.34422         1.54362        -5.33929         1.64006     216.858E-03     462.254E-03    -227.631E-03    -234.623E-03    -231.221E-03     458.852E-03    -227.631E-03     95.5153E-03     92.7990E+06     46.7316E+06    -14.3474E+06    -14.3372E+06     46.7214E+06     92.7990E+06    -348.129E+03         74.6291
            1007     11.9627E-03     17.5556E-03         1.62319         1.56035        -5.31870         1.55952        -5.31787         1.62319    -138.836E-03     460.781E-03    -227.305E-03    -233.476E-03    -231.468E-03     458.773E-03    -227.305E-03     74.5008E-03     75.3723E+06     32.8791E+06    -21.5041E+06    -21.4834E+06     32.8583E+06     75.3723E+06    -308.912E+03         71.9370
            1008     11.1666E-03     17.4407E-03         1.60829         1.55561        -5.29000         1.55517        -5.28928         1.60801    -88.8231E-03     459.806E-03    -226.933E-03    -232.873E-03    -231.362E-03     458.294E-03    -226.933E-03     64.2615E-03     64.3809E+06     22.3819E+06    -28.0251E+06    -28.0119E+06     22.3686E+06     64.3809E+06    -219.631E+03         69.1021
            1009     10.3741E-03     17.3439E-03         1.59474         1.54936        -5.26852         1.54440        -5.26328         1.59447    -256.793E-03     458.725E-03    -226.502E-03    -232.223E-03    -231.259E-03     457.761E-03    -226.502E-03     51.2093E-03     55.1270E+06     16.1891E+06    -34.5800E+06    -34.5774E+06     16.1865E+06     55.1270E+06    -236.831E+03         66.4268
            1010     9.57906E-03     17.2588E-03         1.58321         1.53989        -5.24848         1.53220        -5.24078         1.58321    -83.9730E-03     457.469E-03    -226.015E-03    -231.453E-03    -230.881E-03     456.897E-03    -226.015E-03     39.1710E-03     46.9547E+06     10.8784E+06    -41.7788E+06    -41.7775E+06     10.8770E+06     46.9547E+06    -237.633E+03         64.1174
            1011     8.78597E-03     17.1859E-03         1.57734         1.53971        -5.23214         1.53032        -5.21932         1.57392    -191.799E-03     455.635E-03    -225.503E-03    -230.132E-03    -229.830E-03     455.333E-03    -225.503E-03     28.2625E-03     39.2312E+06     5.36135E+06    -49.0936E+06    -49.0907E+06     5.35840E+06     39.2312E+06    -357.605E+03         62.2585
            1012     7.98951E-03     17.1237E-03         1.57049         1.54468        -5.20896         1.53784        -5.19742         1.56579    -252.684E-03     453.921E-03    -224.991E-03    -228.930E-03    -228.792E-03     453.783E-03    -224.991E-03     18.5306E-03     30.6158E+06    -1.78692E+06    -57.5566E+06    -57.5339E+06    -1.80960E+06     30.6158E+06    -597.789E+03         60.8354
            1013     7.19459E-03     17.0741E-03         1.56483         1.54540        -5.18671         1.55076        -5.18527         1.55803     167.886E-03     452.144E-03    -224.484E-03    -227.660E-03    -227.614E-03     452.098E-03    -224.484E-03     9.60252E-03     19.4512E+06    -12.1301E+06    -66.9647E+06    -66.9150E+06    -12.1799E+06     19.4512E+06    -330.635E+03         59.7763
            1014     6.39683E-03     17.0343E-03         1.56372         1.54533        -5.18345         1.54842        -5.17376         1.55093    -307.080E-03     450.360E-03    -224.009E-03    -226.351E-03    -226.336E-03     450.345E-03    -224.009E-03     2.13504E-03     2.81796E+06    -37.4771E+06    -76.1252E+06    -76.0889E+06    -37.5134E+06     2.81796E+06    -175.272E+03         58.9925
            1015     5.59864E-03     17.0038E-03         1.55791         1.54367        -5.18292         1.53207        -5.15964         1.54622     76.2408E-03     449.058E-03    -223.573E-03    -225.485E-03    -225.465E-03     449.038E-03    -223.573E-03    -3.92551E-03    -17.2385E+06    -72.6232E+06    -86.2943E+06    -85.5841E+06    -73.3333E+06    -17.2385E+06    -962.818E+03         58.4046
            1016     4.80118E-03     16.9836E-03         1.56065         1.54395        -5.18893         1.53212        -5.16047         1.54402    -13.0190E-03     447.820E-03    -223.150E-03    -224.670E-03    -224.626E-03     447.782E-03    -223.156E-03    -8.55722E-03    -37.8429E+06    -94.6399E+06    -105.652E+06    -95.6447E+06    -104.647E+06    -37.8429E+06    -958.724E+03         57.9540
            1017     4.00191E-03     16.9696E-03         1.57379         1.54280        -5.19396         1.53749        -5.15766         1.54280     96.7199E-03     446.557E-03    -222.696E-03    -223.861E-03    -223.714E-03     446.498E-03    -222.784E-03    -11.5472E-03    -58.8807E+06    -104.370E+06    -134.321E+06    -104.393E+06    -134.299E+06    -58.8807E+06    -570.640E+03         57.6028
            1018     3.20171E-03     16.9625E-03         1.62556         1.54042        -5.22995         1.55086        -5.15525         1.54042    -310.869E-03     445.558E-03    -222.301E-03    -223.256E-03    -223.014E-03     445.488E-03    -222.474E-03    -12.8041E-03    -80.2983E+06    -112.637E+06    -162.070E+06    -112.669E+06    -162.037E+06    -80.2983E+06    -697.477E+03         57.3292
            1019     2.40182E-03     16.9584E-03         1.66349         1.53517        -5.25317         1.55433        -5.14401         1.53517     21.2127E-03     444.892E-03    -222.117E-03    -222.775E-03    -222.623E-03     444.831E-03    -222.208E-03    -12.0929E-03    -99.8667E+06    -120.630E+06    -186.097E+06    -120.653E+06    -186.074E+06    -99.8667E+06    -537.780E+03         57.1218
            1020     1.60147E-03     16.9578E-03         1.75454         1.52685        -5.34081         1.54643        -5.13270         1.52685    -584.609E-03     444.258E-03    -221.814E-03    -222.445E-03    -222.265E-03     444.223E-03    -221.958E-03    -9.13787E-03    -116.065E+06    -126.969E+06    -204.661E+06    -126.980E+06    -204.650E+06    -116.065E+06     152.671E+03         56.9750
            1021     801.662E-06     16.9578E-03         1.97334         1.53689        -5.58588         1.23664        -5.11991         1.80762     584.925E-03     443.628E-03    -221.476E-03    -222.152E-03    -221.709E-03     443.615E-03    -221.906E-03    -5.51004E-03    -125.863E+06    -131.705E+06    -216.080E+06    -130.504E+06    -216.072E+06    -127.073E+06     89.7763E+03         56.8853
            1022     13.5530E-03     16.2686E-03         1.44626         1.38048        -4.88358         1.40977        -4.87314         1.40653    -84.8653E-03     463.567E-03    -227.808E-03    -235.759E-03    -231.996E-03     459.803E-03    -227.808E-03     101.339E-03     119.895E+06     58.3396E+06    -7.13853E+06    -7.13775E+06     58.3389E+06     119.895E+06     24.7362E+03         77.0599
            1023     12.7595E-03     16.0936E-03         1.42646         1.36788        -4.82479         1.40950        -4.82111         1.38115     169.716E-03     464.122E-03    -227.406E-03    -236.716E-03    -233.215E-03     460.621E-03    -227.406E-03     97.0244E-03     92.6070E+06     46.4225E+06    -14.6388E+06    -14.6368E+06     46.4204E+06     92.6070E+06     231.086E+03         74.8505
            1024     11.9655E-03     15.9719E-03         1.41016         1.35357        -4.77305         1.40623        -4.77210         1.35654    -140.799E-03     462.911E-03    -226.916E-03    -235.995E-03    -233.989E-03     460.906E-03    -226.916E-03     74.6879E-03     75.4535E+06     33.0566E+06    -21.4693E+06    -21.4614E+06     33.0487E+06     75.4535E+06    -134.946E+03         72.1800
            1025     11.1756E-03     15.8586E-03         1.38497         1.33315        -4.71939         1.38317        -4.71856         1.33411    -106.754E-03     462.812E-03    -226.290E-03    -236.523E-03    -235.073E-03     461.363E-03    -226.290E-03     63.0883E-03     64.6954E+06     22.6643E+06    -28.1563E+06    -28.1496E+06     22.6576E+06     64.6954E+06    -372.987E+03         69.3596
            1026     10.3828E-03     15.7611E-03         1.35384         1.31307        -4.67363         1.34761        -4.66836         1.31403    -257.061E-03     461.583E-03    -225.505E-03    -236.078E-03    -235.234E-03     460.739E-03    -225.505E-03     47.9383E-03     55.2915E+06     16.2498E+06    -34.9111E+06    -34.9088E+06     16.2475E+06     55.2915E+06    -246.578E+03         66.6835
            1027     9.59398E-03     15.6767E-03         1.32769         1.29220        -4.62904         1.31596        -4.62229         1.29719    -119.279E-03     459.468E-03    -224.613E-03    -234.855E-03    -234.393E-03     459.005E-03    -224.613E-03     35.3104E-03     46.9874E+06     10.9515E+06    -41.7671E+06    -41.7613E+06     10.9457E+06     46.9874E+06    -497.687E+03         64.3507
            1028     8.80155E-03     15.6091E-03         1.31639         1.27873        -4.59022         1.30296        -4.58082         1.28276    -172.913E-03     457.254E-03    -223.641E-03    -233.614E-03    -233.398E-03     457.039E-03    -223.641E-03     23.4548E-03     39.3201E+06     5.15226E+06    -49.3559E+06    -49.3465E+06     5.14292E+06     39.3201E+06    -680.690E+03         62.4457
            1029     8.00974E-03     15.5495E-03         1.30343         1.26984        -4.54844         1.29524        -4.54026         1.26984    -278.684E-03     454.283E-03    -222.613E-03    -231.670E-03    -231.605E-03     454.218E-03    -222.613E-03     11.4952E-03     31.3044E+06    -1.68821E+06    -57.3989E+06    -57.3880E+06    -1.69903E+06     31.3044E+06    -516.960E+03         60.9573
            1030     7.21480E-03     15.5026E-03         1.29095         1.25812        -4.51258         1.28936        -4.51099         1.25812     139.714E-03     451.069E-03    -221.563E-03    -229.506E-03    -229.490E-03     451.053E-03    -221.563E-03     1.02385E-03     19.5618E+06    -11.9555E+06    -66.3867E+06    -66.3641E+06    -11.9781E+06     19.5618E+06    -785.329E+03         59.8177
            1031     6.41998E-03     15.4676E-03         1.29170         1.24779        -4.50257         1.27633        -4.48720         1.24779    -284.383E-03     448.069E-03    -220.515E-03    -227.555E-03    -227.516E-03     448.031E-03    -220.515E-03    -7.84673E-03     2.89366E+06    -36.5292E+06    -75.9925E+06    -75.9706E+06    -36.5510E+06     2.89366E+06    -882.206E+03         58.9427
            1032     5.62256E-03     15.4403E-03         1.27943         1.24030        -4.48988         1.24933        -4.45977         1.24030     28.0039E-03     444.891E-03    -219.489E-03    -225.401E-03    -225.299E-03     444.788E-03    -219.489E-03    -15.1807E-03    -17.3174E+06    -71.4777E+06    -86.1735E+06    -85.7535E+06    -71.8978E+06    -17.3174E+06    -425.923E+03         58.2577
            1033     4.82266E-03     15.4221E-03         1.27239         1.23590        -4.48214         1.23956        -4.44931         1.23590    -10.7455E-03     441.874E-03    -218.505E-03    -223.369E-03    -223.196E-03     441.701E-03    -218.505E-03    -20.2349E-03    -38.7812E+06    -94.0428E+06    -105.378E+06    -95.2855E+06    -104.135E+06    -38.7812E+06    -743.831E+03         57.7085
            1034     4.02234E-03     15.4123E-03         1.28005         1.23274        -4.47772         1.24086        -4.43853         1.23274     67.6103E-03     439.024E-03    -217.584E-03    -221.439E-03    -221.229E-03     438.813E-03    -217.584E-03    -22.6327E-03    -59.5494E+06    -104.604E+06    -134.684E+06     -104.65E+06    -134.638E+06    -59.5494E+06    -1.01686E+06         57.2619
            1035     3.22077E-03     15.4069E-03         1.32661         1.22816        -4.50459         1.25071        -4.42868         1.22816    -282.556E-03     436.234E-03    -216.748E-03    -219.486E-03    -219.283E-03     436.031E-03    -216.748E-03    -22.4309E-03    -80.1884E+06    -113.514E+06    -161.968E+06    -113.532E+06    -161.950E+06    -80.1884E+06    -530.639E+03         56.9011
            1036     2.41710E-03     15.4062E-03         1.35698         1.22039        -4.52445         1.24876        -4.41624         1.22039     4.96301E-03     433.684E-03    -216.061E-03    -217.623E-03    -217.467E-03     433.528E-03    -216.061E-03    -19.6726E-03    -99.8075E+06    -121.066E+06    -186.559E+06    -121.075E+06    -186.550E+06    -99.8075E+06    -150.085E+03         56.6197
            1037     1.61209E-03     15.4069E-03         1.43132         1.21113        -4.60143         1.23002        -4.40013         1.21113    -524.977E-03     431.698E-03    -215.479E-03    -216.219E-03    -215.982E-03     431.605E-03    -215.623E-03    -14.8702E-03    -117.356E+06    -127.372E+06    -204.898E+06    -127.379E+06    -204.890E+06    -117.356E+06    -410.813E+03         56.4161
            1038     804.468E-06     15.4103E-03         1.56714         1.30045        -4.83321         1.00346        -4.37908         1.41001     563.383E-03     430.957E-03    -215.156E-03    -215.801E-03    -215.539E-03     430.920E-03    -215.381E-03    -8.90290E-03    -127.487E+06    -131.936E+06    -216.316E+06    -130.735E+06    -216.307E+06    -128.697E+06    -745.244E+03         56.2898
            1039     13.5545E-03     14.6885E-03         1.30204         1.15801        -4.38183         1.29462        -4.37441         1.15801    -81.7931E-03     465.190E-03    -227.703E-03    -237.487E-03    -233.686E-03     461.390E-03    -227.703E-03     101.881E-03     119.613E+06     57.7728E+06    -7.38295E+06    -7.38195E+06     57.7718E+06     119.613E+06     89.0498E+03         77.3105
            1040     12.7608E-03     14.5065E-03         1.27700         1.12529        -4.30101         1.27458        -4.29858         1.12529     124.858E-03     466.062E-03    -227.178E-03    -238.884E-03    -235.312E-03     462.490E-03    -227.178E-03     98.1387E-03      92.828E+06     46.6961E+06    -14.5539E+06    -14.5521E+06     46.6943E+06      92.828E+06     188.849E+03         75.1235
            1041     11.9715E-03     14.3863E-03         1.25360         1.09354        -4.22713         1.25262        -4.22614         1.09354    -132.233E-03     465.769E-03    -226.491E-03    -239.278E-03    -237.289E-03     463.781E-03    -226.491E-03     74.6768E-03     76.0588E+06     33.8622E+06    -21.1328E+06    -21.1312E+06     33.8606E+06     76.0588E+06     195.726E+03         72.4785
            1042     11.1811E-03     14.2684E-03         1.20998         1.06449        -4.15229         1.20904        -4.15134         1.06449    -123.807E-03     465.982E-03    -225.573E-03    -240.409E-03    -238.990E-03     464.563E-03    -225.573E-03     62.6949E-03     65.3665E+06     23.1943E+06    -27.6523E+06    -27.6516E+06     23.1935E+06     65.3665E+06     8.49687E+03         69.6768
            1043     10.3979E-03     14.1711E-03         1.15853         1.03862        -4.08194         1.15404        -4.07746         1.03862    -240.194E-03     464.533E-03    -224.423E-03    -240.110E-03    -239.304E-03     463.727E-03    -224.423E-03     47.0757E-03     55.9543E+06     16.4911E+06    -34.3771E+06    -34.3728E+06     16.4868E+06     55.9543E+06    -339.001E+03         67.0015
            1044     9.60764E-03     14.0965E-03         1.11455         1.01653        -4.01506         1.10963        -4.01014         1.01653    -148.413E-03     462.604E-03    -223.069E-03    -239.535E-03    -239.126E-03     462.195E-03    -223.069E-03     33.1590E-03     47.6418E+06     11.2381E+06    -41.5490E+06    -41.5413E+06     11.2304E+06     47.6418E+06    -444.188E+03         64.6462
            1045     8.82058E-03     14.0237E-03         1.08547     997.247E-03        -3.95592         1.08035        -3.95080     997.247E-03    -147.076E-03     459.878E-03    -221.514E-03    -238.364E-03    -238.214E-03     459.728E-03    -221.514E-03     18.7893E-03     39.3117E+06     5.10175E+06    -49.5196E+06    -49.5057E+06     5.08786E+06     39.3117E+06    -649.550E+03         62.6945
            1046     8.03258E-03     13.9745E-03         1.06009     980.404E-03        -3.89910         1.05437        -3.89338     980.404E-03    -295.437E-03     455.942E-03    -219.799E-03    -236.143E-03    -236.118E-03     455.916E-03    -219.799E-03     4.73551E-03     30.6553E+06    -2.35728E+06    -57.9406E+06    -57.9254E+06    -2.37253E+06     30.6553E+06    -873.164E+03         61.1367
            1047     7.24187E-03     13.9333E-03         1.03956     965.667E-03        -3.85396         1.03428        -3.84868     965.667E-03     108.722E-03     451.281E-03    -217.969E-03    -233.313E-03    -233.272E-03     451.241E-03    -217.969E-03    -7.55865E-03     19.1473E+06    -11.3503E+06    -67.0531E+06    -67.0395E+06    -11.3639E+06     19.1473E+06    -378.352E+03         59.9091
            1048     6.44814E-03     13.9024E-03         1.03651     952.884E-03        -3.83960         1.01135        -3.81443     952.884E-03    -253.997E-03     446.236E-03    -216.071E-03    -230.165E-03    -230.015E-03     446.086E-03    -216.071E-03    -18.5796E-03     1.83796E+06    -35.5226E+06    -77.2786E+06    -77.2648E+06    -35.5365E+06     1.83796E+06    -297.871E+03         58.9328
            1049     5.65288E-03     13.8836E-03         1.01453     943.547E-03        -3.81766     974.136E-03        -3.77726     943.547E-03    -19.5039E-03     440.592E-03    -214.174E-03    -226.418E-03    -226.123E-03     440.297E-03    -214.174E-03    -27.0656E-03    -18.1544E+06    -70.6392E+06    -87.5860E+06    -87.5104E+06    -70.7149E+06    -18.1544E+06    -620.932E+03         58.1384
            1050     4.85423E-03     13.8724E-03     995.911E-03     937.810E-03        -3.79615     957.254E-03        -3.75749     937.810E-03    -284.627E-06     434.600E-03    -212.355E-03    -222.245E-03    -221.834E-03     434.189E-03    -212.355E-03    -32.2876E-03    -39.3721E+06    -94.3417E+06    -106.010E+06    -97.2334E+06    -103.118E+06    -39.3721E+06    -436.111E+03         57.4769
            1051     4.05157E-03     13.8678E-03     995.591E-03     933.530E-03        -3.78202     953.546E-03        -3.73997     933.530E-03     35.4991E-03     428.938E-03    -210.686E-03    -218.252E-03    -217.792E-03     428.478E-03    -210.686E-03    -34.0645E-03    -61.7191E+06    -106.739E+06    -134.168E+06    -106.784E+06    -134.123E+06    -61.7191E+06    -365.127E+03         56.9212
            1052     3.24551E-03     13.8699E-03         1.03177     928.229E-03        -3.79931     957.085E-03        -3.72462     928.229E-03    -243.225E-03     423.688E-03    -209.226E-03    -214.462E-03    -214.040E-03     423.266E-03    -209.226E-03    -32.3205E-03    -82.9818E+06    -115.643E+06    -162.132E+06    -115.653E+06    -162.122E+06    -82.9818E+06    -659.859E+03         56.4606
            1053     2.43692E-03     13.8738E-03         1.05438     919.836E-03        -3.81111     953.824E-03        -3.71056     919.836E-03    -27.6998E-03     419.135E-03    -208.048E-03    -211.087E-03    -210.773E-03     418.821E-03    -208.048E-03    -27.6036E-03    -102.159E+06    -122.897E+06    -186.467E+06    -122.914E+06    -186.450E+06    -102.159E+06    -664.826E+03         56.0943
            1054     1.62557E-03     13.8803E-03         1.11431     908.160E-03        -3.87106     936.261E-03        -3.69301     908.160E-03    -446.699E-03     415.845E-03    -207.160E-03    -208.685E-03    -208.507E-03     415.667E-03    -207.160E-03    -20.4427E-03    -118.298E+06    -128.153E+06    -204.377E+06    -128.169E+06    -204.362E+06    -118.298E+06    -455.535E+03         55.8255
            1055     814.852E-06     13.8827E-03         1.18204         1.00546        -4.06376     768.140E-03        -3.67982         1.03541     434.360E-03     413.583E-03    -206.309E-03    -207.273E-03    -207.208E-03     413.517E-03    -206.309E-03    -11.9264E-03    -128.747E+06    -132.824E+06    -217.601E+06    -132.170E+06    -217.593E+06    -129.410E+06    -484.737E+03         55.6570
            1056     13.5556E-03     13.1017E-03         1.18709     916.714E-03        -3.88967         1.18189        -3.88447     916.714E-03    -69.1984E-03     467.115E-03    -227.589E-03    -239.526E-03    -235.694E-03     463.284E-03    -227.589E-03     101.930E-03     119.579E+06     57.5562E+06    -7.29714E+06    -7.29580E+06     57.5549E+06     119.579E+06     81.6364E+03         77.6086
            1057     12.7656E-03     12.9205E-03         1.14610     877.189E-03        -3.78903         1.14450        -3.78743     877.189E-03     102.228E-03     468.857E-03    -226.902E-03    -241.955E-03    -238.255E-03     465.157E-03    -226.902E-03     99.8945E-03     92.8060E+06     46.8015E+06    -14.2603E+06    -14.2581E+06     46.7993E+06     92.8060E+06     27.0949E+03         75.4449
            1058     11.9758E-03     12.7925E-03         1.09716     839.060E-03        -3.69110         1.09626        -3.69019     839.060E-03    -111.494E-03     468.123E-03    -226.005E-03    -242.118E-03    -240.123E-03     466.128E-03    -226.005E-03     75.0986E-03     76.2092E+06     34.2208E+06    -20.5645E+06    -20.5615E+06     34.2178E+06     76.2092E+06     196.137E+03         72.8249
            1059     11.1935E-03     12.6739E-03         1.03566     804.480E-03        -3.59643         1.03460        -3.59537     804.480E-03    -131.436E-03     467.978E-03    -224.855E-03    -243.123E-03    -241.647E-03     466.503E-03    -224.855E-03     64.1978E-03     65.6940E+06     23.4638E+06    -26.9184E+06    -26.9163E+06     23.4617E+06     65.6940E+06     278.002E+03         70.0375
            1060     10.4034E-03     12.5821E-03     972.623E-03     773.333E-03        -3.50475     969.540E-03        -3.50167     773.333E-03    -200.029E-03     468.115E-03    -223.367E-03    -244.748E-03    -243.918E-03     467.285E-03    -223.367E-03     47.8117E-03     55.9936E+06     16.5624E+06    -34.0118E+06    -34.0012E+06     16.5518E+06     55.9936E+06     226.453E+03         67.3595
            1061     9.62398E-03     12.4996E-03     913.093E-03     746.337E-03        -3.41932     909.989E-03        -3.41622     746.337E-03    -170.514E-03     466.878E-03    -221.485E-03    -245.393E-03    -245.018E-03     466.503E-03    -221.485E-03     31.7402E-03     47.7714E+06     11.6270E+06    -41.1172E+06    -41.1018E+06     11.6116E+06     47.7714E+06    -1.18598E+03         64.9808
            1062     8.84188E-03     12.4407E-03     865.507E-03     723.015E-03        -3.34387     863.706E-03        -3.34207     723.015E-03    -117.603E-03     463.416E-03    -219.254E-03    -244.162E-03    -244.050E-03     463.304E-03    -219.254E-03     15.7083E-03     39.6442E+06     5.56546E+06    -48.7620E+06    -48.7412E+06     5.54471E+06     39.6442E+06    -101.982E+03         62.9816
            1063     8.05655E-03     12.3920E-03     830.030E-03     703.008E-03        -3.27768     823.407E-03        -3.27105     703.008E-03    -294.852E-03     458.824E-03    -216.725E-03    -242.099E-03    -242.074E-03     458.800E-03    -216.725E-03    -599.563E-06     30.2693E+06    -2.54090E+06    -57.7926E+06    -57.7747E+06    -2.55884E+06     30.2693E+06     105.170E+03         61.3539
            1064     7.27180E-03     12.3614E-03     806.399E-03     685.914E-03        -3.22827     791.717E-03        -3.21359     685.914E-03     79.6554E-03     452.546E-03    -213.948E-03    -238.598E-03    -238.494E-03     452.442E-03    -213.948E-03    -15.1509E-03     18.9595E+06    -11.8481E+06    -67.3226E+06    -67.3166E+06    -11.8540E+06     18.9595E+06     279.939E+03         60.0395
            1065     6.48328E-03     12.3409E-03     799.115E-03     671.475E-03        -3.20982     759.591E-03        -3.17030     671.475E-03    -212.462E-03     444.394E-03    -211.056E-03    -233.338E-03    -233.055E-03     444.111E-03    -211.056E-03    -26.9845E-03     2.45128E+06    -33.8726E+06    -77.1453E+06    -77.1174E+06    -33.9005E+06     2.45128E+06     557.928E+03         58.9645
            1066     5.68911E-03     12.3329E-03     766.394E-03     661.097E-03        -3.17786     712.860E-03        -3.12433     661.097E-03    -58.7516E-03     435.648E-03    -208.197E-03    -227.450E-03    -226.967E-03     435.164E-03    -208.197E-03    -35.5027E-03    -17.9819E+06    -68.8114E+06    -87.6826E+06    -87.5164E+06    -68.9775E+06    -17.9819E+06     287.638E+03         58.0650
            1067     4.88984E-03     12.3346E-03     733.479E-03     655.008E-03        -3.14284     688.034E-03        -3.09740     655.008E-03     15.7651E-03     426.549E-03    -205.475E-03    -221.074E-03    -220.448E-03     425.923E-03    -205.475E-03    -40.1159E-03    -39.5119E+06    -94.9918E+06    -105.919E+06    -98.1195E+06    -102.792E+06    -39.5119E+06     176.392E+03         57.2977
            1068     4.08491E-03     12.3423E-03     726.731E-03     650.532E-03        -3.12404     682.541E-03        -3.07985     650.532E-03     3.55454E-03     417.552E-03    -203.015E-03    -214.537E-03    -213.872E-03     416.887E-03    -203.015E-03    -40.9353E-03    -62.1308E+06    -107.808E+06    -132.716E+06    -107.869E+06    -132.654E+06    -62.1308E+06     612.406E+03         56.6404
            1069     3.27508E-03     12.3536E-03     751.310E-03     644.998E-03        -3.13077     680.999E-03        -3.06046     644.998E-03    -195.946E-03     409.651E-03    -200.914E-03    -208.737E-03    -208.143E-03     409.057E-03    -200.914E-03    -38.2228E-03    -85.0088E+06    -116.812E+06    -160.453E+06    -116.860E+06    -160.404E+06    -85.0088E+06     383.731E+03         56.0873
            1070     2.46027E-03     12.3676E-03     763.820E-03     636.383E-03        -3.13135     675.564E-03        -3.04309     636.383E-03    -55.4930E-03     403.190E-03    -199.204E-03    -203.987E-03    -203.552E-03     402.756E-03    -199.204E-03    -32.2635E-03    -104.999E+06    -125.036E+06    -185.619E+06    -125.053E+06    -185.602E+06    -104.999E+06    -602.963E+03         55.6424
            1071     1.64270E-03     12.3782E-03     801.234E-03     625.110E-03        -3.17466     652.788E-03        -3.02622     625.110E-03    -365.461E-03     398.134E-03    -197.891E-03    -200.244E-03    -200.003E-03     397.894E-03    -197.891E-03    -23.4315E-03    -121.095E+06    -131.579E+06    -204.951E+06    -131.610E+06    -204.920E+06    -121.095E+06    -1.11324E+06         55.3133
            1072     821.113E-06     12.3866E-03     842.781E-03     692.936E-03        -3.31513     517.557E-03        -3.01895     721.973E-03     274.980E-03     394.739E-03    -196.867E-03    -197.872E-03    -197.785E-03     394.652E-03    -196.867E-03    -13.4690E-03    -131.207E+06    -135.555E+06    -219.101E+06    -134.934E+06    -219.059E+06    -131.869E+06    -1.20847E+06         55.1060
            1073     13.5581E-03     11.5231E-03         1.07656     686.519E-03        -3.41628         1.07310        -3.41282     686.519E-03    -53.0697E-03     469.561E-03    -227.447E-03    -242.114E-03    -238.222E-03     465.669E-03    -227.447E-03     102.488E-03     119.448E+06     57.3035E+06    -7.31380E+06    -7.30271E+06     57.2924E+06     119.448E+06    -177.363E+03         77.9483
            1074     12.7674E-03     11.3201E-03         1.01352     641.329E-03        -3.29660         1.01246        -3.29555     641.329E-03     87.1460E-03     470.964E-03    -226.605E-03    -244.359E-03    -240.480E-03     467.086E-03    -226.605E-03     102.439E-03     92.7979E+06     46.8398E+06    -13.9727E+06    -13.9594E+06     46.8266E+06     92.7979E+06    -185.179E+03         75.8016
            1075     11.9859E-03     11.1994E-03     945.145E-03     598.124E-03        -3.17920     944.416E-03        -3.17847     598.124E-03    -84.0101E-03     469.808E-03    -225.550E-03    -244.259E-03    -242.131E-03     467.680E-03    -225.550E-03     77.8105E-03     75.8627E+06     33.9103E+06    -20.4648E+06    -20.4604E+06     33.9059E+06     75.8627E+06     224.626E+03         73.1941
            1076     11.1943E-03     11.0819E-03     872.859E-03     558.674E-03        -3.06641     871.689E-03        -3.06524     558.674E-03    -133.200E-03     471.418E-03    -224.150E-03    -247.268E-03    -245.696E-03     469.846E-03    -224.150E-03     66.2549E-03     65.0393E+06     23.0344E+06    -27.2342E+06    -27.2298E+06     23.0299E+06     65.0393E+06     363.366E+03         70.4082
            1077     10.4189E-03     10.9771E-03     793.822E-03     522.777E-03        -2.95610     792.104E-03        -2.95438     522.777E-03    -149.862E-03     471.611E-03    -222.269E-03    -249.342E-03    -248.539E-03     470.808E-03    -222.269E-03     47.2979E-03     55.6944E+06     16.9902E+06    -33.6338E+06    -33.6225E+06     16.9788E+06     55.6944E+06     507.270E+03         67.7156
            1078     9.63823E-03     10.9040E-03     718.965E-03     491.736E-03        -2.85630     716.203E-03        -2.85354     491.736E-03    -183.295E-03     470.320E-03    -219.884E-03    -250.436E-03    -250.084E-03     469.968E-03    -219.884E-03     30.7874E-03     46.9564E+06     11.6379E+06    -40.7688E+06    -40.7320E+06     11.6011E+06     46.9564E+06     595.224E+03         65.3009
            1079     8.85969E-03     10.8440E-03     662.037E-03     465.122E-03        -2.76904     660.129E-03        -2.76713     465.122E-03    -88.7800E-03     467.301E-03    -217.002E-03    -250.298E-03    -250.204E-03     467.207E-03    -217.002E-03     13.3894E-03     39.2956E+06     5.18681E+06    -48.6770E+06    -48.6370E+06     5.14681E+06     39.2956E+06     851.123E+03         63.2470
            1080     8.08375E-03     10.8070E-03     621.976E-03     442.449E-03        -2.69664     609.461E-03        -2.68412     442.449E-03    -271.092E-03     461.047E-03    -213.697E-03    -247.351E-03    -247.328E-03     461.024E-03    -213.697E-03    -3.20716E-03     31.2376E+06    -2.13669E+06    -56.9345E+06    -56.9056E+06    -2.16563E+06     31.2376E+06     1.14659E+06         61.5513
            1081     7.30231E-03     10.7846E-03     592.652E-03     423.655E-03        -2.64512     563.365E-03        -2.61584     423.655E-03     51.0651E-03     452.191E-03    -210.126E-03    -242.065E-03    -241.948E-03     452.074E-03    -210.126E-03    -16.7237E-03     19.7640E+06    -11.5374E+06    -66.5176E+06    -66.4758E+06    -11.5791E+06     19.7640E+06     1.19459E+06         60.1610
            1082     6.51587E-03     10.7835E-03     579.014E-03     408.546E-03        -2.62157     522.502E-03        -2.56506     408.546E-03    -168.161E-03     441.497E-03    -206.478E-03    -235.019E-03    -234.741E-03     441.219E-03    -206.478E-03    -26.9665E-03     3.07251E+06    -33.3453E+06    -76.9267E+06    -76.8275E+06    -33.4445E+06     3.07251E+06     1.65795E+06         59.0085
            1083     5.72261E-03     10.7907E-03     538.715E-03     397.855E-03        -2.58262     471.573E-03        -2.51547     397.855E-03    -87.1789E-03     429.869E-03    -202.932E-03    -226.937E-03    -226.499E-03     429.431E-03    -202.932E-03    -33.5217E-03    -17.6752E+06     -66.719E+06    -87.9085E+06    -87.5414E+06    -67.0861E+06    -17.6752E+06     2.24447E+06         58.0342
            1084     4.92251E-03     10.8099E-03     490.717E-03     391.804E-03        -2.53589     438.308E-03        -2.48348     391.804E-03     24.9095E-03     418.452E-03    -199.609E-03    -218.843E-03    -218.291E-03     417.900E-03    -199.609E-03    -37.1122E-03    -39.9341E+06    -93.6627E+06    -105.933E+06    -98.5600E+06    -101.036E+06    -39.9341E+06     1.90348E+06         57.1968
            1085     4.11509E-03     10.8340E-03     476.620E-03     387.698E-03        -2.51114     430.180E-03        -2.46470     387.698E-03    -24.1926E-03     407.487E-03    -196.617E-03    -210.870E-03    -210.295E-03     406.912E-03    -196.617E-03    -37.3585E-03    -62.2818E+06    -108.991E+06    -132.391E+06    -109.252E+06    -132.130E+06    -62.2818E+06     1.80966E+06         56.4755
            1086     3.30014E-03     10.8603E-03     492.021E-03     382.309E-03        -2.50869     426.224E-03        -2.44289     382.309E-03    -152.852E-03     397.712E-03    -194.048E-03    -203.663E-03    -203.156E-03     397.205E-03    -194.048E-03    -34.6057E-03    -84.7750E+06    -118.741E+06    -158.848E+06    -118.913E+06    -158.677E+06    -84.7750E+06     2.27164E+06         55.8656
            1087     2.48064E-03     10.8837E-03     491.620E-03     373.776E-03        -2.50099     416.887E-03        -2.42625     373.776E-03    -87.6384E-03     389.715E-03    -191.948E-03    -197.766E-03    -197.395E-03     389.343E-03    -191.948E-03    -29.1798E-03    -106.972E+06    -127.414E+06    -182.558E+06    -127.526E+06    -182.445E+06    -106.972E+06     1.48180E+06         55.3727
            1088     1.65632E-03     10.9048E-03     508.135E-03     363.411E-03        -2.52757     390.197E-03        -2.40963     363.411E-03    -296.268E-03     383.504E-03    -190.373E-03    -193.131E-03    -192.921E-03     383.293E-03    -190.373E-03    -21.5052E-03    -125.342E+06    -134.136E+06    -204.391E+06    -134.168E+06    -204.359E+06    -125.342E+06    -201.404E+03         55.0067
            1089     829.343E-06     10.9186E-03     533.047E-03     403.236E-03        -2.61142     299.964E-03        -2.39384     418.740E-03     147.405E-03     379.549E-03    -189.306E-03    -190.244E-03    -190.165E-03     379.470E-03    -189.306E-03    -12.4727E-03    -135.858E+06    -139.258E+06    -221.551E+06    -138.499E+06    -221.508E+06    -136.659E+06    -1.00748E+06         54.7755
            1090     13.5584E-03     9.92240E-03     973.491E-03     473.385E-03        -2.97790     971.633E-03        -2.97604     473.385E-03    -52.4565E-03     470.804E-03    -227.277E-03    -243.527E-03    -239.582E-03     466.859E-03    -227.277E-03     102.040E-03     119.675E+06     57.3789E+06    -6.91456E+06    -6.90373E+06     57.3680E+06     119.675E+06    -338.443E+03         78.3157
            1091     12.7761E-03     9.72867E-03     894.066E-03     423.833E-03        -2.84156     893.625E-03        -2.84112     423.833E-03     58.6799E-03     472.017E-03    -226.350E-03    -245.667E-03    -241.505E-03     467.855E-03    -226.350E-03     106.262E-03     92.4015E+06     46.3965E+06    -13.9236E+06    -13.9116E+06     46.3844E+06     92.4015E+06    -217.453E+03         76.1662
            1092     11.9817E-03     9.60618E-03     812.920E-03     376.099E-03        -2.70861     812.396E-03        -2.70809     376.099E-03    -54.7548E-03     473.488E-03    -225.109E-03    -248.379E-03    -246.142E-03     471.251E-03    -225.109E-03     80.1855E-03     74.9920E+06     32.9346E+06    -20.8613E+06    -20.8567E+06     32.9300E+06     74.9920E+06     296.699E+03         73.5466
            1093     11.2099E-03     9.47023E-03     723.963E-03     332.271E-03        -2.57966     722.446E-03        -2.57814     332.271E-03    -136.941E-03     475.288E-03    -223.365E-03    -251.923E-03    -250.341E-03     473.707E-03    -223.365E-03     66.7785E-03     64.9688E+06     22.8988E+06    -26.6095E+06    -26.6039E+06     22.8932E+06     64.9688E+06     435.239E+03         70.7349
            1094     10.4285E-03     9.37823E-03     628.620E-03     292.626E-03        -2.45549     627.361E-03        -2.45424     292.626E-03    -106.815E-03     474.758E-03    -221.071E-03    -253.687E-03    -252.895E-03     473.966E-03    -221.071E-03     47.2046E-03     55.5818E+06     17.0028E+06    -33.2432E+06    -33.1982E+06     16.9578E+06     55.5818E+06     958.340E+03         67.9962
            1095     9.65321E-03     9.29754E-03     546.530E-03     258.269E-03        -2.34263     541.844E-03        -2.33794     258.269E-03    -180.934E-03     472.804E-03    -218.226E-03    -254.578E-03    -254.256E-03     472.482E-03    -218.226E-03     28.9324E-03     47.2310E+06     11.5920E+06    -40.5501E+06    -40.4834E+06     11.5253E+06     47.2310E+06     1.37965E+06         65.5193
            1096     8.88166E-03     9.24294E-03     482.857E-03     228.790E-03        -2.24451     476.852E-03        -2.23850     228.790E-03    -69.5660E-03     466.991E-03    -214.919E-03    -252.071E-03    -252.002E-03     466.921E-03    -214.919E-03     12.0533E-03     39.6864E+06     5.07380E+06    -48.0954E+06    -48.0446E+06     5.02290E+06     39.6864E+06     1.43257E+06         63.3959
            1097     8.10450E-03     9.21731E-03     434.046E-03     204.067E-03        -2.16656     412.866E-03        -2.14538     204.067E-03    -228.125E-03     457.916E-03    -211.355E-03    -246.561E-03    -246.547E-03     457.902E-03    -211.355E-03     818.375E-06     30.9324E+06    -2.69433E+06    -56.7535E+06    -56.6595E+06    -2.78831E+06     30.9324E+06     2.04125E+06         61.6340
            1098     7.32342E-03     9.21404E-03     397.903E-03     184.135E-03        -2.11401     354.411E-03        -2.07052     184.135E-03     26.6958E-03     447.266E-03    -207.707E-03    -239.559E-03    -239.511E-03     447.219E-03    -207.707E-03    -6.52699E-03     19.8375E+06    -11.9406E+06    -66.4904E+06    -66.2579E+06    -12.1731E+06     19.8375E+06     3.25944E+06         60.1917
            1099     6.53571E-03     9.22863E-03     374.252E-03     168.733E-03        -2.08302     303.231E-03        -2.01200     168.733E-03    -130.906E-03     436.049E-03    -204.083E-03    -231.966E-03    -231.854E-03     435.937E-03    -204.083E-03    -11.8819E-03     3.34584E+06    -33.1444E+06    -77.7298E+06    -77.2781E+06    -33.5961E+06     3.34584E+06     4.05675E+06         59.0070
            1100     5.74062E-03     9.26013E-03     331.876E-03     157.917E-03        -2.03915     252.727E-03        -1.96000     157.917E-03    -92.6740E-03     424.422E-03    -200.577E-03    -223.845E-03    -223.679E-03     424.256E-03    -200.577E-03    -15.6454E-03    -17.0539E+06    -64.8806E+06    -90.0751E+06    -88.8783E+06    -66.0774E+06    -17.0539E+06     4.55337E+06         58.0185
            1101     4.93696E-03     9.29592E-03     278.167E-03     151.174E-03        -1.98410     218.023E-03        -1.92396     151.174E-03     28.2874E-03     412.933E-03    -197.294E-03    -215.639E-03    -215.434E-03     412.728E-03    -197.294E-03    -18.3389E-03    -39.0020E+06    -92.2653E+06    -107.027E+06    -100.272E+06    -99.0193E+06    -39.0020E+06     4.68004E+06         57.1799
            1102     4.12697E-03     9.33968E-03     254.578E-03     146.225E-03        -1.95412     202.932E-03        -1.90248     146.225E-03    -32.1562E-03     402.521E-03    -194.291E-03    -208.230E-03    -208.010E-03     402.300E-03    -194.291E-03    -19.7168E-03    -62.0219E+06    -110.547E+06    -131.695E+06    -111.850E+06    -130.391E+06    -62.0219E+06     4.06664E+06         56.4643
            1103     3.31117E-03     9.38024E-03     254.403E-03     141.115E-03        -1.94592     187.616E-03        -1.87913     141.115E-03    -111.918E-03     392.896E-03    -191.620E-03    -201.275E-03    -201.069E-03     392.689E-03    -191.620E-03    -19.5494E-03    -85.2061E+06    -122.024E+06    -157.431E+06    -122.457E+06    -156.997E+06    -85.2061E+06     3.30423E+06         55.8623
            1104     2.48859E-03     9.41778E-03     240.692E-03     134.805E-03        -1.92925     172.605E-03        -1.86116     134.805E-03    -106.466E-03     384.447E-03    -189.422E-03    -195.025E-03    -194.863E-03     384.285E-03    -189.422E-03    -17.5783E-03    -107.898E+06    -130.507E+06    -179.262E+06    -130.660E+06    -179.108E+06    -107.898E+06     2.45823E+06         55.3764
            1105     1.66173E-03     9.44697E-03     249.913E-03     126.903E-03        -1.93900     152.232E-03        -1.84132     126.903E-03    -232.635E-03     378.159E-03    -187.849E-03    -190.310E-03    -190.215E-03     378.064E-03    -187.849E-03    -13.2639E-03    -126.281E+06    -136.766E+06    -201.993E+06    -136.809E+06    -201.951E+06    -126.281E+06     1.38766E+06         55.0152
            1106     831.811E-06     9.46747E-03     251.237E-03     149.516E-03        -1.97943     94.5488E-03        -1.82666     153.428E-03     16.8573E-03     374.472E-03    -186.823E-03    -187.649E-03    -187.387E-03     374.437E-03    -187.051E-03    -6.90618E-03    -137.521E+06    -141.981E+06    -221.640E+06    -141.194E+06    -221.626E+06    -138.323E+06     987.930E+03         54.7866
            1107     13.5678E-03     8.34258E-03     880.831E-03     283.274E-03        -2.59162     880.170E-03        -2.59096     283.274E-03    -45.0054E-03     473.097E-03    -227.177E-03    -245.920E-03    -241.813E-03     468.989E-03    -227.177E-03     103.644E-03     120.207E+06     57.2291E+06    -7.14297E+06    -7.11309E+06     57.1993E+06     120.207E+06    -648.665E+03         78.6788
            1108     12.7677E-03     8.13381E-03     796.379E-03     230.336E-03        -2.44153     796.248E-03        -2.44140     230.336E-03     34.5842E-03     476.268E-03    -226.035E-03    -250.233E-03    -245.901E-03     471.936E-03    -226.035E-03     108.251E-03     91.8179E+06     45.3774E+06    -14.8401E+06    -14.8338E+06     45.3711E+06     91.8179E+06     365.218E+03         76.5022
            1109     11.9984E-03     7.99294E-03     701.032E-03     178.758E-03        -2.29326     700.557E-03        -2.29279     178.758E-03    -30.9876E-03     477.381E-03    -224.466E-03    -252.915E-03    -250.768E-03     475.234E-03    -224.466E-03     78.9920E-03     74.5648E+06     32.5875E+06    -21.0818E+06    -21.0706E+06     32.5763E+06     74.5648E+06     198.147E+03         73.8334
            1110     11.2143E-03     7.86741E-03     591.305E-03     131.699E-03        -2.15170     589.039E-03        -2.14943     131.699E-03    -145.521E-03     478.767E-03    -222.332E-03    -256.435E-03    -254.968E-03     477.299E-03    -222.332E-03     63.9714E-03     64.4489E+06     22.1819E+06    -27.0184E+06    -27.0088E+06     22.1723E+06     64.4489E+06     256.320E+03         70.9469
            1111     10.4426E-03     7.76489E-03     488.760E-03     89.4577E-03        -2.01730     486.819E-03        -2.01536     89.4577E-03    -83.1662E-03     476.437E-03    -219.642E-03    -256.794E-03    -256.164E-03     475.807E-03    -219.642E-03     41.6405E-03     56.2371E+06     16.3217E+06    -33.2681E+06    -33.2220E+06     16.2756E+06     56.2371E+06     936.667E+03         68.1157
            1112     9.67393E-03     7.68653E-03     403.587E-03     52.6223E-03        -1.89426     396.183E-03        -1.88686     52.6223E-03    -163.760E-03     468.419E-03    -216.644E-03    -251.775E-03    -251.510E-03     468.154E-03    -216.644E-03     26.7472E-03     48.5586E+06     11.4106E+06    -39.6942E+06    -39.5883E+06     11.3047E+06     48.5586E+06     1.65968E+06         65.5384
            1113     8.89628E-03     7.65029E-03     329.540E-03     20.8613E-03        -1.78618     319.207E-03        -1.77585     20.8613E-03    -68.1485E-03     457.709E-03    -213.661E-03    -244.048E-03    -243.895E-03     457.556E-03    -213.661E-03     19.1976E-03     39.0768E+06     4.02999E+06    -47.9568E+06    -47.7276E+06     3.80082E+06     39.0768E+06     2.92952E+06         63.3253
            1114     8.11303E-03     7.63908E-03     265.406E-03    -5.64453E-03        -1.69892     238.618E-03        -1.67213    -5.64453E-03    -186.456E-03     447.561E-03    -210.837E-03    -236.724E-03    -236.573E-03     447.411E-03    -210.837E-03     16.4044E-03     30.0280E+06    -4.01052E+06     -57.537E+06    -57.1141E+06    -4.43338E+06     30.0280E+06     4.41320E+06         61.5090
            1115     7.32244E-03     7.65483E-03     221.043E-03    -26.9411E-03        -1.64211     171.677E-03        -1.59275    -26.9411E-03     4.32292E-03     437.958E-03    -208.168E-03    -229.790E-03    -229.630E-03     437.799E-03    -208.168E-03     15.3379E-03     20.1963E+06    -13.2287E+06    -67.9818E+06    -67.3833E+06    -13.8271E+06     20.1963E+06     5.53756E+06         60.0599
            1116     6.52550E-03     7.68717E-03     186.554E-03    -43.3558E-03        -1.60208     108.637E-03        -1.52416    -43.3558E-03    -112.873E-03     429.306E-03    -205.620E-03    -223.686E-03    -223.518E-03     429.138E-03    -205.620E-03     14.9316E-03     5.27312E+06    -32.9388E+06    -79.3491E+06    -78.2983E+06    -33.9896E+06     5.27312E+06     6.56799E+06         58.9129
            1117     5.72529E-03     7.73313E-03     147.602E-03    -55.2815E-03        -1.55484     59.7083E-03        -1.46695    -55.2815E-03    -80.4413E-03     421.527E-03    -203.140E-03    -218.386E-03    -218.223E-03     421.363E-03    -203.140E-03     13.3754E-03    -13.7407E+06    -63.4494E+06    -91.8247E+06    -89.7313E+06    -65.5427E+06    -13.7407E+06     6.89283E+06         57.9956
            1118     4.92081E-03     7.78980E-03     98.8084E-03    -64.2883E-03        -1.49615     28.2736E-03        -1.42561    -64.2883E-03     16.8168E-03     413.870E-03    -200.708E-03    -213.162E-03    -213.012E-03     413.720E-03    -200.708E-03     10.9667E-03    -34.5850E+06    -91.1428E+06    -107.498E+06    -101.493E+06    -97.1479E+06    -34.5850E+06     6.45916E+06         57.2477
            1119     4.11057E-03     7.84450E-03     64.1742E-03    -71.9643E-03        -1.45976     2.12087E-03        -1.39770    -71.9643E-03    -38.5408E-03     406.436E-03    -198.362E-03    -208.073E-03    -207.957E-03     406.319E-03    -198.362E-03     7.56926E-03    -57.4392E+06    -110.031E+06    -129.595E+06    -112.583E+06    -127.043E+06    -57.4392E+06     5.21731E+06         56.6286
            1120     3.29638E-03     7.90076E-03     46.9882E-03    -77.9526E-03        -1.44909    -29.9475E-03        -1.37216    -77.9526E-03    -88.4127E-03     399.320E-03    -196.170E-03    -203.150E-03    -203.070E-03     399.240E-03    -196.170E-03     4.07984E-03    -82.0946E+06    -122.329E+06    -153.807E+06    -122.776E+06     -153.36E+06    -82.0946E+06     3.16216E+06         56.1172
            1121     2.47768E-03     7.95005E-03     17.9371E-03    -81.3201E-03        -1.42306    -56.6166E-03        -1.34851    -81.3201E-03    -111.153E-03     392.743E-03    -194.278E-03    -198.465E-03    -198.412E-03     392.690E-03    -194.278E-03     1.39518E-03    -105.315E+06    -131.670E+06    -176.963E+06    -131.758E+06    -176.874E+06    -105.315E+06     1.70709E+06         55.7080
            1122     1.65396E-03     7.98926E-03     22.9097E-03    -83.4267E-03        -1.42034    -69.6940E-03        -1.32773    -83.4267E-03    -170.904E-03     387.611E-03    -192.837E-03    -194.775E-03    -194.749E-03     387.586E-03    -192.837E-03    -415.578E-06    -125.616E+06    -139.060E+06    -200.146E+06    -139.091E+06    -200.114E+06    -125.616E+06     1.08237E+06         55.4045
            1123     826.712E-06     8.01411E-03     17.2167E-03    -67.1176E-03        -1.42286    -115.864E-03        -1.30682    -50.0783E-03    -78.9141E-03     384.359E-03    -191.755E-03    -192.604E-03    -192.371E-03     384.353E-03    -191.983E-03    -780.924E-06    -139.074E+06    -143.745E+06    -219.799E+06    -143.330E+06    -219.775E+06    -139.512E+06     377.709E+03         55.2124
            1124     13.5531E-03     6.74439E-03     806.812E-03     120.460E-03        -2.25634     806.476E-03        -2.25601     120.460E-03    -37.2140E-03     477.739E-03    -227.105E-03    -250.634E-03    -246.427E-03     473.532E-03    -227.105E-03     103.689E-03     120.048E+06     56.2840E+06    -8.81668E+06    -8.78663E+06     56.2539E+06     120.048E+06    -751.685E+03         78.9922
            1125     12.7898E-03     6.52081E-03     710.131E-03     65.3429E-03        -2.09859     709.774E-03        -2.09823     65.3429E-03     3.43387E-03     484.457E-03    -225.565E-03    -258.893E-03    -254.326E-03     479.891E-03    -225.565E-03     111.878E-03     93.1106E+06     45.2186E+06    -15.8885E+06    -15.8803E+06     45.2103E+06     93.1106E+06     140.126E+03         76.7599
            1126     12.0012E-03     6.39114E-03     602.494E-03     12.0118E-03        -1.94737     601.892E-03        -1.94676     12.0118E-03    -20.3412E-03     484.494E-03    -223.402E-03    -261.092E-03    -259.238E-03     482.640E-03    -223.402E-03     73.0625E-03     76.5853E+06     33.6201E+06    -21.6324E+06    -21.6122E+06     33.5999E+06     76.5853E+06     279.422E+03         74.0048
            1127     11.2346E-03     6.24560E-03     485.563E-03    -36.3746E-03        -1.79656     482.728E-03        -1.79372    -36.3746E-03    -147.909E-03     479.496E-03    -220.766E-03    -258.730E-03    -257.726E-03     478.492E-03    -220.766E-03     51.9585E-03     65.8744E+06     23.0729E+06    -27.8155E+06    -27.7777E+06     23.0350E+06     65.8744E+06    -147.131E+03         71.0013
            1128     10.4678E-03     6.14855E-03     378.272E-03    -79.8822E-03        -1.65196     375.748E-03        -1.64944    -79.8822E-03    -76.5622E-03     466.960E-03    -218.118E-03    -248.843E-03    -248.377E-03     466.495E-03    -218.118E-03     36.1031E-03     55.2634E+06     14.5402E+06    -34.1517E+06    -34.1172E+06     14.5056E+06     55.2634E+06    -73.0724E+03         68.0262
            1129     9.68516E-03     6.09939E-03     285.142E-03    -118.208E-03        -1.52083     276.907E-03        -1.51259    -118.208E-03    -140.842E-03     452.813E-03    -215.921E-03    -236.892E-03    -236.473E-03     452.393E-03    -215.921E-03     33.0894E-03     46.1347E+06     7.84495E+06    -41.4446E+06    -41.2601E+06     7.66043E+06     46.1347E+06     2.30316E+06         65.3088
            1130     8.89252E-03     6.07866E-03     201.299E-03    -151.958E-03        -1.40421     190.521E-03        -1.39343    -151.958E-03    -75.2215E-03     441.522E-03    -213.866E-03    -227.657E-03    -226.709E-03     441.024E-03    -214.315E-03     34.9914E-03     38.7772E+06     1.71023E+06    -49.7276E+06    -49.2291E+06     1.21177E+06     38.7772E+06     4.96158E+06         63.0043
            1131     8.09293E-03     6.08421E-03     121.977E-03    -180.839E-03        -1.30566     96.0763E-03        -1.27976    -180.839E-03    -155.598E-03     433.850E-03    -211.494E-03    -222.356E-03    -220.066E-03     433.247E-03    -213.181E-03     38.0703E-03     31.8408E+06    -5.09155E+06    -58.6542E+06    -57.9499E+06    -5.79583E+06     31.8408E+06     6.09078E+06         61.1707
            1132     7.28986E-03     6.11236E-03     62.9856E-03    -204.470E-03        -1.23802     17.3079E-03        -1.19234    -204.470E-03    -12.9039E-03     428.942E-03    -209.606E-03    -219.336E-03    -215.919E-03     428.254E-03    -212.335E-03     40.3172E-03     23.4907E+06    -13.7615E+06    -68.5304E+06    -67.6838E+06    -14.6081E+06     23.4907E+06     6.73615E+06         59.7794
            1133     6.48520E-03     6.15553E-03     23.8469E-03    -223.199E-03        -1.18924    -53.3414E-03        -1.11205    -223.199E-03    -106.041E-03     425.737E-03    -208.625E-03    -217.112E-03    -213.386E-03     425.011E-03    -211.626E-03     41.2830E-03     10.1571E+06    -33.4360E+06    -79.1345E+06    -77.9746E+06    -34.5959E+06     10.1571E+06     6.97403E+06         58.7512
            1134     5.67753E-03     6.21019E-03    -8.78072E-03    -237.990E-03        -1.13979    -102.168E-03        -1.04640    -237.990E-03    -62.2883E-03     423.800E-03    -208.189E-03    -215.610E-03    -212.186E-03     423.110E-03    -210.924E-03     40.2723E-03    -7.78850E+06    -62.3090E+06    -89.9116E+06    -88.1735E+06    -64.0472E+06    -7.78850E+06     6.36236E+06         57.9940
            1135     4.87060E-03     6.27227E-03    -53.1224E-03    -250.650E-03        -1.07990    -137.107E-03    -995.912E-03    -250.650E-03     1.41941E-03     422.406E-03    -208.142E-03    -214.264E-03    -211.698E-03     421.797E-03    -210.099E-03     37.8356E-03    -29.5892E+06    -88.3405E+06    -103.639E+06    -98.0495E+06    -93.9301E+06    -29.5892E+06     4.55130E+06         57.4271
            1136     4.06389E-03     6.33812E-03    -96.8829E-03    -261.785E-03        -1.03524    -174.806E-03    -957.321E-03    -261.785E-03    -45.7634E-03     420.382E-03    -207.949E-03    -212.433E-03    -210.755E-03     419.898E-03    -209.143E-03     33.3437E-03    -53.1567E+06    -105.955E+06    -126.102E+06    -107.432E+06    -124.625E+06    -53.1567E+06     2.67901E+06         56.9911
            1137     3.25424E-03     6.40109E-03    -119.172E-03    -270.057E-03        -1.02406    -217.145E-03    -926.085E-03    -270.057E-03    -77.3901E-03     417.979E-03    -207.456E-03    -210.522E-03    -209.525E-03     417.649E-03    -208.125E-03     27.0669E-03    -77.6482E+06    -116.275E+06    -150.977E+06    -116.429E+06    -150.822E+06    -77.6482E+06     1.84118E+06         56.6491
            1138     2.44316E-03     6.45860E-03    -158.294E-03    -273.037E-03    -991.845E-03    -255.879E-03    -894.261E-03    -273.037E-03    -103.405E-03     415.723E-03    -206.881E-03    -208.841E-03    -208.445E-03     415.534E-03    -207.089E-03     20.2142E-03    -101.928E+06    -125.237E+06    -176.279E+06    -125.293E+06    -176.223E+06    -101.928E+06     1.28559E+06         56.3832
            1139     1.63086E-03     6.50371E-03    -161.769E-03    -271.906E-03    -974.149E-03    -266.277E-03    -869.641E-03    -271.906E-03    -108.450E-03     413.354E-03    -206.051E-03    -207.303E-03    -207.214E-03     413.265E-03    -206.051E-03     13.1901E-03    -121.697E+06    -132.306E+06    -198.792E+06    -132.322E+06    -198.777E+06    -121.697E+06     923.013E+03         56.1883
            1140     818.051E-06     6.53213E-03    -165.067E-03    -263.495E-03    -944.699E-03    -288.021E-03    -834.873E-03    -250.367E-03    -102.123E-03     410.808E-03    -205.039E-03    -205.769E-03    -205.614E-03     410.774E-03    -205.160E-03     6.84773E-03    -133.787E+06    -137.123E+06    -219.170E+06    -136.705E+06    -219.150E+06    -134.225E+06     326.632E+03         56.0651
            1141     13.5726E-03     5.14208E-03     751.473E-03    -10.6156E-03        -1.97881     749.974E-03        -1.97731    -10.6156E-03    -44.6791E-03     489.681E-03    -226.966E-03    -262.715E-03    -258.044E-03     485.010E-03    -226.966E-03     113.350E-03     120.718E+06     56.0364E+06    -10.0022E+06    -9.98406E+06     56.0182E+06     120.718E+06     335.028E+03         79.2224
            1142     12.7770E-03     4.90348E-03     642.384E-03    -66.2351E-03        -1.82123     640.998E-03        -1.81984    -66.2351E-03    -50.7045E-03     500.068E-03    -224.537E-03    -275.531E-03    -271.511E-03     496.049E-03    -224.537E-03     99.1765E-03     94.6723E+06     45.3779E+06    -16.1738E+06    -16.1136E+06     45.3177E+06     94.6723E+06    -479.961E+03         76.9391
            1143     12.0303E-03     4.74736E-03     528.419E-03    -118.910E-03        -1.67307     527.763E-03        -1.67241    -118.910E-03    -22.4616E-03     486.876E-03    -221.544E-03    -265.333E-03    -264.349E-03     485.892E-03    -221.544E-03     49.0644E-03     78.4773E+06     34.9925E+06    -20.9388E+06    -20.8122E+06     34.8659E+06     78.4773E+06    -1.55289E+06         74.0970
            1144     11.2682E-03     4.63227E-03     410.238E-03    -166.973E-03        -1.52137     407.839E-03        -1.51897    -166.973E-03    -128.091E-03     465.628E-03    -218.979E-03    -246.649E-03    -246.047E-03     465.026E-03    -218.979E-03     41.0291E-03     65.3247E+06     22.5684E+06    -27.6539E+06    -27.4290E+06     22.3435E+06     65.3247E+06     19.1532E+03         70.9449
            1145     10.4762E-03     4.57146E-03     293.951E-03    -210.975E-03        -1.37065     291.996E-03        -1.36870    -210.975E-03    -65.7878E-03     446.104E-03    -215.725E-03    -230.379E-03    -228.106E-03     445.523E-03    -217.417E-03     39.2593E-03     52.1934E+06     11.5070E+06    -35.7546E+06    -35.4892E+06     11.2416E+06     52.1934E+06     2.13918E+06         67.7910
            1146     9.67359E-03     4.54097E-03     190.222E-03    -250.691E-03        -1.23092     184.092E-03        -1.22479    -250.691E-03    -109.111E-03     433.399E-03    -211.149E-03    -222.250E-03    -215.850E-03     432.726E-03    -216.876E-03     41.6170E-03     43.4085E+06     4.65334E+06    -44.0720E+06    -43.7914E+06     4.37269E+06     43.4085E+06     3.42331E+06         64.9348
            1147     8.86374E-03     4.53834E-03     94.9266E-03    -286.572E-03        -1.10340     87.5668E-03        -1.09604    -286.572E-03    -72.3283E-03     425.736E-03    -207.115E-03    -218.621E-03    -207.744E-03     424.908E-03    -217.164E-03     45.5995E-03     38.7781E+06    -163.221E+03    -51.2907E+06    -50.9061E+06    -547.897E+03     38.7781E+06     4.23533E+06         62.5755
            1148     8.04865E-03     4.55173E-03     5.52187E-03    -318.235E-03    -994.628E-03    -15.0458E-03    -974.061E-03    -318.235E-03    -130.649E-03     422.820E-03    -204.754E-03    -218.066E-03    -203.752E-03     421.819E-03    -218.066E-03     50.0155E-03     33.1106E+06    -5.61275E+06    -58.7458E+06    -58.2717E+06    -6.08688E+06     33.1106E+06     4.81645E+06         60.7790
            1149     7.23320E-03     4.58189E-03    -65.1649E-03    -345.198E-03    -911.994E-03    -101.735E-03    -875.423E-03    -345.198E-03    -22.1680E-03     423.968E-03    -204.648E-03    -219.320E-03    -203.545E-03     422.864E-03    -219.320E-03     52.5991E-03     23.3971E+06    -13.3131E+06    -66.7190E+06    -66.2029E+06    -13.8291E+06     23.3971E+06     4.65102E+06         59.5064
            1150     6.41921E-03     4.62540E-03    -104.631E-03    -367.744E-03    -855.324E-03    -177.075E-03    -782.879E-03    -367.744E-03    -94.4120E-03     427.229E-03    -206.532E-03    -220.698E-03    -205.381E-03     426.079E-03    -220.698E-03     53.9536E-03     7.20703E+06    -32.3718E+06    -74.1866E+06    -73.6731E+06    -32.8853E+06     7.20703E+06     3.11313E+06         58.6588
            1151     5.60946E-03     4.67916E-03    -133.512E-03    -386.734E-03    -805.318E-03    -233.262E-03    -705.569E-03    -386.734E-03    -43.2824E-03     431.616E-03    -209.548E-03    -222.067E-03    -208.420E-03     430.488E-03    -222.067E-03     53.7026E-03    -12.4333E+06    -60.0146E+06    -82.0266E+06    -80.0584E+06    -61.9828E+06    -12.4333E+06     936.090E+03         58.1215
            1152     4.80152E-03     4.73787E-03    -168.318E-03    -403.359E-03    -755.128E-03    -279.695E-03    -643.751E-03    -403.359E-03    -8.22693E-03     436.527E-03    -213.219E-03    -223.308E-03    -212.206E-03     435.513E-03    -223.308E-03     51.1935E-03    -33.5187E+06    -81.5289E+06    -98.3169E+06    -86.4040E+06    -93.4417E+06    -33.5187E+06    -35.9373E+03         57.7923
            1153     3.99662E-03     4.80183E-03    -208.703E-03    -417.686E-03    -711.037E-03    -326.132E-03    -593.607E-03    -417.686E-03    -50.5490E-03     441.281E-03    -216.964E-03    -224.318E-03    -216.134E-03     440.452E-03    -224.318E-03     46.5941E-03    -55.5980E+06    -93.6068E+06    -125.665E+06    -93.6182E+06    -125.653E+06    -55.5980E+06     112.277E+03         57.5928
            1154     3.19550E-03     4.86490E-03    -214.050E-03    -429.032E-03    -709.280E-03    -369.513E-03    -553.817E-03    -429.032E-03    -68.0384E-03     445.345E-03    -220.301E-03    -225.044E-03    -219.688E-03     444.732E-03    -225.044E-03     40.1278E-03    -76.2535E+06    -100.891E+06    -153.117E+06    -100.935E+06    -153.073E+06    -76.2535E+06     1.04774E+06         57.4692
            1155     2.39582E-03     4.92109E-03    -230.799E-03    -435.640E-03    -693.374E-03    -410.833E-03    -513.339E-03    -435.640E-03    -87.2992E-03     448.378E-03    -222.718E-03    -225.660E-03    -222.500E-03     447.989E-03    -225.490E-03     31.8584E-03    -94.2139E+06    -107.604E+06    -176.877E+06    -107.692E+06    -176.790E+06    -94.2139E+06     2.32805E+06         57.3893
            1156     1.59763E-03     4.96612E-03    -239.402E-03    -438.584E-03    -667.678E-03    -425.944E-03    -481.136E-03    -438.584E-03    -44.8663E-03     450.220E-03    -224.208E-03    -226.011E-03    -224.287E-03     450.020E-03    -225.734E-03     22.5597E-03    -107.954E+06    -112.924E+06    -197.332E+06    -112.963E+06    -197.258E+06    -107.989E+06     2.32519E+06         57.3365
            1157     797.367E-06     5.00015E-03    -246.349E-03    -438.935E-03    -640.277E-03    -437.428E-03    -449.199E-03    -438.935E-03    -124.771E-03     451.331E-03    -224.926E-03    -226.405E-03    -225.710E-03     451.262E-03    -225.552E-03     12.3171E-03    -114.735E+06    -116.563E+06    -216.881E+06    -115.972E+06    -216.845E+06    -115.362E+06     1.84749E+06         57.3038
            1158     13.5424E-03     3.49143E-03     700.739E-03    -107.429E-03        -1.78949     698.400E-03        -1.78715    -107.429E-03    -37.9758E-03     519.735E-03    -226.079E-03    -293.656E-03    -290.070E-03     516.149E-03    -226.079E-03     98.7289E-03     127.484E+06     58.6591E+06    -8.29403E+06    -7.93033E+06     58.2954E+06     127.484E+06    -989.268E+03         79.4928
            1159     12.8356E-03     3.22295E-03     589.747E-03    -160.518E-03        -1.63342     587.863E-03        -1.63153    -160.518E-03    -71.3627E-03     503.017E-03    -222.312E-03    -280.706E-03    -278.962E-03     501.273E-03    -222.312E-03     56.3103E-03     98.3296E+06     49.1045E+06    -11.8192E+06    -11.4464E+06     48.7317E+06     98.3296E+06    -2.30936E+06         77.2263
            1160     12.0738E-03     3.13113E-03     480.277E-03    -210.925E-03        -1.47794     479.680E-03        -1.47734    -210.925E-03    -22.4874E-03     467.201E-03    -219.418E-03    -247.783E-03    -247.337E-03     466.755E-03    -219.418E-03     34.1690E-03     71.7570E+06     31.8272E+06    -20.6745E+06    -20.2616E+06     31.4143E+06     71.7570E+06     220.806E+03         74.2974
            1161     11.2740E-03     3.06424E-03     362.794E-03    -258.692E-03        -1.32486     361.366E-03        -1.32344    -258.692E-03    -95.2327E-03     443.430E-03    -215.410E-03    -228.020E-03    -224.743E-03     442.831E-03    -218.088E-03     39.7364E-03     57.4407E+06     18.1121E+06    -29.2003E+06    -28.6270E+06     17.5388E+06     57.4407E+06     2.95913E+06         70.9850
            1162     10.4663E-03     3.02881E-03     239.108E-03    -303.718E-03        -1.17182     238.154E-03        -1.17087    -303.718E-03    -45.0649E-03     427.163E-03    -207.528E-03    -219.634E-03    -208.480E-03     426.561E-03    -218.081E-03     39.0054E-03     48.2201E+06     11.2167E+06    -35.8024E+06    -35.4446E+06     10.8588E+06     48.2201E+06     4.00237E+06         67.6824
            1163     9.64816E-03     3.01295E-03     120.114E-03    -345.263E-03        -1.02591     117.260E-03        -1.02306    -345.263E-03    -66.2066E-03     418.357E-03    -199.189E-03    -219.168E-03    -198.519E-03     417.687E-03    -219.168E-03     40.5712E-03     38.7381E+06     5.68310E+06    -42.0044E+06    -41.7980E+06     5.47672E+06     38.7381E+06     2.89704E+06         64.7395
            1164     8.82415E-03     3.01908E-03     7.60310E-03    -382.988E-03    -888.040E-03     4.46081E-03    -884.898E-03    -382.988E-03    -54.5542E-03     415.870E-03    -194.764E-03    -221.106E-03    -193.996E-03     415.102E-03    -221.106E-03     43.0967E-03     29.3497E+06    -39.5558E+03    -48.0129E+06    -47.9124E+06    -140.047E+03     29.3497E+06     1.69426E+06         62.3766
            1165     7.99854E-03     3.03295E-03    -85.2333E-03    -416.821E-03    -766.998E-03    -97.9889E-03    -754.242E-03    -416.821E-03    -98.7682E-03     417.767E-03    -194.091E-03    -223.676E-03    -193.235E-03     416.910E-03    -223.676E-03     45.3430E-03     19.3114E+06    -5.04656E+06    -53.2176E+06    -53.0616E+06    -5.20256E+06     19.3114E+06     982.283E+03         60.6588
            1166     7.17443E-03     3.05591E-03    -155.780E-03    -447.354E-03    -667.019E-03    -179.346E-03    -643.453E-03    -447.354E-03    -21.8498E-03     422.987E-03    -196.292E-03    -226.695E-03    -195.407E-03     422.103E-03    -226.695E-03     46.2516E-03     6.95206E+06    -12.4203E+06    -57.7234E+06    -57.5270E+06    -11.4066E+06     5.74190E+06    -293.237E+03         59.5316
            1167     6.35490E-03     3.09047E-03    -195.838E-03    -462.121E-03    -616.946E-03    -259.031E-03    -541.111E-03    -474.763E-03    -69.0884E-03     431.281E-03    -201.294E-03    -229.987E-03    -200.385E-03     430.372E-03    -229.987E-03     47.3579E-03    -10.4015E+06    -30.0197E+06    -62.7611E+06    -61.8612E+06    -29.7094E+06    -11.6117E+06    -2.78667E+06         58.8781
            1168     5.53963E-03     3.13151E-03    -214.204E-03    -468.644E-03    -601.815E-03    -335.916E-03    -450.558E-03    -498.189E-03    -19.9174E-03     441.340E-03    -207.963E-03    -233.376E-03    -207.057E-03     440.433E-03    -233.376E-03     47.7932E-03    -28.5296E+06    -54.4812E+06    -75.1035E+06    -66.2843E+06    -63.3004E+06    -28.5296E+06    -4.29978E+06         58.5657
            1169     4.73189E-03     3.17930E-03    -211.882E-03    -490.069E-03    -591.748E-03    -398.209E-03    -377.986E-03    -517.504E-03    -10.1413E-03     452.066E-03    -215.362E-03    -236.704E-03    -214.527E-03     451.231E-03    -236.704E-03     46.4868E-03    -43.2413E+06    -69.4322E+06    -100.190E+06    -70.6569E+06    -98.9655E+06    -43.2413E+06    -3.05532E+06         58.4750
            1170     3.93043E-03     3.22966E-03    -209.795E-03    -508.008E-03    -579.668E-03    -446.619E-03    -317.297E-03    -533.555E-03    -49.2404E-03     463.066E-03    -223.251E-03    -239.816E-03    -222.548E-03     462.363E-03    -239.816E-03     43.3335E-03    -56.1009E+06    -74.6453E+06    -131.083E+06    -74.7186E+06    -131.009E+06    -56.1009E+06    -629.640E+03         58.5117
            1171     3.13496E-03     3.28063E-03    -179.952E-03    -524.886E-03    -590.473E-03    -481.791E-03    -265.744E-03    -547.775E-03    -54.6212E-03     473.470E-03    -230.907E-03    -242.563E-03    -230.362E-03     472.924E-03    -242.563E-03     38.6078E-03    -67.3564E+06    -78.8132E+06    -158.106E+06    -78.8703E+06    -158.049E+06    -67.3564E+06     1.67096E+06         58.6073
            1172     2.34593E-03     3.32677E-03    -151.192E-03    -542.312E-03    -599.528E-03    -515.715E-03    -216.443E-03    -560.874E-03    -62.9372E-03     482.372E-03    -237.501E-03    -244.870E-03    -237.135E-03     482.005E-03    -244.870E-03     31.7828E-03    -76.0202E+06    -81.9105E+06    -177.859E+06    -82.0248E+06    -177.745E+06    -76.0202E+06     3.21187E+06         58.7156
            1173     1.55970E-03     3.36738E-03    -145.543E-03    -556.075E-03    -596.537E-03    -541.811E-03    -182.391E-03    -573.953E-03     228.371E-06     489.613E-03    -242.907E-03    -246.706E-03    -242.718E-03     489.424E-03    -246.706E-03     22.6200E-03    -82.3497E+06    -84.3025E+06    -194.128E+06    -84.3906E+06    -194.004E+06    -82.3854E+06     3.59579E+06         58.8083
            1174     779.516E-06     3.39102E-03    -128.535E-03    -573.941E-03    -604.110E-03    -578.546E-03    -146.910E-03    -581.130E-03    -124.048E-03     494.784E-03    -246.387E-03    -248.397E-03    -247.245E-03     494.720E-03    -247.474E-03     12.4767E-03    -85.0317E+06    -86.9612E+06    -210.096E+06    -86.4015E+06    -210.030E+06    -85.6582E+06     2.46873E+06         58.8703
            1175     13.6356E-03     1.70992E-03     669.558E-03    -169.149E-03        -1.68411     668.297E-03        -1.68285    -169.149E-03    -16.3659E-03     554.458E-03    -225.259E-03    -329.199E-03    -326.363E-03     551.622E-03    -225.259E-03     93.4793E-03     132.760E+06     60.4961E+06    -5.14592E+06    -4.60098E+06     59.9511E+06     132.760E+06    -1.18186E+06         80.1905
            1176     12.8778E-03     1.62298E-03     544.420E-03    -217.537E-03        -1.52473     543.470E-03        -1.52378    -217.537E-03    -40.8791E-03     491.624E-03    -220.693E-03    -270.931E-03    -269.951E-03     490.644E-03    -220.693E-03     49.0689E-03     95.4716E+06     46.6535E+06    -13.3882E+06    -12.8210E+06     46.0863E+06     95.4716E+06     668.451E+03         77.9601
            1177     12.0686E-03     1.56171E-03     440.638E-03    -265.190E-03        -1.36557     440.305E-03        -1.36524    -265.190E-03    -10.1239E-03     450.036E-03    -217.656E-03    -232.380E-03    -231.011E-03     449.568E-03    -218.557E-03     33.3854E-03     66.0031E+06     28.9729E+06    -21.1489E+06    -20.6971E+06     28.5211E+06     66.0031E+06     3.85451E+06         74.9618
            1178     11.2676E-03     1.52276E-03     339.670E-03    -312.843E-03        -1.20809     339.120E-03        -1.20754    -312.843E-03    -52.9221E-03     428.775E-03    -209.024E-03    -219.751E-03    -210.107E-03     428.413E-03    -218.306E-03     27.4578E-03     51.2001E+06     17.9773E+06    -26.3744E+06    -25.9479E+06     17.5508E+06     51.2001E+06     3.78768E+06         71.5503
            1179     10.4489E-03     1.50816E-03     214.915E-03    -359.399E-03        -1.05120     214.614E-03        -1.05090    -359.399E-03    -22.0635E-03     416.080E-03    -196.723E-03    -219.357E-03    -196.413E-03     415.770E-03    -219.357E-03     25.8566E-03     38.7107E+06     13.2865E+06    -30.4578E+06    -30.3115E+06     13.1402E+06     38.7107E+06     2.29270E+06         68.1682
            1180     9.61998E-03     1.50633E-03     74.9350E-03    -402.658E-03    -903.020E-03     74.2162E-03    -902.301E-03    -402.658E-03    -26.4877E-03     411.048E-03    -189.584E-03    -221.464E-03    -189.248E-03     410.712E-03    -221.464E-03     26.0498E-03     24.4510E+06     8.06243E+06    -34.0133E+06    -33.9634E+06     8.01246E+06     24.4510E+06     1.12026E+06         65.1936
            1181     8.78868E-03     1.50743E-03    -53.1492E-03    -441.378E-03    -760.798E-03    -53.8720E-03    -760.075E-03    -441.378E-03    -28.3067E-03     411.920E-03    -187.514E-03    -224.406E-03    -187.158E-03     411.564E-03    -224.406E-03     26.3290E-03     12.0988E+06     874.666E+03    -38.3037E+06    -38.2760E+06     2.05853E+06     10.8872E+06    -238.129E+03         62.8572
            1182     7.96023E-03     1.51589E-03    -145.173E-03    -475.373E-03    -628.032E-03    -149.834E-03    -622.354E-03    -476.389E-03    -53.1086E-03     416.634E-03    -188.624E-03    -228.010E-03    -188.264E-03     416.274E-03    -228.010E-03     26.9096E-03     1.76198E+06    -7.06377E+06    -42.5954E+06    -42.4863E+06    -3.53911E+06    -1.87186E+06    -1.82043E+06         61.2194
            1183     7.13238E-03     1.53062E-03    -211.702E-03    -470.908E-03    -547.931E-03    -220.761E-03    -500.121E-03    -509.659E-03    -14.0425E-03     424.382E-03    -192.221E-03    -232.161E-03    -191.863E-03     424.024E-03    -232.161E-03     27.2240E-03    -8.20216E+06    -16.8978E+06    -46.4875E+06    -46.2403E+06    -9.74144E+06    -15.6057E+06    -2.96423E+06         60.2149
            1184     6.30766E-03     1.54760E-03    -248.210E-03    -441.776E-03    -544.402E-03    -303.028E-03    -390.114E-03    -541.245E-03    -35.7367E-03     435.269E-03    -198.516E-03    -236.753E-03    -198.158E-03     434.911E-03    -236.753E-03     27.2319E-03    -24.0347E+06    -32.9537E+06    -51.2967E+06    -50.3313E+06    -28.9377E+06    -29.0160E+06    -3.55345E+06         59.7148
            1185     5.49142E-03     1.57006E-03    -234.363E-03    -459.812E-03    -568.178E-03    -402.881E-03    -291.293E-03    -568.178E-03    -3.16928E-03     448.635E-03    -207.005E-03    -241.630E-03    -206.659E-03     448.289E-03    -241.630E-03     27.2184E-03    -39.4964E+06    -49.7843E+06    -72.0974E+06    -54.7174E+06    -67.1642E+06    -39.4964E+06    -3.74169E+06         59.5757
            1186     4.68200E-03     1.59617E-03    -181.194E-03    -513.494E-03    -588.623E-03    -482.319E-03    -212.369E-03    -588.623E-03    -6.11623E-03     463.595E-03    -217.029E-03    -246.566E-03    -216.703E-03     463.269E-03    -246.566E-03     27.0281E-03    -46.6427E+06    -57.7648E+06    -106.404E+06    -58.0452E+06    -106.124E+06    -46.6427E+06    -2.78278E+06         59.6675
            1187     3.88179E-03     1.62475E-03    -125.831E-03    -544.565E-03    -604.656E-03    -527.657E-03    -142.739E-03    -604.656E-03    -31.1977E-03     479.250E-03    -227.916E-03    -251.334E-03    -227.627E-03     478.961E-03    -251.334E-03     25.9535E-03    -51.5980E+06    -60.6344E+06    -137.773E+06    -60.7077E+06    -137.699E+06    -51.5980E+06    -699.603E+03         59.8857
            1188     3.09117E-03     1.65326E-03    -69.1061E-03    -560.493E-03    -620.824E-03    -547.912E-03    -81.6877E-03    -620.824E-03    -29.1126E-03     494.529E-03    -238.818E-03    -255.711E-03    -238.592E-03     494.303E-03    -255.711E-03     23.2184E-03    -55.2627E+06    -62.2397E+06    -162.219E+06    -62.2712E+06    -162.188E+06    -55.2627E+06     1.23248E+06         60.1511
            1189     2.30792E-03     1.68118E-03    -17.7002E-03    -585.079E-03    -640.314E-03    -574.005E-03    -28.7745E-03    -640.314E-03    -30.8742E-03     508.409E-03    -248.948E-03    -259.460E-03    -248.798E-03     508.259E-03    -259.460E-03     18.9934E-03    -59.3235E+06    -63.1201E+06    -178.188E+06    -63.1743E+06    -178.134E+06    -59.3235E+06     2.40135E+06         60.4071
            1190     1.53487E-03     1.70119E-03     8.52922E-03    -617.810E-03    -663.109E-03    -613.393E-03     4.11217E-03    -663.109E-03     9.29910E-03     519.666E-03    -257.301E-03    -262.365E-03    -257.224E-03     519.589E-03    -262.365E-03     13.6457E-03    -62.1161E+06    -63.4059E+06    -189.918E+06    -63.4808E+06    -189.843E+06    -62.1161E+06      2.3777E+06         60.6157
            1191     765.359E-06     1.71718E-03     40.4390E-03    -653.944E-03    -698.291E-03    -661.215E-03     37.9848E-03    -688.566E-03    -59.7546E-03     527.094E-03    -262.415E-03    -264.680E-03    -262.562E-03     527.064E-03    -264.502E-03     8.02646E-03    -62.2496E+06    -64.2169E+06    -202.882E+06    -63.6184E+06    -202.840E+06    -62.8905E+06     1.30126E+06         60.7540
            1192     795.732E-06     87.9115E-03         3.49734         2.59315        -7.05882         2.57327        -6.13475         2.59315        -3.20019     456.422E-03    -227.591E-03    -228.831E-03    -228.009E-03     456.421E-03    -228.413E-03     823.547E-06    -130.823E+06    -133.959E+06    -223.899E+06    -133.680E+06    -223.889E+06    -131.112E+06     560.999E+03         57.8409
            1193     1.59217E-03     87.9130E-03         2.68387         2.57842        -6.23417         2.55981        -6.11011         2.57842    -13.5718E-03     455.612E-03    -227.494E-03    -228.119E-03    -227.493E-03     455.612E-03    -228.119E-03     1.01003E-03    -120.418E+06    -130.352E+06    -211.662E+06    -130.362E+06    -211.652E+06    -120.418E+06     298.344E+03         57.8637
            1194     2.38932E-03     87.9138E-03         2.61625         2.56523        -6.16168         2.51497        -6.06041         2.56523    -227.191E-03     455.073E-03    -227.147E-03    -227.926E-03    -227.145E-03     455.070E-03    -227.926E-03     2.24473E-03    -104.302E+06    -124.427E+06    -192.138E+06    -124.430E+06    -192.134E+06    -104.302E+06     90.9984E+03         57.9046
            1195     3.18590E-03     87.9145E-03         2.56746         2.54271        -6.08880         2.46881        -5.99403         2.54660    -163.258E-03     455.176E-03    -227.329E-03    -227.847E-03    -227.319E-03     455.166E-03    -227.847E-03     4.80321E-03    -84.6342E+06    -117.139E+06    -168.521E+06    -117.159E+06    -168.501E+06    -84.6342E+06    -37.9227E+03         57.9690
            1196     3.98388E-03     87.9218E-03         2.53250         2.49548        -6.00322         2.40555        -5.90447         2.52368    -131.475E-03     455.428E-03    -227.497E-03    -227.931E-03    -227.515E-03     455.396E-03    -227.881E-03     8.84202E-03    -62.2038E+06    -108.138E+06    -143.163E+06    -108.198E+06    -143.103E+06    -62.2038E+06    -20.6100E+03         58.0636
            1197     4.78038E-03     87.9351E-03         2.49568         2.37613        -5.84302         2.33211        -5.79901         2.49568     703.541E-03     455.285E-03    -227.309E-03    -227.976E-03    -227.288E-03     455.214E-03    -227.926E-03     13.6763E-03    -40.0689E+06    -98.9274E+06    -113.360E+06    -98.9802E+06    -113.308E+06    -40.0689E+06    -44.7812E+03         58.1980
            1198     5.57526E-03     87.9532E-03         2.46214         2.23998        -5.67187         2.23861        -5.67051         2.46214    -100.084E-03     454.840E-03    -226.921E-03    -227.919E-03    -226.796E-03     454.715E-03    -227.919E-03     18.2605E-03    -18.8476E+06    -79.3390E+06    -90.5304E+06    -89.0524E+06    -80.8170E+06    -18.8476E+06    -282.793E+03         58.3863
            1199     6.37329E-03     87.9843E-03         2.42221         2.12896        -5.52293         2.12737        -5.52134         2.42221     180.225E-03     454.463E-03    -226.565E-03    -227.898E-03    -226.387E-03     454.247E-03    -227.860E-03     23.9243E-03     1.45568E+06    -44.0702E+06    -78.6625E+06    -78.5920E+06    -44.1408E+06     1.45568E+06     19.9059E+03         58.6531
            1200     7.17356E-03     88.0256E-03         2.37624         2.00977        -5.35785         2.00817        -5.35626         2.37624     193.496E-03     454.839E-03    -226.784E-03    -228.056E-03    -226.672E-03     454.483E-03    -227.811E-03     30.9446E-03     19.2745E+06    -13.5855E+06    -69.1457E+06    -69.1240E+06    -13.6073E+06     19.2745E+06     464.075E+03         59.0433
            1201     7.96823E-03     88.0701E-03         2.32506         1.88260        -5.17498         1.88241        -5.17478         2.32506     49.1395E-03     455.283E-03    -227.075E-03    -228.208E-03    -226.936E-03     454.739E-03    -227.803E-03     38.3306E-03     32.4832E+06     1.10314E+06    -59.7262E+06    -59.7054E+06     1.08237E+06     32.4832E+06     47.7702E+03         59.6391
            1202     8.76424E-03     88.1266E-03         2.26881         1.75532        -4.98378         1.74509        -4.97355         2.26881    -364.777E-03     455.062E-03    -227.080E-03    -227.982E-03    -226.522E-03     454.307E-03    -227.784E-03     45.2672E-03     41.7978E+06     8.01782E+06    -50.5357E+06    -50.5317E+06     8.01386E+06     41.7978E+06    -205.114E+03         60.5794
            1203     9.56457E-03     88.1987E-03         2.20761         1.62317        -4.78455         1.60199        -4.76337         2.20761     1.48526E-03     455.344E-03    -227.350E-03    -227.994E-03    -226.578E-03     454.330E-03    -227.752E-03     52.4192E-03     50.0095E+06     13.4019E+06    -42.2297E+06    -42.2218E+06     13.3940E+06     50.0095E+06    -17.8783E+03         62.0629
            1204     10.3623E-03     88.2774E-03         2.14164         1.46598        -4.55930         1.44617        -4.53949         2.14164     47.2227E-03     456.261E-03    -227.678E-03    -228.583E-03    -227.164E-03     454.918E-03    -227.755E-03     60.4335E-03     58.3455E+06     17.8198E+06    -34.8897E+06    -34.8805E+06     17.8107E+06     58.3455E+06     32.7945E+03         64.3062
            1205     11.1576E-03     88.3700E-03         2.07058         1.29238        -4.31322         1.28302        -4.30386         2.07058    -394.292E-03     457.111E-03    -227.794E-03    -229.317E-03    -227.479E-03     455.273E-03    -227.794E-03     70.6694E-03     67.2657E+06     22.3565E+06    -27.7186E+06    -27.7169E+06     22.3548E+06     67.2657E+06    -26.3534E+03         67.4295
            1206     11.9550E-03     88.4859E-03         1.99489         1.12954        -4.07058         1.11770        -4.05875         1.99489     261.182E-03     457.311E-03    -227.825E-03    -229.486E-03    -227.238E-03     455.064E-03    -227.825E-03     78.4295E-03     75.8063E+06     30.1483E+06    -20.6866E+06    -20.6845E+06     30.1462E+06     75.8063E+06    -234.563E+03         71.2869
            1207     12.7539E-03     88.6009E-03         1.91444     966.731E-03        -3.81962     954.945E-03        -3.80783         1.91444     271.588E-03     458.823E-03    -227.857E-03    -230.966E-03    -227.508E-03     455.365E-03    -227.857E-03     96.1374E-03     89.7256E+06     44.5655E+06    -14.1078E+06    -14.1052E+06     44.5629E+06     89.7256E+06    -215.727E+03         75.3443
            1208     13.5517E-03     88.7683E-03         1.83025     796.772E-03        -3.55580     795.488E-03        -3.55452         1.83025     18.0872E-03     460.001E-03    -227.953E-03    -232.049E-03    -228.294E-03     456.246E-03    -227.953E-03     101.063E-03     116.066E+06     62.5926E+06    -7.28081E+06    -7.27882E+06     62.5906E+06     116.066E+06     107.745E+03         78.7682
            1209     795.630E-06     89.4906E-03         3.39583         2.30330        -6.54180         2.19854        -5.34451         2.30330        -3.36261     456.673E-03    -227.707E-03    -228.966E-03    -228.590E-03     456.672E-03    -228.081E-03     541.574E-06    -129.791E+06    -134.098E+06    -224.816E+06    -132.804E+06    -224.806E+06    -131.096E+06     137.604E+03         57.8407
            1210     1.59206E-03     89.4902E-03         2.41283         2.24420        -5.50308         2.21613        -5.30639         2.24420     43.9417E-03     455.487E-03    -227.303E-03    -228.185E-03    -227.302E-03     455.487E-03    -228.185E-03     1.50680E-03    -118.749E+06    -129.188E+06    -212.049E+06    -129.199E+06    -212.038E+06    -118.749E+06     301.687E+03         57.8631
            1211     2.38951E-03     89.4881E-03         2.33634         2.22919        -5.41769         2.18154        -5.26289         2.22919    -262.326E-03     455.070E-03    -227.142E-03    -227.928E-03    -227.138E-03     455.066E-03    -227.928E-03     3.01823E-03    -102.653E+06    -123.279E+06    -192.530E+06    -123.282E+06    -192.527E+06    -102.653E+06     180.499E+03         57.9035
            1212     3.18684E-03     89.4920E-03         2.27426         2.21121        -5.33840         2.13714        -5.20127         2.21121    -129.179E-03     455.395E-03    -227.527E-03    -227.868E-03    -227.515E-03     455.383E-03    -227.868E-03     5.72649E-03    -83.0786E+06    -115.730E+06    -168.016E+06    -115.744E+06    -168.002E+06    -83.0786E+06    -155.263E+03         57.9671
            1213     3.98195E-03     89.4981E-03         2.23215         2.18469        -5.26234         2.09137        -5.12715         2.19028    -157.322E-03     455.508E-03    -227.585E-03    -227.924E-03    -227.556E-03     455.480E-03    -227.923E-03     8.68680E-03    -61.3303E+06    -107.000E+06    -144.186E+06    -107.034E+06    -144.152E+06    -61.3303E+06     89.7834E+03         58.0604
            1214     4.77957E-03     89.5108E-03         2.17289         2.08387        -5.09940         2.03038        -5.03903         2.16601     714.053E-03     455.236E-03    -227.280E-03    -227.956E-03    -227.215E-03     455.171E-03    -227.956E-03     13.0596E-03    -39.3039E+06    -97.3238E+06    -113.595E+06    -97.3930E+06    -113.525E+06    -39.3039E+06     491.766E+03         58.1929
            1215     5.57741E-03     89.5327E-03         2.13678         1.95533        -4.93399         1.95184        -4.93050         2.13678    -111.964E-03     454.991E-03    -227.046E-03    -227.945E-03    -226.908E-03     454.853E-03    -227.945E-03     19.1218E-03    -18.0564E+06    -78.4470E+06    -89.5392E+06    -87.7258E+06    -80.2604E+06    -18.0564E+06     303.157E+03         58.3787
            1216     6.37275E-03     89.5595E-03         2.10157         1.85683        -4.80138         1.85527        -4.79982         2.10157     198.200E-03     454.516E-03    -226.627E-03    -227.889E-03    -226.382E-03     454.271E-03    -227.889E-03     25.5646E-03     1.79142E+06    -45.0036E+06    -78.2042E+06    -78.0896E+06    -45.1182E+06     1.79142E+06     264.086E+03         58.6421
            1217     7.16973E-03     89.5971E-03         2.06026         1.75128        -4.65418         1.74995        -4.65285         2.06026     175.976E-03     454.209E-03    -226.407E-03    -227.802E-03    -226.045E-03     453.847E-03    -227.802E-03     31.2415E-03     20.0738E+06    -13.5861E+06    -68.0743E+06    -68.0564E+06    -13.6040E+06     20.0738E+06     606.794E+03         59.0279
            1218     7.97078E-03     89.6480E-03         2.01369         1.63943        -4.49120         1.63912        -4.49090         2.01369     66.4651E-03     454.766E-03    -226.826E-03    -227.940E-03    -226.515E-03     454.257E-03    -227.742E-03     37.0669E-03     33.4003E+06     1.89897E+06    -58.6520E+06    -58.6304E+06     1.87740E+06     33.4003E+06     411.560E+03         59.6175
            1219     8.76772E-03     89.7043E-03         1.96229         1.53016        -4.32340         1.51820        -4.31144         1.96229    -362.110E-03     455.316E-03    -227.317E-03    -227.999E-03    -226.863E-03     454.588E-03    -227.726E-03     44.3252E-03     42.1858E+06     7.79200E+06    -50.3142E+06    -50.3034E+06     7.78112E+06     42.1858E+06    -190.818E+03         60.5488
            1220     9.56291E-03     89.7716E-03         1.90608         1.41753        -4.14806         1.39271        -4.12324         1.90608     3.76108E-03     455.572E-03    -227.525E-03    -228.047E-03    -226.841E-03     454.568E-03    -227.727E-03     52.1785E-03     50.4197E+06     12.7538E+06    -42.5246E+06    -42.5188E+06     12.7480E+06     50.4197E+06    -445.556E+03         62.0218
            1221     10.3609E-03     89.8544E-03         1.84510         1.27937        -3.94519         1.25660        -3.92241         1.84510     56.7427E-03     456.484E-03    -227.675E-03    -228.809E-03    -227.405E-03     455.156E-03    -227.751E-03     60.1241E-03     58.9192E+06     17.8320E+06    -34.8605E+06    -34.8546E+06     17.8261E+06     58.9192E+06    -281.802E+03         64.2588
            1222     11.1583E-03     89.9493E-03         1.77914         1.12086        -3.71868         1.11039        -3.70822         1.77914    -385.976E-03     457.271E-03    -227.804E-03    -229.467E-03    -227.652E-03     455.456E-03    -227.804E-03     70.2357E-03     67.5118E+06     22.6498E+06    -27.2682E+06    -27.2638E+06     22.6453E+06     67.5118E+06    -257.958E+03         67.3892
            1223     11.9559E-03     90.0593E-03         1.70866     976.416E-03        -3.49932     961.926E-03        -3.48483         1.70866     272.411E-03     457.274E-03    -227.841E-03    -229.432E-03    -227.205E-03     455.046E-03    -227.841E-03     78.0704E-03     75.7261E+06     29.9888E+06    -20.5889E+06     -20.586E+06     29.9859E+06     75.7261E+06    -238.953E+03         71.2752
            1224     12.7533E-03     90.1777E-03         1.63323     833.669E-03        -3.27174     819.032E-03        -3.25710         1.63323     270.463E-03     458.818E-03    -227.875E-03    -230.944E-03    -227.536E-03     455.411E-03    -227.875E-03     95.4895E-03     89.2935E+06     43.6569E+06    -14.5384E+06    -14.5368E+06     43.6553E+06     89.2935E+06    -98.5025E+03         75.3787
            1225     13.5514E-03     90.3432E-03         1.55390     681.135E-03        -3.02708     678.990E-03        -3.02494         1.55390     25.3260E-03     460.091E-03    -227.971E-03    -232.120E-03    -228.363E-03     456.334E-03    -227.971E-03     101.234E-03     115.560E+06     62.0924E+06    -7.39902E+06    -7.39716E+06     62.0906E+06     115.560E+06     173.574E+03         78.8462
            1226     796.240E-06     91.0686E-03         3.16050         1.92386        -5.79288         1.77491        -4.40729         1.92386        -3.33306     455.647E-03    -227.354E-03    -228.292E-03    -228.086E-03     455.646E-03    -227.560E-03     86.4935E-06    -128.924E+06    -134.144E+06    -224.394E+06    -132.844E+06    -224.389E+06    -130.229E+06    -453.046E+03         57.8351
            1227     1.59354E-03     91.0654E-03         2.07575         1.84278        -4.63649         1.81378        -4.37452         1.84278     45.6288E-03     455.431E-03    -227.459E-03    -227.971E-03    -227.602E-03     455.430E-03    -227.827E-03     1.00598E-03    -120.061E+06    -129.214E+06    -212.946E+06    -129.219E+06    -212.941E+06    -120.061E+06    -548.905E+03         57.8579
            1228     2.38996E-03     91.0647E-03         2.00377         1.82947        -4.54862         1.79331        -4.33816         1.82947    -254.890E-03     455.436E-03    -227.557E-03    -227.879E-03    -227.603E-03     455.433E-03    -227.830E-03     2.81504E-03    -103.168E+06    -123.353E+06    -193.244E+06    -123.364E+06    -193.233E+06    -103.168E+06     219.759E+03         57.8984
            1229     3.18613E-03     91.0681E-03         1.94164         1.81480        -4.47230         1.75349        -4.28415         1.81480    -115.016E-03     455.355E-03    -227.492E-03    -227.863E-03    -227.480E-03     455.342E-03    -227.862E-03     5.68428E-03    -83.0609E+06    -116.067E+06    -168.463E+06    -116.089E+06    -168.442E+06    -83.0609E+06     883.181E+03         57.9620
            1230     3.98372E-03     91.0766E-03         1.89734         1.79690        -4.40773         1.71530        -4.22569         1.79690    -168.721E-03     455.290E-03    -227.393E-03    -227.897E-03    -227.360E-03     455.256E-03    -227.896E-03     9.43189E-03    -61.6408E+06    -107.920E+06    -144.181E+06    -107.935E+06    -144.166E+06    -61.6408E+06     424.716E+03         58.0554
            1231     4.77885E-03     91.0874E-03         1.80837         1.72027        -4.23680         1.66906        -4.15357         1.77635     714.909E-03     455.039E-03    -227.139E-03    -227.901E-03    -227.063E-03     454.964E-03    -227.901E-03     14.0945E-03    -40.5422E+06    -98.4383E+06    -114.286E+06    -98.5452E+06    -114.179E+06    -40.5422E+06    -91.1174E+03         58.1878
            1232     5.57603E-03     91.1069E-03         1.75180         1.61456        -4.07382         1.60774        -4.06700         1.75180    -124.481E-03     454.614E-03    -226.747E-03    -227.867E-03    -226.610E-03     454.478E-03    -227.867E-03     19.0731E-03    -19.0407E+06    -79.2651E+06    -90.6511E+06    -88.4055E+06    -81.5108E+06    -19.0407E+06     723.784E+03         58.3733
            1233     6.37606E-03     91.1353E-03         1.72194         1.53171        -3.96211         1.52947        -3.95987         1.72194     211.972E-03     454.726E-03    -226.901E-03    -227.825E-03    -226.670E-03     454.494E-03    -227.825E-03     24.7649E-03     2.46348E+06    -45.1078E+06    -78.3563E+06    -78.2792E+06    -45.1849E+06     2.46348E+06     1.10095E+06         58.6355
            1234     7.17297E-03     91.1748E-03         1.68657         1.44577        -3.83967         1.44452        -3.83842         1.68657     158.762E-03     454.848E-03    -227.053E-03    -227.795E-03    -226.694E-03     454.489E-03    -227.795E-03     31.0574E-03     20.3980E+06    -13.4781E+06    -68.2470E+06    -68.2355E+06    -13.4896E+06     20.3980E+06     382.331E+03         59.0177
            1235     7.96720E-03     91.2211E-03         1.64635         1.35494        -3.70526         1.35445        -3.70478         1.64635     72.8884E-03     454.595E-03    -226.837E-03    -227.758E-03    -226.324E-03     454.082E-03    -227.758E-03     37.2088E-03     33.0290E+06     1.82538E+06    -58.7317E+06    -58.7256E+06     1.81923E+06     33.0290E+06     341.285E+03         59.6004
            1236     8.76585E-03     91.2808E-03         1.60158         1.26959        -3.56860         1.25507        -3.55409         1.60158    -362.891E-03     455.058E-03    -227.224E-03    -227.834E-03    -226.617E-03     454.342E-03    -227.725E-03     44.0028E-03     42.9996E+06     8.43227E+06    -49.8224E+06    -49.8148E+06     8.42467E+06     42.9996E+06     168.593E+03         60.5212
            1237     9.56471E-03     91.3482E-03         1.55219         1.17954        -3.42223         1.14952        -3.39221         1.55219     499.859E-06     456.059E-03    -227.737E-03    -228.322E-03    -227.324E-03     455.061E-03    -227.737E-03     52.0299E-03     51.7664E+06     13.3380E+06    -41.6446E+06    -41.6413E+06     13.3347E+06     51.7664E+06    -257.972E+03         61.9815
            1238     10.3608E-03     91.4315E-03         1.49809         1.06149        -3.24473         1.03429        -3.21753         1.49809     59.4669E-03     456.594E-03    -227.781E-03    -228.813E-03    -227.464E-03     455.245E-03    -227.781E-03     60.5987E-03     59.9149E+06     17.9551E+06    -34.1729E+06    -34.1699E+06     17.9521E+06     59.9149E+06    -218.191E+03         64.2094
            1239     11.1577E-03     91.5253E-03         1.43919     924.215E-03        -3.04480     911.761E-03        -3.03234         1.43919    -383.982E-03     457.222E-03    -227.831E-03    -229.391E-03    -227.602E-03     455.434E-03    -227.831E-03     69.8193E-03     67.8440E+06     22.4843E+06    -27.3549E+06    -27.3510E+06     22.4804E+06     67.8440E+06    -218.248E+03         67.3450
            1240     11.9549E-03     91.6360E-03         1.37616     806.492E-03        -2.86006     788.564E-03        -2.84213         1.37616     269.973E-03     457.643E-03    -227.878E-03    -229.766E-03    -227.598E-03     455.475E-03    -227.878E-03     77.0531E-03     75.3657E+06     29.4779E+06    -21.0780E+06    -21.0722E+06      29.472E+06     75.3657E+06    -275.019E+03         71.2570
            1241     12.7525E-03     91.7536E-03         1.30832     690.580E-03        -2.66740     672.038E-03        -2.64886         1.30832     254.999E-03     459.072E-03    -227.930E-03    -231.141E-03    -227.760E-03     455.690E-03    -227.930E-03     95.1172E-03     89.1126E+06     43.5145E+06    -14.3022E+06    -14.2976E+06     43.5099E+06     89.1126E+06    -203.843E+03         75.4045
            1242     13.5501E-03     91.9193E-03         1.23656     561.189E-03        -2.45064     557.460E-03        -2.44691         1.23656     24.0227E-03     459.651E-03    -228.016E-03    -231.636E-03    -227.836E-03     455.852E-03    -228.016E-03     101.821E-03     115.201E+06     61.5425E+06    -7.33590E+06    -7.33352E+06     61.5401E+06     115.201E+06     219.748E+03         78.9179
            1243     797.581E-06     92.6452E-03         2.79863         1.44703        -4.82252         1.33561        -3.35951         1.44703        -3.12388     455.133E-03    -227.275E-03    -227.858E-03    -227.857E-03     455.132E-03    -227.275E-03    -501.560E-06    -129.639E+06    -135.385E+06    -224.981E+06    -134.173E+06    -224.976E+06    -130.857E+06     332.971E+03         57.8269
            1244     1.59314E-03     92.6415E-03         1.68251         1.38702        -3.64359         1.36741        -3.32849         1.38702    -7.69913E-03     455.558E-03    -227.682E-03    -227.876E-03    -227.876E-03     455.557E-03    -227.682E-03     397.303E-06    -119.700E+06    -129.895E+06    -212.592E+06    -129.897E+06    -212.590E+06    -119.700E+06    -219.837E+03         57.8500
            1245     2.38944E-03     92.6422E-03         1.62534         1.37824        -3.58167         1.35538        -3.31171         1.37824    -223.171E-03     455.554E-03    -227.687E-03    -227.867E-03    -227.734E-03     455.550E-03    -227.816E-03     2.90605E-03    -103.422E+06    -124.383E+06    -194.770E+06    -124.394E+06    -194.759E+06    -103.422E+06     293.922E+03         57.8910
            1246     3.18611E-03     92.6448E-03         1.58061         1.36843        -3.52379         1.32830        -3.27148         1.36843    -127.764E-03     455.094E-03    -227.248E-03    -227.846E-03    -227.236E-03     455.082E-03    -227.846E-03     5.69791E-03    -83.0203E+06    -116.332E+06    -170.128E+06    -116.350E+06    -170.110E+06    -83.0203E+06     762.079E+03         57.9552
            1247     3.98290E-03     92.6512E-03         1.54457         1.35540        -3.47424         1.29725        -3.22692         1.35540    -169.805E-03     454.590E-03    -226.790E-03    -227.799E-03    -226.756E-03     454.556E-03    -227.799E-03     9.36329E-03    -61.0232E+06    -107.248E+06    -143.907E+06    -107.266E+06    -143.889E+06    -61.0232E+06     634.417E+03         58.0499
            1248     4.78185E-03     92.6646E-03         1.40945         1.30359        -3.28518         1.25819        -3.16934         1.33901     703.180E-03     454.803E-03    -227.042E-03    -227.761E-03    -226.968E-03     454.729E-03    -227.761E-03     13.9265E-03    -39.2489E+06    -97.9180E+06    -113.773E+06    -98.0270E+06    -113.664E+06    -39.2489E+06     285.618E+03         58.1840
            1249     5.57839E-03     92.6826E-03         1.31898         1.22752        -3.11729         1.21528        -3.10504         1.31898    -139.824E-03     455.295E-03    -227.402E-03    -227.893E-03    -227.370E-03     455.161E-03    -227.790E-03     18.9048E-03    -18.7385E+06    -80.7558E+06    -90.4486E+06    -88.4276E+06    -82.7767E+06    -18.7385E+06    -108.317E+03         58.3706
            1250     6.37260E-03     92.7118E-03         1.29480         1.16186        -3.02753         1.15877        -3.02444         1.29480     214.973E-03     455.033E-03    -227.108E-03    -227.925E-03    -226.989E-03     454.811E-03    -227.821E-03     24.3573E-03     1.53583E+06    -46.7013E+06    -78.0881E+06    -78.0392E+06    -46.7501E+06     1.53583E+06     454.939E+03         58.6320
            1251     7.17016E-03     92.7501E-03         1.26617         1.09918        -2.93513         1.09806        -2.93401         1.26617     133.699E-03     454.550E-03    -226.752E-03    -227.799E-03    -226.400E-03     454.199E-03    -227.799E-03     30.6835E-03     20.4764E+06    -13.4767E+06    -67.9175E+06    -67.8928E+06    -13.5013E+06     20.4764E+06     1.03225E+06         59.0107
            1252     7.97025E-03     92.7983E-03         1.23346         1.03333        -2.83204         1.03282        -2.83153         1.23346     70.1219E-03     454.812E-03    -226.998E-03    -227.814E-03    -226.530E-03     454.288E-03    -227.758E-03     37.5734E-03     33.7838E+06     2.12741E+06    -58.6092E+06    -58.5969E+06     2.11521E+06     33.7838E+06     611.662E+03         59.5858
            1253     8.76717E-03     92.8542E-03         1.19648     976.057E-03        -2.73020     955.907E-03        -2.71005         1.19648    -366.325E-03     455.543E-03    -227.533E-03    -228.009E-03    -227.060E-03     454.810E-03    -227.750E-03     44.5538E-03     43.2274E+06     9.01843E+06    -49.7793E+06    -49.7765E+06     9.01564E+06     43.2274E+06     316.063E+03         60.4939
            1254     9.56272E-03     92.9273E-03         1.15507     913.629E-03        -2.61847     873.429E-03        -2.57827         1.15507    -9.57096E-03     456.159E-03    -227.782E-03    -228.377E-03    -227.399E-03     455.181E-03    -227.782E-03     51.5995E-03     51.7718E+06     13.8059E+06    -41.8352E+06    -41.8305E+06     13.8012E+06     51.7718E+06     260.180E+03         61.9385
            1255     10.3604E-03     93.0066E-03         1.10940     820.440E-03        -2.47458     784.536E-03        -2.43868         1.10940     54.2468E-03     456.581E-03    -227.829E-03    -228.752E-03    -227.438E-03     455.267E-03    -227.829E-03     59.7593E-03     60.2790E+06     18.0578E+06    -34.4178E+06    -34.4151E+06     18.0551E+06     60.2790E+06     139.660E+03         64.1548
            1256     11.1578E-03     93.1034E-03         1.05933     706.973E-03        -2.30818     689.898E-03        -2.29110         1.05933    -392.185E-03     457.078E-03    -227.870E-03    -229.208E-03    -227.411E-03     455.281E-03    -227.870E-03     69.9321E-03     68.2544E+06     22.2679E+06    -27.6123E+06    -27.6058E+06     22.2614E+06     68.2544E+06    -140.505E+03         67.2939
            1257     11.9542E-03     93.2134E-03         1.00554     619.319E-03        -2.16245     595.800E-03        -2.13893         1.00554     257.515E-03     457.551E-03    -227.899E-03    -229.652E-03    -227.431E-03     455.330E-03    -227.899E-03     77.9527E-03     75.6252E+06     29.0739E+06    -20.8966E+06    -20.8864E+06     29.0637E+06     75.6252E+06    -476.019E+03         71.2336
            1258     12.7516E-03     93.3291E-03     947.283E-03     535.288E-03        -2.01060     510.222E-03        -1.98553     947.283E-03     227.733E-03     459.370E-03    -227.945E-03    -231.424E-03    -227.930E-03     455.875E-03    -227.945E-03     96.7098E-03     89.0858E+06     42.8811E+06    -14.1293E+06    -14.1238E+06     42.8756E+06     89.0858E+06    -167.404E+03         75.4293
            1259     13.5495E-03     93.4964E-03     885.540E-03     434.929E-03        -1.83347     427.490E-03        -1.82603     885.540E-03     23.4493E-03     459.489E-03    -228.025E-03    -231.465E-03    -227.613E-03     455.638E-03    -228.025E-03     102.375E-03     115.127E+06     61.1203E+06    -7.42945E+06    -7.42617E+06     61.1171E+06     115.127E+06     273.134E+03         78.9913
            1260     795.918E-06     94.2201E-03         2.26995     951.607E-03        -3.66247     844.070E-03        -2.23659     951.607E-03        -2.74013     455.246E-03    -227.280E-03    -227.965E-03    -227.597E-03     455.245E-03    -227.648E-03    -99.2485E-06    -129.703E+06    -135.191E+06    -225.792E+06    -133.989E+06    -225.777E+06    -130.920E+06    -201.903E+03         57.8191
            1261     1.59326E-03     94.2193E-03         1.23208     894.269E-03        -2.56209     878.417E-03        -2.20843     894.269E-03    -119.725E-03     455.432E-03    -227.676E-03    -227.756E-03    -227.726E-03     455.431E-03    -227.705E-03     885.570E-06    -118.010E+06    -129.454E+06    -213.491E+06    -129.474E+06    -213.472E+06    -118.010E+06     604.937E+03         57.8425
            1262     2.38989E-03     94.2180E-03         1.22440     888.897E-03        -2.54828     880.530E-03        -2.20441     888.897E-03    -168.361E-03     455.154E-03    -227.401E-03    -227.754E-03    -227.399E-03     455.150E-03    -227.751E-03     2.97021E-03    -102.000E+06    -123.587E+06    -195.355E+06    -123.606E+06    -195.335E+06    -102.000E+06     625.166E+03         57.8844
            1263     3.18681E-03     94.2214E-03         1.21384     884.053E-03        -2.52895     863.629E-03        -2.17873     884.053E-03    -166.635E-03     454.771E-03    -227.048E-03    -227.722E-03    -227.035E-03     454.757E-03    -227.722E-03     5.85823E-03    -82.6576E+06    -115.899E+06    -170.625E+06    -115.899E+06    -170.625E+06    -82.6576E+06     66.2016E+03         57.9501
            1264     3.98419E-03     94.2260E-03         1.20615     876.436E-03        -2.51034     848.565E-03        -2.15275     876.436E-03    -157.745E-03     454.787E-03    -227.018E-03    -227.768E-03    -227.049E-03     454.753E-03    -227.704E-03     9.30210E-03    -60.9468E+06    -106.852E+06    -144.826E+06    -106.862E+06    -144.817E+06    -60.9468E+06     346.229E+03         58.0464
            1265     4.78038E-03     94.2392E-03         1.00562     853.490E-03        -2.28902     817.321E-03        -2.11263     865.402E-03     679.034E-03     454.967E-03    -227.179E-03    -227.788E-03    -227.175E-03     454.899E-03    -227.724E-03     13.4576E-03    -39.0248E+06    -97.1900E+06    -114.207E+06    -97.3057E+06    -114.091E+06    -39.0248E+06     821.181E+03         58.1818
            1266     5.57708E-03     94.2614E-03     854.527E-03     810.888E-03        -2.09586     792.017E-03        -2.07322     850.756E-03    -158.816E-03     455.147E-03    -227.275E-03    -227.872E-03    -227.247E-03     455.016E-03    -227.769E-03     18.6500E-03    -17.7560E+06    -79.8025E+06    -90.3600E+06    -87.7205E+06    -82.4420E+06    -17.7560E+06     787.856E+03         58.3690
            1267     6.37517E-03     94.2890E-03     833.022E-03     761.242E-03        -2.02395     755.697E-03        -2.01840     833.022E-03     214.450E-03     455.051E-03    -227.151E-03    -227.900E-03    -227.027E-03     454.824E-03    -227.796E-03     24.6728E-03     1.84757E+06     -47.352E+06    -78.4245E+06    -78.3276E+06    -47.4489E+06     1.84757E+06     310.587E+03         58.6294
            1268     7.17250E-03     94.3245E-03     811.747E-03     719.941E-03        -1.95881     718.778E-03        -1.95764     811.747E-03     104.136E-03     454.828E-03    -227.028E-03    -227.800E-03    -226.686E-03     454.478E-03    -227.792E-03     30.7026E-03     20.3444E+06    -14.3055E+06    -68.0883E+06    -68.0735E+06    -14.3204E+06     20.3444E+06     496.059E+03         59.0038
            1269     7.96854E-03     94.3728E-03     786.968E-03     679.704E-03        -1.88783     679.115E-03        -1.88724     786.968E-03     64.9990E-03     455.200E-03    -227.350E-03    -227.849E-03    -226.906E-03     454.692E-03    -227.785E-03     37.0676E-03     33.9218E+06     2.08899E+06    -58.5350E+06    -58.5182E+06     2.07224E+06     33.9218E+06     781.090E+03         59.5700
            1270     8.76510E-03     94.4335E-03     758.414E-03     660.285E-03        -1.83185     626.839E-03        -1.79840     758.414E-03    -366.399E-03     455.856E-03    -227.776E-03    -228.080E-03    -227.330E-03     455.135E-03    -227.804E-03     44.2094E-03     42.9528E+06     8.66486E+06    -50.2606E+06    -50.2449E+06     8.64910E+06     42.9528E+06     852.023E+03         60.4638
            1271     9.56297E-03     94.5025E-03     726.052E-03     636.931E-03        -1.76930     571.997E-03        -1.70437     726.052E-03    -22.2788E-03     456.271E-03    -227.846E-03    -228.426E-03    -227.437E-03     455.282E-03    -227.846E-03     51.8676E-03     52.0304E+06     14.0406E+06    -41.8316E+06    -41.8180E+06     14.0270E+06     52.0304E+06     819.246E+03         61.8912
            1272     10.3594E-03     94.5849E-03     690.222E-03     571.584E-03        -1.66416     514.079E-03        -1.60665     690.222E-03     48.0636E-03     456.312E-03    -227.825E-03    -228.487E-03    -227.116E-03     454.991E-03    -227.876E-03     59.9357E-03     60.3534E+06     17.9747E+06    -34.2164E+06    -34.2129E+06     17.9712E+06     60.3534E+06     319.908E+03         64.0952
            1273     11.1563E-03     94.6784E-03     650.691E-03     478.998E-03        -1.52992     451.285E-03        -1.50220     650.691E-03    -399.257E-03     456.326E-03    -227.821E-03    -228.505E-03    -226.619E-03     454.490E-03    -227.872E-03     70.5150E-03     68.0638E+06     22.0117E+06    -27.3968E+06    -27.3893E+06     22.0042E+06     68.0638E+06    -122.978E+03         67.2399
            1274     11.9560E-03     94.7889E-03     607.807E-03     425.918E-03        -1.42951     389.866E-03        -1.39346     607.807E-03     254.319E-03     457.233E-03    -227.862E-03    -229.370E-03    -227.087E-03     454.949E-03    -227.862E-03     79.0292E-03     75.9844E+06     28.9681E+06    -20.9120E+06    -20.9032E+06     28.9593E+06     75.9844E+06    -15.9781E+03         71.2118
            1275     12.7537E-03     94.9070E-03     560.916E-03     378.510E-03        -1.32469     338.439E-03        -1.28462     560.916E-03     208.103E-03     459.511E-03    -227.904E-03    -231.606E-03    -228.114E-03     456.019E-03    -227.904E-03     96.7858E-03     89.0909E+06     42.0939E+06    -14.9702E+06    -14.9629E+06     42.0866E+06     89.0909E+06        -306.041         75.4595
            1276     13.5508E-03     95.0728E-03     511.423E-03     308.268E-03        -1.18959     292.294E-03        -1.17362     511.423E-03     31.5168E-03     459.680E-03    -228.000E-03    -231.680E-03    -227.887E-03     455.887E-03    -228.000E-03     101.586E-03     114.967E+06     61.0191E+06    -8.00507E+06    -7.99791E+06     61.0119E+06     114.967E+06    -270.765E+03         79.0706
            1277     797.419E-06     95.7963E-03         1.64004     432.617E-03        -2.36335     343.785E-03        -1.06709     432.617E-03        -2.23337     454.864E-03    -226.953E-03    -227.911E-03    -227.056E-03     454.864E-03    -227.808E-03     833.630E-06    -129.490E+06    -134.757E+06    -226.793E+06    -133.159E+06    -226.742E+06    -131.138E+06     717.582E+03         57.8141
            1278     1.59338E-03     95.7952E-03     770.148E-03     383.852E-03        -1.44819     365.665E-03        -1.04371     383.852E-03    -269.491E-03     455.120E-03    -227.490E-03    -227.630E-03    -227.599E-03     455.119E-03    -227.520E-03     1.39264E-03    -119.886E+06    -130.189E+06    -215.591E+06    -130.251E+06    -215.529E+06    -119.886E+06     871.209E+03         57.8386
            1279     2.38998E-03     95.7945E-03     867.342E-03     379.525E-03        -1.53388     380.391E-03        -1.04692     379.525E-03    -72.1095E-03     454.957E-03    -227.353E-03    -227.604E-03    -227.357E-03     454.954E-03    -227.598E-03     2.62114E-03    -102.791E+06    -123.410E+06    -195.308E+06    -123.445E+06    -195.273E+06    -102.791E+06     336.789E+03         57.8817
            1280     3.18754E-03     95.7951E-03     930.326E-03     378.095E-03        -1.59160     372.409E-03        -1.03368     378.095E-03    -221.523E-03     454.892E-03    -227.265E-03    -227.627E-03    -227.254E-03     454.881E-03    -227.627E-03     5.22293E-03    -83.2780E+06    -116.109E+06    -170.795E+06    -116.117E+06    -170.788E+06    -83.2780E+06     420.223E+03         57.9484
            1281     3.98420E-03     95.8033E-03     971.143E-03     374.718E-03        -1.62789     372.770E-03        -1.02952     374.718E-03    -127.904E-03     455.200E-03    -227.441E-03    -227.760E-03    -227.475E-03     455.170E-03    -227.695E-03     8.86235E-03    -61.2402E+06    -107.560E+06    -146.045E+06    -107.580E+06    -146.025E+06    -61.2402E+06     612.432E+03         58.0452
            1282     4.78058E-03     95.8164E-03     686.529E-03     369.489E-03        -1.33724     362.049E-03        -1.01276     369.489E-03     651.464E-03     455.120E-03    -227.291E-03    -227.829E-03    -227.286E-03     455.051E-03    -227.765E-03     13.4840E-03    -39.5270E+06    -98.1360E+06    -115.554E+06    -98.2874E+06    -115.403E+06    -39.5270E+06     1.00687E+06         58.1805
            1283     5.57782E-03     95.8365E-03     422.105E-03     355.285E-03        -1.06118     354.545E-03        -1.00011     361.769E-03    -171.902E-03     454.691E-03    -226.909E-03    -227.782E-03    -226.779E-03     454.561E-03    -227.782E-03     18.5894E-03    -17.8109E+06    -80.1829E+06    -90.9471E+06    -88.1064E+06    -83.0236E+06    -17.8109E+06     1.10519E+06         58.3668
            1284     6.37454E-03     95.8648E-03     369.248E-03     331.513E-03    -985.242E-03     335.485E-03    -971.250E-03     351.284E-03     221.904E-03     454.893E-03    -227.120E-03    -227.773E-03    -226.904E-03     454.677E-03    -227.773E-03     24.0863E-03     2.97636E+06    -46.8297E+06    -77.9448E+06    -77.8513E+06    -46.9232E+06     2.97636E+06     885.084E+03         58.6250
            1285     7.17087E-03     95.9021E-03     349.108E-03     309.900E-03    -939.656E-03     318.750E-03    -936.995E-03     337.597E-03     85.5446E-03     455.573E-03    -227.661E-03    -227.912E-03    -227.433E-03     455.233E-03    -227.800E-03     30.2931E-03     20.1208E+06    -14.7496E+06    -68.5716E+06    -68.5475E+06    -14.7738E+06     20.1208E+06     522.395E+03         58.9943
            1286     7.96813E-03     95.9498E-03     336.519E-03     289.526E-03    -900.382E-03     302.993E-03    -898.383E-03     321.053E-03     66.6985E-03     455.711E-03    -227.747E-03    -227.964E-03    -227.348E-03     455.199E-03    -227.851E-03     37.2108E-03     33.2496E+06     1.52687E+06    -59.0052E+06    -58.9906E+06     1.51234E+06     33.2496E+06     772.854E+03         59.5506
            1287     8.76573E-03     96.0098E-03     382.746E-03     284.218E-03    -934.023E-03     280.374E-03    -849.033E-03     301.601E-03    -356.229E-03     455.600E-03    -227.675E-03    -227.925E-03    -226.995E-03     454.869E-03    -227.874E-03     44.5101E-03     43.4038E+06     8.67588E+06    -50.1236E+06    -50.1007E+06     8.65298E+06     43.4038E+06     1.10268E+06         60.4301
            1288     9.56193E-03     96.0798E-03     419.920E-03     275.911E-03    -956.700E-03     256.951E-03    -797.153E-03     279.333E-03    -28.1960E-03     455.650E-03    -227.534E-03    -228.116E-03    -226.768E-03     454.634E-03    -227.867E-03     52.4806E-03     52.2433E+06     13.6989E+06    -41.8101E+06    -41.7994E+06     13.6881E+06     52.2433E+06     613.486E+03         61.8420
            1289     10.3593E-03     96.1620E-03     385.439E-03     240.676E-03    -883.392E-03     230.893E-03    -742.692E-03     254.522E-03     52.2267E-03     455.744E-03    -227.556E-03    -228.188E-03    -226.539E-03     454.383E-03    -227.844E-03     60.8305E-03     60.3350E+06     17.5196E+06    -34.2512E+06    -34.2477E+06     17.5162E+06     60.3350E+06     273.957E+03         64.0369
            1290     11.1589E-03     96.2512E-03     310.240E-03     188.059E-03    -752.582E-03     202.739E-03    -683.730E-03     226.708E-03    -396.588E-03     456.634E-03    -227.782E-03    -228.852E-03    -226.960E-03     454.792E-03    -227.832E-03     70.7275E-03     68.4198E+06     21.8817E+06    -27.4684E+06    -27.4607E+06     21.8740E+06     68.4198E+06     486.809E+03         67.1882
            1291     11.9560E-03     96.3653E-03     295.480E-03     159.287E-03    -703.618E-03     177.528E-03    -622.472E-03     196.093E-03     260.766E-03     457.491E-03    -227.849E-03    -229.642E-03    -227.400E-03     455.249E-03    -227.849E-03     78.3491E-03     76.3700E+06     28.9555E+06    -20.9647E+06    -20.9566E+06     28.9474E+06     76.3700E+06     588.693E+03         71.1903
            1292     12.7525E-03     96.4847E-03     289.212E-03     132.127E-03    -659.971E-03     162.560E-03    -563.390E-03     162.198E-03     193.465E-03     459.032E-03    -227.892E-03    -231.140E-03    -227.708E-03     455.600E-03    -227.892E-03     95.8470E-03     89.5153E+06     42.4592E+06    -14.4443E+06    -14.4376E+06     42.4525E+06     89.5153E+06    -43.0072E+03         75.4903
            1293     13.5505E-03     96.6482E-03     244.410E-03     90.0091E-03    -558.808E-03     154.052E-03    -504.941E-03     126.500E-03     40.1738E-03     459.649E-03    -227.979E-03    -231.670E-03    -227.896E-03     455.875E-03    -227.979E-03     101.372E-03     115.292E+06     61.0619E+06    -7.38084E+06    -7.37382E+06     61.0548E+06     115.292E+06    -571.720E+03         79.1541
            1294     796.859E-06     97.3710E-03         1.21348    -122.789E-03        -1.23651    -124.762E-03     101.732E-03    -122.789E-03        -1.58117     454.845E-03    -226.944E-03    -227.901E-03    -227.047E-03     454.845E-03    -227.798E-03     320.534E-06    -129.016E+06    -133.437E+06    -229.190E+06    -131.836E+06    -229.143E+06    -130.664E+06     702.897E+03         57.8144
            1295     1.59409E-03     97.3715E-03     697.165E-03    -128.020E-03    -706.612E-03    -145.350E-03     135.903E-03    -128.020E-03    -456.496E-03     454.926E-03    -227.342E-03    -227.583E-03    -227.451E-03     454.925E-03    -227.474E-03     701.891E-06    -119.628E+06    -128.398E+06    -215.624E+06    -128.450E+06    -215.571E+06    -119.628E+06     501.573E+03         57.8391
            1296     2.39095E-03     97.3696E-03     851.637E-03    -131.449E-03    -860.035E-03    -126.100E-03     117.703E-03    -131.449E-03     45.9962E-03     455.196E-03    -227.552E-03    -227.645E-03    -227.620E-03     455.194E-03    -227.574E-03     1.98033E-03    -102.394E+06    -122.692E+06    -196.214E+06    -122.717E+06    -196.188E+06    -102.394E+06     271.456E+03         57.8823
            1297     3.18672E-03     97.3720E-03     992.536E-03    -130.671E-03    -996.545E-03    -124.110E-03     120.101E-03    -130.671E-03    -276.241E-03     455.393E-03    -227.629E-03    -227.764E-03    -227.682E-03     455.383E-03    -227.700E-03     4.94462E-03    -82.1164E+06    -115.302E+06    -172.260E+06    -115.313E+06    -172.249E+06    -82.1164E+06     736.743E+03         57.9486
            1298     3.98308E-03     97.3796E-03         1.06884    -130.334E-03        -1.07353    -110.155E-03     105.465E-03    -130.334E-03    -90.8365E-03     455.198E-03    -227.406E-03    -227.792E-03    -227.376E-03     455.168E-03    -227.792E-03     8.78421E-03    -60.2249E+06    -106.568E+06    -146.965E+06    -106.594E+06    -146.939E+06    -60.2249E+06     890.322E+03         58.0445
            1299     4.78027E-03     97.3928E-03     764.077E-03    -130.229E-03    -768.702E-03    -101.416E-03     96.7915E-03    -130.229E-03     628.787E-03     454.936E-03    -227.119E-03    -227.817E-03    -227.053E-03     454.871E-03    -227.817E-03     13.1354E-03    -38.5115E+06    -96.9532E+06    -116.368E+06    -97.0533E+06    -116.268E+06    -38.5115E+06     962.558E+03         58.1784
            1300     5.57712E-03     97.4121E-03     454.341E-03    -120.206E-03    -469.612E-03    -90.3649E-03     86.2325E-03    -131.344E-03    -167.098E-03     454.941E-03    -227.122E-03    -227.819E-03    -226.998E-03     454.818E-03    -227.819E-03     18.1260E-03    -17.7844E+06    -80.5817E+06    -90.4755E+06    -87.3194E+06    -83.7378E+06    -17.7844E+06     831.079E+03         58.3627
            1301     6.37482E-03     97.4407E-03     391.835E-03    -107.445E-03    -419.230E-03    -90.0699E-03     89.8750E-03    -134.646E-03     235.494E-03     455.117E-03    -227.289E-03    -227.828E-03    -227.074E-03     454.902E-03    -227.828E-03     23.9921E-03     2.40933E+06    -48.2250E+06    -77.5364E+06    -77.4477E+06    -48.3137E+06     2.40933E+06     1.14012E+06         58.6175
            1302     7.17202E-03     97.4801E-03     369.081E-03    -98.2653E-03    -401.674E-03    -84.8543E-03     94.5339E-03    -140.538E-03     83.7403E-03     455.438E-03    -227.483E-03    -227.955E-03    -227.241E-03     455.092E-03    -227.851E-03     30.5363E-03     20.6632E+06    -14.6961E+06    -68.0143E+06    -67.9601E+06    -14.7503E+06     20.6632E+06     1.47955E+06         58.9812
            1303     7.96745E-03     97.5278E-03     361.274E-03    -93.5691E-03    -391.297E-03    -75.8782E-03     100.530E-03    -148.244E-03     77.8988E-03     455.545E-03    -227.562E-03    -227.983E-03    -227.149E-03     455.028E-03    -227.879E-03     37.4136E-03     34.1472E+06     1.86782E+06    -58.6961E+06    -58.6600E+06     1.83169E+06     34.1472E+06     1.20538E+06         59.5289
            1304     8.76396E-03     97.5851E-03     461.152E-03    -129.322E-03    -448.043E-03    -70.4205E-03     111.994E-03    -157.787E-03    -336.861E-03     455.171E-03    -227.304E-03    -227.867E-03    -226.546E-03     454.413E-03    -227.867E-03     45.2503E-03     43.6254E+06     8.45801E+06    -49.7118E+06    -49.6942E+06     8.44045E+06     43.6254E+06     912.359E+03         60.3966
            1305     9.56274E-03     97.6563E-03     547.370E-03    -167.761E-03    -490.535E-03    -62.7435E-03     121.146E-03    -169.329E-03    -24.5476E-03     455.126E-03    -227.184E-03    -227.942E-03    -226.270E-03     454.088E-03    -227.818E-03     53.0506E-03     52.1179E+06     13.4799E+06    -41.9667E+06    -41.9545E+06     13.4677E+06     52.1179E+06     674.404E+03         61.7957
            1306     10.3622E-03     97.7340E-03     507.918E-03    -159.228E-03    -456.874E-03    -56.2382E-03     130.787E-03    -182.732E-03     67.4665E-03     456.080E-03    -227.561E-03    -228.519E-03    -226.951E-03     454.750E-03    -227.799E-03     60.1744E-03     60.9967E+06     17.4063E+06    -34.6851E+06    -34.6775E+06     17.3987E+06     60.9967E+06     528.789E+03         63.9818
            1307     11.1581E-03     97.8306E-03     401.131E-03    -114.771E-03    -390.970E-03    -50.5603E-03     144.367E-03    -198.417E-03    -387.906E-03     457.261E-03    -227.832E-03    -229.428E-03    -227.631E-03     455.463E-03    -227.832E-03     69.8987E-03     69.1881E+06     21.6621E+06    -27.5199E+06    -27.5117E+06     21.6540E+06     69.1881E+06     514.365E+03         67.1371
            1308     11.9539E-03     97.9421E-03     401.055E-03    -113.518E-03    -384.878E-03    -38.2903E-03     156.802E-03    -215.854E-03     273.050E-03     457.307E-03    -227.863E-03    -229.443E-03    -227.202E-03     455.065E-03    -227.863E-03     78.3036E-03     76.6539E+06     29.2205E+06    -20.2653E+06    -20.2583E+06     29.2135E+06     76.6539E+06     164.572E+03         71.1685
            1309     12.7534E-03     98.0587E-03     414.769E-03    -114.397E-03    -386.375E-03    -15.5659E-03     165.228E-03    -235.665E-03     182.651E-03     458.676E-03    -227.885E-03    -230.790E-03    -227.291E-03     455.176E-03    -227.885E-03     96.7158E-03     89.9325E+06     42.7695E+06    -13.3714E+06    -13.3685E+06     42.7666E+06     89.9325E+06     43.0530E+03         75.5227
            1310     13.5518E-03     98.2255E-03     362.407E-03    -87.0450E-03    -349.286E-03     13.3492E-03     169.510E-03    -256.783E-03     45.9106E-03     459.843E-03    -227.965E-03    -231.879E-03    -228.073E-03     456.038E-03    -227.965E-03     101.730E-03     115.942E+06     60.9610E+06    -6.78116E+06    -6.77870E+06     60.9586E+06     115.942E+06     72.3022E+03         79.2404
            1311     796.152E-06     98.9464E-03         1.48975    -590.542E-03    -890.635E-03    -585.426E-03         1.25879    -664.786E-03    -835.432E-03     455.584E-03    -227.402E-03    -228.182E-03    -227.693E-03     455.584E-03    -227.891E-03     162.926E-06    -128.314E+06    -132.075E+06    -230.706E+06    -131.929E+06    -230.696E+06    -128.471E+06    -309.050E+03         57.8179
            1312     1.59303E-03     98.9466E-03         1.37620    -628.156E-03    -734.788E-03    -643.092E-03         1.28493    -628.578E-03    -665.847E-03     455.136E-03    -227.378E-03    -227.758E-03    -227.378E-03     455.135E-03    -227.758E-03     511.794E-06    -118.163E+06    -127.828E+06    -216.797E+06    -127.845E+06    -216.780E+06    -118.163E+06     609.085E+03         57.8413
            1313     2.38960E-03     98.9462E-03         1.43719    -629.115E-03    -796.596E-03    -612.538E-03         1.25355    -629.537E-03     161.275E-03     455.302E-03    -227.507E-03    -227.794E-03    -227.569E-03     455.299E-03    -227.730E-03     2.23584E-03    -101.882E+06    -122.456E+06    -196.966E+06    -122.473E+06    -196.948E+06    -101.882E+06     1.05169E+06         57.8829
            1314     3.18646E-03     98.9493E-03         1.57409    -625.316E-03    -933.952E-03    -606.263E-03         1.24640    -625.316E-03    -320.065E-03     455.376E-03    -227.518E-03    -227.859E-03    -227.570E-03     455.365E-03    -227.795E-03     5.30403E-03    -81.9857E+06    -115.106E+06    -173.315E+06    -115.120E+06    -173.301E+06    -81.9857E+06     788.914E+03         57.9477
            1315     3.98328E-03     98.9558E-03         1.63524    -621.139E-03    -996.318E-03    -579.855E-03         1.21878    -621.139E-03    -56.8478E-03     455.177E-03    -227.332E-03    -227.844E-03    -227.301E-03     455.146E-03    -227.844E-03     9.03136E-03    -60.5084E+06    -106.294E+06    -147.732E+06    -106.320E+06    -147.705E+06    -60.5084E+06     987.218E+03         58.0420
            1316     4.78018E-03     98.9685E-03         1.41760    -601.794E-03    -799.365E-03    -559.540E-03         1.19233    -616.349E-03     609.154E-03     455.024E-03    -227.167E-03    -227.857E-03    -227.100E-03     454.957E-03    -227.857E-03     13.3157E-03    -39.0725E+06    -96.9909E+06    -117.955E+06    -97.1242E+06    -117.822E+06    -39.0725E+06     1.10757E+06         58.1743
            1317     5.57727E-03     98.9889E-03         1.19452    -560.332E-03    -617.581E-03    -533.053E-03         1.16186    -612.197E-03    -150.008E-03     455.144E-03    -227.278E-03    -227.866E-03    -227.147E-03     455.014E-03    -227.866E-03     18.6165E-03    -18.1407E+06    -80.4499E+06    -91.8833E+06    -87.6301E+06    -84.7031E+06    -18.1407E+06     1.56509E+06         58.3564
            1318     6.37300E-03     99.0177E-03         1.14891    -521.011E-03    -608.989E-03    -508.645E-03         1.13655    -608.989E-03     248.666E-03     455.226E-03    -227.343E-03    -227.883E-03    -227.117E-03     455.000E-03    -227.883E-03     24.6099E-03     2.32380E+06    -48.7937E+06    -78.4192E+06    -78.2699E+06    -48.9430E+06     2.32380E+06     1.68761E+06         58.6081
            1319     7.16980E-03     99.0562E-03         1.11338    -483.464E-03    -606.775E-03    -477.192E-03         1.10711    -606.775E-03     88.9659E-03     454.827E-03    -226.959E-03    -227.868E-03    -226.599E-03     454.468E-03    -227.868E-03     31.0784E-03     20.7478E+06    -15.3218E+06    -68.5323E+06    -68.4764E+06    -15.3778E+06     20.7478E+06     1.49037E+06         58.9674
            1320     7.96861E-03     99.1047E-03         1.08367    -448.884E-03    -605.173E-03    -442.036E-03         1.07683    -605.173E-03     92.3919E-03     454.804E-03    -226.980E-03    -227.824E-03    -226.439E-03     454.264E-03    -227.824E-03     38.1850E-03     34.2079E+06     1.91789E+06    -58.8293E+06    -58.7872E+06     1.87587E+06     34.2079E+06     1.30951E+06         59.5087
            1321     8.76659E-03     99.1611E-03         1.12656    -479.115E-03    -611.678E-03    -410.454E-03         1.05071    -604.487E-03    -311.016E-03     455.304E-03    -227.234E-03    -228.070E-03    -226.763E-03     454.556E-03    -227.793E-03     45.0234E-03     43.9380E+06     8.53776E+06    -49.7985E+06    -49.7760E+06     8.51533E+06     43.9380E+06     889.872E+03         60.3666
            1322     9.56453E-03     99.2289E-03         1.15935    -506.850E-03    -612.358E-03    -376.507E-03         1.02182    -605.166E-03    -17.4289E-03     455.878E-03    -227.495E-03    -228.383E-03    -227.091E-03     454.887E-03    -227.797E-03     51.8625E-03     52.8634E+06     13.4587E+06    -41.6273E+06    -41.6029E+06     13.4342E+06     52.8634E+06     959.803E+03         61.7521
            1323     10.3595E-03     99.3139E-03         1.10428    -453.017E-03    -607.149E-03    -339.186E-03     990.454E-03    -607.149E-03     92.3999E-03     456.478E-03    -227.827E-03    -228.651E-03    -227.337E-03     455.164E-03    -227.827E-03     59.7920E-03     61.4330E+06     17.2097E+06    -34.2237E+06    -34.2029E+06     17.1889E+06     61.4330E+06     941.843E+03         63.9263
            1324     11.1566E-03     99.4064E-03         1.00603    -346.268E-03    -610.369E-03    -299.498E-03     959.255E-03    -610.369E-03    -371.378E-03     456.729E-03    -227.852E-03    -228.876E-03    -227.059E-03     454.912E-03    -227.852E-03     70.2063E-03     69.8329E+06     22.2282E+06    -26.6661E+06    -26.6627E+06     22.2248E+06     69.8329E+06     304.022E+03         67.0854
            1325     11.9565E-03     99.5176E-03     974.239E-03    -301.800E-03    -614.204E-03    -250.209E-03     922.648E-03    -614.204E-03     292.296E-03     456.986E-03    -227.853E-03    -229.132E-03    -226.891E-03     454.744E-03    -227.853E-03     78.2826E-03     77.2092E+06     29.5935E+06    -20.1374E+06    -20.1344E+06     29.5905E+06     77.2092E+06     2.92311E+03         71.1480
            1326     12.7537E-03     99.6333E-03     945.064E-03    -255.318E-03    -619.630E-03    -192.009E-03     881.755E-03    -619.630E-03     184.212E-03     459.082E-03    -227.881E-03    -231.201E-03    -227.740E-03     455.621E-03    -227.881E-03     96.2297E-03     90.0598E+06     42.5220E+06    -14.0261E+06    -14.0221E+06     42.5180E+06     90.0598E+06     165.591E+03         75.5555
            1327     13.5510E-03     99.8026E-03     874.320E-03    -166.673E-03    -625.883E-03    -129.958E-03     837.605E-03    -625.883E-03     52.8306E-03     459.990E-03    -227.980E-03    -232.010E-03    -228.230E-03     456.210E-03    -227.980E-03     101.437E-03     115.858E+06     60.7126E+06    -7.28871E+06    -7.28603E+06     60.7099E+06     115.858E+06     423.681E+03         79.3259
            1328     796.273E-06     100.526E-03         2.49238        -1.04759        -1.27557        -1.01295         2.36829        -1.18612    -142.003E-03     455.765E-03    -227.627E-03    -228.137E-03    -227.918E-03     455.764E-03    -227.846E-03    -46.5902E-06    -128.705E+06    -132.429E+06    -231.652E+06    -132.075E+06    -231.645E+06    -129.066E+06     778.402E+03         57.8195
            1329     1.59281E-03     100.521E-03         2.44889        -1.09487        -1.19184        -1.11521         2.37978        -1.10238    -868.687E-03     455.458E-03    -227.585E-03    -227.873E-03    -227.584E-03     455.457E-03    -227.873E-03     1.21648E-03    -118.663E+06    -128.854E+06    -218.484E+06    -128.867E+06    -218.471E+06    -118.663E+06     378.630E+03         57.8416
            1330     2.38996E-03     100.524E-03         2.38747        -1.09364        -1.12916        -1.07332         2.33915        -1.10116     263.832E-03     455.278E-03    -227.450E-03    -227.829E-03    -227.447E-03     455.275E-03    -227.829E-03     2.90564E-03    -102.741E+06    -122.349E+06    -198.781E+06    -122.373E+06    -198.757E+06    -102.741E+06     717.037E+03         57.8814
            1331     3.18652E-03     100.525E-03         2.46339        -1.09329        -1.20313        -1.06000         2.32026        -1.09329    -357.273E-03     455.067E-03    -227.254E-03    -227.813E-03    -227.242E-03     455.055E-03    -227.813E-03     5.36707E-03    -82.2193E+06    -114.834E+06    -174.166E+06    -114.879E+06    -174.121E+06    -82.2193E+06     1.48539E+06         57.9445
            1332     3.98337E-03     100.533E-03         2.48708        -1.08543        -1.23240        -1.02682         2.28151        -1.08543    -30.4716E-03     455.028E-03    -227.215E-03    -227.813E-03    -227.181E-03     454.994E-03    -227.813E-03     9.38562E-03    -60.6962E+06    -106.840E+06    -149.351E+06    -106.918E+06    -149.273E+06    -60.6962E+06     1.74310E+06         58.0374
            1333     4.77990E-03     100.545E-03         2.34733        -1.03445        -1.14147    -991.713E-03         2.23946        -1.07634     590.144E-03     455.100E-03    -227.271E-03    -227.829E-03    -227.198E-03     455.027E-03    -227.829E-03     13.9092E-03    -38.9525E+06    -97.5963E+06    -119.472E+06    -97.8507E+06    -119.218E+06    -38.9525E+06     1.82670E+06         58.1685
            1334     5.57677E-03     100.565E-03         2.19905    -961.042E-03        -1.06684    -951.001E-03         2.18901        -1.06684    -136.406E-03     454.947E-03    -227.108E-03    -227.838E-03    -226.966E-03     454.804E-03    -227.838E-03     19.4485E-03    -17.7308E+06    -81.1681E+06    -92.6556E+06    -88.1170E+06    -85.7068E+06    -17.7308E+06     1.81477E+06         58.3493
            1335     6.37468E-03     100.595E-03         2.14088    -910.942E-03        -1.05717    -904.929E-03         2.13487        -1.05717     251.510E-03     454.879E-03    -227.053E-03    -227.826E-03    -226.807E-03     454.633E-03    -227.826E-03     25.7399E-03     2.78639E+06    -49.4096E+06    -78.1404E+06    -77.9672E+06    -49.5829E+06     2.78639E+06     2.02940E+06         58.5994
            1336     7.17194E-03     100.632E-03         2.07808    -853.319E-03        -1.04693    -847.518E-03         2.07228        -1.04693     91.1094E-03     454.887E-03    -227.028E-03    -227.859E-03    -226.721E-03     454.525E-03    -227.803E-03     31.3003E-03     21.0042E+06    -15.6785E+06    -68.2331E+06    -68.1398E+06    -15.7718E+06     21.0042E+06     1.91764E+06         58.9557
            1337     7.96941E-03     100.678E-03         2.01489    -794.130E-03        -1.03612    -787.287E-03         2.00805        -1.03612     100.732E-03     454.958E-03    -227.118E-03    -227.839E-03    -226.663E-03     454.446E-03    -227.784E-03     37.1728E-03     34.3988E+06     1.93911E+06    -58.9284E+06    -58.8794E+06     1.89008E+06     34.3988E+06     1.51370E+06         59.4910
            1338     8.76659E-03     100.739E-03         1.99382    -777.062E-03        -1.02549    -729.768E-03         1.94653        -1.02549    -286.434E-03     455.683E-03    -227.560E-03    -228.122E-03    -227.180E-03     454.969E-03    -227.789E-03     43.9884E-03     44.5019E+06     8.96979E+06    -50.2993E+06    -50.2608E+06     8.93136E+06     44.5019E+06     1.27273E+06         60.3378
            1339     9.56111E-03     100.807E-03         1.96322    -751.509E-03        -1.01530    -668.950E-03         1.88067        -1.01530    -12.2393E-03     456.227E-03    -227.824E-03    -228.403E-03    -227.407E-03     455.231E-03    -227.824E-03     51.9579E-03     52.7650E+06     13.0893E+06    -42.5348E+06    -42.5037E+06     13.0582E+06     52.7650E+06     946.924E+03         61.7080
            1340     10.3601E-03     100.889E-03         1.87578    -669.433E-03        -1.00549    -604.109E-03         1.81046        -1.00549     118.411E-03     456.106E-03    -227.846E-03    -228.260E-03    -226.909E-03     454.755E-03    -227.846E-03     60.6087E-03     61.4516E+06     17.5314E+06    -34.4303E+06    -34.4141E+06     17.5152E+06     61.4516E+06     711.476E+03         63.8701
            1341     11.1588E-03     100.982E-03         1.76139    -557.421E-03    -996.100E-03    -533.011E-03         1.73698    -996.100E-03    -355.044E-03     456.578E-03    -227.851E-03    -228.727E-03    -226.928E-03     454.780E-03    -227.851E-03     69.9258E-03     70.2600E+06     23.1090E+06    -27.1207E+06    -27.1177E+06     23.1061E+06     70.2600E+06     295.011E+03         67.0330
            1342     11.9551E-03     101.092E-03         1.68328    -479.171E-03    -986.626E-03    -451.908E-03         1.65602    -986.626E-03     306.083E-03     457.427E-03    -227.868E-03    -229.559E-03    -227.364E-03     455.232E-03    -227.868E-03     77.4980E-03     77.9426E+06     29.8778E+06    -20.5676E+06    -20.5656E+06     29.8758E+06     77.9426E+06     243.744E+03         71.1242
            1343     12.7527E-03     101.212E-03         1.60376    -396.206E-03    -978.052E-03    -363.281E-03         1.57083    -978.052E-03     183.338E-03     459.311E-03    -227.918E-03    -231.393E-03    -227.952E-03     455.871E-03    -227.918E-03     95.9553E-03     90.5117E+06     41.9719E+06    -14.0565E+06    -14.0503E+06     41.9657E+06     90.5117E+06     536.748E+03         75.5840
            1344     13.5500E-03     101.378E-03         1.50413    -291.230E-03    -969.697E-03    -272.708E-03         1.48561    -969.697E-03     58.5450E-03     459.606E-03    -228.006E-03    -231.600E-03    -227.791E-03     455.797E-03    -228.006E-03     101.853E-03     115.635E+06     60.2368E+06    -7.54753E+06    -7.54232E+06     60.2315E+06     115.635E+06     454.682E+03         79.4105
            1345     796.816E-06     102.099E-03         3.70188        -1.56590        -1.81615        -1.37161         3.39157        -1.70012     432.106E-03     455.274E-03    -227.367E-03    -227.907E-03    -227.498E-03     455.274E-03    -227.775E-03     32.3108E-06    -130.404E+06    -132.668E+06    -232.835E+06    -132.489E+06    -232.810E+06    -130.609E+06    -528.374E+03         57.8177
            1346     1.59337E-03     102.100E-03         3.49806        -1.52528        -1.65303        -1.54305         3.39981        -1.53701        -1.03936     455.522E-03    -227.671E-03    -227.851E-03    -227.802E-03     455.521E-03    -227.719E-03     1.35788E-03    -118.991E+06    -128.120E+06    -219.257E+06    -128.155E+06    -219.221E+06    -118.991E+06     118.499E+03         57.8397
            1347     2.38934E-03     102.098E-03         3.37031        -1.51755        -1.53755        -1.50518         3.35423        -1.53385     341.764E-03     455.277E-03    -227.489E-03    -227.788E-03    -227.485E-03     455.274E-03    -227.788E-03     2.97406E-03    -102.417E+06    -122.883E+06    -201.253E+06    -122.919E+06    -201.216E+06    -102.417E+06     668.826E+03         57.8790
            1348     3.18653E-03     102.102E-03         3.39773        -1.51945        -1.55717        -1.47732         3.32245        -1.52403    -379.591E-03     455.045E-03    -227.258E-03    -227.787E-03    -227.246E-03     455.034E-03    -227.787E-03     5.41928E-03    -82.6348E+06    -115.479E+06    -176.913E+06    -115.533E+06    -176.859E+06    -82.6348E+06     1.33036E+06         57.9412
            1349     3.98385E-03     102.107E-03         3.39101        -1.50814        -1.55904        -1.43528         3.27152        -1.51241    -10.6458E-03     454.820E-03    -227.040E-03    -227.780E-03    -227.008E-03     454.788E-03    -227.780E-03     9.06354E-03    -59.9924E+06    -106.521E+06    -151.002E+06    -106.646E+06    -150.877E+06    -59.9924E+06     2.26242E+06         58.0331
            1350     4.78120E-03     102.122E-03         3.27140        -1.42895        -1.51576        -1.38316         3.20843        -1.49857     574.337E-03     454.788E-03    -227.021E-03    -227.767E-03    -226.946E-03     454.714E-03    -227.767E-03     13.9768E-03    -37.6751E+06    -96.4913E+06    -120.116E+06    -96.7755E+06    -119.832E+06    -37.6751E+06     2.25148E+06         58.1634
            1351     5.57786E-03     102.141E-03         3.13925        -1.32976        -1.48302        -1.32617         3.13566        -1.48302    -123.276E-03     455.018E-03    -227.187E-03    -227.830E-03    -227.108E-03     454.882E-03    -227.774E-03     19.0625E-03    -16.9135E+06    -80.8545E+06    -92.7794E+06    -87.1680E+06    -86.4660E+06    -16.9135E+06     2.27516E+06         58.3435
            1352     6.37498E-03     102.170E-03         3.06299        -1.26909        -1.46639        -1.26370         3.05761        -1.46639     249.814E-03     454.825E-03    -226.988E-03    -227.837E-03    -226.825E-03     454.605E-03    -227.781E-03     24.2964E-03     3.14550E+06    -50.5855E+06    -77.9067E+06    -77.5299E+06    -50.9623E+06     3.14550E+06     2.59523E+06         58.5921
            1353     7.17220E-03     102.209E-03         2.97527        -1.19438        -1.44855        -1.18774         2.96862        -1.44855     91.2140E-03     455.091E-03    -227.254E-03    -227.836E-03    -226.968E-03     454.748E-03    -227.780E-03     30.3580E-03     21.7835E+06    -16.1370E+06    -67.8742E+06    -67.7284E+06    -16.2829E+06     21.7835E+06     2.68938E+06         58.9451
            1354     7.96772E-03     102.256E-03         2.88332        -1.11336        -1.42928        -1.10537         2.87532        -1.42928     108.135E-03     455.597E-03    -227.700E-03    -227.897E-03    -227.283E-03     455.089E-03    -227.807E-03     37.0563E-03     35.3520E+06     2.22082E+06    -58.8597E+06    -58.7670E+06     2.12816E+06     35.3520E+06     2.29540E+06         59.4727
            1355     8.76471E-03     102.314E-03         2.81874        -1.06029        -1.40911        -1.02181         2.78027        -1.40911    -267.384E-03     455.398E-03    -227.485E-03    -227.913E-03    -226.833E-03     454.655E-03    -227.822E-03     44.7892E-03     44.8871E+06     9.10651E+06    -50.1799E+06    -50.1164E+06     9.04300E+06     44.8871E+06     1.87149E+06         60.3069
            1356     9.56439E-03     102.386E-03         2.74236    -997.924E-03        -1.38833    -933.100E-03         2.67754        -1.38833    -9.30738E-03     455.664E-03    -227.541E-03    -228.124E-03    -226.830E-03     454.645E-03    -227.815E-03     52.6356E-03     53.8849E+06     13.9787E+06    -41.9593E+06    -41.9170E+06     13.9365E+06     53.8849E+06     1.36157E+06         61.6621
            1357     10.3604E-03     102.463E-03         2.62043    -892.775E-03        -1.36699    -841.985E-03         2.56964        -1.36699     134.721E-03     456.322E-03    -227.827E-03    -228.496E-03    -227.161E-03     454.988E-03    -227.827E-03     60.2536E-03     62.6233E+06     18.0824E+06    -34.6876E+06    -34.6710E+06     18.0657E+06     62.6233E+06     748.631E+03         63.8126
            1358     11.1570E-03     102.559E-03         2.47645    -764.589E-03        -1.34549    -746.516E-03         2.45837        -1.34549    -350.828E-03     456.958E-03    -227.854E-03    -229.104E-03    -227.294E-03     455.148E-03    -227.854E-03     70.1341E-03     70.8650E+06     23.3212E+06    -27.7317E+06    -27.7249E+06     23.3144E+06     70.8650E+06     493.128E+03         66.9777
            1359     11.9547E-03     102.669E-03         2.35940    -659.745E-03        -1.32359    -642.321E-03         2.34198        -1.32359     309.146E-03     457.666E-03    -227.884E-03    -229.782E-03    -227.526E-03     455.410E-03    -227.884E-03     78.5769E-03     77.8155E+06     29.6787E+06    -21.0934E+06    -21.0873E+06     29.6726E+06     77.8155E+06     451.962E+03         71.0975
            1360     12.7522E-03     102.788E-03         2.24189    -549.636E-03        -1.30198    -527.995E-03         2.22025        -1.30198     166.192E-03     459.268E-03    -227.932E-03    -231.336E-03    -227.843E-03     455.775E-03    -227.932E-03     96.7699E-03     89.9490E+06     40.9912E+06    -14.7564E+06    -14.7494E+06     40.9843E+06     89.9490E+06     484.332E+03         75.6128
            1361     13.5508E-03     102.954E-03         2.11047    -423.505E-03        -1.27995    -410.314E-03         2.09728        -1.27995     58.5161E-03     459.387E-03    -228.011E-03    -231.376E-03    -227.574E-03     455.584E-03    -228.011E-03     101.695E-03     115.891E+06     60.4367E+06    -7.62818E+06    -7.62413E+06     60.4327E+06     115.891E+06     175.495E+03         79.4978
            1362     797.151E-06     103.676E-03         4.74488        -1.99287        -2.28267        -1.68209         4.31431        -2.16288     812.676E-03     455.097E-03    -226.865E-03    -228.231E-03    -227.869E-03     455.096E-03    -227.227E-03     424.188E-06    -129.367E+06    -133.182E+06    -233.168E+06    -132.580E+06    -233.125E+06    -130.012E+06     49.2278E+03         57.8151
            1363     1.59326E-03     103.676E-03         4.42631        -1.91245        -2.04182        -1.92009         4.31415        -1.92204        -1.12533     455.328E-03    -227.565E-03    -227.763E-03    -227.696E-03     455.327E-03    -227.631E-03     1.16891E-03    -119.091E+06    -129.425E+06    -221.406E+06    -129.483E+06    -221.348E+06    -119.091E+06     181.312E+03         57.8375
            1364     2.39041E-03     103.675E-03         4.28453        -1.89648        -1.91682        -1.88802         4.27608        -1.91682     385.125E-03     455.329E-03    -227.590E-03    -227.738E-03    -227.598E-03     455.325E-03    -227.728E-03     2.63156E-03    -101.865E+06    -122.900E+06    -202.750E+06    -122.983E+06    -202.666E+06    -101.865E+06     861.794E+03         57.8774
            1365     3.18699E-03     103.677E-03         4.27582        -1.88854        -1.91184        -1.84690         4.22772        -1.90538    -384.446E-03     455.242E-03    -227.448E-03    -227.793E-03    -227.448E-03     455.231E-03    -227.782E-03     5.23565E-03    -82.3617E+06    -115.758E+06    -178.799E+06    -115.825E+06    -178.731E+06    -82.3617E+06     1.31696E+06         57.9397
            1366     3.98297E-03     103.685E-03         4.24222        -1.86490        -1.89622        -1.79041         4.16127        -1.88976     214.964E-06     455.044E-03    -227.231E-03    -227.814E-03    -227.203E-03     455.017E-03    -227.814E-03     8.46645E-03    -60.4287E+06    -106.457E+06    -152.760E+06    -106.536E+06    -152.681E+06    -60.4287E+06     1.54703E+06         58.0310
            1367     4.78053E-03     103.695E-03         4.11939        -1.76690        -1.87063        -1.72446         4.07695        -1.87063     557.376E-03     454.816E-03    -227.003E-03    -227.813E-03    -226.938E-03     454.751E-03    -227.813E-03     13.0099E-03    -38.0160E+06    -96.2243E+06    -121.987E+06    -96.6228E+06    -121.589E+06    -38.0160E+06     2.45125E+06         58.1603
            1368     5.57800E-03     103.720E-03         3.98475        -1.65425        -1.84902        -1.65248         3.98298        -1.84902    -112.878E-03     454.947E-03    -227.082E-03    -227.866E-03    -227.011E-03     454.820E-03    -227.809E-03     18.3975E-03    -16.7936E+06    -81.5324E+06    -94.2490E+06    -87.2280E+06    -88.5535E+06    -16.7936E+06     3.18038E+06         58.3388
            1369     6.37344E-03     103.746E-03         3.89081        -1.58287        -1.82569        -1.57794         3.88587        -1.82569     252.744E-03     455.073E-03    -227.198E-03    -227.875E-03    -227.037E-03     454.856E-03    -227.819E-03     24.1170E-03     3.57997E+06    -51.5170E+06    -78.4885E+06    -77.7851E+06    -52.2204E+06     3.57997E+06     3.34408E+06         58.5849
            1370     7.17113E-03     103.784E-03         3.78263        -1.49487        -1.80083        -1.48797         3.77573        -1.80083     85.4108E-03     454.923E-03    -227.109E-03    -227.814E-03    -226.752E-03     454.566E-03    -227.814E-03     30.9725E-03     22.1558E+06    -16.4758E+06    -68.3775E+06    -68.1595E+06    -16.6938E+06     22.1558E+06     3.26586E+06         58.9331
            1371     7.96940E-03     103.835E-03         3.66539        -1.39523        -1.77392        -1.38645         3.65660        -1.77392     114.942E-03     455.214E-03    -227.375E-03    -227.839E-03    -226.887E-03     454.691E-03    -227.804E-03     37.6681E-03     35.6328E+06     2.48064E+06    -58.8685E+06    -58.7249E+06     2.33710E+06     35.6328E+06     2.90855E+06         59.4526
            1372     8.76607E-03     103.889E-03         3.56801        -1.31632        -1.74505        -1.28121         3.53290        -1.74505    -258.584E-03     455.621E-03    -227.483E-03    -228.138E-03    -227.083E-03     454.895E-03    -227.812E-03     44.3577E-03     45.5468E+06     9.80347E+06    -49.8744E+06    -49.7814E+06     9.71047E+06     45.5468E+06     2.32237E+06         60.2744
            1373     9.56271E-03     103.959E-03         3.45457        -1.22550        -1.71469        -1.16918         3.39825        -1.71469    -17.4246E-03     455.608E-03    -227.303E-03    -228.305E-03    -226.804E-03     454.624E-03    -227.820E-03     51.6846E-03     55.2978E+06     14.9480E+06    -41.2314E+06    -41.1738E+06     14.8904E+06     55.2978E+06     1.69763E+06         61.6138
            1374     10.3606E-03     104.043E-03         3.30111        -1.09877        -1.68305        -1.05529         3.25764        -1.68305     139.779E-03     455.887E-03    -227.564E-03    -228.323E-03    -226.741E-03     454.557E-03    -227.817E-03     60.0614E-03     64.0461E+06     18.3081E+06    -33.6071E+06    -33.5769E+06     18.2778E+06     64.0461E+06     1.18032E+06         63.7520
            1375     11.1581E-03     104.133E-03         3.12974    -955.436E-03        -1.65071    -939.937E-03         3.11424        -1.65071    -357.042E-03     456.874E-03    -227.812E-03    -229.061E-03    -227.185E-03     455.007E-03    -227.822E-03     71.2012E-03     71.6071E+06     22.6976E+06    -27.0732E+06    -27.0243E+06     22.6486E+06     71.6071E+06     1.37365E+06         66.9208
            1376     11.9560E-03     104.247E-03         2.97915    -828.767E-03        -1.61764    -815.983E-03         2.96637        -1.61764     307.610E-03     457.778E-03    -227.850E-03    -229.928E-03    -227.632E-03     455.482E-03    -227.850E-03     79.3147E-03     78.4475E+06     29.8338E+06    -21.0344E+06    -20.9874E+06     29.7867E+06     78.4475E+06     1.35733E+06         71.0719
            1377     12.7531E-03     104.364E-03         2.83026    -697.444E-03        -1.58423    -680.919E-03         2.81374        -1.58423     146.215E-03     459.422E-03    -227.909E-03    -231.513E-03    -228.034E-03     455.943E-03    -227.909E-03     96.6129E-03     90.8699E+06     42.3317E+06    -14.2999E+06    -14.2864E+06     42.3182E+06     90.8699E+06     379.995E+03         75.6444
            1378     13.5503E-03     104.530E-03         2.66949    -553.212E-03        -1.54986    -541.852E-03         2.65813        -1.54986     57.0882E-03     459.593E-03    -228.002E-03    -231.591E-03    -227.805E-03     455.806E-03    -228.002E-03     101.508E-03     116.130E+06     60.8570E+06    -7.24410E+06    -7.24270E+06     60.8556E+06     116.130E+06    -232.277E+03         79.5880
            1379     796.117E-06     105.252E-03         5.51846        -2.24442        -2.64357        -1.94756         5.12559        -2.54756     883.891E-03     455.316E-03    -227.089E-03    -228.227E-03    -228.021E-03     455.315E-03    -227.294E-03     351.419E-06    -128.390E+06    -132.166E+06    -234.900E+06    -131.549E+06    -234.872E+06    -129.035E+06     857.319E+03         57.8126
            1380     1.59361E-03     105.252E-03         5.20230        -2.23938        -2.34196        -2.23896         5.10588        -2.24595        -1.10789     455.354E-03    -227.584E-03    -227.770E-03    -227.644E-03     455.354E-03    -227.710E-03     918.253E-06    -117.204E+06    -127.761E+06    -222.107E+06    -127.840E+06    -222.028E+06    -117.204E+06     1.21021E+06         57.8355
            1381     2.38972E-03     105.251E-03         5.07644        -2.21222        -2.23870        -2.20522         5.06944        -2.23870     391.909E-03     455.344E-03    -227.570E-03    -227.775E-03    -227.577E-03     455.341E-03    -227.764E-03     2.40398E-03    -100.915E+06    -122.247E+06    -205.068E+06    -122.359E+06    -204.956E+06    -100.915E+06     1.41872E+06         57.8758
            1382     3.18603E-03     105.254E-03         5.04414        -2.19101        -2.22464        -2.15251         5.00564        -2.22464    -375.998E-03     455.241E-03    -227.426E-03    -227.815E-03    -227.426E-03     455.230E-03    -227.805E-03     5.24205E-03    -80.9900E+06    -114.397E+06    -180.619E+06    -114.527E+06    -180.489E+06    -80.9900E+06     2.05952E+06         57.9385
            1383     3.98380E-03     105.260E-03         4.99229        -2.15328        -2.20521        -2.08788         4.92689        -2.20521     1.91364E-03     455.317E-03    -227.474E-03    -227.843E-03    -227.442E-03     455.285E-03    -227.843E-03     9.01737E-03    -60.6630E+06    -106.650E+06    -153.698E+06    -106.770E+06    -153.578E+06    -60.6630E+06     1.94579E+06         58.0299
            1384     4.77929E-03     105.274E-03         4.86358        -2.04526        -2.18162        -2.01064         4.82896        -2.18162     543.923E-03     455.255E-03    -227.369E-03    -227.886E-03    -227.299E-03     455.186E-03    -227.886E-03     13.5677E-03    -39.1848E+06    -97.5874E+06    -124.357E+06    -97.9127E+06    -124.032E+06    -39.1848E+06     2.16869E+06         58.1582
            1385     5.57622E-03     105.293E-03         4.72115        -1.92999        -2.15488        -1.92856         4.71972        -2.15488    -111.912E-03     454.662E-03    -226.783E-03    -227.879E-03    -226.650E-03     454.529E-03    -227.879E-03     18.7921E-03    -17.3126E+06    -83.0266E+06    -96.1259E+06    -87.7046E+06    -91.4478E+06    -17.3126E+06     3.17748E+06         58.3347
            1386     6.37556E-03     105.324E-03         4.60889        -1.84736        -2.12607        -1.84285         4.60438        -2.12607     260.598E-03     454.791E-03    -226.956E-03    -227.835E-03    -226.729E-03     454.564E-03    -227.835E-03     24.6772E-03     3.31816E+06    -53.4193E+06    -78.5097E+06    -77.5246E+06    -54.4044E+06     3.31816E+06     3.87529E+06         58.5777
            1387     7.17122E-03     105.360E-03         4.48216        -1.74673        -2.09513        -1.74008         4.47551        -2.09513     73.0848E-03     455.128E-03    -227.300E-03    -227.829E-03    -226.958E-03     454.777E-03    -227.819E-03     30.7767E-03     22.1744E+06    -16.8691E+06    -67.9676E+06    -67.6316E+06    -17.2051E+06     22.1744E+06     3.95827E+06         58.9210
            1388     7.96853E-03     105.408E-03         4.34436        -1.63204        -2.06145        -1.62301         4.33533        -2.06145     118.617E-03     455.104E-03    -227.278E-03    -227.826E-03    -226.779E-03     454.596E-03    -227.817E-03     37.0940E-03     36.5245E+06     3.46671E+06    -58.2731E+06    -58.0752E+06     3.26882E+06     36.5245E+06     3.43832E+06         59.4325
            1389     8.76605E-03     105.468E-03         4.22277        -1.53480        -2.02516        -1.50226         4.19023        -2.02516    -254.102E-03     455.509E-03    -227.402E-03    -228.108E-03    -226.975E-03     454.791E-03    -227.816E-03     44.1095E-03     46.6248E+06     10.5253E+06    -49.3903E+06    -49.2614E+06     10.3963E+06     46.6248E+06     2.71627E+06         60.2420
            1390     9.56189E-03     105.537E-03         4.08126        -1.42393        -1.98662        -1.37407         4.03139        -1.98662    -31.5263E-03     455.520E-03    -227.365E-03    -228.155E-03    -226.702E-03     454.514E-03    -227.812E-03     52.1946E-03     55.4512E+06     15.1666E+06    -41.3099E+06    -41.2233E+06     15.0800E+06     55.4512E+06     2.08559E+06         61.5654
            1391     10.3606E-03     105.615E-03         3.90230        -1.28186        -1.94632        -1.24430         3.86475        -1.94632     139.992E-03     455.648E-03    -227.543E-03    -228.105E-03    -226.499E-03     454.294E-03    -227.796E-03     60.6311E-03     64.2123E+06     18.2545E+06    -33.9495E+06    -33.8624E+06     18.1673E+06     64.2123E+06     1.96965E+06         63.6906
            1392     11.1596E-03     105.711E-03         3.70914        -1.12474        -1.90494        -1.11135         3.69575        -1.90494    -363.139E-03     456.935E-03    -227.792E-03    -229.143E-03    -227.302E-03     455.104E-03    -227.802E-03     70.5664E-03     72.4805E+06     22.5225E+06    -27.4871E+06    -27.3902E+06     22.4255E+06     72.4805E+06     2.14544E+06         66.8613
            1393     11.9557E-03     105.823E-03         3.53059    -978.700E-03        -1.86222    -968.200E-03         3.52009        -1.86222     302.814E-03     457.738E-03    -227.840E-03    -229.898E-03    -227.665E-03     455.504E-03    -227.840E-03     78.2212E-03     79.9289E+06     30.9719E+06    -20.5382E+06    -20.4803E+06     30.9140E+06     79.9289E+06     1.51690E+06         71.0424
            1394     12.7531E-03     105.942E-03         3.35343    -830.042E-03        -1.81838    -815.880E-03         3.33927        -1.81838     130.520E-03     459.065E-03    -227.891E-03    -231.173E-03    -227.722E-03     455.613E-03    -227.891E-03     96.1001E-03     91.8694E+06     44.0986E+06    -13.8137E+06    -13.8016E+06     44.0866E+06     91.8694E+06     391.713E+03         75.6741
            1395     13.5511E-03     106.106E-03         3.16897    -673.017E-03        -1.77316    -662.215E-03         3.15817        -1.77316     58.0440E-03     459.709E-03    -227.980E-03    -231.729E-03    -227.922E-03     455.902E-03    -227.980E-03     101.828E-03     116.570E+06     61.2133E+06    -7.25449E+06    -7.25227E+06     61.2111E+06     116.570E+06     21.3663E+03         79.6801
            1396     797.297E-06     106.829E-03         6.05225        -2.35133        -2.92052        -2.14190         5.79492        -2.87261     692.203E-03     455.677E-03    -227.527E-03    -228.150E-03    -227.587E-03     455.677E-03    -228.090E-03     125.664E-06    -129.932E+06    -132.627E+06    -237.872E+06    -132.645E+06    -237.855E+06    -129.932E+06     485.793E+03         57.8087
            1397     1.59259E-03     106.828E-03         5.82416        -2.49812        -2.54951        -2.47995         5.75808        -2.50161        -1.02965     455.161E-03    -227.305E-03    -227.856E-03    -227.364E-03     455.160E-03    -227.796E-03     1.07610E-03    -117.924E+06    -127.785E+06    -224.173E+06    -127.837E+06    -224.120E+06    -117.924E+06     1.19148E+06         57.8316
            1398     2.38986E-03     106.827E-03         5.72060        -2.45725        -2.48957        -2.44947         5.71283        -2.48957     355.824E-03     455.055E-03    -227.330E-03    -227.725E-03    -227.325E-03     455.050E-03    -227.725E-03     3.21277E-03    -100.863E+06    -121.924E+06    -207.353E+06    -122.037E+06    -207.239E+06    -100.863E+06     2.01435E+06         57.8724
            1399     3.18722E-03     106.830E-03         5.67738        -2.42604        -2.47264        -2.38733         5.63867        -2.47264    -357.208E-03     455.229E-03    -227.463E-03    -227.765E-03    -227.473E-03     455.216E-03    -227.743E-03     5.79658E-03    -81.4661E+06    -114.879E+06    -183.456E+06    -115.030E+06    -183.305E+06    -81.4661E+06     2.51316E+06         57.9359
            1400     3.98304E-03     106.836E-03         5.61834        -2.38429        -2.45019        -2.32227         5.55631        -2.45019    -10.0638E-03     455.298E-03    -227.472E-03    -227.826E-03    -227.460E-03     455.263E-03    -227.803E-03     9.42875E-03    -59.8383E+06    -105.962E+06    -154.637E+06    -106.165E+06    -154.434E+06    -59.8383E+06     2.84329E+06         58.0279
            1401     4.78067E-03     106.851E-03         5.48375        -2.27136        -2.42375        -2.23873         5.45112        -2.42375     534.869E-03     455.122E-03    -227.276E-03    -227.847E-03    -227.203E-03     455.050E-03    -227.847E-03     13.8951E-03    -38.5546E+06    -96.9032E+06    -125.922E+06    -97.2098E+06    -125.616E+06    -38.5546E+06     2.74426E+06         58.1561
            1402     5.57735E-03     106.869E-03         5.33284        -2.15134        -2.39357        -2.14950         5.33100        -2.39357    -123.562E-03     455.038E-03    -227.109E-03    -227.930E-03    -227.041E-03     454.901E-03    -227.860E-03     19.1109E-03    -17.6162E+06    -83.7834E+06    -97.7577E+06    -87.4784E+06    -94.0627E+06    -17.6162E+06     3.12869E+06         58.3313
            1403     6.37343E-03     106.898E-03         5.20396        -2.05556        -2.36062        -2.05178         5.20019        -2.36062     266.466E-03     454.967E-03    -227.044E-03    -227.923E-03    -226.887E-03     454.740E-03    -227.853E-03     24.7293E-03     2.88099E+06    -55.6164E+06    -78.6092E+06    -77.3382E+06    -56.8873E+06     2.88099E+06     4.12530E+06         58.5714
            1404     7.17188E-03     106.939E-03         5.06202        -1.94457        -2.32473        -1.93876         5.05621        -2.32473     57.3897E-03     455.067E-03    -227.216E-03    -227.850E-03    -226.882E-03     454.723E-03    -227.841E-03     30.4728E-03     22.2650E+06    -17.5895E+06    -68.0323E+06    -67.5652E+06    -18.0566E+06     22.2650E+06     4.62898E+06         58.9098
            1405     7.96784E-03     106.984E-03         4.90655        -1.81818        -2.28539        -1.80962         4.89799        -2.28539     119.255E-03     455.182E-03    -227.337E-03    -227.844E-03    -226.824E-03     454.659E-03    -227.835E-03     37.5450E-03     37.3233E+06     4.55933E+06    -58.1977E+06    -57.9248E+06     4.28646E+06     37.3233E+06     4.04357E+06         59.4136
            1406     8.76513E-03     107.044E-03         4.76485        -1.70766        -2.24285        -1.67843         4.73562        -2.24285    -245.166E-03     454.874E-03    -227.067E-03    -227.806E-03    -226.335E-03     454.142E-03    -227.806E-03     44.5448E-03     47.1094E+06     10.7374E+06    -49.4597E+06    -49.3029E+06     10.5805E+06     47.1094E+06     3.02176E+06         60.2113
            1407     9.56511E-03     107.111E-03         4.60681        -1.58668        -2.19782        -1.54310         4.56323        -2.19782    -37.5139E-03     455.446E-03    -227.320E-03    -228.127E-03    -226.684E-03     454.459E-03    -227.775E-03     51.7329E-03     55.7230E+06     15.2791E+06    -42.0214E+06    -41.8612E+06     15.1190E+06     55.7230E+06     2.95550E+06         61.5194
            1408     10.3615E-03     107.192E-03         4.41080        -1.43341        -2.15076        -1.40121         4.37860        -2.15076     139.722E-03     456.613E-03    -227.800E-03    -228.812E-03    -227.499E-03     455.299E-03    -227.800E-03     59.7988E-03     64.5583E+06     18.8027E+06    -34.8854E+06    -34.7275E+06     18.6447E+06     64.5583E+06     2.85736E+06         63.6289
            1409     11.1571E-03     107.287E-03         4.20195        -1.26787        -2.10206        -1.25643         4.19051        -2.10206    -359.549E-03     456.977E-03    -227.847E-03    -229.130E-03    -227.323E-03     455.171E-03    -227.847E-03     70.0304E-03     73.5192E+06     23.2604E+06    -26.8088E+06    -26.7259E+06     23.1775E+06     73.5192E+06     1.97843E+06         66.7974
            1410     11.9552E-03     107.401E-03         4.00561        -1.11120        -2.05151        -1.10210         3.99651        -2.05151     297.713E-03     456.978E-03    -227.858E-03    -229.120E-03    -226.873E-03     454.732E-03    -227.858E-03     78.3537E-03     80.8518E+06     31.1282E+06    -19.6123E+06    -19.5607E+06     31.0766E+06     80.8518E+06     1.44260E+06         71.0086
            1411     12.7532E-03     107.516E-03         3.80690    -948.727E-03        -1.99927    -935.887E-03         3.79406        -1.99927     114.649E-03     458.820E-03    -227.874E-03    -230.947E-03    -227.474E-03     455.347E-03    -227.874E-03     96.3896E-03     92.5272E+06     45.0526E+06    -13.7761E+06    -13.7420E+06     45.0185E+06     92.5272E+06     1.09033E+06         75.7025
            1412     13.5520E-03     107.682E-03         3.60548    -783.502E-03        -1.94538    -772.690E-03         3.59467        -1.94538     59.1961E-03     459.937E-03    -227.964E-03    -231.972E-03    -228.170E-03     456.135E-03    -227.964E-03     101.764E-03     117.671E+06     62.5898E+06     -7.0559E+06    -7.04548E+06     62.5794E+06     117.671E+06     740.248E+03         79.7732
            1413     794.712E-06     108.405E-03         6.41062        -2.39642        -3.08986        -2.28964         6.29228        -3.07830     374.216E-03     455.289E-03    -227.277E-03    -228.012E-03    -227.602E-03     455.288E-03    -227.686E-03     774.181E-06    -130.221E+06    -133.269E+06    -239.322E+06    -132.873E+06    -239.308E+06    -130.632E+06     571.969E+03         57.8050
            1414     1.59381E-03     108.403E-03         6.28427        -2.67047        -2.68798        -2.64665         6.24889        -2.67642    -901.747E-03     454.838E-03    -227.162E-03    -227.676E-03    -227.225E-03     454.837E-03    -227.612E-03     1.41201E-03    -119.800E+06    -129.793E+06    -226.686E+06    -129.814E+06    -226.665E+06    -119.800E+06     784.944E+03         57.8279
            1415     2.39082E-03     108.403E-03         6.21708        -2.63118        -2.66182        -2.61859         6.20449        -2.66182     294.145E-03     454.872E-03    -227.299E-03    -227.574E-03    -227.294E-03     454.868E-03    -227.574E-03     3.22354E-03    -102.567E+06    -123.363E+06    -210.668E+06    -123.446E+06    -210.585E+06    -102.567E+06     1.73883E+06         57.8688
            1416     3.18698E-03     108.406E-03         6.16978        -2.59964        -2.64384        -2.55521         6.12535        -2.64384    -325.145E-03     455.154E-03    -227.500E-03    -227.655E-03    -227.508E-03     455.140E-03    -227.632E-03     6.06381E-03    -81.7190E+06    -114.968E+06    -185.277E+06    -115.097E+06    -185.148E+06    -81.7190E+06     2.47957E+06         57.9326
            1417     3.98400E-03     108.414E-03         6.10436        -2.55153        -2.62003        -2.48614         6.03897        -2.62003    -26.2165E-03     455.202E-03    -227.460E-03    -227.743E-03    -227.448E-03     455.168E-03    -227.720E-03     9.50147E-03    -59.6636E+06    -105.847E+06    -156.900E+06    -106.038E+06    -156.709E+06    -59.6636E+06     2.84569E+06         58.0248
            1418     4.78026E-03     108.425E-03         5.96243        -2.43567        -2.59187        -2.40124         5.92800        -2.59187     534.145E-03     455.170E-03    -227.357E-03    -227.813E-03    -227.315E-03     455.101E-03    -227.786E-03     13.5140E-03    -38.1759E+06    -96.2602E+06    -128.186E+06    -96.7367E+06    -127.710E+06    -38.1759E+06     3.47872E+06         58.1529
            1419     5.57780E-03     108.446E-03         5.80345        -2.30835        -2.55954        -2.30556         5.80066        -2.55954    -136.874E-03     455.426E-03    -227.486E-03    -227.940E-03    -227.451E-03     455.294E-03    -227.843E-03     18.7391E-03    -17.4525E+06    -83.9425E+06    -99.1826E+06    -87.4097E+06    -95.7153E+06    -17.4525E+06     4.09498E+06         58.3271
            1420     6.37423E-03     108.476E-03         5.66371        -2.20310        -2.52354        -2.19987         5.66048        -2.52354     278.140E-03     455.254E-03    -227.301E-03    -227.953E-03    -227.146E-03     455.030E-03    -227.883E-03     24.5628E-03     2.81934E+06    -57.3425E+06    -79.8843E+06    -78.0233E+06    -59.2034E+06     2.81934E+06     4.44118E+06         58.5648
            1421     7.17044E-03     108.512E-03         5.51163        -2.08473        -2.48389        -2.07994         5.50684        -2.48389     48.1693E-03     454.769E-03    -226.906E-03    -227.863E-03    -226.553E-03     454.416E-03    -227.863E-03     30.8288E-03     22.0622E+06    -18.5100E+06    -68.7195E+06      -68.26E+06    -18.9695E+06     22.0622E+06     4.56526E+06         58.8989
            1422     7.96922E-03     108.563E-03         5.34543        -1.95221        -2.44031        -1.94459         5.33782        -2.44031     122.105E-03     454.693E-03    -226.882E-03    -227.811E-03    -226.366E-03     454.177E-03    -227.811E-03     37.3386E-03     36.4402E+06     4.61235E+06    -59.1648E+06    -58.8299E+06     4.27745E+06     36.4402E+06     4.49148E+06         59.3957
            1423     8.76671E-03     108.618E-03         5.19015        -1.83378        -2.39322        -1.80866         5.16503        -2.39322    -227.349E-03     455.142E-03    -227.121E-03    -228.021E-03    -226.645E-03     454.425E-03    -227.781E-03     44.0515E-03     46.7319E+06     10.4518E+06    -50.7301E+06    -50.4155E+06     10.1371E+06     46.7319E+06     4.24023E+06         60.1822
            1424     9.56273E-03     108.687E-03         5.02092        -1.70688        -2.34355        -1.66974         4.98378        -2.34355    -33.2133E-03     456.021E-03    -227.542E-03    -228.479E-03    -227.240E-03     455.033E-03    -227.793E-03     51.7799E-03     56.8628E+06     15.9089E+06    -42.4462E+06    -42.1641E+06     15.6268E+06     56.8628E+06     3.98274E+06         61.4736
            1425     10.3595E-03     108.771E-03         4.81677        -1.54920        -2.29157        -1.52207         4.78964        -2.29157     143.156E-03     456.649E-03    -227.835E-03    -228.814E-03    -227.483E-03     455.318E-03    -227.835E-03     60.1852E-03     65.7908E+06     20.9380E+06    -34.4604E+06    -34.2908E+06     20.7685E+06     65.7908E+06     2.96692E+06         63.5667
            1426     11.1571E-03     108.863E-03         4.60199        -1.38267        -2.23746        -1.37334         4.59267        -2.23746    -341.830E-03     456.672E-03    -227.864E-03    -228.808E-03    -226.981E-03     454.844E-03    -227.864E-03     70.4196E-03     73.5966E+06     24.3079E+06    -27.1107E+06    -27.0489E+06     24.2461E+06     73.5966E+06     1.75752E+06         66.7339
            1427     11.9559E-03     108.974E-03         4.39810        -1.22494        -2.18136        -1.21660         4.38975        -2.18136     297.082E-03     456.736E-03    -227.856E-03    -228.879E-03    -226.622E-03     454.479E-03    -227.856E-03     78.5160E-03     80.9106E+06     30.2697E+06    -20.2966E+06    -20.2377E+06     30.2108E+06     80.9106E+06     1.68943E+06         70.9754
            1428     12.7548E-03     109.093E-03         4.19095        -1.06029        -2.12345        -1.04814         4.17880        -2.12345     105.416E-03     459.052E-03    -227.873E-03    -231.179E-03    -227.712E-03     455.585E-03    -227.873E-03     96.3774E-03     93.3802E+06     45.4970E+06    -13.8660E+06    -13.7988E+06     45.4298E+06     93.3802E+06     1.92809E+06         75.7307
            1429     13.5505E-03     109.260E-03         3.97894    -892.136E-03        -2.06369    -881.303E-03         3.96811        -2.06369     60.7871E-03     459.924E-03    -227.969E-03    -231.954E-03    -228.165E-03     456.134E-03    -227.969E-03     101.611E-03     118.427E+06     64.4643E+06    -7.33971E+06    -7.30815E+06     64.4328E+06     118.427E+06     1.29859E+06         79.8676
            1430     799.339E-06     109.981E-03         6.63744        -2.41819        -3.14494        -2.39140         6.60641        -3.14071     14.3121E-03     454.378E-03    -226.832E-03    -227.546E-03    -227.448E-03     454.377E-03    -226.929E-03     415.683E-06    -129.474E+06    -133.888E+06    -241.873E+06    -133.493E+06    -241.858E+06    -129.886E+06     695.736E+03         57.8073
            1431     1.59360E-03     109.978E-03         6.58953        -2.75792        -2.76758        -2.74564         6.57168        -2.76201    -766.147E-03     455.370E-03    -227.373E-03    -227.997E-03    -227.971E-03     455.369E-03    -227.398E-03     904.778E-06    -118.961E+06    -129.282E+06    -228.498E+06    -129.311E+06    -228.469E+06    -118.961E+06     1.41351E+06         57.8296
            1432     2.39024E-03     109.978E-03         6.55276        -2.73055        -2.75255        -2.71088         6.53176        -2.75122     234.965E-03     455.339E-03    -227.444E-03    -227.894E-03    -227.685E-03     455.336E-03    -227.651E-03     2.09009E-03    -102.412E+06    -123.719E+06    -212.776E+06    -123.765E+06    -212.730E+06    -102.412E+06     1.65290E+06         57.8686
            1433     3.18768E-03     109.982E-03         6.50965        -2.70373        -2.73415        -2.65041         6.45633        -2.73415    -287.877E-03     454.908E-03    -227.199E-03    -227.709E-03    -227.188E-03     454.897E-03    -227.709E-03     4.95296E-03    -82.6723E+06    -115.714E+06    -187.963E+06    -115.807E+06    -187.869E+06    -82.6723E+06     2.13778E+06         57.9298
            1434     3.98413E-03     109.990E-03         6.43762        -2.65032        -2.71070        -2.57837         6.36566        -2.71070    -41.8060E-03     454.949E-03    -227.230E-03    -227.719E-03    -227.200E-03     454.919E-03    -227.719E-03     8.73034E-03    -61.4169E+06    -107.172E+06    -159.704E+06    -107.371E+06    -159.505E+06    -61.4169E+06     2.94183E+06         58.0200
            1435     4.78121E-03     110.002E-03         6.28830        -2.52800        -2.68190        -2.48998         6.25027        -2.68190     538.462E-03     455.402E-03    -227.591E-03    -227.811E-03    -227.548E-03     455.332E-03    -227.784E-03     13.5459E-03    -39.0720E+06    -97.4429E+06    -130.994E+06    -98.0712E+06    -130.366E+06    -39.0720E+06     3.99549E+06         58.1467
            1436     5.57637E-03     110.024E-03         6.12410        -2.39633        -2.64829        -2.39219         6.11996        -2.64829    -145.698E-03     455.386E-03    -227.501E-03    -227.885E-03    -227.395E-03     455.253E-03    -227.857E-03     18.8988E-03    -17.9580E+06    -84.9342E+06    -101.467E+06    -88.5580E+06    -97.8431E+06    -17.9580E+06     4.73907E+06         58.3199
            1437     6.37366E-03     110.052E-03         5.97880        -2.28738        -2.61051        -2.28446         5.97589        -2.61051     292.331E-03     455.045E-03    -227.166E-03    -227.879E-03    -226.942E-03     454.821E-03    -227.879E-03     24.5366E-03     2.33308E+06    -58.9338E+06    -80.8484E+06    -78.5844E+06    -61.1978E+06     2.33308E+06     4.98493E+06         58.5562
            1438     7.17158E-03     110.090E-03         5.82262        -2.16702        -2.56874        -2.16335         5.81895        -2.56874     46.0028E-03     454.720E-03    -226.876E-03    -227.844E-03    -226.524E-03     454.367E-03    -227.844E-03     30.8092E-03     21.2348E+06    -19.7725E+06    -69.6501E+06    -68.9708E+06    -20.4518E+06     21.2348E+06     5.34715E+06         58.8875
            1439     7.96815E-03     110.136E-03         5.65555        -2.03581        -2.52292        -2.02935         5.64909        -2.52292     129.948E-03     454.691E-03    -226.895E-03    -227.795E-03    -226.382E-03     454.177E-03    -227.795E-03     37.2586E-03     36.2610E+06     4.71346E+06    -60.3314E+06    -59.8732E+06     4.25526E+06     36.2610E+06     5.29621E+06         59.3782
            1440     8.76625E-03     110.195E-03         5.49432        -1.91365        -2.47348        -1.89254         5.47321        -2.47348    -204.676E-03     455.463E-03    -227.441E-03    -228.022E-03    -226.955E-03     454.737E-03    -227.781E-03     44.3645E-03     46.7808E+06     10.2515E+06    -51.5115E+06    -51.1108E+06     9.85076E+06     46.7808E+06     4.94074E+06         60.1529
            1441     9.56320E-03     110.265E-03         5.32034        -1.78384        -2.42114        -1.75249         5.28899        -2.42114    -21.3536E-03     455.928E-03    -227.748E-03    -228.180E-03    -227.114E-03     454.910E-03    -227.796E-03     52.5598E-03     56.2234E+06     16.6322E+06    -43.2414E+06    -42.8989E+06     16.2897E+06     56.2234E+06     4.49238E+06         61.4273
            1442     10.3609E-03     110.346E-03         5.11728        -1.63011        -2.36626        -1.60754         5.09470        -2.36626     152.133E-03     456.035E-03    -227.781E-03    -228.254E-03    -226.850E-03     454.660E-03    -227.810E-03     61.1487E-03     66.2961E+06     23.1595E+06    -35.1080E+06    -34.8923E+06     22.9437E+06     66.2961E+06     3.46562E+06         63.5057
            1443     11.1586E-03     110.440E-03         4.90569        -1.46864        -2.30920        -1.46137         4.89842        -2.30920    -312.948E-03     456.886E-03    -227.829E-03    -229.057E-03    -227.239E-03     455.068E-03    -227.829E-03     70.3616E-03     74.5227E+06     25.9220E+06    -28.2393E+06    -28.1383E+06     25.8209E+06     74.5227E+06     2.26038E+06         66.6730
            1444     11.9555E-03     110.548E-03         4.70558        -1.31695        -2.25018        -1.30872         4.69736        -2.25018     304.241E-03     457.581E-03    -227.863E-03    -229.718E-03    -227.502E-03     455.366E-03    -227.863E-03     77.8721E-03     81.3024E+06     30.5947E+06    -21.4008E+06    -21.3531E+06     30.5470E+06     81.3024E+06     1.52309E+06         70.9416
            1445     12.7523E-03     110.669E-03         4.50040        -1.15878        -2.18922        -1.14689         4.48851        -2.18922     109.837E-03     458.908E-03    -227.905E-03    -231.003E-03    -227.525E-03     455.430E-03    -227.905E-03     96.4228E-03     93.6222E+06     44.1523E+06    -14.3546E+06    -14.2973E+06     44.0950E+06     93.6222E+06     1.78423E+06         75.7567
            1446     13.5516E-03     110.837E-03         4.28880    -994.108E-03        -2.12627    -983.270E-03         4.27796        -2.12627     70.0878E-03     459.472E-03    -227.980E-03    -231.492E-03    -227.675E-03     455.655E-03    -227.980E-03     101.884E-03     119.533E+06     65.6686E+06    -7.37307E+06    -7.32249E+06     65.6180E+06     119.533E+06     1.73016E+06         79.9622
            1447     795.903E-06     111.553E-03         6.74599        -2.42285        -3.12274        -2.41949         6.74130        -3.12141    -190.508E-03     455.584E-03    -227.193E-03    -228.391E-03    -227.985E-03     455.584E-03    -227.598E-03    -814.082E-06    -129.319E+06    -134.983E+06    -244.572E+06    -133.415E+06    -244.553E+06    -130.907E+06     913.677E+03         57.8163
            1448     1.59397E-03     111.557E-03         6.73833        -2.76378        -2.77188        -2.75523         6.72538        -2.76749    -675.241E-03     455.732E-03    -227.337E-03    -228.395E-03    -227.871E-03     455.732E-03    -227.861E-03    -6.02024E-06    -119.345E+06    -129.509E+06    -231.842E+06    -129.553E+06    -231.798E+06    -119.345E+06     1.82244E+06         57.8355
            1449     2.38895E-03     111.555E-03         6.71483        -2.74807        -2.76130        -2.72127         6.68498        -2.75825     206.298E-03     455.690E-03    -227.512E-03    -228.178E-03    -227.753E-03     455.688E-03    -227.935E-03     1.85224E-03    -102.486E+06    -123.403E+06    -214.764E+06    -123.469E+06    -214.697E+06    -102.486E+06     2.18998E+06         57.8707
            1450     3.18520E-03     111.558E-03         6.67981        -2.72673        -2.74231        -2.66462         6.61771        -2.74231    -256.179E-03     455.147E-03    -227.217E-03    -227.930E-03    -227.208E-03     455.138E-03    -227.930E-03     4.72079E-03    -83.5109E+06    -116.640E+06    -190.654E+06    -116.771E+06    -190.523E+06    -83.5109E+06     2.71891E+06         57.9277
            1451     3.98347E-03     111.565E-03         6.60833        -2.67557        -2.72011        -2.59688         6.52964        -2.72011    -54.9084E-03     454.813E-03    -226.941E-03    -227.872E-03    -226.913E-03     454.785E-03    -227.872E-03     8.50932E-03    -62.2745E+06    -108.195E+06    -162.540E+06    -108.484E+06    -162.250E+06    -62.2745E+06     3.62322E+06         58.0139
            1452     4.77997E-03     111.580E-03         6.45758        -2.55033        -2.69218        -2.50846         6.41570        -2.69218     537.234E-03     454.857E-03    -227.019E-03    -227.838E-03    -226.948E-03     454.786E-03    -227.838E-03     13.6208E-03    -39.8704E+06    -98.5174E+06    -133.665E+06    -99.1299E+06    -133.052E+06    -39.8704E+06     4.27895E+06         58.1377
            1453     5.57785E-03     111.600E-03         6.29305        -2.41833        -2.65888        -2.41254         6.28727        -2.65888    -148.237E-03     454.847E-03    -227.024E-03    -227.823E-03    -226.887E-03     454.710E-03    -227.823E-03     19.1336E-03    -18.5808E+06    -86.1319E+06    -103.287E+06    -89.1105E+06    -100.308E+06    -18.5808E+06     4.56498E+06         58.3097
            1454     6.37460E-03     111.628E-03         6.15145        -2.31108        -2.62121        -2.30833         6.14869        -2.62121     301.089E-03     454.850E-03    -227.045E-03    -227.804E-03    -226.809E-03     454.614E-03    -227.804E-03     25.1480E-03     1.08174E+06    -61.2272E+06    -82.4830E+06    -79.4740E+06    -64.2361E+06     1.08174E+06     5.70755E+06         58.5457
            1455     7.17111E-03     111.666E-03         5.99829        -2.19345        -2.57943        -2.19091         5.99576        -2.57943     43.6627E-03     454.930E-03    -227.144E-03    -227.786E-03    -226.790E-03     454.576E-03    -227.786E-03     30.9642E-03     20.9097E+06    -21.3603E+06    -70.9407E+06    -69.9117E+06    -22.3893E+06     20.9097E+06     6.53762E+06         58.8757
            1456     7.96967E-03     111.711E-03         5.83667        -2.06819        -2.53353        -2.06294         5.83142        -2.53353     139.647E-03     455.202E-03    -227.420E-03    -227.782E-03    -226.901E-03     454.683E-03    -227.782E-03     37.4267E-03     36.3767E+06     4.63116E+06    -61.3613E+06    -60.6502E+06     3.92003E+06     36.3767E+06     6.61409E+06         59.3611
            1457     8.76582E-03     111.772E-03         5.67823        -1.94895        -2.48396        -1.93122         5.66051        -2.48396    -187.008E-03     455.409E-03    -227.622E-03    -227.787E-03    -226.890E-03     454.676E-03    -227.787E-03     44.5914E-03     46.4207E+06     11.5313E+06    -52.7468E+06    -52.1486E+06     10.9331E+06     46.4207E+06     5.93499E+06         60.1241
            1458     9.56350E-03     111.840E-03         5.50941        -1.82394        -2.43135        -1.79703         5.48250        -2.43135    -6.70925E-03     455.452E-03    -227.664E-03    -227.788E-03    -226.682E-03     454.464E-03    -227.782E-03     51.7617E-03     56.0898E+06     18.2872E+06    -44.3442E+06    -44.0153E+06     17.9583E+06     56.0898E+06     4.45513E+06         61.3820
            1459     10.3612E-03     111.922E-03         5.31554        -1.67804        -2.37615        -1.65872         5.29621        -2.37615     159.742E-03     455.867E-03    -227.754E-03    -228.113E-03    -226.752E-03     454.535E-03    -227.782E-03     60.1585E-03     66.3870E+06     23.7167E+06    -36.3550E+06    -36.1276E+06     23.4894E+06     66.3870E+06     3.65729E+06         63.4450
            1460     11.1587E-03     112.016E-03         5.11402        -1.52602        -2.31872        -1.52025         5.10824        -2.31872    -285.892E-03     457.105E-03    -227.812E-03    -229.293E-03    -227.469E-03     455.282E-03    -227.812E-03     70.4299E-03     75.7111E+06     27.6467E+06    -28.8800E+06    -28.7239E+06     27.4905E+06     75.7111E+06     2.92206E+06         66.6102
            1461     11.9550E-03     112.128E-03         4.92522        -1.38535        -2.25938        -1.37714         4.91701        -2.25938     311.461E-03     457.917E-03    -227.867E-03    -230.051E-03    -227.818E-03     455.685E-03    -227.867E-03     78.2199E-03     82.5638E+06     32.4515E+06    -22.1626E+06    -22.0965E+06     32.3854E+06     82.5638E+06     1.80198E+06         70.9061
            1462     12.7528E-03     112.243E-03         4.72951        -1.23589        -2.19794        -1.22394         4.71756        -2.19794     109.631E-03     459.085E-03    -227.925E-03    -231.160E-03    -227.682E-03     455.606E-03    -227.925E-03     96.4266E-03     94.0514E+06     43.2844E+06    -15.4314E+06    -15.3915E+06     43.2445E+06     94.0514E+06     1.47613E+06         75.7816
            1463     13.5515E-03     112.411E-03         4.53182        -1.08274        -2.13445        -1.07161         4.52069        -2.13445     75.6476E-03     459.378E-03    -228.000E-03    -231.378E-03    -227.559E-03     455.559E-03    -228.000E-03     101.890E-03     120.196E+06     66.4203E+06    -7.91589E+06    -7.88109E+06     66.3855E+06     120.196E+06     1.37609E+06         80.0553
            1464     795.052E-06     113.133E-03         6.73199        -2.39758        -3.01099        -2.40129         6.72741        -3.00270    -116.068E-03     456.892E-03    -227.797E-03    -229.095E-03    -228.297E-03     456.891E-03    -228.594E-03     351.291E-06    -129.883E+06    -135.469E+06    -247.610E+06    -133.913E+06    -247.578E+06    -131.471E+06     1.16249E+06         57.8204
            1465     1.59081E-03     113.131E-03         6.73177        -2.68843        -2.70887        -2.68571         6.71904        -2.69886    -657.223E-03     455.678E-03    -227.391E-03    -228.287E-03    -227.389E-03     455.676E-03    -228.287E-03     1.33181E-03    -120.824E+06    -130.766E+06    -235.639E+06    -130.814E+06    -235.590E+06    -120.824E+06     1.99942E+06         57.8375
            1466     2.38968E-03     113.133E-03         6.70739        -2.67909        -2.69191        -2.64973         6.67512        -2.68900     209.284E-03     455.305E-03    -227.269E-03    -228.036E-03    -227.265E-03     455.301E-03    -228.036E-03     2.86149E-03    -104.092E+06    -125.044E+06    -218.167E+06    -125.154E+06    -218.056E+06    -104.092E+06     2.98548E+06         57.8704
            1467     3.18642E-03     113.134E-03         6.68218        -2.66683        -2.67455        -2.60235         6.61652        -2.67337    -252.696E-03     455.505E-03    -227.501E-03    -228.005E-03    -227.521E-03     455.492E-03    -227.971E-03     5.73628E-03    -83.8143E+06    -117.457E+06    -192.816E+06    -117.648E+06    -192.625E+06    -83.8143E+06     3.51108E+06         57.9250
            1468     3.98210E-03     113.141E-03         6.61949        -2.62252        -2.65277        -2.54063         6.53760        -2.65277    -60.8622E-03     455.167E-03    -227.167E-03    -228.000E-03    -227.169E-03     455.135E-03    -227.966E-03     9.22302E-03    -62.1368E+06    -108.680E+06    -164.874E+06    -108.998E+06    -164.557E+06    -62.1368E+06     4.07731E+06         58.0084
            1469     4.78029E-03     113.155E-03         6.47946        -2.50794        -2.62703        -2.46361         6.43514        -2.62703     513.012E-03     454.438E-03    -226.537E-03    -227.900E-03    -226.468E-03     454.368E-03    -227.900E-03     13.5359E-03    -40.3543E+06    -98.7690E+06    -136.153E+06    -99.4432E+06    -135.479E+06    -40.3543E+06     4.60450E+06         58.1297
            1470     5.57759E-03     113.175E-03         6.32288        -2.38098        -2.59615        -2.37338         6.31529        -2.59615    -153.367E-03     454.305E-03    -226.500E-03    -227.804E-03    -226.370E-03     454.175E-03    -227.804E-03     18.6290E-03    -19.4229E+06    -86.7569E+06    -106.444E+06    -90.0775E+06    -103.123E+06    -19.4229E+06     5.47418E+06         58.3000
            1471     6.37535E-03     113.204E-03         6.19066        -2.27972        -2.56071        -2.27706         6.18800        -2.56071     295.673E-03     454.608E-03    -226.861E-03    -227.747E-03    -226.638E-03     454.386E-03    -227.747E-03     24.4050E-03     673.485E+03    -63.5508E+06    -84.5766E+06    -80.7061E+06    -67.4213E+06     673.485E+03     6.09042E+06         58.5353
            1472     7.17310E-03     113.242E-03         6.04604        -2.16662        -2.52095        -2.16504         6.04445        -2.52095     28.2508E-03     455.067E-03    -227.333E-03    -227.734E-03    -226.980E-03     454.714E-03    -227.734E-03     30.8463E-03     20.3705E+06    -24.6957E+06    -71.6363E+06    -70.4402E+06    -25.8917E+06     20.3705E+06     6.96398E+06         58.8636
            1473     7.96807E-03     113.289E-03         5.89680        -2.05168        -2.47697        -2.04742         5.89254        -2.47697     140.298E-03     455.350E-03    -227.600E-03    -227.750E-03    -227.080E-03     454.830E-03    -227.750E-03     37.5455E-03     35.5694E+06     3.12936E+06    -62.2570E+06    -61.1741E+06     2.04642E+06     35.5694E+06     8.14043E+06         59.3441
            1474     8.76603E-03     113.347E-03         5.75174        -1.94446        -2.42953        -1.92891         5.73620        -2.42953    -184.772E-03     455.348E-03    -227.577E-03    -227.771E-03    -226.838E-03     454.602E-03    -227.764E-03     44.9317E-03     47.0971E+06     14.4192E+06    -53.3714E+06    -52.5010E+06     13.5487E+06     47.0971E+06     7.52465E+06         60.0970
            1475     9.56321E-03     113.417E-03         5.59645        -1.83108        -2.37925        -1.80702         5.57239        -2.37925    -3.43625E-03     455.797E-03    -227.706E-03    -228.091E-03    -227.019E-03     454.795E-03    -227.777E-03     52.1900E-03     57.6033E+06     21.0693E+06    -44.6532E+06    -44.2104E+06     20.6265E+06     57.6033E+06     5.21429E+06         61.3383
            1476     10.3606E-03     113.496E-03         5.41828        -1.69677        -2.32640        -1.67953         5.40104        -2.32640     154.929E-03     456.319E-03    -227.807E-03    -228.512E-03    -227.195E-03     455.002E-03    -227.807E-03     59.8528E-03     67.2355E+06     24.5407E+06    -36.6744E+06    -36.4532E+06     24.3195E+06     67.2355E+06     3.63038E+06         63.3823
            1477     11.1582E-03     113.592E-03         5.23334        -1.55695        -2.27121        -1.55187         5.22826        -2.27121    -274.448E-03     456.740E-03    -227.839E-03    -228.901E-03    -227.084E-03     454.923E-03    -227.839E-03     70.2456E-03     76.8329E+06     29.1113E+06    -28.7789E+06    -28.6080E+06     28.9404E+06     76.8329E+06     3.12443E+06         66.5420
            1478     11.9563E-03     113.705E-03         5.05982        -1.42859        -2.21403        -1.42081         5.05204        -2.21403     304.180E-03     457.397E-03    -227.865E-03    -229.531E-03    -227.317E-03     455.182E-03    -227.865E-03     77.8673E-03     83.9271E+06     33.8756E+06    -22.0029E+06    -21.8804E+06     33.7532E+06     83.9271E+06     2.54193E+06         70.8660
            1479     12.7534E-03     113.820E-03         4.88286        -1.29504        -2.15474        -1.28336         4.87118        -2.15474     96.8737E-03     459.495E-03    -227.921E-03    -231.574E-03    -228.124E-03     456.045E-03    -227.921E-03     96.0493E-03     94.9385E+06     44.6789E+06    -15.4275E+06    -15.3701E+06     44.6215E+06     94.9385E+06     1.64823E+06         75.8045
            1480     13.5494E-03     113.988E-03         4.70614        -1.16112        -2.09362        -1.14988         4.69489        -2.09362     72.7954E-03     459.387E-03    -228.009E-03    -231.377E-03    -227.553E-03     455.563E-03    -228.009E-03     102.002E-03     120.571E+06     67.5511E+06    -8.03353E+06    -8.02390E+06     67.5415E+06     120.571E+06     636.212E+03         80.1490
            1481     796.965E-06     114.712E-03         6.61294        -2.35113        -2.80979        -2.34271         6.57274        -2.77800     207.312E-03     455.671E-03    -227.469E-03    -228.202E-03    -227.523E-03     455.671E-03    -228.148E-03     999.229E-06    -130.990E+06    -136.570E+06    -252.250E+06    -135.031E+06    -252.201E+06    -132.579E+06     1.38195E+06         57.8108
            1482     1.59375E-03     114.709E-03         6.58708        -2.54485        -2.59208        -2.55975         6.57019        -2.56030    -738.103E-03     455.557E-03    -227.490E-03    -228.067E-03    -227.693E-03     455.555E-03    -227.862E-03     1.90982E-03    -121.023E+06    -131.387E+06    -239.221E+06    -131.441E+06    -239.167E+06    -121.023E+06      2.2746E+06         57.8298
            1483     2.38934E-03     114.707E-03         6.54622        -2.53477        -2.55430        -2.51097         6.52124        -2.55311     250.518E-03     455.439E-03    -227.389E-03    -228.050E-03    -227.561E-03     455.434E-03    -227.873E-03     3.32579E-03    -103.959E+06    -125.450E+06    -221.772E+06    -125.582E+06     -221.64E+06    -103.959E+06     3.37160E+06         57.8643
            1484     3.18656E-03     114.711E-03         6.53319        -2.53242        -2.53891        -2.47359         6.47315        -2.53772    -279.848E-03     455.434E-03    -227.481E-03    -227.953E-03    -227.528E-03     455.421E-03    -227.893E-03     5.59742E-03    -83.9132E+06    -117.503E+06    -195.710E+06    -117.742E+06    -195.472E+06    -83.9132E+06     4.17584E+06         57.9200
            1485     3.98332E-03     114.718E-03         6.48323        -2.49950        -2.51913        -2.42093         6.40465        -2.51912    -47.9278E-03     455.196E-03    -227.253E-03    -227.943E-03    -227.255E-03     455.164E-03    -227.909E-03     9.14455E-03    -62.7598E+06    -108.815E+06    -167.289E+06    -109.178E+06    -166.927E+06    -62.7598E+06     4.42910E+06         58.0040
            1486     4.77935E-03     114.729E-03         6.36349        -2.40218        -2.49641        -2.35805         6.31936        -2.49641     470.061E-03     454.766E-03    -226.878E-03    -227.888E-03    -226.807E-03     454.695E-03    -227.888E-03     13.7384E-03    -41.4224E+06    -99.6492E+06    -139.953E+06    -100.531E+06    -139.071E+06    -41.4224E+06     5.46187E+06         58.1251
            1487     5.57752E-03     114.750E-03         6.22553        -2.28887        -2.46924        -2.27997         6.21663        -2.46924    -155.599E-03     454.522E-03    -226.687E-03    -227.835E-03    -226.555E-03     454.391E-03    -227.835E-03     18.7833E-03    -19.8255E+06    -87.2245E+06    -110.271E+06    -90.8900E+06    -106.606E+06    -19.8255E+06     6.75358E+06         58.2947
            1488     6.37465E-03     114.780E-03         6.10828        -2.19748        -2.43765        -2.19488         6.10567        -2.43765     277.458E-03     454.576E-03    -226.792E-03    -227.784E-03    -226.576E-03     454.361E-03    -227.784E-03     24.0669E-03     1.01554E+06    -63.9918E+06    -86.3965E+06    -80.8643E+06    -69.5240E+06     1.01554E+06     7.28854E+06         58.5281
            1489     7.17152E-03     114.817E-03         5.97825        -2.09469        -2.40168        -2.09371         5.97727        -2.40168     6.72239E-03     454.643E-03    -226.902E-03    -227.741E-03    -226.552E-03     454.293E-03    -227.741E-03     30.6310E-03     19.4550E+06    -28.5781E+06    -73.6736E+06    -72.0093E+06    -30.2424E+06     19.4550E+06     7.97271E+06         58.8531
            1490     7.97031E-03     114.867E-03         5.84859        -1.99535        -2.36164        -1.99176         5.84500        -2.36164     135.942E-03     454.892E-03    -227.179E-03    -227.713E-03    -226.658E-03     454.371E-03    -227.713E-03     37.5569E-03     35.7415E+06     1.87989E+06    -63.0172E+06    -61.9440E+06     806.682E+03     35.7415E+06     8.15135E+06         59.3275
            1491     8.76686E-03     114.922E-03         5.72356        -1.90549        -2.31853        -1.89106         5.70913        -2.31853    -191.496E-03     455.437E-03    -227.591E-03    -227.846E-03    -226.978E-03     454.693E-03    -227.715E-03     44.8515E-03     48.1187E+06     16.4531E+06    -53.1180E+06    -52.3398E+06     15.6749E+06     48.1187E+06     7.28523E+06         60.0691
            1492     9.56440E-03     114.994E-03         5.58817        -1.80740        -2.27284        -1.78503         5.56579        -2.27284    -10.9817E-03     456.149E-03    -227.751E-03    -228.398E-03    -227.381E-03     455.132E-03    -227.751E-03     52.6062E-03     58.5687E+06     23.6242E+06    -44.6679E+06    -44.0916E+06     23.0479E+06     58.5687E+06     6.19724E+06         61.2925
            1493     10.3603E-03     115.074E-03         5.43260        -1.68958        -2.22469        -1.67375         5.41677        -2.22469     143.641E-03     456.779E-03    -227.817E-03    -228.962E-03    -227.630E-03     455.447E-03    -227.817E-03     60.2551E-03     69.0807E+06     27.4465E+06    -36.2645E+06    -35.9223E+06     27.1043E+06     69.0807E+06     4.56647E+06         63.3161
            1494     11.1570E-03     115.168E-03         5.27112        -1.56547        -2.17421        -1.56071         5.26635        -2.17421    -274.803E-03     456.874E-03    -227.869E-03    -229.005E-03    -227.196E-03     455.065E-03    -227.869E-03     70.1223E-03     77.9418E+06     29.7854E+06    -28.6879E+06    -28.4857E+06     29.5832E+06     77.9418E+06     3.41462E+06         66.4682
            1495     11.9553E-03     115.279E-03         5.11816        -1.45064        -2.12161        -1.44352         5.11104        -2.12161     283.985E-03     457.122E-03    -227.885E-03    -229.236E-03    -227.002E-03     454.887E-03    -227.885E-03     78.1649E-03     84.8289E+06     34.3612E+06    -21.3881E+06    -21.2233E+06     34.1963E+06     84.8289E+06     3.02374E+06         70.8187
            1496     12.7528E-03     115.399E-03         4.96601        -1.33885        -2.06685        -1.32792         4.95509        -2.06685     84.4132E-03     458.952E-03    -227.910E-03    -231.041E-03    -227.569E-03     455.479E-03    -227.910E-03     96.3677E-03     95.9577E+06     47.0614E+06    -14.8117E+06    -14.7281E+06     46.9778E+06     95.9577E+06     1.99879E+06         75.8250
            1497     13.5518E-03     115.563E-03         4.81507        -1.22836        -2.01065        -1.21771         4.80443        -2.01065     66.0831E-03     459.112E-03    -227.979E-03    -231.134E-03    -227.325E-03     455.304E-03    -227.979E-03     101.730E-03     121.739E+06     69.8902E+06    -7.84217E+06    -7.83206E+06     69.8801E+06     121.739E+06     511.299E+03         80.2476
            1498     797.094E-06     116.286E-03         6.50787        -2.35066        -2.59900        -2.21439         6.28473        -2.51212     817.330E-03     454.428E-03    -227.010E-03    -227.418E-03    -227.196E-03     454.428E-03    -227.232E-03     515.817E-06    -132.681E+06    -138.204E+06    -256.993E+06    -136.655E+06    -256.953E+06    -134.270E+06     982.592E+03         57.7933
            1499     1.59378E-03     116.285E-03         6.34483        -2.34613        -2.43449        -2.37182         6.30106        -2.36504    -926.445E-03     455.275E-03    -227.400E-03    -227.875E-03    -227.874E-03     455.274E-03    -227.400E-03     1.21123E-03    -122.197E+06    -132.303E+06    -243.511E+06    -132.364E+06    -243.450E+06    -122.197E+06     2.21596E+06         57.8150
            1500     2.39048E-03     116.285E-03         6.26271        -2.33584        -2.36035        -2.32245         6.24931        -2.36035     332.089E-03     455.561E-03    -227.586E-03    -227.975E-03    -227.896E-03     455.557E-03    -227.661E-03     3.23138E-03    -104.975E+06    -125.957E+06    -225.672E+06    -126.086E+06    -225.544E+06    -104.975E+06     3.49440E+06         57.8527
            1501     3.18595E-03     116.287E-03         6.26097        -2.34029        -2.34696        -2.29360         6.21427        -2.34695    -334.129E-03     455.078E-03    -227.293E-03    -227.785E-03    -227.304E-03     455.063E-03    -227.759E-03     6.05803E-03    -84.9635E+06    -117.926E+06    -199.334E+06    -118.217E+06    -199.042E+06    -84.9635E+06     4.66936E+06         57.9115
            1502     3.98341E-03     116.293E-03         6.22453        -2.32005        -2.33133        -2.25136         6.15584        -2.33132    -22.1874E-03     454.881E-03    -227.118E-03    -227.763E-03    -227.083E-03     454.846E-03    -227.763E-03     9.55859E-03    -63.4713E+06    -109.573E+06    -170.944E+06    -110.123E+06    -170.394E+06    -63.4713E+06     5.64359E+06         57.9987
            1503     4.78126E-03     116.306E-03         6.12690        -2.23988        -2.31219        -2.19956         6.08658        -2.31219     415.852E-03     455.132E-03    -227.343E-03    -227.789E-03    -227.268E-03     455.058E-03    -227.789E-03     14.0415E-03    -41.4273E+06    -100.222E+06    -143.345E+06    -101.194E+06    -142.372E+06    -41.4273E+06     6.15956E+06         58.1225
            1504     5.57693E-03     116.326E-03         6.01241        -2.14509        -2.28917        -2.13610         6.00342        -2.28917    -149.889E-03     454.931E-03    -227.117E-03    -227.813E-03    -226.979E-03     454.793E-03    -227.813E-03     19.2057E-03    -20.3684E+06    -88.4568E+06    -113.678E+06    -91.3852E+06    -110.750E+06    -20.3684E+06     6.90518E+06         58.2929
            1505     6.37448E-03     116.355E-03         5.91973        -2.07029        -2.26233        -2.06787         5.91731        -2.26233     252.846E-03     454.621E-03    -226.829E-03    -227.792E-03    -226.594E-03     454.386E-03    -227.792E-03     25.0898E-03      27.028E+03    -65.4044E+06    -89.6513E+06    -81.7689E+06    -73.2867E+06      27.028E+03     8.68576E+06         58.5248
            1506     7.17208E-03     116.393E-03         5.81502        -1.98672        -2.23171        -1.98599         5.81429        -2.23171    -15.7520E-03     454.772E-03    -226.908E-03    -227.864E-03    -226.659E-03     454.417E-03    -227.758E-03     30.9947E-03     20.4071E+06    -28.9858E+06    -74.5231E+06    -72.1044E+06    -31.4045E+06     20.4071E+06     9.27001E+06         58.8457
            1507     7.96933E-03     116.440E-03         5.70955        -1.90713        -2.19755        -1.90378         5.70620        -2.19755     125.921E-03     455.040E-03    -227.194E-03    -227.846E-03    -226.806E-03     454.546E-03    -227.739E-03     36.5964E-03     35.9427E+06     1.50035E+06    -64.0029E+06    -62.9086E+06     406.043E+03     35.9427E+06     8.24941E+06         59.3115
            1508     8.76706E-03     116.501E-03         5.60915        -1.83660        -2.16069        -1.82233         5.59488        -2.16069    -199.627E-03     455.401E-03    -227.534E-03    -227.867E-03    -226.962E-03     454.705E-03    -227.743E-03     43.4103E-03     47.5287E+06     17.2019E+06    -54.4962E+06    -53.7440E+06     16.4496E+06     47.5287E+06     7.26493E+06         60.0381
            1509     9.56328E-03     116.568E-03         5.49837        -1.75726        -2.12145        -1.73566         5.47677        -2.12145    -26.6875E-03     455.775E-03    -227.669E-03    -228.105E-03    -227.016E-03     454.783E-03    -227.767E-03     51.8269E-03     58.9479E+06     25.2257E+06    -45.3991E+06    -44.8251E+06     24.6517E+06     58.9479E+06     6.33441E+06         61.2405
            1510     10.3614E-03     116.654E-03         5.36819        -1.65712        -2.07985        -1.64232         5.35339        -2.07985     130.816E-03     456.250E-03    -227.756E-03    -228.494E-03    -227.114E-03     454.912E-03    -227.798E-03     60.3452E-03     69.1024E+06     29.0409E+06    -37.6950E+06    -37.2134E+06     28.5593E+06     69.1024E+06     5.61008E+06         63.2437
            1511     11.1581E-03     116.744E-03         5.23561        -1.55367        -2.03602        -1.54905         5.23099        -2.03602    -277.483E-03     456.972E-03    -227.836E-03    -229.136E-03    -227.300E-03     455.137E-03    -227.836E-03     70.6063E-03     78.0771E+06     31.6170E+06    -30.3900E+06    -30.0669E+06     31.2939E+06     78.0771E+06     4.37477E+06         66.3901
            1512     11.9551E-03     116.856E-03         5.11026        -1.45893        -1.99022        -1.45258         5.10391        -1.99022     258.517E-03     457.212E-03    -227.861E-03    -229.351E-03    -227.043E-03     454.904E-03    -227.861E-03     79.4286E-03     85.2980E+06     35.4825E+06    -23.0823E+06    -22.9139E+06     35.3140E+06     85.2980E+06     3.10474E+06         70.7697
            1513     12.7538E-03     116.973E-03         4.98635        -1.36922        -1.94230        -1.35928         4.97642        -1.94230     72.1199E-03     458.533E-03    -227.876E-03    -230.657E-03    -227.150E-03     455.026E-03    -227.876E-03     96.9538E-03     97.3288E+06     49.6897E+06    -15.6665E+06    -15.5975E+06     49.6207E+06     97.3288E+06     1.74384E+06         75.8476
            1514     13.5518E-03     117.138E-03         4.86508        -1.28289        -1.89318        -1.27338         4.85557        -1.89318     53.0927E-03     459.008E-03    -227.934E-03    -231.074E-03    -227.290E-03     455.224E-03    -227.934E-03     101.382E-03     123.222E+06     72.6192E+06    -7.99691E+06    -7.98942E+06     72.6117E+06     123.222E+06     252.710E+03         80.3526
            1515     797.545E-06     117.860E-03         6.59688        -2.19932        -2.74717        -2.04566         5.89537        -2.19932         1.71612     454.655E-03    -227.189E-03    -227.465E-03    -227.321E-03     454.655E-03    -227.334E-03     174.820E-06    -132.628E+06    -137.678E+06    -260.363E+06    -136.500E+06    -260.335E+06    -133.835E+06     1.17924E+06         57.7794
            1516     1.59412E-03     117.861E-03         6.05563        -2.10580        -2.28425        -2.13576         5.92647        -2.12513        -1.18747     454.937E-03    -227.252E-03    -227.685E-03    -227.521E-03     454.936E-03    -227.415E-03     1.23431E-03    -123.299E+06    -132.416E+06    -248.453E+06    -132.458E+06    -248.412E+06    -123.299E+06     1.82722E+06         57.8011
            1517     2.39006E-03     117.861E-03         5.89207        -2.10055        -2.12315        -2.09194         5.88290        -2.12259     450.091E-03     454.805E-03    -227.164E-03    -227.640E-03    -227.298E-03     454.801E-03    -227.503E-03     2.91652E-03    -106.792E+06    -126.232E+06    -229.958E+06    -126.347E+06    -229.843E+06    -106.792E+06     3.24078E+06         57.8400
            1518     3.18826E-03     117.862E-03         5.89412        -2.10593        -2.11302        -2.07585         5.86349        -2.11246    -405.922E-03     454.653E-03    -227.123E-03    -227.530E-03    -227.109E-03     454.639E-03    -227.530E-03     5.90669E-03    -86.9738E+06    -119.374E+06    -203.699E+06    -119.655E+06    -203.419E+06    -86.9738E+06     4.69011E+06         57.9015
            1519     3.98498E-03     117.869E-03         5.87116        -2.09420        -2.10181        -2.04132         5.81723        -2.10076     15.4959E-03     454.929E-03    -227.323E-03    -227.606E-03    -227.308E-03     454.893E-03    -227.585E-03     9.71452E-03    -64.0549E+06    -110.135E+06    -175.571E+06    -110.778E+06    -174.928E+06    -64.0549E+06     6.21411E+06         57.9919
            1520     4.78073E-03     117.882E-03         5.79884        -2.03713        -2.08699        -2.00472         5.76538        -2.08593     360.971E-03     455.101E-03    -227.410E-03    -227.690E-03    -227.357E-03     455.026E-03    -227.669E-03     14.0414E-03    -41.1413E+06    -99.6927E+06    -146.486E+06    -101.003E+06    -145.175E+06    -41.1413E+06     7.40503E+06         58.1186
            1521     5.57823E-03     117.903E-03         5.71050        -1.96379        -2.06804        -1.95622         5.70294        -2.06804    -136.026E-03     455.042E-03    -227.310E-03    -227.731E-03    -227.175E-03     454.906E-03    -227.731E-03     19.0661E-03    -20.3464E+06    -89.0816E+06    -116.801E+06    -92.0112E+06    -113.871E+06    -20.3464E+06     7.73498E+06         58.2905
            1522     6.37520E-03     117.929E-03         5.64484        -1.90984        -2.04700        -1.90777         5.64277        -2.04700     230.427E-03     455.035E-03    -227.259E-03    -227.776E-03    -227.046E-03     454.806E-03    -227.759E-03     24.7836E-03    -672.216E+03    -69.0095E+06    -91.4341E+06    -82.3306E+06    -78.1131E+06    -672.216E+03     8.43856E+06         58.5213
            1523     7.17257E-03     117.970E-03         5.57060        -1.84834        -2.02290        -1.84729         5.56956        -2.02290    -34.2515E-03     455.107E-03    -227.215E-03    -227.892E-03    -226.985E-03     454.754E-03    -227.769E-03     30.8580E-03     19.5525E+06    -31.7154E+06    -74.8538E+06    -71.8701E+06    -34.6991E+06     19.5525E+06     10.2138E+06         58.8374
            1524     7.96809E-03     118.019E-03         5.49360        -1.79013        -1.99584        -1.78632         5.48979        -1.99584     108.343E-03     455.317E-03    -227.367E-03    -227.950E-03    -227.014E-03     454.792E-03    -227.778E-03     37.6069E-03     36.6599E+06     2.26154E+06    -64.6137E+06    -62.8002E+06     448.098E+03     36.6599E+06     10.6095E+06         59.2936
            1525     8.76474E-03     118.075E-03         5.42249        -1.74197        -1.96650        -1.72677         5.40728        -1.96650    -204.351E-03     455.536E-03    -227.622E-03    -227.914E-03    -227.008E-03     454.796E-03    -227.788E-03     44.7840E-03     48.4104E+06     19.7635E+06    -56.0318E+06    -54.9198E+06     18.6515E+06     48.4104E+06     8.96544E+06         60.0043
            1526     9.56317E-03     118.147E-03         5.34170        -1.68480        -1.93517        -1.66290         5.31980        -1.93517    -47.0012E-03     455.481E-03    -227.628E-03    -227.853E-03    -226.688E-03     454.480E-03    -227.792E-03     52.1065E-03     58.8120E+06     27.0275E+06    -47.0723E+06    -46.3534E+06     26.3086E+06     58.8120E+06     7.21512E+06         61.1848
            1527     10.3605E-03     118.226E-03         5.23922        -1.60455        -1.90167        -1.59002         5.22469        -1.90167     114.079E-03     455.510E-03    -227.636E-03    -227.875E-03    -226.388E-03     454.170E-03    -227.782E-03     60.3023E-03     69.2616E+06     29.9633E+06    -38.3554E+06    -37.8580E+06     29.4658E+06     69.2616E+06     5.69461E+06         63.1670
            1528     11.1593E-03     118.322E-03         5.13852        -1.52502        -1.86603        -1.52020         5.13369        -1.86603    -279.817E-03     456.379E-03    -227.740E-03    -228.639E-03    -226.768E-03     454.546E-03    -227.778E-03     70.5197E-03     79.0301E+06     33.5281E+06    -30.3168E+06    -29.9712E+06     33.1825E+06     79.0301E+06     4.58900E+06         66.3095
            1529     11.9570E-03     118.430E-03         5.04658        -1.45568        -1.82882        -1.45046         5.04136        -1.82882     230.648E-03     457.089E-03    -227.791E-03    -229.298E-03    -227.023E-03     454.814E-03    -227.791E-03     78.8602E-03     87.1175E+06     38.4995E+06    -22.4441E+06    -22.2538E+06     38.3093E+06     87.1175E+06     3.24070E+06         70.7217
            1530     12.7546E-03     118.549E-03         4.95428        -1.38904        -1.78974        -1.38060         4.94584        -1.78974     55.0587E-03     458.484E-03    -227.813E-03    -230.671E-03    -227.143E-03     454.956E-03    -227.813E-03     97.1100E-03     99.4068E+06     52.2832E+06    -14.6933E+06    -14.6478E+06     52.2377E+06     99.4068E+06     1.41110E+06         75.8739
            1531     13.5526E-03     118.714E-03         4.86303        -1.32559        -1.74946        -1.31758         4.85502        -1.74946     38.4032E-03     459.268E-03    -227.880E-03    -231.388E-03    -227.537E-03     455.418E-03    -227.880E-03     102.303E-03     124.935E+06     74.1007E+06    -7.33036E+06    -7.32737E+06     74.0977E+06     124.935E+06     228.003E+03         80.4639
            1532     795.825E-06     119.434E-03         6.93107        -1.86106        -3.33356        -1.84398         5.44149        -1.86106         2.69555     455.492E-03    -227.542E-03    -227.950E-03    -227.652E-03     455.491E-03    -227.839E-03     19.5361E-06    -132.015E+06    -136.911E+06    -263.135E+06    -135.731E+06    -263.108E+06    -133.222E+06     1.20206E+06         57.7745
            1533     1.59308E-03     119.437E-03         5.78088        -1.84729        -2.18536        -1.87191         5.47657        -1.85643        -1.48415     454.659E-03    -227.014E-03    -227.646E-03    -227.013E-03     454.659E-03    -227.646E-03     886.047E-06    -123.814E+06    -132.797E+06    -252.196E+06    -132.837E+06    -252.155E+06    -123.814E+06     1.86549E+06         57.7948
            1534     2.39138E-03     119.435E-03         5.47437        -1.84575        -1.86714        -1.82882         5.44605        -1.85574     584.599E-03     454.424E-03    -226.934E-03    -227.490E-03    -226.931E-03     454.421E-03    -227.490E-03     2.18850E-03    -107.774E+06    -127.485E+06    -234.829E+06    -127.579E+06    -234.734E+06    -107.774E+06     3.03109E+06         57.8330
            1535     3.18777E-03     119.437E-03         5.45899        -1.84240        -1.84844        -1.82524         5.44127        -1.84788    -491.122E-03     454.750E-03    -227.270E-03    -227.481E-03    -227.260E-03     454.741E-03    -227.481E-03     4.92656E-03    -88.0674E+06    -119.846E+06    -208.307E+06    -120.094E+06    -208.058E+06    -88.0674E+06     4.46470E+06         57.8943
            1536     3.98463E-03     119.445E-03         5.44892        -1.83549        -1.84615        -1.80451         5.41190        -1.84012     52.3558E-03     454.858E-03    -227.280E-03    -227.578E-03    -227.270E-03     454.827E-03    -227.557E-03     8.74070E-03    -65.6093E+06    -110.718E+06    -180.639E+06    -111.279E+06    -180.078E+06    -65.6093E+06     6.02319E+06         57.9848
            1537     4.78200E-03     119.459E-03         5.40602        -1.80615        -1.83669        -1.78784         5.38168        -1.83067     301.098E-03     454.721E-03    -227.081E-03    -227.639E-03    -227.034E-03     454.653E-03    -227.618E-03     13.3805E-03    -42.3165E+06    -100.011E+06    -151.178E+06    -101.279E+06    -149.910E+06    -42.3165E+06     7.49307E+06         58.1114
            1538     5.57857E-03     119.478E-03         5.34768        -1.76288        -1.81924        -1.75780         5.34260        -1.81924    -123.363E-03     455.063E-03    -227.351E-03    -227.712E-03    -227.257E-03     454.928E-03    -227.671E-03     18.9285E-03    -20.0330E+06    -87.7351E+06    -120.466E+06    -91.0608E+06    -117.140E+06    -20.0330E+06     9.00068E+06         58.2830
            1539     6.37481E-03     119.508E-03         5.30753        -1.72657        -1.80508        -1.72500         5.30596        -1.80508     204.315E-03     455.473E-03    -227.673E-03    -227.799E-03    -227.500E-03     455.241E-03    -227.741E-03     24.9594E-03    -8.45637E+03    -69.6267E+06    -94.3248E+06    -81.8818E+06    -82.0697E+06    -8.45637E+03     9.95968E+06         58.5121
            1540     7.17050E-03     119.546E-03         5.26239        -1.68529        -1.78818        -1.68340         5.26050        -1.78818    -45.0668E-03     455.060E-03    -227.270E-03    -227.790E-03    -226.928E-03     454.702E-03    -227.774E-03     31.0714E-03     18.6696E+06    -36.0486E+06    -77.2039E+06    -73.1730E+06    -40.0795E+06     18.6696E+06     11.1225E+06         58.8234
            1541     7.97040E-03     119.593E-03         5.21670        -1.64782        -1.76865        -1.64296         5.21185        -1.76865     86.7290E-03     454.948E-03    -227.124E-03    -227.824E-03    -226.654E-03     454.413E-03    -227.759E-03     37.9834E-03     36.6043E+06     1.71618E+06    -65.5888E+06    -63.3677E+06    -504.872E+03     36.6043E+06     11.8279E+06         59.2709
            1542     8.76746E-03     119.654E-03         5.17665        -1.62341        -1.74725        -1.60637         5.15960        -1.74725    -206.808E-03     455.340E-03    -227.466E-03    -227.874E-03    -226.843E-03     454.591E-03    -227.748E-03     45.0518E-03     50.4158E+06     22.9802E+06    -55.2626E+06    -53.7924E+06     21.5101E+06     50.4158E+06     10.5432E+06         59.9682
            1543     9.56319E-03     119.721E-03         5.12788        -1.59214        -1.72450        -1.56870         5.10444        -1.72450    -62.8876E-03     455.352E-03    -227.549E-03    -227.803E-03    -226.587E-03     454.329E-03    -227.742E-03     52.6454E-03     60.5216E+06     30.2469E+06    -46.4346E+06    -45.5139E+06     29.3262E+06     60.5216E+06     8.28087E+06         61.1302
            1544     10.3614E-03     119.803E-03         5.05933        -1.53820        -1.70015        -1.52288         5.04401        -1.70015     99.3292E-03     455.489E-03    -227.599E-03    -227.890E-03    -226.380E-03     454.113E-03    -227.733E-03     61.1166E-03     71.3330E+06     33.1261E+06    -37.7328E+06    -37.2076E+06     32.6010E+06     71.3330E+06     5.96650E+06         63.0935
            1545     11.1591E-03     119.895E-03         4.99291        -1.48415        -1.67396        -1.47877         4.98753        -1.67396    -274.007E-03     456.266E-03    -227.692E-03    -228.575E-03    -226.670E-03     454.400E-03    -227.730E-03     71.1825E-03     81.3500E+06     35.0897E+06    -29.4882E+06    -29.1802E+06     34.7817E+06     81.3500E+06     4.32948E+06         66.2316
            1546     11.9571E-03     120.009E-03         4.93453        -1.43871        -1.64649        -1.43465         4.93046        -1.64649     215.861E-03     456.784E-03    -227.733E-03    -229.051E-03    -226.797E-03     454.530E-03    -227.733E-03     78.4867E-03     89.2924E+06     41.7059E+06    -21.7694E+06    -21.6132E+06     41.5497E+06     89.2924E+06     2.92057E+06         70.6752
            1547     12.7553E-03     120.122E-03         4.87525        -1.39605        -1.61734        -1.38937         4.86857        -1.61734     44.8712E-03     458.413E-03    -227.754E-03    -230.659E-03    -227.163E-03     454.917E-03    -227.754E-03     96.5547E-03     100.861E+06     54.3899E+06    -14.5641E+06    -14.5130E+06     54.3388E+06     100.861E+06     1.77708E+06         75.9016
            1548     13.5549E-03     120.290E-03         4.81643        -1.35612        -1.58691        -1.34953         4.80984        -1.58691     39.0361E-03     459.825E-03    -227.846E-03    -231.979E-03    -228.138E-03     455.984E-03    -227.846E-03     102.230E-03     126.259E+06     75.2144E+06    -7.36108E+06    -7.33548E+06     75.1888E+06     126.259E+06     1.18077E+06         80.5756
            1549     796.478E-06     121.013E-03         7.39556        -1.55235        -4.04060        -1.59209         4.94705        -1.55235         3.61512     455.360E-03    -227.478E-03    -227.882E-03    -227.630E-03     455.360E-03    -227.730E-03     518.009E-06    -133.043E+06    -139.898E+06    -268.420E+06    -137.823E+06    -268.379E+06    -135.158E+06     1.34864E+06         57.7753
            1550     1.59322E-03     121.010E-03         5.55316        -1.57521        -2.15352        -1.58625         4.98588        -1.57521        -1.75553     454.981E-03    -227.194E-03    -227.787E-03    -227.317E-03     454.980E-03    -227.663E-03     1.09667E-03    -123.436E+06    -134.071E+06    -255.141E+06    -134.118E+06    -255.094E+06    -123.436E+06     1.89696E+06         57.7954
            1551     2.39008E-03     121.009E-03         5.04686        -1.57348        -1.63356        -1.55294         4.96710        -1.57433     723.292E-03     454.956E-03    -227.246E-03    -227.710E-03    -227.327E-03     454.953E-03    -227.627E-03     2.28995E-03    -107.171E+06    -127.891E+06    -238.531E+06    -127.958E+06    -238.464E+06    -107.171E+06     2.51874E+06         57.8323
            1552     3.18720E-03     121.014E-03         4.98990        -1.56578        -1.57244        -1.55543         4.97561        -1.56849    -569.246E-03     454.952E-03    -227.306E-03    -227.645E-03    -227.297E-03     454.942E-03    -227.645E-03     4.95107E-03    -87.6055E+06    -119.447E+06    -212.958E+06    -119.632E+06    -212.773E+06    -87.6055E+06     3.90525E+06         57.8913
            1553     3.98376E-03     121.020E-03         4.98941        -1.56276        -1.57986        -1.55614         4.96756        -1.56462     90.8220E-03     454.650E-03    -226.991E-03    -227.659E-03    -226.962E-03     454.621E-03    -227.659E-03     8.63059E-03    -66.0063E+06    -110.241E+06    -185.154E+06    -110.684E+06    -184.711E+06    -66.0063E+06     5.54393E+06         57.9787
            1554     4.78102E-03     121.033E-03         4.97568        -1.55484        -1.57900        -1.55706         4.95994        -1.56104     246.345E-03     454.672E-03    -227.008E-03    -227.664E-03    -226.943E-03     454.607E-03    -227.664E-03     13.1409E-03    -43.8005E+06    -100.601E+06    -156.552E+06    -101.641E+06    -155.511E+06    -43.8005E+06     7.19282E+06         58.1021
            1555     5.57868E-03     121.054E-03         4.94585        -1.54116        -1.56325        -1.54547         4.94319        -1.55628    -109.362E-03     454.904E-03    -227.172E-03    -227.732E-03    -227.082E-03     454.773E-03    -227.691E-03     18.6680E-03    -21.8546E+06    -88.8641E+06    -127.036E+06    -92.0768E+06    -123.823E+06    -21.8546E+06     9.65445E+06         58.2702
            1556     6.37546E-03     121.085E-03         4.93021        -1.52494        -1.55311        -1.52738         4.92871        -1.54916     181.709E-03     454.877E-03    -227.119E-03    -227.758E-03    -226.930E-03     454.647E-03    -227.716E-03     24.8857E-03    -487.854E+03    -70.0919E+06    -99.2224E+06    -82.4208E+06    -86.8935E+06    -487.854E+03     11.8696E+06         58.4959
            1557     7.17342E-03     121.121E-03         4.91222        -1.50587        -1.53948        -1.50259         4.90893        -1.53948    -44.3281E-03     455.142E-03    -227.271E-03    -227.872E-03    -227.052E-03     454.779E-03    -227.727E-03     31.2971E-03     19.5102E+06    -37.8971E+06    -78.3523E+06    -72.7377E+06    -43.5117E+06     19.5102E+06     12.5632E+06         58.8034
            1558     7.96800E-03     121.170E-03         4.89454        -1.48805        -1.52749        -1.48149         4.88798        -1.52749     72.4247E-03     454.976E-03    -227.111E-03    -227.864E-03    -226.724E-03     454.444E-03    -227.720E-03     37.9232E-03     36.7039E+06     1.03253E+06    -65.9138E+06    -63.3171E+06    -1.56420E+06     36.7039E+06     12.5074E+06         59.2448
            1559     8.76595E-03     121.229E-03         4.88647        -1.47683        -1.52371        -1.46705         4.86706        -1.51408    -199.973E-03     454.445E-03    -226.767E-03    -227.678E-03    -226.017E-03     453.695E-03    -227.678E-03     44.9833E-03     51.1056E+06     25.2086E+06    -54.9667E+06    -53.3818E+06     23.6236E+06     51.1056E+06     11.0771E+06         59.9320
            1560     9.56533E-03     121.297E-03         4.87365        -1.46357        -1.52010        -1.45781         4.84776        -1.49996    -65.7530E-03     454.996E-03    -227.155E-03    -227.841E-03    -226.324E-03     453.962E-03    -227.638E-03     52.9265E-03     62.9753E+06     33.7256E+06    -45.5862E+06    -44.5510E+06     32.6905E+06     62.9753E+06     8.93632E+06         61.0795
            1561     10.3628E-03     121.377E-03         4.84006        -1.43886        -1.50426        -1.44107         4.82303        -1.48501     93.4531E-03     455.951E-03    -227.618E-03    -228.333E-03    -226.935E-03     454.582E-03    -227.647E-03     61.0151E-03     73.4402E+06     36.9180E+06    -38.1295E+06    -37.3752E+06     36.1637E+06     73.4402E+06     7.44043E+06         63.0259
            1562     11.1605E-03     121.472E-03         4.80692        -1.41247        -1.48556        -1.42304         4.80072        -1.46879    -258.104E-03     456.409E-03    -227.682E-03    -228.727E-03    -226.882E-03     454.563E-03    -227.682E-03     70.7668E-03     83.6465E+06     38.5485E+06    -29.9531E+06    -29.5373E+06     38.1327E+06     83.6465E+06     5.08609E+06         66.1581
            1563     11.9581E-03     121.583E-03         4.78225        -1.38920        -1.47013        -1.40451         4.77901        -1.45158     216.986E-03     456.734E-03    -227.701E-03    -229.033E-03    -226.801E-03     454.502E-03    -227.701E-03     78.0909E-03     91.7271E+06     44.2684E+06    -22.2231E+06    -22.0951E+06     44.1404E+06     91.7271E+06     2.83738E+06         70.6303
            1564     12.7566E-03     121.698E-03         4.75674        -1.36671        -1.45459        -1.38327         4.75148        -1.43277     39.2279E-03     459.323E-03    -227.754E-03    -231.569E-03    -228.140E-03     455.894E-03    -227.754E-03     95.8268E-03     102.385E+06     56.1048E+06    -15.6491E+06    -15.5454E+06     56.0011E+06     102.385E+06     2.66243E+06         75.9269
            1565     13.5524E-03     121.866E-03         4.73439        -1.34560        -1.44192        -1.36911         4.72879        -1.41282     48.2120E-03     459.902E-03    -227.880E-03    -232.021E-03    -228.267E-03     456.147E-03    -227.880E-03     101.113E-03     127.070E+06     77.6422E+06     -8.4463E+06    -8.37518E+06     77.5710E+06     127.070E+06     1.93620E+06         80.6847
            1566     797.429E-06     122.588E-03         7.82179        -1.23800        -4.71514        -1.33913         4.44578        -1.23800         4.37605     454.644E-03    -227.204E-03    -227.439E-03    -227.335E-03     454.644E-03    -227.308E-03     254.710E-06    -133.774E+06    -140.361E+06    -272.275E+06    -138.274E+06    -272.247E+06    -135.889E+06     806.565E+03         57.7740
            1567     1.59407E-03     122.586E-03         5.35377        -1.29087        -2.17147        -1.29944         4.48174        -1.29087        -1.96737     455.310E-03    -227.480E-03    -227.830E-03    -227.830E-03     455.310E-03    -227.480E-03     1.24569E-03    -123.368E+06    -134.015E+06    -258.485E+06    -134.089E+06    -258.411E+06    -123.368E+06     2.26009E+06         57.7952
            1568     2.38993E-03     122.586E-03         4.63900        -1.29115        -1.44023        -1.28056         4.47932        -1.29115     835.639E-03     455.427E-03    -227.528E-03    -227.899E-03    -227.744E-03     455.423E-03    -227.679E-03     2.92147E-03    -107.051E+06    -128.280E+06    -240.946E+06    -128.369E+06    -240.857E+06    -107.051E+06     2.88702E+06         57.8318
            1569     3.18642E-03     122.588E-03         4.51996        -1.28896        -1.31171        -1.29009         4.49833        -1.28896    -630.955E-03     454.897E-03    -227.163E-03    -227.733E-03    -227.152E-03     454.885E-03    -227.733E-03     5.42502E-03    -88.2470E+06    -121.255E+06    -218.168E+06    -121.424E+06    -217.999E+06    -88.2470E+06     3.83095E+06         57.8889
            1570     3.98425E-03     122.596E-03         4.51937        -1.28924        -1.31502        -1.30381         4.50815        -1.28924     124.015E-03     454.743E-03    -227.027E-03    -227.716E-03    -226.996E-03     454.711E-03    -227.716E-03     8.97374E-03    -67.3172E+06    -112.503E+06    -191.003E+06    -112.989E+06    -190.517E+06    -67.3172E+06     5.85325E+06         57.9733
            1571     4.78134E-03     122.608E-03         4.52640        -1.29061        -1.32738        -1.31831         4.51732        -1.29061     199.595E-03     454.910E-03    -227.185E-03    -227.725E-03    -227.114E-03     454.839E-03    -227.725E-03     13.6755E-03    -45.6020E+06    -102.893E+06    -161.947E+06    -104.063E+06    -160.778E+06    -45.6020E+06     7.87234E+06         58.0926
            1572     5.57716E-03     122.631E-03         4.52285        -1.29143        -1.32236        -1.32127         4.52176        -1.29143    -97.4052E-03     454.762E-03    -227.018E-03    -227.744E-03    -226.885E-03     454.629E-03    -227.744E-03     18.8352E-03    -23.8795E+06    -91.6968E+06    -132.857E+06    -94.2392E+06    -130.315E+06    -23.8795E+06     9.36483E+06         58.2560
            1573     6.37533E-03     122.658E-03         4.53182        -1.29044        -1.32296        -1.32069         4.52968        -1.29056     162.132E-03     454.465E-03    -226.742E-03    -227.723E-03    -226.523E-03     454.246E-03    -227.723E-03     24.2442E-03    -2.40810E+06    -73.1167E+06    -102.958E+06    -83.0598E+06    -93.0151E+06    -2.40810E+06     11.2800E+06         58.4774
            1574     7.17236E-03     122.699E-03         4.53967        -1.28742        -1.31922        -1.31367         4.53435        -1.28765    -39.3707E-03     454.378E-03    -226.562E-03    -227.816E-03    -226.342E-03     454.014E-03    -227.672E-03     31.2467E-03     18.5128E+06    -41.1868E+06    -79.2751E+06    -72.2945E+06    -48.1675E+06     18.5128E+06     13.2053E+06         58.7815
            1575     7.97055E-03     122.747E-03         4.54819        -1.28270        -1.32123        -1.31215         4.53942        -1.28300     61.1119E-03     454.448E-03    -226.690E-03    -227.757E-03    -226.283E-03     453.896E-03    -227.613E-03     38.6229E-03     37.1938E+06     491.046E+03    -66.3841E+06    -63.1023E+06    -2.79069E+06     37.1938E+06     13.8606E+06         59.2194
            1576     8.76851E-03     122.801E-03         4.57108        -1.27744        -1.34336        -1.32127         4.54919        -1.27763    -185.359E-03     454.691E-03    -226.875E-03    -227.815E-03    -226.360E-03     453.929E-03    -227.569E-03     45.3998E-03     51.4738E+06     28.8611E+06    -56.5471E+06    -54.6341E+06     26.9481E+06     51.4738E+06     12.4965E+06         59.8993
            1577     9.56636E-03     122.872E-03         4.59206        -1.27212        -1.36492        -1.33661         4.56375        -1.27212    -62.9904E-03     455.299E-03    -227.215E-03    -228.083E-03    -226.723E-03     454.294E-03    -227.571E-03     52.2377E-03     63.2510E+06     36.3153E+06    -47.2848E+06    -46.0217E+06     35.0522E+06     63.2510E+06     10.1666E+06         61.0316
            1578     10.3632E-03     122.955E-03         4.59194        -1.26637        -1.36405        -1.34516         4.57305        -1.26637     90.2898E-03     455.895E-03    -227.609E-03    -228.286E-03    -226.960E-03     454.570E-03    -227.609E-03     60.0095E-03     74.9057E+06     39.5252E+06    -38.6956E+06    -37.7968E+06     38.6264E+06     74.9057E+06     8.29509E+06         62.9587
            1579     11.1596E-03     123.047E-03         4.59336        -1.26001        -1.36140        -1.35431         4.58626        -1.26001    -241.289E-03     456.351E-03    -227.651E-03    -228.699E-03    -226.890E-03     454.542E-03    -227.651E-03     70.0864E-03     85.8034E+06     43.6927E+06    -30.4086E+06    -29.8441E+06     43.1281E+06     85.8034E+06     6.31355E+06         66.0830
            1580     11.9584E-03     123.157E-03         4.60344        -1.25312        -1.36563        -1.36297         4.60078        -1.25312     216.806E-03     457.423E-03    -227.699E-03    -229.724E-03    -227.493E-03     455.192E-03    -227.699E-03     78.1569E-03     93.2399E+06     46.2753E+06    -23.1231E+06    -22.7429E+06     45.8951E+06     93.2399E+06     4.86599E+06         70.5806
            1581     12.7546E-03     123.277E-03         4.61522        -1.24496        -1.37274        -1.36857         4.61104        -1.24496     29.2476E-03     459.787E-03    -227.785E-03    -232.002E-03    -228.505E-03     456.290E-03    -227.785E-03     96.7988E-03     103.738E+06     57.9894E+06    -16.3305E+06    -16.0971E+06     57.7560E+06     103.738E+06     3.67976E+06         75.9486
            1582     13.5510E-03     123.446E-03         4.63268        -1.23631        -1.38712        -1.38224         4.62780        -1.23631     53.5420E-03     459.075E-03    -227.891E-03    -231.184E-03    -227.379E-03     455.270E-03    -227.891E-03     101.617E-03     128.753E+06     81.5159E+06    -8.37334E+06    -8.31405E+06     81.4566E+06     128.753E+06     1.58922E+06         80.7990
            1583     796.906E-06     124.161E-03         8.03204    -934.602E-03        -5.16576        -1.09369         3.95996    -934.602E-03         4.84653     454.836E-03    -227.075E-03    -227.761E-03    -227.650E-03     454.836E-03    -227.186E-03     102.657E-06    -134.845E+06    -140.298E+06    -275.649E+06    -138.879E+06    -275.626E+06    -136.287E+06     1.30739E+06         57.7662
            1584     1.59365E-03     124.163E-03         5.13776        -1.01681        -2.17443        -1.02761         3.99094        -1.01681        -2.08167     454.960E-03    -227.253E-03    -227.707E-03    -227.478E-03     454.959E-03    -227.480E-03     1.33982E-03    -125.452E+06    -135.121E+06    -262.911E+06    -135.199E+06    -262.833E+06    -125.452E+06     2.55019E+06         57.7872
            1585     2.39033E-03     124.163E-03         4.25596        -1.02000        -1.27132        -1.02365         4.00829        -1.02000     900.880E-03     455.055E-03    -227.349E-03    -227.706E-03    -227.482E-03     455.051E-03    -227.570E-03     3.16344E-03    -107.377E+06    -128.635E+06    -243.718E+06    -128.779E+06    -243.575E+06    -107.377E+06     3.87929E+06         57.8244
            1586     3.18732E-03     124.164E-03         4.06926        -1.02229        -1.07698        -1.03964         4.03191        -1.02229    -665.209E-03     455.157E-03    -227.389E-03    -227.768E-03    -227.481E-03     455.144E-03    -227.664E-03     5.67141E-03    -86.8738E+06    -121.464E+06    -224.118E+06    -121.759E+06    -223.823E+06    -86.8738E+06     5.25627E+06         57.8820
            1587     3.98386E-03     124.170E-03         4.05964        -1.02647        -1.06384        -1.05905         4.05485        -1.02647     145.237E-03     455.114E-03    -227.279E-03    -227.835E-03    -227.351E-03     455.081E-03    -227.731E-03     9.21420E-03    -66.5795E+06    -113.339E+06    -197.456E+06    -114.009E+06    -196.785E+06    -66.5795E+06     7.19322E+06         57.9657
            1588     4.78023E-03     124.186E-03         4.07969        -1.03149        -1.08397        -1.07947         4.07519        -1.03149     159.165E-03     454.781E-03    -227.031E-03    -227.749E-03    -226.959E-03     454.709E-03    -227.749E-03     13.7839E-03    -45.9546E+06    -103.665E+06    -165.227E+06    -104.773E+06    -164.119E+06    -45.9546E+06     7.99855E+06         58.0831
            1589     5.57872E-03     124.205E-03         4.09884        -1.03643        -1.09714        -1.09665         4.09835        -1.03643    -86.8909E-03     454.553E-03    -226.817E-03    -227.736E-03    -226.677E-03     454.413E-03    -227.736E-03     19.2731E-03    -25.0417E+06    -92.6598E+06    -136.887E+06    -94.5760E+06    -134.971E+06    -25.0417E+06     8.62818E+06         58.2442
            1590     6.37473E-03     124.236E-03         4.13096        -1.04063        -1.11534        -1.11187         4.12749        -1.04063     143.389E-03     454.319E-03    -226.628E-03    -227.692E-03    -226.393E-03     454.084E-03    -227.692E-03     25.1186E-03    -4.76392E+06    -76.9568E+06    -106.857E+06    -84.3745E+06    -99.4393E+06    -4.76392E+06     10.4107E+06         58.4631
            1591     7.17279E-03     124.271E-03         4.16531        -1.04385        -1.13458        -1.12676         4.15749        -1.04385    -35.6463E-03     453.902E-03    -226.289E-03    -227.613E-03    -225.922E-03     453.535E-03    -227.613E-03     31.4047E-03     15.6630E+06    -47.1904E+06    -82.4862E+06    -74.3670E+06    -55.3095E+06     15.6630E+06     13.2198E+06         58.7644
            1592     7.97227E-03     124.320E-03         4.20251        -1.04637        -1.15908        -1.14785         4.19127        -1.04637     47.8759E-03     454.184E-03    -226.654E-03    -227.530E-03    -226.140E-03     453.670E-03    -227.530E-03     37.3077E-03     35.1473E+06    -2.22458E+06    -69.2768E+06    -65.2580E+06    -6.24333E+06     35.1473E+06     14.9748E+06         59.1978
            1593     8.76907E-03     124.379E-03         4.25357        -1.04890        -1.20245        -1.17805         4.22917        -1.04890    -173.619E-03     455.119E-03    -227.340E-03    -227.779E-03    -226.891E-03     454.403E-03    -227.512E-03     43.9866E-03     51.0215E+06     31.6779E+06    -58.8113E+06    -56.4743E+06     29.3409E+06     51.0215E+06     14.2744E+06         59.8678
            1594     9.56437E-03     124.448E-03         4.30139        -1.05189        -1.24358        -1.21316         4.27097        -1.05189    -66.0426E-03     455.418E-03    -227.539E-03    -227.880E-03    -226.863E-03     454.413E-03    -227.550E-03     52.1930E-03     63.0911E+06     39.8433E+06    -49.3354E+06    -47.7304E+06     38.2383E+06     63.0911E+06     11.7958E+06         60.9822
            1595     10.3625E-03     124.529E-03         4.33288        -1.05512        -1.26435        -1.24418         4.31272        -1.05512     84.8000E-03     455.425E-03    -227.570E-03    -227.855E-03    -226.489E-03     454.070E-03    -227.581E-03     60.6148E-03     75.4540E+06     42.2824E+06    -39.9993E+06    -38.9579E+06     41.2410E+06     75.4540E+06     9.14095E+06         62.8879
            1596     11.1618E-03     124.622E-03         4.36973        -1.05828        -1.28757        -1.27975         4.36191        -1.05828    -229.828E-03     456.668E-03    -227.621E-03    -229.047E-03    -227.208E-03     454.829E-03    -227.621E-03     70.7141E-03     86.9192E+06     46.9016E+06    -32.2919E+06    -31.4518E+06     46.0615E+06     86.9192E+06     8.06212E+06         66.0011
            1597     11.9579E-03     124.734E-03         4.41418        -1.06148        -1.31735        -1.31516         4.41198        -1.06148     207.149E-03     457.864E-03    -227.692E-03    -230.172E-03    -227.882E-03     455.573E-03    -227.692E-03     79.2140E-03     94.2606E+06     49.7403E+06    -25.0364E+06    -24.3993E+06     49.1033E+06     94.2606E+06     6.73623E+06         70.5220
            1598     12.7547E-03     124.856E-03         4.46363        -1.06420        -1.35275        -1.34944         4.46032        -1.06420     17.5312E-03     458.502E-03    -227.750E-03    -230.752E-03    -227.191E-03     454.941E-03    -227.750E-03     97.5798E-03     105.521E+06     62.0686E+06    -16.4855E+06    -16.2431E+06     61.8261E+06     105.521E+06     3.63605E+06         75.9681
            1599     13.5553E-03     125.017E-03         4.51905        -1.06706        -1.39460        -1.39029         4.51473        -1.06706     55.8693E-03     458.685E-03    -227.810E-03    -230.875E-03    -227.008E-03     454.818E-03    -227.810E-03     102.409E-03     130.992E+06     85.1087E+06    -8.07127E+06    -8.05266E+06     85.0901E+06     130.992E+06     1.08296E+06         80.9183
            1600     796.333E-06     125.738E-03         7.90940    -693.445E-03        -5.22816    -841.588E-03         3.52284    -693.445E-03         4.94615     455.152E-03    -227.226E-03    -227.926E-03    -227.836E-03     455.152E-03    -227.316E-03     399.421E-06    -135.963E+06    -141.222E+06    -279.471E+06    -139.805E+06    -279.445E+06    -137.406E+06     1.65145E+06         57.7519
            1601     1.59342E-03     125.736E-03         4.85486    -769.157E-03        -2.08704    -775.746E-03         3.54357    -769.157E-03        -2.07949     454.703E-03    -227.157E-03    -227.546E-03    -227.156E-03     454.702E-03    -227.546E-03     1.32975E-03    -125.809E+06    -136.082E+06    -266.815E+06    -136.126E+06    -266.771E+06    -125.809E+06     2.26467E+06         57.7711
            1602     2.39128E-03     125.738E-03         3.88279    -773.757E-03        -1.10311    -792.195E-03         3.57188    -773.757E-03     899.036E-03     454.492E-03    -227.016E-03    -227.476E-03    -227.012E-03     454.488E-03    -227.476E-03     2.95081E-03    -108.434E+06    -129.934E+06    -249.164E+06    -130.082E+06    -249.016E+06    -108.434E+06     3.84625E+06         57.8074
            1603     3.18777E-03     125.740E-03         3.64842    -779.627E-03    -859.152E-03    -806.115E-03         3.59538    -779.627E-03    -672.838E-03     454.944E-03    -227.319E-03    -227.625E-03    -227.408E-03     454.929E-03    -227.521E-03     6.18691E-03     -86.892E+06    -121.246E+06    -230.776E+06    -121.635E+06    -230.387E+06     -86.892E+06     6.39041E+06         57.8657
            1604     3.98368E-03     125.748E-03         3.63312    -786.753E-03    -838.213E-03    -836.148E-03         3.63106    -786.753E-03     144.450E-03     455.053E-03    -227.337E-03    -227.717E-03    -227.401E-03     455.014E-03    -227.612E-03     10.1502E-03    -65.8372E+06    -111.889E+06    -202.580E+06    -112.624E+06    -201.844E+06    -65.8372E+06     7.91143E+06         57.9516
            1605     4.78136E-03     125.759E-03         3.66454    -794.979E-03    -859.630E-03    -857.637E-03         3.66255    -794.979E-03     120.357E-03     454.736E-03    -227.083E-03    -227.653E-03    -227.001E-03     454.654E-03    -227.653E-03     14.6617E-03    -45.6737E+06    -102.158E+06    -168.598E+06    -103.410E+06    -167.345E+06    -45.6737E+06      8.7688E+06         58.0719
            1606     5.57764E-03     125.781E-03         3.70223    -803.128E-03    -885.981E-03    -885.246E-03         3.70150    -803.128E-03    -90.5847E-03     454.478E-03    -226.823E-03    -227.655E-03    -226.681E-03     454.336E-03    -227.655E-03     19.5345E-03    -25.6563E+06    -92.4855E+06    -141.505E+06    -94.6196E+06    -139.371E+06    -25.6563E+06     9.64054E+06         58.2354
            1607     6.37669E-03     125.809E-03         3.75408    -811.593E-03    -922.067E-03    -917.215E-03         3.74923    -811.593E-03     118.278E-03     454.343E-03    -226.717E-03    -227.627E-03    -226.494E-03     454.121E-03    -227.627E-03     24.4612E-03    -6.51133E+06    -79.8231E+06    -111.897E+06    -85.9616E+06    -105.759E+06    -6.51133E+06     10.8027E+06         58.4551
            1608     7.17443E-03     125.846E-03         3.81241    -820.408E-03    -963.277E-03    -952.892E-03         3.80202    -820.408E-03    -47.0189E-03     454.521E-03    -226.926E-03    -227.595E-03    -226.586E-03     454.180E-03    -227.595E-03     30.2781E-03     12.5807E+06    -53.5168E+06    -86.6830E+06    -76.5110E+06    -63.6888E+06     12.5807E+06     13.2768E+06         58.7538
            1609     7.96960E-03     125.896E-03         3.87234    -829.621E-03        -1.00747    -993.980E-03         3.85885    -829.621E-03     22.7608E-03     454.421E-03    -226.864E-03    -227.558E-03    -226.350E-03     453.907E-03    -227.558E-03     37.1859E-03     33.4898E+06    -5.64223E+06    -70.2601E+06    -65.7009E+06    -10.2014E+06     33.4898E+06     15.2817E+06         59.1795
            1610     8.76756E-03     125.954E-03         3.95008    -839.583E-03        -1.06930        -1.04294         3.92372    -839.583E-03    -173.028E-03     454.339E-03    -226.809E-03    -227.530E-03    -226.079E-03     453.589E-03    -227.510E-03     44.9813E-03     50.8602E+06     32.2196E+06    -58.7748E+06    -56.0825E+06     29.5273E+06     50.8602E+06     15.3685E+06         59.8363
            1611     9.56695E-03     126.025E-03         4.02464    -850.537E-03        -1.12708        -1.09571         3.99326    -850.537E-03    -83.6108E-03     454.844E-03    -227.217E-03    -227.628E-03    -226.326E-03     453.816E-03    -227.490E-03     52.7946E-03     64.1126E+06     43.8783E+06    -49.5935E+06    -47.4279E+06     41.7127E+06     64.1126E+06     13.9691E+06         60.9317
            1612     10.3646E-03     126.103E-03         4.08296    -862.206E-03        -1.16741        -1.14744         4.06299    -862.206E-03     71.0404E-03     455.823E-03    -227.511E-03    -228.312E-03    -226.943E-03     454.466E-03    -227.522E-03     60.7221E-03     76.7983E+06     46.7355E+06    -41.1009E+06    -39.4867E+06     45.1213E+06     76.7983E+06     11.7101E+06         62.8137
            1613     11.1610E-03     126.199E-03         4.15046    -874.317E-03        -1.21388        -1.20587         4.14246    -874.317E-03    -227.010E-03     456.958E-03    -227.594E-03    -229.363E-03    -227.511E-03     455.105E-03    -227.594E-03     70.9613E-03     87.8651E+06     49.1501E+06    -33.2921E+06    -32.1623E+06     48.0203E+06     87.8651E+06     9.46568E+06         65.9114
            1614     11.9579E-03     126.313E-03         4.22633    -887.142E-03        -1.26631        -1.26444         4.22446    -887.142E-03     189.907E-03     456.816E-03    -227.647E-03    -229.168E-03    -226.878E-03     454.526E-03    -227.647E-03     79.1010E-03     96.9306E+06     55.1428E+06    -24.2172E+06    -23.6432E+06     54.5688E+06     96.9306E+06     6.49109E+06         70.4573
            1615     12.7571E-03     126.427E-03         4.31017    -900.232E-03        -1.32703        -1.32411         4.30724    -900.232E-03     6.73228E-03     457.843E-03    -227.665E-03    -230.178E-03    -226.669E-03     454.334E-03    -227.665E-03     96.8274E-03     108.226E+06     67.0992E+06    -15.8373E+06    -15.6531E+06     66.9149E+06     108.226E+06     3.59997E+06         75.9855
            1616     13.5558E-03     126.591E-03         4.39947    -913.767E-03        -1.39335        -1.38929         4.39541    -913.767E-03     52.6905E-03     459.338E-03    -227.738E-03    -231.599E-03    -227.752E-03     455.490E-03    -227.738E-03     102.330E-03     132.845E+06     88.0085E+06    -8.10381E+06    -8.05898E+06     87.9637E+06     132.845E+06     1.72214E+06         81.0350
            1617     797.165E-06     127.312E-03         7.39841    -485.063E-03        -4.88113    -631.453E-03         3.14873    -485.063E-03         4.66567     455.094E-03    -227.412E-03    -227.682E-03    -227.537E-03     455.094E-03    -227.557E-03     163.322E-06    -137.554E+06    -143.771E+06    -283.615E+06    -142.344E+06    -283.581E+06    -139.015E+06     1.68910E+06         57.7304
            1618     1.59364E-03     127.313E-03         4.46356    -558.483E-03        -1.86971    -558.991E-03         3.15284    -558.483E-03        -1.96314     454.796E-03    -227.250E-03    -227.546E-03    -227.249E-03     454.796E-03    -227.546E-03     908.607E-06    -126.929E+06    -138.123E+06    -270.501E+06    -138.186E+06    -270.437E+06    -126.929E+06     2.68318E+06         57.7486
            1619     2.39020E-03     127.310E-03         3.50900    -562.707E-03    -907.369E-03    -587.625E-03         3.18925    -562.707E-03     833.456E-03     454.350E-03    -226.879E-03    -227.471E-03    -226.875E-03     454.346E-03    -227.471E-03     2.71250E-03     -111.54E+06    -132.642E+06    -254.171E+06    -132.751E+06    -254.063E+06     -111.54E+06     3.36661E+06         57.7833
            1620     3.18833E-03     127.316E-03         3.27193    -570.506E-03    -661.360E-03    -603.353E-03         3.21392    -570.506E-03    -647.497E-03     454.017E-03    -226.614E-03    -227.403E-03    -226.598E-03     454.001E-03    -227.403E-03     6.15323E-03    -91.1900E+06    -124.125E+06    -237.698E+06    -124.388E+06    -237.436E+06    -91.1900E+06     5.09986E+06         57.8412
            1621     3.98620E-03     127.323E-03         3.26208    -579.768E-03    -642.486E-03    -641.106E-03         3.26070    -579.768E-03     122.528E-03     454.203E-03    -226.833E-03    -227.370E-03    -226.791E-03     454.161E-03    -227.370E-03     10.2996E-03    -69.4222E+06    -113.984E+06    -208.509E+06    -114.568E+06    -207.925E+06    -69.4222E+06      7.0477E+06         57.9295
            1622     4.78235E-03     127.335E-03         3.30307    -590.740E-03    -669.806E-03    -668.510E-03         3.30177    -590.740E-03     94.5346E-03     454.637E-03    -227.226E-03    -227.410E-03    -227.140E-03     454.550E-03    -227.410E-03     15.1584E-03    -47.7065E+06    -103.554E+06    -174.433E+06    -104.854E+06    -173.134E+06    -47.7065E+06     9.14610E+06         58.0547
            1623     5.57983E-03     127.356E-03         3.35716    -602.127E-03    -706.368E-03    -705.141E-03         3.35593    -602.127E-03    -104.385E-03     454.827E-03    -227.206E-03    -227.621E-03    -227.183E-03     454.678E-03    -227.495E-03     19.9813E-03    -26.4136E+06    -92.5600E+06    -147.061E+06    -95.2101E+06    -144.411E+06    -26.4136E+06     11.2513E+06         58.2240
            1624     6.37553E-03     127.384E-03         3.42489    -614.684E-03    -756.935E-03    -751.279E-03         3.41923    -614.684E-03     95.4077E-03     455.047E-03    -227.280E-03    -227.767E-03    -227.247E-03     454.812E-03    -227.565E-03     25.1114E-03    -6.68102E+06    -79.9118E+06    -116.149E+06    -85.8225E+06    -110.238E+06    -6.68102E+06     12.2455E+06         58.4475
            1625     7.17162E-03     127.423E-03         3.50138    -628.612E-03    -814.447E-03    -802.189E-03         3.48912    -628.612E-03    -66.3807E-03     454.718E-03    -227.051E-03    -227.667E-03    -226.771E-03     454.362E-03    -227.591E-03     30.9304E-03     11.7350E+06    -57.4497E+06    -88.7908E+06    -76.4921E+06    -69.7485E+06     11.7350E+06     12.8421E+06         58.7456
            1626     7.97105E-03     127.470E-03         3.57926    -643.725E-03    -871.963E-03    -856.897E-03         3.56419    -643.725E-03    -4.90369E-03     454.028E-03    -226.486E-03    -227.541E-03    -225.947E-03     453.489E-03    -227.541E-03     38.0602E-03     31.9936E+06    -11.8955E+06    -70.9451E+06    -66.2239E+06    -16.6167E+06     31.9936E+06     14.9470E+06         59.1654
            1627     8.76963E-03     127.529E-03         3.67859    -660.151E-03    -949.478E-03    -922.584E-03         3.65170    -660.151E-03    -173.958E-03     454.119E-03    -226.621E-03    -227.498E-03    -225.896E-03     453.360E-03    -227.464E-03     45.3158E-03     50.2221E+06     30.6729E+06    -59.6976E+06    -56.3981E+06     27.3733E+06     50.2221E+06     16.8522E+06         59.8096
            1628     9.56700E-03     127.598E-03         3.77578    -678.079E-03        -1.02219    -991.795E-03         3.74538    -678.079E-03    -107.155E-03     454.982E-03    -227.183E-03    -227.799E-03    -226.542E-03     453.987E-03    -227.444E-03     51.9727E-03     63.8910E+06     47.3154E+06    -51.1458E+06    -48.4712E+06     44.6408E+06     63.8910E+06     15.9579E+06         60.8832
            1629     10.3641E-03     127.681E-03         3.85827    -697.254E-03        -1.07953        -1.06161         3.84035    -697.254E-03     54.7025E-03     456.007E-03    -227.500E-03    -228.506E-03    -227.173E-03     454.673E-03    -227.500E-03     60.1829E-03     77.3584E+06     51.2698E+06    -41.7812E+06    -39.8895E+06     49.3780E+06     77.3584E+06     13.0656E+06         62.7363
            1630     11.1607E-03     127.776E-03         3.95196    -717.574E-03        -1.14694        -1.13963         3.94466    -717.574E-03    -231.716E-03     456.262E-03    -227.564E-03    -228.697E-03    -226.836E-03     454.400E-03    -227.564E-03     71.0571E-03     90.0455E+06     53.5839E+06    -31.4903E+06     -30.337E+06     52.4306E+06     90.0455E+06     9.71013E+06         65.8176
            1631     11.9596E-03     127.886E-03         4.05291    -739.211E-03        -1.21865        -1.21693         4.05120    -739.211E-03     165.590E-03     456.202E-03    -227.585E-03    -228.617E-03    -226.357E-03     453.942E-03    -227.585E-03     78.5348E-03     99.8108E+06     60.1749E+06    -22.9398E+06    -22.3467E+06     59.5819E+06     99.8108E+06     6.83648E+06         70.3900
            1632     12.7587E-03     128.001E-03         4.16479    -761.526E-03        -1.29909        -1.29584         4.16154    -761.526E-03    -6.72385E-03     458.548E-03    -227.618E-03    -230.930E-03    -227.461E-03     455.079E-03    -227.618E-03     96.2642E-03     111.011E+06     71.5051E+06    -15.1793E+06    -14.9060E+06     71.2318E+06     111.011E+06     4.72770E+06         75.9990
            1633     13.5548E-03     128.171E-03         4.28390    -784.656E-03        -1.38505        -1.38071         4.27956    -784.656E-03     38.7714E-03     459.420E-03    -227.720E-03    -231.700E-03    -227.853E-03     455.574E-03    -227.720E-03     102.347E-03     134.815E+06     91.8922E+06    -7.78077E+06    -7.66124E+06     91.7727E+06     134.815E+06     3.21978E+06         81.1517
            1634     796.247E-06     128.889E-03         6.46984    -308.488E-03        -4.11081    -471.856E-03         2.83088    -308.488E-03         4.00253     454.183E-03    -226.947E-03    -227.235E-03    -226.977E-03     454.181E-03    -227.204E-03     1.24978E-03    -140.364E+06    -145.619E+06    -288.592E+06    -144.189E+06    -288.562E+06    -141.825E+06     1.19769E+06         57.6971
            1635     1.59352E-03     128.887E-03         3.95070    -389.464E-03        -1.50688    -386.318E-03         2.83013    -389.464E-03        -1.73122     454.432E-03    -227.038E-03    -227.395E-03    -227.257E-03     454.429E-03    -227.172E-03     2.28132E-03    -131.061E+06    -140.160E+06    -274.917E+06    -140.230E+06    -274.848E+06    -131.061E+06     2.53241E+06         57.7184
            1636     2.39096E-03     128.886E-03         3.13485    -393.121E-03    -678.568E-03    -419.911E-03         2.87619    -393.121E-03     703.913E-03     454.468E-03    -226.989E-03    -227.479E-03    -227.184E-03     454.462E-03    -227.279E-03     3.55562E-03    -113.768E+06    -133.609E+06    -257.343E+06    -133.696E+06    -257.256E+06    -113.768E+06     3.23381E+06         57.7558
            1637     3.18772E-03     128.888E-03         2.95010    -402.229E-03    -488.379E-03    -441.734E-03         2.90345    -402.229E-03    -586.554E-03     453.906E-03    -226.590E-03    -227.316E-03    -226.585E-03     453.892E-03    -227.307E-03     5.87726E-03    -93.6090E+06    -126.215E+06    -242.858E+06    -126.381E+06    -242.693E+06    -93.6090E+06     4.23165E+06         57.8151
            1638     3.98607E-03     128.895E-03         2.96321    -413.498E-03    -486.534E-03    -484.459E-03         2.96113    -413.498E-03     76.6491E-03     453.676E-03    -226.422E-03    -227.254E-03    -226.386E-03     453.639E-03    -227.254E-03     9.69719E-03    -72.6139E+06    -117.332E+06    -214.375E+06    -117.785E+06    -213.922E+06    -72.6139E+06     6.22867E+06         57.9040
            1639     4.78412E-03     128.912E-03         3.01136    -426.821E-03    -519.250E-03    -517.359E-03         3.00946    -426.821E-03     78.3545E-03     453.984E-03    -226.743E-03    -227.241E-03    -226.666E-03     453.907E-03    -227.241E-03     14.2743E-03    -51.0870E+06    -107.391E+06    -180.809E+06    -108.317E+06    -179.883E+06    -51.0870E+06     8.02409E+06         58.0307
            1640     5.58043E-03     128.930E-03         3.07855    -441.432E-03    -568.360E-03    -567.002E-03         3.07719    -441.432E-03    -123.068E-03     454.363E-03    -226.941E-03    -227.422E-03    -226.915E-03     454.211E-03    -227.296E-03     20.0736E-03    -29.3831E+06    -95.6419E+06    -153.481E+06    -97.7400E+06    -151.383E+06    -29.3831E+06     10.0852E+06         58.2033
            1641     6.37763E-03     128.962E-03         3.15577    -457.957E-03    -624.735E-03    -619.820E-03         3.15086    -457.957E-03     74.4204E-03     454.579E-03    -227.024E-03    -227.555E-03    -226.955E-03     454.308E-03    -227.353E-03     26.9432E-03    -8.74876E+06    -81.4538E+06    -120.977E+06    -87.0879E+06    -115.342E+06    -8.74876E+06     12.4045E+06         58.4319
            1642     7.17482E-03     128.998E-03         3.24469    -476.174E-03    -691.814E-03    -679.781E-03         3.23266    -476.174E-03    -89.6550E-03     454.813E-03    -226.912E-03    -227.901E-03    -227.014E-03     454.415E-03    -227.401E-03     32.8579E-03     11.1512E+06    -59.3663E+06    -92.1443E+06    -77.4870E+06    -74.0236E+06     11.1512E+06     13.9185E+06         58.7348
            1643     7.97149E-03     129.043E-03         3.34030    -496.153E-03    -762.314E-03    -747.360E-03         3.32535    -496.153E-03    -23.1740E-03     454.955E-03    -226.843E-03    -228.111E-03    -226.984E-03     454.415E-03    -227.432E-03     38.2435E-03     30.1463E+06    -18.0237E+06    -74.5165E+06    -68.6780E+06    -23.8622E+06     30.1463E+06     15.9121E+06         59.1541
            1644     8.76895E-03     129.103E-03         3.45568    -518.005E-03    -850.353E-03    -824.522E-03         3.42985    -518.005E-03    -175.535E-03     454.868E-03    -227.133E-03    -227.734E-03    -226.691E-03     454.136E-03    -227.445E-03     44.5382E-03     48.0696E+06     26.3978E+06    -63.0433E+06    -59.2612E+06     22.6158E+06     48.0696E+06     17.8686E+06         59.7868
            1645     9.56625E-03     129.174E-03         3.56895    -541.831E-03    -935.329E-03    -907.331E-03         3.54095    -541.831E-03    -127.563E-03     455.085E-03    -227.389E-03    -227.696E-03    -226.618E-03     454.077E-03    -227.459E-03     52.2557E-03     63.1253E+06     50.7451E+06    -52.8217E+06    -49.9841E+06     47.9075E+06     63.1253E+06     16.7798E+06         60.8359
            1646     10.3633E-03     129.257E-03         3.67262    -567.540E-03        -1.00826    -993.431E-03         3.65780    -567.540E-03     43.4061E-03     455.209E-03    -227.384E-03    -227.825E-03    -226.364E-03     453.847E-03    -227.483E-03     60.7940E-03     76.7396E+06     56.4816E+06    -42.9083E+06    -41.1225E+06     54.6958E+06     76.7396E+06     13.1352E+06         62.6591
            1647     11.1624E-03     129.350E-03         3.78985    -595.087E-03        -1.09373        -1.08767         3.78379    -595.087E-03    -236.928E-03     455.554E-03    -227.415E-03    -228.138E-03    -226.201E-03     453.705E-03    -227.505E-03     70.7671E-03     90.6924E+06     57.9347E+06    -33.2731E+06    -32.1691E+06     56.8307E+06     90.6924E+06     9.91703E+06         65.7242
            1648     11.9609E-03     129.459E-03         3.91229    -624.390E-03        -1.18308        -1.18127         3.91048    -624.390E-03     138.717E-03     456.739E-03    -227.533E-03    -229.206E-03    -226.941E-03     454.474E-03    -227.533E-03     78.6773E-03     101.556E+06     64.4236E+06    -24.6902E+06    -24.0094E+06     63.7429E+06     101.556E+06     7.66622E+06         70.3198
            1649     12.7565E-03     129.580E-03         4.04366    -654.807E-03        -1.27837        -1.27439         4.03968    -654.807E-03    -18.2513E-03     458.755E-03    -227.594E-03    -231.161E-03    -227.650E-03     455.243E-03    -227.594E-03     96.9054E-03     112.083E+06     74.6542E+06    -17.1301E+06    -16.7326E+06     74.2566E+06     112.083E+06     5.95825E+06         76.0091
            1650     13.5558E-03     129.744E-03         4.18130    -686.406E-03        -1.37655        -1.37143         4.17619    -686.406E-03     27.5976E-03     458.791E-03    -227.685E-03    -231.106E-03    -227.218E-03     454.903E-03    -227.685E-03     102.809E-03     136.326E+06     96.9615E+06    -9.33851E+06    -9.15096E+06     96.7740E+06     136.326E+06     4.00600E+06         81.2721
            1651     798.830E-06     130.461E-03         5.17991    -196.151E-03        -2.92460    -333.946E-03         2.58926    -196.151E-03         3.00564     452.739E-03    -226.188E-03    -226.551E-03    -226.420E-03     452.737E-03    -226.317E-03     1.19714E-03    -142.052E+06    -146.511E+06    -292.808E+06    -145.559E+06    -292.785E+06    -143.026E+06     1.03038E+06         57.6555
            1652     1.59631E-03     130.460E-03         3.34380    -263.684E-03        -1.01634    -258.108E-03         2.58557    -263.684E-03        -1.37418     453.340E-03    -226.507E-03    -226.833E-03    -226.829E-03     453.336E-03    -226.507E-03     2.66426E-03    -133.120E+06    -142.327E+06    -279.185E+06    -142.396E+06    -279.116E+06    -133.120E+06     2.55048E+06         57.6815
            1653     2.39206E-03     130.462E-03         2.78947    -268.161E-03    -446.810E-03    -303.666E-03         2.64633    -268.161E-03     522.566E-03     453.983E-03    -226.765E-03    -227.219E-03    -227.211E-03     453.976E-03    -226.765E-03     4.37936E-03    -116.316E+06    -136.899E+06    -262.197E+06    -137.017E+06    -262.080E+06    -116.316E+06     3.79446E+06         57.7246
            1654     3.18918E-03     130.461E-03         2.70202    -279.376E-03    -349.291E-03    -323.283E-03         2.67602    -279.376E-03    -482.164E-03     454.375E-03    -226.888E-03    -227.487E-03    -227.341E-03     454.356E-03    -227.015E-03     6.87486E-03    -95.9758E+06    -129.593E+06    -246.290E+06    -129.788E+06    -246.095E+06    -95.9758E+06     4.71116E+06         57.7883
            1655     3.98541E-03     130.470E-03         2.75152    -292.712E-03    -384.303E-03    -376.339E-03         2.74356    -292.712E-03     19.7800E-03     454.092E-03    -226.698E-03    -227.394E-03    -226.895E-03     454.051E-03    -227.156E-03     10.4871E-03    -74.9317E+06    -120.588E+06    -218.514E+06    -120.952E+06    -218.150E+06    -74.9317E+06     5.75236E+06         57.8788
            1656     4.78295E-03     130.483E-03         2.80217    -308.705E-03    -416.138E-03    -410.972E-03         2.79701    -308.705E-03     78.9612E-03     453.610E-03    -226.428E-03    -227.182E-03    -226.349E-03     453.531E-03    -227.182E-03     14.4388E-03    -54.0094E+06    -110.522E+06    -186.392E+06    -111.229E+06    -185.684E+06    -54.0094E+06     7.10301E+06         58.0049
            1657     5.58164E-03     130.506E-03         2.87422    -326.021E-03    -468.677E-03    -466.975E-03         2.87252    -326.021E-03    -138.092E-03     453.450E-03    -226.281E-03    -227.169E-03    -226.138E-03     453.307E-03    -227.169E-03     19.4824E-03    -32.7303E+06    -99.8691E+06    -158.994E+06    -101.257E+06    -157.607E+06    -32.7303E+06     8.64218E+06         58.1773
            1658     6.37972E-03     130.534E-03         2.95699    -345.659E-03    -528.907E-03    -526.067E-03         2.95415    -345.659E-03     62.5440E-03     453.543E-03    -226.398E-03    -227.145E-03    -226.155E-03     453.300E-03    -227.145E-03     25.4412E-03    -12.2950E+06    -86.6549E+06    -126.371E+06    -90.8686E+06    -122.157E+06    -12.2950E+06     10.8064E+06         58.4081
            1659     7.17789E-03     130.574E-03         3.05560    -367.323E-03    -602.559E-03    -593.309E-03         3.04636    -367.323E-03    -104.615E-03     454.545E-03    -226.889E-03    -227.655E-03    -226.991E-03     454.161E-03    -227.170E-03     32.1501E-03     8.05498E+06    -64.5745E+06    -96.9380E+06    -80.1704E+06    -81.3420E+06     8.05498E+06     13.8384E+06         58.7148
            1660     7.97294E-03     130.622E-03         3.16258    -391.241E-03    -682.849E-03    -670.600E-03         3.15033    -391.241E-03    -26.2822E-03     455.634E-03    -227.264E-03    -228.370E-03    -227.810E-03     455.074E-03    -227.264E-03     38.9717E-03     27.7302E+06    -24.6968E+06    -77.7424E+06    -70.3395E+06    -32.0997E+06     27.7302E+06     16.8581E+06         59.1348
            1661     8.76826E-03     130.678E-03         3.28984    -417.605E-03    -778.784E-03    -756.701E-03         3.26776    -417.605E-03    -172.034E-03     455.564E-03    -227.295E-03    -228.268E-03    -227.418E-03     454.775E-03    -227.357E-03     46.2402E-03     46.2333E+06     23.0060E+06    -64.9699E+06    -60.6536E+06     18.6896E+06     46.2333E+06     18.5635E+06         59.7588
            1662     9.56625E-03     130.749E-03         3.41805    -446.401E-03    -872.742E-03    -849.136E-03         3.39444    -446.401E-03    -131.682E-03     454.990E-03    -227.305E-03    -227.685E-03    -226.532E-03     453.926E-03    -227.394E-03     53.7105E-03     61.7193E+06     53.9754E+06    -54.2990E+06    -51.3692E+06     51.0457E+06     61.7193E+06     17.4338E+06         60.7878
            1663     10.3650E-03     130.831E-03         3.53710    -477.532E-03    -957.915E-03    -946.581E-03         3.52577    -477.532E-03     38.3234E-03     454.842E-03    -227.290E-03    -227.552E-03    -226.066E-03     453.473E-03    -227.407E-03     60.9509E-03     75.9137E+06     62.2474E+06    -45.0361E+06    -43.0550E+06     60.2664E+06     75.9137E+06     14.4006E+06         62.5840
            1664     11.1630E-03     130.923E-03         3.67076    -510.924E-03        -1.05694        -1.05230         3.66613    -510.924E-03    -228.668E-03     455.773E-03    -227.349E-03    -228.424E-03    -226.477E-03     453.916E-03    -227.439E-03     70.9185E-03     90.5499E+06     63.0834E+06    -35.9783E+06    -34.7068E+06     61.8119E+06     90.5499E+06     11.0571E+06         65.6301
            1665     11.9601E-03     131.037E-03         3.81107    -546.433E-03        -1.16053        -1.15828         3.80881    -546.433E-03     124.326E-03     456.637E-03    -227.481E-03    -229.156E-03    -226.847E-03     454.328E-03    -227.481E-03     79.4198E-03     101.226E+06     66.7172E+06    -27.4389E+06    -26.6684E+06     65.9467E+06     101.226E+06     8.42224E+06         70.2452
            1666     12.7594E-03     131.154E-03         3.95515    -583.490E-03        -1.26562        -1.26080         3.95033    -583.490E-03    -18.7614E-03     458.210E-03    -227.527E-03    -230.684E-03    -227.127E-03     454.653E-03    -227.527E-03     97.4996E-03     112.541E+06     77.8338E+06    -19.1379E+06    -18.6947E+06     77.3905E+06     112.541E+06     6.31331E+06         76.0182
            1667     13.5571E-03     131.319E-03         4.09955    -621.810E-03        -1.36835        -1.36224         4.09344    -621.810E-03     29.2081E-03     458.554E-03    -227.604E-03    -230.950E-03    -227.040E-03     454.643E-03    -227.604E-03     103.058E-03     138.620E+06     103.551E+06    -9.56495E+06    -9.41534E+06     103.401E+06     138.620E+06     3.35697E+06         81.3947
            1668     797.285E-06     132.030E-03         3.70495    -132.778E-03        -1.50810    -248.063E-03         2.44491    -132.778E-03         1.73344     453.007E-03    -226.287E-03    -226.721E-03    -226.530E-03     453.007E-03    -226.476E-03    -554.098E-06    -146.714E+06    -151.195E+06    -298.851E+06    -150.266E+06    -298.806E+06    -147.689E+06     2.20506E+06         57.6188
            1669     1.59506E-03     132.033E-03         2.76077    -187.768E-03    -507.064E-03    -177.173E-03         2.43088    -187.768E-03    -930.550E-03     452.612E-03    -226.027E-03    -226.586E-03    -226.129E-03     452.611E-03    -226.482E-03     923.779E-06    -136.071E+06    -146.879E+06    -284.389E+06    -146.964E+06    -284.304E+06    -136.071E+06     3.18471E+06         57.6439
            1670     2.39452E-03     132.033E-03         2.54479    -192.350E-03    -275.583E-03    -236.004E-03         2.50521    -192.350E-03     298.044E-03     452.957E-03    -226.208E-03    -226.749E-03    -226.457E-03     452.952E-03    -226.495E-03     3.26021E-03    -118.408E+06    -140.305E+06    -266.925E+06    -140.488E+06    -266.742E+06    -118.408E+06     4.65510E+06         57.6883
            1671     3.19085E-03     132.038E-03         2.55809    -205.610E-03    -275.400E-03    -254.445E-03         2.53713    -205.610E-03    -351.634E-03     453.859E-03    -226.660E-03    -227.199E-03    -227.160E-03     453.842E-03    -226.682E-03     6.58272E-03    -97.8006E+06    -132.386E+06    -248.492E+06    -132.592E+06    -248.286E+06    -97.8006E+06     4.75534E+06         57.7552
            1672     3.98740E-03     132.044E-03         2.63533    -220.740E-03    -338.915E-03    -313.506E-03         2.60992    -220.740E-03    -52.4998E-03     454.051E-03    -226.834E-03    -227.218E-03    -227.115E-03     454.005E-03    -226.891E-03     10.8401E-03    -77.4323E+06    -123.563E+06    -222.218E+06    -123.823E+06    -221.957E+06    -77.4323E+06     4.83720E+06         57.8494
            1673     4.78421E-03     132.058E-03         2.67919    -238.909E-03    -364.331E-03    -350.635E-03         2.66549    -238.909E-03     88.2748E-03     453.738E-03    -226.695E-03    -227.042E-03    -226.639E-03     453.647E-03    -227.008E-03     15.5325E-03    -56.0065E+06    -113.080E+06    -191.573E+06    -113.638E+06    -191.016E+06    -56.0065E+06     6.39985E+06         57.9784
            1674     5.58117E-03     132.078E-03         2.75001    -258.248E-03    -411.052E-03    -407.062E-03         2.74602    -258.248E-03    -154.973E-03     453.550E-03    -226.494E-03    -227.056E-03    -226.344E-03     453.399E-03    -227.056E-03     20.0272E-03    -34.5805E+06    -102.069E+06    -163.521E+06    -103.307E+06    -162.282E+06    -34.5805E+06     8.24139E+06         58.1521
            1675     6.37903E-03     132.108E-03         2.83521    -279.982E-03    -471.461E-03    -470.533E-03         2.83428    -279.982E-03     56.6420E-03     453.740E-03    -226.641E-03    -227.099E-03    -226.422E-03     453.498E-03    -227.077E-03     25.4058E-03    -14.2121E+06    -90.1040E+06    -130.951E+06    -93.1161E+06    -127.939E+06    -14.2121E+06     9.86114E+06         58.3820
            1676     7.17605E-03     132.147E-03         2.94072    -304.272E-03    -550.738E-03    -545.528E-03         2.93551    -304.272E-03    -112.792E-03     453.895E-03    -226.719E-03    -227.176E-03    -226.425E-03     453.518E-03    -227.093E-03     31.8571E-03     4.54496E+06    -71.9800E+06    -101.119E+06    -83.2160E+06    -89.8828E+06     4.54496E+06     11.9898E+06         58.6860
            1677     7.97534E-03     132.199E-03         3.05516    -331.328E-03    -636.006E-03    -628.319E-03         3.04748    -331.328E-03    -22.5274E-03     454.307E-03    -226.774E-03    -227.533E-03    -226.642E-03     453.748E-03    -227.106E-03     38.8638E-03     23.3514E+06    -35.3872E+06    -80.6496E+06    -72.9360E+06    -43.1008E+06     23.3514E+06     15.5114E+06         59.1019
            1678     8.77271E-03     132.256E-03         3.18810    -361.197E-03    -736.574E-03    -720.736E-03         3.17226    -361.197E-03    -163.718E-03     455.020E-03    -227.049E-03    -227.971E-03    -227.084E-03     454.221E-03    -227.138E-03     46.4864E-03     42.8809E+06     17.8787E+06    -67.3118E+06    -62.8141E+06     13.3810E+06     42.8809E+06     18.4376E+06         59.7194
            1679     9.56835E-03     132.325E-03         3.32525    -393.854E-03    -837.058E-03    -819.686E-03         3.30788    -393.854E-03    -117.744E-03     455.195E-03    -227.171E-03    -228.024E-03    -226.911E-03     454.102E-03    -227.190E-03     54.4633E-03     60.3854E+06     56.3752E+06    -55.7459E+06    -52.5885E+06     53.2177E+06     60.3854E+06     18.4726E+06         60.7344
            1680     10.3656E-03     132.404E-03         3.45470    -429.015E-03    -928.532E-03    -920.835E-03         3.44700    -429.015E-03     38.5256E-03     455.521E-03    -227.240E-03    -228.281E-03    -226.849E-03     454.108E-03    -227.259E-03     61.9940E-03     75.3764E+06     67.6565E+06    -45.7971E+06    -43.5136E+06     65.3730E+06     75.3764E+06     15.8560E+06         62.5066
            1681     11.1633E-03     132.499E-03         3.59718    -466.543E-03        -1.03422        -1.03108         3.59403    -466.543E-03    -203.046E-03     456.098E-03    -227.341E-03    -228.758E-03    -226.855E-03     454.195E-03    -227.341E-03     71.8295E-03     90.1644E+06     69.0216E+06    -36.8718E+06    -35.4099E+06     67.5597E+06     90.1644E+06     12.2928E+06         65.5322
            1682     11.9617E-03     132.612E-03         3.74683    -506.375E-03        -1.14569        -1.14269         3.74383    -506.375E-03     126.133E-03     456.183E-03    -227.396E-03    -228.787E-03    -226.455E-03     453.851E-03    -227.396E-03     79.7778E-03     102.137E+06     70.6915E+06    -27.3463E+06    -26.4843E+06     69.8294E+06     102.137E+06     9.06229E+06         70.1663
            1683     12.7597E-03     132.728E-03         3.89573    -547.953E-03        -1.25396        -1.24825         3.89002    -547.953E-03    -7.03727E-03     457.810E-03    -227.429E-03    -230.381E-03    -226.799E-03     454.228E-03    -227.429E-03     97.7548E-03     114.925E+06     83.1502E+06    -17.9908E+06    -17.6001E+06     82.7596E+06     114.925E+06     5.90540E+06         76.0254
            1684     13.5583E-03     132.896E-03         4.04304    -590.752E-03        -1.35758        -1.35058         4.03604    -590.752E-03     37.9079E-03     458.232E-03    -227.496E-03    -230.736E-03    -226.814E-03     454.311E-03    -227.496E-03     103.121E-03     140.933E+06     109.553E+06    -8.97414E+06    -8.88489E+06     109.464E+06     140.933E+06     2.74839E+06         81.5215
            1685     796.657E-06     133.604E-03         2.74973    -91.7622E-03    -605.136E-03    -237.134E-03         2.39705    -107.091E-03     258.775E-03     453.537E-03    -226.559E-03    -226.979E-03    -226.678E-03     453.536E-03    -226.857E-03     730.405E-06    -151.349E+06    -154.164E+06    -304.935E+06    -154.205E+06    -304.894E+06    -151.349E+06     1.14245E+06         57.5833
            1686     1.59454E-03     133.603E-03         2.47523    -151.918E-03    -261.252E-03    -147.894E-03         2.37720    -167.246E-03    -418.797E-03     453.090E-03    -226.274E-03    -226.815E-03    -226.352E-03     453.089E-03    -226.736E-03     1.30338E-03    -139.290E+06    -149.080E+06    -289.403E+06    -149.135E+06    -289.347E+06    -139.290E+06     2.55896E+06         57.6053
            1687     2.39176E-03     133.603E-03         2.49935    -169.338E-03    -255.788E-03    -210.906E-03         2.45447    -169.338E-03     52.0227E-03     452.616E-03    -225.981E-03    -226.635E-03    -225.976E-03     452.611E-03    -226.635E-03     3.15729E-03    -121.562E+06    -142.603E+06    -271.272E+06    -142.756E+06    -271.119E+06    -121.562E+06     4.12974E+06         57.6467
            1688     3.19060E-03     133.611E-03         2.54320    -182.715E-03    -292.887E-03    -234.214E-03         2.48453    -182.715E-03    -196.915E-03     452.663E-03    -226.022E-03    -226.642E-03    -226.060E-03     452.648E-03    -226.587E-03     6.32809E-03    -100.887E+06    -134.598E+06    -250.400E+06    -134.824E+06    -250.174E+06    -100.887E+06     4.83163E+06         57.7134
            1689     3.98846E-03     133.617E-03         2.62064    -198.659E-03    -353.651E-03    -293.548E-03         2.56054    -198.659E-03    -124.053E-03     453.097E-03    -226.373E-03    -226.724E-03    -226.420E-03     453.056E-03    -226.635E-03     10.2822E-03    -78.7804E+06    -125.588E+06    -224.337E+06    -125.846E+06    -224.079E+06    -78.7804E+06     4.85282E+06         57.8112
            1690     4.78597E-03     133.632E-03         2.64994    -217.848E-03    -363.882E-03    -333.939E-03         2.62000    -217.848E-03     113.785E-03     453.332E-03    -226.568E-03    -226.764E-03    -226.512E-03     453.241E-03    -226.729E-03     15.4663E-03    -56.9781E+06    -115.493E+06    -196.425E+06    -115.912E+06    -196.006E+06    -56.9781E+06     5.64504E+06         57.9459
            1691     5.58342E-03     133.651E-03         2.71435    -238.648E-03    -403.572E-03    -393.690E-03         2.70447    -238.648E-03    -167.499E-03     453.710E-03    -226.726E-03    -226.984E-03    -226.714E-03     453.542E-03    -226.827E-03     21.2004E-03     -36.442E+06    -104.468E+06    -168.285E+06    -105.304E+06    -167.450E+06     -36.442E+06     6.98746E+06         58.1242
            1692     6.38013E-03     133.682E-03         2.79569    -261.961E-03    -457.249E-03    -456.251E-03         2.79470    -261.961E-03     62.3677E-03     454.101E-03    -226.906E-03    -227.195E-03    -226.901E-03     453.826E-03    -226.925E-03     27.2112E-03    -16.8904E+06    -92.5346E+06    -136.574E+06    -94.8796E+06    -134.229E+06    -16.8904E+06     8.94349E+06         58.3552
            1693     7.17749E-03     133.721E-03         2.90144    -287.888E-03    -535.288E-03    -533.205E-03         2.89935    -287.888E-03    -112.480E-03     453.981E-03    -226.750E-03    -227.230E-03    -226.586E-03     453.580E-03    -226.994E-03     32.9219E-03     2.00317E+06    -76.3313E+06    -105.930E+06    -84.5311E+06    -97.7305E+06     2.00317E+06     11.3541E+06         58.6557
            1694     7.97454E-03     133.770E-03         3.01905    -316.912E-03    -623.351E-03    -619.939E-03         3.01563    -316.912E-03    -8.89467E-03     453.608E-03    -226.487E-03    -227.121E-03    -226.044E-03     453.042E-03    -226.998E-03     39.0594E-03     21.0361E+06    -43.1936E+06    -82.8033E+06    -74.0756E+06    -51.9213E+06     21.0361E+06     13.8531E+06         59.0646
            1695     8.77289E-03     133.832E-03         3.15336    -349.064E-03    -724.621E-03    -715.130E-03         3.14387    -349.064E-03    -147.517E-03     453.761E-03    -226.621E-03    -227.140E-03    -226.019E-03     452.983E-03    -226.963E-03     45.8622E-03     40.9209E+06     10.0686E+06    -67.9117E+06    -63.9121E+06     6.06901E+06     40.9209E+06     16.5862E+06         59.6719
            1696     9.57179E-03     133.900E-03         3.29185    -384.177E-03    -826.772E-03    -815.742E-03         3.28082    -384.177E-03    -91.3328E-03     454.684E-03    -226.889E-03    -227.796E-03    -226.652E-03     453.615E-03    -226.964E-03     53.7922E-03     60.0972E+06     52.2746E+06    -56.9994E+06    -53.9067E+06     51.3595E+06     57.9196E+06     18.2536E+06         60.6711
            1697     10.3687E-03     133.982E-03         3.42529    -421.799E-03    -920.374E-03    -915.819E-03         3.42074    -421.799E-03     45.2830E-03     455.728E-03    -227.045E-03    -228.683E-03    -227.237E-03     454.283E-03    -227.045E-03     62.6900E-03     75.5666E+06     70.1198E+06    -47.0622E+06    -44.6704E+06     69.9056E+06     73.3889E+06     16.6198E+06         62.4199
            1698     11.1650E-03     134.075E-03         3.57051    -461.703E-03        -1.02550        -1.02368         3.56870    -461.703E-03    -166.907E-03     456.176E-03    -227.167E-03    -229.009E-03    -227.084E-03     454.251E-03    -227.167E-03     72.3381E-03     89.7750E+06     75.2866E+06    -37.3399E+06    -35.8965E+06     73.8432E+06     89.7750E+06     12.5642E+06         65.4272
            1699     11.9630E-03     134.184E-03         3.72025    -503.801E-03        -1.13630        -1.13267         3.71662    -503.801E-03     128.674E-03     456.141E-03    -227.251E-03    -228.889E-03    -226.520E-03     453.771E-03    -227.251E-03     80.3794E-03     103.223E+06     76.9648E+06    -27.5904E+06    -26.8098E+06     76.1842E+06     103.223E+06     8.87829E+06         70.0819
            1700     12.7615E-03     134.304E-03         3.86651    -547.684E-03        -1.24252        -1.23621         3.86020    -547.684E-03     5.34157E-03     457.560E-03    -227.295E-03    -230.265E-03    -226.606E-03     453.901E-03    -227.295E-03     98.8567E-03     116.966E+06     88.7322E+06    -18.6463E+06    -18.3178E+06     88.4037E+06     116.966E+06     5.55354E+06         76.0303
            1701     13.5605E-03     134.468E-03         4.01323    -592.869E-03        -1.34622        -1.33882         4.00584    -592.869E-03     43.1962E-03     457.973E-03    -227.361E-03    -230.612E-03    -226.637E-03     453.998E-03    -227.361E-03     103.792E-03     143.202E+06     114.492E+06    -9.56715E+06    -9.49535E+06     114.420E+06     143.202E+06     2.53238E+06         81.6525
            1702     798.592E-06     135.178E-03         3.31809    -129.688E-03        -1.15926    -263.928E-03         2.43809    -145.017E-03        -1.32523     452.504E-03    -226.141E-03    -226.363E-03    -226.252E-03     452.503E-03    -226.250E-03     1.39724E-03    -152.020E+06    -154.690E+06    -307.790E+06    -154.599E+06    -307.751E+06    -152.149E+06     1.03168E+06         57.5300
            1703     1.59512E-03     135.175E-03         2.74747    -183.072E-03    -518.596E-03    -174.159E-03         2.41837    -198.401E-03     127.377E-03     452.754E-03    -226.314E-03    -226.441E-03    -226.419E-03     452.751E-03    -226.332E-03     2.71322E-03    -141.931E+06    -151.128E+06    -293.857E+06    -151.157E+06    -293.827E+06    -141.931E+06     1.90868E+06         57.5537
            1704     2.39253E-03     135.177E-03         2.69616    -198.310E-03    -434.147E-03    -233.870E-03         2.49589    -198.310E-03    -208.127E-03     452.460E-03    -226.016E-03    -226.444E-03    -226.055E-03     452.449E-03    -226.394E-03     5.25389E-03    -125.464E+06    -145.226E+06    -275.861E+06    -145.295E+06    -275.792E+06    -125.464E+06     2.89217E+06         57.5963
            1705     3.19078E-03     135.178E-03         2.67188    -209.973E-03    -404.391E-03    -254.561E-03         2.52205    -209.973E-03    -39.9093E-03     452.028E-03    -225.606E-03    -226.422E-03    -225.629E-03     452.002E-03    -226.372E-03     8.16238E-03    -103.649E+06    -136.676E+06    -252.583E+06    -136.827E+06    -252.432E+06    -103.649E+06     3.75208E+06         57.6647
            1706     3.98906E-03     135.192E-03         2.70949    -225.182E-03    -431.148E-03    -318.401E-03         2.59675    -225.182E-03    -196.215E-03     452.176E-03    -225.818E-03    -226.358E-03    -225.766E-03     452.125E-03    -226.358E-03     11.6231E-03    -80.3657E+06    -126.546E+06    -226.406E+06    -126.766E+06    -226.186E+06    -80.3657E+06     4.33113E+06         57.7660
            1707     4.78693E-03     135.202E-03         2.71405    -244.744E-03    -416.376E-03    -361.707E-03         2.65938    -244.744E-03     151.343E-03     452.870E-03    -226.214E-03    -226.656E-03    -226.344E-03     452.771E-03    -226.427E-03     16.0845E-03    -58.4138E+06    -116.505E+06    -200.057E+06    -116.838E+06    -199.724E+06    -58.4138E+06     5.16122E+06         57.9059
            1708     5.58489E-03     135.226E-03         2.76516    -266.343E-03    -442.173E-03    -422.113E-03         2.74510    -266.343E-03    -183.163E-03     453.481E-03    -226.480E-03    -227.001E-03    -226.752E-03     453.311E-03    -226.559E-03     21.3198E-03    -37.8655E+06    -106.434E+06    -171.945E+06    -107.081E+06    -171.298E+06    -37.8655E+06     6.27977E+06         58.0890
            1709     6.38206E-03     135.256E-03         2.83897    -290.483E-03    -486.575E-03    -482.715E-03         2.83511    -290.483E-03     79.0028E-03     453.692E-03    -226.682E-03    -227.010E-03    -226.734E-03     453.416E-03    -226.682E-03     27.1916E-03    -19.2688E+06    -95.7161E+06    -141.492E+06    -97.1491E+06    -140.058E+06    -19.2688E+06     7.45987E+06         58.3228
            1710     7.17907E-03     135.297E-03         2.94083    -317.153E-03    -558.701E-03    -557.606E-03         2.93974    -317.153E-03    -109.209E-03     453.826E-03    -226.772E-03    -227.053E-03    -226.633E-03     453.405E-03    -226.772E-03     33.6868E-03     195.426E+03    -80.7072E+06    -109.099E+06    -85.7033E+06    -104.103E+06     195.426E+03     9.14077E+06         58.6235
            1711     7.97630E-03     135.344E-03         3.05330    -346.891E-03    -643.112E-03    -642.148E-03         3.05233    -346.891E-03     9.60383E-03     453.879E-03    -226.642E-03    -227.237E-03    -226.460E-03     453.282E-03    -226.821E-03     40.1697E-03     20.0289E+06    -50.1682E+06     -82.534E+06    -73.9687E+06    -58.7335E+06     20.0289E+06     11.3676E+06         59.0282
            1712     8.77463E-03     135.403E-03         3.18275    -379.837E-03    -741.436E-03    -736.603E-03         3.17791    -379.837E-03    -125.657E-03     453.800E-03    -226.575E-03    -227.225E-03    -226.171E-03     453.000E-03    -226.829E-03     46.5321E-03     39.6831E+06    -419.924E+03    -66.7598E+06    -63.0486E+06    -4.13112E+06     39.6831E+06     14.7994E+06         59.6236
            1713     9.57216E-03     135.475E-03         3.31861    -415.856E-03    -841.156E-03    -835.054E-03         3.31251    -415.856E-03    -62.6354E-03     453.944E-03    -226.691E-03    -227.253E-03    -226.071E-03     452.886E-03    -226.816E-03     53.4859E-03     60.3696E+06     45.9082E+06    -56.4923E+06    -53.3350E+06     46.3106E+06     56.8099E+06     17.7600E+06         60.6010
            1714     10.3700E-03     135.556E-03         3.44957    -454.366E-03    -932.925E-03    -930.582E-03         3.44723    -454.366E-03     52.1316E-03     454.518E-03    -226.784E-03    -227.734E-03    -226.230E-03     453.064E-03    -226.834E-03     62.6879E-03     77.5581E+06     71.6535E+06    -46.7288E+06    -44.3202E+06     74.3425E+06     72.4605E+06     17.0044E+06         62.3225
            1715     11.1682E-03     135.651E-03         3.58931    -494.961E-03        -1.03162        -1.03068         3.58837    -494.961E-03    -127.644E-03     455.732E-03    -226.921E-03    -228.811E-03    -226.845E-03     453.766E-03    -226.921E-03     73.0984E-03     90.5018E+06     79.9420E+06    -37.2941E+06    -35.7611E+06     79.9468E+06     88.9639E+06     13.2792E+06         65.3125
            1716     11.9655E-03     135.759E-03         3.73329    -537.405E-03        -1.13511        -1.13124         3.72943    -537.405E-03     128.331E-03     456.382E-03    -227.033E-03    -229.349E-03    -226.960E-03     453.993E-03    -227.033E-03     80.7590E-03     103.808E+06     83.7308E+06    -28.1834E+06    -27.4104E+06     82.9578E+06     103.808E+06     9.08460E+06         69.9894
            1717     12.7642E-03     135.877E-03         3.87254    -581.576E-03        -1.23570        -1.22950         3.86635    -581.576E-03     19.1380E-03     457.523E-03    -227.120E-03    -230.402E-03    -226.752E-03     453.872E-03    -227.120E-03     98.7866E-03     119.336E+06     95.1999E+06    -18.7622E+06    -18.4805E+06     94.9182E+06     119.336E+06     5.20641E+06         76.0280
            1718     13.5630E-03     136.042E-03         4.01262    -627.150E-03        -1.33584        -1.32871         4.00550    -627.150E-03     52.2928E-03     457.573E-03    -227.199E-03    -230.374E-03    -226.393E-03     453.592E-03    -227.199E-03     103.867E-03     145.586E+06     119.265E+06    -9.23194E+06    -9.18360E+06     119.216E+06     145.586E+06     2.17700E+06         81.7800
            1719     797.703E-06     136.746E-03         4.98926    -226.650E-03        -2.74518    -339.591E-03         2.58368    -226.650E-03        -2.88406     450.908E-03    -225.145E-03    -225.764E-03    -225.680E-03     450.907E-03    -225.227E-03     1.64015E-03    -154.370E+06    -157.062E+06    -311.391E+06    -156.861E+06    -311.349E+06    -154.613E+06     802.909E+03         57.4538
            1720     1.59709E-03     136.748E-03         3.43581    -276.330E-03        -1.13302    -249.105E-03         2.55190    -276.330E-03     659.148E-03     451.122E-03    -225.434E-03    -225.688E-03    -225.591E-03     451.118E-03    -225.527E-03     3.13721E-03    -144.116E+06    -153.242E+06    -296.911E+06    -153.260E+06    -296.893E+06    -144.116E+06     1.51468E+06         57.4830
            1721     2.39566E-03     136.746E-03         3.07392    -274.820E-03    -756.189E-03    -305.986E-03         2.62372    -274.820E-03    -450.988E-03     451.668E-03    -225.676E-03    -225.992E-03    -225.969E-03     451.656E-03    -225.687E-03     5.50976E-03    -127.301E+06    -147.079E+06    -277.819E+06    -147.118E+06    -277.780E+06    -127.301E+06     1.97143E+06         57.5331
            1722     3.19274E-03     136.752E-03         2.92209    -284.839E-03    -594.405E-03    -321.064E-03         2.64875    -284.839E-03     112.514E-03     451.798E-03    -225.641E-03    -226.157E-03    -225.907E-03     451.770E-03    -225.864E-03     8.42118E-03    -106.201E+06    -138.731E+06    -254.709E+06    -138.793E+06    -254.646E+06    -106.201E+06     2.41929E+06         57.6083
            1723     3.99145E-03     136.758E-03         2.89440    -298.673E-03    -561.155E-03    -385.777E-03         2.71902    -298.673E-03    -263.534E-03     451.848E-03    -225.707E-03    -226.141E-03    -225.807E-03     451.792E-03    -225.985E-03     12.0847E-03    -84.0088E+06    -129.389E+06     -229.21E+06    -129.488E+06    -229.111E+06    -84.0088E+06     2.63630E+06         57.7145
            1724     4.78954E-03     136.777E-03         2.86310    -317.840E-03    -515.893E-03    -431.490E-03         2.77870    -317.840E-03     199.173E-03     452.495E-03    -226.060E-03    -226.435E-03    -226.274E-03     452.389E-03    -226.115E-03     16.7753E-03    -61.7748E+06    -119.032E+06    -202.846E+06    -119.215E+06    -202.662E+06    -61.7748E+06     3.34913E+06         57.8580
            1725     5.58548E-03     136.798E-03         2.89342    -339.259E-03    -519.909E-03    -486.822E-03         2.86033    -339.259E-03    -197.027E-03     453.045E-03    -226.278E-03    -226.767E-03    -226.584E-03     452.862E-03    -226.278E-03     22.1320E-03    -39.9615E+06    -107.935E+06    -174.876E+06    -108.324E+06    -174.487E+06    -39.9615E+06     4.58740E+06         58.0443
            1726     6.38314E-03     136.830E-03         2.95762    -362.993E-03    -553.289E-03    -544.438E-03         2.94877    -362.993E-03     108.744E-03     453.102E-03    -226.414E-03    -226.688E-03    -226.400E-03     452.815E-03    -226.414E-03     27.7996E-03    -18.9195E+06    -96.3600E+06    -143.745E+06    -97.0921E+06    -143.013E+06    -18.9195E+06     5.42621E+06         58.2813
            1727     7.18130E-03     136.868E-03         3.05231    -389.290E-03    -617.825E-03    -615.998E-03         3.05048    -389.290E-03    -102.230E-03     453.223E-03    -226.496E-03    -226.727E-03    -226.295E-03     452.791E-03    -226.496E-03     34.0881E-03     44.7227E+03    -83.4756E+06    -110.724E+06    -86.0699E+06    -108.130E+06     44.7227E+03     6.43754E+06         58.5843
            1728     7.97944E-03     136.919E-03         3.15635    -418.554E-03    -694.148E-03    -693.947E-03         3.15615    -418.554E-03     31.8224E-03     453.676E-03    -226.552E-03    -227.125E-03    -226.512E-03     453.063E-03    -226.552E-03     40.7233E-03     17.4267E+06    -58.3287E+06    -84.1309E+06    -75.8699E+06    -66.5897E+06     17.4267E+06     8.46202E+06         58.9877
            1729     8.77536E-03     136.977E-03         3.27553    -450.919E-03    -786.382E-03    -784.310E-03         3.27346    -450.919E-03    -100.162E-03     453.967E-03    -226.600E-03    -227.366E-03    -226.515E-03     453.116E-03    -226.600E-03     47.9326E-03     35.9416E+06    -13.5040E+06    -68.5890E+06    -65.3657E+06    -16.7273E+06     35.9416E+06     12.6890E+06         59.5738
            1730     9.57312E-03     137.048E-03         3.40161    -486.364E-03    -880.079E-03    -877.137E-03         3.39867    -486.364E-03    -32.9139E-03     453.842E-03    -226.564E-03    -227.278E-03    -226.099E-03     452.712E-03    -226.613E-03     55.3045E-03     59.7308E+06     38.0662E+06    -57.3176E+06    -54.4088E+06     40.3830E+06     54.5052E+06     16.4216E+06         60.5298
            1731     10.3724E-03     137.128E-03         3.52399    -524.131E-03    -963.739E-03    -962.600E-03         3.52285    -524.131E-03     55.9238E-03     453.885E-03    -226.562E-03    -227.323E-03    -225.802E-03     452.414E-03    -226.612E-03     63.0862E-03     79.8400E+06     69.8215E+06    -46.6111E+06    -44.4395E+06     77.6684E+06     69.8215E+06     16.3460E+06         62.2198
            1732     11.1717E-03     137.225E-03         3.65258    -563.703E-03        -1.05179        -1.05131         3.65209    -563.703E-03    -91.8130E-03     454.798E-03    -226.671E-03    -228.127E-03    -226.156E-03     452.827E-03    -226.671E-03     73.0663E-03     91.4289E+06     81.8961E+06    -37.1566E+06    -35.6164E+06     85.1489E+06     86.6360E+06     13.6245E+06         65.1857
            1733     11.9691E-03     137.336E-03         3.78414    -604.793E-03        -1.14388        -1.14029         3.78056    -604.793E-03     124.535E-03     456.004E-03    -226.785E-03    -229.219E-03    -226.827E-03     453.612E-03    -226.785E-03     80.8036E-03     105.037E+06     91.6553E+06    -27.6561E+06    -26.8796E+06     90.8788E+06     105.037E+06     9.26297E+06         69.8822
            1734     12.7658E-03     137.450E-03         3.91053    -647.420E-03        -1.23366        -1.22825         3.90512    -647.420E-03     30.4970E-03     457.594E-03    -226.899E-03    -230.695E-03    -226.995E-03     453.895E-03    -226.899E-03     99.3344E-03     121.951E+06     102.042E+06    -17.8132E+06    -17.5582E+06     101.787E+06     121.951E+06     5.25531E+06         76.0147
            1735     13.5645E-03     137.616E-03         4.03863    -691.377E-03        -1.32478        -1.31862         4.03247    -691.377E-03     58.7103E-03     456.692E-03    -226.978E-03    -229.714E-03    -225.653E-03     452.631E-03    -226.978E-03     104.766E-03     147.456E+06     123.544E+06    -8.74782E+06    -8.68094E+06     123.478E+06     147.456E+06     2.61582E+06         81.9071
            1736     799.566E-06     138.314E-03         6.65549    -312.270E-03        -4.36723    -494.051E-03         2.78230    -312.270E-03        -4.25486     449.642E-03    -224.400E-03    -225.242E-03    -225.157E-03     449.640E-03    -224.482E-03     990.724E-06    -156.169E+06    -158.728E+06    -313.542E+06    -158.650E+06    -313.506E+06    -156.282E+06     393.674E+03         57.3636
            1737     1.59815E-03     138.313E-03         4.21131    -397.031E-03        -1.81289    -372.222E-03         2.77064    -397.031E-03         1.12871     449.995E-03    -224.835E-03    -225.160E-03    -225.074E-03     449.991E-03    -224.917E-03     2.97182E-03    -145.699E+06    -154.797E+06    -298.889E+06    -154.807E+06    -298.879E+06    -145.699E+06     712.718E+03         57.3978
            1738     2.39591E-03     138.317E-03         3.53240    -395.004E-03        -1.11509    -418.640E-03         2.83595    -395.004E-03    -668.309E-03     450.543E-03    -225.102E-03    -225.441E-03    -225.430E-03     450.531E-03    -225.102E-03     5.30777E-03    -129.514E+06    -148.884E+06    -278.156E+06    -148.892E+06    -278.149E+06    -129.514E+06     830.395E+03         57.4553
            1739     3.19474E-03     138.321E-03         3.24851    -403.707E-03    -825.349E-03    -437.878E-03         2.86103    -403.707E-03     241.407E-03     451.188E-03    -225.337E-03    -225.851E-03    -225.822E-03     451.159E-03    -225.337E-03     8.59732E-03    -109.462E+06    -141.094E+06    -256.376E+06    -141.138E+06    -256.331E+06    -109.462E+06     844.181E+03         57.5386
            1740     3.99155E-03     138.331E-03         3.15330    -416.613E-03    -724.069E-03    -493.888E-03         2.92312    -416.613E-03    -327.567E-03     451.716E-03    -225.581E-03    -226.134E-03    -226.071E-03     451.652E-03    -225.581E-03     12.8140E-03    -86.4598E+06    -131.372E+06    -230.449E+06    -131.442E+06    -230.379E+06    -86.4598E+06     1.25564E+06         57.6512
            1741     4.78918E-03     138.346E-03         3.08765    -434.428E-03    -648.881E-03    -537.843E-03         2.97661    -434.428E-03     235.031E-03     451.739E-03    -225.700E-03    -226.039E-03    -225.847E-03     451.619E-03    -225.771E-03     17.7923E-03    -64.1773E+06    -121.796E+06    -203.852E+06    -121.847E+06    -203.800E+06    -64.1773E+06     1.66569E+06         57.7987
            1742     5.58877E-03     138.371E-03         3.09521    -454.663E-03    -634.228E-03    -588.066E-03         3.04905    -454.663E-03    -216.037E-03     451.945E-03    -225.829E-03    -226.116E-03    -225.839E-03     451.741E-03    -225.901E-03     23.3461E-03    -42.7584E+06    -111.349E+06    -177.160E+06    -111.417E+06    -177.093E+06    -42.7584E+06     1.51265E+06         57.9887
            1743     6.38601E-03     138.401E-03         3.14350    -476.944E-03    -651.880E-03    -637.416E-03         3.12903    -476.944E-03     132.993E-03     452.624E-03    -226.025E-03    -226.599E-03    -226.284E-03     452.309E-03    -226.025E-03     29.1169E-03    -21.9076E+06    -99.3802E+06    -146.308E+06    -99.5978E+06    -146.090E+06    -21.9076E+06     2.38296E+06         58.2302
            1744     7.18340E-03     138.441E-03         3.22483    -501.381E-03    -703.147E-03    -699.606E-03         3.22129    -501.381E-03    -104.736E-03     453.065E-03    -226.153E-03    -226.912E-03    -226.458E-03     452.611E-03    -226.153E-03     34.9777E-03      -2.734E+06    -87.3173E+06    -113.962E+06    -88.6947E+06    -112.585E+06      -2.734E+06     4.41389E+06         58.5366
            1745     7.98059E-03     138.491E-03         3.31819    -528.640E-03    -771.728E-03    -771.348E-03         3.31781    -528.640E-03     46.5707E-03     453.070E-03    -226.242E-03    -226.828E-03    -226.192E-03     452.435E-03    -226.242E-03     41.4138E-03     15.3981E+06    -65.6238E+06    -86.2316E+06    -78.2216E+06    -73.6338E+06     15.3981E+06     6.77242E+06         58.9395
            1746     8.78008E-03     138.551E-03         3.42483    -559.038E-03    -855.230E-03    -854.426E-03         3.42403    -559.038E-03    -84.8748E-03     453.229E-03    -226.284E-03    -226.945E-03    -226.076E-03     452.360E-03    -226.284E-03     48.4118E-03     32.9685E+06    -25.2825E+06     -70.027E+06    -67.5091E+06    -27.8004E+06     32.9685E+06     9.85026E+06         59.5181
            1747     9.57813E-03     138.621E-03         3.53506    -592.398E-03    -938.442E-03    -937.144E-03         3.53377    -592.398E-03    -12.9859E-03     453.807E-03    -226.303E-03    -227.504E-03    -226.348E-03     452.651E-03    -226.303E-03     55.9346E-03     56.5848E+06     29.7160E+06    -59.0756E+06    -57.1054E+06     33.4908E+06     50.8397E+06     13.0660E+06         60.4546
            1748     10.3744E-03     138.702E-03         3.64243    -627.774E-03        -1.01054        -1.00999         3.64189    -627.774E-03     52.3861E-03     454.263E-03    -226.344E-03    -227.919E-03    -226.427E-03     452.772E-03    -226.344E-03     63.6024E-03     79.6792E+06     66.0009E+06    -48.3488E+06    -46.7523E+06     78.0827E+06     66.0009E+06     14.1363E+06         62.1108
            1749     11.1717E-03     138.796E-03         3.75539    -664.605E-03        -1.08428        -1.08398         3.75510    -664.605E-03    -65.8866E-03     454.295E-03    -226.428E-03    -227.867E-03    -225.866E-03     452.294E-03    -226.428E-03     73.5115E-03     92.5026E+06     82.0677E+06    -37.9518E+06    -36.7047E+06     89.9739E+06     83.3493E+06     12.5315E+06         65.0449
            1750     11.9719E-03     138.909E-03         3.86887    -702.692E-03        -1.16186        -1.15901         3.86602    -702.692E-03     111.248E-03     454.553E-03    -226.513E-03    -228.040E-03    -225.574E-03     452.087E-03    -226.513E-03     81.8687E-03     105.496E+06     97.9545E+06    -28.1911E+06    -27.5185E+06     98.5020E+06     104.276E+06     8.93893E+06         69.7591
            1751     12.7708E-03     139.026E-03         3.97629    -742.163E-03        -1.23783        -1.23366         3.97212    -742.163E-03     33.1210E-03     456.244E-03    -226.579E-03    -229.666E-03    -225.869E-03     452.448E-03    -226.579E-03     100.490E-03     122.524E+06     107.589E+06    -19.5174E+06    -19.2678E+06     107.339E+06     122.524E+06     5.48098E+06         76.0018
            1752     13.5701E-03     139.187E-03         4.08404    -782.710E-03        -1.31489        -1.31012         4.07927    -782.710E-03     57.4489E-03     455.876E-03    -226.634E-03    -229.243E-03    -225.091E-03     451.724E-03    -226.634E-03     105.815E-03     149.152E+06     127.851E+06    -10.4801E+06    -10.4031E+06     127.774E+06     149.152E+06     2.70368E+06         82.0567
            1753     798.889E-06     139.878E-03         8.02499    -434.645E-03        -5.63628    -678.344E-03         3.06705    -434.645E-03        -5.29253     448.590E-03    -223.949E-03    -224.641E-03    -224.308E-03     448.585E-03    -224.277E-03     1.67714E-03    -159.331E+06    -162.958E+06    -313.540E+06    -162.228E+06    -313.514E+06    -160.087E+06     12.0496E+03         57.2589
            1754     1.59793E-03     139.882E-03         4.90433    -553.599E-03        -2.37973    -541.294E-03         3.06589    -553.599E-03         1.51270     449.032E-03    -224.401E-03    -224.631E-03    -224.615E-03     449.025E-03    -224.410E-03     3.84074E-03    -148.151E+06    -158.335E+06    -298.909E+06    -158.336E+06    -298.908E+06    -148.151E+06    -234.584E+03         57.2968
            1755     2.39772E-03     139.883E-03         3.98293    -553.977E-03        -1.43512    -572.386E-03         3.12019    -553.977E-03    -827.613E-03     449.321E-03    -224.573E-03    -224.748E-03    -224.723E-03     449.305E-03    -224.582E-03     6.36231E-03    -131.330E+06    -151.787E+06    -278.707E+06    -151.801E+06    -278.693E+06    -131.330E+06    -457.926E+03         57.3595
            1756     3.19607E-03     139.890E-03         3.60295    -561.596E-03        -1.04948    -592.060E-03         3.14553    -561.596E-03     349.116E-03     449.961E-03    -224.774E-03    -225.187E-03    -225.148E-03     449.922E-03    -224.774E-03     10.0639E-03    -110.723E+06    -143.513E+06    -255.993E+06    -143.540E+06    -255.966E+06    -110.723E+06    -608.881E+03         57.4498
            1757     3.99491E-03     139.901E-03         3.45847    -573.492E-03    -901.183E-03    -641.902E-03         3.19919    -573.492E-03    -366.995E-03     450.607E-03    -225.005E-03    -225.602E-03    -225.521E-03     450.526E-03    -225.005E-03     14.6145E-03    -88.9216E+06    -134.334E+06    -231.672E+06    -134.404E+06    -231.603E+06    -88.9216E+06    -289.394E+03         57.5705
            1758     4.79288E-03     139.917E-03         3.37132    -589.659E-03    -805.159E-03    -678.850E-03         3.24501    -589.659E-03     262.390E-03     451.092E-03    -225.160E-03    -225.933E-03    -225.717E-03     450.949E-03    -225.231E-03     19.5504E-03    -65.7310E+06    -123.511E+06    -203.711E+06    -123.569E+06    -203.654E+06    -65.7310E+06    -14.7521E+03         57.7262
            1759     5.59026E-03     139.939E-03         3.36080    -607.851E-03    -775.851E-03    -721.217E-03         3.30616    -607.851E-03    -226.946E-03     451.416E-03    -225.352E-03    -226.065E-03    -225.774E-03     451.197E-03    -225.423E-03     24.2389E-03    -44.0620E+06    -112.759E+06    -176.380E+06    -112.772E+06    -176.366E+06    -44.0620E+06    -497.474E+03         57.9230
            1760     6.38956E-03     139.973E-03         3.39056    -627.699E-03    -778.680E-03    -759.923E-03         3.37180    -627.699E-03     154.688E-03     451.825E-03    -225.577E-03    -226.248E-03    -225.919E-03     451.497E-03    -225.577E-03     29.6588E-03    -25.2030E+06    -102.424E+06    -148.682E+06    -102.459E+06    -148.648E+06    -25.2030E+06    -271.257E+03         58.1692
            1761     7.18647E-03     140.014E-03         3.45254    -649.107E-03    -813.281E-03    -808.118E-03         3.44738    -649.107E-03    -103.625E-03     452.374E-03    -225.720E-03    -226.654E-03    -226.171E-03     451.891E-03    -225.720E-03     36.0853E-03    -5.85314E+06    -90.6769E+06    -117.370E+06    -91.3595E+06    -116.687E+06    -5.85314E+06     855.372E+03         58.4785
            1762     7.98453E-03     140.062E-03         3.52998    -672.882E-03    -869.797E-03    -868.860E-03         3.52905    -672.882E-03     63.6651E-03     452.850E-03    -225.849E-03    -227.000E-03    -226.329E-03     452.178E-03    -225.849E-03     42.5669E-03     13.8640E+06    -71.4433E+06    -87.2073E+06    -78.8919E+06    -79.7588E+06     13.8640E+06     3.07274E+06         58.8809
            1763     8.78155E-03     140.122E-03         3.61840    -699.626E-03    -940.617E-03    -940.273E-03         3.61805    -699.626E-03    -71.4029E-03     453.236E-03    -225.951E-03    -227.285E-03    -226.410E-03     452.361E-03    -225.951E-03     48.6817E-03     32.2115E+06    -34.6372E+06    -68.3234E+06    -66.9171E+06    -36.0435E+06     32.2115E+06     5.86890E+06         59.4507
            1764     9.57949E-03     140.193E-03         3.71081    -729.155E-03        -1.01092        -1.01032         3.71022    -729.155E-03     5.72326E-03     453.334E-03    -226.008E-03    -227.326E-03    -226.173E-03     452.181E-03    -226.008E-03     55.7977E-03     52.8070E+06     23.7887E+06    -56.9633E+06    -55.8193E+06     24.5463E+06     50.9054E+06     9.28473E+06         60.3649
            1765     10.3783E-03     140.277E-03         3.80046    -760.534E-03        -1.07147        -1.07116         3.80014    -760.534E-03     48.8937E-03     453.391E-03    -226.039E-03    -227.353E-03    -225.818E-03     451.856E-03    -226.039E-03     64.4322E-03     77.1987E+06     65.7322E+06    -46.7004E+06    -45.4166E+06     74.4367E+06     67.2104E+06     12.4680E+06         61.9878
            1766     11.1765E-03     140.369E-03         3.89179    -793.104E-03        -1.12907        -1.12891         3.89163    -793.104E-03    -43.9183E-03     453.619E-03    -226.079E-03    -227.539E-03    -225.436E-03     451.516E-03    -226.079E-03     75.2912E-03     96.0209E+06     82.3017E+06    -37.1887E+06    -36.1385E+06     94.9707E+06     82.3017E+06     11.6087E+06         64.8971
            1767     11.9748E-03     140.479E-03         3.98236    -826.580E-03        -1.18817        -1.18627         3.98046    -826.580E-03     96.1062E-03     453.488E-03    -226.127E-03    -227.361E-03    -224.751E-03     450.879E-03    -226.127E-03     84.0922E-03     106.717E+06     99.1043E+06    -27.8425E+06    -27.2590E+06     104.153E+06     101.084E+06     8.67148E+06         69.6402
            1768     12.7758E-03     140.597E-03         4.06559    -861.231E-03        -1.24684        -1.24407         4.06283    -861.231E-03     30.5961E-03     454.700E-03    -226.167E-03    -228.534E-03    -224.676E-03     450.842E-03    -226.167E-03     101.325E-03     122.374E+06     112.559E+06    -18.8203E+06    -18.5238E+06     112.263E+06     122.374E+06     6.03568E+06         76.0104
            1769     13.5770E-03     140.757E-03         4.14512    -896.622E-03        -1.30450        -1.30126         4.14187    -896.622E-03     51.9790E-03     455.295E-03    -226.220E-03    -229.075E-03    -224.941E-03     451.160E-03    -226.220E-03     105.534E-03     151.699E+06     133.470E+06    -9.29474E+06    -9.20761E+06     133.383E+06     151.699E+06     2.86241E+06         82.2482
            1770     800.635E-06     141.445E-03         8.94579    -604.649E-03        -6.40602    -883.381E-03         3.42315    -604.649E-03        -5.93951     446.941E-03    -223.030E-03    -223.911E-03    -223.519E-03     446.937E-03    -223.417E-03     3.10125E-03    -163.781E+06    -169.133E+06    -312.825E+06    -168.394E+06    -312.808E+06    -164.538E+06    -307.740E+03         57.1271
            1771     1.59996E-03     141.445E-03         5.43214    -742.417E-03        -2.74207    -734.783E-03         3.42485    -742.417E-03         1.74541     447.516E-03    -223.547E-03    -223.969E-03    -223.891E-03     447.506E-03    -223.615E-03     4.99188E-03    -151.231E+06    -162.818E+06    -297.367E+06    -162.819E+06    -297.366E+06    -151.231E+06    -318.102E+03         57.1707
            1772     2.39894E-03     141.449E-03         4.37976    -743.650E-03        -1.67771    -759.218E-03         3.46127    -743.650E-03    -923.725E-03     448.022E-03    -223.836E-03    -224.185E-03    -224.154E-03     448.000E-03    -223.846E-03     7.48869E-03    -133.185E+06    -156.328E+06    -277.924E+06    -156.341E+06    -277.911E+06    -133.185E+06    -1.03227E+06         57.2411
            1773     3.19850E-03     141.456E-03         3.95443    -750.334E-03        -1.24215    -775.287E-03         3.48757    -750.334E-03     429.989E-03     448.330E-03    -224.048E-03    -224.282E-03    -224.232E-03     448.280E-03    -224.048E-03     11.3286E-03    -112.066E+06    -147.560E+06    -254.211E+06    -147.638E+06    -254.133E+06    -112.066E+06    -1.75211E+06         57.3401
            1774     3.99742E-03     141.468E-03         3.78644    -760.852E-03        -1.07257    -818.689E-03         3.53255    -760.852E-03    -382.622E-03     449.252E-03    -224.270E-03    -224.983E-03    -224.888E-03     449.158E-03    -224.270E-03     15.8029E-03    -89.7945E+06    -137.320E+06    -230.467E+06    -137.457E+06    -230.330E+06    -89.7945E+06    -2.74604E+06         57.4711
            1775     4.79642E-03     141.485E-03         3.69026    -774.995E-03    -970.893E-03    -847.182E-03         3.56655    -774.995E-03     277.553E-03     450.347E-03    -224.551E-03    -225.796E-03    -225.643E-03     450.194E-03    -224.551E-03     20.1882E-03    -68.1944E+06    -126.223E+06    -204.283E+06    -126.405E+06    -204.101E+06    -68.1944E+06    -3.24396E+06         57.6372
            1776     5.59417E-03     141.511E-03         3.66745    -790.393E-03    -932.829E-03    -877.921E-03         3.61254    -790.393E-03    -220.005E-03     450.891E-03    -224.835E-03    -226.056E-03    -225.813E-03     450.648E-03    -224.835E-03     25.4428E-03    -46.0816E+06    -114.365E+06    -175.080E+06    -114.572E+06    -174.873E+06    -46.0816E+06    -2.91496E+06         57.8424
            1777     6.39059E-03     141.542E-03         3.68221    -806.801E-03    -924.835E-03    -904.585E-03         3.66196    -806.801E-03     168.467E-03     451.209E-03    -225.067E-03    -226.142E-03    -225.776E-03     450.843E-03    -225.067E-03     31.2955E-03    -24.8181E+06    -102.608E+06    -148.166E+06    -102.970E+06    -147.803E+06    -24.8181E+06    -3.23399E+06         58.0940
            1778     7.19076E-03     141.584E-03         3.72338    -824.239E-03    -944.144E-03    -937.975E-03         3.71722    -824.239E-03    -90.2732E-03     451.771E-03    -225.248E-03    -226.523E-03    -226.025E-03     451.273E-03    -225.248E-03     36.6654E-03    -6.02786E+06    -90.6423E+06    -118.714E+06    -91.3330E+06    -118.023E+06    -6.02786E+06    -3.53095E+06         58.4051
            1779     7.98842E-03     141.634E-03         3.78082    -843.482E-03    -984.997E-03    -983.427E-03         3.77925    -843.482E-03     88.5984E-03     452.373E-03    -225.411E-03    -226.961E-03    -226.286E-03     451.698E-03    -225.411E-03     42.6496E-03     11.8518E+06    -75.0658E+06    -89.6790E+06    -79.8061E+06    -84.9387E+06     11.8518E+06    -2.43914E+06         58.8037
            1780     8.78575E-03     141.696E-03         3.84634    -865.177E-03        -1.03814        -1.03799         3.84618    -865.177E-03    -50.7227E-03     452.623E-03    -225.540E-03    -227.083E-03    -226.141E-03     451.681E-03    -225.540E-03     50.3796E-03     30.5185E+06    -40.9976E+06    -69.5173E+06    -68.0517E+06    -42.4632E+06     30.5185E+06     138.614E+03         59.3623
            1781     9.58271E-03     141.765E-03         3.91797    -889.305E-03        -1.09439        -1.09398         3.91756    -889.305E-03     37.5114E-03     452.460E-03    -225.598E-03    -226.861E-03    -225.597E-03     451.195E-03    -225.598E-03     58.4035E-03     49.2338E+06     13.1064E+06    -56.9200E+06    -56.4523E+06     12.6387E+06     49.2338E+06     5.06493E+06         60.2576
            1782     10.3817E-03     141.846E-03         3.98756    -915.142E-03        -1.14153        -1.14119         3.98722    -915.142E-03     56.6614E-03     451.954E-03    -225.584E-03    -226.371E-03    -224.729E-03     450.313E-03    -225.584E-03     66.4953E-03     75.3010E+06     57.8291E+06    -46.6570E+06    -45.6255E+06     66.5315E+06     65.5671E+06     10.7201E+06         61.8581
            1783     11.1820E-03     141.940E-03         4.05460    -942.056E-03        -1.18289        -1.18286         4.05456    -942.056E-03    -15.7066E-03     452.326E-03    -225.561E-03    -226.765E-03    -224.555E-03     450.116E-03    -225.561E-03     77.0802E-03     100.838E+06     80.6218E+06    -37.3955E+06    -36.4413E+06     99.8835E+06     80.6218E+06     11.2196E+06         64.7602
            1784     11.9825E-03     142.049E-03         4.11704    -969.544E-03        -1.22144        -1.22029         4.11590    -969.544E-03     95.1180E-03     453.243E-03    -225.609E-03    -227.633E-03    -224.952E-03     450.562E-03    -225.609E-03     85.2601E-03     109.537E+06     97.7282E+06    -28.5812E+06    -28.0868E+06     108.594E+06     98.1760E+06     8.11168E+06         69.5502
            1785     12.7819E-03     142.165E-03         4.17077    -997.739E-03        -1.25724        -1.25563         4.16916    -997.739E-03     36.7639E-03     454.833E-03    -225.713E-03    -229.120E-03    -225.249E-03     450.963E-03    -225.713E-03     101.602E-03     122.264E+06     116.002E+06    -19.2021E+06    -18.9474E+06     116.626E+06     121.386E+06     5.60439E+06         76.0585
            1786     13.5817E-03     142.327E-03         4.21895        -1.02620        -1.29204        -1.29014         4.21704        -1.02620     52.1082E-03     454.909E-03    -225.824E-03    -229.086E-03    -224.970E-03     450.794E-03    -225.824E-03     105.254E-03     152.681E+06     139.016E+06    -9.66621E+06    -9.58604E+06     138.936E+06     152.681E+06     2.93776E+06         82.4903
            1787     799.953E-06     143.003E-03         9.29905    -761.292E-03        -6.65058        -1.14073         3.78920    -761.292E-03        -6.06907     444.719E-03    -222.063E-03    -222.656E-03    -222.552E-03     444.712E-03    -222.160E-03     3.15170E-03    -166.251E+06    -172.361E+06    -311.606E+06    -170.303E+06    -311.592E+06    -168.323E+06    -373.552E+03         56.9578
            1788     1.60167E-03     143.008E-03         5.76127    -952.119E-03        -2.89795    -954.628E-03         3.81795    -952.119E-03         1.84222     445.212E-03    -222.376E-03    -222.836E-03    -222.715E-03     445.195E-03    -222.480E-03     6.47367E-03    -156.189E+06    -166.724E+06    -295.709E+06    -166.731E+06    -295.702E+06    -156.189E+06    -760.408E+03         57.0093
            1789     2.40132E-03     143.013E-03         4.70243    -954.558E-03        -1.82490    -961.017E-03         3.83854    -954.558E-03    -935.848E-03     446.110E-03    -222.701E-03    -223.408E-03    -223.327E-03     446.074E-03    -222.747E-03     9.47739E-03    -136.617E+06    -159.144E+06    -275.214E+06    -159.203E+06    -275.155E+06    -136.617E+06    -1.89382E+06         57.0915
            1790     3.20135E-03     143.018E-03         4.28468    -959.479E-03        -1.40245    -980.517E-03         3.86275    -959.479E-03     484.597E-03     447.274E-03    -223.102E-03    -224.172E-03    -224.106E-03     447.208E-03    -223.102E-03     13.0575E-03    -113.952E+06    -150.012E+06    -250.708E+06    -150.156E+06    -250.563E+06    -113.952E+06    -3.38796E+06         57.2038
            1791     4.00138E-03     143.033E-03         4.11540    -968.233E-03        -1.23024        -1.01011         3.89527    -968.233E-03    -367.699E-03     448.236E-03    -223.487E-03    -224.750E-03    -224.640E-03     448.126E-03    -223.487E-03     17.0497E-03    -90.2992E+06    -139.584E+06    -226.846E+06    -139.847E+06    -226.583E+06    -90.2992E+06    -4.57024E+06         57.3462
            1792     4.79866E-03     143.054E-03         4.02495    -979.236E-03        -1.13533        -1.02886         3.91848    -979.236E-03     287.260E-03     448.847E-03    -223.824E-03    -225.023E-03    -224.845E-03     448.669E-03    -223.824E-03     21.7063E-03    -67.7919E+06    -128.449E+06    -202.265E+06    -128.946E+06    -201.768E+06    -67.7919E+06    -5.73969E+06         57.5216
            1793     5.59764E-03     143.078E-03         3.99670    -990.937E-03        -1.09622        -1.04827         3.94875    -990.937E-03    -185.272E-03     449.668E-03    -224.113E-03    -225.555E-03    -225.279E-03     449.391E-03    -224.113E-03     27.1303E-03    -46.6661E+06    -116.705E+06    -173.959E+06    -117.643E+06    -173.022E+06    -46.6661E+06    -6.69054E+06         57.7353
            1794     6.39776E-03     143.112E-03         3.99915        -1.00320        -1.08232        -1.06313         3.97995        -1.00320     182.375E-03     450.792E-03    -224.407E-03    -226.385E-03    -225.985E-03     450.391E-03    -224.407E-03     32.8312E-03    -25.8668E+06    -104.068E+06    -147.019E+06    -105.564E+06    -145.523E+06    -25.8668E+06    -7.31421E+06         57.9932
            1795     7.19291E-03     143.154E-03         4.01927        -1.01593        -1.08688        -1.08058         4.01297        -1.01593    -60.4911E-03     451.404E-03    -224.682E-03    -226.722E-03    -226.169E-03     450.852E-03    -224.682E-03     38.5276E-03    -6.96893E+06    -91.0830E+06    -120.321E+06    -93.8071E+06    -117.597E+06    -6.96893E+06    -7.72760E+06         58.3061
            1796     7.99050E-03     143.206E-03         4.05532        -1.02983        -1.11237        -1.11024         4.05319        -1.02983     124.438E-03     451.195E-03    -224.873E-03    -226.322E-03    -225.577E-03     450.450E-03    -224.873E-03     44.6908E-03     10.3422E+06    -75.3568E+06    -93.3137E+06    -82.1860E+06    -86.4845E+06     10.3422E+06    -7.25615E+06         58.7024
            1797     8.79002E-03     143.264E-03         4.09735        -1.04561        -1.14641        -1.14633         4.09727        -1.04561    -15.0706E-03     450.711E-03    -224.952E-03    -225.760E-03    -224.746E-03     449.698E-03    -224.952E-03     52.1281E-03     27.5031E+06    -45.7916E+06    -73.3435E+06    -70.7983E+06    -48.3368E+06     27.5031E+06    -4.89222E+06         59.2573
            1798     9.59078E-03     143.336E-03         4.14419        -1.06335        -1.18468        -1.18410         4.14360        -1.06335     83.1971E-03     450.712E-03    -224.950E-03    -225.762E-03    -224.399E-03     449.349E-03    -224.950E-03     60.5284E-03     44.6661E+06    -1.13772E+06    -60.1364E+06    -59.7763E+06    -1.49784E+06     44.6661E+06     576.794E+03         60.1489
            1799     10.3894E-03     143.415E-03         4.18821        -1.08248        -1.21499        -1.21442         4.18764        -1.08248     83.2340E-03     451.248E-03    -224.916E-03    -226.332E-03    -224.585E-03     449.501E-03    -224.916E-03     68.6067E-03     71.5110E+06     44.9495E+06    -49.8361E+06    -49.3753E+06     55.9217E+06     60.0780E+06     6.44834E+06         61.7448
            1800     11.1897E-03     143.506E-03         4.22882        -1.10246        -1.23793        -1.23788         4.22877        -1.10246     23.5044E-03     452.119E-03    -224.924E-03    -227.195E-03    -224.919E-03     449.843E-03    -224.924E-03     78.3064E-03     102.535E+06     75.6161E+06    -39.8314E+06    -39.2081E+06     101.912E+06     75.6161E+06     8.99557E+06         64.6518
            1801     11.9887E-03     143.621E-03         4.26180        -1.12271        -1.25580        -1.25501         4.26102        -1.12271     106.803E-03     453.167E-03    -225.040E-03    -228.127E-03    -225.427E-03     450.467E-03    -225.040E-03     85.5867E-03     114.351E+06     94.6963E+06    -29.7429E+06    -29.3410E+06     113.949E+06     94.6963E+06     7.41237E+06         69.4958
            1802     12.7872E-03     143.736E-03         4.28411        -1.14321        -1.26868        -1.26780         4.28322        -1.14321     51.9672E-03     455.092E-03    -225.221E-03    -229.871E-03    -225.943E-03     451.164E-03    -225.221E-03     102.337E-03     122.792E+06     116.166E+06    -20.3358E+06    -20.1848E+06     120.184E+06     118.623E+06     4.46645E+06         76.1535
            1803     13.5863E-03     143.898E-03         4.29995        -1.16346        -1.27997        -1.27900         4.29898        -1.16346     56.9460E-03     455.131E-03    -225.413E-03    -229.719E-03    -225.534E-03     450.947E-03    -225.413E-03     106.148E-03     152.974E+06     142.871E+06    -10.2315E+06    -10.1863E+06     142.826E+06     152.974E+06     2.27292E+06         82.7941
            1804     803.067E-06     144.560E-03         9.15584    -935.276E-03        -6.36005        -1.39032         4.18612    -935.276E-03        -5.74023     442.008E-03    -220.812E-03    -221.196E-03    -220.967E-03     441.999E-03    -221.033E-03     3.92682E-03    -168.188E+06    -175.003E+06    -309.174E+06    -172.950E+06    -309.155E+06    -170.261E+06    -1.29874E+06         56.7427
            1805     1.60328E-03     144.566E-03         5.89796        -1.16862        -2.86522        -1.18904         4.22178        -1.16862         1.78794     442.608E-03    -221.093E-03    -221.514E-03    -221.448E-03     442.587E-03    -221.139E-03     7.35378E-03    -158.097E+06    -167.966E+06    -291.971E+06    -168.056E+06    -291.882E+06    -158.097E+06    -2.56925E+06         56.8007
            1806     2.40626E-03     144.570E-03         4.94986        -1.17502        -1.89837        -1.17666         4.22816        -1.17502    -869.404E-03     443.794E-03    -221.413E-03    -222.381E-03    -222.290E-03     443.749E-03    -221.459E-03     10.6982E-03    -138.979E+06    -160.412E+06    -270.357E+06    -160.605E+06    -270.164E+06    -138.979E+06    -4.26430E+06         56.8934
            1807     3.20549E-03     144.584E-03         4.59402        -1.17849        -1.53390        -1.19129         4.25141        -1.17849     494.974E-03     445.552E-03    -221.928E-03    -223.623E-03    -223.531E-03     445.459E-03    -221.928E-03     15.4219E-03    -116.476E+06    -151.850E+06    -247.152E+06    -152.106E+06    -246.896E+06    -116.476E+06    -4.77085E+06         57.0189
            1808     4.00260E-03     144.597E-03         4.43895        -1.18419        -1.37657        -1.20334         4.26571        -1.18419    -330.339E-03     446.501E-03    -222.425E-03    -224.076E-03    -223.922E-03     446.348E-03    -222.425E-03     19.9412E-03    -91.6749E+06    -141.835E+06    -222.508E+06    -142.295E+06    -222.048E+06    -91.6749E+06    -5.73320E+06         57.1756
            1809     4.80442E-03     144.617E-03         4.35970        -1.19079        -1.29565        -1.21239         4.27644        -1.19079     286.264E-03     447.265E-03    -222.835E-03    -224.430E-03    -224.200E-03     447.035E-03    -222.835E-03     24.6868E-03    -66.5573E+06    -129.593E+06    -196.701E+06    -130.622E+06    -195.672E+06    -66.5573E+06    -7.84826E+06         57.3645
            1810     5.60350E-03     144.644E-03         4.32721        -1.19789        -1.25739        -1.21975         4.28958        -1.19789    -141.741E-03     448.664E-03    -223.209E-03    -225.456E-03    -225.124E-03     448.333E-03    -223.209E-03     29.7201E-03    -44.8826E+06    -117.075E+06    -170.642E+06    -119.042E+06    -168.675E+06    -44.8826E+06    -9.68209E+06         57.5890
            1811     6.39958E-03     144.681E-03         4.31855        -1.20508        -1.24051        -1.22422         4.30245        -1.20527     194.068E-03     449.479E-03    -223.567E-03    -225.912E-03    -225.446E-03     449.013E-03    -223.567E-03     35.2767E-03    -25.6419E+06    -104.185E+06    -145.525E+06    -107.301E+06    -142.409E+06    -25.6419E+06    -10.6572E+06         57.8547
            1812     7.19975E-03     144.724E-03         4.32151        -1.21129        -1.23589        -1.22885         4.31597        -1.21280    -19.8266E-03     449.408E-03    -223.833E-03    -225.575E-03    -224.925E-03     448.758E-03    -223.833E-03     41.6643E-03    -7.36735E+06    -89.7992E+06    -121.089E+06    -95.4019E+06    -115.486E+06    -7.36735E+06    -11.2756E+06         58.1761
            1813     7.99889E-03     144.773E-03         4.33655        -1.21654        -1.24722        -1.24041         4.33411        -1.22091     163.788E-03     449.372E-03    -223.986E-03    -225.386E-03    -224.500E-03     448.485E-03    -223.986E-03     48.7310E-03     9.26192E+06    -73.3478E+06    -97.2641E+06    -84.5332E+06    -86.0788E+06     9.26192E+06    -10.8626E+06         58.5864
            1814     8.79746E-03     144.832E-03         4.35498        -1.22653        -1.26286        -1.25895         4.35485        -1.23030     33.8294E-03     449.588E-03    -224.071E-03    -225.518E-03    -224.360E-03     448.430E-03    -224.071E-03     55.7200E-03     25.1612E+06    -48.3646E+06    -77.9571E+06    -73.6968E+06    -52.6248E+06     25.1612E+06    -8.72745E+06         59.1597
            1815     9.59706E-03     144.900E-03         4.37582        -1.23816        -1.28039        -1.27642         4.37486        -1.24116     132.219E-03     449.929E-03    -224.119E-03    -225.809E-03    -224.359E-03     448.478E-03    -224.119E-03     62.4390E-03     40.9156E+06    -11.7169E+06    -63.1874E+06    -62.0142E+06    -12.8901E+06     40.9156E+06    -5.34533E+06         60.0660
            1816     10.3989E-03     144.984E-03         4.39124        -1.24589        -1.29494        -1.28692         4.39034        -1.25300     121.244E-03     451.015E-03    -224.164E-03    -226.851E-03    -225.060E-03     449.224E-03    -224.164E-03     69.4913E-03     64.6027E+06     37.6289E+06    -50.0621E+06    -49.6391E+06     44.1497E+06     57.6589E+06    -95.3214E+03         61.6667
            1817     11.1960E-03     145.077E-03         4.40285        -1.25124        -1.30563        -1.29133         4.40263        -1.26532     66.1512E-03     452.537E-03    -224.255E-03    -228.282E-03    -225.979E-03     450.234E-03    -224.255E-03     78.8732E-03     98.1327E+06     71.9048E+06    -38.6467E+06    -38.4263E+06     97.9122E+06     71.9048E+06     5.01440E+06         64.5798
            1818     11.9950E-03     145.188E-03         4.40666        -1.25229        -1.31327        -1.28734         4.40594        -1.27750     121.899E-03     453.252E-03    -224.450E-03    -228.802E-03    -226.059E-03     450.509E-03    -224.450E-03     86.3137E-03     117.652E+06     89.4496E+06    -29.1144E+06    -28.8565E+06     117.394E+06     89.4496E+06     5.91545E+06         69.4778
            1819     12.7946E-03     145.307E-03         4.40077        -1.25196        -1.31835        -1.28017         4.40019        -1.28957     65.9985E-03     454.955E-03    -224.710E-03    -230.244E-03    -226.315E-03     451.025E-03    -224.710E-03     102.508E-03     125.911E+06     115.018E+06    -19.6251E+06    -19.5201E+06     124.905E+06     115.918E+06     3.15695E+06         76.2962
            1820     13.5946E-03     145.467E-03         4.38636        -1.24964        -1.32173        -1.26983         4.38589        -1.30108     57.1935E-03     455.725E-03    -224.997E-03    -230.728E-03    -226.609E-03     451.606E-03    -224.997E-03     105.413E-03     154.439E+06     144.772E+06    -9.89956E+06    -9.87625E+06     145.823E+06     153.364E+06     1.27295E+06         83.1646
            1821     802.161E-06     146.114E-03         8.63849        -1.16141        -5.64140        -1.59964         4.59674        -1.16141        -5.05349     439.202E-03    -219.108E-03    -220.094E-03    -219.832E-03     439.192E-03    -219.360E-03     4.57724E-03    -167.879E+06    -176.519E+06    -303.844E+06    -173.862E+06    -303.820E+06    -170.560E+06    -1.30874E+06         56.4576
            1822     1.60662E-03     146.118E-03         5.90895        -1.38641        -2.68770        -1.40723         4.62848        -1.38641         1.59706     439.843E-03    -219.675E-03    -220.168E-03    -220.069E-03     439.814E-03    -219.745E-03     8.29875E-03    -157.967E+06    -169.261E+06    -286.914E+06    -169.385E+06    -286.790E+06    -157.967E+06    -3.49029E+06         56.5205
            1823     2.40668E-03     146.128E-03         5.14670        -1.39276        -1.92646        -1.39215         4.61238        -1.39276    -738.383E-03     440.880E-03    -220.048E-03    -220.832E-03    -220.762E-03     440.810E-03    -220.048E-03     13.0871E-03    -139.573E+06    -162.769E+06    -264.711E+06    -162.995E+06    -264.485E+06    -139.573E+06    -4.71313E+06         56.6210
            1824     3.20923E-03     146.140E-03         4.87648        -1.39472        -1.64596        -1.39669         4.62722        -1.39472     476.977E-03     441.838E-03    -220.414E-03    -221.424E-03    -221.287E-03     441.701E-03    -220.414E-03     18.7143E-03    -115.979E+06    -153.782E+06    -242.508E+06    -154.269E+06    -242.021E+06    -115.979E+06    -6.19827E+06         56.7593
            1825     4.01255E-03     146.159E-03         4.74912        -1.39686        -1.51499        -1.39194         4.62607        -1.39686    -261.595E-03     443.663E-03    -220.841E-03    -222.822E-03    -222.606E-03     443.447E-03    -220.841E-03     23.8701E-03    -90.6564E+06    -141.637E+06    -216.493E+06    -142.644E+06    -215.486E+06    -90.6564E+06    -8.23622E+06         56.9348
            1826     4.81006E-03     146.178E-03         4.68274        -1.39733        -1.45030        -1.38917         4.62290        -1.39862     279.097E-03     445.780E-03    -221.378E-03    -224.402E-03    -224.085E-03     445.462E-03    -221.378E-03     28.9069E-03    -66.3347E+06    -129.084E+06    -190.320E+06    -130.891E+06    -188.513E+06    -66.3347E+06    -10.0116E+06         57.1449
            1827     5.60882E-03     146.211E-03         4.64352        -1.39562        -1.41801        -1.38605         4.61655        -1.40061    -91.5796E-03     446.764E-03    -221.906E-03    -224.857E-03    -224.414E-03     446.321E-03    -221.906E-03     34.2535E-03    -43.5323E+06    -116.095E+06    -165.955E+06    -119.159E+06    -162.890E+06    -43.5323E+06    -11.6780E+06         57.3899
            1828     6.40930E-03     146.246E-03         4.62400        -1.38625        -1.40822        -1.37967         4.61184        -1.40264     207.722E-03     446.798E-03    -222.289E-03    -224.509E-03    -223.911E-03     446.200E-03    -222.289E-03     39.8639E-03    -23.6908E+06    -102.536E+06    -142.697E+06    -107.378E+06    -137.854E+06    -23.6908E+06    -12.7681E+06         57.6787
            1829     7.20802E-03     146.287E-03         4.61189        -1.37648        -1.40459        -1.37214         4.60755        -1.40459     29.4162E-03     446.941E-03    -222.530E-03    -224.410E-03    -223.615E-03     446.146E-03    -222.530E-03     45.9835E-03    -6.28749E+06    -87.9151E+06    -120.066E+06    -96.3344E+06    -111.646E+06    -6.28749E+06    -13.4447E+06         58.0309
            1830     8.00880E-03     146.338E-03         4.60644        -1.36949        -1.40679        -1.36688         4.60382        -1.40679     202.756E-03     447.738E-03    -222.716E-03    -225.022E-03    -224.014E-03     446.730E-03    -222.716E-03     51.9235E-03     9.89067E+06    -70.4028E+06    -99.5852E+06    -85.2491E+06    -84.7388E+06     9.89067E+06    -14.1834E+06         58.4789
            1831     8.80978E-03     146.397E-03         4.60197        -1.36671        -1.40968        -1.36628         4.60153        -1.40968     91.4258E-03     449.023E-03    -222.909E-03    -226.114E-03    -224.857E-03     447.766E-03    -222.909E-03     58.1163E-03     25.3341E+06    -45.6049E+06    -81.8697E+06    -73.5145E+06    -53.9602E+06     25.3341E+06    -13.9945E+06         59.0892
            1832     9.60822E-03     146.468E-03         4.59825        -1.36691        -1.41347        -1.36541         4.59676        -1.41347     179.431E-03     450.474E-03    -223.129E-03    -227.345E-03    -225.784E-03     448.913E-03    -223.129E-03     64.8810E-03     40.4062E+06    -14.4361E+06    -65.5854E+06    -62.0839E+06    -17.9376E+06     40.4062E+06    -11.8442E+06         60.0206
            1833     10.4044E-03     146.550E-03         4.58706        -1.35851        -1.41785        -1.35715         4.58570        -1.41785     164.619E-03     451.758E-03    -223.355E-03    -228.402E-03    -226.483E-03     449.839E-03    -223.355E-03     72.0431E-03     57.3474E+06     30.5821E+06    -51.7353E+06    -50.6366E+06     31.3198E+06     55.5111E+06    -6.75343E+06         61.6277
            1834     11.2049E-03     146.648E-03         4.57086        -1.34365        -1.42233        -1.34314         4.57036        -1.42233     106.902E-03     452.844E-03    -223.572E-03    -229.271E-03    -226.907E-03     450.479E-03    -223.572E-03     80.0596E-03     89.6102E+06     66.4768E+06    -39.8502E+06    -39.6625E+06     87.5076E+06     68.3916E+06    -339.420E+03         64.5448
            1835     12.0021E-03     146.759E-03         4.54587        -1.32009        -1.42625        -1.31922         4.54500        -1.42625     140.929E-03     453.661E-03    -223.852E-03    -229.809E-03    -227.058E-03     450.910E-03    -223.852E-03     86.5202E-03     118.561E+06     85.1884E+06    -29.5908E+06    -29.5171E+06     118.487E+06     85.1884E+06     2.32509E+06         69.4985
            1836     12.8000E-03     146.877E-03         4.51277        -1.29158        -1.42967        -1.29101         4.51220        -1.42967     84.4028E-03     455.801E-03    -224.217E-03    -231.585E-03    -227.651E-03     451.868E-03    -224.217E-03     102.784E-03     129.408E+06     111.765E+06    -19.6034E+06    -19.5622E+06     129.367E+06     111.765E+06     1.47979E+06         76.4862
            1837     13.5968E-03     147.039E-03         4.47185        -1.26056        -1.43219        -1.26026         4.47155        -1.43219     60.7948E-03     456.475E-03    -224.628E-03    -231.846E-03    -227.764E-03     452.392E-03    -224.628E-03     105.071E-03     155.772E+06     143.713E+06    -9.98939E+06    -9.97997E+06     147.356E+06     152.119E+06     652.086E+03         83.6035
            1838     804.769E-06     147.661E-03         7.85782        -1.35596        -4.72059        -1.81310         4.95033        -1.35596        -4.08853     435.012E-03    -217.084E-03    -217.928E-03    -217.840E-03     434.994E-03    -217.154E-03     6.06162E-03    -169.666E+06    -177.765E+06    -299.905E+06    -175.099E+06    -299.890E+06    -172.347E+06    -912.584E+03         56.0579
            1839     1.60780E-03     147.667E-03         5.84404        -1.59045        -2.46786        -1.61171         4.98790        -1.59045         1.32786     435.315E-03    -217.513E-03    -217.802E-03    -217.665E-03     435.252E-03    -217.587E-03     12.0037E-03    -158.390E+06    -171.013E+06    -280.759E+06    -171.086E+06    -280.686E+06    -158.390E+06    -2.36863E+06         56.1301
            1840     2.41358E-03     147.678E-03         5.30689        -1.59545        -1.93118        -1.58538         4.96108        -1.59545    -569.920E-03     436.474E-03    -217.830E-03    -218.644E-03    -218.514E-03     436.348E-03    -217.834E-03     17.8738E-03    -137.687E+06    -164.168E+06    -258.413E+06    -164.447E+06    -258.134E+06    -137.687E+06    -4.72489E+06         56.2463
            1841     3.21680E-03     147.691E-03         5.12363        -1.59447        -1.74507        -1.58490         4.96346        -1.59447     430.466E-03     438.109E-03    -218.260E-03    -219.849E-03    -219.651E-03     437.911E-03    -218.260E-03     22.6009E-03    -112.164E+06    -152.726E+06    -233.355E+06    -153.577E+06    -232.504E+06    -112.164E+06    -7.73469E+06         56.4054
            1842     4.01847E-03     147.712E-03         5.02857        -1.59330        -1.64629        -1.56848         4.95075        -1.59330    -172.380E-03     439.972E-03    -218.779E-03    -221.193E-03    -220.891E-03     439.670E-03    -218.779E-03     27.9454E-03    -88.0873E+06    -140.577E+06    -209.388E+06    -142.396E+06    -207.568E+06    -88.0873E+06    -10.7238E+06         56.6055
            1843     4.82074E-03     147.741E-03         4.97659        -1.57888        -1.60722        -1.55585         4.93735        -1.59100     267.164E-03     441.890E-03    -219.344E-03    -222.546E-03    -222.099E-03     441.443E-03    -219.344E-03     34.1773E-03    -64.5304E+06    -127.515E+06    -185.126E+06    -130.298E+06    -182.343E+06    -64.5304E+06    -12.1600E+06         56.8466
            1844     5.62031E-03     147.770E-03         4.93404        -1.55916        -1.58835        -1.54148         4.91637        -1.58835    -31.3797E-03     443.046E-03    -219.878E-03    -223.168E-03    -222.546E-03     442.424E-03    -219.878E-03     40.4092E-03    -41.5655E+06    -113.680E+06    -160.516E+06    -118.059E+06    -156.138E+06    -41.5655E+06    -13.2571E+06         57.1336
            1845     6.42060E-03     147.806E-03         4.90361        -1.53489        -1.58546        -1.52618         4.89489        -1.58546     223.689E-03     444.027E-03    -220.327E-03    -223.700E-03    -222.912E-03     443.239E-03    -220.327E-03     45.6304E-03    -21.4382E+06    -99.4919E+06    -139.066E+06    -106.903E+06    -131.655E+06    -21.4382E+06    -15.0275E+06         57.4766
            1846     7.22278E-03     147.848E-03         4.87474        -1.50867        -1.58231        -1.50538         4.87144        -1.58231     83.9642E-03     445.571E-03    -220.738E-03    -224.834E-03    -223.871E-03     444.608E-03    -220.738E-03     50.6644E-03    -3.17484E+06    -82.9676E+06    -118.281E+06    -94.9932E+06    -106.255E+06    -3.17484E+06    -16.2960E+06         57.8894
            1847     8.02191E-03     147.901E-03         4.85018        -1.48608        -1.57889        -1.48326         4.84736        -1.57889     239.013E-03     447.398E-03    -221.160E-03    -226.238E-03    -225.086E-03     446.247E-03    -221.160E-03     55.5881E-03     13.2655E+06    -63.9760E+06    -99.4070E+06    -82.8414E+06    -80.5416E+06     13.2655E+06    -17.3835E+06         58.3948
            1848     8.81940E-03     147.962E-03         4.82441        -1.46494        -1.57547        -1.46397         4.82345        -1.57547     150.787E-03     449.069E-03    -221.592E-03    -227.477E-03    -226.112E-03     447.704E-03    -221.592E-03     60.6087E-03     27.4211E+06    -41.2969E+06    -83.5549E+06    -72.2530E+06    -52.5989E+06     27.4211E+06    -18.0584E+06         59.0498
            1849     9.61830E-03     148.035E-03         4.79775        -1.44716        -1.57234        -1.44512         4.79571        -1.57234     221.379E-03     450.829E-03    -222.025E-03    -228.804E-03    -227.151E-03     449.176E-03    -222.025E-03     66.8651E-03     41.0891E+06    -14.7331E+06    -68.5155E+06    -62.3962E+06    -20.8524E+06     41.0891E+06    -16.2419E+06         60.0067
            1850     10.4171E-03     148.120E-03         4.76201        -1.42244        -1.56934        -1.42059         4.76015        -1.56934     206.670E-03     452.507E-03    -222.444E-03    -230.063E-03    -228.051E-03     450.495E-03    -222.444E-03     73.9278E-03     53.7856E+06     22.4013E+06    -54.8988E+06    -52.5326E+06     20.0351E+06     53.7856E+06    -11.6346E+06         61.6200
            1851     11.2111E-03     148.218E-03         4.72091        -1.39109        -1.56610        -1.39023         4.72004        -1.56610     144.193E-03     453.640E-03    -222.821E-03    -230.819E-03    -228.345E-03     451.166E-03    -222.821E-03     82.0070E-03     84.4756E+06     58.9449E+06    -42.0656E+06    -41.4950E+06     77.0687E+06     65.7813E+06    -6.59112E+06         64.5435
            1852     12.0094E-03     148.329E-03         4.67070        -1.34969        -1.56200        -1.34860         4.66961        -1.56200     159.451E-03     454.751E-03    -223.227E-03    -231.524E-03    -228.687E-03     451.914E-03    -223.227E-03     88.0414E-03     116.722E+06     81.4385E+06    -30.6600E+06    -30.5025E+06     116.564E+06     81.4385E+06    -3.14807E+06         69.5588
            1853     12.8060E-03     148.450E-03         4.61132        -1.30030        -1.55699        -1.29959         4.61061        -1.55699     101.809E-03     457.008E-03    -223.708E-03    -233.300E-03    -229.274E-03     452.982E-03    -223.708E-03     104.158E-03     129.075E+06     104.558E+06    -20.9640E+06    -20.9138E+06     129.025E+06     104.558E+06    -1.33448E+06         76.7315
            1854     13.6034E-03     148.613E-03         4.54741        -1.25070        -1.55073        -1.25041         4.54712        -1.55073     66.6492E-03     457.796E-03    -224.264E-03    -233.532E-03    -229.383E-03     453.647E-03    -224.264E-03     106.057E-03     157.401E+06     139.060E+06    -10.8626E+06    -10.8340E+06     146.960E+06     149.473E+06    -831.935E+03         84.1201
            1855     807.143E-06     149.203E-03         7.05912        -1.53709        -3.78106        -1.97825         5.25631        -1.53709        -3.04177     427.812E-03    -213.623E-03    -214.188E-03    -213.785E-03     427.782E-03    -213.997E-03     8.05050E-03    -170.158E+06    -177.457E+06    -295.835E+06    -174.950E+06    -295.785E+06    -172.716E+06    -1.39003E+06         55.5058
            1856     1.61551E-03     149.206E-03         5.76962        -1.76527        -2.27712        -1.79216         5.28466        -1.76527         1.02777     428.835E-03    -214.089E-03    -214.746E-03    -214.649E-03     428.742E-03    -214.093E-03     14.9163E-03    -157.690E+06    -169.737E+06    -273.780E+06    -169.855E+06    -273.662E+06    -157.690E+06    -2.98166E+06         55.5973
            1857     2.42143E-03     149.220E-03         5.44551        -1.77119        -1.94778        -1.75815         5.25588        -1.77119    -376.297E-03     430.786E-03    -214.580E-03    -216.206E-03    -216.011E-03     430.595E-03    -214.583E-03     21.9218E-03    -133.908E+06    -160.675E+06    -249.572E+06    -161.099E+06    -249.148E+06    -133.908E+06    -5.60602E+06         55.7421
            1858     3.22575E-03     149.239E-03         5.34070        -1.76516        -1.83932        -1.74711         5.25160        -1.76828     365.308E-03     433.299E-03    -215.257E-03    -218.042E-03    -217.729E-03     432.986E-03    -215.257E-03     28.1119E-03    -108.192E+06    -149.222E+06    -223.212E+06    -150.437E+06    -221.997E+06    -108.192E+06    -9.03839E+06         55.9366
            1859     4.02930E-03     149.261E-03         5.27014        -1.75483        -1.77567        -1.72310         5.22668        -1.76395    -77.9403E-03     435.085E-03    -215.966E-03    -219.119E-03    -218.654E-03     434.619E-03    -215.966E-03     34.5181E-03    -83.0735E+06    -137.376E+06    -200.978E+06    -139.543E+06    -198.810E+06    -83.0735E+06    -11.4222E+06         56.1793
            1860     4.83280E-03     149.290E-03         5.22588        -1.72482        -1.76129        -1.70471         5.20276        -1.75828     252.824E-03     436.249E-03    -216.562E-03    -219.688E-03    -219.059E-03     435.620E-03    -216.562E-03     40.3452E-03    -59.7847E+06    -124.967E+06    -179.171E+06    -128.881E+06    -175.256E+06    -59.7847E+06    -13.4711E+06         56.4751
            1861     5.63769E-03     149.323E-03         5.18147        -1.69128        -1.75203        -1.68049         5.17067        -1.75203     37.8401E-03     438.474E-03    -217.114E-03    -221.360E-03    -220.554E-03     437.668E-03    -217.114E-03     45.9312E-03    -37.5046E+06    -109.463E+06    -154.934E+06    -116.186E+06    -148.211E+06    -37.5046E+06    -15.7684E+06         56.8326
            1862     6.43969E-03     149.361E-03         5.14216        -1.66251        -1.74520        -1.65626         5.13591        -1.74520     238.729E-03     441.764E-03    -217.770E-03    -223.994E-03    -223.007E-03     440.777E-03    -217.770E-03     51.1313E-03    -16.8124E+06    -92.4117E+06    -134.298E+06    -102.937E+06    -123.772E+06    -16.8124E+06    -17.8687E+06         57.2564
            1863     7.23753E-03     149.408E-03         5.10003        -1.62886        -1.73787        -1.62592         5.09709        -1.73787     142.996E-03     444.770E-03    -218.521E-03    -226.249E-03    -225.087E-03     443.609E-03    -218.521E-03     55.6653E-03     909.739E+03    -75.8014E+06    -115.575E+06    -91.5380E+06    -99.8389E+06     909.739E+03    -19.1418E+06         57.7486
            1864     8.03615E-03     149.463E-03         5.05791        -1.59064        -1.72965        -1.58739         5.05466        -1.72965     273.617E-03     447.275E-03    -219.291E-03    -227.983E-03    -226.615E-03     445.906E-03    -219.291E-03     60.5969E-03     16.9656E+06    -57.6368E+06    -98.2913E+06    -80.9497E+06    -74.9784E+06     16.9656E+06    -19.7278E+06         58.3225
            1865     8.83422E-03     149.528E-03         5.01271        -1.55248        -1.72059        -1.55067         5.01090        -1.72059     210.629E-03     449.893E-03    -220.048E-03    -229.844E-03    -228.257E-03     448.305E-03    -220.048E-03     65.5395E-03     31.2018E+06    -36.9898E+06    -82.8565E+06    -70.5627E+06    -49.2836E+06     31.2018E+06    -19.9912E+06         59.0289
            1866     9.62992E-03     149.602E-03         4.96573        -1.51817        -1.71115        -1.51558         4.96314        -1.71115     257.469E-03     451.934E-03    -220.777E-03    -231.157E-03    -229.325E-03     450.102E-03    -220.777E-03     70.5572E-03     43.8779E+06    -13.5365E+06    -68.5040E+06    -59.8564E+06    -22.1842E+06     43.8779E+06    -19.6159E+06         60.0150
            1867     10.4245E-03     149.691E-03         4.90699        -1.47721        -1.70131        -1.47494         4.90472        -1.70131     238.717E-03     453.078E-03    -221.427E-03    -231.651E-03    -229.510E-03     450.938E-03    -221.427E-03     76.3507E-03     56.0998E+06     17.1887E+06    -53.4220E+06    -48.3886E+06     12.1553E+06     56.0998E+06    -16.7121E+06         61.6379
            1868     11.2234E-03     149.788E-03         4.84336        -1.43154        -1.69088        -1.43024         4.84207        -1.69088     173.192E-03     454.619E-03    -221.979E-03    -232.641E-03    -230.036E-03     452.015E-03    -221.979E-03     84.3131E-03     83.5194E+06     54.4333E+06    -39.2363E+06    -37.4111E+06     68.2604E+06     67.8671E+06    -11.7881E+06         64.5741
            1869     12.0174E-03     149.904E-03         4.77224        -1.37474        -1.67941        -1.37352         4.77103        -1.67941     167.711E-03     456.447E-03    -222.555E-03    -233.893E-03    -230.928E-03     453.483E-03    -222.555E-03     90.2721E-03     110.727E+06     82.2879E+06    -28.4477E+06    -28.0460E+06     110.325E+06     82.2879E+06    -6.95497E+06         69.6623
            1870     12.8123E-03     150.023E-03         4.69254        -1.30909        -1.66671        -1.30820         4.69164        -1.66671     104.459E-03     458.857E-03    -223.191E-03    -235.665E-03    -231.634E-03     454.826E-03    -223.191E-03     104.690E-03     127.121E+06     101.308E+06    -19.8744E+06    -19.7629E+06     127.009E+06     101.308E+06    -3.93851E+06         77.0388
            1871     13.6079E-03     150.187E-03         4.60854        -1.24344        -1.65251        -1.24309         4.60818        -1.65251     64.3979E-03     459.852E-03    -223.926E-03    -235.926E-03    -231.837E-03     455.763E-03    -223.926E-03     105.640E-03     159.906E+06     132.477E+06    -10.6634E+06    -10.6123E+06     145.452E+06     146.881E+06    -2.71906E+06         84.7249
            1872     811.881E-06     150.726E-03         6.41673        -1.73739        -2.99246        -2.05939         5.48366        -1.73739        -2.06137     418.842E-03    -208.978E-03    -209.864E-03    -209.445E-03     418.797E-03    -209.352E-03     9.87361E-03    -163.478E+06    -171.136E+06    -287.218E+06    -168.720E+06    -287.076E+06    -166.035E+06    -3.50331E+06         54.7910
            1873     1.62160E-03     150.736E-03         5.73378        -1.90468        -2.15229        -1.92591         5.50740        -1.90468     745.411E-03     420.954E-03    -209.764E-03    -211.190E-03    -211.054E-03     420.818E-03    -209.764E-03     17.8331E-03    -152.027E+06    -162.557E+06    -265.623E+06    -162.880E+06    -265.299E+06    -152.027E+06    -5.29580E+06         54.9074
            1874     2.43039E-03     150.752E-03         5.56361        -1.91004        -1.98809        -1.90256         5.47808        -1.91004    -187.242E-03     423.129E-03    -210.481E-03    -212.648E-03    -212.357E-03     422.838E-03    -210.481E-03     26.6670E-03    -130.376E+06    -153.792E+06    -240.878E+06    -154.468E+06    -240.202E+06    -130.376E+06    -7.25003E+06         55.0906
            1875     3.23928E-03     150.774E-03         5.51097        -1.89776        -1.93634        -1.88414         5.46862        -1.90761     307.557E-03     425.431E-03    -211.220E-03    -214.211E-03    -213.727E-03     424.947E-03    -211.220E-03     34.7971E-03    -103.482E+06    -144.082E+06    -214.897E+06    -145.247E+06    -213.732E+06    -103.482E+06    -8.78973E+06         55.3403
            1876     4.04592E-03     150.802E-03         5.46132        -1.87433        -1.90193        -1.85336         5.44035        -1.90193     22.3732E-03     428.116E-03    -212.001E-03    -216.115E-03    -215.422E-03     427.423E-03    -212.001E-03     41.9260E-03    -75.9118E+06    -132.303E+06    -191.717E+06    -134.684E+06    -189.336E+06    -75.9118E+06    -11.1874E+06         55.6578
            1877     4.85171E-03     150.830E-03         5.42177        -1.83896        -1.89395        -1.82635         5.40916        -1.89395     240.406E-03     431.331E-03    -212.844E-03    -218.486E-03    -217.584E-03     430.428E-03    -212.844E-03     48.1186E-03    -50.9913E+06    -117.341E+06    -169.375E+06    -122.221E+06    -164.495E+06    -50.9913E+06    -14.6553E+06         56.0440
            1878     5.65553E-03     150.868E-03         5.37306        -1.80491        -1.88512        -1.79850         5.36665        -1.88512     103.980E-03     435.162E-03    -213.779E-03    -221.383E-03    -220.317E-03     434.096E-03    -213.779E-03     52.6614E-03    -30.2172E+06    -101.734E+06    -147.142E+06    -110.322E+06    -138.554E+06    -30.2172E+06    -17.4515E+06         56.4975
            1879     6.45726E-03     150.914E-03         5.32532        -1.76992        -1.87551        -1.76524         5.32063        -1.87551     255.559E-03     439.231E-03    -214.823E-03    -224.408E-03    -223.180E-03     438.003E-03    -214.823E-03     56.8530E-03    -11.5198E+06    -86.1637E+06    -128.926E+06    -99.0029E+06    -116.087E+06    -11.5198E+06    -19.3876E+06         57.0140
            1880     7.25757E-03     150.967E-03         5.27435        -1.72818        -1.86480        -1.72515         5.27133        -1.86480     202.810E-03     443.318E-03    -215.940E-03    -227.378E-03    -225.955E-03     441.895E-03    -215.940E-03     61.6110E-03     6.33026E+06    -69.0452E+06    -111.609E+06    -87.5788E+06    -93.0755E+06     6.33026E+06    -20.8246E+06         57.5914
            1881     8.05469E-03     151.024E-03         5.21890        -1.67991        -1.85263        -1.67621         5.21520        -1.85263     302.383E-03     447.027E-03    -217.076E-03    -229.951E-03    -228.323E-03     445.399E-03    -217.076E-03     66.2459E-03     22.5116E+06    -49.9335E+06    -95.2998E+06    -76.3176E+06    -68.9157E+06     22.5116E+06    -22.1336E+06         58.2391
            1882     8.85047E-03     151.094E-03         5.15728        -1.62728        -1.83897        -1.62437         5.15437        -1.83897     269.277E-03     450.239E-03    -218.182E-03    -232.057E-03    -230.181E-03     448.363E-03    -218.182E-03     71.3250E-03     36.8546E+06    -30.6109E+06    -79.9824E+06    -65.2218E+06    -45.3715E+06     36.8546E+06    -22.3576E+06         59.0044
            1883     9.64414E-03     151.175E-03         5.09346        -1.57984        -1.82424        -1.57653         5.09015        -1.82424     291.920E-03     453.028E-03    -219.226E-03    -233.802E-03    -231.666E-03     450.892E-03    -219.226E-03     76.3729E-03     49.6847E+06    -8.86949E+06    -65.6479E+06    -54.8384E+06    -19.6789E+06     49.6847E+06    -21.9796E+06         60.0318
            1884     10.4397E-03     151.259E-03         5.01703        -1.52560        -1.80865        -1.52288         5.01431        -1.80865     264.243E-03     455.049E-03    -220.185E-03    -234.864E-03    -232.473E-03     452.658E-03    -220.185E-03     81.0334E-03     61.0904E+06     17.7015E+06    -52.3619E+06    -44.7285E+06     10.0681E+06     61.0904E+06    -21.4847E+06         61.6783
            1885     11.2318E-03     151.362E-03         4.93489        -1.46623        -1.79210        -1.46438         4.93304        -1.79210     198.670E-03     456.850E-03    -221.029E-03    -235.821E-03    -233.049E-03     454.079E-03    -221.029E-03     87.3557E-03     77.3883E+06     53.3937E+06    -38.8824E+06    -35.0533E+06     56.2770E+06     70.6759E+06    -16.7303E+06         64.6378
            1886     12.0270E-03     151.479E-03         4.84584        -1.39669        -1.77426        -1.39530         4.84444        -1.77426     174.046E-03     458.687E-03    -221.844E-03    -236.843E-03    -233.809E-03     455.653E-03    -221.844E-03     91.6592E-03     101.101E+06     83.4451E+06    -26.7583E+06    -25.9030E+06     100.246E+06     83.4451E+06    -9.34056E+06         69.8102
            1887     12.8196E-03     151.603E-03         4.74744        -1.31697        -1.75482        -1.31580         4.74627        -1.75482     106.605E-03     461.473E-03    -222.672E-03    -238.801E-03    -234.742E-03     457.414E-03    -222.672E-03     105.510E-03     125.561E+06     98.3662E+06    -17.4983E+06    -17.2615E+06     125.324E+06     98.3662E+06    -5.57906E+06         77.4142
            1888     13.6103E-03     151.767E-03         4.64106        -1.23428        -1.73346        -1.23375         4.64053        -1.73346     64.6262E-03     462.479E-03    -223.615E-03    -238.864E-03    -234.740E-03     458.355E-03    -223.615E-03     106.544E-03     160.087E+06     124.981E+06    -9.00372E+06    -8.90647E+06     141.135E+06     143.836E+06    -3.14172E+06         85.4363
            1889     815.626E-06     152.238E-03         6.01350        -1.88278        -2.51999        -2.13115         5.62465        -1.88278        -1.23927     408.829E-03    -204.074E-03    -204.755E-03    -204.686E-03     408.760E-03    -204.074E-03     11.8016E-03    -157.441E+06    -164.849E+06    -275.976E+06    -163.599E+06    -275.819E+06    -158.847E+06    -3.29980E+06         53.9216
            1890     1.62984E-03     152.252E-03         5.73382        -2.00633        -2.11495        -2.02348         5.64690        -2.01087     515.612E-03     410.660E-03    -204.687E-03    -205.973E-03    -205.765E-03     410.452E-03    -204.687E-03     21.9928E-03    -145.090E+06    -157.849E+06    -255.658E+06    -158.278E+06    -255.228E+06    -145.090E+06    -6.07499E+06         54.0681
            1891     2.44369E-03     152.270E-03         5.65371        -2.00866        -2.03779        -2.00137         5.62183        -2.01320    -41.4360E-03     412.797E-03    -205.314E-03    -207.484E-03    -207.051E-03     412.364E-03    -205.314E-03     32.1904E-03    -124.318E+06    -150.101E+06    -232.133E+06    -151.006E+06    -231.229E+06    -124.318E+06    -8.39936E+06         54.3045
            1892     3.25540E-03     152.297E-03         5.62669        -1.99212        -2.02135        -1.98669         5.60973        -2.00981     258.774E-03     415.695E-03    -206.054E-03    -209.640E-03    -208.930E-03     414.984E-03    -206.054E-03     41.7155E-03    -97.7138E+06    -138.792E+06    -207.859E+06    -140.469E+06    -206.182E+06    -97.7138E+06    -10.1334E+06         54.6332
            1893     4.06728E-03     152.327E-03         5.58828        -1.96156        -2.00359        -1.95238         5.57910        -2.00359     109.885E-03     420.362E-03    -207.036E-03    -213.326E-03    -212.355E-03     419.391E-03    -207.036E-03     49.3079E-03    -69.5986E+06    -124.840E+06    -182.237E+06    -127.762E+06    -179.315E+06    -69.5986E+06    -12.1837E+06         55.0523
            1894     4.87533E-03     152.365E-03         5.54951        -1.92749        -1.99447        -1.92078         5.54280        -1.99447     231.890E-03     426.280E-03    -208.342E-03    -217.937E-03    -216.730E-03     425.072E-03    -208.342E-03     55.5635E-03    -43.3197E+06    -110.090E+06    -158.711E+06    -115.208E+06    -153.592E+06    -43.3197E+06    -14.5324E+06         55.5515
            1895     5.67819E-03     152.410E-03         5.49892        -1.89168        -1.98396        -1.88757         5.49481        -1.98396     159.317E-03     431.831E-03    -209.850E-03    -221.981E-03    -220.539E-03     430.390E-03    -209.850E-03     61.1387E-03    -21.0269E+06    -94.6956E+06    -137.389E+06    -103.718E+06    -128.367E+06    -21.0269E+06    -17.0571E+06         56.1163
            1896     6.47911E-03     152.461E-03         5.44361        -1.85178        -1.97216        -1.84798         5.43981        -1.97216     273.376E-03     436.835E-03    -211.408E-03    -225.428E-03    -223.784E-03     435.191E-03    -211.408E-03     65.7013E-03    -2.38876E+06    -78.1448E+06    -120.699E+06    -92.6239E+06    -106.220E+06    -2.38876E+06    -19.9747E+06         56.7353
            1897     7.27851E-03     152.519E-03         5.38466        -1.80234        -1.95868        -1.79871         5.38103        -1.95868     264.254E-03     441.768E-03    -212.961E-03    -228.808E-03    -226.998E-03     439.959E-03    -212.961E-03     69.3950E-03     14.2958E+06    -60.2356E+06    -105.726E+06    -80.8859E+06    -85.0754E+06     14.2958E+06    -22.4942E+06         57.4038
            1898     8.07517E-03     152.588E-03         5.32040        -1.74577        -1.94317        -1.74146         5.31609        -1.94317     330.418E-03     446.536E-03    -214.499E-03    -232.036E-03    -230.046E-03     444.545E-03    -214.499E-03     73.2399E-03     29.5989E+06    -42.2176E+06    -90.1045E+06    -69.8957E+06    -62.4264E+06     29.5989E+06    -23.3648E+06         58.1307
            1899     8.86932E-03     152.660E-03         5.24754        -1.68550        -1.92572        -1.68119         5.24323        -1.92572     325.276E-03     450.533E-03    -215.989E-03    -234.544E-03    -232.352E-03     448.342E-03    -215.989E-03     77.2884E-03     43.2131E+06    -24.6447E+06    -76.2015E+06    -60.0797E+06    -40.7665E+06     43.2131E+06    -23.7560E+06         58.9621
            1900     9.66518E-03     152.744E-03         5.17039        -1.62816        -1.90680        -1.62374         5.16598        -1.90680     330.027E-03     453.880E-03    -217.388E-03    -236.492E-03    -234.123E-03     451.511E-03    -217.388E-03     80.7325E-03     55.7856E+06    -4.12838E+06    -62.9217E+06    -50.1808E+06    -16.8693E+06     55.7856E+06    -23.8712E+06         60.0418
            1901     10.4548E-03     152.837E-03         5.08091        -1.56344        -1.88663        -1.56002         5.07748        -1.88663     292.203E-03     457.221E-03    -218.697E-03    -238.524E-03    -235.927E-03     454.624E-03    -218.697E-03     84.8059E-03     66.8864E+06     20.2691E+06    -50.2103E+06    -41.4761E+06     11.5349E+06     66.8864E+06    -22.8194E+06         61.7270
            1902     11.2463E-03     152.938E-03         4.98498        -1.49185        -1.86505        -1.48916         4.98228        -1.86505     232.265E-03     460.277E-03    -219.910E-03    -240.367E-03    -237.368E-03     457.278E-03    -219.910E-03     91.3919E-03     73.2773E+06     49.8566E+06    -39.0384E+06    -34.3080E+06     45.3661E+06     73.0375E+06    -18.8672E+06         64.7262
            1903     12.0348E-03     153.060E-03         4.87959        -1.40905        -1.84167        -1.40727         4.87782        -1.84167     191.219E-03     462.024E-03    -221.043E-03    -240.981E-03    -237.760E-03     458.803E-03    -221.043E-03     94.9255E-03     95.0865E+06     78.8484E+06    -27.5376E+06    -25.8210E+06     89.5464E+06     82.6719E+06    -13.1046E+06         70.0014
            1904     12.8250E-03     153.183E-03         4.76174        -1.31580        -1.81613        -1.31423         4.76016        -1.81613     121.790E-03     464.249E-03    -222.105E-03    -242.144E-03    -237.941E-03     460.046E-03    -222.105E-03     107.851E-03     119.247E+06     93.3113E+06    -18.1464E+06    -17.6225E+06     118.723E+06     93.3113E+06    -7.25478E+06         77.8717
            1905     13.6169E-03     153.352E-03         4.63373        -1.21912        -1.78820        -1.21839         4.63300        -1.78820     73.3587E-03     465.772E-03    -223.301E-03    -242.471E-03    -238.275E-03     461.576E-03    -223.301E-03     107.891E-03     157.667E+06     119.453E+06    -10.2541E+06    -10.1786E+06     133.138E+06     143.906E+06    -2.37775E+06         86.2868
            1906     819.464E-06     153.734E-03         5.82904        -1.97644        -2.30141        -2.17715         5.70477        -1.97644    -647.921E-03     396.416E-03    -197.954E-03    -198.461E-03    -198.275E-03     396.305E-03    -198.031E-03     14.8340E-03    -154.589E+06    -160.407E+06    -266.008E+06    -158.679E+06    -265.889E+06    -156.435E+06    -2.67771E+06         52.9305
            1907     1.64024E-03     153.749E-03         5.73502        -2.07213        -2.12373        -2.08935         5.70822        -2.07971     361.629E-03     398.010E-03    -198.406E-03    -199.603E-03    -199.287E-03     397.693E-03    -198.406E-03     26.7119E-03    -138.553E+06    -153.940E+06    -244.615E+06    -154.360E+06    -244.195E+06    -138.553E+06    -5.74460E+06         53.1214
            1908     2.45874E-03     153.772E-03         5.69159        -2.06824        -2.08277        -2.06136         5.68170        -2.07977     88.6051E-03     401.275E-03    -199.106E-03    -202.170E-03    -201.577E-03     400.682E-03    -199.106E-03     37.3827E-03    -113.915E+06    -144.019E+06    -222.057E+06    -145.086E+06    -220.990E+06    -113.915E+06    -8.79822E+06         53.4303
            1909     3.27736E-03     153.801E-03         5.67321        -2.04868        -2.07703        -2.04518         5.66670        -2.07403     245.128E-03     406.118E-03    -200.180E-03    -205.937E-03    -205.024E-03     405.204E-03    -200.180E-03     47.0253E-03    -88.5796E+06    -131.694E+06    -198.920E+06    -133.893E+06    -196.722E+06    -88.5796E+06    -11.6465E+06         53.8536
            1910     4.09035E-03     153.842E-03         5.63772        -2.01848        -2.06636        -2.01406         5.63330        -2.06636     189.108E-03     412.618E-03    -201.631E-03    -210.987E-03    -209.717E-03     411.348E-03    -201.631E-03     55.9813E-03    -62.5195E+06    -117.807E+06    -173.660E+06    -121.492E+06    -169.975E+06    -62.5195E+06    -13.5659E+06         54.3795
            1911     4.89789E-03     153.891E-03         5.59770        -1.98739        -2.05642        -1.98330         5.59361        -2.05642     250.872E-03     419.756E-03    -203.405E-03    -216.350E-03    -214.746E-03     418.151E-03    -203.405E-03     63.5363E-03    -36.7063E+06    -103.179E+06    -150.597E+06    -109.235E+06    -144.542E+06    -36.7063E+06    -15.4056E+06         54.9908
            1912     5.70433E-03     153.944E-03         5.54779        -1.94776        -2.04475        -1.94437         5.54440        -2.04475     226.558E-03     426.809E-03    -205.365E-03    -221.444E-03    -219.545E-03     424.910E-03    -205.365E-03     69.8381E-03    -12.2010E+06    -86.4819E+06    -128.505E+06    -96.2562E+06    -118.731E+06    -12.2010E+06    -17.4886E+06         55.6695
            1913     6.50666E-03     154.005E-03         5.48899        -1.90153        -2.03102        -1.89773         5.48519        -2.03102     305.234E-03     433.974E-03    -207.415E-03    -226.559E-03    -224.402E-03     431.817E-03    -207.415E-03     75.1977E-03     8.58805E+06    -69.2966E+06    -109.897E+06    -83.6852E+06    -95.5088E+06     8.58805E+06    -19.2520E+06         56.3993
            1914     7.30376E-03     154.072E-03         5.42376        -1.84862        -2.01508        -1.84359         5.41873        -2.01508     338.546E-03     440.602E-03    -209.494E-03    -231.108E-03    -228.775E-03     438.269E-03    -209.494E-03     78.8969E-03     23.7477E+06    -53.3298E+06    -96.4668E+06    -74.2495E+06    -75.5470E+06     23.7477E+06    -21.2640E+06         57.1693
            1915     8.09972E-03     154.145E-03         5.35268        -1.78793        -1.99688        -1.78234         5.34709        -1.99688     376.786E-03     446.235E-03    -211.534E-03    -234.701E-03    -232.260E-03     443.794E-03    -211.534E-03     81.3182E-03     37.0407E+06    -37.1118E+06    -84.1788E+06    -65.4187E+06    -55.8720E+06     37.0407E+06    -22.8040E+06         57.9850
            1916     8.89346E-03     154.228E-03         5.27318        -1.72419        -1.97656        -1.71792         5.26690        -1.97656     389.404E-03     451.173E-03    -213.482E-03    -237.691E-03    -235.126E-03     448.608E-03    -213.482E-03     83.8106E-03     50.1193E+06    -19.3498E+06    -71.1168E+06    -55.7465E+06    -34.7201E+06     50.1193E+06    -23.3652E+06         58.8928
            1917     9.68087E-03     154.315E-03         5.18704        -1.65959        -1.95449        -1.65341         5.18086        -1.95449     381.291E-03     455.429E-03    -215.305E-03    -240.124E-03    -237.390E-03     452.695E-03    -215.305E-03     86.9148E-03     60.6393E+06    -1.59445E+06    -59.9365E+06    -47.6790E+06    -13.8520E+06     60.6393E+06    -23.5551E+06         60.0355
            1918     10.4735E-03     154.413E-03         5.08758        -1.58404        -1.93070        -1.57946         5.08300        -1.93070     331.074E-03     459.397E-03    -217.004E-03    -242.393E-03    -239.467E-03     456.471E-03    -217.004E-03     90.3657E-03     70.1971E+06     19.4768E+06    -48.6894E+06    -39.9539E+06     10.7413E+06     70.1971E+06    -22.3205E+06         61.7704
            1919     11.2604E-03     154.522E-03         4.97929        -1.49964        -1.90484        -1.49573         4.97539        -1.90484     277.147E-03     463.101E-03    -218.581E-03    -244.520E-03    -241.249E-03     459.829E-03    -218.581E-03     95.9185E-03     76.3273E+06     43.6731E+06    -36.5226E+06    -31.6452E+06     38.7957E+06     76.3273E+06    -18.6728E+06         64.8262
            1920     12.0479E-03     154.645E-03         4.85899        -1.40358        -1.87653        -1.40130         4.85671        -1.87653     216.120E-03     465.638E-03    -220.049E-03    -245.590E-03    -242.099E-03     462.147E-03    -220.049E-03     99.3996E-03     93.3308E+06     72.9602E+06    -27.6371E+06    -25.5713E+06     80.2774E+06     83.9477E+06    -13.3550E+06         70.2359
            1921     12.8348E-03     154.770E-03         4.72820        -1.30267        -1.84559        -1.30066         4.72619        -1.84559     143.837E-03     468.591E-03    -221.427E-03    -247.164E-03    -242.782E-03     464.209E-03    -221.427E-03     111.058E-03     109.939E+06     91.0677E+06    -20.4935E+06    -19.8515E+06     109.297E+06     91.0677E+06    -8.02317E+06         78.4192
            1922     13.6208E-03     154.940E-03         4.58647        -1.19896        -1.81215        -1.19824         4.58575        -1.81215     76.6026E-03     470.626E-03    -222.964E-03    -247.662E-03    -243.378E-03     466.343E-03    -222.964E-03     109.812E-03     156.023E+06     115.513E+06    -10.9845E+06    -10.7832E+06     124.799E+06     146.535E+06    -3.24364E+06         87.2877
            1923     827.512E-06     155.208E-03         5.70386        -2.05841        -2.18677        -2.15839         5.67548        -2.05841    -235.759E-03     381.722E-03    -190.389E-03    -191.333E-03    -190.925E-03     381.574E-03    -190.649E-03     17.1411E-03    -149.198E+06    -154.663E+06    -254.981E+06    -154.467E+06    -254.737E+06    -149.638E+06    -4.34111E+06         51.9005
            1924     1.65283E-03     155.226E-03         5.68697        -2.10122        -2.12243        -2.10885         5.68080        -2.10863     250.625E-03     384.761E-03    -191.251E-03    -193.511E-03    -193.104E-03     384.355E-03    -191.251E-03     30.0339E-03    -133.034E+06    -146.256E+06    -233.967E+06    -146.838E+06    -233.386E+06    -133.034E+06    -6.73250E+06         52.1429
            1925     2.47740E-03     155.254E-03         5.65745        -2.08774        -2.10530        -2.08430         5.65402        -2.10530     185.809E-03     389.934E-03    -192.453E-03    -197.481E-03    -196.704E-03     389.156E-03    -192.453E-03     42.2228E-03    -106.580E+06    -136.030E+06    -211.722E+06    -137.107E+06    -210.644E+06    -106.580E+06    -8.80949E+06         52.5266
            1926     3.29519E-03     155.294E-03         5.63637        -2.06737        -2.09770        -2.06412         5.63312        -2.09770     252.413E-03     397.036E-03    -194.123E-03    -202.913E-03    -201.697E-03     395.820E-03    -194.123E-03     53.4734E-03    -78.6201E+06    -124.246E+06    -188.489E+06    -126.460E+06    -186.275E+06    -78.6201E+06    -11.3144E+06         53.0383
            1927     4.11130E-03     155.343E-03         5.59983        -2.04071        -2.08851        -2.03744         5.59656        -2.08851     252.873E-03     404.312E-03    -196.093E-03    -208.219E-03    -206.551E-03     402.644E-03    -196.093E-03     63.4879E-03    -52.6955E+06    -110.401E+06    -164.287E+06    -114.827E+06    -159.861E+06    -52.6955E+06    -14.4307E+06         53.6586
            1928     4.92579E-03     155.404E-03         5.55866        -2.00868        -2.07750        -2.00521         5.55520        -2.07750     285.865E-03     412.265E-03    -198.230E-03    -214.035E-03    -211.950E-03     410.181E-03    -198.230E-03     71.9656E-03    -28.2062E+06    -94.6206E+06    -142.247E+06    -101.873E+06    -134.995E+06    -28.2062E+06    -16.9077E+06         54.3693
            1929     5.73267E-03     155.469E-03         5.50799        -1.96824        -2.06446        -1.96441         5.50416        -2.06446     295.544E-03     421.335E-03    -200.571E-03    -220.764E-03    -218.354E-03     418.925E-03    -200.571E-03     78.3951E-03    -5.26442E+06    -79.0833E+06    -121.306E+06    -89.3144E+06    -111.075E+06    -5.26442E+06    -17.8773E+06         55.1522
            1930     6.53497E-03     155.542E-03         5.44859        -1.91636        -2.04888        -1.91178         5.44401        -2.04888     351.976E-03     430.036E-03    -203.076E-03    -226.960E-03    -224.297E-03     427.372E-03    -203.076E-03     83.3891E-03     15.1800E+06    -64.2648E+06    -102.417E+06    -78.1008E+06    -88.5813E+06     15.1800E+06    -18.1427E+06         55.9879
            1931     7.33417E-03     155.621E-03         5.38294        -1.86113        -2.03063        -1.85414         5.37594        -2.03063     415.403E-03     438.198E-03    -205.629E-03    -232.569E-03    -229.689E-03     435.318E-03    -205.629E-03     87.6008E-03     32.7149E+06    -48.5356E+06    -86.3517E+06    -67.4574E+06    -67.4300E+06     32.7149E+06    -18.6603E+06         56.8635
            1932     8.12659E-03     155.706E-03         5.30830        -1.80327        -2.01021        -1.79584         5.30087        -2.01021     436.216E-03     445.679E-03    -208.154E-03    -237.525E-03    -234.483E-03     442.637E-03    -208.154E-03     90.7675E-03     46.0548E+06    -32.6097E+06    -73.7575E+06    -57.9392E+06    -48.4279E+06     46.0548E+06    -19.8028E+06         57.7817
            1933     8.91646E-03     155.793E-03         5.22454        -1.73942        -1.98787        -1.73060         5.21571        -1.98787     461.801E-03     451.714E-03    -210.580E-03    -241.134E-03    -237.993E-03     448.573E-03    -210.580E-03     92.9393E-03     56.5553E+06    -17.2493E+06    -62.9324E+06    -50.4512E+06    -29.7305E+06     56.5553E+06    -20.0016E+06         58.7842
            1934     9.70946E-03     155.890E-03         5.13179        -1.66781        -1.96350        -1.65925         5.12323        -1.96350     445.596E-03     457.187E-03    -212.866E-03    -244.321E-03    -241.070E-03     453.936E-03    -212.866E-03     95.2499E-03     66.2493E+06    -200.518E+03    -52.8158E+06    -43.8856E+06    -9.13071E+06     66.2493E+06    -19.5012E+06         60.0090
            1935     10.4926E-03     155.994E-03         5.02553        -1.58160        -1.93680        -1.57534         5.01928        -1.93680     383.543E-03     462.194E-03    -215.014E-03    -247.180E-03    -243.783E-03     458.797E-03    -215.014E-03     97.8880E-03     74.0845E+06     17.5672E+06    -44.5609E+06    -37.9046E+06     10.9109E+06     74.0845E+06    -18.9148E+06         61.8118
            1936     11.2786E-03     156.108E-03         4.90991        -1.48613        -1.90732        -1.48063         4.90441        -1.90732     333.057E-03     466.173E-03    -217.000E-03    -249.173E-03    -245.534E-03     462.534E-03    -217.000E-03     101.721E-03     77.6819E+06     37.2955E+06    -36.8426E+06    -32.6927E+06     33.1456E+06     77.6819E+06    -16.5266E+06         64.9437
            1937     12.0631E-03     156.234E-03         4.78097        -1.38250        -1.87493        -1.37967         4.77813        -1.87493     246.669E-03     469.610E-03    -218.854E-03    -250.756E-03    -247.009E-03     465.862E-03    -218.854E-03     103.634E-03     89.0598E+06     69.0322E+06    -28.0883E+06    -26.3163E+06     70.8518E+06     85.4682E+06    -11.7956E+06         70.5123
            1938     12.8453E-03     156.367E-03         4.64384        -1.28064        -1.83978        -1.27828         4.64148        -1.83978     178.629E-03     474.176E-03    -220.623E-03    -253.553E-03    -248.993E-03     469.616E-03    -220.623E-03     114.347E-03     105.761E+06     91.3843E+06    -19.8516E+06    -19.2884E+06     103.514E+06     93.0677E+06    -7.54977E+06         79.0408
            1939     13.6267E-03     156.537E-03         4.49455        -1.17456        -1.80219        -1.17408         4.49406        -1.80219     79.5953E-03     477.040E-03    -222.549E-03    -254.491E-03    -250.094E-03     472.643E-03    -222.549E-03     112.288E-03     153.618E+06     110.386E+06    -11.9675E+06    -11.6546E+06     119.174E+06     144.517E+06    -5.07453E+06         88.3953
            1940     833.257E-06     156.661E-03         5.56535        -2.07405        -2.13282        -2.12995         5.56248        -2.07405     64.2242E-03     368.721E-03    -183.741E-03    -184.979E-03    -184.645E-03     368.570E-03    -183.925E-03     17.1516E-03    -140.092E+06    -148.161E+06    -241.952E+06    -146.058E+06    -241.722E+06    -142.425E+06    -3.64780E+06         50.9562
            1941     1.66439E-03     156.683E-03         5.56243        -2.08479        -2.10343        -2.08794         5.56083        -2.09869     197.426E-03     372.719E-03    -184.879E-03    -187.840E-03    -187.392E-03     372.270E-03    -184.879E-03     30.8418E-03    -127.807E+06    -141.010E+06    -223.226E+06    -141.685E+06    -222.551E+06    -127.807E+06    -7.07463E+06         51.2288
            1942     2.49183E-03     156.720E-03         5.53661        -2.06577        -2.09050        -2.06313         5.53398        -2.09050     257.271E-03     379.010E-03    -186.373E-03    -192.638E-03    -191.712E-03     378.085E-03    -186.373E-03     45.4500E-03    -103.401E+06    -131.579E+06    -202.681E+06    -132.976E+06    -201.284E+06    -103.401E+06    -9.46682E+06         51.6560
            1943     3.31772E-03     156.772E-03         5.51175        -2.05074        -2.08054        -2.04788         5.50889        -2.08054     280.558E-03     386.797E-03    -188.307E-03    -198.490E-03    -196.991E-03     385.298E-03    -188.307E-03     58.8875E-03    -73.4134E+06    -118.534E+06    -178.162E+06    -121.114E+06    -175.582E+06    -73.4134E+06    -11.7861E+06         52.2226
            1944     4.13646E-03     156.833E-03         5.47395        -2.02623        -2.07009        -2.02247         5.47019        -2.07009     313.474E-03     395.702E-03    -190.561E-03    -205.141E-03    -203.071E-03     393.632E-03    -190.561E-03     70.2144E-03    -45.0591E+06    -104.141E+06    -154.187E+06    -108.561E+06    -149.767E+06    -45.0591E+06    -13.9310E+06         52.9095
            1945     4.95018E-03     156.902E-03         5.42865        -1.99344        -2.05776        -1.98928         5.42449        -2.05776     337.973E-03     405.243E-03    -193.063E-03    -212.180E-03    -209.601E-03     402.664E-03    -193.063E-03     79.4551E-03    -20.9959E+06    -90.3128E+06    -132.772E+06    -97.3056E+06    -125.779E+06    -20.9959E+06    -15.5342E+06         53.6962
            1946     5.76071E-03     156.986E-03         5.37792        -1.94955        -2.04294        -1.94432         5.37269        -2.04294     369.240E-03     415.108E-03    -195.753E-03    -219.355E-03    -216.348E-03     412.101E-03    -195.753E-03     86.9487E-03     181.502E+03    -76.0471E+06    -114.475E+06    -86.0576E+06    -104.465E+06     181.502E+03    -16.7080E+06         54.5630
            1947     6.56423E-03     157.072E-03         5.31961        -1.89619        -2.02522        -1.88996         5.31338        -2.02522     416.033E-03     425.084E-03    -198.579E-03    -226.505E-03    -223.150E-03     421.729E-03    -198.579E-03     93.0238E-03     19.1170E+06    -61.7746E+06    -97.2877E+06    -75.2384E+06    -83.8238E+06     19.1170E+06    -17.0131E+06         55.4935
            1948     7.36269E-03     157.164E-03         5.25384        -1.84030        -2.00473        -1.83068         5.24422        -2.00473     495.975E-03     434.483E-03    -201.471E-03    -233.013E-03    -229.384E-03     430.855E-03    -201.471E-03     97.9279E-03     35.8710E+06    -47.8825E+06    -81.0958E+06    -65.5146E+06    -63.4636E+06     35.8710E+06    -16.1544E+06         56.4763
            1949     8.15917E-03     157.261E-03         5.17880        -1.78512        -1.98222        -1.77515         5.16884        -1.98222     506.715E-03     443.506E-03    -204.364E-03    -239.142E-03    -235.356E-03     439.720E-03    -204.364E-03     101.270E-03     49.6231E+06    -33.0735E+06    -67.7628E+06    -57.5375E+06    -43.2987E+06     49.6231E+06    -15.0647E+06         57.5123
            1950     8.95015E-03     157.361E-03         5.09296        -1.72398        -1.95809        -1.71227         5.08125        -1.95809     535.081E-03     452.048E-03    -207.238E-03    -244.810E-03    -240.998E-03     448.236E-03    -207.238E-03     102.705E-03     60.0303E+06    -17.6193E+06    -58.0728E+06    -50.4770E+06    -25.2152E+06     60.0303E+06    -15.4755E+06         58.6350
            1951     9.73253E-03     157.464E-03         4.99558        -1.64669        -1.93182        -1.63531         4.98420        -1.93182     517.300E-03     459.053E-03    -210.032E-03    -249.021E-03    -245.172E-03     455.204E-03    -210.032E-03     103.998E-03     69.6164E+06    -304.253E+03    -48.7508E+06    -43.0662E+06    -5.98883E+06     69.6164E+06    -14.9147E+06         59.9701
            1952     10.5194E-03     157.580E-03         4.88663        -1.55158        -1.90268        -1.54330         4.87836        -1.90268     443.659E-03     465.008E-03    -212.675E-03    -252.333E-03    -248.418E-03     461.094E-03    -212.675E-03     105.621E-03     77.1509E+06     16.2845E+06    -40.4746E+06    -36.8962E+06     12.7061E+06     77.1509E+06    -13.4672E+06         61.8692
            1953     11.3000E-03     157.697E-03         4.77028        -1.44993        -1.87026        -1.44259         4.76294        -1.87026     396.442E-03     470.617E-03    -215.153E-03    -255.464E-03    -251.440E-03     466.594E-03    -215.153E-03     107.782E-03     80.5735E+06     34.9254E+06    -33.3595E+06    -30.6443E+06     32.2102E+06     80.5735E+06    -13.0802E+06         65.0987
            1954     12.0791E-03     157.832E-03         4.64099        -1.34570        -1.83484        -1.34217         4.63746        -1.83484     283.449E-03     475.072E-03    -217.503E-03    -257.569E-03    -253.561E-03     471.063E-03    -217.503E-03     108.067E-03     87.1196E+06     65.7522E+06    -25.2906E+06    -23.7426E+06     64.2042E+06     87.1196E+06    -11.1568E+06         70.8312
            1955     12.8579E-03     157.968E-03         4.50306        -1.24656        -1.79667        -1.24383         4.50033        -1.79667     224.943E-03     480.471E-03    -219.749E-03    -260.722E-03    -255.989E-03     475.738E-03    -219.749E-03     117.649E-03     103.080E+06     92.4274E+06    -17.1528E+06    -16.4745E+06     98.4542E+06     96.3751E+06    -8.09626E+06         79.6999
            1956     13.6337E-03     158.150E-03         4.35427        -1.14322        -1.75623        -1.14270         4.35375        -1.75623     89.4899E-03     484.199E-03    -222.108E-03    -262.090E-03    -257.674E-03     479.783E-03    -222.108E-03     113.475E-03     150.741E+06     107.501E+06    -8.32885E+06    -7.96739E+06     113.845E+06     144.036E+06    -4.52633E+06         89.5382
            1957     835.520E-06     158.096E-03         5.36154        -2.03127        -2.07969        -2.07557         5.36000        -2.03386     183.993E-03     360.348E-03    -179.557E-03    -180.791E-03    -180.641E-03     360.198E-03    -179.557E-03     16.7783E-03    -135.472E+06    -142.533E+06    -230.234E+06    -140.430E+06    -230.004E+06    -137.805E+06    -3.80137E+06         50.2102
            1958     1.67163E-03     158.124E-03         5.34712        -2.03067        -2.05268        -2.03273         5.34560        -2.04911     185.509E-03     363.995E-03    -180.625E-03    -183.370E-03    -182.907E-03     363.532E-03    -180.625E-03     30.9416E-03    -121.307E+06    -135.581E+06    -212.418E+06    -136.125E+06    -211.874E+06    -121.307E+06    -6.07401E+06         50.4740
            1959     2.50433E-03     158.171E-03         5.32476        -2.00805        -2.03731        -2.00484         5.32155        -2.03731     303.840E-03     369.739E-03    -181.957E-03    -187.782E-03    -186.833E-03     368.790E-03    -181.957E-03     45.5050E-03    -97.9007E+06    -127.119E+06    -192.501E+06    -128.517E+06    -191.103E+06    -97.9007E+06    -9.00200E+06         50.8917
            1960     3.33175E-03     158.231E-03         5.29634        -1.99562        -2.02472        -1.99210         5.29282        -2.02472     318.130E-03     376.984E-03    -183.683E-03    -193.301E-03    -191.732E-03     375.415E-03    -183.683E-03     59.4068E-03    -71.7062E+06    -116.130E+06    -168.923E+06    -118.767E+06    -166.286E+06    -71.7062E+06    -11.2305E+06         51.4564
            1961     4.15783E-03     158.307E-03         5.25904        -1.97696        -2.01275        -1.97216         5.25424        -2.01275     365.705E-03     386.340E-03    -185.801E-03    -200.539E-03    -198.253E-03     384.054E-03    -185.801E-03     72.9034E-03    -44.2559E+06    -104.594E+06    -146.584E+06    -108.459E+06    -142.719E+06    -44.2559E+06    -11.9617E+06         52.1567
            1962     4.97551E-03     158.395E-03         5.21137        -1.94458        -1.99929        -1.93921         5.20600        -1.99929     388.686E-03     396.706E-03    -188.281E-03    -208.425E-03    -205.387E-03     393.668E-03    -188.281E-03     85.3409E-03    -19.2174E+06    -92.2772E+06    -124.649E+06    -98.1223E+06    -118.804E+06    -19.2174E+06    -12.0440E+06         52.9780
            1963     5.78720E-03     158.487E-03         5.16005        -1.89681        -1.98281        -1.88955         5.15279        -1.98281     440.833E-03     407.312E-03    -191.002E-03    -216.310E-03    -212.554E-03     403.556E-03    -191.002E-03     96.2736E-03     1.48593E+06    -80.3558E+06    -107.030E+06    -89.1209E+06    -98.2646E+06     1.48593E+06    -12.1532E+06         53.9054
            1964     6.59601E-03     158.592E-03         5.10192        -1.84027        -1.96281        -1.83194         5.09359        -1.96281     476.711E-03     418.667E-03    -193.917E-03    -224.750E-03    -220.479E-03     414.397E-03    -193.917E-03     104.296E-03     18.2812E+06    -67.6644E+06    -93.6625E+06    -81.1810E+06    -80.1459E+06     18.2812E+06    -11.9232E+06         54.9252
            1965     7.39757E-03     158.698E-03         5.03440        -1.78483        -1.93992        -1.77225         5.02181        -1.93992     565.063E-03     430.158E-03    -197.027E-03    -233.131E-03    -228.587E-03     425.614E-03    -197.027E-03     109.283E-03     32.9161E+06    -53.5207E+06    -81.3663E+06    -73.7268E+06    -61.1602E+06     32.9161E+06    -11.1500E+06         56.0235
            1966     8.19209E-03     158.810E-03         4.95905        -1.73154        -1.91515        -1.71840         4.94590        -1.91515     577.459E-03     441.021E-03    -200.264E-03    -240.757E-03    -236.084E-03     436.348E-03    -200.264E-03     112.306E-03     46.9942E+06    -34.8986E+06    -70.6263E+06    -66.1910E+06    -39.3340E+06     46.9942E+06    -10.9099E+06         57.1945
            1967     8.98105E-03     158.927E-03         4.87283        -1.67034        -1.88891        -1.65587         4.85836        -1.88891     593.784E-03     451.473E-03    -203.555E-03    -247.918E-03    -243.258E-03     446.812E-03    -203.555E-03     113.611E-03      58.661E+06    -16.4422E+06    -61.8213E+06    -58.1545E+06    -20.1091E+06      58.661E+06    -11.7563E+06         58.4630
            1968     9.76791E-03     159.044E-03         4.77609        -1.59116        -1.86055        -1.57677         4.76171        -1.86055     584.400E-03     460.994E-03    -206.844E-03    -254.149E-03    -249.604E-03     456.448E-03    -206.844E-03     113.591E-03     67.3212E+06     383.144E+03    -53.4060E+06    -49.9531E+06    -3.06975E+06     67.3212E+06    -12.7779E+06         59.9411
            1969     10.5461E-03     159.164E-03         4.66996        -1.49360        -1.82925        -1.48315         4.65952        -1.82925     498.801E-03     469.006E-03    -210.059E-03    -258.947E-03    -254.526E-03     464.584E-03    -210.059E-03     113.091E-03     75.1474E+06     17.4548E+06    -43.3237E+06    -40.4751E+06     14.6063E+06     75.1474E+06    -12.7882E+06         61.9638
            1970     11.3238E-03     159.299E-03         4.55649        -1.39071        -1.79462        -1.38144         4.54722        -1.79462     454.751E-03     476.026E-03    -213.132E-03    -262.894E-03    -258.548E-03     471.679E-03    -213.132E-03     112.996E-03     79.8249E+06     36.6759E+06    -34.1918E+06    -31.8130E+06     34.2971E+06     79.8249E+06    -12.6609E+06         65.3000
            1971     12.0977E-03     159.436E-03         4.43273        -1.29025        -1.75716        -1.28577         4.42825        -1.75716     315.909E-03     482.061E-03    -216.075E-03    -265.987E-03    -261.832E-03     477.907E-03    -216.075E-03     111.152E-03     85.8439E+06     65.2420E+06    -26.2961E+06    -24.3557E+06     63.3015E+06     85.8439E+06    -12.7038E+06         71.1768
            1972     12.8689E-03     159.583E-03         4.30269        -1.19699        -1.71721        -1.19382         4.29951        -1.71721     259.266E-03     487.805E-03    -218.894E-03    -268.911E-03    -264.184E-03     483.078E-03    -218.894E-03     118.885E-03     96.9283E+06     90.0325E+06    -18.3204E+06    -17.2471E+06     91.2288E+06     94.6587E+06    -9.21361E+06         80.3421
            1973     13.6387E-03     159.770E-03         4.16755        -1.10003        -1.67529        -1.09868         4.16620        -1.67529     98.4600E-03     490.875E-03    -221.730E-03    -269.145E-03    -264.787E-03     486.516E-03    -221.730E-03     113.818E-03     143.189E+06     102.147E+06    -10.9857E+06    -10.6225E+06     104.053E+06     140.919E+06    -4.21744E+06         90.6342
            1974     838.663E-06     159.523E-03         5.06820        -1.96316        -1.99323        -1.97047         5.06505        -1.98277     224.618E-03     356.728E-03    -177.831E-03    -178.897E-03    -178.756E-03     356.587E-03    -177.831E-03     15.7149E-03    -136.328E+06    -142.786E+06    -220.113E+06    -142.042E+06    -219.886E+06    -137.299E+06    -3.18368E+06         49.7143
            1975     1.67403E-03     159.557E-03         5.05542        -1.94640        -1.96821        -1.94423         5.05325        -1.96821     190.558E-03     359.529E-03    -178.683E-03    -180.846E-03    -180.406E-03     359.090E-03    -178.683E-03     30.0366E-03    -121.801E+06    -136.664E+06    -204.626E+06    -136.978E+06    -204.312E+06    -121.801E+06    -4.50277E+06         49.9358
            1976     2.50840E-03     159.609E-03         5.03250        -1.92170        -1.95277        -1.91783         5.02863        -1.95277     326.622E-03     363.541E-03    -179.621E-03    -183.920E-03    -183.003E-03     362.624E-03    -179.621E-03     44.2390E-03    -98.8308E+06    -129.942E+06    -183.773E+06    -130.504E+06    -183.211E+06    -98.8308E+06    -5.02895E+06         50.2966
            1977     3.34245E-03     159.678E-03         4.99878        -1.90374        -1.93733        -1.89933         4.99438        -1.93733     345.472E-03     369.501E-03    -180.854E-03    -188.647E-03    -187.052E-03     367.905E-03    -180.854E-03     59.1677E-03    -74.2764E+06    -122.953E+06    -161.174E+06    -124.242E+06    -159.886E+06    -74.2764E+06    -5.72269E+06         50.8026
            1978     4.16921E-03     159.766E-03         4.96015        -1.89413        -1.92299        -1.88802         4.95405        -1.92299     406.451E-03     376.961E-03    -182.428E-03    -194.533E-03    -192.092E-03     374.521E-03    -182.428E-03     74.2166E-03    -49.3586E+06    -115.248E+06    -140.533E+06    -117.052E+06    -138.728E+06    -49.3586E+06    -5.73208E+06         51.4579
            1979     4.99536E-03     159.866E-03         4.91335        -1.86217        -1.90796        -1.85521         4.90640        -1.90796     431.983E-03     386.308E-03    -184.347E-03    -201.962E-03    -198.606E-03     382.953E-03    -184.347E-03     88.3988E-03    -25.0055E+06    -103.847E+06    -121.198E+06    -109.454E+06    -115.590E+06    -25.0055E+06    -4.82967E+06         52.2657
            1980     5.81593E-03     159.977E-03         4.86160        -1.81342        -1.88945        -1.80346         4.85163        -1.88945     506.832E-03     397.899E-03    -186.678E-03    -211.221E-03    -206.972E-03     393.649E-03    -186.678E-03     101.298E-03    -4.14045E+06    -88.7998E+06    -107.186E+06    -102.149E+06    -93.8360E+06    -4.14045E+06    -4.69141E+06         53.2234
            1981     6.62696E-03     160.097E-03         4.80150        -1.75469        -1.86695        -1.74358         4.79038        -1.86695     535.385E-03     410.690E-03    -189.436E-03    -221.254E-03    -216.268E-03     405.704E-03    -189.436E-03     111.735E-03     12.3965E+06    -73.4887E+06    -97.5769E+06    -94.8197E+06    -76.2459E+06     12.3965E+06    -5.24523E+06         54.3191
            1982     7.43147E-03     160.224E-03         4.73257        -1.69836        -1.84131        -1.68237         4.71659        -1.84131     622.903E-03     424.387E-03    -192.581E-03    -231.807E-03    -226.358E-03     418.939E-03    -192.581E-03     118.957E-03     27.8135E+06    -54.2115E+06    -87.5136E+06    -85.5315E+06    -56.1936E+06     27.8135E+06    -6.99904E+06         55.5350
            1983     8.22791E-03     160.354E-03         4.65554        -1.64608        -1.81387        -1.62908         4.63854        -1.81387     642.455E-03     438.022E-03    -196.046E-03    -241.976E-03    -236.349E-03     432.396E-03    -196.046E-03     123.094E-03     42.3073E+06    -31.9847E+06    -76.6422E+06    -74.6775E+06    -33.9495E+06     42.3073E+06    -8.97114E+06         56.8557
            1984     9.01868E-03     160.487E-03         4.56980        -1.58295        -1.78510        -1.56561         4.55246        -1.78510     639.542E-03     450.804E-03    -199.722E-03    -251.081E-03    -245.559E-03     445.281E-03    -199.722E-03     123.951E-03     54.1786E+06    -13.2355E+06    -66.4525E+06    -64.5165E+06    -15.1715E+06     54.1786E+06    -9.95037E+06         58.2915
            1985     9.79972E-03     160.623E-03         4.47739        -1.50273        -1.75426        -1.48499         4.45964        -1.75426     640.551E-03     463.217E-03    -203.523E-03    -259.695E-03    -254.502E-03     458.025E-03    -203.523E-03     121.992E-03     64.0017E+06     7.32649E+06    -57.8208E+06    -55.2627E+06     4.76834E+06     64.0017E+06    -12.4885E+06         59.9338
            1986     10.5762E-03     160.762E-03         4.37738        -1.40815        -1.72081        -1.39538         4.36461        -1.72081     540.475E-03     474.209E-03    -207.371E-03    -266.838E-03    -262.030E-03     469.401E-03    -207.371E-03     118.926E-03     70.1320E+06     22.6147E+06    -49.8449E+06    -46.2083E+06     18.9781E+06     70.1320E+06    -15.5539E+06         62.0900
            1987     11.3466E-03     160.902E-03         4.27254        -1.31313        -1.68467        -1.30190         4.26131        -1.68467     496.269E-03     482.854E-03    -211.137E-03    -271.717E-03    -267.212E-03     478.349E-03    -211.137E-03     116.233E-03     74.3490E+06     39.2015E+06    -40.1963E+06    -36.3635E+06     35.3687E+06     74.3490E+06    -16.6568E+06         65.5156
            1988     12.1142E-03     161.057E-03         4.16016        -1.22183        -1.64639        -1.21599         4.15431        -1.64639     337.515E-03     489.594E-03    -214.743E-03    -274.851E-03    -270.680E-03     485.424E-03    -214.743E-03     112.571E-03     81.2532E+06     64.6290E+06    -30.1827E+06    -27.5613E+06     62.0076E+06     81.2532E+06    -14.7436E+06         71.4865
            1989     12.8774E-03     161.210E-03         4.04376        -1.13420        -1.60613        -1.13045         4.04001        -1.60613     272.640E-03     494.973E-03    -218.137E-03    -276.835E-03    -272.195E-03     490.333E-03    -218.137E-03     119.014E-03     89.2552E+06     84.0708E+06    -21.9813E+06    -20.3453E+06     82.7982E+06     88.8919E+06    -11.2397E+06         80.8827
            1990     13.6425E-03     161.399E-03         3.92720        -1.04356        -1.56424        -1.04085         3.92449        -1.56424     107.948E-03     496.719E-03    -221.425E-03    -275.294E-03    -270.988E-03     492.413E-03    -221.425E-03     114.203E-03     137.974E+06     93.0637E+06    -11.5419E+06    -10.6682E+06     92.5534E+06     137.610E+06    -6.93322E+06         91.5904
            1991     836.408E-06     160.950E-03         4.69489        -1.85562        -1.88114        -1.85789         4.69055        -1.87453     266.382E-03     356.686E-03    -178.083E-03    -178.604E-03    -178.310E-03     356.548E-03    -178.238E-03     15.6263E-03    -145.153E+06    -151.731E+06    -217.902E+06    -151.108E+06    -217.554E+06    -146.124E+06     2.15502E+06         49.4537
            1992     1.67356E-03     160.987E-03         4.68245        -1.83373        -1.85616        -1.83074         4.67947        -1.85616     223.322E-03     357.911E-03    -178.386E-03    -179.525E-03    -179.086E-03     357.488E-03    -178.402E-03     29.4087E-03    -133.084E+06    -149.530E+06    -204.428E+06    -150.631E+06    -203.327E+06    -133.084E+06     2.95012E+06         49.6217
            1993     2.51064E-03     161.040E-03         4.66047        -1.81098        -1.83906        -1.80595         4.65544        -1.83906     357.712E-03     360.306E-03    -178.809E-03    -181.497E-03    -180.582E-03     359.391E-03    -178.809E-03     43.8598E-03    -112.586E+06    -146.115E+06    -185.171E+06    -148.520E+06    -182.766E+06    -112.586E+06     3.85356E+06         49.9078
            1994     3.34407E-03     161.117E-03         4.62832        -1.79508        -1.82250        -1.78907         4.62232        -1.82250     385.762E-03     364.128E-03    -179.456E-03    -184.672E-03    -183.061E-03     362.517E-03    -179.456E-03     58.9531E-03    -86.4194E+06    -138.023E+06    -163.557E+06    -143.789E+06    -157.791E+06    -86.4194E+06     4.56708E+06         50.3313
            1995     4.17939E-03     161.210E-03         4.59049        -1.78238        -1.80666        -1.77438         4.58250        -1.80666     449.162E-03     369.786E-03    -180.398E-03    -189.388E-03    -186.927E-03     367.325E-03    -180.398E-03     73.7360E-03    -59.9334E+06    -127.557E+06    -145.649E+06    -137.066E+06    -136.139E+06    -59.9334E+06     3.82748E+06         50.9136
            1996     5.00924E-03     161.321E-03         4.54202        -1.75146        -1.78952        -1.74221         4.53277        -1.78952     479.433E-03     378.026E-03    -181.734E-03    -196.292E-03    -192.890E-03     374.624E-03    -181.734E-03     87.9603E-03    -35.2367E+06    -111.715E+06    -129.615E+06    -127.287E+06    -114.043E+06    -35.2367E+06     2.71611E+06         51.6736
            1997     5.83304E-03     161.448E-03         4.48890        -1.70215        -1.76856        -1.68894         4.47569        -1.76856     565.093E-03     388.658E-03    -183.556E-03    -205.102E-03    -200.753E-03     384.309E-03    -183.556E-03     101.145E-03    -13.0510E+06    -89.5350E+06    -116.591E+06    -116.317E+06    -89.8091E+06    -13.0510E+06     1.41100E+06         52.6214
            1998     6.65197E-03     161.587E-03         4.42796        -1.64500        -1.74336        -1.63035         4.41331        -1.74336     592.929E-03     401.743E-03    -185.911E-03    -215.832E-03    -210.560E-03     396.471E-03    -185.911E-03     113.559E-03     6.14635E+06    -68.0886E+06    -104.834E+06    -104.365E+06    -68.5574E+06     6.14635E+06    -2.36391E+06         53.7559
            1999     7.46197E-03     161.736E-03         4.35945        -1.59122        -1.71508        -1.57170         4.33994        -1.71508     668.612E-03     416.900E-03    -188.820E-03    -228.080E-03    -222.137E-03     410.957E-03    -188.820E-03     123.243E-03     22.3827E+06    -46.9610E+06    -92.8627E+06    -91.8125E+06    -48.0112E+06     22.3827E+06    -6.67352E+06         55.0635
            2000     8.26254E-03     161.890E-03         4.28092        -1.53574        -1.68493        -1.51479         4.25997        -1.68493     690.419E-03     433.381E-03    -192.281E-03    -241.100E-03    -234.918E-03     427.199E-03    -192.281E-03     128.533E-03     36.7323E+06    -25.1822E+06    -81.3589E+06    -79.3784E+06    -27.1628E+06     36.7323E+06    -10.2027E+06         56.5221
            2001     9.05070E-03     162.045E-03         4.19706        -1.47101        -1.65338        -1.45054         4.17659        -1.65338     673.558E-03     450.069E-03    -196.229E-03    -253.840E-03    -247.789E-03     444.019E-03    -196.229E-03     129.907E-03     49.3636E+06    -6.75950E+06    -69.4585E+06    -66.6520E+06    -9.56598E+06     49.3636E+06    -12.8627E+06         58.1195
            2002     9.83217E-03     162.204E-03         4.10963        -1.39188        -1.61998        -1.37074         4.08848        -1.61998     676.870E-03     465.725E-03    -200.516E-03    -265.209E-03    -259.580E-03     460.097E-03    -200.516E-03     127.718E-03     61.5922E+06     17.2782E+06    -57.1886E+06    -53.9736E+06     14.0633E+06     61.5922E+06    -14.9471E+06         59.9137
            2003     10.6029E-03     162.363E-03         4.01526        -1.30184        -1.58458        -1.28672         4.00013        -1.58458     563.692E-03     479.224E-03    -204.974E-03    -274.250E-03    -269.261E-03     474.234E-03    -204.974E-03     122.099E-03     68.7804E+06     32.1964E+06    -47.5056E+06    -42.5979E+06     27.2887E+06     68.7804E+06    -18.6066E+06         62.1791
            2004     11.3666E-03     162.522E-03         3.92140        -1.21781        -1.54754        -1.20484         3.90843        -1.54754     514.641E-03     489.647E-03    -209.395E-03    -280.252E-03    -275.705E-03     485.101E-03    -209.395E-03     117.969E-03     71.4745E+06     42.3992E+06    -38.8729E+06    -33.5366E+06     37.0629E+06     71.4745E+06    -19.8040E+06         65.6536
            2005     12.1259E-03     162.685E-03         3.82543        -1.13819        -1.50938        -1.13066         3.81790        -1.50938     354.289E-03     496.482E-03    -213.610E-03    -282.872E-03    -278.673E-03     492.283E-03    -213.610E-03     114.024E-03     76.9381E+06     59.6287E+06    -29.2254E+06    -25.6228E+06     56.0261E+06     76.9381E+06    -16.5357E+06         71.6571
            2006     12.8865E-03     162.848E-03         3.72615        -1.05605        -1.46990        -1.05178         3.72188        -1.46990     273.608E-03     500.744E-03    -217.489E-03    -283.255E-03    -278.704E-03     496.193E-03    -217.489E-03     118.826E-03     86.1170E+06     77.8121E+06    -19.9024E+06    -17.5188E+06     76.3161E+06     85.2293E+06    -13.6798E+06         81.2205
            2007     13.6452E-03     163.039E-03         3.62794    -970.856E-03        -1.42916    -967.324E-03         3.62441        -1.42916     126.291E-03     501.764E-03    -221.146E-03    -280.617E-03    -276.380E-03     497.526E-03    -221.146E-03     114.140E-03     133.723E+06     81.7456E+06    -11.1048E+06    -9.62081E+06     81.1494E+06     132.835E+06    -10.1296E+06         92.3095
            2008     836.426E-06     162.380E-03         4.24491        -1.71676        -1.73006        -1.72481         4.24155        -1.71864     248.235E-03     357.438E-03    -178.551E-03    -178.887E-03    -178.495E-03     357.300E-03    -178.804E-03     16.1851E-03    -184.592E+06    -191.127E+06    -232.155E+06    -191.863E+06    -229.997E+06    -186.014E+06     6.49922E+06         49.4073
            2009     1.67326E-03     162.413E-03         4.22890        -1.70041        -1.71330        -1.69682         4.22521        -1.71319     260.038E-03     357.844E-03    -178.642E-03    -179.201E-03    -178.771E-03     357.429E-03    -178.658E-03     29.0064E-03    -166.662E+06    -181.237E+06    -218.036E+06    -187.268E+06    -212.004E+06    -166.662E+06     10.4765E+06         49.5348
            2010     2.50920E-03     162.471E-03         4.21465        -1.68018        -1.69868        -1.67400         4.20847        -1.69868     380.570E-03     359.270E-03    -178.792E-03    -180.479E-03    -179.594E-03     358.386E-03    -178.792E-03     43.0966E-03    -138.873E+06    -168.609E+06    -198.870E+06    -179.651E+06    -187.827E+06    -138.873E+06     12.1222E+06         49.7635
            2011     3.34714E-03     162.548E-03         4.18771        -1.67026        -1.68358        -1.66236         4.17982        -1.68358     424.023E-03     362.053E-03    -179.142E-03    -182.910E-03    -181.409E-03     360.551E-03    -179.142E-03     56.7457E-03    -106.436E+06    -150.273E+06    -178.541E+06    -168.457E+06    -160.357E+06    -106.436E+06     12.1302E+06         50.1210
            2012     4.18111E-03     162.646E-03         4.15287        -1.65157        -1.66789        -1.64125         4.14255        -1.66789     487.303E-03     366.729E-03    -179.787E-03    -186.942E-03    -184.694E-03     364.481E-03    -179.787E-03     70.1103E-03    -74.7634E+06    -129.401E+06    -159.923E+06    -155.468E+06    -133.856E+06    -74.7634E+06     10.3667E+06         50.6359
            2013     5.01288E-03     162.767E-03         4.10817        -1.61932        -1.64933        -1.60728         4.09613        -1.64933     521.383E-03     373.389E-03    -180.781E-03    -192.608E-03    -189.463E-03     370.245E-03    -180.781E-03     83.9000E-03    -47.6512E+06    -107.100E+06    -143.784E+06    -142.276E+06    -108.608E+06    -47.6512E+06     5.86380E+06         51.3344
            2014     5.84194E-03     162.905E-03         4.05573        -1.57298        -1.62652        -1.55642         4.03918        -1.62652     604.899E-03     382.573E-03    -182.195E-03    -200.377E-03    -196.280E-03     378.476E-03    -182.195E-03     97.2409E-03    -23.3125E+06    -81.7499E+06    -126.733E+06    -126.000E+06    -82.4836E+06    -23.3125E+06    -420.527E+03         52.2384
            2015     6.66461E-03     163.061E-03         3.99428        -1.51996        -1.59945        -1.50133         3.97565        -1.59945     637.441E-03     394.680E-03    -184.142E-03    -210.539E-03    -205.576E-03     389.717E-03    -184.142E-03     109.057E-03    -1.30359E+06    -57.2675E+06    -109.163E+06    -107.832E+06    -58.5983E+06    -1.30359E+06    -6.40329E+06         53.3602
            2016     7.47925E-03     163.233E-03         3.92723        -1.47002        -1.56934        -1.44720         3.90441        -1.56934     693.650E-03     409.681E-03    -186.707E-03    -222.973E-03    -217.304E-03     404.011E-03    -186.707E-03     119.193E-03     17.3905E+06    -35.2783E+06    -93.4383E+06    -90.4435E+06    -38.2731E+06     17.3905E+06    -11.8654E+06         54.6959
            2017     8.28324E-03     163.412E-03         3.84970        -1.41047        -1.53699        -1.38591         3.82514        -1.53699     714.055E-03     427.731E-03    -189.961E-03    -237.770E-03    -231.693E-03     421.654E-03    -189.961E-03     126.583E-03     33.6884E+06    -15.1411E+06    -78.6560E+06    -74.0129E+06    -19.7842E+06     33.6884E+06    -15.7832E+06         56.2220
            2018     9.07639E-03     163.601E-03         3.76839        -1.34122        -1.50269        -1.31756         3.74473        -1.50269     690.792E-03     447.529E-03    -193.919E-03    -253.610E-03    -247.587E-03     441.506E-03    -193.919E-03     129.350E-03     47.7084E+06     2.77872E+06    -64.6680E+06    -58.9778E+06    -2.91146E+06     47.7084E+06    -18.3178E+06         57.9089
            2019     9.85363E-03     163.785E-03         3.68427        -1.26442        -1.46671        -1.24064         3.66048        -1.46671     682.953E-03     466.205E-03    -198.437E-03    -267.769E-03    -262.129E-03     460.566E-03    -198.437E-03     128.116E-03     60.8460E+06     26.1814E+06    -51.5190E+06    -45.6566E+06     20.3190E+06     60.8460E+06    -20.0976E+06         59.7876
            2020     10.6213E-03     163.974E-03         3.59469        -1.18207        -1.42960        -1.16464         3.57727        -1.42960     571.376E-03     481.892E-03    -203.255E-03    -278.637E-03    -273.578E-03     476.833E-03    -203.255E-03     123.530E-03     68.2698E+06     37.5066E+06    -41.3814E+06    -35.7549E+06     31.8801E+06     68.2698E+06    -20.1203E+06         62.1043
            2021     11.3818E-03     164.147E-03         3.50957        -1.10631        -1.39201        -1.09207         3.49533        -1.39201     511.031E-03     494.206E-03    -208.107E-03    -286.099E-03    -281.563E-03     489.670E-03    -208.107E-03     118.577E-03     71.6885E+06     45.6294E+06    -34.2412E+06    -28.8816E+06     40.2698E+06     71.6885E+06    -19.6725E+06         65.5757
            2022     12.1389E-03     164.327E-03         3.42703        -1.03223        -1.35436        -1.02340         3.41821        -1.35436     365.487E-03     501.467E-03    -212.760E-03    -288.707E-03    -284.655E-03     497.415E-03    -212.760E-03     112.758E-03     76.4272E+06     58.5793E+06    -26.2864E+06    -21.2527E+06     53.5455E+06     76.4272E+06    -19.9275E+06         71.5583
            2023     12.8913E-03     164.492E-03         3.34571    -954.189E-03        -1.31613    -950.012E-03         3.34153        -1.31613     260.494E-03     504.842E-03    -217.005E-03    -287.836E-03    -283.541E-03     500.547E-03    -217.005E-03     116.106E-03     84.1742E+06     72.2889E+06    -17.6697E+06    -13.4784E+06     68.9854E+06     83.2865E+06    -17.6699E+06         81.2407
            2024     13.6502E-03     164.683E-03         3.27043    -875.677E-03        -1.27709    -872.677E-03         3.26743        -1.27709     141.185E-03     505.283E-03    -220.930E-03    -284.353E-03    -280.318E-03     501.248E-03    -220.930E-03     112.019E-03     128.055E+06     68.1021E+06    -8.29831E+06    -5.80624E+06     66.4978E+06     127.168E+06    -9.24917E+06         92.6893
            2025     836.151E-06     163.808E-03         3.72905        -1.55374        -1.57454        -1.55620         3.72671        -1.56974     213.889E-03     359.218E-03    -179.480E-03    -179.738E-03    -179.535E-03     359.113E-03    -179.578E-03     13.9450E-03    -226.766E+06    -278.855E+06    -291.030E+06    -280.461E+06    -239.411E+06    -276.779E+06    -295.084E+03         49.6519
            2026     1.67176E-03     163.843E-03         3.72068        -1.54623        -1.55926        -1.54530         3.71634        -1.55585     275.914E-03     359.648E-03    -179.620E-03    -180.028E-03    -179.698E-03     359.318E-03    -179.620E-03     25.7339E-03    -202.598E+06    -250.823E+06    -272.414E+06    -263.687E+06    -217.470E+06    -244.678E+06    -1.72852E+06         49.7586
            2027     2.50865E-03     163.899E-03         3.70591        -1.53476        -1.54760        -1.53067         3.69851        -1.54429     391.823E-03     360.911E-03    -179.802E-03    -181.109E-03    -180.398E-03     360.200E-03    -179.802E-03     38.5132E-03    -170.656E+06    -212.436E+06    -245.875E+06    -238.041E+06    -190.459E+06    -200.467E+06    -3.37078E+06         49.9560
            2028     3.34267E-03     163.980E-03         3.68145        -1.52135        -1.53063        -1.51167         3.67178        -1.53063     442.694E-03     363.746E-03    -180.194E-03    -183.551E-03    -182.325E-03     362.519E-03    -180.194E-03     51.2979E-03    -136.479E+06    -171.267E+06    -215.582E+06    -208.053E+06    -162.282E+06    -152.993E+06    -4.82612E+06         50.2723
            2029     4.17638E-03     164.083E-03         3.65135        -1.50355        -1.51439        -1.49050         3.63830        -1.51439     515.383E-03     367.914E-03    -180.853E-03    -187.061E-03    -185.205E-03     366.058E-03    -180.853E-03     63.6838E-03    -103.017E+06    -131.586E+06    -182.933E+06    -176.037E+06    -133.771E+06    -107.729E+06    -5.62691E+06         50.7341
            2030     5.00866E-03     164.208E-03         3.61608        -1.47147        -1.49479        -1.45592         3.60053        -1.49479     558.077E-03     373.586E-03    -181.785E-03    -191.801E-03    -189.236E-03     371.021E-03    -181.785E-03     75.5787E-03    -66.9183E+06    -96.7673E+06    -150.582E+06    -144.951E+06    -102.398E+06    -66.9183E+06    -7.99132E+06         51.3697
            2031     5.83740E-03     164.356E-03         3.57190        -1.43253        -1.47099        -1.41249         3.55185        -1.47099     628.257E-03     381.670E-03    -183.072E-03    -198.597E-03    -195.283E-03     378.356E-03    -183.072E-03     87.0484E-03    -33.6260E+06    -69.0736E+06    -123.399E+06    -118.558E+06    -73.9151E+06    -33.6260E+06    -12.0937E+06         52.2056
            2032     6.65987E-03     164.528E-03         3.51532        -1.38935        -1.44345        -1.36645         3.49241        -1.44345     666.650E-03     392.460E-03    -184.840E-03    -207.620E-03    -203.601E-03     388.441E-03    -184.840E-03     97.5656E-03    -7.03870E+06    -45.9583E+06    -102.338E+06    -97.0477E+06    -51.2488E+06    -7.03870E+06    -15.0982E+06         53.2584
            2033     7.47652E-03     164.714E-03         3.45149        -1.34120        -1.41291        -1.31495         3.42524        -1.41291     703.932E-03     406.181E-03    -187.186E-03    -218.995E-03    -214.394E-03     401.580E-03    -187.186E-03     106.486E-03     15.0248E+06    -24.0198E+06    -86.5141E+06    -80.7088E+06    -29.8251E+06     15.0248E+06    -17.0873E+06         54.5265
            2034     8.28445E-03     164.924E-03         3.37671        -1.27852        -1.37941        -1.25060         3.34879        -1.37941     717.179E-03     422.932E-03    -190.184E-03    -232.747E-03    -227.755E-03     417.940E-03    -190.184E-03     113.600E-03     32.6390E+06    -3.72570E+06    -75.7297E+06     -68.998E+06    -10.4574E+06     32.6390E+06    -20.7695E+06         55.9873
            2035     9.07820E-03     165.142E-03         3.29640        -1.20415        -1.34314        -1.17733         3.26959        -1.34314     691.111E-03     441.922E-03    -193.853E-03    -248.069E-03    -242.917E-03     436.770E-03    -193.853E-03     118.582E-03     46.6888E+06     13.5202E+06    -67.3764E+06    -58.6707E+06     4.81453E+06     46.6888E+06    -25.0194E+06         57.6160
            2036     9.86010E-03     165.367E-03         3.21212        -1.12498        -1.30500        -1.09981         3.18694        -1.30500     657.921E-03     461.094E-03    -198.096E-03    -262.999E-03    -257.921E-03     456.017E-03    -198.096E-03     120.716E-03     59.6075E+06     34.2311E+06    -57.2846E+06    -47.9094E+06     24.8558E+06     59.6075E+06    -27.5419E+06         59.4490
            2037     10.6309E-03     165.575E-03         3.12532        -1.04807        -1.26625        -1.02925         3.10650        -1.26625     555.785E-03     479.276E-03    -202.750E-03    -276.526E-03    -271.757E-03     474.507E-03    -202.750E-03     119.572E-03     67.3020E+06     42.7701E+06    -45.7064E+06    -35.0873E+06     32.1510E+06     67.3020E+06    -27.5125E+06         61.7198
            2038     11.3905E-03     165.783E-03         3.04475    -978.037E-03        -1.22801    -963.768E-03         3.03048        -1.22801     477.735E-03     494.405E-03    -207.619E-03    -286.786E-03    -282.478E-03     490.097E-03    -207.619E-03     115.611E-03     74.7029E+06      50.397E+06    -30.9972E+06    -20.4220E+06     39.8219E+06     74.7029E+06    -26.0768E+06         65.1175
            2039     12.1412E-03     165.970E-03         2.97243    -906.693E-03        -1.19086    -897.664E-03         2.96340        -1.19086     358.414E-03     503.102E-03    -212.412E-03    -290.690E-03    -286.974E-03     499.387E-03    -212.412E-03     108.212E-03     80.1428E+06     55.1462E+06    -17.0451E+06    -9.26349E+06     47.3646E+06     80.1428E+06    -21.6650E+06         71.0213
            2040     12.8963E-03     166.144E-03         2.90791    -831.876E-03        -1.15407    -828.136E-03         2.90417        -1.15407     231.423E-03     506.765E-03    -216.832E-03    -289.933E-03    -286.066E-03     502.899E-03    -216.832E-03     110.455E-03     84.1180E+06     59.9964E+06    -10.8166E+06    -5.89175E+06     55.0716E+06     84.1180E+06    -11.7947E+06         80.7748
            2041     13.6480E-03     166.333E-03         2.85317    -761.893E-03        -1.11716    -759.989E-03         2.85126        -1.11716     141.317E-03     506.038E-03    -220.876E-03    -285.162E-03    -281.439E-03     502.315E-03    -220.876E-03     107.906E-03     124.822E+06     55.5955E+06    -8.77097E+06    -6.36423E+06     53.1888E+06     124.822E+06    -3.42028E+06         92.5945
            2042     832.794E-06     165.242E-03         3.17304        -1.38576        -1.41672        -1.39707         3.16940        -1.40176     243.156E-03     366.051E-03    -182.796E-03    -183.255E-03    -182.851E-03     365.991E-03    -183.139E-03     10.2389E-03    -213.915E+06    -328.816E+06    -335.687E+06    -333.239E+06    -215.984E+06    -329.194E+06    -14.3803E+06         50.4409
            2043     1.66654E-03     165.277E-03         3.16406        -1.38766        -1.40274        -1.39148         3.15918        -1.39403     278.905E-03     366.542E-03    -183.128E-03    -183.415E-03    -183.232E-03     366.360E-03    -183.128E-03     19.1085E-03    -189.023E+06    -299.177E+06    -322.051E+06    -316.188E+06    -194.885E+06    -299.177E+06    -26.2017E+06         50.5346
            2044     2.49880E-03     165.334E-03         3.14577        -1.38262        -1.39296        -1.38090         3.13687        -1.38577     399.462E-03     367.861E-03    -183.423E-03    -184.438E-03    -184.027E-03     367.451E-03    -183.423E-03     28.9347E-03    -161.957E+06    -255.798E+06    -300.937E+06    -290.042E+06    -172.853E+06    -255.798E+06    -36.5229E+06         50.7065
            2045     3.33225E-03     165.417E-03         3.12633        -1.36619        -1.37744        -1.35810         3.11458        -1.37378     455.469E-03     370.175E-03    -183.897E-03    -186.278E-03    -185.534E-03     369.431E-03    -183.897E-03     39.2705E-03    -133.915E+06    -209.121E+06    -274.724E+06    -258.722E+06    -149.917E+06    -209.121E+06    -44.1657E+06         50.9797
            2046     4.16320E-03     165.523E-03         3.10450        -1.34322        -1.35714        -1.32750         3.08877        -1.35714     525.151E-03     373.901E-03    -184.599E-03    -189.302E-03    -188.179E-03     372.778E-03    -184.599E-03     48.7274E-03    -102.915E+06    -164.756E+06    -245.056E+06    -224.039E+06    -125.155E+06    -163.533E+06    -49.9411E+06         51.3787
            2047     4.99115E-03     165.653E-03         3.07548        -1.31325        -1.33636        -1.29430         3.05653        -1.33636     573.417E-03     379.463E-03    -185.625E-03    -193.837E-03    -192.285E-03     377.910E-03    -185.625E-03     58.1515E-03    -68.5368E+06    -123.674E+06    -211.426E+06    -187.064E+06    -98.5032E+06    -118.070E+06    -52.3799E+06         51.9283
            2048     5.81466E-03     165.811E-03         3.03978        -1.28289        -1.31218        -1.25974         3.01663        -1.31218     627.875E-03     386.642E-03    -187.032E-03    -199.610E-03    -197.597E-03     384.628E-03    -187.032E-03     67.1171E-03    -37.7751E+06    -85.7468E+06    -176.174E+06    -151.683E+06    -74.0967E+06    -73.9162E+06    -49.8750E+06         52.6482
            2049     6.63622E-03     165.990E-03         2.99445        -1.24940        -1.28515        -1.22292         2.96797        -1.28515     666.666E-03     396.002E-03    -188.850E-03    -207.152E-03    -204.690E-03     393.540E-03    -188.850E-03     75.2643E-03    -13.8842E+06    -50.0661E+06    -143.145E+06    -119.142E+06    -53.8551E+06    -34.0981E+06    -46.0617E+06         53.5475
            2050     7.44873E-03     166.200E-03         2.93752        -1.20387        -1.25527        -1.17503         2.90869        -1.25527     686.971E-03     407.897E-03    -191.146E-03    -216.750E-03    -213.920E-03     405.066E-03    -191.146E-03     82.4607E-03     6.21241E+06    -19.2512E+06    -112.169E+06    -89.1679E+06    -36.3356E+06     295.810E+03    -39.9187E+06         54.6186
            2051     8.25236E-03     166.424E-03         2.86776        -1.13847        -1.22193        -1.10836         2.83765        -1.22193     691.031E-03     421.100E-03    -193.906E-03    -227.194E-03    -224.025E-03     417.931E-03    -193.906E-03     89.3024E-03     31.0159E+06     7.49793E+06    -80.7347E+06    -63.0980E+06    -10.1387E+06     31.0159E+06    -32.7934E+06         55.8453
            2052     9.05011E-03     166.673E-03         2.79065        -1.06206        -1.18513        -1.03317         2.76176        -1.18513     663.821E-03     435.090E-03    -197.042E-03    -238.048E-03    -234.539E-03     431.581E-03    -197.042E-03     96.0249E-03     55.0054E+06     25.7086E+06    -57.4427E+06    -42.2608E+06     10.5267E+06     55.0054E+06    -30.2647E+06         57.2304
            2053     9.83960E-03     166.920E-03         2.70466    -980.630E-03        -1.14599    -955.810E-03         2.67984        -1.14599     601.378E-03     451.167E-03    -200.520E-03    -250.647E-03    -246.933E-03     447.453E-03    -200.520E-03     101.182E-03     70.5091E+06     40.1275E+06    -41.2676E+06    -27.7474E+06     26.6073E+06     70.5091E+06    -28.5660E+06         58.8392
            2054     10.6166E-03     167.171E-03         2.61762    -903.410E-03        -1.10609    -884.821E-03         2.59903        -1.10609     508.903E-03     469.029E-03    -204.380E-03    -264.649E-03    -260.852E-03     465.233E-03    -204.380E-03     104.976E-03     78.1298E+06     46.6853E+06    -31.1131E+06    -20.1589E+06     35.7311E+06     78.1298E+06    -26.1972E+06         60.9058
            2055     11.3816E-03     167.404E-03         2.53847    -831.343E-03        -1.06689    -818.541E-03         2.52567        -1.06689     411.007E-03     485.895E-03    -208.590E-03    -277.306E-03    -273.569E-03     482.159E-03    -208.590E-03     106.421E-03     83.2643E+06     50.3416E+06    -29.0141E+06    -19.1985E+06     40.5260E+06     83.2643E+06    -24.2682E+06         64.0974
            2056     12.1411E-03     167.618E-03         2.47283    -760.362E-03        -1.02943    -752.253E-03         2.46472        -1.02943     320.409E-03     498.590E-03    -212.956E-03    -285.634E-03    -282.361E-03     495.317E-03    -212.956E-03     100.844E-03     81.4638E+06     39.4404E+06    -27.7048E+06    -21.1661E+06     32.9017E+06     81.4638E+06    -18.5937E+06         69.8094
            2057     12.8906E-03     167.794E-03         2.42156    -691.296E-03    -993.442E-03    -687.563E-03         2.41783    -993.442E-03     190.245E-03     504.480E-03    -217.172E-03    -287.308E-03    -284.038E-03     501.210E-03    -217.172E-03     101.243E-03     80.8547E+06     37.4273E+06    -22.2970E+06    -18.0850E+06     33.2152E+06     80.8547E+06    -9.08476E+06         79.5516
            2058     13.6488E-03     167.985E-03         2.38173    -631.882E-03    -958.525E-03    -630.287E-03         2.38014    -958.525E-03     126.367E-03     502.016E-03    -221.064E-03    -280.952E-03    -277.744E-03     498.809E-03    -221.064E-03     99.6933E-03     127.034E+06     45.8912E+06    -10.2950E+06    -7.56170E+06     43.1579E+06     127.034E+06    -2.34521E+06         91.7525
            2059     827.586E-06     166.692E-03         2.58167        -1.23104        -1.25833        -1.25516         2.57850        -1.23104     206.674E-03     383.256E-03    -191.363E-03    -191.892E-03    -191.500E-03     383.238E-03    -191.738E-03     3.75914E-03    -158.350E+06    -264.077E+06    -272.910E+06    -269.156E+06    -162.104E+06    -264.077E+06    -18.8807E+06         52.2211
            2060     1.65377E-03     166.727E-03         2.56531        -1.24108        -1.25375        -1.24920         2.56076        -1.24108     252.993E-03     384.249E-03    -191.912E-03    -192.337E-03    -192.249E-03     384.192E-03    -191.943E-03     6.70538E-03    -131.364E+06    -242.513E+06    -270.840E+06    -259.914E+06    -142.289E+06    -242.513E+06    -36.2796E+06         52.3007
            2061     2.48062E-03     166.785E-03         2.55394        -1.23579        -1.24307        -1.23312         2.54479        -1.23658     369.215E-03     385.759E-03    -192.507E-03    -193.252E-03    -193.124E-03     385.631E-03    -192.507E-03     9.51267E-03    -107.892E+06    -213.041E+06    -266.645E+06    -246.413E+06    -128.123E+06    -213.041E+06    -51.9230E+06         52.4321
            2062     3.30470E-03     166.868E-03         2.53934        -1.21898        -1.22948        -1.20949         2.52618        -1.22582     442.189E-03     387.121E-03    -193.023E-03    -194.098E-03    -193.733E-03     386.906E-03    -193.173E-03     12.3121E-03    -83.6501E+06    -180.334E+06    -258.076E+06    -228.751E+06    -112.975E+06    -180.334E+06    -64.3600E+06         52.6267
            2063     4.12877E-03     166.977E-03         2.52417        -1.18884        -1.20941        -1.17122         2.50654        -1.20941     507.599E-03     389.468E-03    -193.689E-03    -195.779E-03    -195.205E-03     389.145E-03    -193.940E-03     16.3504E-03    -56.0775E+06    -148.406E+06    -246.892E+06    -209.271E+06    -93.6982E+06    -148.406E+06    -75.2205E+06         52.9061
            2064     4.94970E-03     167.114E-03         2.50173        -1.15565        -1.18814        -1.13463         2.48071        -1.18814     551.567E-03     393.542E-03    -194.874E-03    -198.667E-03    -198.088E-03     393.065E-03    -194.977E-03     20.7773E-03    -33.4816E+06    -118.067E+06    -234.748E+06    -189.296E+06    -78.9337E+06    -118.067E+06    -83.3379E+06         53.2887
            2065     5.76836E-03     167.276E-03         2.47348        -1.13016        -1.16406        -1.10533         2.44865        -1.16406     593.882E-03     399.019E-03    -196.371E-03    -202.648E-03    -202.025E-03     398.395E-03    -196.371E-03     25.3095E-03    -17.0407E+06    -86.3450E+06    -216.887E+06    -165.534E+06    -68.3941E+06    -86.3450E+06    -86.3684E+06         53.7803
            2066     6.57865E-03     167.468E-03         2.43779        -1.10105        -1.13804        -1.07287         2.40961        -1.13804     628.032E-03     405.475E-03    -198.088E-03    -207.387E-03    -206.633E-03     404.721E-03    -198.088E-03     30.9758E-03    -4.42348E+06    -54.2279E+06    -192.097E+06    -139.642E+06    -56.8784E+06    -54.2279E+06    -83.5881E+06         54.3774
            2067     7.38636E-03     167.685E-03         2.38850        -1.05302        -1.10935        -1.02398         2.35947        -1.10935     628.848E-03     412.859E-03    -200.058E-03    -212.801E-03    -211.864E-03     411.922E-03    -200.058E-03     38.8173E-03     7.53704E+06    -26.7945E+06    -166.668E+06    -113.921E+06    -47.2388E+06    -24.7653E+06    -79.0956E+06         55.0736
            2068     8.18859E-03     167.931E-03         2.32617    -984.091E-03        -1.07692    -954.896E-03         2.29698        -1.07692     618.768E-03     420.558E-03    -202.187E-03    -218.370E-03    -217.197E-03     419.385E-03    -202.187E-03     47.3155E-03     24.6903E+06    -4.67255E+06    -136.178E+06    -88.5420E+06    -31.4179E+06     3.79926E+06    -70.4083E+06         55.8728
            2069     8.98605E-03     168.184E-03         2.25334    -905.016E-03        -1.04065    -877.473E-03         2.22579        -1.04065     587.118E-03     428.946E-03    -204.422E-03    -224.524E-03    -223.059E-03     427.481E-03    -204.422E-03     56.6569E-03     48.8412E+06     19.2925E+06    -101.530E+06    -65.4918E+06    -3.42577E+06     35.5212E+06    -58.5592E+06         56.8096
            2070     9.77932E-03     168.459E-03         2.16778    -822.064E-03        -1.00149    -800.381E-03         2.14610        -1.00149     505.121E-03     439.379E-03    -206.800E-03    -232.579E-03    -230.783E-03     437.583E-03    -206.800E-03     66.2892E-03     69.0836E+06     30.2332E+06    -74.0998E+06    -47.6283E+06     8.80250E+06     64.0428E+06    -46.0012E+06         57.9742
            2071     10.5676E-03     168.732E-03         2.08275    -744.631E-03    -960.991E-03    -728.745E-03         2.06687    -960.991E-03     422.493E-03     451.941E-03    -209.351E-03    -242.590E-03    -240.450E-03     449.801E-03    -209.351E-03     74.7849E-03     83.8384E+06     33.1436E+06    -49.9574E+06    -35.8340E+06     19.0202E+06     83.8384E+06    -29.4092E+06         59.6049
            2072     11.3503E-03     169.000E-03         2.00233    -666.476E-03    -920.582E-03    -656.597E-03         1.99245    -920.582E-03     313.684E-03     466.384E-03    -212.149E-03    -254.235E-03    -251.811E-03     463.960E-03    -212.149E-03     82.0561E-03     99.3748E+06     38.3464E+06    -31.8993E+06    -28.0463E+06     34.4933E+06     99.3748E+06    -14.9306E+06         62.3487
            2073     12.1181E-03     169.243E-03         1.93437    -588.767E-03    -881.380E-03    -582.886E-03         1.92848    -881.380E-03     241.305E-03     481.612E-03    -215.207E-03    -266.405E-03    -263.970E-03     479.178E-03    -215.207E-03     84.6867E-03     96.6498E+06     27.5622E+06    -22.3453E+06    -20.5045E+06     25.7214E+06     96.6498E+06    -8.76184E+06         67.6102
            2074     12.8806E-03     169.445E-03         1.88636    -523.057E-03    -844.208E-03    -519.569E-03         1.88288    -844.208E-03     123.836E-03     492.534E-03    -218.453E-03    -274.080E-03    -271.558E-03     490.011E-03    -218.453E-03     87.5657E-03     91.3242E+06     22.8523E+06    -16.5001E+06    -14.2318E+06     20.5840E+06     91.3242E+06    -8.48265E+06         77.1362
            2075     13.6376E-03     169.621E-03         1.85872    -475.019E-03    -809.807E-03    -473.135E-03         1.85684    -809.807E-03     84.8659E-03     490.399E-03    -221.654E-03    -268.745E-03    -266.306E-03     487.960E-03    -221.654E-03     85.5998E-03     135.144E+06     34.0941E+06    -10.4509E+06    -7.99277E+06     31.6360E+06     135.144E+06    -5.11201E+06         89.7021
            2076     813.546E-06     168.178E-03         1.98477        -1.12228        -1.15380        -1.13343         1.98360        -1.14147     101.795E-03     419.982E-03    -209.581E-03    -210.401E-03    -210.306E-03     419.919E-03    -209.612E-03    -8.31078E-03    -91.1354E+06    -146.164E+06    -156.368E+06    -148.822E+06    -98.6819E+06    -146.164E+06    -18.3220E+06         55.4764
            2077     1.62786E-03     168.212E-03         1.96751        -1.12204        -1.14085        -1.12638         1.96457        -1.13357     185.000E-03     422.379E-03    -210.733E-03    -211.645E-03    -211.379E-03     422.144E-03    -210.765E-03    -18.0963E-03    -66.7485E+06    -127.623E+06    -157.739E+06    -141.773E+06    -82.7140E+06    -127.623E+06    -32.7983E+06         55.5283
            2078     2.43762E-03     168.275E-03         1.94925        -1.11023        -1.12776        -1.10619         1.94259        -1.12514     275.729E-03     423.653E-03    -211.336E-03    -212.317E-03    -211.296E-03     423.106E-03    -211.809E-03    -28.6403E-03    -46.9336E+06    -101.723E+06    -158.495E+06    -132.237E+06    -73.1919E+06    -101.723E+06    -45.9103E+06         55.5886
            2079     3.24803E-03     168.355E-03         1.93212        -1.07967        -1.11156        -1.06852         1.92097        -1.11156     364.157E-03     423.913E-03    -211.110E-03    -212.803E-03    -210.289E-03     422.985E-03    -212.695E-03    -37.8473E-03    -26.9123E+06    -75.5645E+06    -157.827E+06    -120.751E+06    -63.9879E+06    -75.5645E+06    -57.7297E+06         55.6527
            2080     4.05680E-03     168.465E-03         1.92042        -1.04791        -1.09325        -1.03246         1.90497        -1.09325     425.416E-03     423.844E-03    -210.345E-03    -213.499E-03    -208.986E-03     422.485E-03    -213.499E-03    -44.7989E-03     -7.8354E+06    -52.3829E+06    -153.815E+06    -108.957E+06    -52.6941E+06    -52.3829E+06    -66.1773E+06         55.7299
            2081     4.86451E-03     168.603E-03         1.90458        -1.01155        -1.07198    -993.500E-03         1.88653        -1.07198     457.103E-03     424.058E-03    -209.427E-03    -214.630E-03    -208.009E-03     422.356E-03    -214.346E-03    -49.7386E-03     7.82465E+06    -33.3708E+06    -149.301E+06    -99.0713E+06    -42.4052E+06    -33.3708E+06    -72.6032E+06         55.8277
            2082     5.66699E-03     168.770E-03         1.88421    -978.477E-03        -1.04867    -958.187E-03         1.86392        -1.04867     478.769E-03     424.633E-03    -208.426E-03    -216.207E-03    -207.391E-03     422.697E-03    -215.305E-03    -51.8956E-03     15.2096E+06    -21.7562E+06    -148.610E+06    -93.0922E+06    -41.7365E+06    -20.3277E+06    -76.6962E+06         55.9423
            2083     6.47048E-03     168.963E-03         1.85322    -938.699E-03        -1.02359    -916.453E-03         1.83098        -1.02359     495.166E-03     424.710E-03    -206.914E-03    -217.796E-03    -206.329E-03     422.643E-03    -216.314E-03    -50.6717E-03     18.8351E+06    -13.8048E+06    -147.959E+06    -90.2542E+06    -41.9188E+06    -10.7554E+06    -77.9621E+06         56.0647
            2084     7.27037E-03     169.184E-03         1.80546    -875.367E-03    -995.352E-03    -853.239E-03         1.78333    -995.352E-03     483.914E-03     423.820E-03    -204.682E-03    -219.139E-03    -204.554E-03     421.806E-03    -217.253E-03    -44.9579E-03     26.5461E+06    -6.78224E+06    -145.060E+06    -89.2166E+06    -36.2403E+06     160.278E+03    -77.8278E+06         56.1988
            2085     8.07097E-03     169.429E-03         1.74865    -798.662E-03    -962.774E-03    -776.794E-03         1.72678    -962.774E-03     469.319E-03     422.800E-03    -202.374E-03    -220.426E-03    -202.937E-03     420.979E-03    -218.043E-03    -36.5425E-03     33.3611E+06     57.5408E+03    -142.482E+06    -88.2516E+06    -33.2818E+06     12.4700E+06    -76.9203E+06         56.3718
            2086     8.87228E-03     169.693E-03         1.68137    -716.218E-03    -926.071E-03    -696.125E-03         1.66128    -926.071E-03     436.333E-03     422.805E-03    -200.460E-03    -222.344E-03    -202.559E-03     421.241E-03    -218.682E-03    -24.7051E-03     42.8609E+06     12.5466E+06    -132.124E+06    -85.7803E+06    -20.4771E+06     29.5410E+06    -70.9434E+06         56.6382
            2087     9.67152E-03     169.974E-03         1.60022    -629.725E-03    -886.071E-03    -615.243E-03         1.58574    -886.071E-03     354.101E-03     423.967E-03    -199.211E-03    -224.757E-03    -203.520E-03     422.744E-03    -219.223E-03    -8.93728E-03     57.4437E+06     18.3028E+06    -115.183E+06    -79.0675E+06    -12.7718E+06     52.4029E+06    -60.1521E+06         57.1039
            2088     10.4704E-03     170.261E-03         1.51854    -549.292E-03    -843.945E-03    -539.524E-03         1.50878    -843.945E-03     281.879E-03     427.173E-03    -199.286E-03    -227.887E-03    -206.663E-03     426.314E-03    -219.650E-03     9.68987E-03     71.3856E+06     15.4282E+06    -96.2132E+06    -66.4217E+06    -14.3634E+06     71.3856E+06    -47.3840E+06         58.0139
            2089     11.2645E-03     170.549E-03         1.43770    -467.092E-03    -800.744E-03    -461.666E-03         1.43227    -800.744E-03     185.581E-03     433.756E-03    -201.532E-03    -232.224E-03    -212.907E-03     432.947E-03    -220.040E-03     30.7917E-03     92.2684E+06     23.4363E+06    -66.9599E+06    -47.6283E+06     4.10465E+06     92.2684E+06    -32.7245E+06         59.9852
            2090     12.0623E-03     170.820E-03         1.36665    -387.739E-03    -757.518E-03    -385.086E-03         1.36400    -757.518E-03     128.608E-03     445.104E-03    -206.926E-03    -238.178E-03    -223.361E-03     443.930E-03    -220.569E-03     51.8852E-03     104.308E+06     25.5255E+06    -37.4472E+06    -26.5952E+06     14.6736E+06     104.308E+06    -21.7454E+06         64.3863
            2091     12.8469E-03     171.061E-03         1.31564    -326.503E-03    -716.061E-03    -323.916E-03         1.31305    -716.061E-03     35.3867E-03     459.370E-03    -215.679E-03    -243.691E-03    -236.055E-03     457.549E-03    -221.494E-03     70.3546E-03     111.946E+06     10.2410E+06    -16.3123E+06    -11.3656E+06     5.29429E+06     111.946E+06    -9.04846E+06         73.1652
            2092     13.6264E-03     171.244E-03         1.28924    -289.234E-03    -678.882E-03    -287.173E-03         1.28718    -678.882E-03     21.8140E-03     465.667E-03    -222.215E-03    -243.452E-03    -240.969E-03     463.786E-03    -222.817E-03     72.5701E-03     149.884E+06     25.0900E+06    -3.90798E+06    -1.30338E+06     22.4854E+06     149.884E+06     319.497E+03         85.8238
            2093     789.868E-06     169.737E-03         1.45082        -1.10787        -1.14807        -1.12833         1.45027        -1.12706     32.0417E-03     493.226E-03    -245.779E-03    -247.447E-03    -246.245E-03     492.744E-03    -246.499E-03    -32.7866E-03    -2.17116E+06    -19.6558E+06    -59.8190E+06    -21.3543E+06    -42.1288E+06    -18.1629E+06    -14.7151E+06         59.5756
            2094     1.57213E-03     169.779E-03         1.43456        -1.09659        -1.12247        -1.09512         1.43297        -1.12236     43.7598E-03     493.401E-03    -245.496E-03    -247.905E-03    -244.758E-03     492.020E-03    -247.263E-03    -59.0836E-03     11.8948E+06    -12.3260E+06    -59.0157E+06    -20.0233E+06    -33.5199E+06    -5.90369E+06    -22.2751E+06         59.5664
            2095     2.35619E-03     169.839E-03         1.40247        -1.05888        -1.10858        -1.05581         1.39939        -1.10858     48.3268E-03     493.020E-03    -245.088E-03    -247.932E-03    -242.470E-03     490.240E-03    -247.770E-03    -85.7811E-03     25.9976E+06     64.2585E+03    -60.0173E+06    -17.3566E+06    -28.9278E+06     12.3289E+06    -29.2060E+06         59.5290
            2096     3.13923E-03     169.918E-03         1.37373        -1.00735        -1.09089        -1.00248         1.36886        -1.09089     107.366E-03     491.998E-03    -243.704E-03    -248.294E-03    -239.064E-03     487.358E-03    -248.294E-03    -111.160E-03     39.8812E+06     10.2550E+06    -59.5220E+06    -15.6275E+06    -22.9785E+06     29.2202E+06    -35.2311E+06         59.4433
            2097     3.92089E-03     170.024E-03         1.34828    -951.115E-03        -1.06965    -944.002E-03         1.34117        -1.06965     122.072E-03     489.248E-03    -240.485E-03    -248.763E-03    -233.685E-03     482.448E-03    -248.763E-03    -134.137E-03     52.2241E+06     16.8002E+06    -59.3475E+06    -14.9815E+06    -19.4411E+06     44.0994E+06    -38.7240E+06         59.2914
            2098     4.70313E-03     170.152E-03         1.31672    -887.027E-03        -1.04550    -878.486E-03         1.30818        -1.04550     121.967E-03     484.061E-03    -235.050E-03    -249.011E-03    -225.972E-03     474.983E-03    -249.011E-03    -152.928E-03     62.1434E+06     21.2023E+06    -57.2405E+06    -15.7975E+06    -14.0968E+06     55.9995E+06    -39.4950E+06         59.0644
            2099     5.48841E-03     170.314E-03         1.28365    -817.541E-03        -1.01849    -808.749E-03         1.27485        -1.01849     135.634E-03     477.238E-03    -228.259E-03    -248.980E-03    -217.072E-03     466.051E-03    -248.980E-03    -166.781E-03     66.9491E+06     21.6855E+06    -57.6387E+06    -18.0528E+06    -15.5263E+06     64.5750E+06    -38.3182E+06         58.7612
            2100     6.27276E-03     170.496E-03         1.24087    -735.553E-03    -988.046E-03    -726.546E-03         1.23186    -988.046E-03     143.098E-03     469.181E-03    -220.513E-03    -248.668E-03    -207.420E-03     456.088E-03    -248.668E-03    -176.502E-03     71.5207E+06     21.0255E+06    -58.9500E+06    -20.8454E+06    -17.0791E+06     71.5207E+06    -38.1246E+06         58.3799
            2101     7.06172E-03     170.706E-03         1.18413    -641.519E-03    -952.982E-03    -632.702E-03         1.17531    -952.982E-03     142.938E-03     458.336E-03    -210.377E-03    -247.959E-03    -195.727E-03     443.686E-03    -247.959E-03    -180.911E-03     78.7954E+06     20.4393E+06    -58.1384E+06    -22.9677E+06    -14.7314E+06     78.7954E+06    -37.2200E+06         57.9256
            2102     7.85603E-03     170.935E-03         1.12411    -547.252E-03    -913.201E-03    -538.825E-03         1.11569    -913.201E-03     155.938E-03     445.371E-03    -198.630E-03    -246.741E-03    -183.407E-03     430.148E-03    -246.741E-03    -177.550E-03     85.9006E+06     18.3522E+06    -57.2167E+06    -24.7120E+06    -14.1525E+06     85.9006E+06    -35.3813E+06         57.4314
            2103     8.65390E-03     171.191E-03         1.05754    -452.873E-03    -869.330E-03    -445.411E-03         1.05007    -869.330E-03     151.241E-03     431.928E-03    -186.918E-03    -245.009E-03    -172.044E-03     417.053E-03    -245.009E-03    -167.824E-03     91.0333E+06     15.6163E+06    -55.9028E+06    -26.8351E+06    -13.4513E+06     91.0333E+06    -33.8632E+06         56.9633
            2104     9.46171E-03     171.457E-03     983.170E-03    -360.734E-03    -821.863E-03    -355.768E-03     978.204E-03    -821.863E-03     118.796E-03     417.867E-03    -175.113E-03    -242.754E-03    -161.442E-03     404.197E-03    -242.754E-03    -150.886E-03     95.6959E+06     13.9322E+06    -53.7518E+06    -29.2921E+06    -10.5275E+06     95.6959E+06    -30.7153E+06         56.6388
            2105     10.2774E-03     171.744E-03     913.331E-03    -279.831E-03    -771.625E-03    -276.791E-03     910.291E-03    -771.625E-03     96.2645E-03     404.515E-03    -164.540E-03    -239.975E-03    -152.842E-03     392.817E-03    -239.975E-03    -126.048E-03     98.0687E+06     9.00075E+06    -55.8396E+06    -31.3812E+06    -15.4576E+06     98.0687E+06    -29.5749E+06         56.7131
            2106     11.1079E-03     172.030E-03     845.136E-03    -204.282E-03    -719.591E-03    -202.678E-03     843.532E-03    -719.591E-03     54.0387E-03     394.451E-03    -157.668E-03    -236.783E-03    -148.293E-03     385.076E-03    -236.783E-03    -96.1019E-03     103.981E+06     11.8148E+06    -53.3058E+06    -30.4121E+06    -11.0788E+06     103.981E+06    -28.9263E+06         57.7727
            2107     11.9388E-03     172.319E-03     783.996E-03    -142.598E-03    -667.107E-03    -141.848E-03     783.247E-03    -667.107E-03     33.4391E-03     389.047E-03    -155.673E-03    -233.374E-03    -148.898E-03     382.273E-03    -233.374E-03    -61.8848E-03     113.058E+06     18.1204E+06    -43.2868E+06    -28.9598E+06     3.79341E+06     113.058E+06    -23.7713E+06         61.0994
            2108     12.7787E-03     172.584E-03     733.554E-03    -101.053E-03    -616.432E-03    -98.9272E-03     731.428E-03    -616.432E-03    -15.8082E-03     390.106E-03    -160.115E-03    -229.992E-03    -156.018E-03     386.010E-03    -229.992E-03    -22.4584E-03     113.667E+06     1.54781E+06    -38.6963E+06    -22.0136E+06    -15.1348E+06     113.667E+06    -12.7762E+06         68.6972
            2109     13.6077E-03     172.811E-03     695.426E-03    -79.7092E-03    -570.948E-03    -77.2422E-03     692.959E-03    -570.948E-03    -11.8955E-03     393.804E-03    -165.445E-03    -228.359E-03    -165.276E-03     392.060E-03    -226.784E-03     11.2786E-03     126.036E+06     21.6164E+06    -21.7055E+06    -7.07461E+06     6.98553E+06     126.036E+06    -4.30739E+06         80.6317


